# vtk DataFile Version 3.0
ElmerSolver output; started at 2023/07/13 11:16:16
ASCII
DATASET UNSTRUCTURED_GRID
POINTS 2363 double
 -1.0500000E-001  8.5000000E-002 0.0
 -1.0000000E-001 -6.0000000E-002 0.0
 -1.0000000E-001 -5.5000000E-002 0.0
 -1.0500000E-001  7.5000000E-002 0.0
 -1.0000000E-001  7.5000000E-002 0.0
 -1.0000000E-001  8.0000000E-002 0.0
 -1.0500000E-001  8.0000000E-002 0.0
 -1.0000000E-001  8.5000000E-002 0.0
 -1.0000000E-001  9.0000000E-002 0.0
 -9.5000000E-002 -6.5000000E-002 0.0
 -9.5000000E-002 -6.0000000E-002 0.0
 -9.5000000E-002 -5.5000000E-002 0.0
 -9.5000000E-002 -5.0000000E-002 0.0
 -1.0000000E-001 -5.0000000E-002 0.0
 -1.0000000E-001  7.0000000E-002 0.0
 -9.5000000E-002  7.0000000E-002 0.0
 -9.5000000E-002  7.5000000E-002 0.0
 -9.5000000E-002  8.0000000E-002 0.0
 -9.5000000E-002  8.5000000E-002 0.0
 -9.5000000E-002  9.0000000E-002 0.0
 -9.5000000E-002  9.5000000E-002 0.0
 -9.0000000E-002 -7.0000000E-002 0.0
 -9.0000000E-002 -6.5000000E-002 0.0
 -9.0000000E-002 -6.0000000E-002 0.0
 -9.0000000E-002 -5.5000000E-002 0.0
 -9.0000000E-002 -5.0000000E-002 0.0
 -9.0000000E-002 -4.5000000E-002 0.0
 -9.5000000E-002 -4.5000000E-002 0.0
 -9.0000000E-002 -4.0000000E-002 0.0
 -9.5000000E-002 -4.0000000E-002 0.0
 -9.0000000E-002 -3.5000000E-002 0.0
 -9.5000000E-002 -3.5000000E-002 0.0
 -9.0000000E-002 -3.0000000E-002 0.0
 -9.5000000E-002 -3.0000000E-002 0.0
 -9.5000000E-002  6.0000000E-002 0.0
 -9.0000000E-002  6.0000000E-002 0.0
 -9.0000000E-002  6.5000000E-002 0.0
 -9.5000000E-002  6.5000000E-002 0.0
 -9.0000000E-002  7.0000000E-002 0.0
 -9.0000000E-002  7.5000000E-002 0.0
 -9.0000000E-002  8.0000000E-002 0.0
 -9.0000000E-002  8.5000000E-002 0.0
 -9.0000000E-002  9.0000000E-002 0.0
 -9.0000000E-002  9.5000000E-002 0.0
 -9.0000000E-002  1.0000000E-001 0.0
 -8.5000000E-002 -7.5000000E-002 0.0
 -8.5000000E-002 -7.0000000E-002 0.0
 -8.5000000E-002 -6.5000000E-002 0.0
 -8.5000000E-002 -6.0000000E-002 0.0
 -8.5000000E-002 -5.5000000E-002 0.0
 -8.5000000E-002 -5.0000000E-002 0.0
 -8.5000000E-002 -4.5000000E-002 0.0
 -8.5000000E-002 -4.0000000E-002 0.0
 -8.5000000E-002 -3.5000000E-002 0.0
 -8.5000000E-002 -3.0000000E-002 0.0
 -8.5000000E-002 -2.5000000E-002 0.0
 -9.0000000E-002 -2.5000000E-002 0.0
 -8.5000000E-002 -2.0000000E-002 0.0
 -9.0000000E-002 -2.0000000E-002 0.0
 -8.5000000E-002 -1.5000000E-002 0.0
 -9.0000000E-002 -1.5000000E-002 0.0
 -8.5000000E-002 -1.0000000E-002 0.0
 -9.0000000E-002 -1.0000000E-002 0.0
 -8.5000000E-002 -5.0000000E-003 0.0
 -9.0000000E-002 -5.0000000E-003 0.0
 -8.5000000E-002  0.0000000E+000 0.0
 -9.0000000E-002  0.0000000E+000 0.0
 -9.0000000E-002  5.5000000E-002 0.0
 -8.5000000E-002  5.5000000E-002 0.0
 -8.5000000E-002  6.0000000E-002 0.0
 -8.5000000E-002  6.5000000E-002 0.0
 -8.5000000E-002  7.0000000E-002 0.0
 -8.5000000E-002  7.5000000E-002 0.0
 -8.5000000E-002  8.0000000E-002 0.0
 -8.5000000E-002  8.5000000E-002 0.0
 -8.5000000E-002  9.0000000E-002 0.0
 -8.5000000E-002  9.5000000E-002 0.0
 -8.5000000E-002  1.0000000E-001 0.0
 -8.5000000E-002  1.0500000E-001 0.0
 -8.0000000E-002 -8.0000000E-002 0.0
 -8.0000000E-002 -7.5000000E-002 0.0
 -8.0000000E-002 -7.0000000E-002 0.0
 -8.0000000E-002 -6.5000000E-002 0.0
 -8.0000000E-002 -6.0000000E-002 0.0
 -8.0000000E-002 -5.5000000E-002 0.0
 -8.0000000E-002 -5.0000000E-002 0.0
 -8.0000000E-002 -4.5000000E-002 0.0
 -8.0000000E-002 -4.0000000E-002 0.0
 -8.0000000E-002 -3.5000000E-002 0.0
 -8.0000000E-002 -3.0000000E-002 0.0
 -8.0000000E-002 -2.5000000E-002 0.0
 -8.0000000E-002 -2.0000000E-002 0.0
 -8.0000000E-002 -1.5000000E-002 0.0
 -8.0000000E-002 -1.0000000E-002 0.0
 -8.0000000E-002 -5.0000000E-003 0.0
 -8.0000000E-002  0.0000000E+000 0.0
 -8.0000000E-002  5.0000000E-003 0.0
 -8.5000000E-002  5.0000000E-003 0.0
 -8.5000000E-002  4.5000000E-002 0.0
 -8.0000000E-002  4.5000000E-002 0.0
 -8.0000000E-002  5.0000000E-002 0.0
 -8.5000000E-002  5.0000000E-002 0.0
 -8.0000000E-002  5.5000000E-002 0.0
 -8.0000000E-002  6.0000000E-002 0.0
 -8.0000000E-002  6.5000000E-002 0.0
 -3.6500000E-001 -2.0500000E-001 0.0
 -3.6500000E-001 -2.0000000E-001 0.0
 -3.6500000E-001 -1.9500000E-001 0.0
 -3.6500000E-001 -1.9000000E-001 0.0
 -3.6500000E-001 -1.8500000E-001 0.0
 -3.6500000E-001 -1.8000000E-001 0.0
 -3.6500000E-001 -1.7500000E-001 0.0
 -3.6500000E-001 -1.7000000E-001 0.0
 -3.6500000E-001 -1.6500000E-001 0.0
 -3.6500000E-001 -1.6000000E-001 0.0
 -3.6500000E-001 -1.5500000E-001 0.0
 -3.6500000E-001 -1.5000000E-001 0.0
 -3.6500000E-001 -1.4500000E-001 0.0
 -3.6500000E-001 -1.4000000E-001 0.0
 -3.6500000E-001 -1.3500000E-001 0.0
 -3.6500000E-001 -1.3000000E-001 0.0
 -3.6500000E-001 -1.2500000E-001 0.0
 -3.6500000E-001 -1.2000000E-001 0.0
 -3.6000000E-001 -2.3500000E-001 0.0
 -3.6000000E-001 -2.3000000E-001 0.0
 -3.6000000E-001 -2.2500000E-001 0.0
 -3.6000000E-001 -2.2000000E-001 0.0
 -3.6000000E-001 -2.1500000E-001 0.0
 -3.6000000E-001 -2.1000000E-001 0.0
 -3.6000000E-001 -2.0500000E-001 0.0
 -3.6000000E-001 -2.0000000E-001 0.0
 -3.6000000E-001 -1.9500000E-001 0.0
 -3.6000000E-001 -1.9000000E-001 0.0
 -3.6000000E-001 -1.8500000E-001 0.0
 -3.6000000E-001 -1.8000000E-001 0.0
 -3.6000000E-001 -1.7500000E-001 0.0
 -3.6000000E-001 -1.7000000E-001 0.0
 -3.6000000E-001 -1.6500000E-001 0.0
 -3.6000000E-001 -1.6000000E-001 0.0
 -3.6000000E-001 -1.5500000E-001 0.0
 -3.6000000E-001 -1.5000000E-001 0.0
 -3.6000000E-001 -1.4500000E-001 0.0
 -3.6000000E-001 -1.4000000E-001 0.0
 -3.6000000E-001 -1.3500000E-001 0.0
 -3.6000000E-001 -1.3000000E-001 0.0
 -3.6000000E-001 -1.2500000E-001 0.0
 -3.6000000E-001 -1.2000000E-001 0.0
 -3.5500000E-001 -2.3500000E-001 0.0
 -3.5500000E-001 -2.3000000E-001 0.0
 -3.5500000E-001 -2.2500000E-001 0.0
 -3.5500000E-001 -2.2000000E-001 0.0
 -3.5500000E-001 -2.1500000E-001 0.0
 -3.5500000E-001 -2.1000000E-001 0.0
 -3.5500000E-001 -2.0500000E-001 0.0
 -3.5500000E-001 -2.0000000E-001 0.0
 -3.5500000E-001 -1.9500000E-001 0.0
 -3.5500000E-001 -1.9000000E-001 0.0
 -3.5500000E-001 -1.8500000E-001 0.0
 -3.5500000E-001 -1.8000000E-001 0.0
 -3.5500000E-001 -1.7500000E-001 0.0
 -3.5500000E-001 -1.7000000E-001 0.0
 -3.5500000E-001 -1.6500000E-001 0.0
 -3.5500000E-001 -1.6000000E-001 0.0
 -3.5500000E-001 -1.5500000E-001 0.0
 -3.5500000E-001 -1.5000000E-001 0.0
 -3.5500000E-001 -1.4500000E-001 0.0
 -3.5500000E-001 -1.4000000E-001 0.0
 -3.5500000E-001 -1.3500000E-001 0.0
 -3.5500000E-001 -1.3000000E-001 0.0
 -3.5500000E-001 -1.2500000E-001 0.0
 -3.5500000E-001 -1.2000000E-001 0.0
 -3.5000000E-001 -2.3500000E-001 0.0
 -3.5000000E-001 -2.3000000E-001 0.0
 -3.5000000E-001 -2.2500000E-001 0.0
 -3.5000000E-001 -2.2000000E-001 0.0
 -3.5000000E-001 -2.1500000E-001 0.0
 -3.5000000E-001 -2.1000000E-001 0.0
 -3.5000000E-001 -2.0500000E-001 0.0
 -3.5000000E-001 -2.0000000E-001 0.0
 -3.5000000E-001 -1.9500000E-001 0.0
 -3.5000000E-001 -1.9000000E-001 0.0
 -3.5000000E-001 -1.8500000E-001 0.0
 -3.5000000E-001 -1.8000000E-001 0.0
 -3.5000000E-001 -1.7500000E-001 0.0
 -3.5000000E-001 -1.7000000E-001 0.0
 -3.5000000E-001 -1.6500000E-001 0.0
 -3.5000000E-001 -1.6000000E-001 0.0
 -3.5000000E-001 -1.5500000E-001 0.0
 -3.5000000E-001 -1.5000000E-001 0.0
 -3.5000000E-001 -1.4500000E-001 0.0
 -3.5000000E-001 -1.4000000E-001 0.0
 -3.5000000E-001 -1.3500000E-001 0.0
 -3.5000000E-001 -1.3000000E-001 0.0
 -3.5000000E-001 -1.2500000E-001 0.0
 -3.5000000E-001 -1.2000000E-001 0.0
 -3.4500000E-001 -2.3000000E-001 0.0
 -3.4500000E-001 -2.2500000E-001 0.0
 -3.4500000E-001 -2.2000000E-001 0.0
 -3.4500000E-001 -2.1500000E-001 0.0
 -3.4500000E-001 -2.1000000E-001 0.0
 -3.4500000E-001 -2.0500000E-001 0.0
 -3.4500000E-001 -2.0000000E-001 0.0
 -3.4500000E-001 -1.9500000E-001 0.0
 -3.4500000E-001 -1.9000000E-001 0.0
 -3.4500000E-001 -1.8500000E-001 0.0
 -3.4500000E-001 -1.8000000E-001 0.0
 -3.4500000E-001 -1.7500000E-001 0.0
 -3.4500000E-001 -1.7000000E-001 0.0
 -3.4500000E-001 -1.6500000E-001 0.0
 -3.4500000E-001 -1.6000000E-001 0.0
 -3.4500000E-001 -1.5500000E-001 0.0
 -3.4500000E-001 -1.5000000E-001 0.0
 -3.4500000E-001 -1.4500000E-001 0.0
  1.6000000E-001 -2.5000000E-002 0.0
  1.6000000E-001 -2.0000000E-002 0.0
  1.6000000E-001 -1.5000000E-002 0.0
  1.6500000E-001 -1.2000000E-001 0.0
  1.6500000E-001 -1.1500000E-001 0.0
  1.6500000E-001 -1.1000000E-001 0.0
  1.6500000E-001 -1.0500000E-001 0.0
  1.6500000E-001 -1.0000000E-001 0.0
  1.6500000E-001 -9.5000000E-002 0.0
  1.6500000E-001 -9.0000000E-002 0.0
  1.6500000E-001 -8.5000000E-002 0.0
  1.6500000E-001 -8.0000000E-002 0.0
  1.6500000E-001 -7.5000000E-002 0.0
  1.6500000E-001 -7.0000000E-002 0.0
  1.6500000E-001 -6.5000000E-002 0.0
  1.6500000E-001 -6.0000000E-002 0.0
  1.6500000E-001 -5.5000000E-002 0.0
  1.6500000E-001 -5.0000000E-002 0.0
  1.6500000E-001 -4.5000000E-002 0.0
  1.6500000E-001 -4.0000000E-002 0.0
  1.6500000E-001 -3.5000000E-002 0.0
  1.6500000E-001 -3.0000000E-002 0.0
  1.6500000E-001 -2.5000000E-002 0.0
  1.6500000E-001 -2.0000000E-002 0.0
  1.6500000E-001 -1.5000000E-002 0.0
  1.6500000E-001 -1.0000000E-002 0.0
  1.7000000E-001 -1.2000000E-001 0.0
  1.7000000E-001 -1.1500000E-001 0.0
  1.7000000E-001 -1.1000000E-001 0.0
  1.7000000E-001 -1.0500000E-001 0.0
  1.7000000E-001 -1.0000000E-001 0.0
  1.7000000E-001 -9.5000000E-002 0.0
  1.7000000E-001 -9.0000000E-002 0.0
  1.7000000E-001 -8.5000000E-002 0.0
  1.7000000E-001 -8.0000000E-002 0.0
  1.7000000E-001 -7.5000000E-002 0.0
  1.7000000E-001 -7.0000000E-002 0.0
  1.7000000E-001 -6.5000000E-002 0.0
  1.7000000E-001 -6.0000000E-002 0.0
  1.7000000E-001 -5.5000000E-002 0.0
  1.7000000E-001 -5.0000000E-002 0.0
  1.7000000E-001 -4.5000000E-002 0.0
  1.7000000E-001 -4.0000000E-002 0.0
  1.7000000E-001 -3.5000000E-002 0.0
  1.7000000E-001 -3.0000000E-002 0.0
  1.7000000E-001 -2.5000000E-002 0.0
  1.7000000E-001 -2.0000000E-002 0.0
  1.7000000E-001 -1.5000000E-002 0.0
  1.7000000E-001 -1.0000000E-002 0.0
  1.7000000E-001 -5.0000000E-003 0.0
  1.7500000E-001 -1.2000000E-001 0.0
  1.7500000E-001 -1.1500000E-001 0.0
  1.7500000E-001 -1.1000000E-001 0.0
  1.7500000E-001 -1.0500000E-001 0.0
  1.7500000E-001 -1.0000000E-001 0.0
  1.7500000E-001 -9.5000000E-002 0.0
  1.7500000E-001 -9.0000000E-002 0.0
  1.7500000E-001 -8.5000000E-002 0.0
  1.7500000E-001 -8.0000000E-002 0.0
  1.7500000E-001 -7.5000000E-002 0.0
  1.7500000E-001 -7.0000000E-002 0.0
  1.7500000E-001 -6.5000000E-002 0.0
  1.7500000E-001 -6.0000000E-002 0.0
  1.7500000E-001 -5.5000000E-002 0.0
  1.7500000E-001 -5.0000000E-002 0.0
  1.7500000E-001 -4.5000000E-002 0.0
  1.7500000E-001 -4.0000000E-002 0.0
  1.7500000E-001 -3.5000000E-002 0.0
  1.7500000E-001 -3.0000000E-002 0.0
  1.7500000E-001 -2.5000000E-002 0.0
  1.7500000E-001 -2.0000000E-002 0.0
  1.7500000E-001 -1.5000000E-002 0.0
  1.7500000E-001 -1.0000000E-002 0.0
  1.7500000E-001 -5.0000000E-003 0.0
  1.7500000E-001  0.0000000E+000 0.0
  1.8000000E-001 -1.2000000E-001 0.0
  1.8000000E-001 -1.1500000E-001 0.0
  1.8000000E-001 -1.1000000E-001 0.0
  1.8000000E-001 -1.0500000E-001 0.0
  1.8000000E-001 -1.0000000E-001 0.0
  1.8000000E-001 -9.5000000E-002 0.0
  1.8000000E-001 -9.0000000E-002 0.0
  1.8000000E-001 -8.5000000E-002 0.0
  1.8000000E-001 -8.0000000E-002 0.0
  1.8000000E-001 -7.5000000E-002 0.0
  1.8000000E-001 -7.0000000E-002 0.0
  1.8000000E-001 -6.5000000E-002 0.0
  1.8000000E-001 -6.0000000E-002 0.0
  1.8000000E-001 -5.5000000E-002 0.0
  1.8000000E-001 -5.0000000E-002 0.0
  1.8000000E-001 -4.5000000E-002 0.0
  1.8000000E-001 -4.0000000E-002 0.0
  1.8000000E-001 -3.5000000E-002 0.0
  1.8000000E-001 -3.0000000E-002 0.0
  1.8000000E-001 -2.5000000E-002 0.0
  1.8000000E-001 -2.0000000E-002 0.0
  1.8000000E-001 -1.5000000E-002 0.0
  1.8000000E-001 -1.0000000E-002 0.0
  1.8000000E-001 -5.0000000E-003 0.0
  1.8000000E-001  0.0000000E+000 0.0
  1.8500000E-001 -1.2000000E-001 0.0
  1.8500000E-001 -1.1500000E-001 0.0
  1.8500000E-001 -1.1000000E-001 0.0
  1.8500000E-001 -1.0500000E-001 0.0
  1.8500000E-001 -1.0000000E-001 0.0
  1.8500000E-001 -9.5000000E-002 0.0
  1.8500000E-001 -9.0000000E-002 0.0
  1.8500000E-001 -8.5000000E-002 0.0
  1.8500000E-001 -8.0000000E-002 0.0
  1.8500000E-001 -7.5000000E-002 0.0
  1.8500000E-001 -7.0000000E-002 0.0
  1.8500000E-001 -6.5000000E-002 0.0
  1.8500000E-001 -6.0000000E-002 0.0
  1.8500000E-001 -5.5000000E-002 0.0
  1.8500000E-001 -5.0000000E-002 0.0
  1.8500000E-001 -4.5000000E-002 0.0
  1.8500000E-001 -4.0000000E-002 0.0
  1.8500000E-001 -3.5000000E-002 0.0
  1.8500000E-001 -3.0000000E-002 0.0
  1.8500000E-001 -2.5000000E-002 0.0
  1.8500000E-001 -2.0000000E-002 0.0
  1.8500000E-001 -1.5000000E-002 0.0
  1.8500000E-001 -1.0000000E-002 0.0
  1.8500000E-001 -5.0000000E-003 0.0
  1.8500000E-001  0.0000000E+000 0.0
  1.9000000E-001 -1.2000000E-001 0.0
  1.9000000E-001 -1.1500000E-001 0.0
  1.9000000E-001 -1.1000000E-001 0.0
  1.9000000E-001 -1.0500000E-001 0.0
  1.9000000E-001 -1.0000000E-001 0.0
  1.9000000E-001 -9.5000000E-002 0.0
  1.9000000E-001 -9.0000000E-002 0.0
  1.9000000E-001 -8.5000000E-002 0.0
  1.9000000E-001 -8.0000000E-002 0.0
  1.9000000E-001 -7.5000000E-002 0.0
  1.9000000E-001 -7.0000000E-002 0.0
  1.9000000E-001 -6.5000000E-002 0.0
  1.9000000E-001 -6.0000000E-002 0.0
  1.9000000E-001 -5.5000000E-002 0.0
  1.9000000E-001 -5.0000000E-002 0.0
  1.9000000E-001 -4.5000000E-002 0.0
  1.9000000E-001 -4.0000000E-002 0.0
  1.9000000E-001 -3.5000000E-002 0.0
  1.9000000E-001 -3.0000000E-002 0.0
  1.9000000E-001 -2.5000000E-002 0.0
  1.9000000E-001 -2.0000000E-002 0.0
  1.9000000E-001 -1.5000000E-002 0.0
  1.9000000E-001 -1.0000000E-002 0.0
  1.9000000E-001 -5.0000000E-003 0.0
  1.9000000E-001  0.0000000E+000 0.0
  1.9500000E-001 -1.2000000E-001 0.0
  1.9500000E-001 -1.1500000E-001 0.0
  1.9500000E-001 -1.1000000E-001 0.0
  1.9500000E-001 -1.0500000E-001 0.0
  1.9500000E-001 -1.0000000E-001 0.0
  1.9500000E-001 -9.5000000E-002 0.0
  1.9500000E-001 -9.0000000E-002 0.0
  1.9500000E-001 -8.5000000E-002 0.0
  1.9500000E-001 -8.0000000E-002 0.0
  1.9500000E-001 -7.5000000E-002 0.0
  1.9500000E-001 -7.0000000E-002 0.0
  1.9500000E-001 -6.5000000E-002 0.0
  1.9500000E-001 -6.0000000E-002 0.0
  1.9500000E-001 -5.5000000E-002 0.0
  1.9500000E-001 -5.0000000E-002 0.0
  1.9500000E-001 -4.5000000E-002 0.0
  1.9500000E-001 -4.0000000E-002 0.0
  1.9500000E-001 -3.5000000E-002 0.0
  1.9500000E-001 -3.0000000E-002 0.0
  1.9500000E-001 -2.5000000E-002 0.0
  1.9500000E-001 -2.0000000E-002 0.0
  1.9500000E-001 -1.5000000E-002 0.0
  1.9500000E-001 -1.0000000E-002 0.0
  1.9500000E-001 -5.0000000E-003 0.0
  1.9500000E-001  0.0000000E+000 0.0
  2.0000000E-001 -1.2000000E-001 0.0
  2.0000000E-001 -1.1500000E-001 0.0
  2.0000000E-001 -1.1000000E-001 0.0
  2.0000000E-001 -1.0500000E-001 0.0
  2.0000000E-001 -1.0000000E-001 0.0
  2.0000000E-001 -9.5000000E-002 0.0
  2.0000000E-001 -9.0000000E-002 0.0
  2.0000000E-001 -8.5000000E-002 0.0
  2.0000000E-001 -8.0000000E-002 0.0
  2.0000000E-001 -7.5000000E-002 0.0
  2.0000000E-001 -7.0000000E-002 0.0
  2.0000000E-001 -6.5000000E-002 0.0
  2.0000000E-001 -6.0000000E-002 0.0
  2.0000000E-001 -5.5000000E-002 0.0
  2.0000000E-001 -5.0000000E-002 0.0
  2.0000000E-001 -4.5000000E-002 0.0
  2.0000000E-001 -4.0000000E-002 0.0
  2.0000000E-001 -3.5000000E-002 0.0
  2.0000000E-001 -3.0000000E-002 0.0
  2.0000000E-001 -2.5000000E-002 0.0
  2.0000000E-001 -2.0000000E-002 0.0
  2.0000000E-001 -1.5000000E-002 0.0
  2.0000000E-001 -1.0000000E-002 0.0
  2.0000000E-001 -5.0000000E-003 0.0
  2.0000000E-001  0.0000000E+000 0.0
  2.0500000E-001 -1.2000000E-001 0.0
  2.0500000E-001 -1.1500000E-001 0.0
  2.0500000E-001 -1.1000000E-001 0.0
  2.0500000E-001 -1.0500000E-001 0.0
  2.0500000E-001 -1.0000000E-001 0.0
  2.0500000E-001 -9.5000000E-002 0.0
  2.0500000E-001 -9.0000000E-002 0.0
  2.0500000E-001 -8.5000000E-002 0.0
  2.0500000E-001 -8.0000000E-002 0.0
  2.0500000E-001 -7.5000000E-002 0.0
  2.0500000E-001 -7.0000000E-002 0.0
  2.0500000E-001 -6.5000000E-002 0.0
  2.0500000E-001 -6.0000000E-002 0.0
  2.0500000E-001 -5.5000000E-002 0.0
  2.0500000E-001 -5.0000000E-002 0.0
  2.0500000E-001 -4.5000000E-002 0.0
  2.0500000E-001 -4.0000000E-002 0.0
  2.0500000E-001 -3.5000000E-002 0.0
  2.0500000E-001 -3.0000000E-002 0.0
  2.0500000E-001 -2.5000000E-002 0.0
  2.0500000E-001 -2.0000000E-002 0.0
  2.0500000E-001 -1.5000000E-002 0.0
  2.0500000E-001 -1.0000000E-002 0.0
  2.0500000E-001 -5.0000000E-003 0.0
  2.0500000E-001  0.0000000E+000 0.0
  2.1000000E-001 -1.2000000E-001 0.0
  2.1000000E-001 -1.1500000E-001 0.0
  2.1000000E-001 -1.1000000E-001 0.0
  2.1000000E-001 -1.0500000E-001 0.0
  2.1000000E-001 -1.0000000E-001 0.0
  2.1000000E-001 -9.5000000E-002 0.0
  2.1000000E-001 -9.0000000E-002 0.0
  2.1000000E-001 -8.5000000E-002 0.0
  2.1000000E-001 -8.0000000E-002 0.0
  2.1000000E-001 -7.5000000E-002 0.0
  2.1000000E-001 -7.0000000E-002 0.0
  2.1000000E-001 -6.5000000E-002 0.0
  2.1000000E-001 -6.0000000E-002 0.0
  2.1000000E-001 -5.5000000E-002 0.0
  2.1000000E-001 -5.0000000E-002 0.0
  2.1000000E-001 -4.5000000E-002 0.0
  2.1000000E-001 -4.0000000E-002 0.0
  2.1000000E-001 -3.5000000E-002 0.0
  2.1000000E-001 -3.0000000E-002 0.0
  2.1000000E-001 -2.5000000E-002 0.0
  2.1000000E-001 -2.0000000E-002 0.0
  2.1000000E-001 -1.5000000E-002 0.0
  2.1000000E-001 -1.0000000E-002 0.0
  2.1000000E-001 -5.0000000E-003 0.0
  2.1000000E-001  0.0000000E+000 0.0
  2.1000000E-001  5.0000000E-003 0.0
  2.0500000E-001  5.0000000E-003 0.0
  2.1500000E-001 -1.2000000E-001 0.0
  2.1500000E-001 -1.1500000E-001 0.0
  2.1500000E-001 -1.1000000E-001 0.0
  2.1500000E-001 -1.0500000E-001 0.0
  2.1500000E-001 -1.0000000E-001 0.0
  2.1500000E-001 -9.5000000E-002 0.0
  2.1500000E-001 -9.0000000E-002 0.0
  2.1500000E-001 -8.5000000E-002 0.0
  2.1500000E-001 -8.0000000E-002 0.0
  2.1500000E-001 -7.5000000E-002 0.0
  2.1500000E-001 -7.0000000E-002 0.0
  2.1500000E-001 -6.5000000E-002 0.0
  2.1500000E-001 -6.0000000E-002 0.0
  2.1500000E-001 -5.5000000E-002 0.0
  2.1500000E-001 -5.0000000E-002 0.0
  2.1500000E-001 -4.5000000E-002 0.0
  2.1500000E-001 -4.0000000E-002 0.0
  2.1500000E-001 -3.5000000E-002 0.0
  2.1500000E-001 -3.0000000E-002 0.0
  2.1500000E-001 -2.5000000E-002 0.0
  2.1500000E-001 -2.0000000E-002 0.0
  2.1500000E-001 -1.5000000E-002 0.0
  2.1500000E-001 -1.0000000E-002 0.0
  2.1500000E-001 -5.0000000E-003 0.0
  2.1500000E-001  0.0000000E+000 0.0
  2.1500000E-001  5.0000000E-003 0.0
  2.1500000E-001  1.0000000E-002 0.0
  2.1000000E-001  1.0000000E-002 0.0
  2.2000000E-001 -1.2000000E-001 0.0
  2.2000000E-001 -1.1500000E-001 0.0
  2.2000000E-001 -1.1000000E-001 0.0
  2.2000000E-001 -1.0500000E-001 0.0
  2.2000000E-001 -1.0000000E-001 0.0
  2.2000000E-001 -9.5000000E-002 0.0
  2.2000000E-001 -9.0000000E-002 0.0
  2.2000000E-001 -8.5000000E-002 0.0
  2.2000000E-001 -8.0000000E-002 0.0
  2.2000000E-001 -7.5000000E-002 0.0
  2.2000000E-001 -7.0000000E-002 0.0
  2.2000000E-001 -6.5000000E-002 0.0
  2.2000000E-001 -6.0000000E-002 0.0
  2.2000000E-001 -5.5000000E-002 0.0
  2.2000000E-001 -5.0000000E-002 0.0
  2.2000000E-001 -4.5000000E-002 0.0
  2.2000000E-001 -4.0000000E-002 0.0
  2.2000000E-001 -3.5000000E-002 0.0
  2.2000000E-001 -3.0000000E-002 0.0
  2.2000000E-001 -2.5000000E-002 0.0
  2.2000000E-001 -2.0000000E-002 0.0
  2.2000000E-001 -1.5000000E-002 0.0
  2.2000000E-001 -1.0000000E-002 0.0
  2.2000000E-001 -5.0000000E-003 0.0
  2.2000000E-001  0.0000000E+000 0.0
  2.2000000E-001  5.0000000E-003 0.0
  2.2000000E-001  1.0000000E-002 0.0
  2.2000000E-001  1.5000000E-002 0.0
  2.1500000E-001  1.5000000E-002 0.0
  2.2500000E-001 -1.2000000E-001 0.0
  2.2500000E-001 -1.1500000E-001 0.0
  2.2500000E-001 -1.1000000E-001 0.0
  2.2500000E-001 -1.0500000E-001 0.0
  2.2500000E-001 -1.0000000E-001 0.0
  2.2500000E-001 -9.5000000E-002 0.0
  2.2500000E-001 -9.0000000E-002 0.0
  2.2500000E-001 -8.5000000E-002 0.0
  2.2500000E-001 -8.0000000E-002 0.0
  2.2500000E-001 -7.5000000E-002 0.0
  2.2500000E-001 -7.0000000E-002 0.0
  2.2500000E-001 -6.5000000E-002 0.0
  2.2500000E-001 -6.0000000E-002 0.0
  2.2500000E-001 -5.5000000E-002 0.0
  2.2500000E-001 -5.0000000E-002 0.0
  2.2500000E-001 -4.5000000E-002 0.0
  2.2500000E-001 -4.0000000E-002 0.0
  2.2500000E-001 -3.5000000E-002 0.0
  2.2500000E-001 -3.0000000E-002 0.0
  2.2500000E-001 -2.5000000E-002 0.0
  2.2500000E-001 -2.0000000E-002 0.0
  2.2500000E-001 -1.5000000E-002 0.0
  2.2500000E-001 -1.0000000E-002 0.0
  2.2500000E-001 -5.0000000E-003 0.0
  2.2500000E-001  0.0000000E+000 0.0
  2.2500000E-001  5.0000000E-003 0.0
  2.2500000E-001  1.0000000E-002 0.0
  2.2500000E-001  1.5000000E-002 0.0
  2.2500000E-001  2.0000000E-002 0.0
  2.2000000E-001  2.0000000E-002 0.0
  2.3000000E-001 -1.2000000E-001 0.0
  2.3000000E-001 -1.1500000E-001 0.0
  2.3000000E-001 -1.1000000E-001 0.0
  2.3000000E-001 -1.0500000E-001 0.0
  2.3000000E-001 -1.0000000E-001 0.0
  2.3000000E-001 -9.5000000E-002 0.0
  2.3000000E-001 -9.0000000E-002 0.0
  2.3000000E-001 -8.5000000E-002 0.0
  2.3000000E-001 -8.0000000E-002 0.0
  2.3000000E-001 -7.5000000E-002 0.0
  2.3000000E-001 -7.0000000E-002 0.0
  2.3000000E-001 -6.5000000E-002 0.0
  2.3000000E-001 -6.0000000E-002 0.0
  2.3000000E-001 -5.5000000E-002 0.0
  2.3000000E-001 -5.0000000E-002 0.0
  2.3000000E-001 -4.5000000E-002 0.0
  2.3000000E-001 -4.0000000E-002 0.0
  2.3000000E-001 -3.5000000E-002 0.0
  2.3000000E-001 -3.0000000E-002 0.0
  2.3000000E-001 -2.5000000E-002 0.0
  2.3000000E-001 -2.0000000E-002 0.0
  2.3000000E-001 -1.5000000E-002 0.0
  2.3000000E-001 -1.0000000E-002 0.0
  2.3000000E-001 -5.0000000E-003 0.0
  2.3000000E-001  0.0000000E+000 0.0
  2.3000000E-001  5.0000000E-003 0.0
  2.3000000E-001  1.0000000E-002 0.0
  2.3000000E-001  1.5000000E-002 0.0
  2.3000000E-001  2.0000000E-002 0.0
  2.3000000E-001  2.5000000E-002 0.0
  2.2500000E-001  2.5000000E-002 0.0
  2.3500000E-001 -1.2000000E-001 0.0
  2.3500000E-001 -1.1500000E-001 0.0
  2.3500000E-001 -1.1000000E-001 0.0
  2.3500000E-001 -1.0500000E-001 0.0
  2.3500000E-001 -1.0000000E-001 0.0
  2.3500000E-001 -9.5000000E-002 0.0
  2.3500000E-001 -9.0000000E-002 0.0
  2.3500000E-001 -8.5000000E-002 0.0
  2.3500000E-001 -8.0000000E-002 0.0
  2.3500000E-001 -7.5000000E-002 0.0
  2.3500000E-001 -7.0000000E-002 0.0
  2.3500000E-001 -6.5000000E-002 0.0
  2.3500000E-001 -6.0000000E-002 0.0
  2.3500000E-001 -5.5000000E-002 0.0
  2.3500000E-001 -5.0000000E-002 0.0
  2.3500000E-001 -4.5000000E-002 0.0
  2.3500000E-001 -4.0000000E-002 0.0
  2.3500000E-001 -3.5000000E-002 0.0
  2.3500000E-001 -3.0000000E-002 0.0
  2.3500000E-001 -2.5000000E-002 0.0
  2.3500000E-001 -2.0000000E-002 0.0
  2.3500000E-001 -1.5000000E-002 0.0
  2.3500000E-001 -1.0000000E-002 0.0
  2.3500000E-001 -5.0000000E-003 0.0
  2.3500000E-001  0.0000000E+000 0.0
  2.3500000E-001  5.0000000E-003 0.0
  2.3500000E-001  1.0000000E-002 0.0
  2.3500000E-001  1.5000000E-002 0.0
  2.3500000E-001  2.0000000E-002 0.0
  2.3500000E-001  2.5000000E-002 0.0
  2.3500000E-001  3.0000000E-002 0.0
  2.3000000E-001  3.0000000E-002 0.0
  2.3500000E-001  3.5000000E-002 0.0
  2.3000000E-001  3.5000000E-002 0.0
  2.3500000E-001  4.0000000E-002 0.0
  2.3000000E-001  4.0000000E-002 0.0
  2.3500000E-001  4.5000000E-002 0.0
  2.3000000E-001  4.5000000E-002 0.0
  2.4000000E-001 -1.2000000E-001 0.0
  2.4000000E-001 -1.1500000E-001 0.0
  2.4000000E-001 -1.1000000E-001 0.0
  2.4000000E-001 -1.0500000E-001 0.0
  2.4000000E-001 -1.0000000E-001 0.0
  2.4000000E-001 -9.5000000E-002 0.0
  2.4000000E-001 -9.0000000E-002 0.0
  2.4000000E-001 -8.5000000E-002 0.0
  2.4000000E-001 -8.0000000E-002 0.0
  2.4000000E-001 -7.5000000E-002 0.0
  2.4000000E-001 -7.0000000E-002 0.0
  2.4000000E-001 -6.5000000E-002 0.0
  2.4000000E-001 -6.0000000E-002 0.0
  2.4000000E-001 -5.5000000E-002 0.0
  2.4000000E-001 -5.0000000E-002 0.0
  2.4000000E-001 -4.5000000E-002 0.0
  2.4000000E-001 -4.0000000E-002 0.0
  2.4000000E-001 -3.5000000E-002 0.0
  2.4000000E-001 -3.0000000E-002 0.0
  2.4000000E-001 -2.5000000E-002 0.0
  2.4000000E-001 -2.0000000E-002 0.0
  2.4000000E-001 -1.5000000E-002 0.0
  2.4000000E-001 -1.0000000E-002 0.0
  2.4000000E-001 -5.0000000E-003 0.0
  2.4000000E-001  0.0000000E+000 0.0
  2.4000000E-001  5.0000000E-003 0.0
  2.4000000E-001  1.0000000E-002 0.0
  2.4000000E-001  1.5000000E-002 0.0
  2.4000000E-001  2.0000000E-002 0.0
  2.4000000E-001  2.5000000E-002 0.0
  2.4000000E-001  3.0000000E-002 0.0
  2.4000000E-001  3.5000000E-002 0.0
  2.4000000E-001  4.0000000E-002 0.0
  2.4000000E-001  4.5000000E-002 0.0
  2.4500000E-001 -1.2000000E-001 0.0
  2.4500000E-001 -1.1500000E-001 0.0
  2.4500000E-001 -1.1000000E-001 0.0
  2.4500000E-001 -1.0500000E-001 0.0
  2.4500000E-001 -1.0000000E-001 0.0
  2.4500000E-001 -9.5000000E-002 0.0
  2.4500000E-001 -9.0000000E-002 0.0
  2.4500000E-001 -8.5000000E-002 0.0
  2.4500000E-001 -8.0000000E-002 0.0
  2.4500000E-001 -7.5000000E-002 0.0
  2.4500000E-001 -7.0000000E-002 0.0
  2.4500000E-001 -6.5000000E-002 0.0
  2.4500000E-001 -6.0000000E-002 0.0
  2.4500000E-001 -5.5000000E-002 0.0
  2.4500000E-001 -5.0000000E-002 0.0
  2.4500000E-001 -4.5000000E-002 0.0
  2.4500000E-001 -4.0000000E-002 0.0
  2.4500000E-001 -3.5000000E-002 0.0
  2.4500000E-001 -3.0000000E-002 0.0
  2.4500000E-001 -2.5000000E-002 0.0
  2.4500000E-001 -2.0000000E-002 0.0
  2.4500000E-001 -1.5000000E-002 0.0
  2.4500000E-001 -1.0000000E-002 0.0
  2.4500000E-001 -5.0000000E-003 0.0
  2.4500000E-001  0.0000000E+000 0.0
  2.4500000E-001  5.0000000E-003 0.0
  2.4500000E-001  1.0000000E-002 0.0
  2.4500000E-001  1.5000000E-002 0.0
  2.4500000E-001  2.0000000E-002 0.0
  2.4500000E-001  2.5000000E-002 0.0
  2.4500000E-001  3.0000000E-002 0.0
  2.4500000E-001  3.5000000E-002 0.0
  2.4500000E-001  4.0000000E-002 0.0
  2.4500000E-001  4.5000000E-002 0.0
  2.5000000E-001 -1.2000000E-001 0.0
  2.5000000E-001 -1.1500000E-001 0.0
  2.5000000E-001 -1.1000000E-001 0.0
  2.5000000E-001 -1.0500000E-001 0.0
  2.5000000E-001 -1.0000000E-001 0.0
  2.5000000E-001 -9.5000000E-002 0.0
  2.5000000E-001 -9.0000000E-002 0.0
  2.5000000E-001 -8.5000000E-002 0.0
  2.5000000E-001 -8.0000000E-002 0.0
  2.5000000E-001 -7.5000000E-002 0.0
  2.5000000E-001 -7.0000000E-002 0.0
  2.5000000E-001 -6.5000000E-002 0.0
  2.5000000E-001 -6.0000000E-002 0.0
  2.5000000E-001 -5.5000000E-002 0.0
  2.5000000E-001 -5.0000000E-002 0.0
  2.5000000E-001 -4.5000000E-002 0.0
  2.5000000E-001 -4.0000000E-002 0.0
  2.5000000E-001 -3.5000000E-002 0.0
  2.5000000E-001 -3.0000000E-002 0.0
  2.5000000E-001 -2.5000000E-002 0.0
  2.5000000E-001 -2.0000000E-002 0.0
  2.5000000E-001 -1.5000000E-002 0.0
  2.5000000E-001 -1.0000000E-002 0.0
  2.5000000E-001 -5.0000000E-003 0.0
  2.5000000E-001  0.0000000E+000 0.0
  2.5000000E-001  5.0000000E-003 0.0
  2.5000000E-001  1.0000000E-002 0.0
  2.5000000E-001  1.5000000E-002 0.0
  2.5000000E-001  2.0000000E-002 0.0
  2.5000000E-001  2.5000000E-002 0.0
  2.5000000E-001  3.0000000E-002 0.0
  2.5000000E-001  3.5000000E-002 0.0
  2.5000000E-001  4.0000000E-002 0.0
  2.5000000E-001  4.5000000E-002 0.0
  2.5500000E-001 -1.2000000E-001 0.0
  2.5500000E-001 -1.1500000E-001 0.0
  2.5500000E-001 -1.1000000E-001 0.0
  2.5500000E-001 -1.0500000E-001 0.0
  2.5500000E-001 -1.0000000E-001 0.0
  2.5500000E-001 -9.5000000E-002 0.0
  2.5500000E-001 -9.0000000E-002 0.0
  2.5500000E-001 -8.5000000E-002 0.0
  2.5500000E-001 -8.0000000E-002 0.0
  2.5500000E-001 -7.5000000E-002 0.0
  2.5500000E-001 -7.0000000E-002 0.0
  2.5500000E-001 -6.5000000E-002 0.0
  2.5500000E-001 -6.0000000E-002 0.0
  2.5500000E-001 -5.5000000E-002 0.0
  2.5500000E-001 -5.0000000E-002 0.0
  2.5500000E-001 -4.5000000E-002 0.0
  2.5500000E-001 -4.0000000E-002 0.0
  2.5500000E-001 -3.5000000E-002 0.0
  2.5500000E-001 -3.0000000E-002 0.0
  2.5500000E-001 -2.5000000E-002 0.0
  2.5500000E-001 -2.0000000E-002 0.0
  2.5500000E-001 -1.5000000E-002 0.0
  2.5500000E-001 -1.0000000E-002 0.0
  2.5500000E-001 -5.0000000E-003 0.0
  2.5500000E-001  0.0000000E+000 0.0
  2.5500000E-001  5.0000000E-003 0.0
  2.5500000E-001  1.0000000E-002 0.0
  2.5500000E-001  1.5000000E-002 0.0
  2.5500000E-001  2.0000000E-002 0.0
  2.5500000E-001  2.5000000E-002 0.0
  2.5500000E-001  3.0000000E-002 0.0
  2.5500000E-001  3.5000000E-002 0.0
  2.5500000E-001  4.0000000E-002 0.0
  2.5500000E-001  4.5000000E-002 0.0
  2.6000000E-001 -1.2000000E-001 0.0
  2.6000000E-001 -1.1500000E-001 0.0
  2.6000000E-001 -1.1000000E-001 0.0
  2.6000000E-001 -1.0500000E-001 0.0
  2.6000000E-001 -1.0000000E-001 0.0
  2.6000000E-001 -9.5000000E-002 0.0
  2.6000000E-001 -9.0000000E-002 0.0
  2.6000000E-001 -8.5000000E-002 0.0
  2.6000000E-001 -8.0000000E-002 0.0
  2.6000000E-001 -7.5000000E-002 0.0
  2.6000000E-001 -7.0000000E-002 0.0
  2.6000000E-001 -6.5000000E-002 0.0
  2.6000000E-001 -6.0000000E-002 0.0
  2.6000000E-001 -5.5000000E-002 0.0
  2.6000000E-001 -5.0000000E-002 0.0
  2.6000000E-001 -4.5000000E-002 0.0
  2.6000000E-001 -4.0000000E-002 0.0
  2.6000000E-001 -3.5000000E-002 0.0
  2.6000000E-001 -3.0000000E-002 0.0
  2.6000000E-001 -2.5000000E-002 0.0
  2.6000000E-001 -2.0000000E-002 0.0
  2.6000000E-001 -1.5000000E-002 0.0
  2.6000000E-001 -1.0000000E-002 0.0
  2.6000000E-001 -5.0000000E-003 0.0
  2.6000000E-001  0.0000000E+000 0.0
  2.6000000E-001  5.0000000E-003 0.0
  2.6000000E-001  1.0000000E-002 0.0
  2.6000000E-001  1.5000000E-002 0.0
  2.6000000E-001  2.0000000E-002 0.0
  2.6000000E-001  2.5000000E-002 0.0
  2.6000000E-001  3.0000000E-002 0.0
  2.6000000E-001  3.5000000E-002 0.0
  2.6000000E-001  4.0000000E-002 0.0
  2.6000000E-001  4.5000000E-002 0.0
  2.6500000E-001 -1.2000000E-001 0.0
  2.6500000E-001 -1.1500000E-001 0.0
  2.6500000E-001 -1.1000000E-001 0.0
  2.6500000E-001 -1.0500000E-001 0.0
  2.6500000E-001 -1.0000000E-001 0.0
  2.6500000E-001 -9.5000000E-002 0.0
  2.6500000E-001 -9.0000000E-002 0.0
  2.6500000E-001 -8.5000000E-002 0.0
  2.6500000E-001 -8.0000000E-002 0.0
  2.6500000E-001 -7.5000000E-002 0.0
  2.6500000E-001 -7.0000000E-002 0.0
  2.6500000E-001 -6.5000000E-002 0.0
  2.6500000E-001 -6.0000000E-002 0.0
  2.6500000E-001 -5.5000000E-002 0.0
  2.6500000E-001 -5.0000000E-002 0.0
  2.6500000E-001 -4.5000000E-002 0.0
  2.6500000E-001 -4.0000000E-002 0.0
  2.6500000E-001 -3.5000000E-002 0.0
  2.6500000E-001 -3.0000000E-002 0.0
  2.6500000E-001 -2.5000000E-002 0.0
  2.6500000E-001 -2.0000000E-002 0.0
  2.6500000E-001 -1.5000000E-002 0.0
  2.6500000E-001 -1.0000000E-002 0.0
  2.6500000E-001 -5.0000000E-003 0.0
  2.6500000E-001  0.0000000E+000 0.0
  2.6500000E-001  5.0000000E-003 0.0
  2.6500000E-001  1.0000000E-002 0.0
  2.6500000E-001  1.5000000E-002 0.0
  2.6500000E-001  2.0000000E-002 0.0
  2.6500000E-001  2.5000000E-002 0.0
  2.6500000E-001  3.0000000E-002 0.0
  2.6500000E-001  3.5000000E-002 0.0
  2.6500000E-001  4.0000000E-002 0.0
  2.6500000E-001  4.5000000E-002 0.0
  2.6500000E-001  5.0000000E-002 0.0
  2.7000000E-001 -1.2000000E-001 0.0
  2.7000000E-001 -1.1500000E-001 0.0
  2.7000000E-001 -1.1000000E-001 0.0
  2.7000000E-001 -1.0500000E-001 0.0
  2.7000000E-001 -1.0000000E-001 0.0
  2.7000000E-001 -9.5000000E-002 0.0
  2.7000000E-001 -9.0000000E-002 0.0
  2.7000000E-001 -8.5000000E-002 0.0
  2.7000000E-001 -8.0000000E-002 0.0
  2.7000000E-001 -7.5000000E-002 0.0
  2.7000000E-001 -7.0000000E-002 0.0
  2.7000000E-001 -6.5000000E-002 0.0
  2.7000000E-001 -6.0000000E-002 0.0
  2.7000000E-001 -5.5000000E-002 0.0
  2.7000000E-001 -5.0000000E-002 0.0
  2.7000000E-001 -4.5000000E-002 0.0
  2.7000000E-001 -4.0000000E-002 0.0
  2.7000000E-001 -3.5000000E-002 0.0
  2.7000000E-001 -3.0000000E-002 0.0
  2.7000000E-001 -2.5000000E-002 0.0
  2.7000000E-001 -2.0000000E-002 0.0
  2.7000000E-001 -1.5000000E-002 0.0
  2.7000000E-001 -1.0000000E-002 0.0
  2.7000000E-001 -5.0000000E-003 0.0
  2.7000000E-001  0.0000000E+000 0.0
  2.7000000E-001  5.0000000E-003 0.0
  2.7000000E-001  1.0000000E-002 0.0
  2.7000000E-001  1.5000000E-002 0.0
  2.7000000E-001  2.0000000E-002 0.0
  2.7000000E-001  2.5000000E-002 0.0
  2.7000000E-001  3.0000000E-002 0.0
  2.7000000E-001  3.5000000E-002 0.0
  2.7000000E-001  4.0000000E-002 0.0
  2.7000000E-001  4.5000000E-002 0.0
  2.7000000E-001  5.0000000E-002 0.0
  2.7000000E-001  5.5000000E-002 0.0
  2.7500000E-001 -1.2000000E-001 0.0
  2.7500000E-001 -1.1500000E-001 0.0
  2.7500000E-001 -1.1000000E-001 0.0
  2.7500000E-001 -1.0500000E-001 0.0
  2.7500000E-001 -1.0000000E-001 0.0
  2.7500000E-001 -9.5000000E-002 0.0
  2.7500000E-001 -9.0000000E-002 0.0
  2.7500000E-001 -8.5000000E-002 0.0
  2.7500000E-001 -8.0000000E-002 0.0
  2.7500000E-001 -7.5000000E-002 0.0
  2.7500000E-001 -7.0000000E-002 0.0
  2.7500000E-001 -6.5000000E-002 0.0
  2.7500000E-001 -6.0000000E-002 0.0
  2.7500000E-001 -5.5000000E-002 0.0
  2.7500000E-001 -5.0000000E-002 0.0
  2.7500000E-001 -4.5000000E-002 0.0
  2.7500000E-001 -4.0000000E-002 0.0
  2.7500000E-001 -3.5000000E-002 0.0
  2.7500000E-001 -3.0000000E-002 0.0
  2.7500000E-001 -2.5000000E-002 0.0
  2.7500000E-001 -2.0000000E-002 0.0
  2.7500000E-001 -1.5000000E-002 0.0
  2.7500000E-001 -1.0000000E-002 0.0
  2.7500000E-001 -5.0000000E-003 0.0
  2.7500000E-001  0.0000000E+000 0.0
  2.7500000E-001  5.0000000E-003 0.0
  2.7500000E-001  1.0000000E-002 0.0
  2.7500000E-001  1.5000000E-002 0.0
  2.7500000E-001  2.0000000E-002 0.0
  2.7500000E-001  2.5000000E-002 0.0
  2.7500000E-001  3.0000000E-002 0.0
  2.7500000E-001  3.5000000E-002 0.0
  2.7500000E-001  4.0000000E-002 0.0
  2.7500000E-001  4.5000000E-002 0.0
  2.7500000E-001  5.0000000E-002 0.0
  2.7500000E-001  5.5000000E-002 0.0
  2.7500000E-001  6.0000000E-002 0.0
  2.8000000E-001 -1.2000000E-001 0.0
  2.8000000E-001 -1.1500000E-001 0.0
  2.8000000E-001 -1.1000000E-001 0.0
  2.8000000E-001 -1.0500000E-001 0.0
  2.8000000E-001 -1.0000000E-001 0.0
  2.8000000E-001 -9.5000000E-002 0.0
  2.8000000E-001 -9.0000000E-002 0.0
  2.8000000E-001 -8.5000000E-002 0.0
  2.8000000E-001 -8.0000000E-002 0.0
  2.8000000E-001 -7.5000000E-002 0.0
  2.8000000E-001 -7.0000000E-002 0.0
  2.8000000E-001 -6.5000000E-002 0.0
  2.8000000E-001 -6.0000000E-002 0.0
  2.8000000E-001 -5.5000000E-002 0.0
  2.8000000E-001 -5.0000000E-002 0.0
  2.8000000E-001 -4.5000000E-002 0.0
  2.8000000E-001 -4.0000000E-002 0.0
  2.8000000E-001 -3.5000000E-002 0.0
  2.8000000E-001 -3.0000000E-002 0.0
  2.8000000E-001 -2.5000000E-002 0.0
  2.8000000E-001 -2.0000000E-002 0.0
  2.8000000E-001 -1.5000000E-002 0.0
  2.8000000E-001 -1.0000000E-002 0.0
  2.8000000E-001 -5.0000000E-003 0.0
  2.8000000E-001  0.0000000E+000 0.0
  2.8000000E-001  5.0000000E-003 0.0
  2.8000000E-001  1.0000000E-002 0.0
  2.8000000E-001  1.5000000E-002 0.0
  2.8000000E-001  2.0000000E-002 0.0
  2.8000000E-001  2.5000000E-002 0.0
  2.8000000E-001  3.0000000E-002 0.0
  2.8000000E-001  3.5000000E-002 0.0
  2.8000000E-001  4.0000000E-002 0.0
  2.8000000E-001  4.5000000E-002 0.0
  2.8000000E-001  5.0000000E-002 0.0
  2.8000000E-001  5.5000000E-002 0.0
  2.8000000E-001  6.0000000E-002 0.0
  2.8000000E-001  6.5000000E-002 0.0
  2.8500000E-001 -1.2000000E-001 0.0
  2.8500000E-001 -1.1500000E-001 0.0
  2.8500000E-001 -1.1000000E-001 0.0
  2.8500000E-001 -1.0500000E-001 0.0
  2.8500000E-001 -1.0000000E-001 0.0
  2.8500000E-001 -9.5000000E-002 0.0
  2.8500000E-001 -9.0000000E-002 0.0
  2.8500000E-001 -8.5000000E-002 0.0
  2.8500000E-001 -8.0000000E-002 0.0
  2.8500000E-001 -7.5000000E-002 0.0
  2.8500000E-001 -7.0000000E-002 0.0
  2.8500000E-001 -6.5000000E-002 0.0
  2.8500000E-001 -6.0000000E-002 0.0
  2.8500000E-001 -5.5000000E-002 0.0
  2.8500000E-001 -5.0000000E-002 0.0
  2.8500000E-001 -4.5000000E-002 0.0
  2.8500000E-001 -4.0000000E-002 0.0
  2.8500000E-001 -3.5000000E-002 0.0
  2.8500000E-001 -3.0000000E-002 0.0
  2.8500000E-001 -2.5000000E-002 0.0
  2.8500000E-001 -2.0000000E-002 0.0
  2.8500000E-001 -1.5000000E-002 0.0
  2.8500000E-001 -1.0000000E-002 0.0
  2.8500000E-001 -5.0000000E-003 0.0
  2.8500000E-001  0.0000000E+000 0.0
  2.8500000E-001  5.0000000E-003 0.0
  2.8500000E-001  1.0000000E-002 0.0
  2.8500000E-001  1.5000000E-002 0.0
  2.8500000E-001  2.0000000E-002 0.0
  2.8500000E-001  2.5000000E-002 0.0
  2.8500000E-001  3.0000000E-002 0.0
  2.8500000E-001  3.5000000E-002 0.0
  2.8500000E-001  4.0000000E-002 0.0
  2.8500000E-001  4.5000000E-002 0.0
  2.8500000E-001  5.0000000E-002 0.0
  2.8500000E-001  5.5000000E-002 0.0
  2.8500000E-001  6.0000000E-002 0.0
  2.8500000E-001  6.5000000E-002 0.0
  2.8500000E-001  7.0000000E-002 0.0
  2.9000000E-001 -1.1500000E-001 0.0
  2.9000000E-001 -1.1000000E-001 0.0
  2.9000000E-001 -1.0500000E-001 0.0
  2.9000000E-001 -1.0000000E-001 0.0
  2.9000000E-001 -9.5000000E-002 0.0
  2.9000000E-001 -9.0000000E-002 0.0
  2.9000000E-001 -8.5000000E-002 0.0
  2.9000000E-001 -8.0000000E-002 0.0
  2.9000000E-001 -7.5000000E-002 0.0
  2.9000000E-001 -7.0000000E-002 0.0
  2.9000000E-001 -6.5000000E-002 0.0
  2.9000000E-001 -6.0000000E-002 0.0
  2.9000000E-001 -5.5000000E-002 0.0
  2.9000000E-001 -5.0000000E-002 0.0
  2.9000000E-001 -4.5000000E-002 0.0
  2.9000000E-001 -4.0000000E-002 0.0
  2.9000000E-001 -3.5000000E-002 0.0
  2.9000000E-001 -3.0000000E-002 0.0
  2.9000000E-001 -2.5000000E-002 0.0
  2.9000000E-001 -2.0000000E-002 0.0
  2.9000000E-001 -1.5000000E-002 0.0
  2.9000000E-001 -1.0000000E-002 0.0
  2.9000000E-001 -5.0000000E-003 0.0
  2.9000000E-001  0.0000000E+000 0.0
  2.9000000E-001  5.0000000E-003 0.0
  2.9000000E-001  1.0000000E-002 0.0
  2.9000000E-001  1.5000000E-002 0.0
  2.9000000E-001  2.0000000E-002 0.0
  2.9000000E-001  2.5000000E-002 0.0
  2.9000000E-001  3.0000000E-002 0.0
  2.9000000E-001  3.5000000E-002 0.0
  2.9000000E-001  4.0000000E-002 0.0
  2.9000000E-001  4.5000000E-002 0.0
  2.9000000E-001  5.0000000E-002 0.0
  2.9000000E-001  5.5000000E-002 0.0
  2.9000000E-001  6.0000000E-002 0.0
  2.9000000E-001  6.5000000E-002 0.0
  2.9000000E-001  7.0000000E-002 0.0
  2.9500000E-001 -1.1500000E-001 0.0
  2.9500000E-001 -1.1000000E-001 0.0
  2.9500000E-001 -1.0500000E-001 0.0
  2.9500000E-001 -1.0000000E-001 0.0
  2.9500000E-001 -9.5000000E-002 0.0
  2.9500000E-001 -9.0000000E-002 0.0
  2.9500000E-001 -8.5000000E-002 0.0
  2.9500000E-001 -8.0000000E-002 0.0
  2.9500000E-001 -7.5000000E-002 0.0
  2.9500000E-001 -7.0000000E-002 0.0
  2.9500000E-001 -6.5000000E-002 0.0
  2.9500000E-001 -6.0000000E-002 0.0
  2.9500000E-001 -5.5000000E-002 0.0
  2.9500000E-001 -5.0000000E-002 0.0
  2.9500000E-001 -4.5000000E-002 0.0
  2.9500000E-001 -4.0000000E-002 0.0
  2.9500000E-001 -3.5000000E-002 0.0
  2.9500000E-001 -3.0000000E-002 0.0
  2.9500000E-001 -2.5000000E-002 0.0
  2.9500000E-001 -2.0000000E-002 0.0
  2.9500000E-001 -1.5000000E-002 0.0
  2.9500000E-001 -1.0000000E-002 0.0
  2.9500000E-001 -5.0000000E-003 0.0
  2.9500000E-001  0.0000000E+000 0.0
  2.9500000E-001  5.0000000E-003 0.0
  2.9500000E-001  1.0000000E-002 0.0
  2.9500000E-001  1.5000000E-002 0.0
  2.9500000E-001  2.0000000E-002 0.0
  2.9500000E-001  2.5000000E-002 0.0
  2.9500000E-001  3.0000000E-002 0.0
  2.9500000E-001  3.5000000E-002 0.0
  2.9500000E-001  4.0000000E-002 0.0
  2.9500000E-001  4.5000000E-002 0.0
  2.9500000E-001  5.0000000E-002 0.0
  2.9500000E-001  5.5000000E-002 0.0
  2.9500000E-001  6.0000000E-002 0.0
  2.9500000E-001  6.5000000E-002 0.0
  2.9500000E-001  7.0000000E-002 0.0
  2.9500000E-001  7.5000000E-002 0.0
  3.0000000E-001 -1.1500000E-001 0.0
  3.0000000E-001 -1.1000000E-001 0.0
  3.0000000E-001 -1.0500000E-001 0.0
  3.0000000E-001 -1.0000000E-001 0.0
  3.0000000E-001 -9.5000000E-002 0.0
  3.0000000E-001 -9.0000000E-002 0.0
  3.0000000E-001 -8.5000000E-002 0.0
  3.0000000E-001 -8.0000000E-002 0.0
  3.0000000E-001 -7.5000000E-002 0.0
  3.0000000E-001 -7.0000000E-002 0.0
  3.0000000E-001 -6.5000000E-002 0.0
  3.0000000E-001 -6.0000000E-002 0.0
  3.0000000E-001 -5.5000000E-002 0.0
  3.0000000E-001 -5.0000000E-002 0.0
  3.0000000E-001 -4.5000000E-002 0.0
  3.0000000E-001 -4.0000000E-002 0.0
  3.0000000E-001 -3.5000000E-002 0.0
  3.0000000E-001 -3.0000000E-002 0.0
  3.0000000E-001 -2.5000000E-002 0.0
  3.0000000E-001 -2.0000000E-002 0.0
  3.0000000E-001 -1.5000000E-002 0.0
  3.0000000E-001 -1.0000000E-002 0.0
  3.0000000E-001 -5.0000000E-003 0.0
  3.0000000E-001  0.0000000E+000 0.0
  3.0000000E-001  5.0000000E-003 0.0
  3.0000000E-001  1.0000000E-002 0.0
  3.0000000E-001  1.5000000E-002 0.0
  3.0000000E-001  2.0000000E-002 0.0
  3.0000000E-001  2.5000000E-002 0.0
  3.0000000E-001  3.0000000E-002 0.0
  3.0000000E-001  3.5000000E-002 0.0
  3.0000000E-001  4.0000000E-002 0.0
  3.0000000E-001  4.5000000E-002 0.0
  3.0000000E-001  5.0000000E-002 0.0
  3.0000000E-001  5.5000000E-002 0.0
  3.0000000E-001  6.0000000E-002 0.0
  3.0000000E-001  6.5000000E-002 0.0
  3.0000000E-001  7.0000000E-002 0.0
  3.0000000E-001  7.5000000E-002 0.0
  3.0000000E-001  8.0000000E-002 0.0
  3.0500000E-001 -1.1000000E-001 0.0
  3.0500000E-001 -1.0500000E-001 0.0
  3.0500000E-001 -1.0000000E-001 0.0
  3.0500000E-001 -9.5000000E-002 0.0
  3.0500000E-001 -9.0000000E-002 0.0
  3.0500000E-001 -8.5000000E-002 0.0
  3.0500000E-001 -8.0000000E-002 0.0
  3.0500000E-001 -7.5000000E-002 0.0
  3.0500000E-001 -7.0000000E-002 0.0
  3.0500000E-001 -6.5000000E-002 0.0
  3.0500000E-001 -6.0000000E-002 0.0
  3.0500000E-001 -5.5000000E-002 0.0
  3.0500000E-001 -5.0000000E-002 0.0
  3.0500000E-001 -4.5000000E-002 0.0
  3.0500000E-001 -4.0000000E-002 0.0
  3.0500000E-001 -3.5000000E-002 0.0
  3.0500000E-001 -3.0000000E-002 0.0
  3.0500000E-001 -2.5000000E-002 0.0
  3.0500000E-001 -2.0000000E-002 0.0
  3.0500000E-001 -1.5000000E-002 0.0
  3.0500000E-001 -1.0000000E-002 0.0
  3.0500000E-001 -5.0000000E-003 0.0
  3.0500000E-001  0.0000000E+000 0.0
  3.0500000E-001  5.0000000E-003 0.0
  3.0500000E-001  1.0000000E-002 0.0
  3.0500000E-001  1.5000000E-002 0.0
  3.0500000E-001  2.0000000E-002 0.0
  3.0500000E-001  2.5000000E-002 0.0
  3.0500000E-001  3.0000000E-002 0.0
  3.0500000E-001  3.5000000E-002 0.0
  3.0500000E-001  4.0000000E-002 0.0
  3.0500000E-001  4.5000000E-002 0.0
  3.0500000E-001  5.0000000E-002 0.0
  3.0500000E-001  5.5000000E-002 0.0
  3.0500000E-001  6.0000000E-002 0.0
  3.0500000E-001  6.5000000E-002 0.0
  3.0500000E-001  7.0000000E-002 0.0
  3.0500000E-001  7.5000000E-002 0.0
  3.0500000E-001  8.0000000E-002 0.0
  3.0500000E-001  8.5000000E-002 0.0
  3.1000000E-001 -1.1000000E-001 0.0
  3.1000000E-001 -1.0500000E-001 0.0
  3.1000000E-001 -1.0000000E-001 0.0
  3.1000000E-001 -9.5000000E-002 0.0
  3.1000000E-001 -9.0000000E-002 0.0
  3.1000000E-001 -8.5000000E-002 0.0
  3.1000000E-001 -8.0000000E-002 0.0
  3.1000000E-001 -7.5000000E-002 0.0
  3.1000000E-001 -7.0000000E-002 0.0
  3.1000000E-001 -6.5000000E-002 0.0
  3.1000000E-001 -6.0000000E-002 0.0
  3.1000000E-001 -5.5000000E-002 0.0
  3.1000000E-001 -5.0000000E-002 0.0
  3.1000000E-001 -4.5000000E-002 0.0
  3.1000000E-001 -4.0000000E-002 0.0
  3.1000000E-001 -3.5000000E-002 0.0
  3.1000000E-001 -3.0000000E-002 0.0
  3.1000000E-001 -2.5000000E-002 0.0
  3.1000000E-001 -2.0000000E-002 0.0
  3.1000000E-001 -1.5000000E-002 0.0
  3.1000000E-001 -1.0000000E-002 0.0
  3.1000000E-001 -5.0000000E-003 0.0
  3.1000000E-001  0.0000000E+000 0.0
  3.1000000E-001  5.0000000E-003 0.0
  3.1000000E-001  1.0000000E-002 0.0
  3.1000000E-001  1.5000000E-002 0.0
  3.1000000E-001  2.0000000E-002 0.0
  3.1000000E-001  2.5000000E-002 0.0
  3.1000000E-001  3.0000000E-002 0.0
  3.1000000E-001  3.5000000E-002 0.0
  3.1000000E-001  4.0000000E-002 0.0
  3.1000000E-001  4.5000000E-002 0.0
  3.1000000E-001  5.0000000E-002 0.0
  3.1000000E-001  5.5000000E-002 0.0
  3.1000000E-001  6.0000000E-002 0.0
  3.1000000E-001  6.5000000E-002 0.0
  3.1000000E-001  7.0000000E-002 0.0
  3.1000000E-001  7.5000000E-002 0.0
  3.1000000E-001  8.0000000E-002 0.0
  3.1000000E-001  8.5000000E-002 0.0
  3.1000000E-001  9.0000000E-002 0.0
  3.1500000E-001 -1.1000000E-001 0.0
  3.1500000E-001 -1.0500000E-001 0.0
  3.1500000E-001 -1.0000000E-001 0.0
  3.1500000E-001 -9.5000000E-002 0.0
  3.1500000E-001 -9.0000000E-002 0.0
  3.1500000E-001 -8.5000000E-002 0.0
  3.1500000E-001 -8.0000000E-002 0.0
  3.1500000E-001 -7.5000000E-002 0.0
  3.1500000E-001 -7.0000000E-002 0.0
  3.1500000E-001 -6.5000000E-002 0.0
  3.1500000E-001 -6.0000000E-002 0.0
  3.1500000E-001 -5.5000000E-002 0.0
  3.1500000E-001 -5.0000000E-002 0.0
  3.1500000E-001 -4.5000000E-002 0.0
  3.1500000E-001 -4.0000000E-002 0.0
  3.1500000E-001 -3.5000000E-002 0.0
  3.1500000E-001 -3.0000000E-002 0.0
  3.1500000E-001 -2.5000000E-002 0.0
  3.1500000E-001 -2.0000000E-002 0.0
  3.1500000E-001 -1.5000000E-002 0.0
  3.1500000E-001 -1.0000000E-002 0.0
  3.1500000E-001 -5.0000000E-003 0.0
  3.1500000E-001  0.0000000E+000 0.0
  3.1500000E-001  5.0000000E-003 0.0
  3.1500000E-001  1.0000000E-002 0.0
  3.1500000E-001  1.5000000E-002 0.0
  3.1500000E-001  2.0000000E-002 0.0
  3.1500000E-001  2.5000000E-002 0.0
  3.1500000E-001  3.0000000E-002 0.0
  3.1500000E-001  3.5000000E-002 0.0
  3.1500000E-001  4.0000000E-002 0.0
  3.1500000E-001  4.5000000E-002 0.0
  3.1500000E-001  5.0000000E-002 0.0
  3.1500000E-001  5.5000000E-002 0.0
  3.1500000E-001  6.0000000E-002 0.0
  3.1500000E-001  6.5000000E-002 0.0
  3.1500000E-001  7.0000000E-002 0.0
  3.1500000E-001  7.5000000E-002 0.0
  3.1500000E-001  8.0000000E-002 0.0
  3.1500000E-001  8.5000000E-002 0.0
  3.1500000E-001  9.0000000E-002 0.0
  3.2000000E-001 -1.1000000E-001 0.0
  3.2000000E-001 -1.0500000E-001 0.0
  3.2000000E-001 -1.0000000E-001 0.0
  3.2000000E-001 -9.5000000E-002 0.0
  3.2000000E-001 -9.0000000E-002 0.0
  3.2000000E-001 -8.5000000E-002 0.0
  3.2000000E-001 -8.0000000E-002 0.0
  3.2000000E-001 -7.5000000E-002 0.0
  3.2000000E-001 -7.0000000E-002 0.0
  3.2000000E-001 -6.5000000E-002 0.0
  3.2000000E-001 -6.0000000E-002 0.0
  3.2000000E-001 -5.5000000E-002 0.0
  3.2000000E-001 -5.0000000E-002 0.0
  3.2000000E-001 -4.5000000E-002 0.0
  3.2000000E-001 -4.0000000E-002 0.0
  3.2000000E-001 -3.5000000E-002 0.0
  3.2000000E-001 -3.0000000E-002 0.0
  3.2000000E-001 -2.5000000E-002 0.0
  3.2000000E-001 -2.0000000E-002 0.0
  3.2000000E-001 -1.5000000E-002 0.0
  3.2000000E-001 -1.0000000E-002 0.0
  3.2000000E-001 -5.0000000E-003 0.0
  3.2000000E-001  0.0000000E+000 0.0
  3.2000000E-001  5.0000000E-003 0.0
  3.2000000E-001  1.0000000E-002 0.0
  3.2000000E-001  1.5000000E-002 0.0
  3.2000000E-001  2.0000000E-002 0.0
  3.2000000E-001  2.5000000E-002 0.0
  3.2000000E-001  3.0000000E-002 0.0
  3.2000000E-001  3.5000000E-002 0.0
  3.2000000E-001  4.0000000E-002 0.0
  3.2000000E-001  4.5000000E-002 0.0
  3.2000000E-001  5.0000000E-002 0.0
  3.2000000E-001  5.5000000E-002 0.0
  3.2000000E-001  6.0000000E-002 0.0
  3.2000000E-001  6.5000000E-002 0.0
  3.2000000E-001  7.0000000E-002 0.0
  3.2000000E-001  7.5000000E-002 0.0
  3.2000000E-001  8.0000000E-002 0.0
  3.2000000E-001  8.5000000E-002 0.0
  3.2000000E-001  9.0000000E-002 0.0
  3.2500000E-001 -1.0500000E-001 0.0
  3.2500000E-001 -1.0000000E-001 0.0
  3.2500000E-001 -9.5000000E-002 0.0
  3.2500000E-001 -9.0000000E-002 0.0
  3.2500000E-001 -8.5000000E-002 0.0
  3.2500000E-001 -8.0000000E-002 0.0
  3.2500000E-001 -7.5000000E-002 0.0
  3.2500000E-001 -7.0000000E-002 0.0
  3.2500000E-001 -6.5000000E-002 0.0
  3.2500000E-001 -6.0000000E-002 0.0
  3.2500000E-001 -5.5000000E-002 0.0
  3.2500000E-001 -5.0000000E-002 0.0
  3.2500000E-001 -4.5000000E-002 0.0
  3.2500000E-001 -4.0000000E-002 0.0
  3.2500000E-001 -3.5000000E-002 0.0
  3.2500000E-001 -3.0000000E-002 0.0
  3.2500000E-001 -2.5000000E-002 0.0
  3.2500000E-001 -2.0000000E-002 0.0
  3.2500000E-001 -1.5000000E-002 0.0
  3.2500000E-001 -1.0000000E-002 0.0
  3.2500000E-001 -5.0000000E-003 0.0
  3.2500000E-001  0.0000000E+000 0.0
  3.2500000E-001  5.0000000E-003 0.0
  3.2500000E-001  1.0000000E-002 0.0
  3.2500000E-001  1.5000000E-002 0.0
  3.2500000E-001  2.0000000E-002 0.0
  3.2500000E-001  2.5000000E-002 0.0
  3.2500000E-001  3.0000000E-002 0.0
  3.2500000E-001  3.5000000E-002 0.0
  3.2500000E-001  4.0000000E-002 0.0
  3.2500000E-001  4.5000000E-002 0.0
  3.2500000E-001  5.0000000E-002 0.0
  3.2500000E-001  5.5000000E-002 0.0
  3.2500000E-001  6.0000000E-002 0.0
  3.2500000E-001  6.5000000E-002 0.0
  3.2500000E-001  7.0000000E-002 0.0
  3.2500000E-001  7.5000000E-002 0.0
 -2.0000000E-001 -1.1500000E-001 0.0
 -2.0000000E-001 -1.1000000E-001 0.0
 -2.0000000E-001 -1.0500000E-001 0.0
 -2.0000000E-001 -1.0000000E-001 0.0
 -2.0000000E-001 -9.5000000E-002 0.0
 -2.0000000E-001 -9.0000000E-002 0.0
 -2.0000000E-001 -8.5000000E-002 0.0
 -2.0000000E-001 -8.0000000E-002 0.0
 -2.0000000E-001 -7.5000000E-002 0.0
 -2.0000000E-001 -7.0000000E-002 0.0
 -2.0000000E-001 -6.5000000E-002 0.0
 -2.0000000E-001 -6.0000000E-002 0.0
 -2.0000000E-001 -5.5000000E-002 0.0
 -2.0000000E-001 -5.0000000E-002 0.0
 -2.0000000E-001 -4.5000000E-002 0.0
 -2.0000000E-001 -4.0000000E-002 0.0
 -2.0000000E-001 -3.5000000E-002 0.0
 -2.0000000E-001 -3.0000000E-002 0.0
 -2.0000000E-001 -2.5000000E-002 0.0
 -2.0000000E-001 -2.0000000E-002 0.0
 -2.0000000E-001 -1.5000000E-002 0.0
 -2.0000000E-001 -1.0000000E-002 0.0
 -2.0000000E-001 -5.0000000E-003 0.0
 -2.0000000E-001  0.0000000E+000 0.0
 -2.0000000E-001  5.0000000E-003 0.0
 -2.0000000E-001  1.0000000E-002 0.0
 -2.0000000E-001  1.5000000E-002 0.0
 -2.0000000E-001  2.0000000E-002 0.0
 -2.0000000E-001  2.5000000E-002 0.0
 -2.0000000E-001  3.0000000E-002 0.0
 -2.0000000E-001  3.5000000E-002 0.0
 -2.0000000E-001  4.0000000E-002 0.0
 -2.0000000E-001  4.5000000E-002 0.0
 -2.0000000E-001  5.0000000E-002 0.0
 -2.0000000E-001  5.5000000E-002 0.0
 -2.0000000E-001  6.0000000E-002 0.0
 -2.0000000E-001  6.5000000E-002 0.0
 -2.0000000E-001  7.0000000E-002 0.0
 -2.0000000E-001  7.5000000E-002 0.0
 -2.0000000E-001  8.0000000E-002 0.0
 -1.9500000E-001 -1.7500000E-001 0.0
 -1.9500000E-001 -1.7000000E-001 0.0
 -1.9500000E-001 -1.6500000E-001 0.0
 -1.9500000E-001 -1.6000000E-001 0.0
 -1.9500000E-001 -1.5500000E-001 0.0
 -1.9500000E-001 -1.5000000E-001 0.0
 -1.9500000E-001 -1.4500000E-001 0.0
 -1.9500000E-001 -1.4000000E-001 0.0
 -1.9500000E-001 -1.3500000E-001 0.0
 -1.9500000E-001 -1.3000000E-001 0.0
 -1.9500000E-001 -1.2500000E-001 0.0
 -1.9500000E-001 -1.2000000E-001 0.0
 -1.9500000E-001 -1.1500000E-001 0.0
 -1.9500000E-001 -1.1000000E-001 0.0
 -1.9500000E-001 -1.0500000E-001 0.0
 -1.9500000E-001 -1.0000000E-001 0.0
 -1.9500000E-001 -9.5000000E-002 0.0
 -1.9500000E-001 -9.0000000E-002 0.0
 -1.9500000E-001 -8.5000000E-002 0.0
 -1.9500000E-001 -8.0000000E-002 0.0
 -1.9500000E-001 -7.5000000E-002 0.0
 -1.9500000E-001 -7.0000000E-002 0.0
 -1.9500000E-001 -6.5000000E-002 0.0
 -1.9500000E-001 -6.0000000E-002 0.0
 -1.9500000E-001 -5.5000000E-002 0.0
 -1.9500000E-001 -5.0000000E-002 0.0
 -1.9500000E-001 -4.5000000E-002 0.0
 -1.9500000E-001 -4.0000000E-002 0.0
 -1.9500000E-001 -3.5000000E-002 0.0
 -1.9500000E-001 -3.0000000E-002 0.0
 -1.9500000E-001 -2.5000000E-002 0.0
 -1.9500000E-001 -2.0000000E-002 0.0
 -1.9500000E-001 -1.5000000E-002 0.0
 -1.9500000E-001 -1.0000000E-002 0.0
 -1.9500000E-001 -5.0000000E-003 0.0
 -1.9500000E-001  0.0000000E+000 0.0
 -1.9500000E-001  5.0000000E-003 0.0
 -1.9500000E-001  1.0000000E-002 0.0
 -1.9500000E-001  1.5000000E-002 0.0
 -1.9500000E-001  2.0000000E-002 0.0
 -1.9500000E-001  2.5000000E-002 0.0
 -1.9500000E-001  3.0000000E-002 0.0
 -1.9500000E-001  3.5000000E-002 0.0
 -1.9500000E-001  4.0000000E-002 0.0
 -1.9500000E-001  4.5000000E-002 0.0
 -1.9500000E-001  5.0000000E-002 0.0
 -1.9500000E-001  5.5000000E-002 0.0
 -1.9500000E-001  6.0000000E-002 0.0
 -1.9500000E-001  6.5000000E-002 0.0
 -1.9500000E-001  7.0000000E-002 0.0
 -1.9500000E-001  7.5000000E-002 0.0
 -1.9000000E-001 -1.7000000E-001 0.0
 -1.9000000E-001 -1.6500000E-001 0.0
 -1.9000000E-001 -1.6000000E-001 0.0
 -1.9000000E-001 -1.5500000E-001 0.0
 -1.9000000E-001 -1.5000000E-001 0.0
 -1.9000000E-001 -1.4500000E-001 0.0
 -1.9000000E-001 -1.4000000E-001 0.0
 -1.9000000E-001 -1.3500000E-001 0.0
 -1.9000000E-001 -1.3000000E-001 0.0
 -1.9000000E-001 -1.2500000E-001 0.0
 -1.9000000E-001 -1.2000000E-001 0.0
 -1.9000000E-001 -1.1500000E-001 0.0
 -1.9000000E-001 -1.1000000E-001 0.0
 -1.9000000E-001 -1.0500000E-001 0.0
 -1.9000000E-001 -1.0000000E-001 0.0
 -1.9000000E-001 -9.5000000E-002 0.0
 -1.9000000E-001 -9.0000000E-002 0.0
 -2.9500000E-001  1.8500000E-001 0.0
 -2.9500000E-001  1.9000000E-001 0.0
 -2.9000000E-001 -1.0000000E-002 0.0
 -2.9000000E-001 -5.0000000E-003 0.0
 -2.9000000E-001  0.0000000E+000 0.0
 -2.9000000E-001  5.0000000E-003 0.0
 -2.9000000E-001  1.0000000E-002 0.0
 -2.9000000E-001  1.5000000E-002 0.0
 -2.9000000E-001  2.0000000E-002 0.0
 -2.9000000E-001  2.5000000E-002 0.0
 -2.9000000E-001  3.0000000E-002 0.0
 -2.9000000E-001  3.5000000E-002 0.0
 -2.9500000E-001  1.1000000E-001 0.0
 -2.9000000E-001  1.1000000E-001 0.0
 -2.9000000E-001  1.1500000E-001 0.0
 -2.9500000E-001  1.1500000E-001 0.0
 -2.9000000E-001  1.2000000E-001 0.0
 -2.9000000E-001  1.2500000E-001 0.0
 -2.9000000E-001  1.3000000E-001 0.0
 -2.9000000E-001  1.3500000E-001 0.0
 -2.9000000E-001  1.4000000E-001 0.0
 -2.9000000E-001  1.4500000E-001 0.0
 -2.9000000E-001  1.5000000E-001 0.0
 -2.9000000E-001  1.5500000E-001 0.0
 -2.9000000E-001  1.6000000E-001 0.0
 -2.9000000E-001  1.6500000E-001 0.0
 -2.9000000E-001  1.7000000E-001 0.0
 -2.9000000E-001  1.7500000E-001 0.0
 -2.9000000E-001  1.8000000E-001 0.0
 -2.9000000E-001  1.8500000E-001 0.0
 -2.9000000E-001  1.9000000E-001 0.0
 -2.9000000E-001  1.9500000E-001 0.0
 -2.9500000E-001  1.9500000E-001 0.0
 -2.8500000E-001  5.0000000E-003 0.0
 -2.8500000E-001  1.0000000E-002 0.0
 -2.8500000E-001  1.5000000E-002 0.0
 -2.8500000E-001  2.0000000E-002 0.0
 -2.8500000E-001  2.5000000E-002 0.0
 -2.8500000E-001  3.0000000E-002 0.0
 -2.8500000E-001  1.0500000E-001 0.0
 -2.8500000E-001  1.1000000E-001 0.0
 -2.8500000E-001  1.1500000E-001 0.0
 -2.8500000E-001  1.2000000E-001 0.0
 -2.8500000E-001  1.2500000E-001 0.0
 -2.8500000E-001  1.3000000E-001 0.0
 -2.8500000E-001  1.3500000E-001 0.0
 -2.8500000E-001  1.4000000E-001 0.0
 -2.8500000E-001  1.4500000E-001 0.0
 -2.8500000E-001  1.5000000E-001 0.0
 -2.8500000E-001  1.5500000E-001 0.0
 -2.8500000E-001  1.6000000E-001 0.0
 -2.8500000E-001  1.6500000E-001 0.0
 -2.8500000E-001  1.7000000E-001 0.0
 -2.8500000E-001  1.7500000E-001 0.0
 -2.8500000E-001  1.8000000E-001 0.0
 -2.8500000E-001  1.8500000E-001 0.0
 -2.8500000E-001  1.9000000E-001 0.0
 -2.8500000E-001  1.9500000E-001 0.0
 -2.8500000E-001  2.0000000E-001 0.0
 -2.9000000E-001  2.0000000E-001 0.0
 -2.8000000E-001  1.0500000E-001 0.0
 -2.8000000E-001  1.1000000E-001 0.0
 -2.8000000E-001  1.1500000E-001 0.0
 -2.8000000E-001  1.2000000E-001 0.0
 -2.8000000E-001  1.2500000E-001 0.0
 -2.8000000E-001  1.3000000E-001 0.0
 -2.8000000E-001  1.3500000E-001 0.0
 -2.8000000E-001  1.4000000E-001 0.0
 -2.8000000E-001  1.4500000E-001 0.0
 -2.8000000E-001  1.5000000E-001 0.0
 -2.8000000E-001  1.5500000E-001 0.0
 -2.8000000E-001  1.6000000E-001 0.0
 -2.8000000E-001  1.6500000E-001 0.0
 -2.8000000E-001  1.7000000E-001 0.0
 -2.8000000E-001  1.7500000E-001 0.0
 -2.8000000E-001  1.8000000E-001 0.0
 -2.8000000E-001  1.8500000E-001 0.0
 -2.8000000E-001  1.9000000E-001 0.0
 -2.8000000E-001  1.9500000E-001 0.0
 -2.8000000E-001  2.0000000E-001 0.0
 -2.8000000E-001  2.0500000E-001 0.0
 -2.8500000E-001  2.0500000E-001 0.0
 -2.7500000E-001  1.0500000E-001 0.0
 -2.7500000E-001  1.1000000E-001 0.0
 -2.7500000E-001  1.1500000E-001 0.0
 -2.7500000E-001  1.2000000E-001 0.0
 -2.7500000E-001  1.2500000E-001 0.0
 -2.7500000E-001  1.3000000E-001 0.0
 -2.7500000E-001  1.3500000E-001 0.0
 -2.7500000E-001  1.4000000E-001 0.0
 -2.7500000E-001  1.4500000E-001 0.0
 -2.7500000E-001  1.5000000E-001 0.0
 -2.7500000E-001  1.5500000E-001 0.0
 -2.7500000E-001  1.6000000E-001 0.0
 -2.7500000E-001  1.6500000E-001 0.0
 -2.7500000E-001  1.7000000E-001 0.0
 -2.7500000E-001  1.7500000E-001 0.0
 -2.7500000E-001  1.8000000E-001 0.0
 -2.7500000E-001  1.8500000E-001 0.0
 -2.7500000E-001  1.9000000E-001 0.0
 -2.7500000E-001  1.9500000E-001 0.0
 -2.7500000E-001  2.0000000E-001 0.0
 -2.7500000E-001  2.0500000E-001 0.0
 -2.7000000E-001  1.0500000E-001 0.0
 -2.7000000E-001  1.1000000E-001 0.0
 -2.7000000E-001  1.1500000E-001 0.0
 -2.7000000E-001  1.2000000E-001 0.0
 -2.7000000E-001  1.2500000E-001 0.0
 -1.8000000E-001 -3.0000000E-002 0.0
 -1.8000000E-001 -2.5000000E-002 0.0
 -1.8000000E-001 -2.0000000E-002 0.0
 -1.8000000E-001 -1.5000000E-002 0.0
 -1.8000000E-001 -1.0000000E-002 0.0
 -1.8000000E-001 -5.0000000E-003 0.0
 -1.8000000E-001  0.0000000E+000 0.0
 -1.8000000E-001  5.0000000E-003 0.0
 -1.8000000E-001  1.0000000E-002 0.0
 -1.8000000E-001  1.5000000E-002 0.0
 -1.8000000E-001  2.0000000E-002 0.0
 -1.8000000E-001  2.5000000E-002 0.0
 -1.8000000E-001  3.0000000E-002 0.0
 -1.8000000E-001  3.5000000E-002 0.0
 -1.8000000E-001  4.0000000E-002 0.0
 -1.8000000E-001  4.5000000E-002 0.0
 -1.8000000E-001  5.0000000E-002 0.0
 -1.8000000E-001  5.5000000E-002 0.0
 -1.8000000E-001  6.0000000E-002 0.0
 -1.7500000E-001 -1.7000000E-001 0.0
 -1.7500000E-001 -1.6500000E-001 0.0
 -1.7500000E-001 -1.6000000E-001 0.0
 -1.7500000E-001 -1.5500000E-001 0.0
 -1.7500000E-001 -1.5000000E-001 0.0
 -1.7500000E-001 -1.4500000E-001 0.0
 -1.7500000E-001 -1.4000000E-001 0.0
 -1.7500000E-001 -1.3500000E-001 0.0
 -1.7500000E-001 -1.3000000E-001 0.0
 -1.7500000E-001 -1.2500000E-001 0.0
 -1.7500000E-001 -1.2000000E-001 0.0
 -1.7500000E-001 -1.1500000E-001 0.0
 -1.7500000E-001 -1.1000000E-001 0.0
 -1.7500000E-001 -1.0500000E-001 0.0
 -1.7500000E-001 -1.0000000E-001 0.0
 -1.7500000E-001 -9.5000000E-002 0.0
 -1.7500000E-001 -9.0000000E-002 0.0
 -1.7500000E-001 -8.5000000E-002 0.0
 -1.7500000E-001 -8.0000000E-002 0.0
 -1.7500000E-001 -7.5000000E-002 0.0
 -1.7500000E-001 -7.0000000E-002 0.0
 -1.7500000E-001 -6.5000000E-002 0.0
 -1.7500000E-001 -6.0000000E-002 0.0
 -1.7500000E-001 -5.5000000E-002 0.0
 -1.7500000E-001 -5.0000000E-002 0.0
 -1.7500000E-001 -4.5000000E-002 0.0
 -1.7500000E-001 -4.0000000E-002 0.0
 -1.7500000E-001 -3.5000000E-002 0.0
 -1.7500000E-001 -3.0000000E-002 0.0
 -1.7500000E-001 -2.5000000E-002 0.0
 -1.7500000E-001 -2.0000000E-002 0.0
 -1.7500000E-001 -1.5000000E-002 0.0
 -1.7500000E-001 -1.0000000E-002 0.0
 -1.7500000E-001 -5.0000000E-003 0.0
 -1.7500000E-001  0.0000000E+000 0.0
 -1.7500000E-001  5.0000000E-003 0.0
 -1.7500000E-001  1.0000000E-002 0.0
 -1.7500000E-001  1.5000000E-002 0.0
 -1.7500000E-001  2.0000000E-002 0.0
 -1.7500000E-001  2.5000000E-002 0.0
 -1.7500000E-001  3.0000000E-002 0.0
 -1.7500000E-001  3.5000000E-002 0.0
 -1.7500000E-001  4.0000000E-002 0.0
 -1.7500000E-001  4.5000000E-002 0.0
 -1.7500000E-001  5.0000000E-002 0.0
 -1.7500000E-001  5.5000000E-002 0.0
 -1.7500000E-001  6.0000000E-002 0.0
 -1.7500000E-001 -1.8000000E-001 0.0
 -1.7000000E-001 -1.8000000E-001 0.0
 -1.7000000E-001 -1.7500000E-001 0.0
 -1.7500000E-001 -1.7500000E-001 0.0
 -1.7000000E-001 -1.7000000E-001 0.0
 -1.7000000E-001 -1.6500000E-001 0.0
 -1.7000000E-001 -1.6000000E-001 0.0
 -1.7000000E-001 -1.5500000E-001 0.0
 -1.7000000E-001 -1.5000000E-001 0.0
 -1.7000000E-001 -1.4500000E-001 0.0
 -1.7000000E-001 -1.4000000E-001 0.0
 -1.7000000E-001 -1.3500000E-001 0.0
 -1.7000000E-001 -1.3000000E-001 0.0
 -1.7000000E-001 -1.2500000E-001 0.0
 -1.7000000E-001 -1.2000000E-001 0.0
 -1.7000000E-001 -1.1500000E-001 0.0
 -1.7000000E-001 -1.1000000E-001 0.0
 -1.7000000E-001 -1.0500000E-001 0.0
 -1.7000000E-001 -1.0000000E-001 0.0
 -1.7000000E-001 -9.5000000E-002 0.0
 -1.7000000E-001 -9.0000000E-002 0.0
 -1.7000000E-001 -8.5000000E-002 0.0
 -1.7000000E-001 -8.0000000E-002 0.0
 -1.7000000E-001 -7.5000000E-002 0.0
 -1.7000000E-001 -7.0000000E-002 0.0
 -1.7000000E-001 -6.5000000E-002 0.0
 -1.7000000E-001 -6.0000000E-002 0.0
 -1.7000000E-001 -5.5000000E-002 0.0
 -1.7000000E-001 -5.0000000E-002 0.0
 -1.7000000E-001 -4.5000000E-002 0.0
 -1.7000000E-001 -4.0000000E-002 0.0
 -1.7000000E-001 -3.5000000E-002 0.0
 -1.7000000E-001 -3.0000000E-002 0.0
 -1.7000000E-001 -2.5000000E-002 0.0
 -1.7000000E-001 -2.0000000E-002 0.0
 -1.7000000E-001 -1.5000000E-002 0.0
 -1.7000000E-001 -1.0000000E-002 0.0
 -1.7000000E-001 -5.0000000E-003 0.0
 -1.7000000E-001  0.0000000E+000 0.0
 -1.7000000E-001  5.0000000E-003 0.0
 -1.7000000E-001  1.0000000E-002 0.0
 -1.7000000E-001  1.5000000E-002 0.0
 -2.5000000E-001  2.1000000E-001 0.0
 -2.5000000E-001  2.1500000E-001 0.0
 -2.4500000E-001  1.0500000E-001 0.0
 -2.4500000E-001  1.1000000E-001 0.0
 -2.4500000E-001  1.1500000E-001 0.0
 -2.4500000E-001  1.2000000E-001 0.0
 -2.4500000E-001  1.2500000E-001 0.0
 -2.4500000E-001  1.3000000E-001 0.0
 -2.4500000E-001  1.3500000E-001 0.0
 -2.4500000E-001  1.4000000E-001 0.0
 -2.4500000E-001  1.4500000E-001 0.0
 -2.4500000E-001  1.5000000E-001 0.0
 -2.4500000E-001  1.5500000E-001 0.0
 -2.4500000E-001  1.6000000E-001 0.0
 -2.4500000E-001  1.6500000E-001 0.0
 -2.4500000E-001  1.7000000E-001 0.0
 -2.4500000E-001  1.7500000E-001 0.0
 -2.4500000E-001  1.8000000E-001 0.0
 -2.4500000E-001  1.8500000E-001 0.0
 -2.4500000E-001  1.9000000E-001 0.0
 -2.4500000E-001  1.9500000E-001 0.0
 -2.4500000E-001  2.0000000E-001 0.0
 -2.4500000E-001  2.0500000E-001 0.0
 -2.4500000E-001  2.1000000E-001 0.0
 -2.4500000E-001  2.1500000E-001 0.0
 -2.4000000E-001  1.0500000E-001 0.0
 -2.4000000E-001  1.1000000E-001 0.0
 -2.4000000E-001  1.1500000E-001 0.0
 -2.4000000E-001  1.2000000E-001 0.0
 -2.4000000E-001  1.2500000E-001 0.0
 -2.4000000E-001  1.3000000E-001 0.0
 -2.4000000E-001  1.3500000E-001 0.0
 -2.4000000E-001  1.4000000E-001 0.0
 -2.4000000E-001  1.4500000E-001 0.0
 -2.4000000E-001  1.5000000E-001 0.0
 -2.4000000E-001  1.5500000E-001 0.0
 -2.4000000E-001  1.6000000E-001 0.0
 -2.4000000E-001  1.6500000E-001 0.0
 -2.4000000E-001  1.7000000E-001 0.0
 -2.4000000E-001  1.7500000E-001 0.0
 -2.4000000E-001  1.8000000E-001 0.0
 -2.4000000E-001  1.8500000E-001 0.0
 -2.4000000E-001  1.9000000E-001 0.0
 -2.4000000E-001  1.9500000E-001 0.0
 -2.4000000E-001  2.0000000E-001 0.0
 -2.4000000E-001  2.0500000E-001 0.0
 -2.4000000E-001  2.1000000E-001 0.0
 -2.4000000E-001  2.1500000E-001 0.0
 -2.4000000E-001  2.2000000E-001 0.0
 -2.4500000E-001  2.2000000E-001 0.0
 -2.3500000E-001  1.0500000E-001 0.0
 -2.3500000E-001  1.1000000E-001 0.0
 -2.3500000E-001  1.1500000E-001 0.0
 -2.3500000E-001  1.2000000E-001 0.0
 -2.3500000E-001  1.2500000E-001 0.0
 -2.3500000E-001  1.3000000E-001 0.0
 -2.3500000E-001  1.3500000E-001 0.0
 -2.3500000E-001  1.4000000E-001 0.0
 -2.3500000E-001  1.4500000E-001 0.0
 -2.3500000E-001  1.5000000E-001 0.0
 -2.3500000E-001  1.5500000E-001 0.0
 -2.3500000E-001  1.6000000E-001 0.0
 -2.3500000E-001  1.6500000E-001 0.0
 -2.3500000E-001  1.7000000E-001 0.0
 -2.3500000E-001  1.7500000E-001 0.0
 -2.3500000E-001  1.8000000E-001 0.0
 -2.3500000E-001  1.8500000E-001 0.0
 -2.3500000E-001  1.9000000E-001 0.0
 -2.3500000E-001  1.9500000E-001 0.0
 -2.3500000E-001  2.0000000E-001 0.0
 -2.3500000E-001  2.0500000E-001 0.0
 -2.3500000E-001  2.1000000E-001 0.0
 -2.3500000E-001  2.1500000E-001 0.0
 -2.3500000E-001  2.2000000E-001 0.0
 -2.3000000E-001  1.0500000E-001 0.0
 -2.3000000E-001  1.1000000E-001 0.0
 -2.3000000E-001  1.1500000E-001 0.0
 -2.3000000E-001  1.2000000E-001 0.0
 -2.3000000E-001  1.2500000E-001 0.0
 -2.3000000E-001  1.3000000E-001 0.0
 -2.3000000E-001  1.3500000E-001 0.0
 -2.3000000E-001  1.4000000E-001 0.0
 -2.3000000E-001  1.4500000E-001 0.0
 -2.3000000E-001  1.5000000E-001 0.0
 -2.3000000E-001  1.5500000E-001 0.0
 -2.3000000E-001  1.6000000E-001 0.0
 -2.3000000E-001  1.6500000E-001 0.0
 -2.3000000E-001  1.7000000E-001 0.0
 -2.3000000E-001  1.7500000E-001 0.0
 -2.3000000E-001  1.8000000E-001 0.0
 -2.3000000E-001  1.8500000E-001 0.0
 -2.3000000E-001  1.9000000E-001 0.0
 -2.3000000E-001  1.9500000E-001 0.0
 -2.3000000E-001  2.0000000E-001 0.0
 -2.3000000E-001  2.0500000E-001 0.0
 -2.3000000E-001  2.1000000E-001 0.0
 -2.3000000E-001  2.1500000E-001 0.0
 -2.2500000E-001  1.0500000E-001 0.0
 -2.2500000E-001  1.1000000E-001 0.0
 -2.2500000E-001  1.1500000E-001 0.0
 -2.2500000E-001  1.2000000E-001 0.0
 -2.2500000E-001  1.2500000E-001 0.0
 -2.2500000E-001  1.3000000E-001 0.0
 -2.2500000E-001  1.3500000E-001 0.0
 -2.2500000E-001  1.4000000E-001 0.0
 -2.2500000E-001  1.4500000E-001 0.0
 -2.2500000E-001  1.5000000E-001 0.0
 -2.2500000E-001  1.5500000E-001 0.0
 -2.2500000E-001  1.6000000E-001 0.0
 -2.2500000E-001  1.6500000E-001 0.0
 -2.2500000E-001  1.7000000E-001 0.0
 -2.2500000E-001  1.7500000E-001 0.0
 -2.2500000E-001  1.8000000E-001 0.0
 -2.2500000E-001  1.8500000E-001 0.0
 -2.2500000E-001  1.9000000E-001 0.0
 -2.2500000E-001  1.9500000E-001 0.0
 -2.2500000E-001  2.0000000E-001 0.0
 -2.2500000E-001  2.0500000E-001 0.0
 -2.2500000E-001  2.1000000E-001 0.0
 -2.2500000E-001  2.1500000E-001 0.0
 -2.2000000E-001  1.0500000E-001 0.0
 -2.2000000E-001  1.1000000E-001 0.0
 -2.2000000E-001  1.1500000E-001 0.0
 -2.2000000E-001  1.2000000E-001 0.0
 -2.2000000E-001  1.2500000E-001 0.0
 -2.2000000E-001  1.3000000E-001 0.0
 -2.2000000E-001  1.3500000E-001 0.0
 -2.2000000E-001  1.4000000E-001 0.0
 -2.2000000E-001  1.4500000E-001 0.0
 -2.2000000E-001  1.5000000E-001 0.0
 -2.2000000E-001  1.5500000E-001 0.0
 -2.2000000E-001  1.6000000E-001 0.0
 -2.2000000E-001  1.6500000E-001 0.0
 -2.2000000E-001  1.7000000E-001 0.0
 -2.2000000E-001  1.7500000E-001 0.0
 -2.2000000E-001  1.8000000E-001 0.0
 -2.2000000E-001  1.8500000E-001 0.0
 -2.2000000E-001  1.9000000E-001 0.0
 -2.2000000E-001  1.9500000E-001 0.0
 -2.2000000E-001  2.0000000E-001 0.0
 -2.2000000E-001  2.0500000E-001 0.0
 -2.2000000E-001  2.1000000E-001 0.0
 -2.1500000E-001  1.0000000E-001 0.0
 -2.1500000E-001  1.0500000E-001 0.0
 -2.1500000E-001  1.1000000E-001 0.0
 -2.1500000E-001  1.1500000E-001 0.0
 -2.1500000E-001  1.2000000E-001 0.0
 -2.1500000E-001  1.2500000E-001 0.0
 -2.1500000E-001  1.3000000E-001 0.0
 -2.1500000E-001  1.3500000E-001 0.0
 -2.1500000E-001  1.4000000E-001 0.0
 -2.1500000E-001  1.4500000E-001 0.0
 -2.1500000E-001  1.5000000E-001 0.0
 -2.1500000E-001  1.5500000E-001 0.0
 -2.1500000E-001  1.6000000E-001 0.0
 -2.1500000E-001  1.6500000E-001 0.0
 -2.1500000E-001  1.7000000E-001 0.0
 -2.1500000E-001  1.7500000E-001 0.0
 -2.1500000E-001  1.8000000E-001 0.0
 -2.1500000E-001  1.8500000E-001 0.0
 -2.1500000E-001  1.9000000E-001 0.0
 -2.1500000E-001  1.9500000E-001 0.0
 -2.1500000E-001  2.0000000E-001 0.0
 -2.1500000E-001  2.0500000E-001 0.0
 -2.1000000E-001  1.0000000E-001 0.0
 -2.1000000E-001  1.0500000E-001 0.0
 -2.1000000E-001  1.1000000E-001 0.0
 -2.1000000E-001  1.1500000E-001 0.0
 -2.1000000E-001  1.2000000E-001 0.0
 -2.1000000E-001  1.2500000E-001 0.0
 -2.1000000E-001  1.3000000E-001 0.0
 -2.1000000E-001  1.3500000E-001 0.0
 -2.1000000E-001  1.4000000E-001 0.0
 -2.1000000E-001  1.4500000E-001 0.0
 -2.1000000E-001  1.5000000E-001 0.0
 -2.1000000E-001  1.5500000E-001 0.0
 -2.1000000E-001  1.6000000E-001 0.0
 -2.1000000E-001  1.6500000E-001 0.0
 -2.1000000E-001  1.7000000E-001 0.0
 -2.1000000E-001  1.7500000E-001 0.0
 -2.1000000E-001  1.8000000E-001 0.0
 -2.1000000E-001  1.8500000E-001 0.0
 -2.1000000E-001  1.9000000E-001 0.0
 -2.1000000E-001  1.9500000E-001 0.0
 -2.1000000E-001  2.0000000E-001 0.0
 -2.1000000E-001  2.0500000E-001 0.0
 -2.0500000E-001  1.0000000E-001 0.0
 -2.0500000E-001  1.0500000E-001 0.0
 -2.0500000E-001  1.1000000E-001 0.0
 -2.0500000E-001  1.1500000E-001 0.0
 -2.0500000E-001  1.2000000E-001 0.0
 -2.0500000E-001  1.2500000E-001 0.0
 -2.0500000E-001  1.3000000E-001 0.0
 -2.0500000E-001  1.3500000E-001 0.0
 -2.0500000E-001  1.4000000E-001 0.0
 -2.0500000E-001  1.4500000E-001 0.0
 -2.0500000E-001  1.5000000E-001 0.0
 -2.0500000E-001  1.5500000E-001 0.0
 -2.0500000E-001  1.6000000E-001 0.0
 -2.0500000E-001  1.6500000E-001 0.0
 -2.0500000E-001  1.7000000E-001 0.0
 -2.0500000E-001  1.7500000E-001 0.0
 -2.0500000E-001  1.8000000E-001 0.0
 -2.0500000E-001  1.8500000E-001 0.0
 -2.0500000E-001  1.9000000E-001 0.0
 -2.0500000E-001  1.9500000E-001 0.0
 -2.0500000E-001  2.0000000E-001 0.0
 -2.0500000E-001  2.0500000E-001 0.0
 -2.0000000E-001  1.1000000E-001 0.0
 -2.0000000E-001  1.1500000E-001 0.0
 -2.0000000E-001  1.2000000E-001 0.0
 -2.0000000E-001  1.2500000E-001 0.0
 -2.0000000E-001  1.3000000E-001 0.0
 -2.0000000E-001  1.3500000E-001 0.0
 -2.0000000E-001  1.4000000E-001 0.0
 -2.0000000E-001  1.4500000E-001 0.0
 -2.0000000E-001  1.5000000E-001 0.0
 -2.0000000E-001  1.5500000E-001 0.0
 -2.0000000E-001  1.6000000E-001 0.0
 -2.0000000E-001  1.6500000E-001 0.0
 -2.0000000E-001  1.7000000E-001 0.0
 -2.0000000E-001  1.7500000E-001 0.0
 -2.0000000E-001  1.8000000E-001 0.0
 -2.0000000E-001  1.8500000E-001 0.0
 -2.0000000E-001  1.9000000E-001 0.0
 -2.0000000E-001  1.9500000E-001 0.0
 -2.0000000E-001  2.0000000E-001 0.0
 -2.0000000E-001  2.0500000E-001 0.0
 -1.9500000E-001  1.1500000E-001 0.0
 -1.9500000E-001  1.2000000E-001 0.0
 -1.9500000E-001  1.2500000E-001 0.0
 -1.9500000E-001  1.3000000E-001 0.0
 -1.9500000E-001  1.3500000E-001 0.0
 -1.9500000E-001  1.4000000E-001 0.0
 -1.9500000E-001  1.4500000E-001 0.0
 -1.9500000E-001  1.5000000E-001 0.0
 -1.9500000E-001  1.5500000E-001 0.0
 -1.9500000E-001  1.6000000E-001 0.0
 -1.9500000E-001  1.6500000E-001 0.0
 -1.9500000E-001  1.7000000E-001 0.0
 -1.9500000E-001  1.7500000E-001 0.0
 -1.9500000E-001  1.8000000E-001 0.0
 -1.9500000E-001  1.8500000E-001 0.0
 -1.9500000E-001  1.9000000E-001 0.0
 -1.9500000E-001  1.9500000E-001 0.0
 -1.9500000E-001  2.0000000E-001 0.0
 -1.9000000E-001  1.2500000E-001 0.0
 -1.9000000E-001  1.3000000E-001 0.0
 -1.9000000E-001  1.3500000E-001 0.0
 -1.9000000E-001  1.4000000E-001 0.0
 -1.9000000E-001  1.4500000E-001 0.0
 -1.9000000E-001  1.5000000E-001 0.0
 -1.9000000E-001  1.5500000E-001 0.0
 -1.9000000E-001  1.6000000E-001 0.0
 -1.9000000E-001  1.6500000E-001 0.0
 -1.9000000E-001  1.7000000E-001 0.0
 -1.9000000E-001  1.7500000E-001 0.0
 -1.9000000E-001  1.8000000E-001 0.0
 -1.9000000E-001  1.8500000E-001 0.0
 -1.9000000E-001  1.9000000E-001 0.0
 -1.9000000E-001  1.9500000E-001 0.0
 -1.9000000E-001  2.0000000E-001 0.0
 -1.8500000E-001  1.3500000E-001 0.0
 -1.8500000E-001  1.4000000E-001 0.0
 -1.8500000E-001  1.4500000E-001 0.0
 -1.8500000E-001  1.5000000E-001 0.0
 -1.8500000E-001  1.5500000E-001 0.0
 -1.8500000E-001  1.6000000E-001 0.0
 -1.8500000E-001  1.6500000E-001 0.0
 -1.8500000E-001  1.7000000E-001 0.0
 -1.8500000E-001  1.7500000E-001 0.0
 -1.8500000E-001  1.8000000E-001 0.0
 -1.8500000E-001  1.8500000E-001 0.0
 -1.8500000E-001  1.9000000E-001 0.0
 -1.8500000E-001  1.9500000E-001 0.0
 -1.8500000E-001  2.0000000E-001 0.0
 -1.8000000E-001  1.4000000E-001 0.0
 -1.8000000E-001  1.4500000E-001 0.0
 -1.8000000E-001  1.5000000E-001 0.0
 -1.8000000E-001  1.5500000E-001 0.0
 -1.8000000E-001  1.6000000E-001 0.0
 -1.8000000E-001  1.6500000E-001 0.0
 -1.8000000E-001  1.7000000E-001 0.0
 -1.8000000E-001  1.7500000E-001 0.0
 -1.8000000E-001  1.8000000E-001 0.0
 -1.8000000E-001  1.8500000E-001 0.0
 -1.8000000E-001  1.9000000E-001 0.0
 -1.8000000E-001  1.9500000E-001 0.0
 -1.8000000E-001  2.0000000E-001 0.0
 -1.8000000E-001  2.0500000E-001 0.0
 -1.8500000E-001  2.0500000E-001 0.0
 -1.7500000E-001  1.4000000E-001 0.0
 -1.7500000E-001  1.4500000E-001 0.0
 -1.7500000E-001  1.5000000E-001 0.0
 -1.7500000E-001  1.5500000E-001 0.0
 -1.7500000E-001  1.6000000E-001 0.0
 -1.7500000E-001  1.6500000E-001 0.0
 -1.7500000E-001  1.7000000E-001 0.0
 -1.7500000E-001  1.7500000E-001 0.0
 -1.7500000E-001  1.8000000E-001 0.0
 -1.7500000E-001  1.8500000E-001 0.0
 -1.7500000E-001  1.9000000E-001 0.0
 -1.7500000E-001  1.9500000E-001 0.0
 -1.7500000E-001  2.0000000E-001 0.0
 -1.7500000E-001  2.0500000E-001 0.0
 -1.7000000E-001  1.4000000E-001 0.0
 -1.7000000E-001  1.4500000E-001 0.0
 -1.7000000E-001  1.5000000E-001 0.0
 -1.7000000E-001  1.5500000E-001 0.0
 -1.7000000E-001  1.6000000E-001 0.0
 -1.7000000E-001  1.6500000E-001 0.0
 -1.7000000E-001  1.7000000E-001 0.0
 -1.7000000E-001  1.7500000E-001 0.0
 -1.7000000E-001  1.8000000E-001 0.0
 -1.7000000E-001  1.8500000E-001 0.0
 -1.7000000E-001  1.9000000E-001 0.0
 -1.7000000E-001  1.9500000E-001 0.0
 -1.7000000E-001  2.0000000E-001 0.0
 -1.7000000E-001  2.0500000E-001 0.0
 -1.6500000E-001  1.4000000E-001 0.0
 -1.6500000E-001  1.4500000E-001 0.0
 -1.6500000E-001  1.5000000E-001 0.0
 -1.6500000E-001  1.5500000E-001 0.0
 -1.6500000E-001  1.6000000E-001 0.0
 -1.6500000E-001  1.6500000E-001 0.0
 -1.6500000E-001  1.7000000E-001 0.0
 -1.6500000E-001  1.7500000E-001 0.0
 -1.6500000E-001  1.8000000E-001 0.0
 -1.6500000E-001  1.8500000E-001 0.0
 -1.6500000E-001  1.9000000E-001 0.0
 -1.6500000E-001  1.9500000E-001 0.0
 -1.6500000E-001  2.0000000E-001 0.0
 -1.6500000E-001  2.0500000E-001 0.0
 -1.6500000E-001  1.3500000E-001 0.0
 -1.6000000E-001  1.3500000E-001 0.0
 -1.6000000E-001  1.4000000E-001 0.0
 -1.6000000E-001  1.4500000E-001 0.0
 -1.6000000E-001  1.5000000E-001 0.0
 -1.6000000E-001  1.5500000E-001 0.0
 -1.6000000E-001  1.6000000E-001 0.0
 -1.6000000E-001  1.6500000E-001 0.0
 -1.6000000E-001  1.7000000E-001 0.0
 -1.6000000E-001  1.7500000E-001 0.0
 -1.6000000E-001  1.8000000E-001 0.0
 -1.6000000E-001  1.8500000E-001 0.0
 -1.6000000E-001  1.9000000E-001 0.0
 -1.6000000E-001  1.9500000E-001 0.0
 -1.6000000E-001  2.0000000E-001 0.0
 -1.6000000E-001  1.3000000E-001 0.0
 -1.5500000E-001  1.3000000E-001 0.0
 -1.5500000E-001  1.3500000E-001 0.0
 -1.5500000E-001  1.4000000E-001 0.0
 -1.5500000E-001  1.4500000E-001 0.0
 -1.5500000E-001  1.5000000E-001 0.0
 -1.5500000E-001  1.5500000E-001 0.0
 -1.5500000E-001  1.6000000E-001 0.0
 -1.5500000E-001  1.6500000E-001 0.0
 -1.5500000E-001  1.7000000E-001 0.0
 -1.5500000E-001  1.7500000E-001 0.0
 -1.5500000E-001  1.8000000E-001 0.0
 -1.5500000E-001  1.8500000E-001 0.0
 -1.5500000E-001  1.9000000E-001 0.0
 -1.5500000E-001  1.9500000E-001 0.0
 -1.5500000E-001  2.0000000E-001 0.0
 -1.5500000E-001  1.2500000E-001 0.0
 -1.5000000E-001  1.2500000E-001 0.0
 -1.5000000E-001  1.3000000E-001 0.0
 -1.5000000E-001  1.3500000E-001 0.0
 -1.5000000E-001  1.4000000E-001 0.0
 -1.5000000E-001  1.4500000E-001 0.0
 -1.5000000E-001  1.5000000E-001 0.0
 -1.5000000E-001  1.5500000E-001 0.0
 -1.5000000E-001  1.6000000E-001 0.0
 -1.5000000E-001  1.6500000E-001 0.0
 -1.5000000E-001  1.7000000E-001 0.0
 -1.5000000E-001  1.7500000E-001 0.0
 -1.5000000E-001  1.8000000E-001 0.0
 -1.5000000E-001  1.8500000E-001 0.0
 -1.5000000E-001  1.9000000E-001 0.0
 -1.5000000E-001  1.9500000E-001 0.0
 -1.5000000E-001  2.0000000E-001 0.0
 -1.4500000E-001  1.2500000E-001 0.0
 -1.4500000E-001  1.3000000E-001 0.0
 -1.4500000E-001  1.3500000E-001 0.0
 -1.4500000E-001  1.4000000E-001 0.0
 -1.4500000E-001  1.4500000E-001 0.0
 -1.4500000E-001  1.5000000E-001 0.0
 -1.4500000E-001  1.5500000E-001 0.0
 -1.4500000E-001  1.6000000E-001 0.0
 -1.4500000E-001  1.6500000E-001 0.0
 -1.4500000E-001  1.7000000E-001 0.0
 -1.4500000E-001  1.7500000E-001 0.0
 -1.4500000E-001  1.8000000E-001 0.0
 -1.4500000E-001  1.8500000E-001 0.0
 -1.4500000E-001  1.9000000E-001 0.0
 -1.4500000E-001  1.9500000E-001 0.0
 -1.4500000E-001  2.0000000E-001 0.0
 -1.4000000E-001  1.2500000E-001 0.0
 -1.4000000E-001  1.3000000E-001 0.0
 -1.4000000E-001  1.3500000E-001 0.0
 -1.4000000E-001  1.4000000E-001 0.0
 -1.4000000E-001  1.4500000E-001 0.0
 -1.4000000E-001  1.5000000E-001 0.0
 -1.4000000E-001  1.5500000E-001 0.0
 -1.4000000E-001  1.6000000E-001 0.0
 -1.4000000E-001  1.6500000E-001 0.0
 -1.4000000E-001  1.7000000E-001 0.0
 -1.4000000E-001  1.7500000E-001 0.0
 -1.4000000E-001  1.8000000E-001 0.0
 -1.4000000E-001  1.8500000E-001 0.0
 -1.4000000E-001  1.9000000E-001 0.0
 -1.4000000E-001  1.9500000E-001 0.0
 -1.4000000E-001  2.0000000E-001 0.0
 -1.4000000E-001  1.2000000E-001 0.0
 -1.3500000E-001  1.2000000E-001 0.0
 -1.3500000E-001  1.2500000E-001 0.0
 -1.3500000E-001  1.3000000E-001 0.0
 -1.3500000E-001  1.3500000E-001 0.0
 -1.3500000E-001  1.4000000E-001 0.0
 -1.3500000E-001  1.4500000E-001 0.0
 -1.3500000E-001  1.5000000E-001 0.0
 -1.3500000E-001  1.5500000E-001 0.0
 -1.3500000E-001  1.6000000E-001 0.0
 -1.3500000E-001  1.6500000E-001 0.0
 -1.3500000E-001  1.7000000E-001 0.0
 -1.3500000E-001  1.7500000E-001 0.0
 -1.3500000E-001  1.8000000E-001 0.0
 -1.3500000E-001  1.8500000E-001 0.0
 -1.3500000E-001  1.9000000E-001 0.0
 -1.3500000E-001  1.9500000E-001 0.0
 -1.3500000E-001  2.0000000E-001 0.0
 -1.3500000E-001  1.1500000E-001 0.0
 -1.3000000E-001  1.1500000E-001 0.0
 -1.3000000E-001  1.2000000E-001 0.0
 -1.3000000E-001  1.2500000E-001 0.0
 -1.3000000E-001  1.3000000E-001 0.0
 -1.3000000E-001  1.3500000E-001 0.0
 -1.3000000E-001  1.4000000E-001 0.0
 -1.3000000E-001  1.4500000E-001 0.0
 -1.3000000E-001  1.5000000E-001 0.0
 -1.3000000E-001  1.5500000E-001 0.0
 -1.3000000E-001  1.6000000E-001 0.0
 -1.3000000E-001  1.6500000E-001 0.0
 -1.3000000E-001  1.7000000E-001 0.0
 -1.3000000E-001  1.7500000E-001 0.0
 -1.3000000E-001  1.8000000E-001 0.0
 -1.3000000E-001  1.8500000E-001 0.0
 -1.3000000E-001  1.9000000E-001 0.0
 -1.3000000E-001  1.9500000E-001 0.0
 -1.3000000E-001  1.1000000E-001 0.0
 -1.2500000E-001  1.1000000E-001 0.0
 -1.2500000E-001  1.1500000E-001 0.0
 -1.2500000E-001  1.2000000E-001 0.0
 -1.2500000E-001  1.2500000E-001 0.0
 -1.2500000E-001  1.3000000E-001 0.0
 -1.2500000E-001  1.3500000E-001 0.0
 -1.2500000E-001  1.4000000E-001 0.0
 -1.2500000E-001  1.4500000E-001 0.0
 -1.2500000E-001  1.5000000E-001 0.0
 -1.2500000E-001  1.5500000E-001 0.0
 -1.2500000E-001  1.6000000E-001 0.0
 -1.2500000E-001  1.6500000E-001 0.0
 -1.2500000E-001  1.7000000E-001 0.0
 -1.2500000E-001  1.7500000E-001 0.0
 -1.2500000E-001  1.8000000E-001 0.0
 -1.2500000E-001  1.8500000E-001 0.0
 -1.2500000E-001  1.9000000E-001 0.0
 -1.2500000E-001  1.0500000E-001 0.0
 -1.2000000E-001  1.0500000E-001 0.0
 -1.2000000E-001  1.1000000E-001 0.0
 -1.2000000E-001  1.1500000E-001 0.0
 -1.2000000E-001  1.2000000E-001 0.0
 -1.2000000E-001  1.2500000E-001 0.0
 -1.2000000E-001  1.3000000E-001 0.0
 -1.2000000E-001  1.3500000E-001 0.0
 -1.2000000E-001  1.4000000E-001 0.0
 -1.2000000E-001  1.4500000E-001 0.0
 -1.2000000E-001  1.5000000E-001 0.0
 -1.2000000E-001  1.5500000E-001 0.0
 -1.2000000E-001  1.6000000E-001 0.0
 -1.2000000E-001  1.6500000E-001 0.0
 -1.2000000E-001  1.7000000E-001 0.0
 -1.2000000E-001  1.7500000E-001 0.0
 -1.2000000E-001  1.8000000E-001 0.0
 -1.2000000E-001  1.8500000E-001 0.0
 -1.2000000E-001  1.9000000E-001 0.0
 -1.2000000E-001  1.0000000E-001 0.0
 -1.1500000E-001  1.0000000E-001 0.0
 -1.1500000E-001  1.0500000E-001 0.0
 -1.1500000E-001  1.1000000E-001 0.0
 -1.1500000E-001  1.1500000E-001 0.0
 -1.1500000E-001  1.2000000E-001 0.0
 -1.1500000E-001  1.2500000E-001 0.0
 -1.1500000E-001  1.3000000E-001 0.0
 -1.1500000E-001  1.3500000E-001 0.0
 -1.1500000E-001  1.4000000E-001 0.0
 -1.1500000E-001  1.4500000E-001 0.0
 -1.1500000E-001  1.5000000E-001 0.0
 -1.1500000E-001  1.5500000E-001 0.0
 -1.1500000E-001  1.6000000E-001 0.0
 -1.1500000E-001  1.6500000E-001 0.0
 -1.1500000E-001  1.7000000E-001 0.0
 -1.1500000E-001  1.7500000E-001 0.0
 -1.1500000E-001  1.8000000E-001 0.0
 -1.1500000E-001  1.8500000E-001 0.0
 -1.1500000E-001  1.9000000E-001 0.0
 -1.1500000E-001  9.0000000E-002 0.0
 -1.1000000E-001  9.0000000E-002 0.0
 -1.1000000E-001  9.5000000E-002 0.0
 -1.1500000E-001  9.5000000E-002 0.0
 -1.1000000E-001  1.0000000E-001 0.0
 -1.1000000E-001  1.0500000E-001 0.0
 -1.1000000E-001  1.1000000E-001 0.0
 -1.1000000E-001  1.1500000E-001 0.0
 -1.1000000E-001  1.2000000E-001 0.0
 -1.1000000E-001  1.2500000E-001 0.0
 -1.1000000E-001  1.3000000E-001 0.0
 -1.1000000E-001  1.3500000E-001 0.0
 -1.1000000E-001  1.4000000E-001 0.0
 -1.1000000E-001  1.4500000E-001 0.0
 -1.1000000E-001  1.5000000E-001 0.0
 -1.1000000E-001  1.5500000E-001 0.0
 -1.1000000E-001  1.6000000E-001 0.0
 -1.1000000E-001  1.6500000E-001 0.0
 -1.1000000E-001  1.7000000E-001 0.0
 -1.1000000E-001  1.7500000E-001 0.0
 -1.1000000E-001  1.8000000E-001 0.0
 -1.1000000E-001  1.8500000E-001 0.0
 -1.1000000E-001  8.5000000E-002 0.0
 -1.0500000E-001  8.5000000E-002 0.0
 -1.0500000E-001  9.0000000E-002 0.0
 -1.0500000E-001  9.5000000E-002 0.0
 -1.0500000E-001  1.0000000E-001 0.0
 -1.0500000E-001  1.0500000E-001 0.0
 -1.0500000E-001  1.1000000E-001 0.0
 -1.0500000E-001  1.1500000E-001 0.0
 -1.0500000E-001  1.2000000E-001 0.0
 -1.0500000E-001  1.2500000E-001 0.0
 -1.0500000E-001  1.3000000E-001 0.0
 -1.0500000E-001  1.3500000E-001 0.0
 -8.5000000E-002 -1.3000000E-001 0.0
 -8.5000000E-002 -1.2500000E-001 0.0
 -8.5000000E-002 -1.2000000E-001 0.0
 -8.5000000E-002 -1.1500000E-001 0.0
 -8.5000000E-002 -1.1000000E-001 0.0
 -8.5000000E-002 -1.0500000E-001 0.0
 -8.5000000E-002 -1.0000000E-001 0.0
 -8.5000000E-002 -9.5000000E-002 0.0
 -8.5000000E-002 -9.0000000E-002 0.0
 -8.5000000E-002 -8.5000000E-002 0.0
 -8.5000000E-002 -8.0000000E-002 0.0
 -8.5000000E-002 -7.5000000E-002 0.0
 -8.5000000E-002 -7.0000000E-002 0.0
 -8.0000000E-002 -1.3500000E-001 0.0
 -8.0000000E-002 -1.3000000E-001 0.0
 -8.0000000E-002 -1.2500000E-001 0.0
 -8.0000000E-002 -1.2000000E-001 0.0
 -8.0000000E-002 -1.1500000E-001 0.0
 -8.0000000E-002 -1.1000000E-001 0.0
 -8.0000000E-002 -1.0500000E-001 0.0
 -8.0000000E-002 -1.0000000E-001 0.0
 -8.0000000E-002 -9.5000000E-002 0.0
 -8.0000000E-002 -9.0000000E-002 0.0
 -8.0000000E-002 -8.5000000E-002 0.0
 -8.0000000E-002 -8.0000000E-002 0.0
 -8.0000000E-002 -7.5000000E-002 0.0
 -7.5000000E-002 -1.3000000E-001 0.0
 -7.5000000E-002 -1.2500000E-001 0.0
 -7.5000000E-002 -1.2000000E-001 0.0
 -7.5000000E-002 -1.1500000E-001 0.0
 -7.5000000E-002 -1.1000000E-001 0.0
 -7.5000000E-002 -1.0500000E-001 0.0
 -7.5000000E-002 -1.0000000E-001 0.0
 -7.5000000E-002 -9.5000000E-002 0.0
 -7.5000000E-002 -9.0000000E-002 0.0
 -7.5000000E-002 -8.5000000E-002 0.0
 -7.5000000E-002 -8.0000000E-002 0.0
 -7.0000000E-002 -1.2500000E-001 0.0
 -7.0000000E-002 -1.2000000E-001 0.0
 -7.0000000E-002 -1.1500000E-001 0.0
 -7.0000000E-002 -1.1000000E-001 0.0
 -7.0000000E-002 -1.0500000E-001 0.0
 -7.0000000E-002 -1.0000000E-001 0.0
 -7.0000000E-002 -9.5000000E-002 0.0
 -7.0000000E-002 -9.0000000E-002 0.0
 -7.0000000E-002 -8.5000000E-002 0.0
 -6.5000000E-002 -1.2000000E-001 0.0
 -6.5000000E-002 -1.1500000E-001 0.0
 -6.5000000E-002 -1.1000000E-001 0.0
 -6.5000000E-002 -1.0500000E-001 0.0
 -6.5000000E-002 -1.0000000E-001 0.0
 -6.5000000E-002 -9.5000000E-002 0.0
 -6.5000000E-002 -9.0000000E-002 0.0
 -6.0000000E-002 -1.1500000E-001 0.0
 -6.0000000E-002 -1.1000000E-001 0.0
 -6.0000000E-002 -1.0500000E-001 0.0
 -6.0000000E-002 -1.0000000E-001 0.0
 -6.0000000E-002 -9.5000000E-002 0.0
 -5.5000000E-002 -1.1000000E-001 0.0
 -5.5000000E-002 -1.0500000E-001 0.0
 -5.5000000E-002 -1.0000000E-001 0.0

CELLS 2329 11107
4 1 2 3 0 
4 2 4 5 3 
4 4 6 7 5 
4 6 8 9 7 
4 11 12 1 10 
4 12 13 2 1 
4 13 14 4 2 
4 14 15 6 4 
4 15 16 8 6 
4 16 17 18 8 
4 17 19 20 18 
4 19 21 22 20 
4 23 24 12 11 
4 24 25 13 12 
4 25 26 14 13 
4 26 27 15 14 
4 27 28 16 15 
4 28 29 17 16 
4 29 30 19 17 
4 30 31 21 19 
4 31 32 33 21 
4 32 34 35 33 
4 34 36 37 35 
4 36 38 39 37 
4 41 42 23 40 
4 42 43 24 23 
4 43 44 25 24 
4 44 45 26 25 
4 45 46 27 26 
4 46 47 28 27 
4 47 48 29 28 
4 48 49 30 29 
4 49 50 31 30 
4 50 51 32 31 
4 51 52 34 32 
4 52 53 36 34 
4 53 54 38 36 
4 54 55 56 38 
4 55 57 58 56 
4 57 59 60 58 
4 59 61 62 60 
4 61 63 64 62 
4 63 65 66 64 
4 65 67 68 66 
4 67 69 70 68 
4 69 71 72 70 
4 71 73 74 72 
4 75 76 42 41 
4 76 77 43 42 
4 77 78 44 43 
4 78 79 45 44 
4 79 80 46 45 
4 80 81 47 46 
4 81 82 48 47 
4 82 83 49 48 
4 83 84 50 49 
4 84 85 51 50 
4 85 86 52 51 
4 86 87 53 52 
4 87 88 54 53 
4 88 89 55 54 
4 89 90 57 55 
4 90 91 59 57 
4 91 92 61 59 
4 92 93 63 61 
4 93 94 65 63 
4 94 95 67 65 
4 95 96 69 67 
4 96 97 71 69 
4 97 98 73 71 
4 99 100 76 75 
4 100 101 77 76 
4 101 102 78 77 
4 102 103 79 78 
4 103 104 80 79 
4 104 105 81 80 
4 105 106 82 81 
4 106 107 83 82 
4 107 108 84 83 
4 108 109 85 84 
4 109 110 86 85 
4 110 111 87 86 
4 111 112 88 87 
4 112 113 89 88 
4 113 114 90 89 
4 114 115 91 90 
4 115 116 92 91 
4 116 117 93 92 
4 117 118 94 93 
4 118 119 95 94 
4 119 120 96 95 
4 120 121 97 96 
4 121 122 98 97 
4 123 124 100 99 
4 124 125 101 100 
4 125 126 102 101 
4 126 127 103 102 
4 127 128 104 103 
4 128 129 105 104 
4 129 130 106 105 
4 130 131 107 106 
4 131 132 108 107 
4 132 133 109 108 
4 133 134 110 109 
4 134 135 111 110 
4 135 136 112 111 
4 136 137 113 112 
4 137 138 114 113 
4 138 139 115 114 
4 139 140 116 115 
4 140 141 117 116 
4 141 142 118 117 
4 142 143 119 118 
4 143 144 120 119 
4 144 145 121 120 
4 145 146 122 121 
4 147 148 124 123 
4 148 149 125 124 
4 149 150 126 125 
4 150 151 127 126 
4 151 152 128 127 
4 152 153 129 128 
4 153 154 130 129 
4 154 155 131 130 
4 155 156 132 131 
4 156 157 133 132 
4 157 158 134 133 
4 158 159 135 134 
4 159 160 136 135 
4 160 161 137 136 
4 161 162 138 137 
4 162 163 139 138 
4 163 164 140 139 
4 164 165 141 140 
4 165 166 142 141 
4 166 167 143 142 
4 167 168 144 143 
4 168 169 145 144 
4 169 170 146 145 
4 171 172 148 147 
4 172 173 149 148 
4 173 174 150 149 
4 174 175 151 150 
4 175 176 152 151 
4 176 177 153 152 
4 177 178 154 153 
4 178 179 155 154 
4 179 180 156 155 
4 180 181 157 156 
4 181 182 158 157 
4 182 183 159 158 
4 183 184 160 159 
4 184 185 161 160 
4 185 186 162 161 
4 186 187 163 162 
4 187 188 164 163 
4 188 189 165 164 
4 189 190 166 165 
4 190 191 167 166 
4 191 192 168 167 
4 192 193 169 168 
4 193 194 170 169 
4 195 196 173 172 
4 196 197 174 173 
4 197 198 175 174 
4 198 199 176 175 
4 199 200 177 176 
4 200 201 178 177 
4 201 202 179 178 
4 202 203 180 179 
4 203 204 181 180 
4 204 205 182 181 
4 205 206 183 182 
4 206 207 184 183 
4 207 208 185 184 
4 208 209 186 185 
4 209 210 187 186 
4 210 211 188 187 
4 211 212 189 188 
4 212 213 190 189 
4 213 214 191 190 
4 214 215 192 191 
4 215 216 193 192 
4 216 217 194 193 
4 218 219 196 195 
4 219 220 197 196 
4 220 221 198 197 
4 221 222 199 198 
4 222 223 200 199 
4 223 224 201 200 
4 224 225 202 201 
4 225 226 203 202 
4 226 227 204 203 
4 227 228 205 204 
4 228 229 206 205 
4 229 230 207 206 
4 230 231 208 207 
4 231 232 209 208 
4 232 233 210 209 
4 233 234 211 210 
4 234 235 212 211 
4 235 236 213 212 
4 236 237 214 213 
4 238 239 219 218 
4 239 240 220 219 
4 240 241 221 220 
4 241 242 222 221 
4 242 243 223 222 
4 243 244 224 223 
4 244 245 225 224 
4 245 246 226 225 
4 246 247 227 226 
4 247 248 228 227 
4 248 249 229 228 
4 249 250 230 229 
4 250 251 231 230 
4 251 252 232 231 
4 252 253 233 232 
4 253 254 234 233 
4 254 255 235 234 
4 255 256 236 235 
4 256 257 237 236 
4 258 259 240 239 
4 259 260 241 240 
4 260 261 242 241 
4 261 262 243 242 
4 262 263 244 243 
4 263 264 245 244 
4 264 265 246 245 
4 265 266 247 246 
4 266 267 248 247 
4 267 268 249 248 
4 268 269 250 249 
4 269 270 251 250 
4 270 271 252 251 
4 271 272 253 252 
4 272 273 254 253 
4 273 274 255 254 
4 274 275 256 255 
4 275 276 257 256 
4 277 278 260 259 
4 278 279 261 260 
4 279 280 262 261 
4 280 281 263 262 
4 281 282 264 263 
4 282 283 265 264 
4 283 284 266 265 
4 284 285 267 266 
4 285 286 268 267 
4 286 287 269 268 
4 287 288 270 269 
4 288 289 271 270 
4 289 290 272 271 
4 290 291 273 272 
4 291 292 274 273 
4 292 293 275 274 
4 293 294 276 275 
4 295 296 280 279 
4 296 297 281 280 
4 297 298 282 281 
4 298 299 283 282 
4 299 300 284 283 
4 300 301 285 284 
4 301 302 286 285 
4 302 303 287 286 
4 303 304 288 287 
4 304 305 289 288 
4 305 306 290 289 
4 306 307 291 290 
4 307 308 292 291 
4 308 309 293 292 
4 309 310 294 293 
4 311 312 296 295 
4 312 313 297 296 
4 313 314 298 297 
4 314 315 299 298 
4 315 316 300 299 
4 316 317 301 300 
4 317 318 302 301 
4 318 319 303 302 
4 319 320 304 303 
4 320 321 305 304 
4 321 322 306 305 
4 322 323 307 306 
4 323 324 308 307 
4 324 325 309 308 
4 325 326 310 309 
4 327 328 312 311 
4 328 329 313 312 
4 329 330 314 313 
4 330 331 315 314 
4 331 332 316 315 
4 332 333 317 316 
4 333 334 318 317 
4 334 335 319 318 
4 335 336 320 319 
4 336 337 321 320 
4 337 338 322 321 
4 338 339 323 322 
4 339 340 324 323 
4 340 341 325 324 
4 341 342 326 325 
4 343 344 329 328 
4 344 345 330 329 
4 345 346 331 330 
4 346 347 332 331 
4 347 348 333 332 
4 348 349 334 333 
4 349 350 335 334 
4 350 351 336 335 
4 351 352 337 336 
4 352 353 338 337 
4 353 354 339 338 
4 354 355 340 339 
4 355 356 341 340 
4 356 357 342 341 
4 358 359 344 343 
4 359 360 345 344 
4 360 361 346 345 
4 361 362 347 346 
4 362 363 348 347 
4 363 364 349 348 
4 364 365 350 349 
4 365 366 351 350 
4 366 367 352 351 
4 367 368 353 352 
4 368 369 354 353 
4 369 370 355 354 
4 370 371 356 355 
4 371 372 357 356 
4 373 374 359 358 
4 374 375 360 359 
4 375 376 361 360 
4 376 377 362 361 
4 377 378 363 362 
4 378 379 364 363 
4 379 380 365 364 
4 380 381 366 365 
4 381 382 367 366 
4 382 383 368 367 
4 383 384 369 368 
4 384 385 370 369 
4 385 386 371 370 
4 386 387 372 371 
4 387 388 389 372 
4 390 391 374 373 
4 391 392 375 374 
4 392 393 376 375 
4 393 394 377 376 
4 394 395 378 377 
4 395 396 379 378 
4 396 397 380 379 
4 397 398 381 380 
4 398 399 382 381 
4 399 400 383 382 
4 400 401 384 383 
4 401 402 385 384 
4 402 403 386 385 
4 403 404 387 386 
4 404 405 388 387 
4 407 408 391 390 
4 408 409 392 391 
4 409 410 393 392 
4 410 411 394 393 
4 411 412 395 394 
4 412 413 396 395 
4 413 414 397 396 
4 414 415 398 397 
4 415 416 399 398 
4 416 417 400 399 
4 417 418 401 400 
4 418 419 402 401 
4 419 420 403 402 
4 420 421 404 403 
4 421 422 405 404 
4 424 425 426 423 
4 425 427 428 426 
4 427 429 430 428 
4 429 431 432 430 
4 431 433 434 432 
4 433 435 436 434 
4 435 437 438 436 
4 437 439 440 438 
4 439 441 442 440 
4 441 443 444 442 
4 443 445 406 444 
4 446 447 409 408 
4 447 448 410 409 
4 448 449 411 410 
4 449 450 412 411 
4 450 451 413 412 
4 451 452 414 413 
4 452 453 415 414 
4 453 454 416 415 
4 454 455 417 416 
4 455 456 418 417 
4 456 457 419 418 
4 457 458 420 419 
4 458 459 421 420 
4 459 460 422 421 
4 460 461 462 422 
4 464 465 466 463 
4 465 467 468 466 
4 467 469 424 468 
4 469 470 425 424 
4 470 471 427 425 
4 471 472 429 427 
4 472 473 431 429 
4 473 474 433 431 
4 474 475 435 433 
4 475 476 437 435 
4 476 477 439 437 
4 477 478 441 439 
4 478 479 443 441 
4 480 481 447 446 
4 481 482 448 447 
4 482 483 449 448 
4 483 484 450 449 
4 484 485 451 450 
4 485 486 452 451 
4 486 487 453 452 
4 487 488 454 453 
4 488 489 455 454 
4 489 490 456 455 
4 490 491 457 456 
4 491 492 458 457 
4 492 493 459 458 
4 493 494 460 459 
4 494 495 461 460 
4 497 498 499 496 
4 498 500 464 499 
4 500 501 465 464 
4 501 502 467 465 
4 502 503 469 467 
4 503 504 470 469 
4 504 505 471 470 
4 505 506 472 471 
4 506 507 473 472 
4 507 508 474 473 
4 508 509 475 474 
4 509 510 476 475 
4 510 511 477 476 
4 511 512 478 477 
4 512 513 479 478 
4 514 515 481 480 
4 515 516 482 481 
4 516 517 483 482 
4 517 518 484 483 
4 518 519 485 484 
4 519 520 486 485 
4 520 521 487 486 
4 521 522 488 487 
4 522 523 489 488 
4 523 524 490 489 
4 524 525 491 490 
4 525 526 492 491 
4 526 527 493 492 
4 527 528 494 493 
4 528 529 495 494 
4 529 530 531 495 
4 533 534 535 532 
4 534 536 537 535 
4 536 538 497 537 
4 538 539 498 497 
4 539 540 500 498 
4 540 541 501 500 
4 541 542 502 501 
4 542 543 503 502 
4 543 544 504 503 
4 544 545 505 504 
4 545 546 506 505 
4 546 547 507 506 
4 547 548 508 507 
4 548 549 509 508 
4 549 550 510 509 
4 550 551 511 510 
4 551 552 512 511 
4 552 553 513 512 
4 554 555 515 514 
4 555 556 516 515 
4 556 557 517 516 
4 557 558 518 517 
4 558 559 519 518 
4 559 560 520 519 
4 560 561 521 520 
4 561 562 522 521 
4 562 563 523 522 
4 563 564 524 523 
4 564 565 525 524 
4 565 566 526 525 
4 566 567 527 526 
4 567 568 528 527 
4 568 569 529 528 
4 569 570 530 529 
4 572 573 574 571 
4 573 575 576 574 
4 575 577 533 576 
4 577 578 534 533 
4 578 579 536 534 
4 579 580 538 536 
4 580 581 539 538 
4 581 582 540 539 
4 582 583 541 540 
4 583 584 542 541 
4 584 585 543 542 
4 585 586 544 543 
4 586 587 545 544 
4 587 588 546 545 
4 588 589 547 546 
4 589 590 548 547 
4 590 591 549 548 
4 591 592 550 549 
4 592 593 551 550 
4 593 594 552 551 
4 594 595 553 552 
4 596 597 556 555 
4 597 598 557 556 
4 598 599 558 557 
4 599 600 559 558 
4 600 601 560 559 
4 601 602 561 560 
4 602 603 562 561 
4 603 604 563 562 
4 604 605 564 563 
4 605 606 565 564 
4 606 607 566 565 
4 607 608 567 566 
4 608 609 568 567 
4 609 610 569 568 
4 610 611 570 569 
4 613 614 615 612 
4 614 616 617 615 
4 616 618 619 617 
4 618 620 621 619 
4 620 622 623 621 
4 622 624 572 623 
4 624 625 573 572 
4 625 626 575 573 
4 626 627 577 575 
4 627 628 578 577 
4 628 629 579 578 
4 629 630 580 579 
4 630 631 581 580 
4 631 632 582 581 
4 632 633 583 582 
4 633 634 584 583 
4 634 635 585 584 
4 635 636 586 585 
4 636 637 587 586 
4 637 638 588 587 
4 638 639 589 588 
4 639 640 590 589 
4 640 641 591 590 
4 641 642 592 591 
4 642 643 593 592 
4 643 644 594 593 
4 644 645 595 594 
4 646 647 597 596 
4 647 648 598 597 
4 648 649 599 598 
4 649 650 600 599 
4 650 651 601 600 
4 651 652 602 601 
4 652 653 603 602 
4 653 654 604 603 
4 654 655 605 604 
4 655 656 606 605 
4 656 657 607 606 
4 657 658 608 607 
4 658 659 609 608 
4 659 660 610 609 
4 660 661 611 610 
4 661 662 663 611 
4 665 666 667 664 
4 666 668 669 667 
4 668 670 671 669 
4 670 672 613 671 
4 672 673 614 613 
4 673 674 616 614 
4 674 675 618 616 
4 675 676 620 618 
4 676 677 622 620 
4 677 678 624 622 
4 678 679 625 624 
4 679 680 626 625 
4 680 681 627 626 
4 681 682 628 627 
4 682 683 629 628 
4 683 684 630 629 
4 684 685 631 630 
4 685 686 632 631 
4 686 687 633 632 
4 687 688 634 633 
4 688 689 635 634 
4 689 690 636 635 
4 690 691 637 636 
4 691 692 638 637 
4 692 693 639 638 
4 693 694 640 639 
4 694 695 641 640 
4 695 696 642 641 
4 696 697 643 642 
4 697 698 644 643 
4 698 699 645 644 
4 700 701 648 647 
4 701 702 649 648 
4 702 703 650 649 
4 703 704 651 650 
4 704 705 652 651 
4 705 706 653 652 
4 706 707 654 653 
4 707 708 655 654 
4 708 709 656 655 
4 709 710 657 656 
4 710 711 658 657 
4 711 712 659 658 
4 712 713 660 659 
4 713 714 661 660 
4 714 715 662 661 
4 715 716 717 662 
4 719 720 721 718 
4 720 722 723 721 
4 722 724 665 723 
4 724 725 666 665 
4 725 726 668 666 
4 726 727 670 668 
4 727 728 672 670 
4 728 729 673 672 
4 729 730 674 673 
4 730 731 675 674 
4 731 732 676 675 
4 732 733 677 676 
4 733 734 678 677 
4 734 735 679 678 
4 735 736 680 679 
4 736 737 681 680 
4 737 738 682 681 
4 738 739 683 682 
4 739 740 684 683 
4 740 741 685 684 
4 741 742 686 685 
4 742 743 687 686 
4 743 744 688 687 
4 744 745 689 688 
4 745 746 690 689 
4 746 747 691 690 
4 747 748 692 691 
4 748 749 693 692 
4 749 750 694 693 
4 750 751 695 694 
4 751 752 696 695 
4 752 753 697 696 
4 753 754 698 697 
4 754 755 699 698 
4 756 757 701 700 
4 757 758 702 701 
4 758 759 703 702 
4 759 760 704 703 
4 760 761 705 704 
4 761 762 706 705 
4 762 763 707 706 
4 763 764 708 707 
4 764 765 709 708 
4 765 766 710 709 
4 766 767 711 710 
4 767 768 712 711 
4 768 769 713 712 
4 769 770 714 713 
4 770 771 715 714 
4 771 772 716 715 
4 772 773 774 716 
4 773 775 776 774 
4 775 777 778 776 
4 777 779 780 778 
4 779 781 782 780 
4 781 783 784 782 
4 783 785 786 784 
4 785 787 788 786 
4 787 789 719 788 
4 789 790 720 719 
4 790 791 722 720 
4 791 792 724 722 
4 792 793 725 724 
4 793 794 726 725 
4 794 795 727 726 
4 795 796 728 727 
4 796 797 729 728 
4 797 798 730 729 
4 798 799 731 730 
4 799 800 732 731 
4 800 801 733 732 
4 801 802 734 733 
4 802 803 735 734 
4 803 804 736 735 
4 804 805 737 736 
4 805 806 738 737 
4 806 807 739 738 
4 807 808 740 739 
4 808 809 741 740 
4 809 810 742 741 
4 810 811 743 742 
4 811 812 744 743 
4 812 813 745 744 
4 813 814 746 745 
4 814 815 747 746 
4 815 816 748 747 
4 816 817 749 748 
4 817 818 750 749 
4 818 819 751 750 
4 819 820 752 751 
4 820 821 753 752 
4 821 822 754 753 
4 822 823 755 754 
4 824 825 758 757 
4 825 826 759 758 
4 826 827 760 759 
4 827 828 761 760 
4 828 829 762 761 
4 829 830 763 762 
4 830 831 764 763 
4 831 832 765 764 
4 832 833 766 765 
4 833 834 767 766 
4 834 835 768 767 
4 835 836 769 768 
4 836 837 770 769 
4 837 838 771 770 
4 838 839 772 771 
4 839 840 773 772 
4 840 841 775 773 
4 841 842 777 775 
4 842 843 779 777 
4 843 844 781 779 
4 844 845 783 781 
4 845 846 785 783 
4 846 847 787 785 
4 847 848 789 787 
4 848 849 790 789 
4 849 850 791 790 
4 850 851 792 791 
4 851 852 793 792 
4 852 853 794 793 
4 853 854 795 794 
4 854 855 796 795 
4 855 856 797 796 
4 856 857 798 797 
4 857 858 799 798 
4 858 859 800 799 
4 859 860 801 800 
4 860 861 802 801 
4 861 862 803 802 
4 862 863 804 803 
4 863 864 805 804 
4 864 865 806 805 
4 865 866 807 806 
4 866 867 808 807 
4 867 868 809 808 
4 868 869 810 809 
4 869 870 811 810 
4 870 871 812 811 
4 871 872 813 812 
4 872 873 814 813 
4 873 874 815 814 
4 874 875 816 815 
4 875 876 817 816 
4 876 877 818 817 
4 877 878 819 818 
4 878 879 820 819 
4 879 880 821 820 
4 880 881 822 821 
4 881 882 823 822 
4 883 884 825 824 
4 884 885 826 825 
4 885 886 827 826 
4 886 887 828 827 
4 887 888 829 828 
4 888 889 830 829 
4 889 890 831 830 
4 890 891 832 831 
4 891 892 833 832 
4 892 893 834 833 
4 893 894 835 834 
4 894 895 836 835 
4 895 896 837 836 
4 896 897 838 837 
4 897 898 839 838 
4 898 899 840 839 
4 899 900 841 840 
4 900 901 842 841 
4 901 902 843 842 
4 902 903 844 843 
4 903 904 845 844 
4 904 905 846 845 
4 905 906 847 846 
4 906 907 848 847 
4 907 908 849 848 
4 908 909 850 849 
4 909 910 851 850 
4 910 911 852 851 
4 911 912 853 852 
4 912 913 854 853 
4 913 914 855 854 
4 914 915 856 855 
4 915 916 857 856 
4 916 917 858 857 
4 917 918 859 858 
4 918 919 860 859 
4 919 920 861 860 
4 920 921 862 861 
4 921 922 863 862 
4 922 923 864 863 
4 923 924 865 864 
4 924 925 866 865 
4 925 926 867 866 
4 926 927 868 867 
4 927 928 869 868 
4 928 929 870 869 
4 929 930 871 870 
4 930 931 872 871 
4 931 932 873 872 
4 932 933 874 873 
4 933 934 875 874 
4 934 935 876 875 
4 935 936 877 876 
4 936 937 878 877 
4 937 938 879 878 
4 938 939 880 879 
4 939 940 881 880 
4 940 941 882 881 
4 942 943 885 884 
4 943 944 886 885 
4 944 945 887 886 
4 945 946 888 887 
4 946 947 889 888 
4 947 948 890 889 
4 948 949 891 890 
4 949 950 892 891 
4 950 951 893 892 
4 951 952 894 893 
4 952 953 895 894 
4 953 954 896 895 
4 954 955 897 896 
4 955 956 898 897 
4 956 957 899 898 
4 957 958 900 899 
4 958 959 901 900 
4 959 960 902 901 
4 960 961 903 902 
4 961 962 904 903 
4 962 963 905 904 
4 963 964 906 905 
4 964 965 907 906 
4 965 966 908 907 
4 966 967 909 908 
4 967 968 910 909 
4 968 969 911 910 
4 969 970 912 911 
4 970 971 913 912 
4 971 972 914 913 
4 972 973 915 914 
4 973 974 916 915 
4 974 975 917 916 
4 975 976 918 917 
4 976 977 919 918 
4 977 978 920 919 
4 978 979 921 920 
4 979 980 922 921 
4 980 981 923 922 
4 981 982 924 923 
4 982 983 925 924 
4 983 984 926 925 
4 984 985 927 926 
4 985 986 928 927 
4 986 987 929 928 
4 987 988 930 929 
4 988 989 931 930 
4 989 990 932 931 
4 990 991 933 932 
4 991 992 934 933 
4 992 993 935 934 
4 993 994 936 935 
4 994 995 937 936 
4 995 996 938 937 
4 996 997 939 938 
4 997 998 940 939 
4 998 999 941 940 
4 1000 1001 943 942 
4 1001 1002 944 943 
4 1002 1003 945 944 
4 1003 1004 946 945 
4 1004 1005 947 946 
4 1005 1006 948 947 
4 1006 1007 949 948 
4 1007 1008 950 949 
4 1008 1009 951 950 
4 1009 1010 952 951 
4 1010 1011 953 952 
4 1011 1012 954 953 
4 1012 1013 955 954 
4 1013 1014 956 955 
4 1014 1015 957 956 
4 1015 1016 958 957 
4 1016 1017 959 958 
4 1017 1018 960 959 
4 1018 1019 961 960 
4 1019 1020 962 961 
4 1020 1021 963 962 
4 1021 1022 964 963 
4 1022 1023 965 964 
4 1023 1024 966 965 
4 1024 1025 967 966 
4 1025 1026 968 967 
4 1026 1027 969 968 
4 1027 1028 970 969 
4 1028 1029 971 970 
4 1029 1030 972 971 
4 1030 1031 973 972 
4 1031 1032 974 973 
4 1032 1033 975 974 
4 1033 1034 976 975 
4 1034 1035 977 976 
4 1035 1036 978 977 
4 1036 1037 979 974 874 1037 1038 980 979 
4 1038 1039 981 980 
4 1039 1040 982 981 
4 1040 1041 983 982 
4 1041 1042 984 983 
4 1042 1043 985 984 
4 1043 1044 986 985 
4 1044 1045 987 986 
4 1045 1046 988 987 
4 1046 1047 989 988 
4 1047 1048 990 989 
4 1048 1049 991 990 
4 1049 1050 992 991 
4 1050 1051 993 992 
4 1051 1052 994 993 
4 1052 1053 995 994 
4 1053 1054 996 995 
4 1054 1055 997 996 
4 1055 1056 998 997 
4 1056 1057 999 998 
4 1058 1059 1002 1001 
4 1059 1060 1003 1002 
4 1060 1061 1004 1003 
4 1061 1062 1005 1004 
4 1062 1063 1006 1005 
4 1063 1064 1007 1006 
4 1064 1065 1008 1007 
4 1065 1066 1009 1008 
4 1066 1067 1010 1009 
4 1067 1068 1011 1010 
4 1068 1069 1012 1011 
4 1069 1070 1013 1012 
4 1070 1071 1014 1013 
4 1071 1072 1015 1014 
4 1072 1073 1016 1015 
4 1073 1074 1017 1016 
4 1074 1075 1018 1017 
4 1075 1076 1019 1018 
4 1076 1077 1020 1019 
4 1077 1078 1021 1020 
4 1078 1079 1022 1021 
4 1079 1080 1023 1022 
4 1080 1081 1024 1023 
4 1081 1082 1025 1024 
4 1082 1083 1026 1025 
4 1083 1084 1027 1026 
4 1084 1085 1028 1027 
4 1085 1086 1029 1028 
4 1086 1087 1030 1029 
4 1087 1088 1031 1030 
4 1088 1089 1032 1031 
4 1089 1090 1033 1032 
4 1090 1091 1034 1033 
4 1091 1092 1035 1034 
4 1092 1093 1036 1035 
4 1093 1094 1037 1036 
4 1094 1095 1038 1037 
4 1095 1096 1039 1038 
4 1096 1097 1040 1039 
4 1097 1098 1041 1040 
4 1098 1099 1042 1041 
4 1099 1100 1043 1042 
4 1100 1101 1044 1043 
4 1101 1102 1045 1044 
4 1102 1103 1046 1045 
4 1103 1104 1047 1046 
4 1104 1105 1048 1047 
4 1105 1106 1049 1048 
4 1106 1107 1050 1049 
4 1107 1108 1051 1050 
4 1108 1109 1052 1051 
4 1109 1110 1053 1052 
4 1110 1111 1054 1053 
4 1111 1112 1055 1054 
4 1112 1113 1056 1055 
4 1113 1114 1057 1056 
4 1115 1116 1059 1058 
4 1116 1117 1060 1059 
4 1117 1118 1061 1060 
4 1118 1119 1062 1061 
4 1119 1120 1063 1062 
4 1120 1121 1064 1063 
4 1121 1122 1065 1064 
4 1122 1123 1066 1065 
4 1123 1124 1067 1066 
4 1124 1125 1068 1067 
4 1125 1126 1069 1068 
4 1126 1127 1070 1069 
4 1127 1128 1071 1070 
4 1128 1129 1072 1071 
4 1129 1130 1073 1072 
4 1130 1131 1074 1073 
4 1131 1132 1075 1074 
4 1132 1133 1076 1075 
4 1133 1134 1077 1076 
4 1134 1135 1078 1077 
4 1135 1136 1079 1078 
4 1136 1137 1080 1079 
4 1137 1138 1081 1080 
4 1138 1139 1082 1081 
4 1139 1140 1083 1082 
4 1140 1141 1084 1083 
4 1141 1142 1085 1084 
4 1142 1143 1086 1085 
4 1143 1144 1087 1086 
4 1144 1145 1088 1087 
4 1145 1146 1089 1088 
4 1146 1147 1090 1089 
4 1147 1148 1091 1090 
4 1148 1149 1092 1091 
4 1149 1150 1093 1092 
4 1150 1151 1094 1093 
4 1151 1152 1095 1094 
4 1152 1153 1096 1095 
4 1153 1154 1097 1096 
4 1154 1155 1098 1097 
4 1155 1156 1099 1098 
4 1156 1157 1100 1099 
4 1157 1158 1101 1100 
4 1158 1159 1102 1101 
4 1159 1160 1103 1102 
4 1160 1161 1104 1103 
4 1161 1162 1105 1104 
4 1162 1163 1106 1105 
4 1163 1164 1107 1106 
4 1164 1165 1108 1107 
4 1165 1166 1109 1108 
4 1166 1167 1110 1109 
4 1167 1168 1111 1110 
4 1168 1169 1112 1111 
4 1169 1170 1113 1112 
4 1170 1171 1114 1113 
4 1172 1173 1116 1115 
4 1173 1174 1117 1116 
4 1174 1175 1118 1117 
4 1175 1176 1119 1118 
4 1176 1177 1120 1119 
4 1177 1178 1121 1120 
4 1178 1179 1122 1121 
4 1179 1180 1123 1122 
4 1180 1181 1124 1123 
4 1181 1182 1125 1124 
4 1182 1183 1126 1125 
4 1183 1184 1127 1126 
4 1184 1185 1128 1127 
4 1185 1186 1129 1128 
4 1186 1187 1130 1129 
4 1187 1188 1131 1130 
4 1188 1189 1132 1131 
4 1189 1190 1133 1132 
4 1190 1191 1134 1133 
4 1191 1192 1135 1134 
4 1192 1193 1136 1135 
4 1193 1194 1137 1136 
4 1194 1195 1138 1137 
4 1195 1196 1139 1138 
4 1196 1197 1140 1139 
4 1197 1198 1141 1140 
4 1198 1199 1142 1141 
4 1199 1200 1143 1142 
4 1200 1201 1144 1143 
4 1201 1202 1145 1144 
4 1202 1203 1146 1145 
4 1203 1204 1147 1146 
4 1204 1205 1148 1147 
4 1205 1206 1149 1148 
4 1206 1207 1150 1149 
4 1207 1208 1151 1150 
4 1208 1209 1152 1151 
4 1209 1210 1153 1152 
4 1210 1211 1154 1153 
4 1211 1212 1155 1154 
4 1212 1213 1156 114 9594 1213 1214 1157 1156 
4 1214 1215 1158 1157 
4 1215 1216 1159 1158 
4 1216 1217 1160 1159 
4 1217 1218 1161 1160 
4 1218 1219 1162 1161 
4 1219 1220 1163 1162 
4 1220 1221 1164 1163 
4 1221 1222 1165 1164 
4 1222 1223 1166 1165 
4 1223 1224 1167 1166 
4 1224 1225 1168 1167 
4 1225 1226 1169 1168 
4 1226 1227 1170 1169 
4 1228 1229 1173 1172 
4 1229 1230 1174 1173 
4 1230 1231 1175 1174 
4 1231 1232 1176 1175 
4 1232 1233 1177 1176 
4 1233 1234 1178 1177 
4 1234 1235 1179 1178 
4 1235 1236 1180 1179 
4 1236 1237 1181 1180 
4 1237 1238 1182 1181 
4 1238 1239 1183 1182 
4 1239 1240 1184 1183 
4 1240 1241 1185 1184 
4 1241 1242 1186 1185 
4 1242 1243 1187 1186 
4 1243 1244 1188 1187 
4 1244 1245 1189 1188 
4 1245 1246 1190 1189 
4 1246 1247 1191 1190 
4 1247 1248 1192 1191 
4 1248 1249 1193 1192 
4 1249 1250 1194 1193 
4 1250 1251 1195 1194 
4 1251 1252 1196 1195 
4 1252 1253 1197 1196 
4 1253 1254 1198 1197 
4 1254 1255 1199 1198 
4 1255 1256 1200 1199 
4 1256 1257 1201 1200 
4 1257 1258 1202 1201 
4 1258 1259 1203 1202 
4 1259 1260 1204 1203 
4 1260 1261 1205 1204 
4 1261 1262 1206 1205 
4 1262 1263 1207 1206 
4 1263 1264 1208 1207 
4 1264 1265 1209 1208 
4 1265 1266 1210 1209 
4 1266 1267 1211 1210 
4 1267 1268 1212 1211 
4 1268 1269 1213 1212 
4 1269 1270 1214 1213 
4 1270 1271 1215 1214 
4 1271 1272 1216 1215 
4 1272 1273 1217 1216 
4 1273 1274 1218 1217 
4 1274 1275 1219 1218 
4 1275 1276 1220 1219 
4 1276 1277 1221 1220 
4 1277 1278 1222 1221 
4 1278 1279 1223 1222 
4 1279 1280 1224 1223 
4 1281 1282 1229 1228 
4 1282 1283 1230 1229 
4 1283 1284 1231 1230 
4 1284 1285 1232 1231 
4 1285 1286 1233 1232 
4 1286 1287 1234 1233 
4 1287 1288 1235 1234 
4 1288 1289 1236 1235 
4 1289 1290 1237 1236 
4 1290 1291 1238 1237 
4 1291 1292 1239 1238 
4 1292 1293 1240 1239 
4 1293 1294 1241 1240 
4 1294 1295 1242 1241 
4 1295 1296 1243 1242 
4 1296 1297 1244 1243 
4 1297 1298 1245 1244 
4 1298 1299 1246 1245 
4 1299 1300 1247 1246 
4 1300 1301 1248 1247 
4 1301 1302 1249 1248 
4 1302 1303 1250 1249 
4 1303 1304 1251 1250 
4 1304 1305 1252 1251 
4 1305 1306 1253 1252 
4 1306 1307 1254 1253 
4 1307 1308 1255 1254 
4 1308 1309 1256 1255 
4 1309 1310 1257 1256 
4 1310 1311 1258 1257 
4 1311 1312 1259 1258 
4 1312 1313 1260 1259 
4 1313 1314 1261 1260 
4 1314 1315 1262 1261 
4 1315 1316 1263 1262 
4 1316 1317 1264 1263 
4 1317 1318 1265 1264 
4 1318 1319 1266 1265 
4 1319 1320 1267 1266 
4 1320 1321 1268 1267 
4 1321 1322 1269 1268 
4 1322 1323 1270 1269 
4 1323 1324 1271 1270 
4 1324 1325 1272 1271 
4 1325 1326 1273 1272 
4 1326 1327 1274 1273 
4 1327 1328 1275 1274 
4 1328 1329 1276 1275 
4 1329 1330 1277 1276 
4 1330 1331 1278 1277 
4 1331 1332 1279 1278 
4 1333 1334 1282 1281 
4 1334 1335 1283 1282 
4 1335 1336 1284 1283 
4 1336 1337 1285 1284 
4 1337 1338 1286 1285 
4 1338 1339 1287 1286 
4 1339 1340 1288 1287 
4 1340 1341 1289 1288 
4 1341 1342 1290 1289 
4 1342 1343 1291 1290 
4 1343 1344 1292 1291 
4 1344 1345 1293 1292 
4 1345 1346 1294 1293 
4 1346 1347 1295 1294 
4 1347 1348 1296 1295 
4 1348 1349 1297 1296 
4 1349 1350 1298 1297 
4 1350 1351 1299 1298 
4 1351 1352 1300 1299 
4 1352 1353 1301 1300 
4 1353 1354 1302 1301 
4 1354 1355 1303 1302 
4 1355 1356 1304 1303 
4 1356 1357 1305 1304 
4 1357 1358 1306 1305 
4 1358 1359 1307 1306 
4 1359 1360 1308 1307 
4 1360 1361 1309 1308 
4 1361 1362 1310 1309 
4 1362 1363 1311 1310 
4 1363 1364 1312 1311 
4 1364 1365 1313 1312 
4 1365 1366 1314 1313 
4 1366 1367 1315 1314 
4 1367 1368 1316 1315 
4 1368 1369 1317 1316 
4 1369 1370 1318 1317 
4 1370 1371 1319 1318 
4 1371 1372 1320 1319 
4 1372 1373 1321 1320 
4 1373 1374 1322 1321 
4 1374 1375 1323 1322 
4 1375 1376 1324 1323 
4 1376 1377 1325 1324 
4 1377 1378 1326 1325 
4 1378 1379 1327 1326 
4 1379 1380 1328 1327 
4 1380 1381 1329 1328 
4 1381 1382 1330 1329 
4 1382 1383 1331 1330 
4 1384 1385 1335 1334 
4 1385 1386 1336 1335 
4 1386 1387 1337 1336 
4 1387 1388 1338 1337 
4 1388 1389 1339 1338 
4 1389 1390 1340 1339 
4 1390 1391 1341 1340 
4 1391 1392 1342 1341 
4 1392 1393 1343 1342 
4 1393 1394 1344 1343 
4 1394 1395 1345 1344 
4 1395 1396 1346 1345 
4 1396 1397 1347 1346 
4 1397 1398 1348 1347 
4 1398 1399 1349 1348 
4 1399 1400 1350 1349 
4 1400 1401 1351 1350 
4 1401 1402 1352 1351 
4 1402 1403 1353 1352 
4 1403 1404 1354 1353 
4 1404 1405 1355 1354 
4 1405 1406 1356 1355 
4 1406 1407 1357 1356 
4 1407 1408 1358 1357 
4 1408 1409 1359 1358 
4 1409 1410 1360 1359 
4 1410 1411 1361 1360 
4 1411 1412 1362 1361 
4 1412 1413 1363 1362 
4 1413 1414 1364 1363 
4 1414 1415 1365 1364 
4 1415 1416 1366 1365 
4 1416 1417 1367 1366 
4 1417 1418 1368 1367 
4 1418 1419 1369 1368 
4 1419 1420 1370 1369 
4 1420 1421 1371 1370 
4 1421 1422 1372 1371 
4 1422 1423 1373 1372 
4 1423 1424 1374 1373 
4 1424 1425 1375 1374 
4 1425 1426 1376 1375 
4 1426 1427 1377 1376 
4 1427 1428 1378 1377 
4 1428 1429 1379 1378 
4 1429 1430 1380 1379 
4 1430 1431 1381 1380 
4 1431 1432 1382 1381 
4 1433 1434 1385 1384 
4 1434 1435 1386 1385 
4 1435 1436 1387 1386 
4 1436 1437 1388 1387 
4 1437 1438 1389 1388 
4 1438 1439 1390 1389 
4 1439 1440 1391 1390 
4 1440 1441 1392 1391 
4 1441 1442 1393 1392 
4 1442 1443 1394 1393 
4 1443 1444 1395 1394 
4 1444 1445 1396 1395 
4 1445 1446 1397 1396 
4 1446 1447 1398 1397 
4 1447 1448 1399 1398 
4 1448 1449 1400 1399 
4 1449 1450 1401 1400 
4 1450 1451 1402 1401 
4 1451 1452 1403 1402 
4 1452 1453 1404 1403 
4 1453 1454 1405 1404 
4 1454 1455 1406 1405 
4 1455 1456 1407 1406 
4 1456 1457 1408 1407 
4 1457 1458 1409 1408 
4 1458 1459 1410 1409 
4 1459 1460 1411 1410 
4 1460 1461 1412 1411 
4 1461 1462 1413 1412 
4 1462 1463 1414 1413 
4 1463 1464 1415 1414 
4 1464 1465 1416 1415 
4 1465 1466 1417 1416 
4 1466 1467 1418 1417 
4 1467 1468 1419 1418 
4 1468 1469 1420 1419 
4 1469 1470 1421 1420 
4 1470 1471 1422 1421 
4 1471 1472 1423 1422 
4 1472 1473 1424 1423 
4 1473 1474 1425 1424 
4 1474 1475 1426 1425 
4 1475 1476 1427 1426 
4 1476 1477 1428 1427 
4 1477 1478 1429 1428 
4 1478 1479 1430 1429 
4 1479 1480 1431 1430 
4 1481 1482 1434 1433 
4 1482 1483 1435 1434 
4 1483 1484 1436 1435 
4 1484 1485 1437 1436 
4 1485 1486 1438 1437 
4 1486 1487 1439 1438 
4 1487 1488 1440 1439 
4 1488 1489 1441 1440 
4 1489 1490 1442 1441 
4 1490 1491 1443 1442 
4 1491 1492 1444 1443 
4 1492 1493 1445 1444 
4 1493 1494 1446 1445 
4 1494 1495 1447 1446 
4 1495 1496 1448 1447 
4 1496 1497 1449 1448 
4 1497 1498 1450 1449 
4 1498 1499 1451 1450 
4 1499 1500 1452 1451 
4 1500 1501 1453 1452 
4 1501 1502 1454 1453 
4 1502 1503 1455 1454 
4 1503 1504 1456 1455 
4 1504 1505 1457 1456 
4 1505 1506 1458 1457 
4 1506 1507 1459 1458 
4 1507 1508 1460 1459 
4 1508 1509 1461 1460 
4 1509 1510 1462 1461 
4 1510 1511 1463 1462 
4 1511 1512 1464 1463 
4 1512 1513 1465 1464 
4 1513 1514 1466 1465 
4 1514 1515 1467 1466 
4 1515 1516 1468 1467 
4 1516 1517 1469 1468 
4 1517 1518 1470 1469 
4 1518 1519 1471 1470 
4 1519 1520 1472 1471 
4 1520 1521 1473 1472 
4 1521 1522 1474 1473 
4 1522 1523 1475 1474 
4 1523 1524 1476 1475 
4 1524 1525 1477 1476 
4 1525 1526 1478 1477 
4 1526 1527 1479 1478 
4 1528 1529 1482 1481 
4 1529 1530 1483 1482 
4 1530 1531 1484 1483 
4 1531 1532 1485 1484 
4 1532 1533 1486 1485 
4 1533 1534 1487 1486 
4 1534 1535 1488 1487 
4 1535 1536 1489 1488 
4 1536 1537 1490 1489 
4 1537 1538 1491 1490 
4 1538 1539 1492 1491 
4 1539 1540 1493 1492 
4 1540 1541 1494 1493 
4 1541 1542 1495 1494 
4 1542 1543 1496 1495 
4 1543 1544 1497 1496 
4 1544 1545 1498 1497 
4 1545 1546 1499 1498 
4 1546 1547 1500 1499 
4 1547 1548 1501 1500 
4 1548 1549 1502 1501 
4 1549 1550 1503 1502 
4 1550 1551 1504 1503 
4 1551 1552 1505 1504 
4 1552 1553 1506 1505 
4 1553 1554 1507 1506 
4 1554 1555 1508 1507 
4 1555 1556 1509 1508 
4 1556 1557 1510 1509 
4 1557 1558 1511 1510 
4 1558 1559 1512 1511 
4 1559 1560 1513 1512 
4 1560 1561 1514 1513 
4 1561 1562 1515 1514 
4 1562 1563 1516 1515 
4 1563 1564 1517 1516 
4 1564 1565 1518 1517 
4 1565 1566 1519 1518 
4 1566 1567 1520 1519 
4 1567 1568 1521 1520 
4 1568 1569 1522 1521 
4 1569 1570 1523 1522 
4 1570 1571 1524 1523 
4 1571 1572 1525 1524 
4 1572 1573 1526 1525 
4 1573 1574 1527 1526 
4 1576 1577 1578 1575 
4 1577 1579 1528 1578 
4 1579 1580 1529 1528 
4 1580 1581 1530 1529 
4 1581 1582 1531 1530 
4 1582 1583 1532 1531 
4 1583 1584 1533 1532 
4 1584 1585 1534 1533 
4 1585 1586 1535 1534 
4 1586 1587 1536 1535 
4 1587 1588 1537 1536 
4 1588 1589 1538 1537 
4 1589 1590 1539 1538 
4 1590 1591 1540 1539 
4 1591 1592 1541 1540 
4 1592 1593 1542 1541 
4 1593 1594 1543 1542 
4 1594 1595 1544 1543 
4 1595 1596 1545 1544 
4 1596 1597 1546 1545 
4 1597 1598 1547 1546 
4 1598 1599 1548 1547 
4 1599 1600 1549 1548 
4 1600 1601 1550 1549 
4 1601 1602 1551 1550 
4 1602 1603 1552 1551 
4 1603 1604 1553 1552 
4 1604 1605 1554 1553 
4 1605 1606 1555 1554 
4 1606 1607 1556 1555 
4 1607 1608 1557 1556 
4 1608 1609 1558 1557 
4 1609 1610 1559 1558 
4 1610 1611 1560 1559 
4 1611 1612 1561 1560 
4 1612 1613 1562 1561 
4 1613 1614 1563 1562 
4 1614 1615 1564 1563 
4 1615 1616 1565 1564 
4 1616 1617 1566 1565 
4 1617 1618 1567 1566 
4 1618 1619 1568 1567 
4 1619 1620 1569 1568 
4 1620 1621 1570 1569 
4 1621 1622 1571 1570 
4 1622 1623 1572 1571 
4 1623 1624 1573 1572 
4 1626 1627 1576 1625 
4 1627 1628 1577 1576 
4 1628 1629 1579 1577 
4 1629 1630 1580 1579 
4 1630 1631 1581 1580 
4 1631 1632 1582 1581 
4 1632 1633 1583 1582 
4 1633 1634 1584 1583 
4 1634 1635 1585 1584 
4 1635 1636 1586 1585 
4 1636 1637 1587 1586 
4 1637 1638 1588 1587 
4 1638 1639 1589 1588 
4 1639 1640 1590 1589 
4 1640 1641 1591 1590 
4 1641 1642 1592 1591 
4 1642 1643 1593 1592 
4 1643 1644 1594 1593 
4 1644 1645 1595 1594 
4 1645 1646 1596 1595 
4 1646 1647 1597 1596 
4 1647 1648 1598 1597 
4 1648 1649 1599 1598 
4 1649 1650 1600 1599 
4 1650 1651 1601 1600 
4 1651 1652 1602 1601 
4 1652 1653 1603 1602 
4 1653 1654 1604 1603 
4 1654 1655 1605 1604 
4 1655 1656 1606 1605 
4 1656 1657 1607 1606 
4 1657 1658 1608 1607 
4 1658 1659 1609 1608 
4 1659 1660 1610 1609 
4 1660 1661 1611 1610 
4 1661 1662 1612 1611 
4 1662 1663 1613 1612 
4 1663 1664 1614 1613 
4 1664 1665 1615 1614 
4 1665 1666 1616 1615 
4 1666 1667 1617 1616 
4 1667 1668 1618 1617 
4 1668 1669 1619 1618 
4 1669 1670 1620 1619 
4 1670 1671 1621 1620 
4 1671 1672 1622 1621 
4 1672 1673 1623 1622 
4 1673 1674 1624 1623 
4 1675 1676 1627 1626 
4 1676 1677 1628 1627 
4 1677 1678 1629 1628 
4 1678 1679 1630 1629 
4 1679 1680 1631 1630 
4 1680 1681 1632 1631 
4 1681 1682 1633 1632 
4 1682 1683 1634 1633 
4 1683 1684 1635 1634 
4 1684 1685 1636 1635 
4 1685 1686 1637 1636 
4 1686 1687 1638 1637 
4 1687 1688 1639 1638 
4 1688 1689 1640 1639 
4 1689 1690 1641 1640 
4 1690 1691 1642 1641 
4 1691 1692 1643 1642 
4 1692 1693 1644 1643 
4 1693 1694 1645 1644 
4 1694 1695 1646 1645 
4 1695 1696 1647 1646 
4 1696 1697 1648 1647 
4 1697 1698 1649 1648 
4 1698 1699 1650 1649 
4 1699 1700 1651 1650 
4 1700 1701 1652 1651 
4 1701 1702 1653 1652 
4 1702 1703 1654 1653 
4 1703 1704 1655 1654 
4 1704 1705 1656 1655 
4 1705 1706 1657 1656 
4 1706 1707 1658 1657 
4 1707 1708 1659 1658 
4 1708 1709 1660 1659 
4 1709 1710 1661 1660 
4 1710 1711 1662 1661 
4 1711 1712 1663 1662 
4 1712 1713 1664 1663 
4 1713 1714 1665 1664 
4 1714 1715 1666 1665 
4 1715 1716 1667 1666 
4 1716 1717 1668 1667 
4 1717 1718 1669 1668 
4 1718 1719 1670 1669 
4 1719 1720 1671 1670 
4 1720 1721 1672 1671 
4 1721 1722 1673 1672 
4 1722 1723 1674 1673 
4 1724 1725 1676 1675 
4 1725 1726 1677 1676 
4 1726 1727 1678 1677 
4 1727 1728 1679 1678 
4 1728 1729 1680 1679 
4 1729 1730 1681 1680 
4 1730 1731 1682 1681 
4 1731 1732 1683 1682 
4 1732 1733 1684 1683 
4 1733 1734 1685 1684 
4 1734 1735 1686 1685 
4 1735 1736 1687 1686 
4 1736 1737 1688 1687 
4 1737 1738 1689 1688 
4 1738 1739 1690 1689 
4 1739 1740 1691 1690 
4 1740 1741 1692 1691 
4 1741 1742 1693 1692 
4 1742 1743 1694 1693 
4 1743 1744 1695 1694 
4 1744 1745 1696 1695 
4 1745 1746 1697 1696 
4 1746 1747 1698 1697 
4 1747 1748 1699 1698 
4 1748 1749 1700 1699 
4 1749 1750 1701 1700 
4 1750 1751 1702 1701 
4 1751 1752 1703 1702 
4 1752 1753 1704 1703 
4 1753 1754 1705 1704 
4 1754 1755 1706 1705 
4 1755 1756 1707 1706 
4 1756 1757 1708 1707 
4 1757 1758 1709 1708 
4 1758 1759 1710 1709 
4 1759 1760 1711 1710 
4 1760 1761 1712 1711 
4 1761 1762 1713 1712 
4 1762 1763 1714 1713 
4 1763 1764 1715 1714 
4 1764 1765 1716 1715 
4 1765 1766 1717 1716 
4 1766 1767 1718 1717 
4 1767 1768 1719 1718 
4 1768 1769 1720 1719 
4 1769 1770 1721 1720 
4 1770 1771 1722 1721 
4 1771 1772 1723 1722 
4 1773 1774 1725 1724 
4 1774 1775 1726 1725 
4 1775 1776 1727 1726 
4 1776 1777 1728 1727 
4 1777 1778 1729 1728 
4 1778 1779 1730 1729 
4 1779 1780 1731 1730 
4 1780 1781 1732 1731 
4 1781 1782 1733 1732 
4 1782 1783 1734 1733 
4 1783 1784 1735 1734 
4 1784 1785 1736 1735 
4 1785 1786 1737 1736 
4 1786 1787 1738 1737 
4 1787 1788 1739 1738 
4 1788 1789 1740 1739 
4 1789 1790 1741 1740 
4 1790 1791 1742 1741 
4 1791 1792 1743 1742 
4 1792 1793 1744 1743 
4 1793 1794 1745 1744 
4 1794 1795 1746 1745 
4 1795 1796 1747 1746 
4 1796 1797 1748 1747 
4 1797 1798 1749 1748 
4 1798 1799 1750 1749 
4 1799 1800 1751 1750 
4 1800 1801 1752 1751 
4 1801 1802 1753 1752 
4 1802 1803 1754 1753 
4 1803 1804 1755 1754 
4 1804 1805 1756 1755 
4 1805 1806 1757 1756 
4 1806 1807 1758 1757 
4 1807 1808 1759 1758 
4 1808 1809 1760 1759 
4 1809 1810 1761 1760 
4 1810 1811 1762 1761 
4 1811 1812 1763 1762 
4 1812 1813 1764 1763 
4 1813 1814 1765 1764 
4 1814 1815 1766 1765 
4 1815 1816 1767 1766 
4 1816 1817 1768 1767 
4 1817 1818 1769 1768 
4 1818 1819 1770 1769 
4 1819 1820 1771 1770 
4 1820 1821 1772 1771 
4 1822 1823 1774 1773 
4 1823 1824 1775 1774 
4 1824 1825 1776 1775 
4 1825 1826 1777 1776 
4 1826 1827 1778 1777 
4 1827 1828 1779 1778 
4 1828 1829 1780 1779 
4 1829 1830 1781 1780 
4 1830 1831 1782 1781 
4 1831 1832 1783 1782 
4 1832 1833 1784 1783 
4 1833 1834 1785 1784 
4 1834 1835 1786 1785 
4 1835 1836 1787 1786 
4 1836 1837 1788 1787 
4 1837 1838 1789 1788 
4 1838 1839 1790 1789 
4 1839 1840 1791 1790 
4 1840 1841 1792 1791 
4 1841 1842 1793 1792 
4 1842 1843 1794 1793 
4 1843 1844 1795 1794 
4 1844 1845 1796 1795 
4 1845 1846 1797 1796 
4 1846 1847 1798 1797 
4 1847 1848 1799 1798 
4 1848 1849 1800 1799 
4 1849 1850 1801 1800 
4 1850 1851 1802 1801 
4 1851 1852 1803 1802 
4 1852 1853 1804 1803 
4 1853 1854 1805 1804 
4 1854 1855 1806 1805 
4 1855 1856 1807 1806 
4 1856 1857 1808 1807 
4 1857 1858 1809 1808 
4 1858 1859 1810 1809 
4 1859 1860 1811 1810 
4 1860 1861 1812 1811 
4 1862 1863 1816 1815 
4 1863 1864 1817 1816 
4 1864 1865 1818 1817 
4 1865 1866 1819 1818 
4 1866 1867 1820 1819 
4 1867 1868 1821 1820 
4 1869 1870 1823 1822 
4 1870 1871 1824 1823 
4 1871 1872 1825 1824 
4 1872 1873 1826 1825 
4 1873 1874 1827 1826 
4 1874 1875 1828 1827 
4 1875 1876 1829 1828 
4 1876 1877 1830 1829 
4 1877 1878 1831 1830 
4 1878 1879 1832 1831 
4 1879 1880 1833 1832 
4 1880 1881 1834 1833 
4 1881 1882 1835 1834 
4 1882 1883 1836 1835 
4 1883 1884 1837 1836 
4 1884 1885 1838 1837 
4 1885 1886 1839 1838 
4 1886 1887 1840 1839 
4 1887 1888 1841 1840 
4 1888 1889 1842 1841 
4 1889 1890 1843 1842 
4 1890 1891 1844 1843 
4 1891 1892 1845 1844 
4 1892 1893 1846 1845 
4 1893 1894 1847 1846 
4 1894 1895 1848 1847 
4 1895 1896 1849 1848 
4 1896 1897 1850 1849 
4 1897 1898 1851 1850 
4 1898 1899 1852 1851 
4 1899 1900 1853 1852 
4 1900 1901 1854 1853 
4 1902 1903 1863 1862 
4 1903 1904 1864 1863 
4 1904 1905 1865 1864 
4 1905 1906 1866 1865 
4 1906 1907 1867 1866 
4 1908 1909 1871 1870 
4 1909 1910 1872 1871 
4 1910 1911 1873 1872 
4 1911 1912 1874 1873 
4 1912 1913 1875 1874 
4 1913 1914 1876 1875 
4 1914 1915 1877 1876 
4 1915 1916 1878 1877 
4 1916 1917 1879 1878 
4 1917 1918 1880 1879 
4 1918 1919 1881 1880 
4 1919 1920 1882 1881 
4 1920 1921 1883 1882 
4 1921 1922 1884 1883 
4 1922 1923 1885 1884 
4 1923 1924 1886 1885 
4 1924 1925 1887 1886 
4 1925 1926 1888 1887 
4 1926 1927 1889 1888 
4 1927 1928 1890 1889 
4 1928 1929 1891 1890 
4 1929 1930 1892 1891 
4 1930 1931 1893 1892 
4 1931 1932 1894 1893 
4 1932 1933 1895 1894 
4 1933 1934 1896 1895 
4 1934 1935 1897 1896 
4 1935 1936 1898 1897 
4 1936 1937 1899 1898 
4 1939 1940 1902 1938 
4 1940 1941 1903 1902 
4 1941 1942 1904 1903 
4 1942 1943 1905 1904 
4 1943 1944 1906 1905 
4 1944 1945 1907 1906 
4 1946 1947 1909 1908 
4 1947 1948 1910 1909 
4 1948 1949 1911 1910 
4 1949 1950 1912 1911 
4 1950 1951 1913 1912 
4 1951 1952 1914 1913 
4 1952 1953 1915 1914 
4 1953 1954 1916 1915 
4 1954 1955 1917 1916 
4 1955 1956 1918 1917 
4 1956 1957 1919 1918 
4 1957 1958 1920 1919 
4 1958 1959 1921 1920 
4 1959 1960 1922 1921 
4 1960 1961 1923 1922 
4 1961 1962 1924 1923 
4 1962 1963 1925 1924 
4 1963 1964 1926 1925 
4 1964 1965 1927 1926 
4 1965 1966 1928 1927 
4 1966 1967 1929 1928 
4 1967 1968 1930 1929 
4 1968 1969 1931 1930 
4 1969 1970 1932 1931 
4 1970 1971 1933 1932 
4 1971 1972 1934 1933 
4 1972 1973 1935 1934 
4 1974 1975 1940 1939 
4 1975 1976 1941 1940 
4 1976 1977 1942 1941 
4 1977 1978 1943 1942 
4 1978 1979 1944 1943 
4 1980 1981 1948 1947 
4 1981 1982 1949 1948 
4 1982 1983 1950 1949 
4 1983 1984 1951 1950 
4 1984 1985 1952 1951 
4 1985 1986 1953 1952 
4 1986 1987 1954 1953 
4 1987 1988 1955 1954 
4 1988 1989 1956 1955 
4 1989 1990 1957 1956 
4 1990 1991 1958 1957 
4 1991 1992 1959 1958 
4 1992 1993 1960 1959 
4 1993 1994 1961 1960 
4 1994 1995 1962 1961 
4 1995 1996 1963 1962 
4 1996 1997 1964 1963 
4 1997 1998 1965 1964 
4 1998 1999 1966 1965 
4 1999 2000 1967 1966 
4 2000 2001 1968 1967 
4 2001 2002 1969 1968 
4 2002 2003 1970 1969 
4 2003 2004 1971 1970 
4 2004 2005 1972 1971 
4 2006 2007 1976 1975 
4 2007 2008 1977 1976 
4 2009 2010 1982 1981 
4 2010 2011 1983 1982 
4 2011 2012 1984 1983 
4 2012 2013 1985 1984 
4 2013 2014 1986 1985 
4 2014 2015 1987 1986 
4 2015 2016 1988 1987 
4 2016 2017 1989 1988 
4 2017 2018 1990 1989 
4 2018 2019 1991 1990 
4 2019 2020 1992 1991 
4 2020 2021 1993 1992 
4 2021 2022 1994 1993 
4 2022 2023 1995 1994 
4 2023 2024 1996 1995 
4 2024 2025 1997 1996 
4 2025 2026 1998 1997 
4 2026 2027 1999 1998 
4 2027 2028 2000 1999 
4 2028 2029 2001 2000 
4 2029 2030 2002 2001 
4 2030 2031 2003 2002 
4 2031 2032 2004 2003 
4 2032 2033 2005 2004 
4 2034 2035 2010 2009 
4 2035 2036 2011 2010 
4 2036 2037 2012 2011 
4 2037 2038 2013 2012 
4 2038 2039 2014 2013 
4 2039 2040 2015 2014 
4 2040 2041 2016 2015 
4 2041 2042 2017 2016 
4 2042 2043 2018 2017 
4 2043 2044 2019 2018 
4 2044 2045 2020 2019 
4 2045 2046 2021 2020 
4 2046 2047 2022 2021 
4 2047 2048 2023 2022 
4 2048 2049 2024 2023 
4 2049 2050 2025 2024 
4 2050 2051 2026 2025 
4 2051 2052 2027 2026 
4 2052 2053 2028 2027 
4 2053 2054 2029 2028 
4 2054 2055 2030 2029 
4 2055 2056 2031 2030 
4 2056 2057 2032 2031 
4 2058 2059 2037 2036 
4 2059 2060 2038 2037 
4 2060 2061 2039 2038 
4 2061 2062 2040 2039 
4 2062 2063 2041 2040 
4 2063 2064 2042 2041 
4 2064 2065 2043 2042 
4 2065 2066 2044 2043 
4 2066 2067 2045 2044 
4 2067 2068 2046 2045 
4 2068 2069 2047 2046 
4 2069 2070 2048 2047 
4 2070 2071 2049 2048 
4 2071 2072 2050 2049 
4 2072 2073 2051 2050 
4 2073 2074 2052 2051 
4 2074 2075 2053 2052 
4 2075 2076 2054 2053 
4 2076 2077 2055 2054 
4 2077 2078 2056 2055 
4 2078 2079 2057 2056 
4 2080 2081 2059 2058 
4 2081 2082 2060 2059 
4 2082 2083 2061 2060 
4 2083 2084 2062 2061 
4 2084 2085 2063 2062 
4 2085 2086 2064 2063 
4 2086 2087 2065 2064 
4 2087 2088 2066 2065 
4 2088 2089 2067 2066 
4 2089 2090 2068 2067 
4 2090 2091 2069 2068 
4 2091 2092 2070 2069 
4 2092 2093 2071 2070 
4 2093 2094 2072 2071 
4 2094 2095 2073 2072 
4 2095 2096 2074 2073 
4 2096 2097 2075 2074 
4 2097 2098 2076 2075 
4 2098 2099 2077 2076 
4 2099 2100 2078 2077 
4 2100 2101 2079 2078 
4 2102 2103 2083 2082 
4 2103 2104 2084 2083 
4 2104 2105 2085 2084 
4 2105 2106 2086 2085 
4 2106 2107 2087 2086 
4 2107 2108 2088 2087 
4 2108 2109 2089 2088 
4 2109 2110 2090 2089 
4 2110 2111 2091 2090 
4 2111 2112 2092 2091 
4 2112 2113 2093 2092 
4 2113 2114 2094 2093 
4 2114 2115 2095 2094 
4 2115 2116 2096 2095 
4 2116 2117 2097 2096 
4 2117 2118 2098 2097 
4 2118 2119 2099 2098 
4 2119 2120 2100 2099 
4 2120 2121 2101 2100 
4 2122 2123 2104 2103 
4 2123 2124 2105 2104 
4 2124 2125 2106 2105 
4 2125 2126 2107 2106 
4 2126 2127 2108 2107 
4 2127 2128 2109 2108 
4 2128 2129 2110 2109 
4 2129 2130 2111 2110 
4 2130 2131 2112 2111 
4 2131 2132 2113 2112 
4 2132 2133 2114 2113 
4 2133 2134 2115 2114 
4 2134 2135 2116 2115 
4 2135 2136 2117 2116 
4 2136 2137 2118 2117 
4 2137 2138 2119 2118 
4 2138 2139 2120 2119 
4 2140 2141 2124 2123 
4 2141 2142 2125 2124 
4 2142 2143 2126 2125 
4 2143 2144 2127 2126 
4 2144 2145 2128 2127 
4 2145 2146 2129 2128 
4 2146 2147 2130 2129 
4 2147 2148 2131 2130 
4 2148 2149 2132 2131 
4 2149 2150 2133 2132 
4 2150 2151 2134 2133 
4 2151 2152 2135 2134 
4 2152 2153 2136 2135 
4 2153 2154 2137 2136 
4 2154 2155 2138 2137 
4 2156 2157 2142 2141 
4 2157 2158 2143 2142 
4 2158 2159 2144 2143 
4 2159 2160 2145 2144 
4 2160 2161 2146 2145 
4 2161 2162 2147 2146 
4 2162 2163 2148 2147 
4 2163 2164 2149 2148 
4 2164 2165 2150 2149 
4 2165 2166 2151 2150 
4 2166 2167 2152 2151 
4 2167 2168 2153 2152 
4 2168 2169 2154 2153 
4 2170 2171 2157 2156 
4 2171 2172 2158 2157 
4 2172 2173 2159 2158 
4 2173 2174 2160 2159 
4 2174 2175 2161 2160 
4 2175 2176 2162 2161 
4 2176 2177 2163 2162 
4 2177 2178 2164 2163 
4 2178 2179 2165 2164 
4 2179 2180 2166 2165 
4 2180 2181 2167 2166 
4 2181 2182 2168 2167 
4 2183 2184 2172 2171 
4 2184 2185 2173 2172 
4 2185 2186 2174 2173 
4 2186 2187 2175 2174 
4 2187 2188 2176 2175 
4 2188 2189 2177 2176 
4 2189 2190 2178 2177 
4 2190 2191 2179 2178 
4 2191 2192 2180 2179 
4 2192 2193 2181 2180 
4 2194 2195 2185 2184 
4 2195 2196 2186 2185 
4 2196 2197 2187 2186 
4 2197 2198 2188 2187 
4 2198 2199 2189 2188 
4 2199 2200 2190 2189 
4 2200 2201 2191 2190 
4 2201 2202 2192 2191 
4 2203 2204 2196 2195 
4 2204 2205 2197 2196 
4 2205 2206 2198 2197 
4 2206 2207 2199 2198 
4 2207 2208 2200 2199 
4 2208 2209 2201 2200 
4 2210 2211 2205 2204 
4 2211 2212 2206 2205 
4 2212 2213 2207 2206 
4 2213 2214 2208 2207 
4 2215 2216 2212 2211 
4 2216 2217 2213 2212 
2 0 1 
2 3 0 
2 1 10 
2 5 3 
2 7 5 
2 9 7 
2 8 9 
2 18 8 
2 10 11 
2 11 23 
2 20 18 
2 22 20 
2 21 22 
2 33 21 
2 23 40 
2 35 33 
2 37 35 
2 39 37 
2 38 39 
2 56 38 
2 40 41 
2 41 75 
2 58 56 
2 60 58 
2 62 60 
2 64 62 
2 66 64 
2 68 66 
2 70 68 
2 72 70 
2 74 72 
2 75 99 
2 99 123 
2 123 147 
2 147 171 
2 171 172 
2 172 195 
2 195 218 
2 237 214 
2 214 215 
2 215 216 
2 216 217 
2 218 238 
2 257 237 
2 238 239 
2 239 258 
2 276 257 
2 258 259 
2 259 277 
2 294 276 
2 277 278 
2 278 279 
2 279 295 
2 310 294 
2 295 311 
2 326 310 
2 311 327 
2 342 326 
2 327 328 
2 328 343 
2 357 342 
2 343 358 
2 372 357 
2 358 373 
2 389 372 
2 373 390 
2 405 388 
2 388 389 
2 390 407 
2 422 405 
2 406 444 
2 407 408 
2 408 446 
2 462 422 
2 426 423 
2 423 424 
2 424 468 
2 428 426 
2 430 428 
2 432 430 
2 434 432 
2 436 434 
2 438 436 
2 440 438 
2 442 440 
2 444 442 
2 446 480 
2 495 461 
2 461 462 
2 466 463 
2 463 464 
2 464 499 
2 468 466 
2 480 514 
2 531 495 
2 499 496 
2 496 497 
2 497 537 
2 514 554 
2 570 530 
2 530 531 
2 535 532 
2 532 533 
2 533 576 
2 537 535 
2 554 555 
2 555 596 
2 611 570 
2 574 571 
2 571 572 
2 572 623 
2 576 574 
2 596 646 
2 663 611 
2 615 612 
2 612 613 
2 613 671 
2 617 615 
2 619 617 
2 621 619 
2 623 621 
2 646 647 
2 647 700 
2 717 662 
2 662 663 
2 667 664 
2 664 665 
2 665 723 
2 669 667 
2 671 669 
2 700 756 
2 774 716 
2 716 717 
2 721 718 
2 718 719 
2 719 788 
2 723 721 
2 756 757 
2 757 824 
2 776 774 
2 778 776 
2 780 778 
2 782 780 
2 784 782 
2 786 784 
2 788 786 
2 824 883 
2 883 884 
2 884 942 
2 942 1000 
2 1000 1001 
2 1001 1058 
2 1058 1115 
2 1115 1172 
2 1172 1228 
2 1224 1225 
2 1280 1224 
2 1225 1226 
2 1226 1227 
2 1228 1281 
2 1332 1279 
2 1279 1280 
2 1281 1333 
2 1383 1331 
2 1331 1332 
2 1333 1334 
2 1334 1384 
2 1432 1382 
2 1382 1383 
2 1384 1433 
2 1480 1431 
2 1431 1432 
2 1433 1481 
2 1527 1479 
2 1479 1480 
2 1481 1528 
2 1574 1527 
2 1528 1578 
2 1624 1573 
2 1573 1574 
2 1575 1576 
2 1578 1575 
2 1576 1625 
2 1674 1624 
2 1625 1626 
2 1626 1675 
2 1723 1674 
2 1675 1724 
2 1772 1723 
2 1724 1773 
2 1821 1772 
2 1773 1822 
2 1861 1812 
2 1812 1813 
2 1813 1814 
2 1814 1815 
2 1815 1862 
2 1868 1821 
2 1822 1869 
2 1901 1854 
2 1854 1855 
2 1855 1856 
2 1856 1857 
2 1857 1858 
2 1858 1859 
2 1859 1860 
2 1860 1861 
2 1862 1902 
2 1907 1867 
2 1867 1868 
2 1869 1870 
2 1870 1908 
2 1937 1899 
2 1899 1900 
2 1900 1901 
2 1902 1938 
2 1945 1907 
2 1908 1946 
2 1973 1935 
2 1935 1936 
2 1936 1937 
2 1938 1939 
2 1939 1974 
2 1979 1944 
2 1944 1945 
2 1946 1947 
2 1947 1980 
2 2005 1972 
2 1972 1973 
2 1974 1975 
2 1975 2006 
2 2008 1977 
2 1977 1978 
2 1978 1979 
2 1980 1981 
2 1981 2009 
2 2033 2005 
2 2006 2007 
2 2007 2008 
2 2009 2034 
2 2057 2032 
2 2032 2033 
2 2034 2035 
2 2035 2036 
2 2036 2058 
2 2079 2057 
2 2058 2080 
2 2101 2079 
2 2080 2081 
2 2081 2082 
2 2082 2102 
2 2121 2101 
2 2102 2103 
2 2103 2122 
2 2122 2123 
2 2123 2140 
2 2140 2141 
2 2141 2156 
2 2156 2170 
2 2170 2171 
2 2171 2183 
2 2183 2184 
2 2184 2194 
2 2194 2195 
2 2195 2203 
2 2203 2204 
2 2204 2210 
2 2210 2211 
2 2211 2215 

CELL_TYPES 2329
9
9
9
9
9
9
9
9
9
9
9
9
9
9
9
9
9
9
9
9
9
9
9
9
9
9
9
9
9
9
9
9
9
9
9
9
9
9
9
9
9
9
9
9
9
9
9
9
9
9
9
9
9
9
9
9
9
9
9
9
9
9
9
9
9
9
9
9
9
9
9
9
9
9
9
9
9
9
9
9
9
9
9
9
9
9
9
9
9
9
9
9
9
9
9
9
9
9
9
9
9
9
9
9
9
9
9
9
9
9
9
9
9
9
9
9
9
9
9
9
9
9
9
9
9
9
9
9
9
9
9
9
9
9
9
9
9
9
9
9
9
9
9
9
9
9
9
9
9
9
9
9
9
9
9
9
9
9
9
9
9
9
9
9
9
9
9
9
9
9
9
9
9
9
9
9
9
9
9
9
9
9
9
9
9
9
9
9
9
9
9
9
9
9
9
9
9
9
9
9
9
9
9
9
9
9
9
9
9
9
9
9
9
9
9
9
9
9
9
9
9
9
9
9
9
9
9
9
9
9
9
9
9
9
9
9
9
9
9
9
9
9
9
9
9
9
9
9
9
9
9
9
9
9
9
9
9
9
9
9
9
9
9
9
9
9
9
9
9
9
9
9
9
9
9
9
9
9
9
9
9
9
9
9
9
9
9
9
9
9
9
9
9
9
9
9
9
9
9
9
9
9
9
9
9
9
9
9
9
9
9
9
9
9
9
9
9
9
9
9
9
9
9
9
9
9
9
9
9
9
9
9
9
9
9
9
9
9
9
9
9
9
9
9
9
9
9
9
9
9
9
9
9
9
9
9
9
9
9
9
9
9
9
9
9
9
9
9
9
9
9
9
9
9
9
9
9
9
9
9
9
9
9
9
9
9
9
9
9
9
9
9
9
9
9
9
9
9
9
9
9
9
9
9
9
9
9
9
9
9
9
9
9
9
9
9
9
9
9
9
9
9
9
9
9
9
9
9
9
9
9
9
9
9
9
9
9
9
9
9
9
9
9
9
9
9
9
9
9
9
9
9
9
9
9
9
9
9
9
9
9
9
9
9
9
9
9
9
9
9
9
9
9
9
9
9
9
9
9
9
9
9
9
9
9
9
9
9
9
9
9
9
9
9
9
9
9
9
9
9
9
9
9
9
9
9
9
9
9
9
9
9
9
9
9
9
9
9
9
9
9
9
9
9
9
9
9
9
9
9
9
9
9
9
9
9
9
9
9
9
9
9
9
9
9
9
9
9
9
9
9
9
9
9
9
9
9
9
9
9
9
9
9
9
9
9
9
9
9
9
9
9
9
9
9
9
9
9
9
9
9
9
9
9
9
9
9
9
9
9
9
9
9
9
9
9
9
9
9
9
9
9
9
9
9
9
9
9
9
9
9
9
9
9
9
9
9
9
9
9
9
9
9
9
9
9
9
9
9
9
9
9
9
9
9
9
9
9
9
9
9
9
9
9
9
9
9
9
9
9
9
9
9
9
9
9
9
9
9
9
9
9
9
9
9
9
9
9
9
9
9
9
9
9
9
9
9
9
9
9
9
9
9
9
9
9
9
9
9
9
9
9
9
9
9
9
9
9
9
9
9
9
9
9
9
9
9
9
9
9
9
9
9
9
9
9
9
9
9
9
9
9
9
9
9
9
9
9
9
9
9
9
9
9
9
9
9
9
9
9
9
9
9
9
9
9
9
9
9
9
9
9
9
9
9
9
9
9
9
9
9
9
9
9
9
9
9
9
9
9
9
9
9
9
9
9
9
9
9
9
9
9
9
9
9
9
9
9
9
9
9
9
9
9
9
9
9
9
9
9
9
9
9
9
9
9
9
9
9
9
9
9
9
9
9
9
9
9
9
9
9
9
9
9
9
9
9
9
9
9
9
9
9
9
9
9
9
9
9
9
9
9
9
9
9
9
9
9
9
9
9
9
9
9
9
9
9
9
9
9
9
9
9
9
9
9
9
9
9
9
9
9
9
9
9
9
9
9
9
9
9
9
9
9
9
9
9
9
9
9
9
9
9
9
9
9
9
9
9
9
9
9
9
9
9
9
9
9
9
9
9
9
9
9
9
9
9
9
9
9
9
9
9
9
9
9
9
9
9
9
9
9
9
9
9
9
9
9
9
9
9
9
9
9
9
9
9
9
9
9
9
9
9
9
9
9
9
9
9
9
9
9
9
9
9
9
9
9
9
9
9
9
9
9
9
9
9
9
9
9
9
9
9
9
9
9
9
9
9
9
9
9
9
9
9
9
9
9
9
9
9
9
9
9
9
9
9
9
9
9
9
9
9
9
9
9
9
9
9
9
9
9
9
9
9
9
9
9
9
9
9
9
9
9
9
9
9
9
9
9
9
9
9
9
9
9
9
9
9
9
9
9
9
9
9
9
9
9
9
9
9
9
9
9
9
9
9
9
9
9
9
9
9
9
9
9
9
9
9
9
9
9
9
9
9
9
9
9
9
9
9
9
9
9
9
9
9
9
9
9
9
9
9
9
9
9
9
9
9
9
9
9
9
9
9
9
9
9
9
9
9
9
9
9
9
9
9
9
9
9
9
9
9
9
9
9
9
9
9
9
9
9
9
9
9
9
9
9
9
9
9
9
9
9
9
9
9
9
9
9
9
9
9
9
9
9
9
9
9
9
9
9
9
9
9
9
9
9
9
9
9
9
9
9
9
9
9
9
9
9
9
9
9
9
9
9
9
9
9
9
9
9
9
9
9
9
9
9
9
9
9
9
9
9
9
9
9
9
9
9
9
9
9
9
9
9
9
9
9
9
9
9
9
9
9
9
9
9
9
9
9
9
9
9
9
9
9
9
9
9
9
9
9
9
9
9
9
9
9
9
9
9
9
9
9
9
9
9
9
9
9
9
9
9
9
9
9
9
9
9
9
9
9
9
9
9
9
9
9
9
9
9
9
9
9
9
9
9
9
9
9
9
9
9
9
9
9
9
9
9
9
9
9
9
9
9
9
9
9
9
9
9
9
9
9
9
9
9
9
9
9
9
9
9
9
9
9
9
9
9
9
9
9
9
9
9
9
9
9
9
9
9
9
9
9
9
9
9
9
9
9
9
9
9
9
9
9
9
9
9
9
9
9
9
9
9
9
9
9
9
9
9
9
9
9
9
9
9
9
9
9
9
9
9
9
9
9
9
9
9
9
9
9
9
9
9
9
9
9
9
9
9
9
9
9
9
9
9
9
9
9
9
9
9
9
9
9
9
9
9
9
9
9
9
9
9
9
9
9
9
9
9
9
9
9
9
9
9
9
9
9
9
9
9
9
9
9
9
9
9
9
9
9
9
9
9
9
9
9
9
9
9
9
9
9
9
9
9
9
9
9
9
9
9
9
9
9
9
9
9
9
9
9
9
9
9
9
9
9
9
9
9
9
9
9
9
9
9
9
9
9
9
9
9
9
9
9
9
9
9
9
9
9
9
9
9
9
9
9
9
9
9
9
9
9
9
9
9
9
9
9
9
9
9
9
9
9
9
9
9
9
9
9
9
9
9
9
9
9
9
9
9
9
9
9
9
9
9
9
9
9
9
9
9
9
9
9
9
9
9
9
9
9
9
9
9
9
9
9
9
9
9
9
9
9
9
9
9
9
9
9
9
9
9
9
9
9
9
9
9
9
9
9
9
9
9
9
9
9
9
9
9
9
9
9
9
9
9
9
9
9
9
9
9
9
9
9
9
9
9
9
9
9
9
9
9
9
9
9
9
9
9
9
9
9
9
9
9
9
9
9
9
9
9
9
9
9
9
9
9
9
9
9
9
9
9
9
9
9
9
9
9
9
9
9
9
9
9
9
9
9
9
9
9
9
9
9
9
9
9
9
9
9
9
9
9
9
9
9
9
9
9
9
9
9
9
9
9
9
9
9
9
9
9
9
9
9
9
9
9
9
9
9
9
9
9
9
9
9
9
9
9
9
9
9
9
9
9
9
9
9
9
9
9
9
9
9
9
9
9
9
9
9
9
9
9
9
9
9
9
9
9
9
9
9
9
9
9
9
9
9
9
9
9
9
9
9
9
9
9
9
9
9
9
9
9
9
9
9
9
9
9
9
9
9
9
9
9
9
9
9
9
9
9
9
9
9
9
9
9
9
9
9
9
9
9
9
9
9
9
9
9
9
9
9
9
9
9
9
9
9
9
9
9
9
9
9
9
9
9
9
9
9
9
9
9
9
9
9
9
9
9
9
9
9
9
9
9
9
9
9
9
9
9
9
9
9
9
9
9
9
9
9
9
9
9
9
9
9
9
9
9
9
9
9
9
9
9
9
9
9
9
9
9
9
9
9
9
9
9
9
9
9
9
9
9
9
9
9
9
9
9
9
9
9
9
9
9
9
9
9
9
9
9
9
9
9
9
9
9
9
9
9
9
9
9
9
9
9
9
9
9
9
9
9
9
9
9
9
9
9
9
9
9
9
9
9
9
9
9
9
9
9
9
9
9
9
9
9
9
9
9
9
9
9
9
9
9
9
9
9
9
9
9
9
9
9
9
9
9
9
9
9
9
9
9
9
9
9
9
9
9
9
9
9
9
9
9
9
9
9
9
9
9
9
9
9
9
9
9
9
9
9
9
9
9
9
9
9
9
9
9
9
9
9
9
9
9
9
9
9
9
9
9
9
9
9
9
9
9
3
3
3
3
3
3
3
3
3
3
3
3
3
3
3
3
3
3
3
3
3
3
3
3
3
3
3
3
3
3
3
3
3
3
3
3
3
3
3
3
3
3
3
3
3
3
3
3
3
3
3
3
3
3
3
3
3
3
3
3
3
3
3
3
3
3
3
3
3
3
3
3
3
3
3
3
3
3
3
3
3
3
3
3
3
3
3
3
3
3
3
3
3
3
3
3
3
3
3
3
3
3
3
3
3
3
3
3
3
3
3
3
3
3
3
3
3
3
3
3
3
3
3
3
3
3
3
3
3
3
3
3
3
3
3
3
3
3
3
3
3
3
3
3
3
3
3
3
3
3
3
3
3
3
3
3
3
3
3
3
3
3
3
3
3
3
3
3
3
3
3
3
3
3
3
3
3
3
3
3
3
3
3
3
3
3
3
3
3
3
3
3
3
3
3
3
3
3
3
3
3
3
3
3
3
3
3
3
3
3
3
3
3
3
3
3
3
3
3
3
3
3
3
3
3
3
3
3
3
3
3
3
3
3
3
3
3
3
3
3
3
3
3
3
3
3
3
3
3
3
3
3
3
3
3
3
3
3
3
3
3
3
3
3
3
3
3
3
3

 CELL_DATA        2329
SCALARS material int32
LOOKUP_TABLE default
           1
           1
           1
           1
           1
           1
           1
           1
           1
           1
           1
           1
           1
           1
           1
           1
           1
           1
           1
           1
           1
           1
           1
           1
           1
           1
           1
           1
           1
           1
           1
           1
           1
           1
           1
           1
           1
           1
           1
           1
           1
           1
           1
           1
           1
           1
           1
           1
           1
           1
           1
           1
           1
           1
           1
           1
           1
           1
           1
           1
           1
           1
           1
           1
           1
           1
           1
           1
           1
           1
           1
           1
           1
           1
           1
           1
           1
           1
           1
           1
           1
           1
           1
           1
           1
           1
           1
           1
           1
           1
           1
           1
           1
           1
           1
           1
           1
           1
           1
           1
           1
           1
           1
           1
           1
           1
           1
           1
           1
           1
           1
           1
           1
           1
           1
           1
           1
           1
           1
           1
           1
           1
           1
           1
           1
           1
           1
           1
           1
           1
           1
           1
           1
           1
           1
           1
           1
           1
           1
           1
           1
           1
           1
           1
           1
           1
           1
           1
           1
           1
           1
           1
           1
           1
           1
           1
           1
           1
           1
           1
           1
           1
           1
           1
           1
           1
           1
           1
           1
           1
           1
           1
           1
           1
           1
           1
           1
           1
           1
           1
           1
           1
           1
           1
           1
           1
           1
           1
           1
           1
           1
           1
           1
           1
           1
           1
           1
           1
           1
           1
           1
           1
           1
           1
           1
           1
           1
           1
           1
           1
           1
           1
           1
           1
           1
           1
           1
           1
           1
           1
           1
           1
           1
           1
           1
           1
           1
           1
           1
           1
           1
           1
           1
           1
           1
           1
          99
9
9
9
9
9
9
9
9
9
9
9
9
9
9
9
9
9
9
9
9
9
9
9
9
9
9
9
9
9
9
9
9
9
9
9
9
9
9
9
9
9
9
9
9
9
9
9
9
9
9
9
9
9
9
9
9
9
9
9
9
9
9
9
9
9
9
9
9
9
9
9
9
9
9
9
9
9
9
9
9
9
9
9
9
9
9
9
9
9
9
9
9
9
9
9
9
9
9
9
9
9
9
9
9
9
9
9
9
9
9
9
9
9
9
9
9
9
9
9
9
9
9
9
9
9
9
9
9
9
9
9
9
9
9
9
9
9
9
9
9
9
9
9
9
9
9
9
9
9
9
9
9
9
9
9
9
9
9
9
9
9
9
9
9
9
9
9
9
9
9
9
9
9
9
9
9
9
9
9
9
9
9
9
9
9
9
9
9
9
9
9
9
9
9
9
9
9
9
9
9
9
9
9
9
9
9
9
9
9
9
9
9
9
9
9
9
9
9
9
9
9
9
9
9
9
9
9
9
9
9
9
9
9
9
9
9
9
9
9
9
9
9
9
9
9
9
9
9
9
9
9
9
9
9
9
9
9
9
9
9
9
9
9
9
9
9
9
9
9
9
9
9
9
9
9
9
9
9
9
9
9
9
9
9
9
9
9
9
9
9
9
9
9
9
9
9
9
9
9
9
9
9
9
9
9
9
9
9
9
9
9
9
9
9
9
9
9
9
9
9
9
9
9
9
9
9
9
9
9
9
9
9
9
9
9
9
9
9
9
9
9
9
9
9
9
9
9
9
9
9
9
9
9
3
3
3
3
3
3
3
3
3
3
3
3
3
3
3
3
3
3
3
3
3
3
3
3
3
3
3
3
3
3
3
3
3
3
3
3
3
3
3
3
3
3
3
3
3
3
3
3
3
3
3
3
3
3
3
3
3
3
3
3
3
3
3
3
3
3
3
3
3
3
3
3
3
3
3
3
3
3
3
3
3
3
3
3
3
3
3
3
3
3
3
3
3
3
3
3
3
3
3
3
3
3
3
3
3
3
3
3
3
3
3
3
3
3
3
3
3
3
3
3
3
3
3
3
3
3
3
3
3
3
3
3
3
3
3
3
3
3
3
3
3
3
3
3
3
3
3
3
3
3
3
3
3
3
3
3
3
3
3
3
3
3
3
3
3
3
3
3
3
3
3
3
3
3
3
3
3
3
3
3
3
3
3
3
3
3
3
3
3
3
3
3
3
3
3
3
3
3
3
3
3
3
3
3
3
3
3
3
3
3
3
3
3
3
3
3
3
3
3
3
3
3
3
3
3
3
3
3
3
3
3
3
3
3
3
3
3
3
3
3
3
3
3
3
3
3
3
3
3
3
3
3
3
3
3
3
3
3
3
3
3
3
3
3
3
3
3
3
3
3
3
3
3
3
3
3
3
3
3
3
3
3
3
3
3
3
3
3
3
3
3
3
3
3
3
3
3
3
3
3
3
3
3
3
3
3
3
3
3
3
3
3
3
3
3
3
3
3
3
3
3
3
3
3
3
3
3
3
3
3
3
3
3
3
3
3
3
3
3
3
3
3
3
3
3
3
3
3
3
3
3

 CELL_DATA        2449
SCALARS material int32
LOOKUP_TABLE default
           1
           1
           1
           1
           1
           1
           1
           1
           1
           1
           1
           1
           1
           1
           1
           1
           1
           1
           1
           1
           1
           1
           1
           1
           1
           1
           1
           1
           1
           1
           1
           1
           1
           1
           1
           1
           1
           1
           1
           1
           1
           1
           1
           1
           1
           1
           1
           1
           1
           1
           1
           1
           1
           1
           1
           1
           1
           1
           1
           1
           1
           1
           1
           1
           1
           1
           1
           1
           1
           1
           1
           1
           1
           1
           1
           1
           1
           1
           1
           1
           1
           1
           1
           1
           1
           1
           1
           1
           1
           1
           1
           1
           1
           1
           1
           1
           1
           1
           1
           1
           1
           1
           1
           1
           1
           1
           1
           1
           1
           1
           1
           1
           1
           1
           1
           1
           1
           1
           1
           1
           1
           1
           1
           1
           1
           1
           1
           1
           1
           1
           1
           1
           1
           1
           1
           1
           1
        9
9
9
9
9
9
9
9
9
9
9
9
9
9
9
9
9
9
9
9
9
9
9
9
9
9
9
9
9
9
9
9
9
9
9
9
9
9
9
9
9
9
9
9
9
9
9
9
9
9
9
9
9
9
9
9
9
9
9
9
9
9
9
9
9
9
9
9
9
9
9
9
9
9
9
9
9
9
9
9
9
9
9
9
9
9
9
9
9
9
9
9
9
9
9
9
9
9
9
9
9
9
9
9
9
9
9
9
9
9
9
9
9
9
9
9
9
9
9
9
9
9
9
9
9
9
9
9
9
9
9
9
9
9
9
9
9
9
9
9
9
9
9
9
9
9
9
9
9
9
9
9
9
9
9
9
3
3
3
3
3
3
3
3
3
3
3
3
3
3
3
3
3
3
3
3
3
3
3
3
3
3
3
3
3
3
3
3
3
3
3
3
3
3
3
3
3
3
3
3
3
3
3
3
3
3
3
3
3
3
3
3
3
3
3
3
3
3
3
3
3
3
3
3
3
3
3
3
3
3
3
3
3
3
3
3
3
3
3
3
3
3
3
3
3
3
3
3
3
3
3
3
3
3
3
3
3
3
3
3
3
3
3
3
3
3
3
3
3
3
3
3
3
3
3
3
3
3
3
3
3
3
3
3
3
3
3
3
3
3
3
3
3
3
3
3
3
3
3
3
3
3
3
3
3
3
3
3
3
3
3
3
3
3
3
3
3
3
3
3
3
3
3
3
3
3
3
3
3
3
3
3
3
3
3
3
3
3
3
3
3
3
3
3
3
3
3
3
3
3
3
3
3
3
3
3
3
3
3
3
3
3
3
3
3
3
3
3
3
3
3
3
3
3
3
3
3
3
3
3
3
3
3
3
3
3
3
3
3
3
3
3
3
3
3
3
3
3
3
3
3
3
3
3
3
3
3
3
3
3
3
3
3
3
3
3
3
3
3
3
3
3
3
3
3
3
3
3
3
3
3
3
3
3
3
3
3
3
3
3
3
3
3
3
3
3
3
3
3
3
3
3
3
3
3
3
3
3
3
3
3
3
3
3
3
3
3
3
3
3
3
3
3
3
3
3
3
3
3
3
3
3
3
3
3
3
3
3
3
3
3
3
3
3
3
3
3
3
3
3
3
3
3
3
3
3
3

 CELL_DATA        2486
SCALARS material int32
LOOKUP_TABLE default
           1
           1
           1
           1
           1
           1
           1
           1
           1
           1
           1
           1
           1
           1
           1
           1
           1
           1
           1
           1
           1
           1
           1
           1
           1
           1
           1
           1
           1
           1
           1
           1
           1
           1
           1
           1
           1
           1
           1
           1
           1
           1
           1
           1
           1
           1
           1
           1
           1
           1
           1
           1
           1
           1
           1
           1
           1
           1
           1
           1
           1
           1
           1
           1
           1
           1
           1
           1
           1
           1
           1
           1
           1
           1
           1
           1
           1
           1
           1
           1
           1
           1
           1
           1
           1
           1
           1
           1
           1
           1
           1
           1
           1
           1
           1
           1
           1
           1
           1
           1
           1
           1
           1
           1
           1
           1
           1
           1
           1
           1
           1
           1
           1
           1
           1
           1
           1
           1
           1
           1
           1
           1
           1
           1
           1
           1
           1
           1
           1
           1
           1
           1
           1
           1
           1
           1
           1
           1
           1
           1
           1
           1
           1
           1
           1
           1
           1
           1
           1
           1
           1
           1
           1
           1
           1
           1
           1
           1
           1
           1
           1
           1
           1
           1
           1
           1
           1
           1
           1
           1
           1
           1
           1
           1
           1
           1
           1
           1
                         1
           1
           1
           1
           1
           1
           1
           1
           1
           1
           1
           1
           1
           1
           1
           1
           1
           1
           1
           1
           1
           1
           1
           1
           1
           1
           1
           1
           1
           1
           1
           1
           1
           1
           1
           1
           1
           1
           1
           1
           1
           1
           1
           1
           1
           1
           1
           1
           1
           1
           1
           1
           1
           1
           1
           1
           1
           1
           1
           1
           1
           1
           1
           1
           1
           1
           1
           1
           1
           1
           1
           1
           1
           1
           1
           1
           1
           1
           1
           1
           1
           1
           1
           1
           1
           1
           1
           1
           1
           1
           1
           1
           1
           1
           1
           1
           1
           1
           1
           1
           1
           1
           1
           1
           1
           1
           1
           1
           1
           1
           1
           1
           1
           1
           1
           1
           1
           1
           1
           1
           1
           1
           1
           1
           1
           1
           1
           1
           1
           1
           1
           1
           1
           1
           1
           1
           1
           1
           1
           1
           1
           1
           1
           1
           1
           1
           1
           1
           1
           1
           1
           1
           1
           1
           1
           1
           1
           1
           1
           1
           1
           1
           1
           1
           1
           1
           1
           1
           1
           1
           1
           1
           1
           1
           1
           1
           1
           1
           1
           1
           1
           1
           1
           1
           1
           1
           1
           1
           1
           1
           1
           1
           1
           1
           1
           1
           1
           1
           1
           1
           1
           1
           1
           1
           1
           1
           1
           1
           1
           1
           1
           1
           1
           1
           1
           1
           1
           1
           1
           1
           1
           1
           1
           1
           1
           1
           1
           1
           1
           1
           1
           1
           1
           1
           1
           1
           1
           1
           1
           1
           1
           1
           1
           1
           1
           1
           1
           1
           1
           1
           1
           1
           1
           1
           1
           1
           1
           1
           1
           1
           1
           1
           1
           1
           1
           1
           1
           1
           1
           1
           1
           1
           1
           1
           1
           1
           1
           1
           1
           1
           1
           1
           1
           1
           1
           1
           1
           1
           1
           1
           1
           1
                         1
           1
           1
           1
           1
           1
           1
           1
           1
           1
           1
           1
           1
           1
           1
           1
           1
           1
           1
           1
           1
           1
           1
           1
           1
           1
           1
           1
           1
           1
           1
           1
           1
           1
           1
           1
           1
           1
           1
           1
           1
           1
           1
           1
           1
           1
           1
           1
           1
           1
           1
           1
           1
           1
           1
           1
           1
           1
           1
           1
           1
           1
           1
           1
           1
           1
           1
           1
           1
           1
           1
           1
           1
           1
           1
           1
           1
           1
           1
           1
           1
           1
           1
           1
           1
           1
           1
           1
           1
           1
           1
           1
           1
           1
           1
           1
           1
           1
           1
           1
           1
           1
           1
           1
           1
           1
           1
           1
           1
           1
           1
           1
           1
           1
           1
           1
           1
           1
           1
           1
           1
           1
           1
           1
           1
           1
           1
           1
           1
           1
           1
           1
           1
           1
           1
           1
           1
           1
           1
           1
           1
           1
           1
           1
           1
           1
           1
           1
           1
           1
           1
           1
           1
           1
           1
           1
           1
           1
           1
           1
           1
           1
           1
           1
           1
           1
           1
           1
           1
           1
           1
           1
           1
           1
           1
           1
           1
           1
           1
           1
           1
           1
           1
           1
           1
           1
           1
           1
           1
           1
           1
           1
           1
           1
           1
           1
           1
           1
           1
           1
           1
           1
           1
           1
           1
           1
           1
           1
           1
           1
           1
           1
           1
           1
           1
           1
           1
           1
           1
           1
           1
           1
           1
           1
           1
           1
           1
           1
           1
           1
           1
           1
           1
           1
           1
           1
           1
           1
           1
           1
           1
           1
           1
           1
           1
           1
           1
           1
           1
           1
           1
           1
           1
           1
           1
           1
           1
           1
           1
           1
           1
           1
           1
           1
           1
           1
           1
           1
           1
           1
           1
           1
           1
           1
           1
           1
           1
           1
           1
           1
           1
           1
           1
           1
           1
           1
           1
           1
           1
           1
           1
           1
                         1
           1
           1
           1
           1
           1
           1
           1
           1
           1
           1
           1
           1
           1
           1
           1
           1
           1
           1
           1
           1
           1
           1
           1
           1
           1
           1
           1
           1
           1
           1
           1
           1
           1
           1
           1
           1
           1
           1
           1
           1
           1
           1
           1
           1
           1
           1
           1
           1
           1
           1
           1
           1
           1
           1
           1
           1
           1
           1
           1
           1
           1
           1
           1
           1
           1
           1
           1
           1
           1
           1
           1
           1
           1
           1
           1
           1
           1
           1
           1
           1
           1
           1
           1
           1
           1
           1
           1
           1
           1
           1
           1
           1
           1
           1
           1
           1
           1
           1
           1
           1
           1
           1
           1
           1
           1
           1
           1
           1
           1
           1
           1
           1
           1
           1
           1
           1
           1
           1
           1
           1
           1
           1
           1
           1
           1
           1
           1
           1
           1
           1
           1
           1
           1
           1
           1
           1
           1
           1
           1
           1
           1
           1
           1
           1
           1
           1
           1
           1
           1
           1
           1
           1
           1
           1
           1
           1
           1
           1
           1
           1
           1
           1
           1
           1
           1
           1
           1
           1
           1
           1
           1
           1
           1
           1
           1
           1
           1
           1
           1
           1
           1
           1
           1
           1
           1
           1
           1
           1
           1
           1
           1
           1
           1
           1
           1
           1
           1
           1
           1
           1
           1
           1
           1
           1
           1
           1
           1
           1
           1
           1
           1
           1
           1
           1
           1
           1
           1
           1
           1
           1
           1
           1
           1
           1
           1
           1
           1
           1
           1
           1
           1
           1
           1
           1
           1
           1
           1
           1
           1
           1
           1
           1
           1
           1
           1
           1
           1
           1
           1
           1
           1
           1
           1
           1
           1
           1
           1
           1
           1
           1
           1
           1
           1
           1
           1
           1
           1
           1
           1
           1
           1
           1
           1
           1
           1
           1
           1
           1
           1
           1
           1
           1
           1
           1
           1
           1
           1
           1
           1
           1
           1
                         1
           1
           1
           1
           1
           1
           1
           1
           1
           1
           1
           1
           1
           1
           1
           1
           1
           1
           1
           1
           1
           1
           1
           1
           1
           1
           1
           1
           1
           1
           1
           1
           1
           1
           1
           1
           1
           1
           1
           1
           1
           1
           1
           1
           1
           1
           1
           1
           1
           1
           1
           1
           1
           1
           1
           1
           1
           1
           1
           1
           1
           1
           1
           1
           1
           1
           1
           1
           1
           1
           1
           1
           1
           1
           1
           1
           1
           1
           1
           1
           1
           1
           1
           1
           1
           1
           1
           1
           1
           1
           1
           1
           1
           1
           1
           1
           1
           1
           1
           1
           1
           1
           1
           1
           1
           1
           1
           1
           1
           1
           1
           1
           1
           1
           1
           1
           1
           1
           1
           1
           1
           1
           1
           1
           1
           1
           1
           1
           1
           1
           1
           1
           1
           1
           1
           1
           1
           1
           1
           1
           1
           1
           1
           1
           1
           1
           1
           1
           1
           1
           1
           1
           1
           1
           1
           1
           1
           1
           1
           1
           1
           1
           1
           1
           1
           1
           1
           1
           1
           1
           1
           1
           1
           1
           1
           1
           1
           1
           1
           1
           1
           1
           1
           1
           1
           1
           1
           1
           1
           1
           1
           1
           1
           1
           1
           1
           1
           1
           1
           1
           1
           1
           1
           1
           1
           1
           1
           1
           1
           1
           1
           1
           1
           1
           1
           1
           1
           1
           1
           1
           1
           1
           1
           1
           1
           1
           1
           1
           1
           1
           1
           1
           1
           1
           1
           1
           1
           1
           1
           1
           1
           1
           1
           1
           1
           1
           1
           1
           1
           1
           1
           1
           1
           1
           1
           1
           1
           1
           1
           1
           1
           1
           1
           1
           1
           1
           1
           1
           1
           1
           1
           1
           1
           1
           1
           1
           1
           1
           1
           1
           1
           1
           1
           1
           1
           1
           1
           1
           1
           1
           1
           1
                         1
           1
           1
           1
           1
           1
           1
           1
           1
           1
           1
           1
           1
           1
           1
           1
           1
           1
           1
           1
           1
           1
           1
           1
           1
           1
           1
           1
           1
           1
           1
           1
           1
           1
           1
           1
           1
           1
           1
           1
           1
           1
           1
           1
           1
           1
           1
           1
           1
           1
           1
           1
           1
           1
           1
           1
           1
           1
           1
           1
           1
           1
           1
           1
           1
           1
           1
           1
           1
           1
           1
           1
           1
           1
           1
           1
           1
           1
           1
           1
           1
           1
           1
           1
           1
           1
           1
           1
           1
           1
           1
           1
           1
           1
           1
           1
           1
           1
           1
           1
           1
           1
           1
           1
           1
           1
           1
           1
           1
           1
           1
           1
           1
           1
           1
           1
           1
           1
           1
           1
           1
           1
           1
           1
           1
           1
           1
           1
           1
           1
           1
           1
           1
           1
           1
           1
           1
           1
           1
           1
           1
           1
           1
           1
           1
           1
           1
           1
           1
           1
           1
           1
           1
           1
           1
           1
           1
           1
           1
           1
           1
           1
           1
           1
           1
           1
           1
           1
           1
           1
           1
           1
           1
           1
           1
           1
           1
           1
           1
           1
           1
           1
           1
           1
           1
           1
           1
           1
           1
           1
           1
           1
           1
           1
           1
           1
           1
           1
           1
           1
           1
           1
           1
           1
           1
           1
           1
           1
           1
           1
           1
           1
           1
           1
           1
           1
           1
           1
           1
           1
           1
           1
           1
           1
           1
           1
           1
           1
           1
           1
           1
           1
           1
           1
           1
           1
           1
           1
           1
           1
           1
           1
           1
           1
           1
           1
           1
           1
           1
           1
           1
           1
           1
           1
           1
           1
           1
           1
           1
           1
           1
           1
           1
           1
           1
           1
           1
           1
           1
           1
           1
           1
           1
           1
           1
           1
           1
           1
           1
           1
           1
           1
           1
           1
           1
           1
           1
           1
           1
           1
           1
           1
                         1
           1
           1
           1
           1
           1
           1
           1
           1
           1
           1
           1
           1
           1
           1
           1
           1
           1
           1
           1
           1
           1
           1
           1
           1
           1
           1
           1
           1
           1
           1
           1
           1
           1
           1
           1
           1
           1
           1
           1
           1
           1
           1
           1
           1
           1
           1
           1
           1
           1
           1
           1
           1
           1
           1
           1
           1
           1
           1
           1
           1
           1
           1
           1
           1
           1
           1
           1
           1
           1
           1
           1
           1
           1
           1
           1
           1
           1
           1
           1
           1
           1
           1
           1
           1
           1
           1
           1
           1
           1
           1
           1
           1
           1
           1
           1
           1
           1
           1
           1
           1
           1
           1
           1
           1
           1
           1
           1
           1
           1
           1
           1
           1
           1
           1
           1
           1
           1
           1
           1
           1
           1
           1
           1
           1
           1
           1
           1
           1
           1
           1
           1
           1
           1
           1
           1
           1
           1
           1
           1
           1
           1
           1
           1
           1
           1
           1
           1
           1
           1
           1
           1
           1
           1
           1
           1
           1
           1
           1
           1
           1
           1
           1
           1
           1
           1
           1
           1
           1
           1
           1
           1
           1
           1
           1
           1
           1
           1
           1
           1
           1
           1
           1
           1
           1
           1
           1
           1
           1
           1
           1
           1
           1
           1
           1
           1
           1
           1
           1
           1
           1
           1
           1
           1
           1
           1
           1
           1
           1
           1
           1
           1
           1
           1
           1
           1
           1
           1
           1
           1
           1
           1
           1
           1
           1
           1
           1
           1
           1
           1
           1
           1
           1
           1
           1
           1
           1
           1
           1
           1
           1
           1
           1
           1
           1
           1
           1
           1
           1
           1
           1
           1
           1
           1
           1
           1
           1
           1
           1
           1
           1
           1
           1
           1
           1
           1
           1
           1
           1
           1
           1
           1
           1
           1
           1
           1
           1
           1
           1
           1
           1
           1
           1
           1
           1
           1
           1
           1
           1
           1
           1
           1
                         6.7152006E-009 -6.0625706E-009 0.0
  7.1460406E-009 -6.4712611E-009 0.0
  7.5136915E-009 -6.8971568E-009 0.0
  7.8117122E-009 -7.3378190E-009 0.0
  8.0358596E-009 -7.7914981E-009 0.0
  8.1826526E-009 -8.2575989E-009 0.0
  8.2478015E-009 -8.7363960E-009 0.0
 -1.1931363E-009 -3.5201240E-009 0.0
 -9.5112342E-010 -3.5678340E-009 0.0
 -7.2443661E-010 -3.5887262E-009 0.0
 -4.7471707E-010 -3.5928767E-009 0.0
 -1.7375563E-010 -3.5943627E-009 0.0
  1.8956174E-010 -3.6160567E-009 0.0
  6.1158148E-010 -3.6757130E-009 0.0
  1.0836238E-009 -3.7798492E-009 0.0
  1.5979066E-009 -3.9265843E-009 0.0
  2.1485337E-009 -4.1108344E-009 0.0
  2.7310523E-009 -4.3274870E-009 0.0
  3.3419982E-009 -4.5711322E-009 0.0
  3.9744309E-009 -4.8344645E-009 0.0
  4.6130067E-009 -5.1113365E-009 0.0
  5.2355672E-009 -5.3996460E-009 0.0
  5.8249895E-009 -5.7039441E-009 0.0
  6.3722349E-009 -6.0267793E-009 0.0
  6.8701459E-009 -6.3684805E-009 0.0
  7.3102521E-009 -6.7260667E-009 0.0
  7.6835952E-009 -7.0959511E-009 0.0
  7.9842667E-009 -7.4740958E-009 0.0
  8.2099003E-009 -7.8576833E-009 0.0
  8.3590997E-009 -8.2461121E-009 0.0
  8.4281880E-009 -8.6405797E-009 0.0
 -1.0298892E-009 -3.7276174E-009 0.0
 -8.8133979E-010 -3.7837311E-009 0.0
 -7.3531107E-010 -3.8196770E-009 0.0
 -5.5306342E-010 -3.8309911E-009 0.0
 -2.7755289E-010 -3.8429190E-009 0.0
  9.9926571E-011 -3.8886672E-009 0.0
  5.5626281E-010 -3.9833848E-009 0.0
  1.0673804E-009 -4.1238155E-009 0.0
  1.6185868E-009 -4.3022068E-009 0.0
  2.2010945E-009 -4.5109248E-009 0.0
  2.8089696E-009 -4.7430878E-009 0.0
  3.4366427E-009 -4.9920861E-009 0.0
  4.0763591E-009 -5.2516528E-009 0.0
  4.7162383E-009 -5.5169667E-009 0.0
  5.3417454E-009 -5.7868445E-009 0.0
  5.9394378E-009 -6.0631154E-009 0.0
  6.4984523E-009 -6.3489703E-009 0.0
  7.0085540E-009 -6.6464468E-009 0.0
  7.4579322E-009 -6.9555515E-009 0.0
  7.8350430E-009 -7.2726044E-009 0.0
  8.1334272E-009 -7.5914946E-009 0.0
  8.3546246E-009 -7.9067969E-009 0.0
  8.5019259E-009 -8.2183326E-009 0.0
  8.5725643E-009 -8.5284908E-009 0.0
 -8.8182184E-010 -3.7926976E-009 0.0
 -7.8051671E-010 -3.8745938E-009 0.0
 -7.5230116E-010 -3.9310967E-009 0.0
 -6.6253805E-010 -3.9406422E-009 0.0
 -3.9305204E-010 -3.9711181E-009 0.0
  2.2549678E-011 -4.0742248E-009 0.0
  5.2091384E-010 -4.2346431E-009 0.0
  1.0699566E-009 -4.4326078E-009 0.0
  1.6534641E-009 -4.6554992E-009 0.0
  2.2620401E-009 -4.8953597E-009 0.0
  2.8889446E-009 -5.1460135E-009 0.0
  3.5280946E-009 -5.4019266E-009 0.0
  4.1724504E-009 -5.6582864E-009 0.0
  4.8131331E-009 -5.9118817E-009 0.0
  5.4398576E-009 -6.1618217E-009 0.0
  6.0421883E-009 -6.4096117E-009 0.0
  6.6099062E-009 -6.6582268E-009 0.0
  7.1317310E-009 -6.9113048E-009 0.0
  7.5926088E-009 -7.1722917E-009 0.0
  7.9730751E-009 -7.4402677E-009 0.0
  8.2623104E-009 -7.7039472E-009 0.0
  8.4700113E-009 -7.9544536E-009 0.0
  8.6105866E-009 -8.1903727E-009 0.0
  8.6808331E-009 -8.4180368E-009 0.0
 -8.7684982E-010 -3.8869919E-009 0.0
 -6.0378095E-010 -3.8416828E-009 0.0
 -8.3074247E-010 -3.8502955E-009 0.0
 -8.2456989E-010 -3.8227094E-009 0.0
 -4.8395258E-010 -3.9606816E-009 0.0
 -1.0906718E-011 -4.1946369E-009 0.0
  5.2599841E-010 -4.4616778E-009 0.0
  1.1034107E-009 -4.7371437E-009 0.0
  1.7097675E-009 -5.0139143E-009 0.0
  2.3359194E-009 -5.2892454E-009 0.0
  2.9744027E-009 -5.5603285E-009 0.0
  3.6190638E-009 -5.8239451E-009 0.0
  4.2640185E-009 -6.0772590E-009 0.0
  4.9027340E-009 -6.3185204E-009 0.0
  5.5278624E-009 -6.5475188E-009 0.0
  6.1314833E-009 -6.7656221E-009 0.0
  6.7049630E-009 -6.9755667E-009 0.0
  7.2376833E-009 -7.1813109E-009 0.0
  7.7144943E-009 -7.3883749E-009 0.0
  8.1069562E-009 -7.6048843E-009 0.0
  8.3767239E-009 -7.8242165E-009 0.0
  8.5543514E-009 -8.0122346E-009 0.0
  8.6876335E-009 -8.1815770E-009 0.0
  8.7545514E-009 -8.3333024E-009 0.0
 -1.9359376E-010 -3.1744488E-009 0.0
 -1.0958624E-009 -3.1118116E-009 0.0
 -9.0577114E-010 -3.4153321E-009 0.0
 -4.6501278E-010 -3.8802586E-009 0.0
  3.997  3.6132437E-011 -4.1934826E-01  5.8683584E-010 -4.7263347E-009 0.0
  1.1736554E-009 -5.0833421E-009 0.0
  1.7905471E-009 -5.4129428E-009 0.0
  2.4248698E-009 -5.7219429E-009 0.0
  3.0669650E-009 -6.0115415E-009 0.0
  3.7106792E-009 -6.2810909E-009 0.0
  4.3513308E-009 -6.5298863E-009 0.0
  4.9842534E-009 -6.7577112E-009 0.0
  5.6042679E-009 -6.9650701E-009 0.0
  6.2055459E-009 -7.1532830E-009 0.0
  6.7812529E-009 -7.3244389E-009 0.0
  7.3225181E-009 -7.4813559E-009 0.0
  7.8154252E-009 -7.6277115E-009 0.0
  8.2360790E-009 -7.7692579E-009 0.0
  8.4929009E-009 -7.9143459E-009 0.0
  8.6164749E-009 -8.1012495E-009 0.0
  8.7403239E-009 -8.2268711E-009 0.0
  8.7949822E-009 -8.3066656E-009 0.0
 -1.1444700E-037 -1.1444700E-037 0.0
 -9.9845077E-010 -1.8150829E-009 0.0
 -6.8830865E-010 -3.0866328E-009 0.0
 -2.6885175E-010 -3.9723747E-009 0.0
  1.8112147E-010 -4.6153830E-009 0.0
  6.9436966E-010 -5.1096171E-009 0.0
  1.2733675E-009 -5.5225635E-009 0.0
  1.8922393E-009 -5.8903901E-009 0.0
  2.5268174E-009 -6.2235171E-009 0.0
  3.1651302E-009 -6.5243255E-009 0.0
  3.8018167E-009 -6.7943729E-009 0.0
  4.4334504E-009 -7.0350725E-009 0.0
  5.0568038E-009 -7.2476201E-009 0.0
  5.6683201E-009 -7.4331836E-009 0.0
  6.2638768E-009 -7.5930850E-009 0.0
  6.8384052E-009 -7.7288829E-009 0.0
  7.3848736E-009 -7.8422893E-009 0.0
  7.8922988E-009 -7.9349311E-009 0.0
  8.3386231E-009 -8.0066742E-009 0.0
  8.6830777E-009 -8.0710377E-009 0.0
 -1.1486191E-033 -1.6185250E-037 0.0
 -5.4486112E-010 -2.3299340E-009 0.0
 -2.5699895E-010 -3.6134313E-009 0.0
  2.5478379E-011 -4.5293760E-009 0.0
  3.4232706E-010 -5.1814772E-009 0.0
  8.0540757E-010 -5.6712062E-009 0.0
  1.3847005E-009 -6.0970263E-009 0.0
  2.0054443E-009 -6.4807198E-009 0.0
  2.6347040E-009 -6.8207021E-009 0.0
  3.2636319E-009 -7.1192913E-009 0.0
  3.8889088E-009 -7.3805266E-009 0.0
  4.5082001E-009 -7.6074667E-009 0.0
  5.1193487E-009 -7.8022200E-009 0.0
  5.7200528E-009 -7.9663279E-009 0.0
  6.3077176E-009 -8.1011806E-009 0.0
  6.8791551E-009 -8.2083817E-009 0.0
  7.4299502E-009 -8.2902174E-009 0.0
  7.9531979E-009 -8.3505925E-009 0.0
  8.4390107E-009 -8.4000845E-009 0.0
  8.8976233E-009 -8.4694243E-009 0.0
 -8.5198912E-010 -4.9292465E-009 0.0
  1.6258354E-011 -4.9935779E-009 0.0
  2.4191434E-010 -5.5388122E-009 0.0
  3.9359915E-010 -6.0000042E-009 0.0
  8.7891118E-010 -6.4254130E-009 0.0
  1.4918089E-009 -6.8412769E-009 0.0
  2.1150483E-009 -7.2117329E-009 0.0
  2.7359834E-009 -7.5316313E-009 0.0
  3.3537216E-009 -7.8090553E-009 0.0
  3.9663797E-009 -8.0493035E-009 0.0
  4.5725026E-009 -8.2555682E-009 0.0
  5.1707743E-009 -8.4297200E-009 0.0
  5.7600607E-009 -8.5730561E-009 0.0
  6.3393869E-009 -8.6868768E-009 0.0
  6.9079255E-009 -8.7731430E-009 0.0
  7.4649885E-009 -8.8355045E-009 0.0
  8.0105310E-009 -8.8814524E-009 0.0
  8.5499454E-009 -8.9261169E-009 0.0
  9.1029709E-009 -8.9902374E-009 0.0
 -1.5291045E-010 -6.2606406E-009 0.0
  4.8228430E-010 -6.3072839E-009 0.0
  2.7149254E-010 -7.0262547E-009 0.0
  9.1631524E-010 -7.4352495E-009 0.0
  1.5710874E-009 -7.7928505E-009 0.0
  2.1962413E-009 -8.0932058E-009 0.0
  2.8142597E-009 -8.3586269E-009 0.0
  3.4248998E-009 -8.5941341E-009 0.0
  4.0280514E-009 -8.8012983E-009 0.0
  4.6231854E-009 -8.9804464E-009 0.0
  5.2101473E-009 -9.1316903E-009 0.0
  5.7891870E-009 -9.2552678E-009 0.0
  6.3612157E-009 -9.3519509E-009 0.0
  6.9281998E-009 -9.4236758E-009 0.0
  7.4938725E-009 -9.4746741E-009 0.0
  8.0653689E-009 -9.5131912E-009 0.0
  8.6558317E-009 -9.5524531E-009 0.0
  9.2867849E-009 -9.6091245E-009 0.0
 -2.1087038E-010 -8.8906422E-009 0.0
  8.6617521E-010 -8.8001040E-009 0.0
  1.5674168E-009 -8.9224893E-009 0.0
  2.2242691E-009 -9.0964131E-009 0.0
  2.8548458E-009 -9.2813256E-009 0.0
  3.4689275E-009 -9.4612061E-009 0.0
  4.0692996E-009 -9.6275256E-009 0.0
  4.6581409E-009 -9.7757529E-009 0.0
  5.2371651E-009 -9.9032581E-009 0.0
  5.8084388E-009 -1.0008660E-008 0.0
  6.3749817E-009 -1.0091729E-008 0.0
  6.9415836E-009 -1.0153692E-008 0.0
  7.516  3.7560306E-011 -1.2101415E-01  8.1111937E-009 -1.0230844E-008 0.0
  8.7454314E-009 -1.0263150E-008 0.0
  9.4420578E-009 -1.0309035E-008 0.0
 -3.5447648E-010 -1.0132908E-008 0.0
  6.6148303E-010 -1.0098694E-008 0.0
  1.4807597E-009 -1.0083210E-008 0.0
  2.1928786E-009 -1.0151836E-008 0.0
  2.8552436E-009 -1.0262026E-008 0.0
  3.4836976E-009 -1.0386603E-008 0.0
  4.0891426E-009 -1.0511706E-008 0.0
  4.6773436E-009 -1.0629263E-008 0.0
  5.2526305E-009 -1.0734349E-008 0.0
  5.8191724E-009 -1.0824015E-008 0.0
  6.3821048E-009 -1.0896856E-008 0.0
  6.9486802E-009 -1.0952926E-008 0.0
  7.5297083E-009 -1.0993857E-008 0.0
  8.1419947E-009 -1.1022919E-008 0.0
  8.8096829E-009 -1.1047243E-008 0.0
  9.5612895E-009 -1.1079235E-008 0.0
 -3.4688690E-010 -1.1159234E-008 0.0
  5.1109707E-010 -1.1180435E-008 0.0
  1.3568690E-009 -1.1175676E-008 0.0
  2.1291673E-009 -1.1203548E-008 0.0
  2.8252905E-009 -1.1263733E-008 0.0
  3.4745413E-009 -1.1344442E-008 0.0
  4.0907466E-009 -1.1434472E-008 0.0
  4.6832169E-009 -1.1525467E-008 0.0
  5.2586720E-009 -1.1611566E-008 0.0
  5.8233096E-009 -1.1688833E-008 0.0
  6.3841292E-009 -1.1754874E-008 0.0
  6.9501993E-009 -1.1808599E-008 0.0
  7.5342504E-009 -1.1849953E-008 0.0
  8.1543006E-009 -1.1879529E-008 0.0
  8.8406265E-009 -1.1896657E-008 0.0
  9.6350548E-009 -1.1912770E-008 0.0
  3.3259729E-010 -1.2264964E-008 0.0
  1.2589574E-009 -1.2227668E-008 0.0
  2.0559346E-009 -1.2232331E-008 0.0
  2.7811413E-009 -1.2262241E-008 0.0
  3.4508203E-009 -1.2312999E-008 0.0
  4.0803426E-009 -1.2377266E-008 0.0
  4.6801346E-009 -1.2448187E-008 0.0
  5.2585711E-009 -1.2520161E-008 0.0
  5.8233634E-009 -1.2588952E-008 0.0
  6.3829000E-009 -1.2651553E-008 0.0
  6.9474845E-009 -1.2705984E-008 0.0
  7.5305718E-009 -1.2751025E-008 0.0
  8.1511092E-009 -1.2785725E-008 0.0
  8.8328716E-009 -1.2808196E-008 0.0
  9.6447748E-009 -1.2801214E-008 0.0
  2.5446197E-010 -1.3257884E-008 0.0
  1.1709983E-009 -1.3238482E-008 0.0
  1.9910247E-009 -1.3229070E-008 0.0
  2.7353679E-009 -1.3243036E-008 0.0
  3.4227111E-009 -1.3276262E-008 0.0
  4.0652491E-009 -1.3324408E-008 0.0
  4.6734731E-009 -1.3382436E-008 0.0
  5.2562883E-009 -1.3445646E-008 0.0
  5.8222304E-009 -1.3509993E-008 0.0
  6.3804951E-009 -1.3572177E-008 0.0
  6.9419454E-009 -1.3629526E-008 0.0
  7.5203260E-009 -1.3679730E-008 0.0
  8.1330270E-009 -1.3720452E-008 0.0
  8.8062458E-009 -1.3750040E-008 0.0
  9.5490852E-009 -1.3763870E-008 0.0
  2.2294586E-010 -1.4202146E-008 0.0
  1.1157899E-009 -1.4192784E-008 0.0
  1.9404643E-009 -1.4187840E-008 0.0
  2.6982212E-009 -1.4197267E-008 0.0
  3.3986904E-009 -1.4223202E-008 0.0
  4.0524339E-009 -1.4263588E-008 0.0
  4.6686426E-009 -1.4315355E-008 0.0
  5.2559258E-009 -1.4374855E-008 0.0
  5.8229300E-009 -1.4438464E-008 0.0
  6.3790445E-009 -1.4502789E-008 0.0
  6.9351162E-009 -1.4564591E-008 0.0
  7.5040628E-009 -1.4620329E-008 0.0
  8.1019934E-009 -1.4665105E-008 0.0
  8.7455939E-009 -1.4688261E-008 0.0
  9.4519997E-009 -1.4670166E-008 0.0
  1.0264412E-008 -1.4634718E-008 0.0
  1.0272035E-008 -1.3792163E-008 0.0
  2.1423683E-010 -1.5106256E-008 0.0
  1.0885868E-009 -1.5105348E-008 0.0
  1.9120110E-009 -1.5108375E-008 0.0
  2.6757381E-009 -1.5121154E-008 0.0
  3.3851341E-009 -1.5146593E-008 0.0
  4.0476049E-009 -1.5185576E-008 0.0
  4.6704481E-009 -1.5236453E-008 0.0
  5.2613008E-009 -1.5296465E-008 0.0
  5.8283834E-009 -1.5362426E-008 0.0
  6.3807759E-009 -1.5430981E-008 0.0
  6.9287396E-009 -1.5498541E-008 0.0
  7.4840322E-009 -1.5560907E-008 0.0
  8.0593692E-009 -1.5612341E-008 0.0
  8.6679659E-009 -1.5645098E-008 0.0
  9.3211338E-009 -1.5650841E-008 0.0
  1.0137001E-008 -1.5588550E-008 0.0
 -7.1721026E-009 -3.6068716E-008 0.0
  2.1303214E-010 -1.5985350E-008 0.0
  1.0844031E-009 -1.5987349E-008 0.0
  1.9058239E-009 -1.5996283E-008 0.0
  2.6707106E-009 -1.6013036E-008 0.0
  3.3860260E-009 -1.6041729E-008 0.0
  4.0550249E-009 -1.6083580E-008 0.0
  4.6827597E-009 -1.6137442E-008 0.0
  5.2756815E-009 -1.6201075E-008 0.0
  5.841 -4.7142552E-010 -3.8292920E-01  6.3879476E-009 -1.6346037E-008 0.0
  6.9251291E-009 -1.6420435E-008 0.0
  7.4631813E-009 -1.6490482E-008 0.0
  8.0133327E-009 -1.6551184E-008 0.0
  8.5869663E-009 -1.6598138E-008 0.0
  9.2035105E-009 -1.6632305E-008 0.0
  9.8315901E-009 -1.6638177E-008 0.0
 -2.4605286E-009 -3.4019764E-008 0.0
 -2.4774504E-009 -3.3390668E-008 0.0
 -2.9428926E-009 -3.3502767E-008 0.0
 -2.9818958E-009 -3.4013120E-008 0.0
 -3.3673435E-009 -3.3617709E-008 0.0
 -3.4117574E-009 -3.4078505E-008 0.0
 -3.7776204E-009 -3.3740493E-008 0.0
 -3.8299435E-009 -3.4184476E-008 0.0
 -4.1867266E-009 -3.3877325E-008 0.0
 -4.2458919E-009 -3.4316938E-008 0.0
 -4.5975873E-009 -3.4029320E-008 0.0
 -4.6634288E-009 -3.4470066E-008 0.0
 -5.0110743E-009 -3.4197113E-008 0.0
 -5.0837686E-009 -3.4642276E-008 0.0
 -5.4270352E-009 -3.4382065E-008 0.0
 -5.5071997E-009 -3.4834556E-008 0.0
 -5.8442164E-009 -3.4586654E-008 0.0
 -5.9334532E-009 -3.5050950E-008 0.0
 -6.2616478E-009 -3.4813824E-008 0.0
 -6.3592001E-009 -3.5300830E-008 0.0
 -6.6721482E-009 -3.5061206E-008 0.0
 -6.7903375E-009 -3.5614273E-008 0.0
 -7.1454693E-009 -3.5266127E-008 0.0
  1.1087897E-009 -1.6835357E-008 0.0
  1.9175217E-009 -1.6849764E-008 0.0
  2.6836537E-009 -1.6870984E-008 0.0
  3.4038037E-009 -1.6905339E-008 0.0
  4.0776039E-009 -1.6952718E-008 0.0
  4.7084195E-009 -1.7011876E-008 0.0
  5.3016488E-009 -1.7081000E-008 0.0
  5.8639000E-009 -1.7157640E-008 0.0
  6.4027592E-009 -1.7238760E-008 0.0
  6.9266307E-009 -1.7320675E-008 0.0
  7.4446465E-009 -1.7398856E-008 0.0
  7.9665744E-009 -1.7467661E-008 0.0
  8.5034657E-009 -1.7519941E-008 0.0
  9.0621346E-009 -1.7540160E-008 0.0
  9.6154682E-009 -1.7512592E-008 0.0
  1.0276152E-008 -1.7426603E-008 0.0
  1.0294282E-008 -1.6703424E-008 0.0
 -1.1808443E-009 -3.3131109E-008 0.0
 -1.2024442E-009 -3.2505413E-008 0.0
 -1.6476530E-009 -3.2620180E-008 0.0
 -1.6883268E-009 -3.3128465E-008 0.0
 -2.0448306E-009 -3.2743294E-008 0.0
 -2.0968974E-009 -3.3217473E-008 0.0
 -2.4485084E-009 -3.2855160E-008 0.0
 -2.8846895E-009 -3.2983207E-008 0.0
 -3.3083651E-009 -3.3118843E-008 0.0
 -3.7191138E-009 -3.3256508E-008 0.0
 -4.1260240E-009 -3.3398947E-008 0.0
 -4.5336076E-009 -3.3549412E-008 0.0
 -4.9434270E-009 -3.3709560E-008 0.0
 -5.3559731E-009 -3.3880011E-008 0.0
 -5.7718949E-009 -3.4059873E-008 0.0
 -6.1930649E-009 -3.4244583E-008 0.0
 -6.6376431E-009 -3.4417964E-008 0.0
  1.1489098E-009 -1.7646356E-008 0.0
  1.9452061E-009 -1.7665388E-008 0.0
  2.7152808E-009 -1.7694277E-008 0.0
  3.4398986E-009 -1.7735950E-008 0.0
  4.1169725E-009 -1.7789570E-008 0.0
  4.7492441E-009 -1.7854694E-008 0.0
  5.3410360E-009 -1.7929909E-008 0.0
  5.8981021E-009 -1.8012990E-008 0.0
  6.4271812E-009 -1.8101165E-008 0.0
  6.9356108E-009 -1.8190944E-008 0.0
  7.4310899E-009 -1.8277798E-008 0.0
  7.9214934E-009 -1.8355559E-008 0.0
  8.4140846E-009 -1.8414898E-008 0.0
  8.9113937E-009 -1.8444861E-008 0.0
  9.4313246E-009 -1.8447769E-008 0.0
  9.9719858E-009 -1.8437152E-008 0.0
 -3.2120542E-010 -3.2356063E-008 0.0
 -3.5449874E-010 -3.1676762E-008 0.0
 -7.8331186E-010 -3.1827007E-008 0.0
 -8.3941398E-010 -3.2357174E-008 0.0
 -1.1778257E-009 -3.1953598E-008 0.0
 -1.5923261E-009 -3.2084301E-008 0.0
 -2.0000730E-009 -3.2215664E-008 0.0
 -2.4084363E-009 -3.2343627E-008 0.0
 -2.8266026E-009 -3.2473157E-008 0.0
 -3.2450043E-009 -3.2610330E-008 0.0
 -3.6568922E-009 -3.2751155E-008 0.0
 -4.0650295E-009 -3.2894116E-008 0.0
 -4.4730895E-009 -3.3040103E-008 0.0
 -4.8834718E-009 -3.3189901E-008 0.0
 -5.2980929E-009 -3.3343032E-008 0.0
 -5.7197615E-009 -3.3497038E-008 0.0
 -6.1557685E-009 -3.3646285E-008 0.0
 -6.6197317E-009 -3.3786193E-008 0.0
  1.1828220E-009 -1.8430055E-008 0.0
  1.9884329E-009 -1.8451744E-008 0.0
  2.7659242E-009 -1.8487491E-008 0.0
  3.4938207E-009 -1.8533244E-008 0.0
  4.1735849E-009 -1.8591353E-008 0.0
  4.8061341E-009 -1.8661728E-008 0.0
  5.3948936E-009 -1.8742370E-008 0.0
  5.9451343E-009 -1.8831289E-008 0.0
  6.4628241E-009 -1.8926025E-008 0.0
  6.954 -9.1685875E-012 -1.0336558E-01  7.4259398E-009 -1.9119846E-008 0.0
  7.8834299E-009 -1.9209647E-008 0.0
  8.3312469E-009 -1.9285587E-008 0.0
  8.7759902E-009 -1.9338607E-008 0.0
  9.2277054E-009 -1.9349867E-008 0.0
  9.7210969E-009 -1.9281205E-008 0.0
  1.0383603E-008 -1.9196465E-008 0.0
  1.0388439E-008 -1.8494334E-008 0.0
  7.7544416E-010 -3.1328883E-008 0.0
  7.4814111E-010 -3.0690355E-008 0.0
  3.4910537E-010 -3.0846051E-008 0.0
  2.9568460E-010 -3.1323572E-008 0.0
  1.4449905E-011 -3.1003673E-008 0.0
 -5.1938041E-011 -3.1441336E-008 0.0
 -3.3011188E-010 -3.1137049E-008 0.0
 -7.3146479E-010 -3.1280091E-008 0.0
 -1.1349294E-009 -3.1423467E-008 0.0
 -1.5400973E-009 -3.1559477E-008 0.0
 -1.9478180E-009 -3.1694315E-008 0.0
 -2.3572238E-009 -3.1827479E-008 0.0
 -2.7700334E-009 -3.1961041E-008 0.0
 -3.1838417E-009 -3.2096838E-008 0.0
 -3.5959695E-009 -3.2234737E-008 0.0
 -4.0065206E-009 -3.2373307E-008 0.0
 -4.4176812E-009 -3.2511889E-008 0.0
 -4.8320118E-009 -3.2650061E-008 0.0
 -5.2524150E-009 -3.2786720E-008 0.0
 -5.6832441E-009 -3.2919585E-008 0.0
 -6.1314112E-009 -3.3045976E-008 0.0
 -6.6063175E-009 -3.3164287E-008 0.0
  1.1807195E-009 -1.9240330E-008 0.0
  2.0436385E-009 -1.9230440E-008 0.0
  2.8295932E-009 -1.9251462E-008 0.0
  3.5640177E-009 -1.9294370E-008 0.0
  4.2474424E-009 -1.9355539E-008 0.0
  4.8790645E-009 -1.9429077E-008 0.0
  5.4635677E-009 -1.9513398E-008 0.0
  6.0056058E-009 -1.9606631E-008 0.0
  6.5106687E-009 -1.9706474E-008 0.0
  6.9845101E-009 -1.9810516E-008 0.0
  7.4324622E-009 -1.9916010E-008 0.0
  7.8588556E-009 -2.0019684E-008 0.0
  8.2670918E-009 -2.0117619E-008 0.0
  8.6595736E-009 -2.0203941E-008 0.0
  9.0424068E-009 -2.0268858E-008 0.0
  9.4263889E-009 -2.0294903E-008 0.0
  1.0115417E-008 -2.0157578E-008 0.0
  1.8066299E-009 -3.0335920E-008 0.0
  1.7786418E-009 -2.9700541E-008 0.0
  1.4020138E-009 -2.9872950E-008 0.0
  1.3439535E-009 -3.0327963E-008 0.0
  1.0947873E-009 -3.0041612E-008 0.0
  1.0249170E-009 -3.0450319E-008 0.0
  7.7920293E-010 -3.0185238E-008 0.0
  4.1604074E-010 -3.0342930E-008 0.0
  6.0589683E-011 -3.0496213E-008 0.0
 -3.0055604E-010 -3.0637062E-008 0.0
 -6.8511302E-010 -3.0771575E-008 0.0
 -1.0840652E-009 -3.0908733E-008 0.0
 -1.4874057E-009 -3.1045544E-008 0.0
 -1.8935035E-009 -3.1180304E-008 0.0
 -2.3022809E-009 -3.1313826E-008 0.0
 -2.7133994E-009 -3.1446721E-008 0.0
 -3.1259408E-009 -3.1579636E-008 0.0
 -3.5389341E-009 -3.1712329E-008 0.0
 -3.9525476E-009 -3.1843963E-008 0.0
 -4.3682185E-009 -3.1973555E-008 0.0
 -4.7883035E-009 -3.2100165E-008 0.0
 -5.2159809E-009 -3.2222638E-008 0.0
 -5.6555622E-009 -3.2339613E-008 0.0
 -6.1126821E-009 -3.2450012E-008 0.0
 -6.5935401E-009 -3.2554067E-008 0.0
  2.1294040E-009 -1.9930100E-008 0.0
  2.9036788E-009 -1.9969387E-008 0.0
  3.6525990E-009 -2.0018679E-008 0.0
  4.3369858E-009 -2.0078908E-008 0.0
  4.9675756E-009 -2.0152411E-008 0.0
  5.5469293E-009 -2.0238297E-008 0.0
  6.0794190E-009 -2.0333501E-008 0.0
  6.5707881E-009 -2.0435957E-008 0.0
  7.0266402E-009 -2.0543899E-008 0.0
  7.4519965E-009 -2.0655840E-008 0.0
  7.8507740E-009 -2.0770677E-008 0.0
  8.2253821E-009 -2.0887788E-008 0.0
  8.5773747E-009 -2.1007799E-008 0.0
  8.9068285E-009 -2.1134790E-008 0.0
  9.2369263E-009 -2.1283832E-008 0.0
  9.4644095E-009 -2.1424852E-008 0.0
  3.5077497E-009 -2.8860169E-008 0.0
  3.4891462E-009 -2.8338293E-008 0.0
  3.1548772E-009 -2.8468809E-008 0.0
  3.1104524E-009 -2.8851488E-008 0.0
  2.8710755E-009 -2.8600416E-008 0.0
  2.8209119E-009 -2.8925486E-008 0.0
  2.6077711E-009 -2.8741026E-008 0.0
  2.5480424E-009 -2.9047801E-008 0.0
  2.3507254E-009 -2.8899187E-008 0.0
  2.2832441E-009 -2.9207015E-008 0.0
  2.1000749E-009 -2.9073817E-008 0.0
  2.0186105E-009 -2.9412072E-008 0.0
  1.8147885E-009 -2.9230917E-008 0.0
  1.4752500E-009 -2.9402595E-008 0.0
  1.1465506E-009 -2.9567339E-008 0.0
  8.1640014E-010 -2.9718663E-008 0.0
  4.6788333E-010 -2.9862212E-008 0.0
  1.0811894E-010 -3.0005467E-008 0.0
 -2.5999430E-010 -3.0143112E-008 0.0
 -6.413 -5.3744714E-011 -1.1128644E-01 -1.0343818E-009 -3.0409055E-008 0.0
 -1.4347436E-009 -3.0541594E-008 0.0
 -1.8394656E-009 -3.0673388E-008 0.0
 -2.2475189E-009 -3.0803943E-008 0.0
 -2.6583713E-009 -3.0933288E-008 0.0
 -3.0714641E-009 -3.1061309E-008 0.0
 -3.4864938E-009 -3.1187570E-008 0.0
 -3.9038095E-009 -3.1311286E-008 0.0
 -4.3246266E-009 -3.1431536E-008 0.0
 -4.7510082E-009 -3.1547393E-008 0.0
 -5.1858385E-009 -3.1657999E-008 0.0
 -5.6328093E-009 -3.1762704E-008 0.0
 -6.0961912E-009 -3.1861422E-008 0.0
 -6.5801102E-009 -3.1955058E-008 0.0
  2.1302480E-009 -2.0700018E-008 0.0
  3.0002739E-009 -2.0677981E-008 0.0
  3.7521883E-009 -2.0703315E-008 0.0
  4.4411830E-009 -2.0754749E-008 0.0
  5.0718284E-009 -2.0827739E-008 0.0
  5.6443741E-009 -2.0912574E-008 0.0
  6.1658907E-009 -2.1006841E-008 0.0
  6.6422520E-009 -2.1108604E-008 0.0
  7.0794944E-009 -2.1216345E-008 0.0
  7.4830157E-009 -2.1329515E-008 0.0
  7.8567994E-009 -2.1448379E-008 0.0
  8.2032097E-009 -2.1574092E-008 0.0
  8.5226720E-009 -2.1708717E-008 0.0
  8.8155923E-009 -2.1854546E-008 0.0
  9.0634366E-009 -2.1997160E-008 0.0
  9.1739990E-009 -2.2119138E-008 0.0
  9.0775992E-009 -2.2266408E-008 0.0
  9.2241231E-009 -2.1593701E-008 0.0
  4.6616723E-009 -2.7915033E-008 0.0
  4.6423349E-009 -2.7396114E-008 0.0
  4.3138013E-009 -2.7527130E-008 0.0
  4.2692017E-009 -2.7906981E-008 0.0
  4.0396136E-009 -2.7661357E-008 0.0
  3.9893131E-009 -2.7985127E-008 0.0
  3.7909855E-009 -2.7802320E-008 0.0
  3.7275098E-009 -2.8124962E-008 0.0
  3.5230050E-009 -2.7932591E-008 0.0
  3.2198000E-009 -2.8078809E-008 0.0
  2.9350268E-009 -2.8230099E-008 0.0
  2.6684936E-009 -2.8380408E-008 0.0
  2.4087940E-009 -2.8530715E-008 0.0
  2.1408833E-009 -2.8676399E-008 0.0
  1.8486855E-009 -2.8820564E-008 0.0
  1.5290145E-009 -2.8965118E-008 0.0
  1.1975115E-009 -2.9113272E-008 0.0
  8.6017873E-010 -2.9256566E-008 0.0
  5.1221654E-010 -2.9394775E-008 0.0
  1.5314534E-010 -2.9529418E-008 0.0
 -2.1638528E-010 -2.9661332E-008 0.0
 -5.9645665E-010 -2.9790680E-008 0.0
 -9.8633330E-010 -2.9918739E-008 0.0
 -1.3839037E-009 -3.0046208E-008 0.0
 -1.7871553E-009 -3.0172981E-008 0.0
 -2.1948022E-009 -3.0298576E-008 0.0
 -2.6061505E-009 -3.0422533E-008 0.0
 -3.0208039E-009 -3.0544374E-008 0.0
 -3.4386760E-009 -3.0663458E-008 0.0
 -3.8601692E-009 -3.0779010E-008 0.0
 -4.2863092E-009 -3.0890213E-008 0.0
 -4.7188013E-009 -3.0996350E-008 0.0
 -5.1600139E-009 -3.1096917E-008 0.0
 -5.6128645E-009 -3.1191783E-008 0.0
 -6.0805079E-009 -3.1281373E-008 0.0
 -6.5657472E-009 -3.1366830E-008 0.0
  3.1434867E-009 -2.1262343E-008 0.0
  3.8623462E-009 -2.1320225E-008 0.0
  4.5653470E-009 -2.1381938E-008 0.0
  5.1905973E-009 -2.1451128E-008 0.0
  5.7553655E-009 -2.1531667E-008 0.0
  6.2641011E-009 -2.1622404E-008 0.0
  6.7232897E-009 -2.1719704E-008 0.0
  7.1404411E-009 -2.1822301E-008 0.0
  7.5216861E-009 -2.1930176E-008 0.0
  7.8713028E-009 -2.2044134E-008 0.0
  8.1912350E-009 -2.2165386E-008 0.0
  8.4806283E-009 -2.2294815E-008 0.0
  8.7315786E-009 -2.2430012E-008 0.0
  8.9173826E-009 -2.2567607E-008 0.0
  8.9947360E-009 -2.2723168E-008 0.0
  8.9493372E-009 -2.2944471E-008 0.0
  8.8380581E-009 -2.3288358E-008 0.0
  9.0095040E-009 -2.2404225E-008 0.0
  5.5973104E-009 -2.7100115E-008 0.0
  5.5741308E-009 -2.6498587E-008 0.0
  5.2226161E-009 -2.6675750E-008 0.0
  5.1659948E-009 -2.7086833E-008 0.0
  4.9476100E-009 -2.6841955E-008 0.0
  4.8829100E-009 -2.7192462E-008 0.0
  4.6771766E-009 -2.6982933E-008 0.0
  4.3780298E-009 -2.7134421E-008 0.0
  4.0999380E-009 -2.7286419E-008 0.0
  3.8352590E-009 -2.7428210E-008 0.0
  3.5635056E-009 -2.7565557E-008 0.0
  3.2800267E-009 -2.7704995E-008 0.0
  2.9986024E-009 -2.7851178E-008 0.0
  2.7263456E-009 -2.7997361E-008 0.0
  2.4564715E-009 -2.8138961E-008 0.0
  2.1785380E-009 -2.8275440E-008 0.0
  1.8835209E-009 -2.8408117E-008 0.0
  1.5695011E-009 -2.8540934E-008 0.0
  1.2414213E-009 -2.8674320E-008 0.0
  9.0293609E-010 -2.8806917E-008 0.0
  5.5453730E-010 -2.8936922E-008 0.0
  1.958 -7.9143094E-010 -2.6155881E-01 -1.7311233E-010 -2.9189759E-008 0.0
 -5.5189034E-010 -2.9313465E-008 0.0
 -9.3970992E-010 -2.9436021E-008 0.0
 -1.3353307E-009 -2.9557758E-008 0.0
 -1.7374283E-009 -2.9678578E-008 0.0
 -2.1449734E-009 -2.9798064E-008 0.0
 -2.5573072E-009 -2.9915630E-008 0.0
 -2.9740871E-009 -3.0030600E-008 0.0
 -3.3952684E-009 -3.0142227E-008 0.0
 -3.8211656E-009 -3.0249739E-008 0.0
 -4.2525396E-009 -3.0352436E-008 0.0
 -4.6906611E-009 -3.0449823E-008 0.0
 -5.1373155E-009 -3.0541714E-008 0.0
 -5.5946957E-009 -3.0628328E-008 0.0
 -6.0651218E-009 -3.0710355E-008 0.0
 -6.5505826E-009 -3.0788967E-008 0.0
  3.1476855E-009 -2.1966141E-008 0.0
  4.0035360E-009 -2.1930894E-008 0.0
  4.7002498E-009 -2.1959044E-008 0.0
  5.3236744E-009 -2.2014966E-008 0.0
  5.8807289E-009 -2.2092231E-008 0.0
  6.3729008E-009 -2.2176848E-008 0.0
  6.8117186E-009 -2.2265886E-008 0.0
  7.2061546E-009 -2.2358416E-008 0.0
  7.5634187E-009 -2.2454678E-008 0.0
  7.8879851E-009 -2.2555716E-008 0.0
  8.1810924E-009 -2.2662421E-008 0.0
  8.4397905E-009 -2.2774811E-008 0.0
  8.6542693E-009 -2.2892653E-008 0.0
  8.8064239E-009 -2.3019972E-008 0.0
  8.8765022E-009 -2.3171375E-008 0.0
  8.8584915E-009 -2.3368865E-008 0.0
  8.7210317E-009 -2.3608130E-008 0.0
  8.3009879E-009 -2.3874252E-008 0.0
  8.1180731E-009 -2.4079170E-008 0.0
  7.8174687E-009 -2.4257454E-008 0.0
  7.6827994E-009 -2.4548859E-008 0.0
  7.4196228E-009 -2.4595277E-008 0.0
  7.2966404E-009 -2.4891662E-008 0.0
  7.0659530E-009 -2.4891218E-008 0.0
  6.9565125E-009 -2.5181155E-008 0.0
  6.7444545E-009 -2.5158112E-008 0.0
  6.6431828E-009 -2.5440964E-008 0.0
  6.4464671E-009 -2.5406877E-008 0.0
  6.3498821E-009 -2.5685280E-008 0.0
  6.1672723E-009 -2.5645532E-008 0.0
  6.0737661E-009 -2.5925905E-008 0.0
  5.9065556E-009 -2.5876918E-008 0.0
  5.8082369E-009 -2.6183076E-008 0.0
  5.6233851E-009 -2.6072659E-008 0.0
  5.3021264E-009 -2.6269547E-008 0.0
  5.0065815E-009 -2.6449222E-008 0.0
  4.7236733E-009 -2.6610401E-008 0.0
  4.4387666E-009 -2.6761948E-008 0.0
  4.1583965E-009 -2.6911758E-008 0.0
  3.8849869E-009 -2.7056059E-008 0.0
  3.6109052E-009 -2.7194880E-008 0.0
  3.3329723E-009 -2.7332870E-008 0.0
  3.0546874E-009 -2.7471621E-008 0.0
  2.7781755E-009 -2.7609382E-008 0.0
  2.5005505E-009 -2.7743207E-008 0.0
  2.2155781E-009 -2.7872080E-008 0.0
  1.9178675E-009 -2.7997359E-008 0.0
  1.6054675E-009 -2.8120999E-008 0.0
  1.2796419E-009 -2.8244282E-008 0.0
  9.4231986E-010 -2.8366926E-008 0.0
  5.9449021E-010 -2.8488361E-008 0.0
  2.3651714E-010 -2.8608244E-008 0.0
 -1.3136447E-010 -2.8726672E-008 0.0
 -5.0874455E-010 -2.8843881E-008 0.0
 -8.9497503E-010 -2.8960118E-008 0.0
 -1.2892067E-009 -2.9075463E-008 0.0
 -1.6905643E-009 -2.9189749E-008 0.0
 -2.0983131E-009 -2.9302551E-008 0.0
 -2.5119421E-009 -2.9413254E-008 0.0
 -2.9311627E-009 -2.9521116E-008 0.0
 -3.3558904E-009 -2.9625338E-008 0.0
 -3.7862576E-009 -2.9725152E-008 0.0
 -4.2226686E-009 -2.9819951E-008 0.0
 -4.6658862E-009 -2.9909424E-008 0.0
 -5.1170962E-009 -2.9993638E-008 0.0
 -5.5778705E-009 -3.0073064E-008 0.0
 -6.0499531E-009 -3.0148534E-008 0.0
 -6.5348818E-009 -3.0221160E-008 0.0
  4.2069197E-009 -2.2371419E-008 0.0
  4.8462247E-009 -2.2447883E-008 0.0
  5.4799998E-009 -2.2519730E-008 0.0
  6.0199564E-009 -2.2591713E-008 0.0
  6.4914678E-009 -2.2667238E-008 0.0
  6.9053579E-009 -2.2745028E-008 0.0
  7.2732582E-009 -2.2823072E-008 0.0
  7.6041264E-009 -2.2902671E-008 0.0
  7.9021511E-009 -2.2985284E-008 0.0
  8.1675968E-009 -2.3071540E-008 0.0
  8.3967310E-009 -2.3161526E-008 0.0
  8.5813019E-009 -2.3255923E-008 0.0
  8.7092639E-009 -2.3357825E-008 0.0
  8.7678235E-009 -2.3472760E-008 0.0
  8.7406647E-009 -2.3601360E-008 0.0
  8.5858924E-009 -2.3739720E-008 0.0
  8.2817038E-009 -2.3921747E-008 0.0
  7.8972897E-009 -2.4151656E-008 0.0
  7.5124116E-009 -2.4416125E-008 0.0
  7.1599069E-009 -2.4674465E-008 0.0
  6.8345816E-009 -2.4918795E-008 0.0
  6.5314257E-009 -2.5148870E-008 0.0
  6.2452191E-009 -2.5365036E-008 0.0
  5.963 -9.8026431E-010 -1.4086061E-01  5.6717552E-009 -2.5746562E-008 0.0
  5.3680430E-009 -2.5921075E-008 0.0
  5.0683197E-009 -2.6091576E-008 0.0
  4.7784736E-009 -2.6251925E-008 0.0
  4.4936698E-009 -2.6403715E-008 0.0
  4.2129620E-009 -2.6549621E-008 0.0
  3.9356896E-009 -2.6690675E-008 0.0
  3.6594315E-009 -2.6827381E-008 0.0
  3.3821830E-009 -2.6961239E-008 0.0
  3.1038952E-009 -2.7093306E-008 0.0
  2.8244015E-009 -2.7222938E-008 0.0
  2.5415510E-009 -2.7348924E-008 0.0
  2.2517187E-009 -2.7470763E-008 0.0
  1.9514891E-009 -2.7589112E-008 0.0
  1.6390958E-009 -2.7705268E-008 0.0
  1.3145088E-009 -2.7820212E-008 0.0
  9.7850197E-010 -2.7934320E-008 0.0
  6.3182921E-010 -2.8047511E-008 0.0
  2.7499056E-010 -2.8159681E-008 0.0
 -9.1632542E-011 -2.8270823E-008 0.0
 -4.6763545E-010 -2.8381031E-008 0.0
 -8.5251446E-010 -2.8490383E-008 0.0
 -1.2456930E-009 -2.8598843E-008 0.0
 -1.6466033E-009 -2.8706195E-008 0.0
 -2.0547731E-009 -2.8812016E-008 0.0
 -2.4698671E-009 -2.8915702E-008 0.0
 -2.8916726E-009 -2.9016501E-008 0.0
 -3.3200508E-009 -2.9113590E-008 0.0
 -3.7548975E-009 -2.9206184E-008 0.0
 -4.1961739E-009 -2.9293716E-008 0.0
 -4.6440409E-009 -2.9375994E-008 0.0
 -5.0990553E-009 -2.9453299E-008 0.0
 -5.5622689E-009 -2.9526307E-008 0.0
 -6.0350882E-009 -2.9595948E-008 0.0
 -6.5188983E-009 -2.9663231E-008 0.0
  4.2145435E-009 -2.2984313E-008 0.0
  5.0328460E-009 -2.2935657E-008 0.0
  5.6498742E-009 -2.2966735E-008 0.0
  6.1744429E-009 -2.3023524E-008 0.0
  6.6203083E-009 -2.3092087E-008 0.0
  7.0014975E-009 -2.3155309E-008 0.0
  7.3387458E-009 -2.3215080E-008 0.0
  7.6410466E-009 -2.3275093E-008 0.0
  7.9112453E-009 -2.3336777E-008 0.0
  8.1486451E-009 -2.3400400E-008 0.0
  8.3493888E-009 -2.3465790E-008 0.0
  8.5065844E-009 -2.3533108E-008 0.0
  8.6107429E-009 -2.3603277E-008 0.0
  8.6497468E-009 -2.3677167E-008 0.0
  8.6060480E-009 -2.3755575E-008 0.0
  8.4615207E-009 -2.3847036E-008 0.0
  8.2145204E-009 -2.3965333E-008 0.0
  7.8979182E-009 -2.4123092E-008 0.0
  7.5566539E-009 -2.4311744E-008 0.0
  7.2201758E-009 -2.4516137E-008 0.0
  6.8995420E-009 -2.4721129E-008 0.0
  6.5944797E-009 -2.4919646E-008 0.0
  6.3003655E-009 -2.5107505E-008 0.0
  6.0098021E-009 -2.5283676E-008 0.0
  5.7158351E-009 -2.5449495E-008 0.0
  5.4178716E-009 -2.5609511E-008 0.0
  5.1214350E-009 -2.5765008E-008 0.0
  4.8301877E-009 -2.5915614E-008 0.0
  4.5442726E-009 -2.6060394E-008 0.0
  4.2624406E-009 -2.6199951E-008 0.0
  3.9834105E-009 -2.6334930E-008 0.0
  3.7055473E-009 -2.6465959E-008 0.0
  3.4273759E-009 -2.6593713E-008 0.0
  3.1478492E-009 -2.6718588E-008 0.0
  2.8658224E-009 -2.6840424E-008 0.0
  2.5794395E-009 -2.6958768E-008 0.0
  2.2862457E-009 -2.7073478E-008 0.0
  1.9839322E-009 -2.7184983E-008 0.0
  1.6710165E-009 -2.7294085E-008 0.0
  1.3470064E-009 -2.7401559E-008 0.0
  1.0120716E-009 -2.7507882E-008 0.0
  6.6661950E-010 -2.7613258E-008 0.0
  3.1106199E-010 -2.7717747E-008 0.0
 -5.4231773E-011 -2.7821394E-008 0.0
 -4.2890232E-010 -2.7924243E-008 0.0
 -8.1257723E-010 -2.8026307E-008 0.0
 -1.2048843E-009 -2.8127508E-008 0.0
 -1.6054947E-009 -2.8227626E-008 0.0
 -2.0141639E-009 -2.8326282E-008 0.0
 -2.4307423E-009 -2.8422925E-008 0.0
 -2.8551311E-009 -2.8516841E-008 0.0
 -3.2871749E-009 -2.8607198E-008 0.0
 -3.7265333E-009 -2.8693155E-008 0.0
 -4.1726343E-009 -2.8774082E-008 0.0
 -4.6248825E-009 -2.8849849E-008 0.0
 -5.0830994E-009 -2.8920909E-008 0.0
 -5.5479015E-009 -2.8988176E-008 0.0
 -6.0206167E-009 -2.9052645E-008 0.0
 -6.5027803E-009 -2.9115189E-008 0.0
  5.2983593E-009 -2.3209350E-008 0.0
  5.8387551E-009 -2.3309367E-008 0.0
  6.3578568E-009 -2.3391435E-008 0.0
  6.7559464E-009 -2.3449646E-008 0.0
  7.0966129E-009 -2.3492255E-008 0.0
  7.4008295E-009 -2.3532517E-008 0.0
  7.6732195E-009 -2.3573124E-008 0.0
  7.9148340E-009 -2.3614550E-008 0.0
  8.1240311E-009 -2.3656357E-008 0.0
  8.2969734E-009 -2.3697964E-008 0.0
  8.4276187E-009 -2.3739052E-008 0.0
  8.5077607E-009 -2.3779757E-008 0.0
  8.5269220E-009 -2.3821000E-008 0.0
  8.473 -1.6740394E-009 -1.2288024E-01  8.3394222E-009 -2.3922455E-008 0.0
  8.1277864E-009 -2.4000406E-008 0.0
  7.8575303E-009 -2.4106850E-008 0.0
  7.5551574E-009 -2.4240917E-008 0.0
  7.2430853E-009 -2.4393975E-008 0.0
  6.9339926E-009 -2.4556128E-008 0.0
  6.6321607E-009 -2.4719144E-008 0.0
  6.3364935E-009 -2.4878137E-008 0.0
  6.0435057E-009 -2.5030965E-008 0.0
  5.7501226E-009 -2.5178190E-008 0.0
  5.4559424E-009 -2.5321363E-008 0.0
  5.1630246E-009 -2.5461680E-008 0.0
  4.8734577E-009 -2.5598962E-008 0.0
  4.5878548E-009 -2.5732781E-008 0.0
  4.3057086E-009 -2.5862887E-008 0.0
  4.0259020E-009 -2.5989383E-008 0.0
  3.7470849E-009 -2.6112500E-008 0.0
  3.4678809E-009 -2.6232492E-008 0.0
  3.1869734E-009 -2.6349481E-008 0.0
  2.9029461E-009 -2.6463385E-008 0.0
  2.6141148E-009 -2.6574049E-008 0.0
  2.3186134E-009 -2.6681480E-008 0.0
  2.0147242E-009 -2.6785981E-008 0.0
  1.7012147E-009 -2.6888084E-008 0.0
  1.3774594E-009 -2.6988352E-008 0.0
  1.0433271E-009 -2.7087233E-008 0.0
  6.9896899E-010 -2.7185012E-008 0.0
  3.4464695E-010 -2.7281853E-008 0.0
 -1.9355158E-011 -2.7377854E-008 0.0
 -3.9276342E-010 -2.7473073E-008 0.0
 -7.7532818E-010 -2.7567522E-008 0.0
 -1.1668443E-009 -2.7661131E-008 0.0
 -1.5671773E-009 -2.7753729E-008 0.0
 -1.9762831E-009 -2.7845015E-008 0.0
 -2.3942018E-009 -2.7934551E-008 0.0
 -2.8209996E-009 -2.8021738E-008 0.0
 -3.2566159E-009 -2.8105791E-008 0.0
 -3.7005594E-009 -2.8185768E-008 0.0
 -4.1516716E-009 -2.8260873E-008 0.0
 -4.6082891E-009 -2.8330857E-008 0.0
 -5.0692301E-009 -2.8396432E-008 0.0
 -5.5347578E-009 -2.8458727E-008 0.0
 -6.0064915E-009 -2.8518855E-008 0.0
 -6.4865001E-009 -2.8577357E-008 0.0
  5.3029270E-009 -2.3725184E-008 0.0
  6.0967992E-009 -2.3664772E-008 0.0
  6.5580213E-009 -2.3700897E-008 0.0
  6.8895007E-009 -2.3723157E-008 0.0
  7.1899128E-009 -2.3747808E-008 0.0
  7.4600750E-009 -2.3773018E-008 0.0
  7.7019023E-009 -2.3798457E-008 0.0
  7.9143001E-009 -2.3823213E-008 0.0
  8.0950934E-009 -2.3846415E-008 0.0
  8.2405957E-009 -2.3867450E-008 0.0
  8.3455131E-009 -2.3886124E-008 0.0
  8.4030079E-009 -2.3902927E-008 0.0
  8.4052779E-009 -2.3919619E-008 0.0
  8.3451101E-009 -2.3939964E-008 0.0
  8.2190256E-009 -2.3970188E-008 0.0
  8.0308339E-009 -2.4017424E-008 0.0
  7.7926856E-009 -2.4086877E-008 0.0
  7.5214872E-009 -2.4178963E-008 0.0
  7.2332457E-009 -2.4289641E-008 0.0
  6.9392796E-009 -2.4412443E-008 0.0
  6.6454451E-009 -2.4541149E-008 0.0
  6.3534190E-009 -2.4671126E-008 0.0
  6.0626209E-009 -2.4799898E-008 0.0
  5.7721240E-009 -2.4926754E-008 0.0
  5.4819134E-009 -2.5052013E-008 0.0
  5.1929569E-009 -2.5175976E-008 0.0
  4.9063449E-009 -2.5298553E-008 0.0
  4.6225597E-009 -2.5419330E-008 0.0
  4.3413181E-009 -2.5537923E-008 0.0
  4.0617825E-009 -2.5654086E-008 0.0
  3.7827944E-009 -2.5767718E-008 0.0
  3.5030601E-009 -2.5878771E-008 0.0
  3.2212243E-009 -2.5987174E-008 0.0
  2.9358561E-009 -2.6092814E-008 0.0
  2.6454339E-009 -2.6195592E-008 0.0
  2.3484237E-009 -2.6295527E-008 0.0
  2.0434510E-009 -2.6392813E-008 0.0
  1.7294722E-009 -2.6487791E-008 0.0
  1.4058532E-009 -2.6580855E-008 0.0
  1.0723283E-009 -2.6672364E-008 0.0
  7.2888969E-010 -2.6762595E-008 0.0
  3.7566931E-010 -2.6851744E-008 0.0
  1.2850590E-011 -2.6939945E-008 0.0
 -3.5938847E-010 -2.7027286E-008 0.0
 -7.4091282E-010 -2.7113805E-008 0.0
 -1.1316585E-009 -2.7199477E-008 0.0
 -1.5316535E-009 -2.7284199E-008 0.0
 -1.9410261E-009 -2.7367780E-008 0.0
 -2.3599935E-009 -2.7449938E-008 0.0
 -2.7888166E-009 -2.7530288E-008 0.0
 -3.2276681E-009 -2.7608272E-008 0.0
 -3.6762470E-009 -2.7682984E-008 0.0
 -4.1328305E-009 -2.7753173E-008 0.0
 -4.5942121E-009 -2.7818460E-008 0.0
 -5.0573824E-009 -2.7879534E-008 0.0
 -5.5225699E-009 -2.7938298E-008 0.0
 -5.9923860E-009 -2.7995255E-008 0.0
 -6.4697863E-009 -2.8050705E-008 0.0
  6.5546518E-009 -2.3729520E-008 0.0
  6.7536406E-009 -2.3850419E-008 0.0
  7.0292941E-009 -2.3889917E-008 0.0
  7.2851569E-009 -2.3915987E-008 0.0
  7.5204390E-009 -2.3937267E-008 0.0
  7.730 -1.6118455E-009  1.1256864E-01 -1.1492750E-008 -1.2077573E-008 0.0
 -1.2783832E-008 -1.2158323E-008 0.0
 -1.4090147E-008 -1.2221528E-008 0.0
 -1.5416150E-008 -1.2267472E-008 0.0
 -1.6765897E-008 -1.2297934E-008 0.0
 -1.8141801E-008 -1.2316486E-008 0.0
 -1.9543169E-008 -1.2328181E-008 0.0
 -2.0965294E-008 -1.2338346E-008 0.0
 -2.2400554E-008 -1.2350529E-008 0.0
 -2.3840159E-008 -1.2366061E-008 0.0
 -2.5272087E-008 -1.2383864E-008 0.0
 -2.6695226E-008 -1.2396571E-008 0.0
 -2.6694589E-008 -1.3817903E-008 0.0
 -1.4714566E-008 -4.0880294E-008 0.0
 -1.4248569E-008 -4.0937802E-008 0.0
 -1.3710119E-008 -4.0971814E-008 0.0
 -1.3223903E-008 -4.1009771E-008 0.0
 -1.2796783E-008 -4.1048629E-008 0.0
 -1.2426716E-008 -4.1086103E-008 0.0
 -1.2117443E-008 -4.1122072E-008 0.0
 -1.1881084E-008 -4.1152407E-008 0.0
 -1.1732133E-008 -4.1172355E-008 0.0
 -1.1681653E-008 -4.1181424E-008 0.0
 -1.1728784E-008 -4.1184984E-008 0.0
 -1.1856470E-008 -4.1188928E-008 0.0
 -1.2037852E-008 -4.1195368E-008 0.0
 -1.2246450E-008 -4.1201570E-008 0.0
 -1.2461827E-008 -4.1204094E-008 0.0
 -1.2669792E-008 -4.1200950E-008 0.0
 -1.2861216E-008 -4.1192554E-008 0.0
 -1.3031084E-008 -4.1180939E-008 0.0
 -1.3178275E-008 -4.1168890E-008 0.0
 -1.3305028E-008 -4.1159001E-008 0.0
 -1.3415811E-008 -4.1152753E-008 0.0
 -1.3515852E-008 -4.1150119E-008 0.0
 -1.3609843E-008 -4.1149949E-008 0.0
 -1.3701189E-008 -4.1150941E-008 0.0
 -1.3792703E-008 -4.1152545E-008 0.0
  8.7545514E-009 -8.3333024E-009 0.0
  8.7374627E-009 -8.4631100E-009 0.0
  8.6280124E-009 -8.5716542E-009 0.0
  8.3977305E-009 -8.6767130E-009 0.0
  8.0173950E-009 -8.7668801E-009 0.0
  7.5158246E-009 -8.8493393E-009 0.0
  6.8885749E-009 -8.9364249E-009 0.0
  6.1285924E-009 -9.0269180E-009 0.0
  5.2550027E-009 -9.1183643E-009 0.0
  4.2903817E-009 -9.2162575E-009 0.0
  3.2521811E-009 -9.3231862E-009 0.0
  2.1558372E-009 -9.4381285E-009 0.0
  1.0144273E-009 -9.5594249E-009 0.0
 -1.6197977E-010 -9.6851005E-009 0.0
 -1.3655368E-009 -9.8130982E-009 0.0
 -2.5899707E-009 -9.9415110E-009 0.0
 -3.8302497E-009 -1.0068477E-008 0.0
 -5.0824391E-009 -1.0192088E-008 0.0
 -6.3437287E-009 -1.0310367E-008 0.0
 -7.6124894E-009 -1.0421286E-008 0.0
 -8.8882674E-009 -1.0522843E-008 0.0
 -1.0171708E-008 -1.0613190E-008 0.0
 -1.1464422E-008 -1.0690788E-008 0.0
 -1.2768796E-008 -1.0754597E-008 0.0
 -1.4087704E-008 -1.0804304E-008 0.0
 -1.5424059E-008 -1.0840568E-008 0.0
 -1.6780161E-008 -1.0865227E-008 0.0
 -1.8156873E-008 -1.0881289E-008 0.0
 -1.9552893E-008 -1.0892576E-008 0.0
 -2.0964610E-008 -1.0902964E-008 0.0
 -2.2387024E-008 -1.0915730E-008 0.0
 -2.3815261E-008 -1.0932382E-008 0.0
 -2.5245737E-008 -1.0949364E-008 0.0
 -2.6676223E-008 -1.0960965E-008 0.0
 -1.4692420E-008 -4.1285768E-008 0.0
 -1.4129439E-008 -4.1236073E-008 0.0
 -1.3578543E-008 -4.1247799E-008 0.0
 -1.3104598E-008 -4.1269978E-008 0.0
 -1.2701145E-008 -4.1284268E-008 0.0
 -1.2349043E-008 -4.1300018E-008 0.0
 -1.2059828E-008 -4.1318746E-008 0.0
 -1.1848857E-008 -4.1334181E-008 0.0
 -1.1727582E-008 -4.1340645E-008 0.0
 -1.1700370E-008 -4.1335579E-008 0.0
 -1.1761337E-008 -4.1320589E-008 0.0
 -1.1894522E-008 -4.1299575E-008 0.0
 -1.2077874E-008 -4.1275539E-008 0.0
 -1.2288601E-008 -4.1249453E-008 0.0
 -1.2506865E-008 -4.1220907E-008 0.0
 -1.2717194E-008 -4.1189744E-008 0.0
 -1.2908625E-008 -4.1157005E-008 0.0
 -1.3074850E-008 -4.1125177E-008 0.0
 -1.3214513E-008 -4.1097569E-008 0.0
 -1.3331046E-008 -4.1077085E-008 0.0
 -1.3431278E-008 -4.1064920E-008 0.0
 -1.3522802E-008 -4.1059903E-008 0.0
 -1.3611320E-008 -4.1059309E-008 0.0
 -1.3699411E-008 -4.1060398E-008 0.0
 -1.3787334E-008 -4.1062229E-008 0.0
  8.7949822E-009 -8.3066656E-009 0.0
  8.7670978E-009 -8.3471568E-009 0.0
  8.6437888E-009 -8.3465095E-009 0.0
  8.4348738E-009 -8.2916939E-009 0.0
  8.0201792E-009 -8.2580510E-009 0.0
  7.5302984E-009 -8.2359402E-009 0.0
  6.9112829E-009 -8.2403051E-009 0.0
  6.1374000E-009 -8.2471619E-009 0.0
  5.2645933E-009 -8.2643141E-009 0.0
  4.3067565E-009 -8.3005608E-009 0.0
  3.276 -1.0001473E-009  1.9550310E-01  2.1887590E-009 -8.4135914E-009 0.0
  1.0555916E-009 -8.4878010E-009 0.0
 -1.1409042E-010 -8.5706417E-009 0.0
 -1.3126622E-009 -8.6596702E-009 0.0
 -2.5340987E-009 -8.7524808E-009 0.0
 -3.7735079E-009 -8.8466776E-009 0.0
 -5.0270109E-009 -8.9400108E-009 0.0
 -6.2918216E-009 -9.0303418E-009 0.0
 -7.5662521E-009 -9.1156133E-009 0.0
 -8.8496428E-009 -9.1938943E-009 0.0
 -1.0142243E-008 -9.2634794E-009 0.0
 -1.1445053E-008 -9.3230353E-009 0.0
 -1.2759625E-008 -9.3717647E-009 0.0
 -1.4087784E-008 -9.4095634E-009 0.0
 -1.5431245E-008 -9.4371485E-009 0.0
 -1.6791110E-008 -9.4561015E-009 0.0
 -1.8167358E-008 -9.4687532E-009 0.0
 -1.9558479E-008 -9.4778579E-009 0.0
 -2.0961547E-008 -9.4861403E-009 0.0
 -2.2372814E-008 -9.4958247E-009 0.0
 -2.3790603E-008 -9.5088882E-009 0.0
 -2.5219993E-008 -9.5247148E-009 0.0
 -2.6657809E-008 -9.5364047E-009 0.0
 -1.4082613E-008 -4.1582689E-008 0.0
 -1.3431184E-008 -4.1511050E-008 0.0
 -1.2992511E-008 -4.1478756E-008 0.0
 -1.2606040E-008 -4.1464850E-008 0.0
 -1.2262474E-008 -4.1469153E-008 0.0
 -1.1987131E-008 -4.1479193E-008 0.0
 -1.1796675E-008 -4.1488061E-008 0.0
 -1.1702048E-008 -4.1487414E-008 0.0
 -1.1702355E-008 -4.1471760E-008 0.0
 -1.1786365E-008 -4.1440866E-008 0.0
 -1.1936170E-008 -4.1398332E-008 0.0
 -1.2130968E-008 -4.1348563E-008 0.0
 -1.2350021E-008 -4.1294758E-008 0.0
 -1.2574529E-008 -4.1238661E-008 0.0
 -1.2788523E-008 -4.1181472E-008 0.0
 -1.2979530E-008 -4.1125084E-008 0.0
 -1.3139649E-008 -4.1072840E-008 0.0
 -1.3267160E-008 -4.1029230E-008 0.0
 -1.3367495E-008 -4.0998218E-008 0.0
 -1.3451464E-008 -4.0980901E-008 0.0
 -1.3530752E-008 -4.0974718E-008 0.0
 -1.3612607E-008 -4.0974363E-008 0.0
 -1.3697583E-008 -4.0975702E-008 0.0
 -1.3782333E-008 -4.0977179E-008 0.0
  8.4638601E-009 -7.7614349E-009 0.0
  7.9922891E-009 -7.7420455E-009 0.0
  7.4980590E-009 -7.6414651E-009 0.0
  6.9143036E-009 -7.4821391E-009 0.0
  6.1185734E-009 -7.4041425E-009 0.0
  5.2616589E-009 -7.3692062E-009 0.0
  4.3045984E-009 -7.3535852E-009 0.0
  3.2813718E-009 -7.3535266E-009 0.0
  2.2029474E-009 -7.3727415E-009 0.0
  1.0775392E-009 -7.4057580E-009 0.0
 -8.5029137E-011 -7.4502877E-009 0.0
 -1.2780669E-009 -7.5041496E-009 0.0
 -2.4960424E-009 -7.5643542E-009 0.0
 -3.7340162E-009 -7.6282663E-009 0.0
 -4.9880485E-009 -7.6935415E-009 0.0
 -6.2552857E-009 -7.7580147E-009 0.0
 -7.5339429E-009 -7.8196973E-009 0.0
 -8.8231649E-009 -7.8767402E-009 0.0
 -1.0122814E-008 -7.9275412E-009 0.0
 -1.1433306E-008 -7.9709037E-009 0.0
 -1.2755444E-008 -8.0061650E-009 0.0
 -1.4090192E-008 -8.0332845E-009 0.0
 -1.5438365E-008 -8.0528811E-009 0.0
 -1.6800273E-008 -8.0661927E-009 0.0
 -1.8175393E-008 -8.0749229E-009 0.0
 -1.9562181E-008 -8.0809637E-009 0.0
 -2.0958153E-008 -8.0860167E-009 0.0
 -2.2360666E-008 -8.0911909E-009 0.0
 -2.3767442E-008 -8.0963950E-009 0.0
 -2.5190723E-008 -8.1022961E-009 0.0
 -2.6658650E-008 -8.0967482E-009 0.0
 -1.3186763E-008 -4.1519687E-008 0.0
 -1.2883101E-008 -4.1582778E-008 0.0
 -1.2497212E-008 -4.1595720E-008 0.0
 -1.2160752E-008 -4.1600318E-008 0.0
 -1.1890556E-008 -4.1610597E-008 0.0
 -1.1717509E-008 -4.1620603E-008 0.0
 -1.1653151E-008 -4.1616516E-008 0.0
 -1.1688959E-008 -4.1589858E-008 0.0
 -1.1805642E-008 -4.1541177E-008 0.0
 -1.1981357E-008 -4.1476397E-008 0.0
 -1.2195284E-008 -4.1402408E-008 0.0
 -1.2428381E-008 -4.1324192E-008 0.0
 -1.2663087E-008 -4.1244560E-008 0.0
 -1.2883286E-008 -4.1165202E-008 0.0
 -1.3074783E-008 -4.1088170E-008 0.0
 -1.3227047E-008 -4.1017493E-008 0.0
 -1.3337066E-008 -4.0959553E-008 0.0
 -1.3413237E-008 -4.0920251E-008 0.0
 -1.3473764E-008 -4.0900648E-008 0.0
 -1.3536817E-008 -4.0895029E-008 0.0
 -1.3612777E-008 -4.0895581E-008 0.0
 -1.3696350E-008 -4.0895471E-008 0.0
 -1.3779410E-008 -4.0895786E-008 0.0
  6.9421660E-009 -6.5283288E-009 0.0
  6.0795163E-009 -6.5187225E-009 0.0
  5.2560975E-009 -6.4115217E-009 0.0
  4.2859295E-009 -6.3503305E-009 0.0
  3.2775865E-009 -6.3193677E-009 0.0
  2.2026959E-009 -6.3039657E-009 0.0
  1.084 -4.1728531E-010  1.3563076E-01 -7.0614394E-011 -6.3147508E-009 0.0
 -1.2584611E-009 -6.3384273E-009 0.0
 -2.4729248E-009 -6.3700369E-009 0.0
 -3.7092469E-009 -6.4071881E-009 0.0
 -4.9632660E-009 -6.4473657E-009 0.0
 -6.2319203E-009 -6.4886991E-009 0.0
 -7.5134745E-009 -6.5293669E-009 0.0
 -8.8069513E-009 -6.5675504E-009 0.0
 -1.0111835E-008 -6.6017051E-009 0.0
 -1.1427989E-008 -6.6307274E-009 0.0
 -1.2755560E-008 -6.6540371E-009 0.0
 -1.4094820E-008 -6.6715977E-009 0.0
 -1.5445929E-008 -6.6838913E-009 0.0
 -1.6808673E-008 -6.6918427E-009 0.0
 -1.8182243E-008 -6.6966744E-009 0.0
 -1.9565113E-008 -6.6996973E-009 0.0
 -2.0955163E-008 -6.7020753E-009 0.0
 -2.2349814E-008 -6.7047283E-009 0.0
 -2.3747662E-008 -6.7088388E-009 0.0
 -2.5137679E-008 -6.7225540E-009 0.0
 -1.3167199E-008 -4.1764044E-008 0.0
 -1.2736834E-008 -4.1711828E-008 0.0
 -1.2383502E-008 -4.1705073E-008 0.0
 -1.2037664E-008 -4.1706361E-008 0.0
 -1.1758999E-008 -4.1725937E-008 0.0
 -1.1604155E-008 -4.1743080E-008 0.0
 -1.1581043E-008 -4.1733264E-008 0.0
 -1.1665093E-008 -4.1688180E-008 0.0
 -1.1824502E-008 -4.1613611E-008 0.0
 -1.2032895E-008 -4.1521980E-008 0.0
 -1.2270800E-008 -4.1423393E-008 0.0
 -1.2521853E-008 -4.1323737E-008 0.0
 -1.2770240E-008 -4.1225478E-008 0.0
 -1.2999691E-008 -4.1129736E-008 0.0
 -1.3194033E-008 -4.1038047E-008 0.0
 -1.3338279E-008 -4.0953807E-008 0.0
 -1.3424188E-008 -4.0885704E-008 0.0
 -1.3464366E-008 -4.0844649E-008 0.0
 -1.3492801E-008 -4.0829158E-008 0.0
 -1.3538013E-008 -4.0826796E-008 0.0
 -1.3614277E-008 -4.0819021E-008 0.0
 -1.3696303E-008 -4.0815213E-008 0.0
 -1.3778735E-008 -4.0814482E-008 0.0
  5.2761094E-009 -5.3224019E-009 0.0
  4.2566739E-009 -5.3164965E-009 0.0
  3.2729401E-009 -5.2387415E-009 0.0
  2.1902741E-009 -5.1931590E-009 0.0
  1.0845572E-009 -5.1693776E-009 0.0
 -6.7191644E-011 -5.1573828E-009 0.0
 -1.2499084E-009 -5.1552365E-009 0.0
 -2.4610609E-009 -5.1637805E-009 0.0
 -3.6964848E-009 -5.1780326E-009 0.0
 -4.9500936E-009 -5.1964471E-009 0.0
 -6.2192110E-009 -5.2179313E-009 0.0
 -7.5025562E-009 -5.2405911E-009 0.0
 -8.7990422E-009 -5.2625532E-009 0.0
 -1.0107746E-008 -5.2823094E-009 0.0
 -1.1427978E-008 -5.2988619E-009 0.0
 -1.2759314E-008 -5.3117214E-009 0.0
 -1.4101487E-008 -5.3208561E-009 0.0
 -1.5454187E-008 -5.3266338E-009 0.0
 -1.6816855E-008 -5.3297408E-009 0.0
 -1.8188494E-008 -5.3310785E-009 0.0
 -1.9567592E-008 -5.3316416E-009 0.0
 -2.0952063E-008 -5.3324408E-009 0.0
 -2.2339315E-008 -5.3346179E-009 0.0
 -2.3724536E-008 -5.3405492E-009 0.0
 -2.5099297E-008 -5.3512578E-009 0.0
 -1.2563794E-008 -4.1756880E-008 0.0
 -1.2276355E-008 -4.1793975E-008 0.0
 -1.1882603E-008 -4.1812717E-008 0.0
 -1.1577447E-008 -4.1852447E-008 0.0
 -1.1451689E-008 -4.1873500E-008 0.0
 -1.1493345E-008 -4.1843705E-008 0.0
 -1.1643430E-008 -4.1758303E-008 0.0
 -1.1852353E-008 -4.1642751E-008 0.0
 -1.2095409E-008 -4.1517376E-008 0.0
 -1.2357879E-008 -4.1393774E-008 0.0
 -1.2627993E-008 -4.1276766E-008 0.0
 -1.2892699E-008 -4.1166571E-008 0.0
 -1.3134824E-008 -4.1061691E-008 0.0
 -1.3334555E-008 -4.0963861E-008 0.0
 -1.3473314E-008 -4.0877332E-008 0.0
 -1.3529537E-008 -4.0807998E-008 0.0
 -1.3509066E-008 -4.0776798E-008 0.0
 -1.3495560E-008 -4.0787178E-008 0.0
 -1.3536796E-008 -4.0786760E-008 0.0
  3.2875577E-009 -4.0680508E-009 0.0
  2.1691256E-009 -4.0638408E-009 0.0
  1.0826853E-009 -4.0048409E-009 0.0
 -7.3428997E-011 -3.9687137E-009 0.0
 -1.2454484E-009 -3.9510610E-009 0.0
 -2.4575539E-009 -3.9409205E-009 0.0
 -3.6931942E-009 -3.9354416E-009 0.0
 -4.9455539E-009 -3.9362967E-009 0.0
 -6.2143394E-009 -3.9418106E-009 0.0
 -7.4987464E-009 -3.9497961E-009 0.0
 -8.7974630E-009 -3.9582693E-009 0.0
 -1.0109019E-008 -3.9658864E-009 0.0
 -1.1432180E-008 -3.9718397E-009 0.0
 -1.2766029E-008 -3.9757566E-009 0.0
 -1.4109892E-008 -3.9776520E-009 0.0
 -1.5463156E-008 -3.9778118E-009 0.0
 -1.6825028E-008 -3.9767414E-009 0.0
 -1.8194377E-008 -3.9751297E-009 0.0
 -1.9569639E-008 -3.9737953E-009 0.0
 -2.0948723E-008 -3.9736439E-009 0.0
 -2.232 -2.9679761E-011  4.4925993E-01 -2.3704571E-008 -3.9810062E-009 0.0
 -2.5070300E-008 -3.9897258E-009 0.0
 -1.2550563E-008 -4.1998425E-008 0.0
 -1.2178828E-008 -4.1964198E-008 0.0
 -1.1690332E-008 -4.1990131E-008 0.0
 -1.1323173E-008 -4.2033687E-008 0.0
 -1.1266324E-008 -4.2046108E-008 0.0
 -1.1420147E-008 -4.1937329E-008 0.0
 -1.1645051E-008 -4.1774053E-008 0.0
 -1.1900727E-008 -4.1600732E-008 0.0
 -1.2173028E-008 -4.1437192E-008 0.0
 -1.2455578E-008 -4.1290959E-008 0.0
 -1.2742474E-008 -4.1163081E-008 0.0
 -1.3024787E-008 -4.1050376E-008 0.0
 -1.3285876E-008 -4.0946187E-008 0.0
 -1.3494995E-008 -4.0846559E-008 0.0
 -1.3625234E-008 -4.0768182E-008 0.0
 -1.3652355E-008 -4.0732529E-008 0.0
 -1.3513141E-008 -4.0760625E-008 0.0
  1.0951036E-009 -2.7764559E-009 0.0
 -9.0365849E-011 -2.7723136E-009 0.0
 -1.2400430E-009 -2.7197596E-009 0.0
 -2.4607966E-009 -2.6930133E-009 0.0
 -3.6959184E-009 -2.6750201E-009 0.0
 -4.9461039E-009 -2.6636604E-009 0.0
 -6.2142435E-009 -2.6576644E-009 0.0
 -7.4997131E-009 -2.6540483E-009 0.0
 -8.8003093E-009 -2.6515478E-009 0.0
 -1.0114199E-008 -2.6492647E-009 0.0
 -1.1439563E-008 -2.6464226E-009 0.0
 -1.2774986E-008 -2.6429171E-009 0.0
 -1.4119610E-008 -2.6388435E-009 0.0
 -1.5472669E-008 -2.6343816E-009 0.0
 -1.6833219E-008 -2.6298750E-009 0.0
 -1.8200010E-008 -2.6258411E-009 0.0
 -1.9571419E-008 -2.6229515E-009 0.0
 -2.0945359E-008 -2.6219773E-009 0.0
 -2.2319055E-008 -2.6235513E-009 0.0
 -2.3688554E-008 -2.6278379E-009 0.0
 -2.5048473E-008 -2.6344165E-009 0.0
 -1.2181198E-008 -4.2366735E-008 0.0
 -1.1438442E-008 -4.2325775E-008 0.0
 -1.0955717E-008 -4.2430032E-008 0.0
 -1.1137254E-008 -4.2234513E-008 0.0
 -1.1407806E-008 -4.1949902E-008 0.0
 -1.1690918E-008 -4.1680207E-008 0.0
 -1.1976460E-008 -4.1446279E-008 0.0
 -1.2265732E-008 -4.1250295E-008 0.0
 -1.2560096E-008 -4.1089484E-008 0.0
 -1.2858790E-008 -4.0959625E-008 0.0
 -1.3157418E-008 -4.0855032E-008 0.0
 -1.3444730E-008 -4.0766636E-008 0.0
 -1.3686219E-008 -4.0676026E-008 0.0
 -1.3801039E-008 -4.0576594E-008 0.0
 -1.3852097E-008 -4.0484215E-008 0.0
 -1.2264375E-009 -1.4268399E-009 0.0
 -2.4632631E-009 -1.4177905E-009 0.0
 -3.7013641E-009 -1.3963068E-009 0.0
 -4.9470937E-009 -1.3794907E-009 0.0
 -6.2171524E-009 -1.3640696E-009 0.0
 -7.5033635E-009 -1.3503488E-009 0.0
 -8.8056380E-009 -1.3397250E-009 0.0
 -1.0122089E-008 -1.3294808E-009 0.0
 -1.1449146E-008 -1.3195352E-009 0.0
 -1.2785382E-008 -1.3102618E-009 0.0
 -1.4130085E-008 -1.3016212E-009 0.0
 -1.5482429E-008 -1.2936304E-009 0.0
 -1.6841356E-008 -1.2864694E-009 0.0
 -1.8205513E-008 -1.2805008E-009 0.0
 -1.9573220E-008 -1.2762287E-009 0.0
 -2.0942480E-008 -1.2742594E-009 0.0
 -2.2311077E-008 -1.2751058E-009 0.0
 -2.3676285E-008 -1.2784976E-009 0.0
 -2.5033225E-008 -1.2831097E-009 0.0
 -1.0730464E-008 -4.3584095E-008 0.0
 -1.0802918E-008 -4.2846138E-008 0.0
 -1.1159412E-008 -4.2205452E-008 0.0
 -1.1480087E-008 -4.1745161E-008 0.0
 -1.1780343E-008 -4.1400313E-008 0.0
 -1.2072881E-008 -4.1134750E-008 0.0
 -1.2366047E-008 -4.0927660E-008 0.0
 -1.2664396E-008 -4.0766758E-008 0.0
 -1.2969739E-008 -4.0644227E-008 0.0
 -1.3281560E-008 -4.0554278E-008 0.0
 -1.3595010E-008 -4.0490830E-008 0.0
 -1.3895676E-008 -4.0443158E-008 0.0
 -1.4047643E-008 -4.0390467E-008 0.0
 -1.3846310E-008 -4.0437549E-008 0.0
 -2.4533055E-009 -1.2932553E-010 0.0
 -3.7126959E-009 -1.2448596E-010 0.0
 -4.9476704E-009 -8.3911501E-011 0.0
 -6.2237213E-009 -5.5881016E-011 0.0
 -7.5059197E-009 -3.7202595E-011 0.0
 -8.8123764E-009 -2.0089294E-011 0.0
 -1.0131774E-008 -3.1929982E-012 0.0
 -1.1459775E-008  1.1661956E-011 0.0
 -1.2796247E-008  2.4723874E-011 0.0
 -1.4140639E-008  3.6357031E-011 0.0
 -1.5492037E-008  4.6732789E-011 0.0
 -1.6849282E-008  5.5728591E-011 0.0
 -1.8210959E-008  6.3124786E-011 0.0
 -1.9575363E-008  6.8597652E-011 0.0
 -2.0940551E-008  7.1795378E-011 0.0
 -2.2304639E-008  7.2257529E-011 0.0
 -2.3666818E-008  6.9810644E-011 0.0
 -2.5024632E-008  6.6595593E-011 0.0
 -9.9597291E-009 -4.2982786E-008 0.0
 -1.088 -1.4584016E-009  4.2858087E-01 -1.1268238E-008 -4.1618320E-008 0.0
 -1.1584192E-008 -4.1193099E-008 0.0
 -1.1877945E-008 -4.0879292E-008 0.0
 -1.2166970E-008 -4.0639885E-008 0.0
 -1.2459299E-008 -4.0454485E-008 0.0
 -1.2759424E-008 -4.0311408E-008 0.0
 -1.3070151E-008 -4.0203574E-008 0.0
 -1.3393659E-008 -4.0126222E-008 0.0
 -1.3733246E-008 -4.0074414E-008 0.0
 -1.4093828E-008 -4.0036195E-008 0.0
 -1.4522397E-008 -3.9905576E-008 0.0
 -4.9382171E-009  1.2478176E-009 0.0
 -6.2365141E-009  1.2509039E-009 0.0
 -7.5049537E-009  1.2907457E-009 0.0
 -8.8202322E-009  1.3136425E-009 0.0
 -1.0141557E-008  1.3327589E-009 0.0
 -1.1469842E-008  1.3492821E-009 0.0
 -1.2806432E-008  1.3636863E-009 0.0
 -1.4150589E-008  1.3768784E-009 0.0
 -1.5501013E-008  1.3885342E-009 0.0
 -1.6856749E-008  1.3985136E-009 0.0
 -1.8216322E-008  1.4067517E-009 0.0
 -1.9577958E-008  1.4130575E-009 0.0
 -2.0939916E-008  1.4172509E-009 0.0
 -2.2300270E-008  1.4196037E-009 0.0
 -2.3659203E-008  1.4203421E-009 0.0
 -2.5024053E-008  1.4226097E-009 0.0
 -9.4750903E-009 -4.0453062E-008 0.0
 -1.0748286E-008 -4.0599649E-008 0.0
 -1.1268092E-008 -4.0500510E-008 0.0
 -1.1622508E-008 -4.0314523E-008 0.0
 -1.1931671E-008 -4.0132443E-008 0.0
 -1.2229387E-008 -3.9973178E-008 0.0
 -1.2528746E-008 -3.9839453E-008 0.0
 -1.2836458E-008 -3.9729818E-008 0.0
 -1.3157311E-008 -3.9641721E-008 0.0
 -1.3496868E-008 -3.9571598E-008 0.0
 -1.3865636E-008 -3.9513420E-008 0.0
 -1.4293925E-008 -3.9452591E-008 0.0
 -1.4927684E-008 -3.9384948E-008 0.0
 -7.4957567E-009  2.6591599E-009 0.0
 -8.8244259E-009  2.6641317E-009 0.0
 -1.0149238E-008  2.6788360E-009 0.0
 -1.1477061E-008  2.6928055E-009 0.0
 -1.2815378E-008  2.7074157E-009 0.0
 -1.4159381E-008  2.7213009E-009 0.0
 -1.5508740E-008  2.7331634E-009 0.0
 -1.6863462E-008  2.7432231E-009 0.0
 -1.8221485E-008  2.7517916E-009 0.0
 -1.9580826E-008  2.7583243E-009 0.0
 -2.0940080E-008  2.7626187E-009 0.0
 -2.2297929E-008  2.7646866E-009 0.0
 -2.3649665E-008  2.7634099E-009 0.0
 -9.3626116E-009 -3.8926265E-008 0.0
 -1.0404878E-008 -3.9084979E-008 0.0
 -1.1096389E-008 -3.9239553E-008 0.0
 -1.1548112E-008 -3.9274738E-008 0.0
 -1.1910890E-008 -3.9242071E-008 0.0
 -1.2240888E-008 -3.9181879E-008 0.0
 -1.2562774E-008 -3.9113637E-008 0.0
 -1.2889240E-008 -3.9045860E-008 0.0
 -1.3229205E-008 -3.8981079E-008 0.0
 -1.3592479E-008 -3.8917584E-008 0.0
 -1.3995677E-008 -3.8848968E-008 0.0
 -1.4477485E-008 -3.8764745E-008 0.0
 -1.5100671E-008 -3.8676133E-008 0.0
 -1.5834616E-008 -3.8621469E-008 0.0
 -1.5855621E-008 -3.9399448E-008 0.0
 -8.8188997E-009  4.0196458E-009 0.0
 -1.0156500E-008  4.0217460E-009 0.0
 -1.1480622E-008  4.0425840E-009 0.0
 -1.2823614E-008  4.0571142E-009 0.0
 -1.4166172E-008  4.0705039E-009 0.0
 -1.5514435E-008  4.0811387E-009 0.0
 -1.6869475E-008  4.0912806E-009 0.0
 -1.8226223E-008  4.0996302E-009 0.0
 -1.9583516E-008  4.1055905E-009 0.0
 -2.0940542E-008  4.1092515E-009 0.0
 -2.2295600E-008  4.1105394E-009 0.0
 -2.3646553E-008  4.1103612E-009 0.0
 -8.3085571E-009 -3.8871011E-008 0.0
 -8.4053374E-009 -3.7504055E-008 0.0
 -9.2869836E-009 -3.7694683E-008 0.0
 -1.0148382E-008 -3.7895940E-008 0.0
 -1.0854976E-008 -3.8091273E-008 0.0
 -1.1392431E-008 -3.8231688E-008 0.0
 -1.1822469E-008 -3.8303396E-008 0.0
 -1.2200973E-008 -3.8326445E-008 0.0
 -1.2559011E-008 -3.8319269E-008 0.0
 -1.2915172E-008 -3.8293337E-008 0.0
 -1.3282904E-008 -3.8254175E-008 0.0
 -1.3675715E-008 -3.8202779E-008 0.0
 -1.4112410E-008 -3.8137375E-008 0.0
 -1.4619902E-008 -3.8060298E-008 0.0
 -1.5217819E-008 -3.7988969E-008 0.0
 -1.5899125E-008 -3.7946822E-008 0.0
 -1.1477631E-008  5.4089427E-009 0.0
 -1.2829340E-008  5.4087749E-009 0.0
 -1.4172188E-008  5.4196205E-009 0.0
 -1.5518258E-008  5.4362311E-009 0.0
 -1.6874578E-008  5.4448155E-009 0.0
 -1.8229927E-008  5.4512267E-009 0.0
 -1.9585610E-008  5.4556495E-009 0.0
 -2.0940987E-008  5.4583914E-009 0.0
 -2.2294625E-008  5.4595759E-009 0.0
 -2.3646239E-008  5.4600689E-009 0.0
 -7.1030578E-009 -3.7174231E-008 0.0
 -7.172 -1.2407399E-009  3.8723053E-01 -7.8066276E-009 -3.6333625E-008 0.0
 -7.9113453E-009 -3.7185627E-008 0.0
 -8.4224562E-009 -3.6512147E-008 0.0
 -9.1799665E-009 -3.6687822E-008 0.0
 -9.9496563E-009 -3.6888267E-008 0.0
 -1.0634278E-008 -3.7087866E-008 0.0
 -1.1209655E-008 -3.7257711E-008 0.0
 -1.1694876E-008 -3.7380914E-008 0.0
 -1.2123230E-008 -3.7457461E-008 0.0
 -1.2523211E-008 -3.7496270E-008 0.0
 -1.2915322E-008 -3.7505989E-008 0.0
 -1.3315612E-008 -3.7492509E-008 0.0
 -1.3739143E-008 -3.7459234E-008 0.0
 -1.4202258E-008 -3.7409318E-008 0.0
 -1.4720698E-008 -3.7349558E-008 0.0
 -1.5302767E-008 -3.7291338E-008 0.0
 -1.5942510E-008 -3.7247056E-008 0.0
 -1.6613301E-008 -3.7224157E-008 0.0
 -1.6627139E-008 -3.7943322E-008 0.0
 -1.5517463E-008  6.8035912E-009 0.0
 -1.6877428E-008  6.8026024E-009 0.0
 -1.8232061E-008  6.8055894E-009 0.0
 -1.9586970E-008  6.8087399E-009 0.0
 -2.0941481E-008  6.8104654E-009 0.0
 -2.2294169E-008  6.8106603E-009 0.0
 -6.6721482E-009 -3.5061206E-008 0.0
 -7.1454693E-009 -3.5266127E-008 0.0
 -7.7477998E-009 -3.5469221E-008 0.0
 -8.3921528E-009 -3.5654826E-008 0.0
 -9.0836975E-009 -3.5823791E-008 0.0
 -9.7876852E-009 -3.6004655E-008 0.0
 -1.0446761E-008 -3.6190816E-008 0.0
 -1.1034962E-008 -3.6361870E-008 0.0
 -1.1555271E-008 -3.6502350E-008 0.0
 -1.2025078E-008 -3.6606043E-008 0.0
 -1.2464982E-008 -3.6673997E-008 0.0
 -1.2893527E-008 -3.6710486E-008 0.0
 -1.3326621E-008 -3.6720104E-008 0.0
 -1.3778614E-008 -3.6707208E-008 0.0
 -1.4262624E-008 -3.6676885E-008 0.0
 -1.4788988E-008 -3.6636167E-008 0.0
 -1.5361956E-008 -3.6594232E-008 0.0
 -1.5976046E-008 -3.6560871E-008 0.0
 -1.6613350E-008 -3.6542763E-008 0.0
 -1.7254214E-008 -3.6536667E-008 0.0
 -1.7264073E-008 -3.7215256E-008 0.0
 -6.6376431E-009 -3.4417964E-008 0.0
 -7.1379166E-009 -3.4577968E-008 0.0
 -7.7116563E-009 -3.4728534E-008 0.0
 -8.3390214E-009 -3.4882203E-008 0.0
 -8.9953405E-009 -3.5039576E-008 0.0
 -9.6554971E-009 -3.5203357E-008 0.0
 -1.0290181E-008 -3.5371318E-008 0.0
 -1.0879547E-008 -3.5531862E-008 0.0
 -1.1420185E-008 -3.5672731E-008 0.0
 -1.1920392E-008 -3.5786239E-008 0.0
 -1.2393775E-008 -3.5869779E-008 0.0
 -1.2854987E-008 -3.5924278E-008 0.0
 -1.3317860E-008 -3.5952579E-008 0.0
 -1.3794823E-008 -3.5958636E-008 0.0
 -1.4296385E-008 -3.5947543E-008 0.0
 -1.4829919E-008 -3.5925752E-008 0.0
 -1.5397819E-008 -3.5900795E-008 0.0
 -1.5995741E-008 -3.5879966E-008 0.0
 -1.6613588E-008 -3.5867657E-008 0.0
 -1.7239353E-008 -3.5864690E-008 0.0
 -1.7882452E-008 -3.5872625E-008 0.0
 -1.7887151E-008 -3.6528413E-008 0.0
 -6.6197317E-009 -3.3786193E-008 0.0
 -7.1280873E-009 -3.3915892E-008 0.0
 -7.6878089E-009 -3.4042693E-008 0.0
 -8.2894176E-009 -3.4173291E-008 0.0
 -8.9154333E-009 -3.4311790E-008 0.0
 -9.5453164E-009 -3.4458085E-008 0.0
 -1.0159733E-008 -3.4608178E-008 0.0
 -1.0745064E-008 -3.4754445E-008 0.0
 -1.1296544E-008 -3.4887944E-008 0.0
 -1.1817609E-008 -3.5001600E-008 0.0
 -1.2316816E-008 -3.5091533E-008 0.0
 -1.2804925E-008 -3.5156847E-008 0.0
 -1.3292956E-008 -3.5198888E-008 0.0
 -1.3791040E-008 -3.5220643E-008 0.0
 -1.4307513E-008 -3.5226414E-008 0.0
 -1.4847931E-008 -3.5221552E-008 0.0
 -1.5413997E-008 -3.5211891E-008 0.0
 -1.6003107E-008 -3.5202579E-008 0.0
 -1.6609087E-008 -3.5196687E-008 0.0
 -1.7226068E-008 -3.5193549E-008 0.0
 -1.7846188E-008 -3.5192663E-008 0.0
 -6.6063175E-009 -3.3164287E-008 0.0
 -7.1165927E-009 -3.3276440E-008 0.0
 -7.6649452E-009 -3.3387213E-008 0.0
 -8.2455643E-009 -3.3502120E-008 0.0
 -8.8463016E-009 -3.3624271E-008 0.0
 -9.4524941E-009 -3.3753662E-008 0.0
 -1.0050286E-008 -3.3887007E-008 0.0
 -1.0629658E-008 -3.4018575E-008 0.0
 -1.1186141E-008 -3.4141730E-008 0.0
 -1.1720787E-008 -3.4250621E-008 0.0
 -1.2238802E-008 -3.4341320E-008 0.0
 -1.2747739E-008 -3.4412137E-008 0.0
 -1.3255920E-008 -3.4463410E-008 0.0
 -1.3771248E-008 -3.4497129E-008 0.0
 -1.4300260E-008 -3.4516561E-008 0.0
 -1.4847311E-008 -3.4525820E-008 0.0
 -1.5413970E-008 -3.4529263E-008 0.0
 -1.5998877E-008 -3.4530687E-008 0.0
 -1.659 -5.3591770E-010  1.9436538E-01 -1.7208107E-008 -3.4536481E-008 0.0
 -1.7818637E-008 -3.4544072E-008 0.0
 -1.8438549E-008 -3.4556040E-008 0.0
 -1.8441209E-008 -3.5183838E-008 0.0
 -6.5935401E-009 -3.2554067E-008 0.0
 -7.1029096E-009 -3.2653925E-008 0.0
 -7.6416778E-009 -3.2753373E-008 0.0
 -8.2056472E-009 -3.2856275E-008 0.0
 -8.7864638E-009 -3.2965066E-008 0.0
 -9.3737673E-009 -3.3079797E-008 0.0
 -9.9576067E-009 -3.3198116E-008 0.0
 -1.0530449E-008 -3.3315838E-008 0.0
 -1.1088394E-008 -3.3427985E-008 0.0
 -1.1631357E-008 -3.3529910E-008 0.0
 -1.2162417E-008 -3.3618137E-008 0.0
 -1.2686721E-008 -3.3690786E-008 0.0
 -1.3210343E-008 -3.3747606E-008 0.0
 -1.3739275E-008 -3.3789780E-008 0.0
 -1.4278592E-008 -3.3819613E-008 0.0
 -1.4831800E-008 -3.3840110E-008 0.0
 -1.5400416E-008 -3.3854477E-008 0.0
 -1.5983910E-008 -3.3865563E-008 0.0
 -1.6579978E-008 -3.3875527E-008 0.0
 -1.7184542E-008 -3.3885562E-008 0.0
 -1.7794054E-008 -3.3894134E-008 0.0
 -1.8401673E-008 -3.3899353E-008 0.0
 -6.5801102E-009 -3.1955058E-008 0.0
 -7.0873089E-009 -3.2045700E-008 0.0
 -7.6178803E-009 -3.2136232E-008 0.0
 -8.1686932E-009 -3.2229469E-008 0.0
 -8.7338782E-009 -3.2327179E-008 0.0
 -9.3061232E-009 -3.2429483E-008 0.0
 -9.8782414E-009 -3.2534748E-008 0.0
 -1.0444561E-008 -3.2639975E-008 0.0
 -1.1001812E-008 -3.2741484E-008 0.0
 -1.1549382E-008 -3.2835676E-008 0.0
 -1.2089012E-008 -3.2919671E-008 0.0
 -1.2624142E-008 -3.2991700E-008 0.0
 -1.3159112E-008 -3.3051225E-008 0.0
 -1.3698388E-008 -3.3098863E-008 0.0
 -1.4245895E-008 -3.3136149E-008 0.0
 -1.4804490E-008 -3.3165205E-008 0.0
 -1.5375631E-008 -3.3188340E-008 0.0
 -1.5959265E-008 -3.3207663E-008 0.0
 -1.6553868E-008 -3.3224775E-008 0.0
 -1.7156931E-008 -3.3240454E-008 0.0
 -1.7765289E-008 -3.3255482E-008 0.0
 -1.8373922E-008 -3.3270459E-008 0.0
 -1.8986644E-008 -3.3281170E-008 0.0
 -1.8986230E-008 -3.3893769E-008 0.0
 -6.5657472E-009 -3.1366830E-008 0.0
 -7.0702439E-009 -3.1449992E-008 0.0
 -7.5938054E-009 -3.1533080E-008 0.0
 -8.1340919E-009 -3.1618142E-008 0.0
 -8.6869240E-009 -3.1706468E-008 0.0
 -9.2470869E-009 -3.1798188E-008 0.0
 -9.8093588E-009 -3.1892190E-008 0.0
 -1.0369461E-008 -3.1986353E-008 0.0
 -1.0924717E-008 -3.2077990E-008 0.0
 -1.1474305E-008 -3.2164382E-008 0.0
 -1.2019143E-008 -3.2243241E-008 0.0
 -1.2561489E-008 -3.2313035E-008 0.0
 -1.3104409E-008 -3.2373137E-008 0.0
 -1.3651211E-008 -3.2423801E-008 0.0
 -1.4204934E-008 -3.2466011E-008 0.0
 -1.4767939E-008 -3.2501224E-008 0.0
 -1.5341629E-008 -3.2531060E-008 0.0
 -1.5926292E-008 -3.2556983E-008 0.0
 -1.6521097E-008 -3.2580033E-008 0.0
 -1.7124171E-008 -3.2600795E-008 0.0
 -1.7732536E-008 -3.2619421E-008 0.0
 -1.8344469E-008 -3.2635399E-008 0.0
 -1.8966522E-008 -3.2647761E-008 0.0
 -6.5505826E-009 -3.0788967E-008 0.0
 -7.0521886E-009 -3.0865717E-008 0.0
 -7.5697202E-009 -3.0942304E-008 0.0
 -8.1014592E-009 -3.1020221E-008 0.0
 -8.6443982E-009 -3.1100403E-008 0.0
 -9.1947695E-009 -3.1182973E-008 0.0
 -9.7487359E-009 -3.1267185E-008 0.0
 -1.0303053E-008 -3.1351556E-008 0.0
 -1.0855553E-008 -3.1434161E-008 0.0
 -1.1405376E-008 -3.1512986E-008 0.0
 -1.1952940E-008 -3.1586269E-008 0.0
 -1.2499707E-008 -3.1652759E-008 0.0
 -1.3047836E-008 -3.1711847E-008 0.0
 -1.3599781E-008 -3.1763586E-008 0.0
 -1.4157920E-008 -3.1808586E-008 0.0
 -1.4724249E-008 -3.1847838E-008 0.0
 -1.5300153E-008 -3.1882456E-008 0.0
 -1.5886254E-008 -3.1913398E-008 0.0
 -1.6482290E-008 -3.1941216E-008 0.0
 -1.7086976E-008 -3.1965875E-008 0.0
 -1.7698261E-008 -3.1986609E-008 0.0
 -1.8313399E-008 -3.2002218E-008 0.0
 -1.8934685E-008 -3.2016752E-008 0.0
 -6.5348818E-009 -3.0221160E-008 0.0
 -7.0335455E-009 -3.0292213E-008 0.0
 -7.5458366E-009 -3.0362962E-008 0.0
 -8.0705298E-009 -3.0434475E-008 0.0
 -8.6054358E-009 -3.0507420E-008 0.0
 -9.1477800E-009 -3.0581912E-008 0.0
 -9.6946931E-009 -3.0657468E-008 0.0
 -1.0243686E-008 -3.0733083E-008 0.0
 -1.0793011E-008 -3.0807404E-008 0.0
 -1.1341850E-008 -3.0878978E-008 0.0
 -1.1890330E-008 -3.0946487E-008 0.0
 -1.243 -3.5174276E-010  1.3026172E-01 -1.2990558E-008 -3.1065823E-008 0.0
 -1.3545670E-008 -3.1117068E-008 0.0
 -1.4106622E-008 -3.1163062E-008 0.0
 -1.4675148E-008 -3.1204482E-008 0.0
 -1.5252664E-008 -3.1242114E-008 0.0
 -1.5840147E-008 -3.1276594E-008 0.0
 -1.6437970E-008 -3.1308119E-008 0.0
 -1.7045626E-008 -3.1336209E-008 0.0
 -1.7661344E-008 -3.1359839E-008 0.0
 -1.8282383E-008 -3.1377902E-008 0.0
 -1.8895008E-008 -3.1390531E-008 0.0
 -6.5188983E-009 -2.9663231E-008 0.0
 -7.0146058E-009 -2.9729139E-008 0.0
 -7.5222947E-009 -2.9794558E-008 0.0
 -8.0411164E-009 -2.9860209E-008 0.0
 -8.5694329E-009 -2.9926559E-008 0.0
 -9.1051317E-009 -2.9993731E-008 0.0
 -9.6460081E-009 -3.0061455E-008 0.0
 -1.0190121E-008 -3.0129090E-008 0.0
 -1.0736057E-008 -3.0195729E-008 0.0
 -1.1283083E-008 -3.0260351E-008 0.0
 -1.1831170E-008 -3.0321998E-008 0.0
 -1.2380921E-008 -3.0379918E-008 0.0
 -1.2933428E-008 -3.0433671E-008 0.0
 -1.3490097E-008 -3.0483166E-008 0.0
 -1.4052472E-008 -3.0528633E-008 0.0
 -1.4622092E-008 -3.0570546E-008 0.0
 -1.5200415E-008 -3.0609500E-008 0.0
 -1.5788789E-008 -3.0646009E-008 0.0
 -1.6388356E-008 -3.0680169E-008 0.0
 -1.6999545E-008 -3.0711292E-008 0.0
 -1.7620989E-008 -3.0737989E-008 0.0
 -1.8247918E-008 -3.0759820E-008 0.0
 -1.8873399E-008 -3.0775448E-008 0.0
 -1.9494991E-008 -3.0781468E-008 0.0
 -1.9490020E-008 -3.1391194E-008 0.0
 -6.5027803E-009 -2.9115189E-008 0.0
 -6.9955297E-009 -2.9176455E-008 0.0
 -7.4991725E-009 -2.9236953E-008 0.0
 -8.0131056E-009 -2.9297107E-008 0.0
 -8.5360071E-009 -2.9357258E-008 0.0
 -9.0661713E-009 -2.9417582E-008 0.0
 -9.6018377E-009 -2.9478009E-008 0.0
 -1.0141464E-008 -2.9538204E-008 0.0
 -1.0683914E-008 -2.9597602E-008 0.0
 -1.1228559E-008 -2.9655519E-008 0.0
 -1.1775303E-008 -2.9711272E-008 0.0
 -1.2324540E-008 -2.9764299E-008 0.0
 -1.2877074E-008 -2.9814243E-008 0.0
 -1.3434007E-008 -2.9860995E-008 0.0
 -1.3996634E-008 -2.9904679E-008 0.0
 -1.4566351E-008 -2.9945604E-008 0.0
 -1.5144611E-008 -2.9984207E-008 0.0
 -1.5733027E-008 -3.0020999E-008 0.0
 -1.6333589E-008 -3.0056299E-008 0.0
 -1.6948312E-008 -3.0089437E-008 0.0
 -1.7577110E-008 -3.0118059E-008 0.0
 -1.8214255E-008 -3.0138626E-008 0.0
 -1.8854586E-008 -3.0149486E-008 0.0
 -1.9499003E-008 -3.0149625E-008 0.0
 -6.4865001E-009 -2.8577357E-008 0.0
 -6.9763427E-009 -2.8634496E-008 0.0
 -7.4765307E-009 -2.8690350E-008 0.0
 -7.9864943E-009 -2.8745147E-008 0.0
 -8.5049985E-009 -2.8799214E-008 0.0
 -9.0305383E-009 -2.8852871E-008 0.0
 -9.5616528E-009 -2.8906276E-008 0.0
 -1.0097110E-008 -2.8959357E-008 0.0
 -1.0636019E-008 -2.9011823E-008 0.0
 -1.1177876E-008 -2.9063233E-008 0.0
 -1.1722578E-008 -2.9113104E-008 0.0
 -1.2270398E-008 -2.9161009E-008 0.0
 -1.2821944E-008 -2.9206659E-008 0.0
 -1.3378111E-008 -2.9249934E-008 0.0
 -1.3940027E-008 -2.9290876E-008 0.0
 -1.4508999E-008 -2.9329627E-008 0.0
 -1.5086477E-008 -2.9366389E-008 0.0
 -1.5674073E-008 -2.9401439E-008 0.0
 -1.6274212E-008 -2.9435469E-008 0.0
 -1.6891357E-008 -2.9468740E-008 0.0
 -1.7529677E-008 -2.9498117E-008 0.0
 -1.8184178E-008 -2.9517329E-008 0.0
 -1.8831796E-008 -2.9527893E-008 0.0
 -6.4697863E-009 -2.8050705E-008 0.0
 -6.9570146E-009 -2.8104093E-008 0.0
 -7.4545178E-009 -2.8155305E-008 0.0
 -7.9614884E-009 -2.8204496E-008 0.0
 -8.4765026E-009 -2.8252229E-008 0.0
 -8.9981429E-009 -2.8299102E-008 0.0
 -9.5251841E-009 -2.8345527E-008 0.0
 -1.0056675E-008 -2.8391659E-008 0.0
 -1.0591968E-008 -2.8437406E-008 0.0
 -1.1130715E-008 -2.8482490E-008 0.0
 -1.1672846E-008 -2.8526547E-008 0.0
 -1.2218561E-008 -2.8569230E-008 0.0
 -1.2768330E-008 -2.8610292E-008 0.0
 -1.3322893E-008 -2.8649616E-008 0.0
 -1.3883276E-008 -2.8687197E-008 0.0
 -1.4450784E-008 -2.8723059E-008 0.0
 -1.5026950E-008 -2.8757103E-008 0.0
 -1.5613487E-008 -2.8789012E-008 0.0
 -1.6212108E-008 -2.8818442E-008 0.0
 -1.6828210E-008 -2.8847275E-008 0.0
 -1.7476723E-008 -2.8874722E-008 0.0
 -1.8158640E-008 -2.8889125E-008 0.0
 -1.8831074E-008 -2.8882773E-008 0.0
 -6.4523370E-009 -2.7537154E-008 0.0
 -6.937 -5.0751669E-010  1.3930785E-01 -7.4336671E-009 -2.7632610E-008 0.0
 -7.9386441E-009 -2.7675276E-008 0.0
 -8.4509024E-009 -2.7716008E-008 0.0
 -8.9691411E-009 -2.7755709E-008 0.0
 -9.4923641E-009 -2.7795018E-008 0.0
 -1.0019921E-008 -2.7834269E-008 0.0
 -1.0551450E-008 -2.7873485E-008 0.0
 -1.1086790E-008 -2.7912454E-008 0.0
 -1.1625930E-008 -2.7950848E-008 0.0
 -1.2169013E-008 -2.7988344E-008 0.0
 -1.2716382E-008 -2.8024710E-008 0.0
 -1.3268638E-008 -2.8059846E-008 0.0
 -1.3826712E-008 -2.8093771E-008 0.0
 -1.4391954E-008 -2.8126539E-008 0.0
 -1.4966196E-008 -2.8157997E-008 0.0
 -1.5551521E-008 -2.8187328E-008 0.0
 -1.6150102E-008 -2.8212610E-008 0.0
 -1.6761902E-008 -2.8230516E-008 0.0
 -1.7414575E-008 -2.8242172E-008 0.0
 -1.8156381E-008 -2.8227973E-008 0.0
 -5.9618683E-009 -2.6989901E-008 0.0
 -6.4336128E-009 -2.7041137E-008 0.0
 -6.9193077E-009 -2.7084840E-008 0.0
 -7.4152760E-009 -2.7122606E-008 0.0
 -7.9189043E-009 -2.7157161E-008 0.0
 -8.4288466E-009 -2.7189915E-008 0.0
 -8.9438810E-009 -2.7221886E-008 0.0
 -9.4632488E-009 -2.7253874E-008 0.0
 -9.9866781E-009 -2.7286312E-008 0.0
 -1.0514171E-008 -2.7319236E-008 0.0
 -1.1045797E-008 -2.7352390E-008 0.0
 -1.1581601E-008 -2.7385390E-008 0.0
 -1.2121652E-008 -2.7417877E-008 0.0
 -1.2666137E-008 -2.7449613E-008 0.0
 -1.3215484E-008 -2.7480522E-008 0.0
 -1.3770475E-008 -2.7510700E-008 0.0
 -1.4332411E-008 -2.7540397E-008 0.0
 -1.4903364E-008 -2.7569933E-008 0.0
 -1.5486406E-008 -2.7599179E-008 0.0
 -1.6084097E-008 -2.7626621E-008 0.0
 -1.6697040E-008 -2.7650223E-008 0.0
 -1.7293590E-008 -2.7686646E-008 0.0
 -5.9468863E-009 -2.6531464E-008 0.0
 -6.4169837E-009 -2.6568172E-008 0.0
 -6.9055140E-009 -2.6597626E-008 0.0
 -7.4010722E-009 -2.6624116E-008 0.0
 -7.9034114E-009 -2.6648946E-008 0.0
 -8.4111382E-009 -2.6672734E-008 0.0
 -8.9228007E-009 -2.6696460E-008 0.0
 -9.4379123E-009 -2.6721009E-008 0.0
 -9.9567339E-009 -2.6746829E-008 0.0
 -1.0479768E-008 -2.6773841E-008 0.0
 -1.1007353E-008 -2.6801620E-008 0.0
 -1.1539555E-008 -2.6829629E-008 0.0
 -1.2076289E-008 -2.6857436E-008 0.0
 -1.2617534E-008 -2.6884783E-008 0.0
 -1.3163489E-008 -2.6911604E-008 0.0
 -1.3714695E-008 -2.6938043E-008 0.0
 -1.4272201E-008 -2.6964544E-008 0.0
 -1.4837859E-008 -2.6991993E-008 0.0
 -1.5415099E-008 -2.7022057E-008 0.0
 -1.6009455E-008 -2.7055849E-008 0.0
 -1.6618259E-008 -2.7092160E-008 0.0
 -1.7209806E-008 -2.7122827E-008 0.0
 -5.9498113E-009 -2.6107934E-008 0.0
 -6.4064893E-009 -2.6103497E-008 0.0
 -6.8994071E-009 -2.6120716E-008 0.0
 -7.3922943E-009 -2.6134176E-008 0.0
 -7.8931797E-009 -2.6148254E-008 0.0
 -8.3985219E-009 -2.6162556E-008 0.0
 -8.9062724E-009 -2.6177899E-008 0.0
 -9.4163239E-009 -2.6195188E-008 0.0
 -9.9297296E-009 -2.6214808E-008 0.0
 -1.0447725E-008 -2.6236496E-008 0.0
 -1.0970967E-008 -2.6259493E-008 0.0
 -1.1499399E-008 -2.6283042E-008 0.0
 -1.2032645E-008 -2.6306632E-008 0.0
 -1.2570401E-008 -2.6330017E-008 0.0
 -1.3112623E-008 -2.6353125E-008 0.0
 -1.3659568E-008 -2.6376041E-008 0.0
 -1.4211833E-008 -2.6399124E-008 0.0
 -1.4770691E-008 -2.6423333E-008 0.0
 -1.5338461E-008 -2.6450551E-008 0.0
 -1.5922400E-008 -2.6485739E-008 0.0
 -1.6536656E-008 -2.6527373E-008 0.0
 -1.7160191E-008 -2.6557173E-008 0.0
 -6.9013551E-009 -2.5647922E-008 0.0
 -7.3890462E-009 -2.5647264E-008 0.0
 -7.8885272E-009 -2.5651237E-008 0.0
 -8.3912789E-009 -2.5657017E-008 0.0
 -8.8944702E-009 -2.5664726E-008 0.0
 -9.3982892E-009 -2.5675227E-008 0.0
 -9.9050583E-009 -2.5689334E-008 0.0
 -1.0417322E-008 -2.5706449E-008 0.0
 -1.0936035E-008 -2.5725369E-008 0.0
 -1.1460698E-008 -2.5745025E-008 0.0
 -1.1990367E-008 -2.5764943E-008 0.0
 -1.2524421E-008 -2.5784997E-008 0.0
 -1.3062650E-008 -2.5805117E-008 0.0
 -1.3605090E-008 -2.5825226E-008 0.0
 -1.4151938E-008 -2.5845348E-008 0.0
 -1.4703517E-008 -2.5865779E-008 0.0
 -1.5261684E-008 -2.5887493E-008 0.0
 -1.5829402E-008 -2.5910212E-008 0.0
 -1.6448144E-008 -2.5934486E-008 0.0
 -1.7166610E-008 -2.5922452E-008 0.0
 -7.3895957E-009 -2.5153451E-008 0.0
 -7.887 -8.8894231E-010  1.2413798E-01 -8.3889161E-009 -2.5154987E-008 0.0
 -8.8875853E-009 -2.5156230E-008 0.0
 -9.3835575E-009 -2.5160660E-008 0.0
 -9.8818828E-009 -2.5169659E-008 0.0
 -1.0387565E-008 -2.5183068E-008 0.0
 -1.0901971E-008 -2.5198532E-008 0.0
 -1.1423087E-008 -2.5214695E-008 0.0
 -1.1949044E-008 -2.5231506E-008 0.0
 -1.2479078E-008 -2.5249101E-008 0.0
 -1.3012997E-008 -2.5267366E-008 0.0
 -1.3550754E-008 -2.5286064E-008 0.0
 -1.4092210E-008 -2.5304904E-008 0.0
 -1.4637153E-008 -2.5323699E-008 0.0
 -1.5184575E-008 -2.5342854E-008 0.0
 -1.5739343E-008 -2.5366535E-008 0.0
 -1.6286621E-008 -2.5414441E-008 0.0
 -8.3886659E-009 -2.4656690E-008 0.0
 -8.8869873E-009 -2.4656152E-008 0.0
 -9.3730803E-009 -2.4651336E-008 0.0
 -9.8586267E-009 -2.4655466E-008 0.0
 -1.0357305E-008 -2.4665855E-008 0.0
 -1.0868611E-008 -2.4677697E-008 0.0
 -1.1386345E-008 -2.4690432E-008 0.0
 -1.1908142E-008 -2.4704953E-008 0.0
 -1.2433641E-008 -2.4721243E-008 0.0
 -1.2962760E-008 -2.4739098E-008 0.0
 -1.3495447E-008 -2.4758217E-008 0.0
 -1.4031415E-008 -2.4778271E-008 0.0
 -1.4569599E-008 -2.4799010E-008 0.0
 -1.5108023E-008 -2.4820717E-008 0.0
 -1.5635679E-008 -2.4847448E-008 0.0
 -1.6149873E-008 -2.4893116E-008 0.0
 -9.3717712E-009 -2.4153814E-008 0.0
 -9.8327149E-009 -2.4147819E-008 0.0
 -1.0326477E-008 -2.4152180E-008 0.0
 -1.0836330E-008 -2.4159246E-008 0.0
 -1.1349897E-008 -2.4169865E-008 0.0
 -1.1866921E-008 -2.4183511E-008 0.0
 -1.2387208E-008 -2.4199948E-008 0.0
 -1.2910891E-008 -2.4218899E-008 0.0
 -1.3437912E-008 -2.4240140E-008 0.0
 -1.3967790E-008 -2.4263590E-008 0.0
 -1.4499255E-008 -2.4289339E-008 0.0
 -1.5028103E-008 -2.4317742E-008 0.0
 -1.5546103E-008 -2.4347275E-008 0.0
 -1.6009115E-008 -2.4375538E-008 0.0
 -9.7818668E-009 -2.3614400E-008 0.0
 -1.0296237E-008 -2.3629804E-008 0.0
 -1.0803277E-008 -2.3639237E-008 0.0
 -1.1312733E-008 -2.3650793E-008 0.0
 -1.1824347E-008 -2.3665602E-008 0.0
 -1.2338838E-008 -2.3683742E-008 0.0
 -1.2856503E-008 -2.3705043E-008 0.0
 -1.3377258E-008 -2.3729433E-008 0.0
 -1.3900457E-008 -2.3757119E-008 0.0
 -1.4424494E-008 -2.3788771E-008 0.0
 -1.4946267E-008 -2.3825114E-008 0.0
 -1.5456517E-008 -2.3867050E-008 0.0
 -1.5937809E-008 -2.3907083E-008 0.0
 -1.6398215E-008 -2.3929261E-008 0.0
 -1.6388994E-008 -2.4370179E-008 0.0
 -9.7440547E-009 -2.3090938E-008 0.0
 -1.0260640E-008 -2.3104476E-008 0.0
 -1.0768524E-008 -2.3118058E-008 0.0
 -1.1273457E-008 -2.3132750E-008 0.0
 -1.1779386E-008 -2.3150528E-008 0.0
 -1.2287720E-008 -2.3171663E-008 0.0
 -1.2799074E-008 -2.3196110E-008 0.0
 -1.3313351E-008 -2.3223840E-008 0.0
 -1.3829731E-008 -2.3255080E-008 0.0
 -1.4346573E-008 -2.3290446E-008 0.0
 -1.4861421E-008 -2.3331080E-008 0.0
 -1.5371635E-008 -2.3375557E-008 0.0
 -1.5876030E-008 -2.3414353E-008 0.0
 -1.6376607E-008 -2.3434855E-008 0.0
 -9.7121829E-009 -2.2569972E-008 0.0
 -1.0227166E-008 -2.2582644E-008 0.0
 -1.0731468E-008 -2.2598116E-008 0.0
 -1.1231351E-008 -2.2616886E-008 0.0
 -1.1731245E-008 -2.2638661E-008 0.0
 -1.2233309E-008 -2.2663569E-008 0.0
 -1.2738423E-008 -2.2691507E-008 0.0
 -1.3246587E-008 -2.2722288E-008 0.0
 -1.3756969E-008 -2.2755721E-008 0.0
 -1.4268016E-008 -2.2791702E-008 0.0
 -1.4777915E-008 -2.2829978E-008 0.0
 -1.5289583E-008 -2.2870755E-008 0.0
 -1.5816335E-008 -2.2908391E-008 0.0
 -1.6354809E-008 -2.2929420E-008 0.0
 -9.6850870E-009 -2.2046914E-008 0.0
 -1.0195667E-008 -2.2062132E-008 0.0
 -1.0692624E-008 -2.2081941E-008 0.0
 -1.1186074E-008 -2.2105071E-008 0.0
 -1.1679551E-008 -2.2131175E-008 0.0
 -1.2175317E-008 -2.2160082E-008 0.0
 -1.2674496E-008 -2.2191566E-008 0.0
 -1.3177328E-008 -2.2225157E-008 0.0
 -1.3683230E-008 -2.2260079E-008 0.0
 -1.4190865E-008 -2.2295133E-008 0.0
 -1.4699375E-008 -2.2328573E-008 0.0
 -1.5209158E-008 -2.2357521E-008 0.0
 -1.5751712E-008 -2.2381209E-008 0.0
 -1.6362192E-008 -2.2375233E-008 0.0
 -9.1658275E-009 -2.2043500E-008 0.0
 -9.1734073E-009 -2.1519342E-008 0.0
 -9.6692032E-009 -2.1530166E-008 0.0
 -1.0163369E-008 -2.1548459E-008 0.0
 -1.065 -1.5791669E-010  8.9014962E-01 -1.1137701E-008 -2.1599537E-008 0.0
 -1.1624270E-008 -2.1629598E-008 0.0
 -1.2113647E-008 -2.1662262E-008 0.0
 -1.2607156E-008 -2.1697163E-008 0.0
 -1.3105411E-008 -2.1733629E-008 0.0
 -1.3608271E-008 -2.1770480E-008 0.0
 -1.4114841E-008 -2.1805942E-008 0.0
 -1.4623378E-008 -2.1838011E-008 0.0
 -1.5134746E-008 -2.1865898E-008 0.0
 -1.5634362E-008 -2.1903530E-008 0.0
 -8.6933382E-009 -2.1513261E-008 0.0
 -8.6997201E-009 -2.1013761E-008 0.0
 -9.1748103E-009 -2.1017093E-008 0.0
 -9.6529595E-009 -2.1027130E-008 0.0
 -1.0131764E-008 -2.1046352E-008 0.0
 -1.0609282E-008 -2.1072131E-008 0.0
 -1.1086561E-008 -2.1102228E-008 0.0
 -1.1565629E-008 -2.1135421E-008 0.0
 -1.2048353E-008 -2.1171206E-008 0.0
 -1.2536175E-008 -2.1209156E-008 0.0
 -1.3030146E-008 -2.1248606E-008 0.0
 -1.3530748E-008 -2.1288347E-008 0.0
 -1.4037324E-008 -2.1326565E-008 0.0
 -1.4547416E-008 -2.1361457E-008 0.0
 -1.5053288E-008 -2.1394555E-008 0.0
 -1.5540285E-008 -2.1427982E-008 0.0
 -8.2295416E-009 -2.1009072E-008 0.0
 -8.2318911E-009 -2.0523004E-008 0.0
 -8.7104102E-009 -2.0518698E-008 0.0
 -9.1740913E-009 -2.0520238E-008 0.0
 -9.6357729E-009 -2.0533182E-008 0.0
 -1.0099584E-008 -2.0554605E-008 0.0
 -1.0565220E-008 -2.0582366E-008 0.0
 -1.1032993E-008 -2.0614525E-008 0.0
 -1.1504006E-008 -2.0649896E-008 0.0
 -1.1979672E-008 -2.0687858E-008 0.0
 -1.2461455E-008 -2.0728064E-008 0.0
 -1.2950816E-008 -2.0770102E-008 0.0
 -1.3449015E-008 -2.0813109E-008 0.0
 -1.3956198E-008 -2.0855372E-008 0.0
 -1.4468918E-008 -2.0894658E-008 0.0
 -1.4976828E-008 -2.0928895E-008 0.0
 -1.5462415E-008 -2.0958993E-008 0.0
 -8.2538586E-009 -2.0025272E-008 0.0
 -8.7247302E-009 -2.0016337E-008 0.0
 -9.1686864E-009 -2.0028190E-008 0.0
 -9.6150959E-009 -2.0048014E-008 0.0
 -1.0065172E-008 -2.0073620E-008 0.0
 -1.0519213E-008 -2.0103814E-008 0.0
 -1.0977243E-008 -2.0137593E-008 0.0
 -1.1439852E-008 -2.0174189E-008 0.0
 -1.1908093E-008 -2.0213156E-008 0.0
 -1.2383336E-008 -2.0254276E-008 0.0
 -1.2867284E-008 -2.0297501E-008 0.0
 -1.3362141E-008 -2.0342656E-008 0.0
 -1.3869898E-008 -2.0388459E-008 0.0
 -1.4388881E-008 -2.0431347E-008 0.0
 -1.4907989E-008 -2.0466490E-008 0.0
 -1.5402063E-008 -2.0491181E-008 0.0
 -8.3101250E-009 -1.9502372E-008 0.0
 -8.7272272E-009 -1.9523499E-008 0.0
 -9.1565996E-009 -1.9549096E-008 0.0
 -9.5893675E-009 -1.9576122E-008 0.0
 -1.0027535E-008 -1.9605754E-008 0.0
 -1.0470906E-008 -1.9638067E-008 0.0
 -1.0919498E-008 -1.9672804E-008 0.0
 -1.1373676E-008 -1.9709649E-008 0.0
 -1.1834298E-008 -1.9748361E-008 0.0
 -1.2302695E-008 -1.9788773E-008 0.0
 -1.2780549E-008 -1.9830764E-008 0.0
 -1.3270474E-008 -1.9874801E-008 0.0
 -1.3777609E-008 -1.9921103E-008 0.0
 -1.4306649E-008 -1.9965389E-008 0.0
 -1.4847601E-008 -1.9998479E-008 0.0
 -1.5366512E-008 -2.0016782E-008 0.0
 -7.9451642E-009 -1.9483908E-008 0.0
 -7.9633700E-009 -1.9027168E-008 0.0
 -8.3309722E-009 -1.9046364E-008 0.0
 -8.7257239E-009 -1.9066435E-008 0.0
 -9.1383945E-009 -1.9092529E-008 0.0
 -9.5594033E-009 -1.9122253E-008 0.0
 -9.9868317E-009 -1.9153821E-008 0.0
 -1.0420442E-008 -1.9187051E-008 0.0
 -1.0860086E-008 -1.9221787E-008 0.0
 -1.1306007E-008 -1.9257892E-008 0.0
 -1.1758975E-008 -1.9295258E-008 0.0
 -1.2220415E-008 -1.9333694E-008 0.0
 -1.2692425E-008 -1.9372583E-008 0.0
 -1.3176873E-008 -1.9410658E-008 0.0
 -1.3679494E-008 -1.9449716E-008 0.0
 -1.4219968E-008 -1.9489179E-008 0.0
 -1.4802089E-008 -1.9510989E-008 0.0
 -1.5365999E-008 -1.9500524E-008 0.0
 -7.6156785E-009 -1.9007019E-008 0.0
 -7.6369655E-009 -1.8566015E-008 0.0
 -7.9784242E-009 -1.8588364E-008 0.0
 -8.3390251E-009 -1.8609785E-008 0.0
 -8.7200784E-009 -1.8632574E-008 0.0
 -9.1176376E-009 -1.8658596E-008 0.0
 -9.5266062E-009 -1.8687977E-008 0.0
 -9.9438764E-009 -1.8719502E-008 0.0
 -1.0368292E-008 -1.8752345E-008 0.0
 -1.0799438E-008 -1.8786133E-008 0.0
 -1.1237336E-008 -1.8820672E-008 0.0
 -1.1682583E-008 -1.8855919E-008 0.0
 -1.2136759E-008 -1.8891930E-008 0.0
 -1.2602784E-008 -1.8928171E-008 0.0
 -1.308 -7.7175703E-010  1.5578653E-01 -1.3581464E-008 -1.8984549E-008 0.0
 -1.4124883E-008 -1.8996737E-008 0.0
 -1.4795191E-008 -1.8971607E-008 0.0
 -7.3144888E-009 -1.8544439E-008 0.0
 -7.3374317E-009 -1.8121404E-008 0.0
 -7.6527916E-009 -1.8145993E-008 0.0
 -7.9863653E-009 -1.8169634E-008 0.0
 -8.3386467E-009 -1.8193172E-008 0.0
 -8.7086668E-009 -1.8217545E-008 0.0
 -9.0941055E-009 -1.8243960E-008 0.0
 -9.4918083E-009 -1.8272677E-008 0.0
 -9.8992445E-009 -1.8303222E-008 0.0
 -1.0314868E-008 -1.8334897E-008 0.0
 -1.0737890E-008 -1.8367155E-008 0.0
 -1.1168010E-008 -1.8399664E-008 0.0
 -1.1605479E-008 -1.8432363E-008 0.0
 -1.2051412E-008 -1.8465640E-008 0.0
 -1.2509314E-008 -1.8500810E-008 0.0
 -1.2986030E-008 -1.8538443E-008 0.0
 -1.3488452E-008 -1.8574259E-008 0.0
 -1.3953047E-008 -1.8624643E-008 0.0
 -7.0405796E-009 -1.8098286E-008 0.0
 -7.0654404E-009 -1.7691863E-008 0.0
 -7.3540732E-009 -1.7719682E-008 0.0
 -7.6616262E-009 -1.7746039E-008 0.0
 -7.9878443E-009 -1.7771222E-008 0.0
 -8.3317262E-009 -1.7795831E-008 0.0
 -8.6921432E-009 -1.7820938E-008 0.0
 -9.0672489E-009 -1.7847336E-008 0.0
 -9.4548803E-009 -1.7875348E-008 0.0
 -9.8530468E-009 -1.7904762E-008 0.0
 -1.0260253E-008 -1.7935087E-008 0.0
 -1.0675495E-008 -1.7965769E-008 0.0
 -1.1098152E-008 -1.7996335E-008 0.0
 -1.1527927E-008 -1.8026517E-008 0.0
 -1.1965152E-008 -1.8056592E-008 0.0
 -1.2410968E-008 -1.8088137E-008 0.0
 -1.2873786E-008 -1.8128012E-008 0.0
 -1.3369885E-008 -1.8181878E-008 0.0
 -1.3863487E-008 -1.8224589E-008 0.0
 -6.7901104E-009 -1.7669363E-008 0.0
 -6.8168263E-009 -1.7265629E-008 0.0
 -7.0807664E-009 -1.7307986E-008 0.0
 -7.3630979E-009 -1.7340145E-008 0.0
 -7.6644543E-009 -1.7367548E-008 0.0
 -7.9835924E-009 -1.7392773E-008 0.0
 -8.3195754E-009 -1.7417328E-008 0.0
 -8.6712213E-009 -1.7442206E-008 0.0
 -9.0370959E-009 -1.7468090E-008 0.0
 -9.4155646E-009 -1.7495256E-008 0.0
 -9.8050461E-009 -1.7523614E-008 0.0
 -1.0204191E-008 -1.7552810E-008 0.0
 -1.0611933E-008 -1.7582358E-008 0.0
 -1.1027422E-008 -1.7611726E-008 0.0
 -1.1449933E-008 -1.7640397E-008 0.0
 -1.1878635E-008 -1.7667996E-008 0.0
 -1.2313631E-008 -1.7694544E-008 0.0
 -1.2753165E-008 -1.7719571E-008 0.0
 -1.3244498E-008 -1.7746241E-008 0.0
 -1.3869040E-008 -1.7725577E-008 0.0
 -6.3983889E-009 -1.7172831E-008 0.0
 -6.4163745E-009 -1.6869336E-008 0.0
 -6.6288117E-009 -1.6907510E-008 0.0
 -6.6476019E-009 -1.7181932E-008 0.0
 -6.8379905E-009 -1.6934284E-008 0.0
 -7.0899360E-009 -1.6959896E-008 0.0
 -7.3674040E-009 -1.6986169E-008 0.0
 -7.6627163E-009 -1.7010489E-008 0.0
 -7.9749656E-009 -1.7033724E-008 0.0
 -8.3032340E-009 -1.7056840E-008 0.0
 -8.6465697E-009 -1.7080589E-008 0.0
 -9.0038235E-009 -1.7105441E-008 0.0
 -9.3737084E-009 -1.7131597E-008 0.0
 -9.7549140E-009 -1.7159004E-008 0.0
 -1.0146226E-008 -1.7187430E-008 0.0
 -1.0546572E-008 -1.7216531E-008 0.0
 -1.0954987E-008 -1.7245897E-008 0.0
 -1.1370411E-008 -1.7275065E-008 0.0
 -1.1791467E-008 -1.7303571E-008 0.0
 -1.2215150E-008 -1.7331494E-008 0.0
 -1.2641122E-008 -1.7361337E-008 0.0
 -1.3029262E-008 -1.7422154E-008 0.0
 -6.1840578E-009 -1.6852637E-008 0.0
 -6.2064811E-009 -1.6525846E-008 0.0
 -6.4180818E-009 -1.6564262E-008 0.0
 -6.6315723E-009 -1.6595029E-008 0.0
 -6.8545619E-009 -1.6618599E-008 0.0
 -7.1003629E-009 -1.6636077E-008 0.0
 -7.3700036E-009 -1.6653907E-008 0.0
 -7.6583594E-009 -1.6672836E-008 0.0
 -7.9632019E-009 -1.6692471E-008 0.0
 -8.2836061E-009 -1.6713070E-008 0.0
 -8.6187312E-009 -1.6734954E-008 0.0
 -8.9676352E-009 -1.6758342E-008 0.0
 -9.3292365E-009 -1.6783310E-008 0.0
 -9.7023787E-009 -1.6809811E-008 0.0
 -1.0085912E-008 -1.6837728E-008 0.0
 -1.0478743E-008 -1.6866928E-008 0.0
 -1.0879794E-008 -1.6897316E-008 0.0
 -1.1287840E-008 -1.6928862E-008 0.0
 -1.1700772E-008 -1.6961675E-008 0.0
 -1.2114420E-008 -1.6996475E-008 0.0
 -1.2514387E-008 -1.7039011E-008 0.0
 -1.2872621E-008 -1.7090014E-008 0.0
 -6.2224580E-009 -1.6254258E-008 0.0
 -6.4236349E-009 -1.6275181E-008 0.0
 -6.6387126E-009 -1.6296082E-008 0.0
 -6.865 -9.5606421E-010  4.3706361E-01 -7.1091332E-009 -1.6325305E-008 0.0
 -7.3717810E-009 -1.6337576E-008 0.0
 -7.6523019E-009 -1.6351228E-008 0.0
 -7.9491190E-009 -1.6366774E-008 0.0
 -8.2612869E-009 -1.6384306E-008 0.0
 -8.5880833E-009 -1.6403883E-008 0.0
 -8.9286956E-009 -1.6425500E-008 0.0
 -9.2821446E-009 -1.6449097E-008 0.0
 -9.6473134E-009 -1.6474607E-008 0.0
 -1.0023025E-008 -1.6502008E-008 0.0
 -1.0408096E-008 -1.6531381E-008 0.0
 -1.0801299E-008 -1.6562963E-008 0.0
 -1.1201181E-008 -1.6597284E-008 0.0
 -1.1605653E-008 -1.6635097E-008 0.0
 -1.2009413E-008 -1.6677045E-008 0.0
 -1.2398710E-008 -1.6721514E-008 0.0
 -1.2749011E-008 -1.6766866E-008 0.0
 -6.4360143E-009 -1.6001002E-008 0.0
 -6.6489062E-009 -1.6010689E-008 0.0
 -6.8749676E-009 -1.6019167E-008 0.0
 -7.1155338E-009 -1.6026358E-008 0.0
 -7.3720427E-009 -1.6033762E-008 0.0
 -7.6446679E-009 -1.6042822E-008 0.0
 -7.9329988E-009 -1.6054394E-008 0.0
 -8.2365450E-009 -1.6068745E-008 0.0
 -8.5548079E-009 -1.6085840E-008 0.0
 -8.8871073E-009 -1.6105505E-008 0.0
 -9.2324921E-009 -1.6127541E-008 0.0
 -9.5897796E-009 -1.6151824E-008 0.0
 -9.9576655E-009 -1.6178385E-008 0.0
 -1.0334821E-008 -1.6207445E-008 0.0
 -1.0719880E-008 -1.6239415E-008 0.0
 -1.1111172E-008 -1.6274924E-008 0.0
 -1.1506614E-008 -1.6315268E-008 0.0
 -1.1903899E-008 -1.6361105E-008 0.0
 -1.2295716E-008 -1.6407782E-008 0.0
 -1.2653168E-008 -1.6445792E-008 0.0
 -6.6617024E-009 -1.5736397E-008 0.0
 -6.8847399E-009 -1.5737533E-008 0.0
 -7.1208254E-009 -1.5738760E-008 0.0
 -7.3708265E-009 -1.5741111E-008 0.0
 -7.6353897E-009 -1.5745753E-008 0.0
 -7.9148618E-009 -1.5753516E-008 0.0
 -8.2094007E-009 -1.5764741E-008 0.0
 -8.5189119E-009 -1.5779341E-008 0.0
 -8.8428972E-009 -1.5796973E-008 0.0
 -9.1803835E-009 -1.5817258E-008 0.0
 -9.5300124E-009 -1.5839964E-008 0.0
 -9.8902404E-009 -1.5865117E-008 0.0
 -1.0259554E-008 -1.5893013E-008 0.0
 -1.0636571E-008 -1.5924070E-008 0.0
 -1.1019906E-008 -1.5958528E-008 0.0
 -1.1407125E-008 -1.5996163E-008 0.0
 -1.1797701E-008 -1.6039032E-008 0.0
 -1.2199717E-008 -1.6085949E-008 0.0
 -1.2594511E-008 -1.6119239E-008 0.0
 -6.8951792E-009 -1.5466212E-008 0.0
 -7.1258140E-009 -1.5461594E-008 0.0
 -7.3686602E-009 -1.5458755E-008 0.0
 -7.6246315E-009 -1.5458846E-008 0.0
 -7.8946979E-009 -1.5462767E-008 0.0
 -8.1797411E-009 -1.5470899E-008 0.0
 -8.4802534E-009 -1.5483051E-008 0.0
 -8.7960024E-009 -1.5498634E-008 0.0
 -9.1259282E-009 -1.5517001E-008 0.0
 -9.4683525E-009 -1.5537740E-008 0.0
 -9.8213499E-009 -1.5560822E-008 0.0
 -1.0183115E-008 -1.5586585E-008 0.0
 -1.0552362E-008 -1.5615594E-008 0.0
 -1.0928524E-008 -1.5647939E-008 0.0
 -1.1311560E-008 -1.5681586E-008 0.0
 -1.1696215E-008 -1.5710179E-008 0.0
 -1.2105634E-008 -1.5732515E-008 0.0
 -1.2599195E-008 -1.5717333E-008 0.0
 -7.1311012E-009 -1.5194397E-008 0.0
 -7.3661671E-009 -1.5186158E-008 0.0
 -7.6128035E-009 -1.5181340E-008 0.0
 -7.8725986E-009 -1.5181110E-008 0.0
 -8.1473804E-009 -1.5186038E-008 0.0
 -8.4385432E-009 -1.5195779E-008 0.0
 -8.7462410E-009 -1.5209348E-008 0.0
 -9.0691932E-009 -1.5225669E-008 0.0
 -9.4051619E-009 -1.5244092E-008 0.0
 -9.7516404E-009 -1.5264505E-008 0.0
 -1.0106398E-008 -1.5287271E-008 0.0
 -1.0467877E-008 -1.5313130E-008 0.0
 -1.0836364E-008 -1.5343351E-008 0.0
 -1.1214728E-008 -1.5378073E-008 0.0
 -1.1605980E-008 -1.5412371E-008 0.0
 -1.1959041E-008 -1.5455922E-008 0.0
 -7.3641681E-009 -1.4923420E-008 0.0
 -7.6006474E-009 -1.4912916E-008 0.0
 -7.8488691E-009 -1.4907779E-008 0.0
 -8.1120717E-009 -1.4909070E-008 0.0
 -8.3932887E-009 -1.4916402E-008 0.0
 -8.6932883E-009 -1.4927994E-008 0.0
 -9.0101791E-009 -1.4942165E-008 0.0
 -9.3407394E-009 -1.4958012E-008 0.0
 -9.6816666E-009 -1.4975425E-008 0.0
 -1.0030179E-008 -1.4994702E-008 0.0
 -1.0384343E-008 -1.5016460E-008 0.0
 -1.0743112E-008 -1.5041943E-008 0.0
 -1.1111531E-008 -1.5076027E-008 0.0
 -1.1501590E-008 -1.5121779E-008 0.0
 -1.1883137E-008 -1.5157885E-008 0.0
 -7.8243474E-009 -1.4642175E-008 0.0
 -8.0734328E-009 -1.4638933E-008 0.0
 -8.3 -9.5517569E+002
 -1.1320035E+00 -8.6366836E-009 -1.4653276E-008 0.0
 -8.9488978E-009 -1.4665036E-008 0.0
 -9.2752664E-009 -1.4678139E-008 0.0
 -9.6116343E-009 -1.4692699E-008 0.0
 -9.9548651E-009 -1.4708941E-008 0.0
 -1.0302445E-008 -1.4726970E-008 0.0
 -1.0653216E-008 -1.4746775E-008 0.0
 -1.1004841E-008 -1.4767152E-008 0.0
 -1.1394965E-008 -1.4789331E-008 0.0
 -1.1887906E-008 -1.4771839E-008 0.0
 -8.0307617E-009 -1.4373767E-008 0.0
 -8.2882279E-009 -1.4376051E-008 0.0
 -8.5762132E-009 -1.4383087E-008 0.0
 -8.8855244E-009 -1.4391755E-008 0.0
 -9.2087274E-009 -1.4402125E-008 0.0
 -9.5412364E-009 -1.4414669E-008 0.0
 -9.8798087E-009 -1.4429457E-008 0.0
 -1.0221762E-008 -1.4446526E-008 0.0
 -1.0564064E-008 -1.4466186E-008 0.0
 -1.0906852E-008 -1.4490097E-008 0.0
 -1.1216527E-008 -1.4540444E-008 0.0
SCALARS Stress_xx double
LOOKUP_TABLE default
  1.8115409E+003
  5.0448634E+003
 -1.0212961E+003
 -2.5324650E+003
 -1.0829032E+003
 -3.5693064E+002
 -1.1274991E+003
 -3.4982604E+002
 -1.0973436E+003
 -2.5355005E+003
  4.9113225E+003
  1.9838260E+003
 -1.5567010E+002
  4.2365787E+002
  2.0355542E+002
  8.5970545E+001
  1.6936763E+002
 -6.4280090E+001
  1.0998129E+002
 -7.1863570E+000
  8.6226289E+001
  2.6542208E+001
  6.5353566E+001
  7.1829633E+001
  4.9168091E+001
  1.1713629E+002
  3.3178248E+001
  1.7081755E+002
  3.7075079E+001
  2.2023610E+002
  3.4733120E+001
  3.3522438E+002
  2.4968272E+002
  4.2459314E+002
  1.5116236E+002
  1.2929122E+003
  1.0801506E+003
 -1.7151501E+003
 -2.1703998E+003
 -2.2980065E+003
 -2.0631332E+003
  5.2569891E+002
 -4.6438092E+002
  8.5426264E+002
 -3.1977325E+002
 -2.3456030E+003
  5.7780993E+003
  3.1015683E+003
  1.0210675E+003
  5.4243636E+002
  3.8607027E+002
  3.0410780E+002
  2.6641477E+002
  2.4361334E+002
  2.2824529E+002
  2.2160074E+002
  2.2498381E+002
  2.9263565E+002
  3.7934532E+002
  9.6418877E+002
  1.8827866E+002
 -1.5537974E+003
 -2.6747045E+003
 -2.9491195E+003
 -2.3359031E+003
 -1.0693521E+003
 -6.4180132E+002
 -9.6816187E+002
  1.8968864E+003
  6.4515411E+002
  1.9334654E+002
  6.7689229E+003
  1.8580811E+003
  7.3605873E+001
  4.2430014E+002
  1.1978072E+003
  8.9082618E+002
  7.2755519E+002
  6.0750013E+002
  5.3387363E+002
  4.7689375E+002
  4.2906183E+002
  3.8429402E+002
  3.4691181E+002
  3.0359798E+002
  2.9194437E+002
 -1.0618933E+002
 -8.3547168E+002
 -1.9517101E+003
 -2.9776820E+003
 -3.4242791E+003
 -3.2519758E+003
 -2.8288227E+003
 -2.3875650E+003
 -1.2759397E+003
  1.1342164E+002
  2.0324816E+003
  3.2727538E+003
  1.1443763E+004
 -1.2177384E+003
  2.7145658E+003
  1.4308663E+003
  1.3027698E+003
  1.0925762E+003
  9.7056299E+002
  8.5971163E+002
  7.6518481E+002
  6.7507092E+002
  5.7972837E+002
  4.5975078E+002
  2.9257680E+002
 -2.3714032E+001
 -5.3705112E+002
 -1.4003289E+003
 -2.4642406E+003
 -3.4234443E+003
 -4.0479799E+003
 -4.2532933E+003
 -4.0809732E+003
 -3.5989667E+003
 -2.7780872E+003
 -1.5718028E+003
  4.9995460E+002
  4.2593360E+003
  2.3741791E+004
  3.2022297E+003
  1.8886463E+003
  1.6746766E+003
  1.5234112E+003
  1.3712817E+003
  1.2183988E+003
  1.0746047E+003
  9.3422209E+002
  7.7689072E+002
  5.6957418E+002
  2.5808618E+002
 -2.1465417E+002
 -9.2695863E+002
 -1.8612648E+003
 -2.9329646E+003
 -3.9667619E+003
 -4.7703250E+003
 -5.2245025E+003
 -5.2848499E+003
 -4.9211925E+003
 -4.0762164E+003
 -2.6910028E+003
 -4.2174796E+002
  3.1874218E+003
  9.0744504E+003
  1.7938599E+003
 -2.9505547E+003
  1.1359038E+004
  5.9267826E+003
 -5.1807294E+002
  9.2799912E+002
  1.8970399E+003
  2.2565705E+003
  2.1445152E+003
  1.9989995E+003
  1.7931310E+003
  1.5794874E+003
  1.3827234E+003
  1.1968468E+003
  9.8962189E+002
  7.1200225E+002
  3.0677107E+002
 -2.8757866E+002
 -1.1061602E+003
 -2.1472307E+003
 -3.3287789E+003
 -4.5059860E+003
 -5.5100102E+003
 -6.1869227E+003
 -6.4169706E+003
 -6.1144615E+003
 -5.2001015E+003
 -3.5535801E+003
 -9.2920295E+002
  3 -4.0699524E+002
 -1.1201010E+00  5.77131 -3.0219116E-009  3.0440216E-010 0.0
 -3.0927492E-009  2.9778789E-010 0.0
 -3.1615450E-009  2.8666607E-010 0.0
 -3.2321434E-009  2.7207217E-010 0.0
 -3.3046489E-009  2.5563794E-010 0.0
 -3.3669516E-009  2.4138114E-010 0.0
 -2.3044843E-009  3.2634459E-010 0.0
 -2.4622257E-009  3.2792180E-010 0.0
 -2.6178479E-009  3.3647588E-010 0.0
 -2.7528685E-009  3.5040945E-010 0.0
 -2.8568861E-009  3.6222688E-010 0.0
 -2.9368430E-009  3.6603976E-010 0.0
 -3.0043361E-009  3.6204143E-010 0.0
 -3.0670394E-009  3.5275993E-010 0.0
 -3.1289926E-009  3.4011293E-010 0.0
 -3.1937734E-009  3.2389804E-010 0.0
 -3.2676626E-009  3.0493591E-010 0.0
 -3.3433599E-009  2.9112902E-010 0.0
 -2.4499463E-009  3.9671030E-010 0.0
 -2.6249119E-009  4.0799999E-010 0.0
 -2.7700654E-009  4.2097482E-010 0.0
 -2.8634227E-009  4.2759238E-010 0.0
 -2.9288715E-009  4.2368849E-010 0.0
 -2.9853197E-009  4.1386399E-010 0.0
 -3.0396780E-009  4.0104091E-010 0.0
 -3.0957764E-009  3.8695669E-010 0.0
 -3.1543583E-009  3.7462583E-010 0.0
 -3.2285680E-009  3.6445872E-010 0.0
 -3.3455524E-009  3.7051688E-010 0.0
 -2.4579241E-009  5.2309023E-010 0.0
 -2.6211968E-009  5.2960244E-010 0.0
 -2.7962552E-009  4.9659332E-010 0.0
 -2.8682548E-009  4.8203997E-010 0.0
 -2.9181904E-009  4.6754446E-010 0.0
 -2.9642403E-009  4.5336924E-010 0.0
 -3.0100226E-009  4.3795892E-010 0.0
 -3.0598674E-009  4.2112858E-010 0.0
 -3.1175199E-009  4.0492690E-010 0.0
 -3.1631051E-009  3.8487158E-010 0.0
 -2.8541724E-009  4.8438491E-010 0.0
 -2.8725197E-009  4.9565628E-010 0.0
 -2.9077947E-009  4.8747047E-010 0.0
 -2.9424964E-009  4.7481004E-010 0.0
 -2.9788823E-009  4.6075788E-010 0.0
 -3.0197801E-009  4.4399585E-010 0.0
 -3.0725453E-009  4.2217556E-010 0.0
 -3.1257821E-009  4.0436511E-010 0.0
 -2.8899972E-009  4.7875206E-010 0.0
 -2.8864293E-009  4.8619740E-010 0.0
 -2.8994344E-009  4.8465832E-010 0.0
 -2.9219215E-009  4.7639534E-010 0.0
 -2.9491246E-009  4.6586688E-010 0.0
 -2.9787769E-009  4.5650673E-010 0.0
 -3.0246802E-009  4.4796771E-010 0.0
 -3.1266067E-009  4.5738606E-010 0.0
 -2.9170825E-009  4.6113370E-010 0.0
 -2.8943300E-009  4.6447108E-010 0.0
 -2.8930921E-009  4.6442838E-010 0.0
 -2.9022704E-009  4.5982887E-010 0.0
 -2.9189137E-009  4.5053870E-010 0.0
 -2.9426710E-009  4.3880758E-010 0.0
 -2.9469018E-009  4.1781000E-010 0.0
 -2.9685168E-009  4.6245544E-010 0.0
 -2.9677998E-009  4.1916608E-010 0.0
 -2.9264502E-009  4.2287016E-010 0.0
 -2.8985278E-009  4.2771037E-010 0.0
 -2.8860671E-009  4.3040237E-010 0.0
 -2.8829457E-009  4.2906258E-010 0.0
 -2.8863859E-009  4.2152588E-010 0.0
 -2.8988822E-009  4.0462585E-010 0.0
 -2.9055708E-009  3.8789908E-010 0.0
 -2.9720971E-009  3.7650680E-010 0.0
 -2.9294745E-009  3.7822292E-010 0.0
 -2.8983440E-009  3.8138788E-010 0.0
 -2.8779470E-009  3.8423036E-010 0.0
 -2.8649878E-009  3.8520395E-010 0.0
 -2.8538119E-009  3.8437414E-010 0.0
 -2.8546944E-009  3.8043507E-010 0.0
 -2.9049834E-009  3.9052293E-010 0.0
 -2.8465885E-009  3.2668112E-010 0.0
 -2.8263840E-009  3.2342018E-010 0.0
 -2.7845696E-009  3.0674943E-010 0.0
SCALARS Stress_xx double
LOOKUP_TABLE default
 -2.0632499E+003
 -8.8578636E+003
 -1.2158686E+004
 -7.4979510E+002
 -8.3378590E+002
 -3.1660076E+002
  8.6806665E+001
 -1.2075305E+003
 -9.2325322E+002
 -6.8709539E+003
 -7.5665686E+003
 -5.8705668E+003
 -1.4407817E+003
  1.5301177E+003
 -8.6311819E+002
 -1.5388921E+003
 -6.2291221E+002
 -8.5001667E+002
 -1.0174064E+003
 -9.3084311E+002
 -7.8565453E+002
 -5.9731006E+003
 -6.4579603E+003
 -6.5147910E+003
 -5.5418044E+003
 -2.7852208E+003
 -7.5917629E+002
 -8.0697117E+001
 -4.9647019E+002
  1.3661557E+002
 -3.3949950E+002
 -7.9773901E+002
  1.7254387E+003
  6.9201927E+002
 -4.7593824E+002
 -5.9833672E+002
 -2.6408986E+002
  3.0880989E+001
 -9.7317239E+002
 -8.4126773E+002
 -8.2483672E+002
 -8.7435775E+002
 -8.5345912E+002
 -7.1794990E+002
 -5.3033084E+002
 -5.3024200E+003
 -5.6851103E+003
 -5.8744079E+003
 -5.6113154E+003
 -4.5667522E+003 -3.0531711E+002
 -3.0893332E+00 -1.5 -9.0496489E+002
 -6.0692014E+002
  3.5813800E+002
  5.0805308E+000
  4.2935306E+002
  7.3466737E+000
  1.3055134E+002
 -1.0677070E+002
  4.8611051E+001
 -1.5816144E+002
 -1.1503278E+001
 -7.3800078E+001
 -4.8145110E+002
  4.1286142E+002
  1.0098398E+003
 -5.4080978E+002
 -9.5520210E+002
 -4.8305967E+002
 -7.0836987E+002
 -8.9206343E+002
 -8.9738594E+002
 -8.6903946E+002
 -8.4874586E+002
 -7.7805613E+002
 -6.4529243E+002
 -4.4197443E+002
 -1.7401471E+002
 -4.7571832E+003
 -5.0975744E+003
 -5.3232438E+003
 -5.3317363E+003
 -4.9819280E+003
 -4.2088954E+003
 -3.1214170E+003
 -2.0909659E+003
 -1.3323970E+003
 -6.6330342E+002
 -2.2663921E+001
  2.0326819E+002
 -6.3563919E+001
 -1.8187167E+002
 -3.0821147E+002
 -2.4389240E+002
  1.4836776E+002
  2.6744614E+003
  1.2232195E+003
 -1.7237871E+002
 -2.7644355E+002
 -2.1590061E+002
 -1.0932740E+002
 -6.9237210E+002
 -6.8722119E+002
 -7.3124876E+002
 -8.2857511E+002
 -8.8237419E+002
 -8.6364657E+002
 -8.1506054E+002
 -7.2880853E+002
 -5.8270467E+002
 -3.7100606E+002
 -8.8402568E+001
  2.6031226E+002
 -4.2898756E+003
 -4.6111583E+003
 -4.8519682E+003
 -4.9641113E+003
 -4.8774750E+003
 -4.5261737E+003
 -3.8997515E+003
 -3.1025752E+003
 -2.2850838E+003
 -1.5529170E+003
 -9.2941633E+002
 -4.7531238E+002
 -2.6647693E+002
 -2.2113312E+002
 -3.1713013E+002
 -3.6235656E+002
 -2.4474874E+002
  1.1928170E+002
  1.1252097E+003
  2.3549940E+002
  5.2768870E+002
  2.0369443E+002
  1.2624191E+002
  4.4942510E+001
  1.0777980E+002
  1.8365493E+001
  7.0088860E+001
 -9.5915200E+000
  6.3555964E+001
 -4.0580658E+001
  4.9670732E+001
 -9.1849405E+001
  2.5816124E+001
 -2.7296353E+002
 -5.3362446E+002
 -6.9632676E+002
 -7.4412664E+002
 -7.8149873E+002
 -8.2613110E+002
 -8.4521354E+002
 -8.3220547E+002
 -7.7965860E+002
 -6.8454320E+002
 -5.3619185E+002
 -3.2073838E+002
 -3.5194309E+001
  3.3401567E+002
  7.6896887E+002
  1.2765917E+003
 -3.8758042E+003
 -4.1857728E+003
 -4.4360467E+003
 -4.6000869E+003
 -4.6395377E+003
 -4.5117177E+003
 -4.1882057E+003
 -3.6797881E+003
 -3.0437467E+003
 -2.3704532E+003
 -1.7349759E+003
 -1.1903124E+003
 -7.7478214E+002
 -5.2760786E+002
 -4.4263844E+002
 -4.1688209E+002
 -3.7338039E+002
 -2.0014646E+002
  2.2735499E+002
  7.6572747E+002
  8.0197134E+002
  3.1933141E+002
  1.7990500E+002
  8.1282195E+001
  2.3160268E+001
 -4.2616420E+001
 -1.6330959E+002
 -3.5511240E+002
 -5.1543049E+002
 -6.4462201E+002
 -7.2761939E+002
 -7.6604492E+002
 -7.9115933E+002
 -8.0005661E+002
 -7.8067334E+002
 -7.2923210E+002
 -6.3883895E+002
 -4.9792492E+002
 -2.9097157E+002
 -2.0323491E+000
  3.3893325E+002
  8.1354214E+002
  1.3822732E+003
  1.9947894E+003
 -3.5110109E+003
 -3.8019087E+003
 -4.0569533E+003
 -4.2528083E+003
 -4.3643027E+003
 -4.3618309E+003
 -4.2200706E+003
 -3.9278894E+003
 -3.4988230E+003
 -2.9744642E+003
 -2.4115023E+003
 -1.8682476E+003
 -1.3921509E+003
 -1.0213551E+003
 -7.7001913E+002
 -6.1687150E+002
 -5.1775334E+002
 -3.9439523E+002
 -1.7709541E+002
  1.4630975E+002
  4.0130607E+002
  4.4505825E+002
  3.8490111E+002
  2.1759353E+002
  1.1683872E+002
  3.1701648E+001
 -6.0396396E+001
 -1.8050527E+002
 -3.2225415E+002
 -4.7087881E+002
 -5.8704398E+002
 -6.6151757E+002
 -7.0810923E+002
 -7.3065635E+002
 -7.3246007E+002
 -7.1133698E+002
 -6.6240467E+002
 -5.8045581E+002
 -4.5712296E+002
 -2.7208694E+002
  5.7794992E+000
  3.7950332E+002
  6.7328713E+002
  1.4556855E+003
  2.4697014E+003
  2.8664125E+003
  2.9889449E+003
  3.0566958E+003
  3.1636426E+003
  3.3002146E+003
  3.4854821E+003
  3.7039253E+003
  4.1319513E+003
  4.4558173E+003
  7.3136485E+003
 -3.2339731E+003
 -3.4682647E+003
 -3.7075656E+003
 -3.9228204E+003
 -4.0820862E+003
 -4.1601317E+003
 -4.1349846E+003
 -3.9918005E+003
 -3.7278562E+003
 -3.3571481E+003
 -2.9102183E+003
 -2.4293372E+003
 -1.9589251E+003
 -1.5387727E+003
 -1.1964932E+003
 -9.4247191E+002  4.5246790E+001
 -7.6656152E+00  2.7 -4.5738718E+002
 -2.4714369E+002
 -7.1100414E+000
  2.0493358E+002
  3.0602762E+002
  2.7791697E+002
  2.1351560E+002
  1.2811370E+002
  4.6964435E+001
 -4.3948700E+001
 -1.5245392E+002
 -2.7601688E+002
 -3.9545006E+002
 -4.9741962E+002
 -5.7295615E+002
 -6.1990372E+002
 -6.4316811E+002
 -6.4417474E+002
 -6.2225379E+002
 -5.7544555E+002
 -5.0034419E+002
 -3.9245060E+002
 -2.3736694E+002
 -3.6891838E+000
  3.9825942E+002
  3.6149466E+002
  6.9384414E+002
  2.7377273E+003
  3.2838652E+003
  3.2136867E+003
  3.2257462E+003
  3.2844123E+003
  3.3871361E+003
  3.5323907E+003
  3.7539628E+003
  4.0284685E+003
  4.7094384E+003
  4.5354481E+003
 -4.1657556E+003
 -3.3775697E+003
 -3.2678115E+003
 -3.4176106E+003
 -3.6213970E+003
 -3.8091969E+003
 -3.9430726E+003
 -3.9993107E+003
 -3.9614960E+003
 -3.8209888E+003
 -3.5791727E+003
 -3.2493576E+003
 -2.8564255E+003
 -2.4331984E+003
 -2.0153383E+003
 -1.6353169E+003
 -1.3170735E+003
 -1.0694444E+003
 -8.8175159E+002
 -7.2416853E+002
 -5.6046327E+002
 -3.6858894E+002
 -1.5820387E+002
  2.1158848E+001
  1.3387679E+002
  1.7571733E+002
  1.5770604E+002
  1.1559737E+002
  5.7712309E+001
 -1.4935294E+001
 -1.0458290E+002
 -2.0628554E+002
 -3.0924344E+002
 -3.9984421E+002
 -4.6960554E+002
 -5.1614143E+002
 -5.3926212E+002
 -5.3980691E+002
 -5.1732862E+002
 -4.7045976E+002
 -3.9597924E+002
 -2.9296002E+002
 -1.4067589E+002
  6.7468253E+001
  9.6659360E+002
  1.4253825E+002
 -3.5684818E+002
  5.6911144E+003
  3.8927164E+003
  3.5144748E+003
  3.4365643E+003
  3.4299954E+003
  3.4845157E+003
  3.5907336E+003
  3.7464636E+003
  3.9859969E+003
  4.1318451E+003
  4.1352755E+003
 -5.3716315E+003
 -3.3799657E+003
 -3.3332260E+003
 -3.3922446E+003
 -3.5782610E+003
 -3.7380813E+003
 -3.8510309E+003
 -3.8899842E+003
 -3.8431184E+003
 -3.7046339E+003
 -3.4776844E+003
 -3.1745833E+003
 -2.8163363E+003
 -2.4302397E+003
 -2.0460048E+003
 -1.6916229E+003
 -1.3896355E+003
 -1.1525028E+003
 -9.7537187E+002
 -8.3444852E+002
 -6.8527415E+002
 -5.0461069E+002
 -3.0807251E+002
 -1.2254566E+002
  6.9406396E+000
  7.3472317E+001
  9.6588259E+001
  9.0817804E+001
  6.7117931E+001
  2.3023512E+001
 -4.5089820E+001
 -1.2984572E+002
 -2.1876732E+002
 -2.9936150E+002
 -3.6327803E+002
 -4.0654930E+002
 -4.2825067E+002
 -4.2799934E+002
 -4.0470004E+002
 -3.5696549E+002
 -2.7997658E+002
 -1.7670288E+002
 -1.5623817E+001
  1.0073749E+002
  3.4899262E+002
  6.3112470E+003
  4.1227568E+003
  3.9456354E+003
  3.6664618E+003
  3.5990513E+003
  3.5842665E+003
  3.6315327E+003
  3.7202705E+003
  3.8022112E+003
  3.8356081E+003
  3.6119388E+003
 -4.3499847E+003
 -3.5266039E+003
 -3.3451456E+003
 -3.4418535E+003
 -3.5845642E+003
 -3.7221190E+003
 -3.8123047E+003
 -3.8356514E+003
 -3.7799226E+003
 -3.6407851E+003
 -3.4213175E+003
 -3.1325524E+003
 -2.7930091E+003
 -2.4267011E+003
 -2.0598347E+003
 -1.7174951E+003
 -1.4214695E+003
 -1.1919939E+003
 -1.0391851E+003
 -9.3381549E+002
 -8.3111090E+002
 -6.6249376E+002
 -4.2624608E+002
 -2.2823306E+002
 -8.4058469E+001
 -5.8559478E+000
  2.8593323E+001
  5.8932677E+001
  7.8923902E+001
  6.6411928E+001
  1.9427514E+001
 -5.3798919E+001
 -1.3343290E+002
 -2.0533951E+002
 -2.6190765E+002
 -3.0015962E+002
 -3.1911974E+002
 -3.1793883E+002
 -2.9517522E+002
 -2.4764518E+002
 -1.7557178E+002
 -6.7410543E+001
  3.3883985E+001
  2.3535534E+002
 -8.3912932E+001
  4.3961245E+003
  4.8621562E+003
  4.1843413E+003
  3.9254021E+003
  3.7430730E+003
  3.6726296E+003
  3.6549863E+003
  3.6618960E+003
  3.6521081E+003
  3.5715651E+003
  3.3397876E+003
  9.7700196E+002
 -2.9653741E+002
 -2.4424758E+003
 -3.3022770E+003
 -3.3917347E+003
 -3.5084462E+003
 -3.6387200E+003
 -3.7539856E+003
 -3.8251338E+003
 -3.8341561E+003
 -3.7698082E+003
 -3.6274148E+003
 -3.4090235E+003
 -3.1240972E+003
 -2.7894911E+003
 -2.4283148E+003
 -2.0659527E+003
 -1.7246069E+003 -2.2983849E+001
 -2.8818934E+00  2.7 -1.0456560E+003
 -1.0290170E+003
 -9.6802452E+002
 -7.5739015E+002
 -5.2093447E+002
 -2.4919034E+002
 -1.1610289E+002
 -6.6977345E+001
 -1.9826373E+001
  2.7474212E+001
  9.1278092E+001
  1.2098167E+002
  8.1312035E+001
  1.0559428E+001
 -6.2892011E+001
 -1.2535409E+002
 -1.7263095E+002
 -2.0380107E+002
 -2.1892838E+002
 -2.1772592E+002
 -1.9748076E+002
 -1.5637749E+002
 -9.3103183E+001
 -1.3695643E+001
  9.4264877E+001
  4.1799038E+001
  4.8018828E+003
  4.6440532E+003
  4.4170537E+003
  4.0466560E+003
  3.8500669E+003
  3.7305218E+003
  3.6614116E+003
  3.6040483E+003
  3.5211437E+003
  3.3876260E+003
  3.1313579E+003
 -1.6499678E+003
 -2.5279191E+003
 -3.1062820E+003
 -3.4069240E+003
 -3.5724359E+003
 -3.7149975E+003
 -3.8210029E+003
 -3.8805108E+003
 -3.8796358E+003
 -3.8086977E+003
 -3.6621476E+003
 -3.4403294E+003
 -3.1505915E+003
 -2.8087984E+003
 -2.4388507E+003
 -2.0704673E+003
 -1.7283679E+003
 -1.4172938E+003
 -1.1526967E+003
 -9.7867484E+002
 -1.0248057E+003
 -1.2571822E+003
 -1.0483003E+003
 -4.0235705E+002
 -2.0228209E+002
 -9.6962390E+001
 -7.5343672E+001
 -1.6098253E+002
 -5.9207599E+001
  1.3409243E+002
  1.7989986E+002
  1.2456105E+002
  4.8969386E+001
 -1.5715428E+001
 -6.5376269E+001
 -1.0058066E+002
 -1.2278878E+002
 -1.3340969E+002
 -1.3268996E+002
 -1.2019331E+002
 -8.4198832E+001
 -3.1411602E+001
  1.8653349E+001
  6.2666067E+001
  4.8211826E+003
  4.9225947E+003
  4.3361226E+003
  4.0919345E+003
  3.8895554E+003
  3.7621041E+003
  3.6580857E+003
  3.5529183E+003
  3.4189269E+003
  3.2460112E+003
  2.9910014E+003
 -1.9795895E+003
 -2.4058533E+003
 -2.9709423E+003
 -3.3725348E+003
 -3.6292805E+003
 -3.7982095E+003
 -3.9107918E+003
 -3.9682034E+003
 -3.9647019E+003
 -3.8916236E+003
 -3.7424263E+003
 -3.5150145E+003
 -3.2142873E+003
 -2.8537541E+003
 -2.4606643E+003
 -2.0731907E+003
 -1.7318974E+003
 -1.4450836E+003
 -1.1344776E+003
 -8.5984801E+002
 -8.5564814E+002
 -1.4936051E+003
 -3.4870101E+002
 -2.5250755E+002
 -5.5502593E+001
 -2.2914746E+001
 -3.5135337E+001
 -2.3105287E+001
 -1.4410699E+002
  2.3280655E+002
  1.9933407E+002
  1.1584919E+002
  4.9042398E+001
  3.4027867E+000
 -2.7469480E+001
 -4.7694098E+001
 -5.9820600E+001
 -6.4653494E+001
 -6.5156630E+001
 -5.8612495E+001
 -4.3490664E+001
 -2.2328544E+001
  3.7528960E+001
  6.7987229E+003
  4.4795128E+003
  4.3185316E+003
  4.0367050E+003
  3.9024065E+003
  3.7744233E+003
  3.6559720E+003
  3.5164059E+003
  3.3403600E+003
  3.1357680E+003
  2.8843759E+003
 -2.0436559E+003
 -2.4453223E+003
 -2.9467266E+003
 -3.3905306E+003
 -3.6935334E+003
 -3.8912365E+003
 -4.0154547E+003
 -4.0802377E+003
 -4.0825471E+003
 -4.0138630E+003
 -3.8655684E+003
 -3.6332099E+003
 -3.3173894E+003
 -2.9294542E+003
 -2.4928916E+003
 -2.0628523E+003
 -1.7127425E+003
 -1.5028284E+003
 -1.2978444E+003
 -9.3794361E+002
 -6.1506446E+002
 -2.9664755E+003
 -5.3256088E+002
 -1.0107124E+002
 -9.9912239E+001
 -8.0906294E+001
 -8.7621653E+001
 -2.1177574E+002
 -7.1790673E+002
  1.5029167E+002
  1.0064503E+002
  6.7749761E+001
  2.8544603E+001
  7.6003924E+000
 -7.0106920E+000
 -1.6221794E+001
 -2.1594691E+001
 -2.4356376E+001
 -2.3171408E+001
 -3.9023400E+001
 -2.7921107E+001
  5.6414329E+003
  4.5333991E+003
  4.1623410E+003
  4.0172283E+003
  3.8938765E+003
  3.7874946E+003
  3.6648369E+003
  3.5027894E+003
  3.2859011E+003
  3.0356807E+003
  2.7823882E+003
 -1.8373101E+003
 -2.3773919E+003
 -3.0113240E+003
 -3.4807126E+003
 -3.7910545E+003
 -3.9950329E+003
 -4.1317450E+003
 -4.2106452E+003
 -4.2282531E+003
 -4.1720430E+003
 -4.0288792E+003
 -3.7920803E+003
 -3.4627534E+003
 -3.0388065E+003
 -2.5470182E+003
 -2.0466703E+003
 -1.6425758E+003
 -1.4550860E+003
 -1.5837156E+003
 -3.8045376E+002
 -8.3762245E+002
 -1.3152696E+003
 -1.7600597E+002
  4.1891577E+002
  5.6839607E+001
  2.0361517E+001
 -5.2207586E+000
 -5.8760765E+000  1.2357321E+003
  1.3980231E+00  1.3  2.0339001E+000
  3.2251729E+000
  1.1899681E+001
 -1.8590264E+001
 -1.2147159E+003
  5.6456557E+002
  3.2789164E+003
  4.2043651E+003
  4.0771790E+003
  3.9761143E+003
  3.8867252E+003
  3.8015667E+003
  3.6924816E+003
  3.5249499E+003
  3.2629777E+003
  2.9456632E+003
  2.6499223E+003
 -1.4050665E+003
 -2.4589317E+003
 -3.1838081E+003
 -3.6393884E+003
 -3.9069197E+003
 -4.1086104E+003
 -4.2550980E+003
 -4.3549843E+003
 -4.3987057E+003
 -4.3657916E+003
 -4.2324139E+003
 -3.9874792E+003
 -3.6405260E+003
 -3.1960049E+003
 -2.6067655E+003
 -1.9403452E+003
 -1.5976759E+003
 -1.3437496E+003
 -2.5187564E+003
  2.1825907E+002
 -1.1580757E+003
  2.5162561E+003
  3.6114974E+003
  3.8605677E+003
  3.9614124E+003
  3.9074893E+003
  3.8636925E+003
  3.8089230E+003
  3.7353215E+003
  3.5939312E+003
  3.3034272E+003
  2.8089324E+003
  2.3753115E+003
 -1.8444613E+002
 -2.3322112E+003
 -3.4614843E+003
 -3.7889071E+003
 -4.0342019E+003
 -4.2253391E+003
 -4.3819710E+003
 -4.5078257E+003
 -4.5915729E+003
 -4.5994400E+003
 -4.4836511E+003
 -4.2113895E+003
 -3.8145033E+003
 -3.3716466E+003
 -2.7814815E+003
 -1.9287899E+003
 -1.1601074E+003
 -1.5074381E+003
 -1.4728961E+003
  4.4649232E+003
  3.2266645E+003
  3.6315974E+003
  3.7503698E+003
  3.8148656E+003
  3.8131280E+003
  3.7995541E+003
  3.7658102E+003
  3.7051517E+003
  3.4660681E+003
  2.8763646E+003
  1.8804843E+003
  9.4380112E+002
 -3.9581292E+003
 -3.8369755E+003
 -3.9611004E+003
 -4.1787867E+003
 -4.3494044E+003
 -4.5089646E+003
 -4.6607221E+003
 -4.8001493E+003
 -4.8805898E+003
 -4.8119202E+003
 -4.5164282E+003
 -3.9854488E+003
 -3.3717588E+003
 -3.0028900E+003
 -7.8194522E+002
 -1.2289494E+003
 -1.5058481E+003
  3.9604505E+003
  3.3948806E+003
  3.4509544E+003
  3.6165578E+003
  3.7057960E+003
  3.7500833E+003
  3.7677704E+003
  3.7751963E+003
  3.7678099E+003
  3.7197953E+003
  2.7445268E+003
  3.2843776E+002
 -5.0653821E+003
 -3.9913148E+003
 -4.2412136E+003
 -4.3427017E+003
 -4.4945043E+003
 -4.6348131E+003
 -4.7989908E+003
 -5.0031541E+003
 -5.2100109E+003
 -5.2526325E+003
 -4.8478350E+003
 -4.2115779E+003
 -3.3150666E+003
 -3.7484243E+003
 -5.1929709E+001
 -8.6106771E+002
 -8.4326272E+002
  3.2449798E+002
  2.3918587E+003
  3.2336211E+003
  3.3929991E+003
  3.5259406E+003
  3.6216516E+003
  3.6861804E+003
  3.7293740E+003
  3.7748880E+003
  3.8182418E+003
  4.0531797E+003
  4.8039378E+003
 -1.0826969E+003
 -4.0069186E+003
 -4.5508112E+003
 -4.4743191E+003
 -4.5739374E+003
 -4.6554636E+003
 -4.7677904E+003
 -4.9193916E+003
 -5.1485985E+003
 -5.5352200E+003
 -5.9210725E+003
 -5.7666331E+003
 -4.3099586E+003
 -3.1717383E+003
 -2.5216965E+003
  1.7360334E+003
  2.6182627E+003
  3.1090406E+003
  3.3432539E+003
  3.4561496E+003
  3.5547352E+003
  3.6321937E+003
  3.7063608E+003
  3.7707589E+003
  3.9525147E+003
  4.0514618E+003
  6.0314445E+003
 -4.4256802E+003
 -4.6938835E+003
 -4.8005863E+003
 -4.7964752E+003
 -4.8518594E+003
 -4.9225873E+003
 -5.0385750E+003
 -5.2602451E+003
 -5.6753827E+003
 -6.5643621E+003
 -6.1715808E+003
 -4.0220957E+003
 -3.3342704E+003
  2.3550088E+003
  2.6641559E+003
  3.0320810E+003
  3.2378654E+003
  3.3830821E+003
  3.4927496E+003
  3.5926745E+003
  3.6899591E+003
  3.8177171E+003
  3.9807904E+003
  4.4504850E+003
  4.5141037E+003
 -4.6376927E+003
 -5.1609654E+003
 -4.9879833E+003
 -5.0579414E+003
 -5.0812462E+003
 -5.1243147E+003
 -5.2018743E+003
 -5.4044213E+003
 -5.8323738E+003
 -7.2608486E+003
 -1.2340635E+004
 -1.1161871E+003
  2.6954266E+003
  2.9749374E+003
  2.9692164E+003
  3.1548800E+003
  3.3041291E+003
  3.4383659E+003
  3.5592255E+003
  3.6859346E+003
  3.8327032E+003
  4.0512953E+003
  4.2583760E+003
  4.5016091E+003
 -6.7632200E+003
 -5.0421656E+003
 -5.3247477E+003
 -5.3376728E+003
 -5.3710397E+003
 -5.3687396E+003
 -5.4391425E+003
 -5.5689280E+003
 -6.1941815E+003
 -6.7123468E+003  1.7778640E+003
  1.7641808E+00  4.6  2.8185813E+003
  2.9784550E+003
  3.0839730E+003
  3.2506491E+003
  3.3934249E+003
  3.5320350E+003
  3.6730717E+003
  3.8337073E+003
  4.0103774E+003
  4.1974119E+003
  4.3247344E+003
 -5.5540237E+003
 -5.5179621E+003
 -5.6578743E+003
 -5.7428201E+003
 -5.6856940E+003
 -5.6358005E+003
 -5.6530807E+003
 -5.8452822E+003
 -6.0978916E+003
 -7.1545911E+003
 -6.0020659E+003
  3.3988284E+003
  2.9285893E+003
  2.9283114E+003
  3.0722195E+003
  3.2178159E+003
  3.3644772E+003
  3.5069607E+003
  3.6530363E+003
  3.8062726E+003
  3.9683288E+003
  4.1179903E+003
  4.2623837E+003
  1.4432997E+003
  2.4289989E+002
 -3.7780415E+003
 -5.8433148E+003
 -6.2253505E+003
 -6.1645204E+003
 -6.0037303E+003
 -5.8461543E+003
 -5.7843351E+003
 -5.8866162E+003
 -6.1194973E+003
 -5.7208678E+003
 -4.4762438E+003
 -7.3646385E+002
  2.6100426E+002
  2.0502018E+003
  2.7968777E+003
  2.9363797E+003
  3.0701976E+003
  3.2059661E+003
  3.3441700E+003
  3.4834752E+003
  3.6253825E+003
  3.7709291E+003
  3.9181966E+003
  4.0583918E+003
  4.1969460E+003
  3.6484201E+002
 -4.0937173E+003
 -6.5457734E+003
 -6.7707195E+003
 -6.5745306E+003
 -6.2708197E+003
 -5.9677395E+003
 -5.7448483E+003
 -5.6706464E+003
 -5.7112050E+003
 -4.7516161E+003
 -8.9591281E+002
  1.4646007E+003
  2.2396544E+003
  2.7024097E+003
  2.9335516E+003
  3.0644830E+003
  3.1946514E+003
  3.3251603E+003
  3.4585085E+003
  3.5939329E+003
  3.7308313E+003
  3.8690773E+003
  4.0018162E+003
  4.1432388E+003
  2.2216418E+003
 -7.5504452E+003
 -7.6469958E+003
 -7.2771817E+003
 -6.9682276E+003
 -6.4877179E+003
 -6.0097202E+003
 -5.5843173E+003
 -5.2768447E+003
 -5.3002695E+003
 -6.8753548E+003
  1.1806131E+003
  1.9368323E+003
  2.2993387E+003
  2.6531198E+003
  2.8860556E+003
  3.0397847E+003
  3.1720116E+003
  3.3015643E+003
  3.4306501E+003
  3.5598347E+003
  3.6890109E+003
  3.8195975E+003
  3.9478363E+003
  4.0899281E+003
 -1.1438868E+004
 -8.3686881E+003
 -8.0432651E+003
 -7.3501703E+003
 -6.7039938E+003
 -6.0173271E+003
 -5.3532313E+003
 -4.9008053E+003
 -4.4152013E+003
 -6.5712738E+003
  2.3401763E+003
  2.4905858E+003
  2.6807289E+003
  2.8426349E+003
  3.0000029E+003
  3.1408490E+003
  3.2736428E+003
  3.4010899E+003
  3.5248460E+003
  3.6464066E+003
  3.7695204E+003
  3.8929168E+003
  4.0355442E+003
 -1.0551735E+004
 -9.9137453E+003
 -8.7360407E+003
 -7.8530652E+003
 -6.9235587E+003
 -6.0054127E+003
 -5.1439161E+003
 -4.3370743E+003
 -4.0070972E+003
 -2.7656692E+003
  2.5374477E+003
  2.7276750E+003
  2.6717974E+003
  2.8156278E+003
  2.9627667E+003
  3.1111078E+003
  3.2473982E+003
  3.3737358E+003
  3.4916479E+003
  3.6043026E+003
  3.7180313E+003
  3.8348127E+003
  3.9767368E+003
 -1.1837239E+004
 -1.0697959E+004
 -9.5903691E+003
 -8.3473930E+003
 -7.1486459E+003
 -5.9740697E+003
 -4.8495321E+003
 -3.8014918E+003
 -2.7006744E+003
 -1.3695506E+003
  3.6736458E+003
  2.5776772E+003
  2.6979854E+003
  2.7851879E+003
  2.9448475E+003
  3.0918597E+003
  3.2302729E+003
  3.3536367E+003
  3.4638671E+003
  3.5644588E+003
  3.6645793E+003
  3.7707436E+003
  3.9100610E+003
 -1.2858832E+004
 -1.1716191E+004
 -1.0333751E+004
 -8.8246671E+003
 -7.3154197E+003
 -5.8789428E+003
 -4.5025533E+003
 -3.1047713E+003
 -1.6549436E+003
  1.7665817E+002
  3.0648729E+003
  2.6575777E+003
  2.6569866E+003
  2.7944886E+003
  2.9409533E+003
  3.0899542E+003
  3.2262723E+003
  3.3454987E+003
  3.4456026E+003
  3.5295023E+003
  3.6088612E+003
  3.6966542E+003
  3.8296034E+003
 -1.4212588E+004
 -1.2781769E+004
 -1.1107499E+004
 -9.1834583E+003
 -7.3653962E+003
 -5.6850102E+003
 -4.1037630E+003
 -2.4351038E+003
 -6.8559179E+002
  1.5547111E+003
 -6.7572794E+002
  2.2031680E+002
  1.8255774E+003
  2.5180893E+003
  2.6604239E+003
  2.8041874E+003
  2.9527206E+003
  3.1005072E+003
  3.2365069E+003
  3.3522260E+003
  3.4415362E+003
  3.5038452E+003
  3.5515001E+003  8.7509019E+002
  1.0581565E+00 -1.1 -1.5512953E+004
 -1.4190029E+004
 -1.1763988E+004
 -9.3664727E+003
 -7.1938083E+003
 -5.3688097E+003
 -3.6738629E+003
 -1.9179271E+003
  2.7844000E+002
  2.6233878E+003
  1.2579151E+003
  1.9737978E+003
  2.4051542E+003
  2.6475277E+003
  2.8042439E+003
  2.9639081E+003
  3.1171854E+003
  3.2580129E+003
  3.3750537E+003
  3.4572534E+003
  3.4950866E+003
  3.4966255E+003
  3.4940492E+003
  3.5798396E+003
 -1.8545576E+004
 -1.5471328E+004
 -1.2383364E+004
 -9.0422247E+003
 -6.7703881E+003
 -4.9087944E+003
 -3.2597024E+003
 -1.4431941E+003
  4.5257131E+002
  4.8592129E+003
  1.6789199E+003
  1.9759343E+003
  2.3341866E+003
  2.5821452E+003
  2.7849901E+003
  2.9645068E+003
  3.1339250E+003
  3.2863412E+003
  3.4126646E+003
  3.4971957E+003
  3.5175692E+003
  3.4566812E+003
  3.3614826E+003
  3.3652571E+003
 -1.9451964E+004
 -1.8633184E+004
 -1.1350798E+004
 -8.3355799E+003
 -6.0715242E+003
 -4.3936681E+003
 -2.8244753E+003
 -1.1795049E+003
  8.4732717E+002
  4.2860922E+003
  1.8823105E+003
  2.1557249E+003
  2.2778843E+003
  2.5266944E+003
  2.7495377E+003
  2.9583883E+003
  3.1484172E+003
  3.3181431E+003
  3.4586852E+003
  3.5594728E+003
  3.5851144E+003
  3.4679182E+003
  3.1568687E+003
  2.9678936E+003
 -4.3245271E+004
 -1.3892287E+004
 -1.0395031E+004
 -7.0425797E+003
 -5.4223437E+003
 -3.8993842E+003
 -2.4913990E+003
 -9.8056103E+002
  7.1497912E+002
  1.8764779E+003
  9.8145727E+002
 -6.0224268E+002
  2.6578391E+003
  2.0316835E+003
  2.2659471E+003
  2.4749800E+003
  2.7228384E+003
  2.9513243E+003
  3.1640047E+003
  3.3521394E+003
  3.5087543E+003
  3.6216307E+003
  3.6910229E+003
  3.5977908E+003
  3.1536506E+003
  2.3258533E+003
 -3.1711030E+004
 -1.0365729E+004
 -8.3951664E+003
 -6.2074558E+003
 -4.8988112E+003
 -3.5784234E+003
 -2.2974044E+003
 -9.4163200E+002
  4.4163444E+002
  1.6382893E+003
  2.7708986E+003
  2.1716522E+003
  2.0669087E+003
  2.2092910E+003
  2.4546185E+003
  2.7038859E+003
  2.9512505E+003
  3.1838084E+003
  3.3930601E+003
  3.5649341E+003
  3.6848689E+003
  3.7490407E+003
  3.7744164E+003
  2.9464783E+003
  4.8361026E+002
  1.0606000E+004
 -9.2033875E+003
 -6.2957610E+003
 -5.9207977E+003
 -4.5579735E+003
 -3.4243255E+003
 -2.2319767E+003
 -1.0752806E+003
  7.2418782E+001
  1.0286400E+003
  3.3586367E+003
 -5.1658537E+002
  1.1266698E+002
  1.3057420E+003
  1.9396622E+003
  2.1788614E+003
  2.4338300E+003
  2.6944873E+003
  2.9559486E+003
  3.2094327E+003
  3.4463146E+003
  3.6454102E+003
  3.7830659E+003
  3.8226945E+003
  4.0042385E+003
  5.0260420E+003
 -1.0329504E+003
  8.3012229E+003
 -4.0924389E+003
 -5.9315656E+003
 -5.3539489E+003
 -4.3545484E+003
 -3.2811833E+003
 -2.2228620E+003
 -1.1995405E+003
 -2.4456512E+002
  8.0553991E+002
  2.0532774E+003
  7.5773821E+002
  1.4306822E+003
  1.8068597E+003
  2.1359775E+003
  2.4071039E+003
  2.6847226E+003
  2.9611970E+003
  3.2377127E+003
  3.5069048E+003
  3.7658823E+003
  3.9438186E+003
  4.0587949E+003
  3.8091281E+003
  5.6918189E+003
  9.0602622E+001
 -3.1413292E+003
 -4.8340330E+003
 -4.6882335E+003
 -3.9502737E+003
 -3.0649247E+003
 -2.1541774E+003
 -1.2721150E+003
  1.3619091E+003
  1.3015862E+003
  1.7237208E+003
  2.0611401E+003
  2.3758652E+003
  2.6699771E+003
  2.9638609E+003
  3.2605820E+003
  3.5669272E+003
  3.8773786E+003
  4.2104302E+003
  4.3610054E+003
  4.3204138E+003
  3.2333020E+003
 -1.4946941E+003
 -3.6154953E+003
 -3.6511879E+003
 -3.8102264E+003
 -3.3689269E+003
 -2.7316002E+003
 -2.0044274E+003
  1.1990922E+003
  1.3491498E+003
  1.6648329E+003
  2.0189722E+003
  2.3448881E+003
  2.6565101E+003
  2.9634938E+003
  3.2773223E+003
  3.6074251E+003
  3.9692177E+003
  4.3650039E+003
  4.8059585E+003
  3.9441341E+003
  7.7367885E+002
 -2.8814331E+002
  4.8225533E+001
  7.6079821E+002
  1.3041366E+003
  1.6568636E+003
  2.0018681E+003
  2.3310054E+003
  2.6491930E+003  6.5683765E+002
  6.0711044E+00  2.8  3.6381769E+003
  4.0335893E+003
  4.4840636E+003
  5.2346127E+003
  6.9291339E+003
 -1.4620626E+003
  3.3207382E+002
  8.3584191E+002
  1.2886710E+003
  1.6675065E+003
  2.0059513E+003
  2.3326004E+003
  2.6519214E+003
  2.9741879E+003
  3.3085500E+003
  3.6798121E+003
  4.0786079E+003
  4.6857603E+003
  5.1876621E+003
  8.4129842E+003
 -3.1647552E+002
 -1.3871223E+002
  3.5497744E+002
  8.7562093E+002
  1.3028206E+003
  1.6815404E+003
  2.0219114E+003
  2.3449412E+003
  2.6638080E+003
  2.9887335E+003
  3.3343851E+003
  3.7155317E+003
  4.1779278E+003
  4.7210246E+003
  5.7146709E+003
  6.0746877E+003
 -4.0680352E+002
 -3.0085255E+002
  7.1646325E+001
  5.4113269E+002
  9.5656876E+002
  1.3529025E+003
  1.7115343E+003
  2.0454126E+003
  2.3644662E+003
  2.6806227E+003
  3.0060657E+003
  3.3547334E+003
  3.7498343E+003
  4.2098832E+003
  4.8046425E+003
  5.3730728E+003
  5.9893592E+003
 -6.3203193E+002
 -4.1272242E+002
 -1.0168985E+002
  2.9599954E+002
  6.6684666E+002
  1.0539397E+003
  1.4146777E+003
  1.7547233E+003
  2.0763673E+003
  2.3879578E+003
  2.6986177E+003
  3.0190623E+003
  3.3632739E+003
  3.7478330E+003
  4.2005835E+003
  4.7083298E+003
  5.2512070E+003
  5.6755419E+003
 -6.5116988E+002
 -1.1263464E+003
 -1.8663497E+002
  1.3258290E+002
  4.7550428E+002
  8.1595503E+002
  1.1546486E+003
  1.4858208E+003
  1.8042560E+003
  2.1117131E+003
  2.4128497E+003
  2.7143990E+003
  3.0247454E+003
  3.3532775E+003
  3.7145982E+003
  4.1164128E+003
  4.6039787E+003
  5.0792017E+003
  5.6319724E+003
 -1.7333301E+002
 -3.1646007E+002
 -4.7010008E+001
  7.9893982E-001
  1.1032770E+002
  7.8291398E+001
  2.0347192E+002
  8.2895955E+002
 -1.6223397E+003
 -5.5081977E+002
 -4.8697126E+002
 -1.2790224E+003
  1.3008362E+001
  3.8805469E+002
 -4.3809518E+002
  2.9351551E+001
  3.2226598E+002
  6.3727680E+002
  9.4210831E+002
  1.2518665E+003
  1.5565816E+003
  1.8552112E+003
  2.1474720E+003
  2.4362938E+003
  2.7261527E+003
  3.0222196E+003
  3.3308521E+003
  3.6546378E+003
  4.0109715E+003
  4.3889365E+003
  5.0333628E+003
  5.3955581E+003
 -5.2596263E+002
 -6.0663884E+001
  1.9280937E+002
  2.8258444E+002
 -4.4456606E+002
 -7.9158551E+001
 -3.7448577E+002
 -8.1596965E+001
 -8.2658273E+001
 -1.8659119E+001
 -4.8070647E+001
 -4.5646887E+001
 -3.0926043E+000
 -6.6071215E+001
  1.2136626E+001
 -1.0454482E+002
  3.2737505E+001
 -1.0885190E+002
  3.6853873E+001
 -9.2410227E+001
  3.3196918E+001
 -8.2717110E+001
  1.3636851E+001
 -1.3735985E+002
 -1.2326360E+001
 -1.5538848E+002
 -2.1292366E+002
 -4.8413895E+002
 -1.7268946E+002
 -1.0429883E+002
  1.5301232E+002
  4.6877058E+002
  7.6046233E+002
  1.0499573E+003
  1.3369671E+003
  1.6217191E+003
  1.9026582E+003
  2.1800896E+003
  2.4557028E+003
  2.7321945E+003
  3.0132134E+003
  3.2994865E+003
  3.5975488E+003
  3.8808464E+003
  4.2414917E+003
  4.4481783E+003
  6.5148548E+003
 -3.5268361E+002
 -1.2375236E+002
  1.0541333E+002
  6.4005312E+001
 -2.4566636E+002
 -3.3559390E+002
 -9.1371039E+001
 -6.8039061E+001
 -7.9652119E+001
 -1.6617136E+002
 -1.9877842E+002
 -2.2691371E+002
 -2.0893378E+002
 -1.8617227E+002
 -2.2219208E+002
 -4.3121773E+002
 -4.1611274E+002
 -1.4019297E+002
  8.1808904E+001
  3.0701600E+002
  5.8024357E+002
  8.6172514E+002
  1.1370986E+003
  1.4089690E+003
  1.6776356E+003
  1.9434203E+003
  2.2067375E+003
  2.4687050E+003
  2.7311354E+003
  2.9957715E+003
  3.2649240E+003
  3.5340829E+003
  3.8089878E+003
  4.0222038E+003
  4.3203946E+003
  4.6567961E+003
 -3.6048734E+002
 -1.4791554E+002
  1.7628839E+001
  5.2891713E+001
  8.6022962E+000
 -9.5928840E+000
 -2.4316382E+001
 -7.8459015E+001
 -1.6078205E+002
 -1.7199101E+002
 -4.5679035E+002
 -5.0461726E+002
 -3.0631451E+002
 -2.7680651E+002
 -3.3632569E+002
 -3.1647814E+002
 -2.3972997E+002
 -7.1993318E+001
  1.6968419E+002
  4.2259994E+002
  6.8225599E+002  6.4465865E+002
  4.8265449E+00  2.5  1.4684894E+003
  1.7235162E+003
  1.9757499E+003
  2.2256530E+003
  2.4737683E+003
  2.7209277E+003
  2.9683272E+003
  3.2170478E+003
  3.4676912E+003
  3.7130474E+003
  3.9290759E+003
  3.9397176E+003
  2.6422934E+003
 -1.1553961E+002
 -1.2673525E+003
 -3.8027405E+002
 -1.9444107E+002
 -1.2910938E+001
  1.1288378E+002
  1.3872992E+002
  1.2247845E+002
  1.0740210E+002
 -8.6783452E+001
 -6.2391166E+001
 -1.4484952E+002
 -1.6483849E+002
 -6.0368637E+002
 -3.1839128E+002
 -4.4861449E+002
 -4.0826020E+002
 -3.0894728E+002
 -1.7433854E+002
  2.6031825E+001
  2.6162725E+002
  5.1519519E+002
  7.7052344E+002
  1.0229681E+003
  1.2718575E+003
  1.5171184E+003
  1.7593798E+003
  1.9991070E+003
  2.2362530E+003
  2.4704668E+003
  2.7013354E+003
  2.9287299E+003
  3.1526658E+003
  3.3737206E+003
  3.5852954E+003
  3.7690198E+003
  3.7469800E+003
  2.5628636E+003
 -8.5876418E+001
 -2.4828633E+002
 -4.1833200E-002
  1.9532283E+002
  2.5545793E+002
  3.0627835E+001
  6.9862535E+001
 -3.2166935E+002
 -8.6175106E+001
 -3.1937608E+001
 -2.8129318E+002
 -1.6132518E+003
 -3.7306603E+001
 -7.7194270E+002
 -4.5528536E+002
 -3.2715114E+002
 -1.3709898E+002
  8.9472694E+001
  3.4592428E+002
  6.0161928E+002
  8.4941541E+002
  1.0890356E+003
  1.3235928E+003
  1.5554088E+003
  1.7854178E+003
  2.0135736E+003
  2.2389706E+003
  2.4599712E+003
  2.6745229E+003
  2.8801710E+003
  3.0755692E+003
  3.2560753E+003
  3.4280232E+003
  3.5443182E+003
  3.7309342E+003
  4.1599565E+003
 -1.0702113E+003
 -1.3481643E+001
  2.9500193E+002
  4.0343023E+002
  1.6621914E+002
  2.9370728E+002
  3.4332383E+001
 -5.5992622E+002
  5.1143414E+002
 -1.4822480E+003
 -5.8976059E+002
 -4.2761044E+002
 -1.5341648E+002
  1.3754426E+002
  4.2535495E+002
  6.8575273E+002
  9.2180055E+002
  1.1452660E+003
  1.3645678E+003
  1.5830069E+003
  1.8015452E+003
  2.0194675E+003
  2.2348381E+003
  2.4446485E+003
  2.6447645E+003
  2.8309243E+003
  2.9970250E+003
  3.1458560E+003
  3.2580202E+003
  3.4331728E+003
  3.5007641E+003
  5.3182839E+003
  9.9314549E+002
  1.1061937E+002
 -8.7666895E+002
 -7.3366530E+002
 -5.6615023E+002
 -2.0675187E+002
  1.8171622E+002
  5.1748413E+002
  7.7019631E+002
  9.8494072E+002
  1.1897119E+003
  1.3932642E+003
  1.5991125E+003
  1.8075074E+003
  2.0170507E+003
  2.2249172E+003
  2.4268240E+003
  2.6170365E+003
  2.7883877E+003
  2.9346813E+003
  3.0504479E+003
  3.1548219E+003
  3.2607899E+003
  3.6388842E+003
  3.8115618E+003
 -9.3307676E+002
 -7.4306323E+002
 -2.5196911E+002
  3.0163683E+002
  6.3430983E+002
  8.4440351E+002
  1.0343422E+003
  1.2194301E+003
  1.4085637E+003
  1.6032587E+003
  1.8031968E+003
  2.0064327E+003
  2.2096459E+003
  2.4078109E+003
  2.5937995E+003
  2.7585683E+003
  2.8918746E+003
  2.9891269E+003
  3.0536408E+003
  3.1456922E+003
  3.2461952E+003
  3.4900088E+003
 -7.9306842E+002
 -4.9374334E+002
  5.3460383E+002
  7.1695364E+002
  9.0397556E+002
  1.0651841E+003
  1.2346594E+003
  1.4109630E+003
  1.5961811E+003
  1.7890264E+003
  1.9876076E+003
  2.1886261E+003
  2.3869296E+003
  2.5747411E+003
  2.7409005E+003
  2.8712770E+003
  2.9505504E+003
  2.9734412E+003
  2.9423998E+003
  2.9146033E+003
  2.9381733E+003
  8.4645602E+002
  6.7682287E+002
  8.1686015E+002
  9.4299311E+002
  1.0862699E+003
  1.2389302E+003
  1.4039587E+003
  1.5800718E+003
  1.7662365E+003
  1.9606715E+003
  2.1607216E+003
  2.3618588E+003
  2.5562225E+003
  2.7314034E+003
  2.8682509E+003
  2.9393785E+003
  2.9119426E+003
  2.7692541E+003
  2.5219408E+003
  2.3394620E+003
  1.6932312E+003
  9.0981285E+002
  9.2422346E+002
  9.9159145E+002
  1.1061340E+003
  1.2403833E+003
  1.3924468E+003
  1.5584945E+003
  1.7369055E+003
  1.9261764E+003
  2.1246669E+003
  2.3292996E+003
  2.5333634E+003
  2.7227985E+003
  2.8761100E+003
  2.9557059E+003
  2.8917096E+003
  2.5980441E+003
  2.140918 -1.8672674E+003
 -2.0922111E+003
 -1  1.7  3.1116244E+002
  1.3107723E+003
  1.1645175E+003
  1.0421611E+003
  1.0554385E+003
  1.1322185E+003
  1.2450612E+003
  1.3814911E+003
  1.5354337E+003
  1.7039095E+003
  1.8855851E+003
  2.0799672E+003
  2.2862715E+003
  2.5009137E+003
  2.7112143E+003
  2.8848914E+003
  2.9882592E+003
  2.9638268E+003
  2.6215729E+003
  1.7374844E+003
  3.4513159E+002
  2.2496063E+003
  1.4031462E+003
  1.2926289E+003
  1.1429465E+003
  1.1180417E+003
  1.1639206E+003
  1.2552217E+003
  1.3747593E+003
  1.5146472E+003
  1.6707805E+003
  1.8417667E+003
  2.0280743E+003
  2.2316423E+003
  2.4542103E+003
  2.6922720E+003
  2.9137548E+003
  3.0169244E+003
  2.9710147E+003
  2.3959197E+003
  1.1637223E+003
  1.6757515E+002
  2.8331803E+003
  1.5201020E+003
  1.3113898E+003
  1.1939834E+003
  1.1678339E+003
  1.1969633E+003
  1.2710296E+003
  1.3743439E+003
  1.4993338E+003
  1.6414720E+003
  1.7992064E+003
  1.9735149E+003
  2.1682234E+003
  2.3917100E+003
  2.6534092E+003
  2.9654521E+003
  3.2164095E+003
  3.2460963E+003
  4.0967456E+003
  7.3919046E+000
 -6.0006128E+002
  1.6331505E+003
  1.5077816E+003
  1.5804466E+003
  1.3152968E+003
  1.2351854E+003
  1.2069755E+003
  1.2316294E+003
  1.2922451E+003
  1.3813532E+003
  1.4918254E+003
  1.6197626E+003
  1.7634574E+003
  1.9237257E+003
  2.1053828E+003
  2.3189290E+003
  2.5918550E+003
  2.9569685E+003
  3.5040550E+003
  3.1058118E+003
  2.1882977E+003
  2.7665394E+003
  1.6861128E+003
  1.4832837E+003
  1.3537720E+003
  1.2706680E+003
  1.2497941E+003
  1.2682048E+003
  1.3191516E+003
  1.3956810E+003
  1.4931269E+003
  1.6081530E+003
  1.7392669E+003
  1.8869607E+003
  2.0559516E+003
  2.2560879E+003
  2.5243079E+003
  2.9163244E+003
  3.7883637E+003
  5.9785935E+003
 -1.2945155E+003
  4.6686762E+002
  1.4632205E+003
  1.4671834E+003
  1.5366256E+003
  1.4221555E+003
  1.3621498E+003
  1.3111561E+003
  1.2932675E+003
  1.3078090E+003
  1.3500201E+003
  1.4159155E+003
  1.5021850E+003
  1.6066203E+003
  1.7279763E+003
  1.8678797E+003
  2.0270566E+003
  2.2278192E+003
  2.4536738E+003
  2.9462805E+003
  3.3294703E+003
  7.2472418E+003
  2.6899335E+002
  1.7007991E+002
  1.2219409E+003
  1.4887283E+003
  1.5205046E+003
  1.4410672E+003
  1.3828715E+003
  1.3486518E+003
  1.3355126E+003
  1.3468135E+003
  1.3818700E+003
  1.4387700E+003
  1.5157849E+003
  1.6117166E+003
  1.7265009E+003
  1.8610481E+003
  2.0208737E+003
  2.2087085E+003
  2.4666189E+003
  2.7582004E+003
  3.5363159E+003
  3.6534521E+003
  6.9140295E+002
  1.1293509E+003
  1.3550317E+003
  1.4338243E+003
  1.4352859E+003
  1.4043009E+003
  1.3798414E+003
  1.3711413E+003
  1.3807986E+003
  1.4103251E+003
  1.4597917E+003
  1.5289008E+003
  1.6175882E+003
  1.7264153E+003
  1.8572098E+003
  2.0128480E+003
  2.1998525E+003
  2.4164439E+003
  2.6720577E+003
  2.7653255E+003
  1.9375169E+003
  3.8077176E+001
 -9.6659809E+002
  6.5487474E+002
  1.0142772E+003
  1.2612877E+003
  1.3723437E+003
  1.4062022E+003
  1.4069027E+003
  1.3983988E+003
  1.3956840E+003
  1.4054842E+003
  1.4310611E+003
  1.4742391E+003
  1.5360471E+003
  1.6172698E+003
  1.7188178E+003
  1.8418807E+003
  1.9877726E+003
  2.1550865E+003
  2.3327309E+003
  2.4595727E+003
  2.3357959E+003
  1.7465449E+003
  8.5780274E+002
  6.6778006E+002
  9.5576320E+002
  1.1693154E+003
  1.3024198E+003
  1.3679940E+003
  1.3935774E+003
  1.4017767E+003
  1.4069702E+003
  1.4181696E+003
  1.4407778E+003
  1.4781722E+003
  1.5325213E+003
  1.6051440E+003
  1.6966469E+003
  1.8068220E+003
  1.9335245E+003
  2.0701914E+003
  2.1939088E+003
  2.2501552E+003
  2.0835509E+003
  1.5596226E+003
  8.5106700E+002
  6.6457320E+002
  9.1274591E+002
  1.1098342E+003
  1.2455012E+003
  1.3278596E+003
  1.3718129E+003
  1.3933838E+003
  1.4056618E+003
  1.4181808E+003
  1.4377342E+003
  1.4690705E+003
  1.5153161E+003
  1.578084 -8.0465551E+002
 -7.7798774E+00 -4.1159741  1.8538043E+003
  1.9552298E+003
  2.0351934E+003
  2.0592168E+003
  1.9908687E+003
  1.4335243E+003
  1.5409857E+002
  6.7969288E+002
  8.9351068E+002
  1.0711482E+003
  1.2042175E+003
  1.2937734E+003
  1.3481298E+003
  1.3781555E+003
  1.3945343E+003
  1.4065212E+003
  1.4216789E+003
  1.4458751E+003
  1.4831567E+003
  1.5354439E+003
  1.6021447E+003
  1.6795484E+003
  1.7606374E+003
  1.8333627E+003
  1.8878581E+003
  1.9077064E+003
  1.9798393E+003
  2.3599794E+003
 -5.1250053E+002
  7.0338561E+002
  8.9137539E+002
  1.0526241E+003
  1.1790913E+003
  1.2694943E+003
  1.3276879E+003
  1.3607288E+003
  1.3770267E+003
  1.3852004E+003
  1.3933673E+003
  1.4085303E+003
  1.4358454E+003
  1.4778817E+003
  1.5338434E+003
  1.5994865E+003
  1.6659119E+003
  1.7259011E+003
  1.7613353E+003
  1.8257544E+003
  1.8312065E+003
  2.7628552E+003
  9.0316516E+002
  1.0502760E+003
  1.1691418E+003
  1.2566865E+003
  1.3139163E+003
  1.3450310E+003
  1.3565568E+003
  1.3565894E+003
  1.3539885E+003
  1.3572800E+003
  1.3733133E+003
  1.4058114E+003
  1.4544643E+003
  1.5145158E+003
  1.5779568E+003
  1.6334184E+003
  1.6809820E+003
  1.7142808E+003
  1.8776405E+003
  1.8261986E+003
  1.0613735E+003
  1.1730276E+003
  1.2560648E+003
  1.3092446E+003
  1.3343937E+003
  1.3364053E+003
  1.3231103E+003
  1.3046587E+003
  1.2920573E+003
  1.2947501E+003
  1.3184525E+003
  1.3635422E+003
  1.4251196E+003
  1.4941319E+003
  1.5596364E+003
  1.6075695E+003
  1.6436151E+003
  1.6374255E+003
  1.6366797E+003
  1.1893580E+003
  1.2679254E+003
  1.3156679E+003
  1.3319801E+003
  1.3199463E+003
  1.2872917E+003
  1.2463185E+003
  1.2118569E+003
  1.1980166E+003
  1.2133482E+003
  1.2588412E+003
  1.3281863E+003
  1.4102636E+003
  1.4919788E+003
  1.5533542E+003
  1.5511755E+003
  1.4532190E+003
  1.3208799E+003
  1.2922818E+003
  1.3350208E+003
  1.3411738E+003
  1.3111639E+003
  1.2520553E+003
  1.1792243E+003
  1.1147942E+003
  1.0793162E+003
  1.0865769E+003
  1.1374131E+003
  1.2213442E+003
  1.3222117E+003
  1.4221143E+003
  1.5082847E+003
  1.5197741E+003
  1.3610879E+003
  9.9353554E+002
  1.3687522E+003
  1.3658277E+003
  1.3152162E+003
  1.2218046E+003
  1.1050652E+003
  9.9583913E+002
  9.3186606E+002
  9.3255854E+002
  9.9709008E+002
  1.1061761E+003
  1.2329310E+003
  1.3527406E+003
  1.4498069E+003
  1.5172504E+003
  1.2183888E+003
  2.0768816E+002
  1.4171842E+003
  1.4095839E+003
  1.3395137E+003
  1.2027269E+003
  1.0205917E+003
  8.5224432E+002
  7.4656803E+002
  7.4432135E+002
  8.3739120E+002
  9.8930448E+002
  1.1558483E+003
  1.3036599E+003
  1.4074346E+003
  1.5501710E+003
  2.0154346E+003
 -4.0535075E+002
  1.4743100E+003
  1.3924449E+003
  1.2097191E+003
  9.4508101E+002
  6.5780840E+002
  5.0085328E+002
  5.1139140E+002
  6.6251826E+002
  8.8081734E+002
  1.1084052E+003
  1.2928423E+003
  1.4401124E+003
  1.4329588E+003
  2.2494987E+003
  1.4840700E+003
  1.2549169E+003
  8.2648656E+002
  4.4835441E+002
  1.8560721E+002
  2.3201679E+002
  4.8674789E+002
  8.0068031E+002
  1.0877710E+003
  1.3412974E+003
  1.5056228E+003
  1.5949792E+003
  1.2843378E+003
  1.4126040E+003
  8.9774453E+002
  7.1796455E-001
 -3.2419488E+002
 -9.3658457E+001
  3.5854920E+002
  7.6714728E+002
  1.1039254E+003
  1.3733216E+003
  1.6208882E+003
  1.4338402E+003
  3.3549693E+002
  2.9095561E+002
  9.2977112E+001
 -7.8219120E+002
 -2.8000824E+002
  3.1000919E+002
  7.7964261E+002
  1.1553443E+003
  1.4355998E+003
  1.6767653E+003
  2.4532800E+003
 -4.6190083E+002
  2.2518495E+002
 -9.5407252E+000
 -2.4833009E+003
 -4.7472457E+002
  2.7526427E+002
  7.9935692E+002
  1.2171576E+003
  1.5954272E+003
  1.6964528E+003
  2.5979910E+003
 -2.2988935E+003
 -4.5872660E+002
  2.1843604E+002
  8.0511943E+002
  1.2487225E+003
  1.6843044E+003
  1.8258026E+003
  4.6771410E+002
 -1.3179717E+003
 -5.592940 -3.0041270E+002
 -3.6293607E+00 -1.6838457  1.2688073E+003
  1.7541019E+003
  3.0179176E+003
 -4.2956673E+002
 -7.8299270E+002
 -2.5342669E+002
  2.8601795E+002
  8.3401710E+002
  1.3873536E+003
  1.6748038E+003
  3.0212736E+003
  1.9187483E+002
 -8.7918002E+001
 -1.6420266E+002
 -1.7058050E+001
  3.9375523E+002
  8.7253996E+002
  1.4144026E+003
  1.7786578E+003
  5.3754284E+002
 -1.3965125E+002
  1.3830167E+001
  1.9479072E+002
  4.9779034E+002
  8.9699142E+002
  1.4754420E+003
  2.7893625E+003
 -3.3324377E+002
  9.5808591E+002
  1.2572739E+003
  2.7195223E+003
SCALARS Stress_yy double
LOOKUP_TABLE default
 -3.1503334E+003
 -1.3448669E+003
 -4.1777770E+003
  6.9287059E+001
 -1.4601014E+003
 -1.2078926E+003
 -1.8116267E+003
 -1.3797844E+003
 -1.2858446E+003
  5.5723002E+002
  1.0149712E+003
  9.7325239E+002
  1.8146595E+003
 -2.0165686E+003
 -4.3921553E+002
 -2.2398898E+003
 -1.1328748E+003
 -1.1573145E+003
 -9.2380430E+002
 -7.9767048E+002
 -7.1025521E+002
  1.2111923E+003
  1.5305451E+003
  1.8222725E+003
  1.8435521E+003
  1.7313793E+003
  1.7439051E+003
  2.6683438E+003
  2.1454746E+003
  3.0633510E+003
  2.5409760E+003
  8.1104282E+002
  5.0623299E+003
 -8.8987348E+002
  7.3713293E+001
 -9.7583844E+002
 -7.7041726E+002
 -1.2892895E+003
 -9.0315424E+002
 -8.4819338E+002
 -7.3961721E+002
 -5.8379434E+002
 -4.5690738E+002
 -3.4876385E+002
 -2.6113635E+002
  1.4693217E+003
  1.6884521E+003
  1.9356490E+003
  2.0981139E+003
  2.0476049E+003
  1.8648745E+003
  1.7968553E+003
  2.1041592E+003
  2.5222279E+003
  2.9959334E+003
  2.9703921E+003
  6.0633385E+003
  3.2946194E+003
  4.0172489E+003
  2.8325501E+003
  3.4058832E+003
  2.5065819E+003
  2.4351367E+003
  2.1501583E+003
  6.1431576E+002
  1.5963215E+003
  2.8771474E+002
 -3.4559373E+002
 -1.1878577E+003
 -5.9807581E+002
 -6.3344348E+002
 -5.0649381E+002
 -4.2797348E+002
 -3.6571972E+002
 -2.5929476E+002
 -1.4429967E+002
 -4.6080222E+001
  3.5257909E+001
  9.4418024E+001
  1.5590453E+003
  1.7054246E+003
  1.8789987E+003
  2.0288278E+003
  2.0790248E+003
  1.9949807E+003
  1.8458112E+003
  1.7725923E+003
  1.8382861E+003
  1.9596431E+003
  2.0962274E+003
  2.3119268E+003
  2.3807453E+003
  2.5100072E+003
  2.5221090E+003
  2.8021458E+003
  2.8477372E+003
  5.8626686E+003
 -1.4498836E+002
 -1.0095558E+002
  1.1581241E+002
 -4.9129558E+001
 -7.3089989E+002
 -2.2247059E+002
 -2.8911948E+002
 -2.7282403E+002
 -2.1050940E+002
 -1.4036799E+002
 -5.9915452E+001
  2.8739862E+001
  1.2865655E+002
  2.2514148E+002
  3.0568511E+002
  3.6372045E+002
  3.9121379E+002
  1.5447511E+003
  1.6400681E+003
  1.7599568E+003
  1.8780743E+003
  1.9541577E+003
  1.9500210E+003
  1.8576856E+003
  1.7197468E+003
  1.6039322E+003
  1.5453976E+003
  1.5432812E+003
  1.5992958E+003
  1.6936739E+003
  1.8760622E+003
  2.0605520E+003
  2.2809254E+003
  2.5737080E+003
  2.8366600E+003
  3.1158108E+003
  2.9011360E+003
  6.5173517E+003
  3.2017174E+003
  3.7384499E+003
  2.5377298E+003
  3.2928157E+003
  2.1286114E+003
  2.6381407E+003
  1.6901526E+003
  2.1630769E+003
  1.2678905E+003
  1.6644518E+003
  8.5520486E+002
  1.1276581E+003
  5.6924675E+002
  2.7074702E+002
  1.1807434E+002
  4.5199311E+001
  6.3914549E+000
  3.1733574E+001
  9.0508014E+001
  1.6568385E+002
  2.5632043E+002
  3.5684546E+002
  4.5861407E+002
  5.5224656E+002
  6.2387463E+002
  6.6433381E+002
  6.5553185E+002
  6.0589549E+002
  1.4349456E+003
  1.4982821E+003
  1.5864087E+003
  1.6811916E+003
  1.7567647E+003
  1.7858034E+003
  1.7484927E+003
  1.6463549E+003
  1.5062195E+003
  1.3660270E+003
  1.2574460E+003
  1.1982307E+003
  1.2001304E+003
  1.2762264E+003
  1.4046726E+003
  1.5807201E+003
  1.7640646E+003
  1.9120450E+003
  1.9291053E+003
  1.9307592E+003
  2.0244355E+003
  1.9226541E+003
  1.8294272E+003
  1.5432306E+003
  1.2582775E+003
  9.7237342E+002
  7.2738490E+002
  5.1469213E+002
  3.8453610E+002 -1.7339442E+001
  1.3839559E+00 -2.8  1.8753656E+002
  2.0165210E+002
  2.5040695E+002
  3.2432652E+002
  4.1743460E+002
  5.2638863E+002
  6.4556543E+002
  7.6126447E+002
  8.7390216E+002
  9.5247623E+002
  9.7630405E+002
  8.9396324E+002
  7.7649460E+002
  1.1925753E+003
  1.2553472E+003
  1.3389692E+003
  1.4328148E+003
  1.5133733E+003
  1.5621696E+003
  1.5619907E+003
  1.5039663E+003
  1.3926380E+003
  1.2468007E+003
  1.0938170E+003
  9.6048789E+002
  8.6870230E+002
  8.3376321E+002
  8.5937049E+002
  9.4105829E+002
  1.0500326E+003
  1.1517609E+003
  1.1965994E+003
  1.1849990E+003
  1.1535885E+003
  1.1197746E+003
  1.1397104E+003
  1.0771360E+003
  9.6950105E+002
  8.1249337E+002
  6.5663475E+002
  5.2031633E+002
  4.2063172E+002
  3.4295660E+002
  2.9424000E+002
  2.6764549E+002
  2.6441556E+002
  2.8886632E+002
  3.3877109E+002
  4.1201348E+002
  5.0684828E+002
  6.2395118E+002
  7.6283496E+002
  9.2148863E+002
  1.0673793E+003
  1.2724699E+003
  1.3692641E+003
  1.3338329E+003
  1.1266610E+003
  9.3094215E+002
  8.8365630E+002
  8.5102589E+002
  8.1156876E+002
  7.6996920E+002
  7.5968650E+002
  7.1791401E+002
  8.8651090E+002
  3.0938796E+002
  4.3953064E+002
  7.0438229E+002
  8.5284257E+002
  9.7929463E+002
  1.1111642E+003
  1.2192850E+003
  1.2956908E+003
  1.3282299E+003
  1.3089971E+003
  1.2356212E+003
  1.1146404E+003
  9.6161539E+002
  7.9806733E+002
  6.4706955E+002
  5.2895671E+002
  4.5794360E+002
  4.3898648E+002
  4.6249832E+002
  5.0771016E+002
  5.4306874E+002
  5.4741648E+002
  5.1867724E+002
  4.8486638E+002
  4.7509865E+002
  4.6899623E+002
  4.6588957E+002
  4.3304170E+002
  3.8134399E+002
  3.2298466E+002
  2.7547114E+002
  2.4378255E+002
  2.3091479E+002
  2.2995911E+002
  2.4070228E+002
  2.6467378E+002
  3.0349418E+002
  3.5884632E+002
  4.3106121E+002
  5.2148401E+002
  6.3375243E+002
  7.7852780E+002
  9.7155288E+002
  1.2089890E+003
  1.4756390E+003
  1.9900650E+003
  1.8289123E+003
  1.5880731E+003
  1.2760667E+003
  1.1739261E+003
  1.0311010E+003
  8.9765239E+002
  8.0594060E+002
  7.1913963E+002
  6.5459069E+002
  4.4955977E+002
  2.6655348E+002
  4.0075098E+001
 -9.9513152E+001
  6.4795306E+001
  2.3725634E+002
  4.8064883E+002
  6.9805966E+002
  8.6714415E+002
  9.8945293E+002
  1.0618030E+003
  1.0815356E+003
  1.0467216E+003
  9.5933974E+002
  8.2705294E+002
  6.6350076E+002
  4.8672106E+002
  3.1633547E+002
  1.7053261E+002
  6.2845578E+001
 -1.3650035E+000
 -2.7736535E+001
 -3.3375147E+001
 -3.9708268E+001
 -6.1681429E+001
 -9.3939966E+001
 -1.2110704E+002
 -1.2751616E+002
 -1.0751861E+002
 -7.9947786E+001
 -5.3641067E+001
 -3.5148285E+001
 -1.8079507E+001
  4.0689199E+000
  3.5094956E+001
  7.2841331E+001
  1.1533669E+002
  1.6064516E+002
  2.0922123E+002
  2.6294455E+002
  3.2318086E+002
  3.9138580E+002
  4.6712606E+002
  5.5841523E+002
  6.5231727E+002
  8.4425333E+002
  9.5599020E+002
  2.0287615E+003
  2.1614580E+003
  2.8282723E+003
  3.9412825E+003
  1.6952886E+003
  1.4088126E+003
  1.0391215E+003
  8.9836402E+002
  7.5851229E+002
  6.3736272E+002
  4.8525463E+002
  3.0596968E+002
  1.2135994E+002
  1.2090603E+001
 -3.0390687E+002
 -1.3718939E+001
 -1.2654278E+002
  2.6103827E+002
  4.7891863E+002
  6.6222860E+002
  7.7782251E+002
  8.3825940E+002
  8.4171485E+002
  7.9013080E+002
  6.8708871E+002
  5.4040787E+002
  3.6210868E+002
  1.6746866E+002
 -2.6878069E+001
 -2.0488836E+002
 -3.5283142E+002
 -4.6221474E+002
 -5.3284725E+002
 -5.7761046E+002
 -6.1418066E+002
 -6.5294785E+002
 -6.9410264E+002
 -7.1330004E+002
 -6.9931643E+002
 -6.5208284E+002
 -5.8252525E+002
 -5.0795657E+002
 -4.3216601E+002
 -3.5520191E+002
 -2.7422663E+002
 -1.8967323E+002
 -1.0521399E+002
 -2.4707557E+001
  5.0204279E+001
  1.2000918E+002
  1.8607943E+002
  2.4950455E+002
  3.1062428E+002
  3.6728080E+002
  4.1953156E+002
  4.4700062E+002
  4.7314949E+002
  2.1951774E+002  2.4898552E+002
  2.2632433E+00 -1.2  4.3291683E+002
  1.0605519E+003
  8.5381859E+002
  7.8384402E+002
  6.5573308E+002
  5.2306708E+002
  3.7182877E+002
  2.0423958E+002
  9.0087291E+001
 -2.2794630E+001
 -1.2012084E+003
 -2.7994349E+002
 -7.0830102E+001
  2.0009378E+002
  3.7489810E+002
  5.1772055E+002
  6.0462190E+002
  6.3972747E+002
  6.2075322E+002
  5.4892107E+002
  4.2741887E+002
  2.6300924E+002
  6.5983352E+001
 -1.5073368E+002
 -3.7329631E+002
 -5.8859754E+002
 -7.8370737E+002
 -9.4408548E+002
 -1.0622282E+003
 -1.1398242E+003
 -1.2022823E+003
 -1.2700911E+003
 -1.3143914E+003
 -1.3305300E+003
 -1.2849840E+003
 -1.1895684E+003
 -1.0694209E+003
 -9.3790139E+002
 -8.1028314E+002
 -6.7960939E+002
 -5.4381921E+002
 -4.0925751E+002
 -2.8280829E+002
 -1.6969139E+002
 -7.0521609E+001
  1.6057053E+001
  9.1694256E+001
  1.5716092E+002
  2.1123578E+002
  2.5231621E+002
  2.6951709E+002
  2.6642833E+002
  1.5894896E+002
  1.3045077E+002
  1.1899220E+002
  4.7440310E+001
  2.8157864E+002
  4.4071888E+002
  6.3924582E+002
  6.0255991E+002
  5.2926923E+002
  4.1129519E+002
  2.8004518E+002
  1.4760915E+002
  6.2764309E+001
 -2.6310188E+001
 -3.4519679E+002
  6.8259107E+002
  1.8887050E+002
  3.2255747E+002
  2.2185199E+002
  2.6421301E+002
  3.5451133E+002
  4.2650315E+002
  4.6878888E+002
  4.6879246E+002
  4.2238392E+002
  3.2748864E+002
  1.8542306E+002
  9.5192899E-001
 -2.1741668E+002
 -4.5832209E+002
 -7.1030668E+002
 -9.6409517E+002
 -1.2132069E+003
 -1.4440150E+003
 -1.6214473E+003
 -1.7495795E+003
 -1.8463030E+003
 -1.9192266E+003
 -2.0201582E+003
 -2.0059320E+003
 -1.9124140E+003
 -1.7443071E+003
 -1.5386277E+003
 -1.3551932E+003
 -1.1667512E+003
 -9.7824764E+002
 -7.8719940E+002
 -6.0234417E+002
 -4.4008805E+002
 -3.0178500E+002
 -1.8488368E+002
 -8.6157608E+001
 -3.4078310E+000
  6.3915795E+001
  1.1470952E+002
  1.4459837E+002
  1.5444962E+002
  1.2664403E+002
  1.1746698E+002
  7.0068871E+001
  1.3402686E+001
  1.1923617E+002
  3.1289041E+002
  4.2983163E+002
  4.6390803E+002
  4.0257399E+002
  3.0966537E+002
  2.0470057E+002
  1.0337540E+002
  4.7168102E+001
 -3.0915326E+001
  1.3266790E+002
  1.3681635E+002
  3.2448499E+002
  3.4309045E+002
  3.3816122E+002
  3.4721402E+002
  3.6088631E+002
  3.5462513E+002
  3.1830947E+002
  2.4338828E+002
  1.2538928E+002
 -3.7164054E+001
 -2.4190683E+002
 -4.8223379E+002
 -7.4725690E+002
 -1.0242424E+003
 -1.3086744E+003
 -1.6047530E+003
 -1.9216635E+003
 -2.2343657E+003
 -2.4157527E+003
 -2.5841246E+003
 -2.8172476E+003
 -2.8158512E+003
 -2.8091677E+003
 -2.5931086E+003
 -2.3173291E+003
 -2.0579841E+003
 -1.7409383E+003
 -1.4886711E+003
 -1.2355995E+003
 -9.6932461E+002
 -7.4415995E+002
 -5.5970626E+002
 -4.0765352E+002
 -2.8009975E+002
 -1.7335185E+002
 -8.5680585E+001
 -1.5973719E+001
  3.3843861E+001
  6.4011255E+001
  7.1016644E+001
  5.9013256E+001
  4.4408149E+001
  3.7408458E+001
  1.8467829E+002
  2.9127992E+002
  3.9361541E+002
  3.5412991E+002
  2.9805988E+002
  2.1609362E+002
  1.3646855E+002
  6.4827047E+001
  3.2093672E+001
 -3.1989854E+001
  9.1399373E+001
  1.1292653E+002
  2.4926350E+002
  3.2338649E+002
  3.3486266E+002
  3.1787924E+002
  2.8817587E+002
  2.4373758E+002
  1.7571278E+002
  7.6041682E+001
 -6.1911350E+001
 -2.4187568E+002
 -4.6427887E+002
 -7.2460774E+002
 -1.0121390E+003
 -1.3099996E+003
 -1.5998260E+003
 -1.9085474E+003
 -2.2756518E+003
 -2.7511899E+003
 -3.2623177E+003
 -3.7187592E+003
 -3.6348148E+003
 -4.0883022E+003
 -3.5324385E+003
 -3.2581202E+003
 -3.0220890E+003
 -2.4839523E+003
 -2.2143300E+003
 -1.7422112E+003
 -1.3538590E+003
 -1.0423074E+003
 -8.1642211E+002
 -6.3624383E+002
 -4.8170803E+002
 -3.4778118E+002
 -2.3422762E+002
 -1.4204702E+002
 -7.1276760E+001
 -2.2462243E+001
  8.4847159E+000
  8.4235977E+000
  1.4779039E+001
  3.4038046E+002
  1.7574944E+002
  5.4049583E+002
  3.2649991E+002
  2.7999917E+002  7.7054601E+002
  7.8905540E+00  2.5  6.7548906E+001
  2.4815979E+001
  1.6279756E+001
 -3.2738656E+001
  6.1703177E+001
  7.7688421E+001
  2.0325520E+002
  2.7540571E+002
  2.8569629E+002
  2.4907919E+002
  1.9154663E+002
  1.1922693E+002
  2.8153823E+001
 -8.9935337E+001
 -2.4235980E+002
 -4.3440157E+002
 -6.6820765E+002
 -9.4301296E+002
 -1.2492301E+003
 -1.5663929E+003
 -1.8576660E+003
 -2.0999348E+003
 -2.3629472E+003
 -2.9610010E+003
 -3.0757462E+003
 -6.3994168E+003
 -7.1874591E+003
 -4.4207594E+003
 -4.2377588E+003
 -3.8615345E+003
 -3.5419723E+003
 -4.0239647E+003
 -2.8064699E+003
 -1.3627669E+003
 -1.2262463E+003
 -9.7593408E+002
 -8.4198062E+002
 -6.8074421E+002
 -5.2775238E+002
 -3.8424033E+002
 -2.5974725E+002
 -1.6129695E+002
 -8.7819437E+001
 -5.4704139E+001
 -3.9760974E+001
  1.6596669E+003
  5.3078860E+002
  4.0961138E+002
  2.3519874E+002
  1.6916774E+002
  9.2846836E+001
  3.2204912E+001
 -8.1869100E+000
 -2.2946254E+001
 -4.5702513E+000
 -3.6417655E+001
  1.0131322E+002
  8.6751734E+001
  2.0037058E+002
  2.3749901E+002
  2.0747827E+002
  1.4088019E+002
  6.0008599E+001
 -3.0246500E+001
 -1.3571149E+002
 -2.6533852E+002
 -4.2750926E+002
 -6.2584838E+002
 -8.6316050E+002
 -1.1401449E+003
 -1.4537538E+003
 -1.7843705E+003
 -2.1021887E+003
 -2.2980310E+003
 -2.4561520E+003
 -2.1787902E+003
 -2.1258300E+003
  1.7909002E+002
  6.8265591E+002
 -1.6117881E+002
 -9.0374674E+002
 -9.8172727E+002
 -9.0308895E+002
 -7.3658695E+002
 -5.5480154E+002
 -3.8151864E+002
 -2.3246944E+002
 -1.1814620E+002
 -2.6713236E+001
 -2.4726018E+000
  5.2133162E+002
 -8.7577962E+002
 -1.7035306E+002
 -2.1945742E+002
  2.8035529E+001
  7.9189769E+001
  4.2398448E+001
 -7.4019266E+000
 -6.2623808E+001
 -9.3593836E+001
 -8.5748222E+001
 -3.1647754E+001
 -4.3337310E+001
  1.4986341E+002
  8.6606185E+001
  2.2527869E+002
  1.7626044E+002
  8.4678612E+001
 -1.5702551E+001
 -1.1132414E+002
 -2.1240225E+002
 -3.2420801E+002
 -4.5956122E+002
 -6.3073696E+002
 -8.3902944E+002
 -1.0724683E+003
 -1.3325209E+003
 -1.6405770E+003
 -1.8950946E+003
 -2.2936729E+003
 -2.2517838E+003
 -3.9946332E+003
 -2.2522770E+003
  6.9728493E+001
 -1.2832338E+002
 -3.5282337E+001
 -1.6950322E+002
 -8.2410685E+001
 -4.6833803E+001
 -4.0769509E+001
 -7.9374095E+001
 -1.3446167E+002
 -1.8188631E+002
 -1.7259059E+002
 -8.4742896E+001
 -9.1144953E+001
  6.0557935E+002
  1.1682590E+002
  1.8521728E+002
  2.1854689E+000
 -1.1921020E+002
 -2.1666626E+002
 -3.2361475E+002
 -4.3012033E+002
 -5.4322926E+002
 -6.7882236E+002
 -8.5921713E+002
 -1.0972103E+003
 -1.3564130E+003
 -1.5830731E+003
 -1.8155814E+003
 -2.1014586E+003
 -1.9435580E+003
 -1.9596289E+003
 -8.5382237E+002
  1.4735368E+002
  9.5898155E+000
  1.4514129E+002
 -4.8123960E+001
 -5.3017905E+001
 -6.7794743E+001
 -8.6819369E+001
 -1.4148365E+002
 -2.2211380E+002
 -2.7467260E+002
 -1.1854808E+002
 -1.4730566E+002
 -2.6137834E+002
 -9.9925881E+002
 -3.4707919E+002
 -3.3073884E+002
 -3.3971243E+002
 -4.4633882E+002
 -5.6331243E+002
 -6.8430360E+002
 -7.9885880E+002
 -9.2632297E+002
 -1.1152476E+003
 -1.3957745E+003
 -1.7920344E+003
 -2.0528928E+003
 -2.3380896E+003
 -1.9110713E+003
 -2.1034050E+003
 -1.0877174E+003
  1.1372870E+003
  3.1109980E+002
  1.5452934E+002
 -3.9259815E+000
 -3.3869633E+001
 -3.9402398E+001
 -3.5585436E+001
 -3.5597976E+001
 -9.1235699E+001
 -2.7858961E+002
 -1.7921407E+002
 -7.4940493E+002
 -1.6828323E+002
 -1.8303254E+002
 -4.8832581E+002
 -5.0039956E+002
 -6.5518151E+002
 -8.1054265E+002
 -9.7185688E+002
 -1.1047937E+003
 -1.2161574E+003
 -1.3857076E+003
 -1.6708816E+003
 -2.2399803E+003
 -2.6066746E+003
 -4.7599373E+003
 -2.9017093E+003
  3.3470195E+002
  3.6444211E+002
 -6.3080005E+002
 -1.2961567E+002
 -2.0830233E+002
 -6.1899165E+001
 -3.1625187E+001
 -2.2617617E+001
  4.1437448E+000
  4.9246489E+001
  9.9802087E+001
  2.5121940E+002
  3.7602671E+002
  1.3191052E+003  8.7756396E+002
  8.9083002E+00  2.5 -2.0247434E+002
 -3.6629712E+002
 -6.0893973E+002
 -8.0297893E+002
 -1.0329094E+003
 -1.2733321E+003
 -1.4839927E+003
 -1.5974077E+003
 -1.7248684E+003
 -2.0946402E+003
 -2.5595278E+003
 -2.8563285E+003
 -2.2682438E+003
 -1.2560282E+002
 -7.4172269E+001
 -1.8748266E+002
 -1.2975015E+002
 -6.1509060E+001
 -6.8053656E+000
  3.9132884E+001
  1.0833332E+002
  1.6408894E+002
  3.7707598E+002
  1.1545446E+002
  2.8785310E+002
  2.0614596E+001
 -1.6009352E+002
 -3.7747061E+002
 -6.3146589E+002
 -8.9312983E+002
 -1.1767559E+003
 -1.5027526E+003
 -1.8931794E+003
 -2.2099597E+003
 -2.1844843E+003
 -2.4403375E+003
 -2.8478682E+003
 -3.8111307E+003
 -6.5271761E+001
 -3.8680735E+001
 -6.9023955E+001
 -6.1171582E+001
 -2.3683168E+001
  1.6240657E+001
  6.2803757E+001
  1.0992989E+002
  1.7336068E+002
  1.5404461E+002
  1.0963651E+002
  4.6931599E+001
  1.6961344E+001
 -2.2071698E+002
 -3.9396923E+002
 -6.5439251E+002
 -8.8056007E+002
 -1.1810903E+003
 -1.5584392E+003
 -1.9872278E+003
 -2.7754942E+003
 -3.5762394E+003
 -6.3851308E+003
 -3.3875916E+003
 -1.1481172E+001
  6.1536140E+001
  4.8923742E+001
  5.7760455E+001
  3.4489021E+001
  4.6395216E+001
  6.7613609E+001
  9.5185469E+001
  1.0293456E+002
  8.8814069E+001
  3.0004383E+001
  3.5993475E+001
 -2.6095367E+002
 -1.8080389E+002
 -5.4483226E+002
 -5.3238320E+002
 -7.7033250E+002
 -1.0228814E+003
 -1.3509400E+003
 -1.5784469E+003
 -2.2388840E+003
 -7.7830284E+002
 -9.9889152E+002
  1.7601348E+002
  8.7589782E+001
  2.6166698E+002
  1.0789946E+002
  8.0187201E+001
  5.9426442E+001
  6.2830255E+001
  6.6945992E+001
  6.2888023E+001
  4.2993498E+001
  1.5540476E+001
  1.8721892E+001
 -1.2412921E+003
 -2.8098028E+002
 -2.4012818E+002
 -3.1918201E+002
 -5.5581457E+002
 -7.8686853E+002
 -9.4543741E+002
 -1.0578040E+003
 -7.2986814E+002
 -5.2854470E+002
  8.8816703E+001
  9.6545399E+002
  3.0095129E+002
  2.1138240E+002
  9.9910531E+001
  7.0211294E+001
  5.1241903E+001
  4.6632501E+001
  4.3522146E+001
  3.5185092E+001
  2.3549162E+001
  3.5602251E+000
  1.9588467E+001
 -1.9522280E+002
  9.9259890E+002
  3.5776890E+002
  6.5362091E+002
  2.8819319E+002
 -6.8677442E+001
 -3.5748290E+002
 -5.6949923E+002
 -6.5820195E+002
 -5.1454331E+002
 -2.1322078E+002
 -7.6057694E+001
  1.5265866E+002
  2.9710913E+002
 -5.3804074E+002
 -1.0336402E+002
 -1.5794266E+002
 -1.6671076E+001
  2.1699364E+001
  2.3691492E+001
  2.5470127E+001
  2.4808244E+001
  2.2979142E+001
  1.7576792E+001
  1.1680816E+001
 -7.9402570E-001
  1.8462770E+001
  1.1703975E+003
  4.3862730E+002
  7.7325061E+002
  3.7590130E+002
 -7.3864363E+000
 -2.7282892E+002
 -4.7355176E+002
 -5.7443411E+002
 -5.0646174E+002
 -4.3943502E+001
  4.0619167E+001
  1.1634772E+003
 -1.1053045E+002
 -6.5243380E+001
 -1.6154073E+002
 -1.1137521E+002
 -5.2773064E+001
 -1.7347578E+001
 -3.1363120E+000
  3.6602923E+000
  5.8588027E+000
  4.8242439E+000
  4.4510162E+000
 -3.8439931E+000
  1.8667007E+001
 -4.4846667E+001
 -1.3942006E+003
 -1.9250912E+002
 -1.0705605E+002
 -1.3705874E+002
 -3.0762504E+002
 -4.7755927E+002
 -6.0695287E+002
 -8.4884741E+002
 -9.5588098E+002
 -2.3618331E+003
 -9.0016190E+002
 -6.9903424E+001
 -4.1626628E+001
 -9.0506744E+001
 -8.5982297E+001
 -5.9714913E+001
 -3.4835715E+001
 -2.0390002E+001
 -1.2605030E+001
 -7.7315267E+000
 -4.9760453E+000
 -9.5982584E-001
 -5.8418824E+000
  1.8640463E+001
 -4.2653378E+002
 -9.3843641E+001
 -4.3726424E+002
 -2.6113646E+002
 -3.6893836E+002
 -4.8247853E+002
 -5.7092861E+002
 -8.3781615E+002
 -3.3016230E+002
 -3.4860284E+002
 -2.0196924E+001
 -1.5648918E+000
 -1.2955359E+001
 -2.2351662E+001
 -2.6200239E+001
 -2.8438322E+001
 -2.6874197E+001
 -2.3973514E+001
 -1.9193616E+001
 -1.3717702E+001
 -5.8238229E+000
 -7.6721432E+000
  1.8611949E+001
 -1.3627200E+002
 -1.2002029E+002
 -2.4078234E+002
 -3.3600391E+002
 -3.7937456E+002
 -4.3760209E+002  5.9641892E+002
  6.0818659E+00  4.0 -2.8313809E+002
  1.0043400E+002
 -2.4181899E+000
  6.2903973E+001
  6.0474518E+001
  5.6645734E+001
  8.2898641E+000
 -1.6612891E+001
 -3.1450550E+001
 -3.5378795E+001
 -3.1813251E+001
 -2.3754166E+001
 -1.1594601E+001
 -9.8306511E+000
  1.8372446E+001
 -1.5515309E+002
 -3.9071944E+001
 -2.1097619E+002
 -3.1122143E+002
 -3.9362098E+002
 -4.1187942E+002
 -3.6475052E+002
 -2.3377698E+002
 -1.4778888E+002
  1.6724443E+002
  1.6212169E+002
  7.6449248E+001
  2.2659736E+002
  7.4672413E+001
  2.5983217E+001
 -2.1368330E+001
 -4.4100836E+001
 -5.3346438E+001
 -4.9763783E+001
 -3.8011167E+001
 -1.9963220E+001
 -1.2976096E+001
  1.7797532E+001
 -1.5192426E+002
 -4.9643313E+001
 -2.3576426E+002
 -3.8418644E+002
 -4.7347218E+002
 -4.5477925E+002
 -3.5433700E+002
 -1.8054615E+002
 -1.4040113E+002
  2.3656592E+002
  8.5499832E+002
  2.5429064E+002
  1.6260450E+002
  4.5816572E+001
 -4.4416648E+000
 -4.7132915E+001
 -7.1621453E+001
 -8.1845310E+001
 -7.6786777E+001
 -5.9599856E+001
 -3.3065987E+001
 -1.8049562E+001
  1.6400399E+001
 -2.0280973E+002
 -9.4456136E+001
 -3.9661930E+002
 -6.1229766E+002
 -7.1586682E+002
 -6.2833817E+002
 -4.4159720E+002
 -1.9241936E+002
 -1.5439627E+002
  2.9148851E+002
  2.5652519E+002
 -4.8322706E+002
 -1.0087900E+002
 -1.6211864E+002
 -5.2552360E+001
 -3.9221365E+001
 -6.4003917E+001
 -8.9261953E+001
 -1.1102350E+002
 -1.2103154E+002
 -1.1491993E+002
 -9.1713115E+001
 -5.3770245E+001
 -2.6125435E+001
  1.3789783E+001
 -1.6761974E+002
 -2.9666944E+002
 -7.4447815E+002
 -1.1256891E+003
 -1.1848203E+003
 -9.7546466E+002
 -5.9508510E+002
 -2.4106497E+002
 -1.1932199E+002
  3.3084547E+002
 -1.0246734E+002
 -6.3533602E+001
 -1.6426033E+002
 -1.3889375E+002
 -1.1419833E+002
 -1.1344905E+002
 -1.3220390E+002
 -1.5252660E+002
 -1.6636067E+002
 -1.6365197E+002
 -1.3773913E+002
 -8.6655733E+001
 -4.0644132E+001
  6.3664953E+000
 -5.8777117E+002
 -5.6309827E+002
 -1.6100248E+003
 -2.0029610E+003
 -1.9523223E+003
 -1.4445565E+003
 -8.8769050E+002
 -1.3764105E+002
 -1.8676648E+002
  5.8751469E+002
 -5.9314560E+001
 -4.1286225E+001
 -9.0278682E+001
 -1.1315307E+002
 -1.2121120E+002
 -1.3622180E+002
 -1.5842018E+002
 -1.8465762E+002
 -2.0762516E+002
 -2.1793590E+002
 -1.9938293E+002
 -1.3870789E+002
 -6.2636625E+001
 -5.2345390E+000
 -2.5647085E+002
 -2.0256862E+003
 -2.9580318E+003
 -3.5731033E+003
 -2.7275161E+003
 -1.9730952E+003
 -1.1986567E+003
 -4.0980672E+002
  1.7167274E+002
  1.7381433E+003
 -2.1796667E+001
  2.3635826E+001
 -1.4362497E+001
 -4.2072685E+001
 -9.3780482E+001
 -1.2889363E+002
 -1.6330590E+002
 -1.9602531E+002
 -2.2889464E+002
 -2.5904949E+002
 -2.7070534E+002
 -2.2007518E+002
 -1.1365446E+002
 -6.2645399E+001
 -6.2092348E+003
 -2.3052953E+003
 -7.2000702E+003
 -4.2248185E+003
 -3.3505454E+003
 -2.2371650E+003
 -1.4696613E+003
 -8.7931341E+002
 -6.9572443E+002
 -4.1939668E+002
 -7.1024794E+002
  7.3793360E+002
  9.1972851E+001
  4.3241964E+001
  1.1927116E+002
 -4.1665007E+000
 -5.6844115E+001
 -1.0912646E+002
 -1.4806762E+002
 -1.8251383E+002
 -2.1107869E+002
 -2.4816073E+002
 -3.0030250E+002
 -3.2058648E+002
 -1.4314038E+002
 -1.2569242E+002
 -1.5807019E+004
 -8.2911810E+003
 -6.9227751E+003
 -4.0730997E+003
 -3.0464483E+003
 -2.1175947E+003
 -1.4971082E+003
 -1.0418796E+003
 -6.7925159E+002
 -3.4208020E+002
  1.2170720E+002
  5.5718647E+002
  1.6349292E+002
  9.6284866E+001
  7.5442372E+000
 -4.0271341E+001
 -8.5078427E+001
 -1.2049566E+002
 -1.4674170E+002
 -1.5973279E+002
 -1.4726255E+002
 -1.5605186E+002
 -3.1853024E+002
 -1.9853458E+002
 -8.0216781E+002
 -4.5362925E+003
 -7.0241410E+003
 -1.8116506E+003
 -2.7826814E+003
 -1.9357390E+003
 -1.6508290E+003
 -1.2518970E+003
 -9.3190094E+002
 -4.7643087E+002
 -3.1013824E+002
  2.5619493E+002
  1.4563683E+002
 -3.3521883E+002
 -5.6733460E+001
 -9.5901489E+001
 -2.2452497E+001
 -1.3585813E+001  1.2343070E+002
  1.4533504E+00 -1.0 -8.3896328E+001
 -1.0330714E+002
 -9.6721405E+001
 -5.1465694E+001
  1.6826070E+002
  3.8773569E+002
  1.5004023E+003
  5.0360201E+002
  3.8749412E+003
  3.0445073E+002
  2.9800872E+002
 -6.4810339E+002
 -9.6922309E+002
 -1.0371392E+003
 -9.5526302E+002
 -7.8620023E+002
 -5.0485233E+002
 -1.8794332E+002
  5.3229372E+002
 -8.3411377E+001
 -8.9988480E+000
 -7.3246125E+001
 -4.5047765E+001
 -3.1996536E+001
 -2.4095132E+001
 -2.8810207E+001
 -3.6814424E+001
 -5.3492576E+001
 -5.7471374E+001
 -6.1532148E+001
  1.8866399E+002
 -4.5096287E-001
  2.2843986E+002
  4.0400818E+002
  3.1926294E+002
  6.2912812E+002
  6.1736059E+001
 -4.0496378E+002
 -6.5963286E+002
 -7.5668654E+002
 -7.4913475E+002
  1.2448613E+000
  7.4446918E+000
  2.6401962E+001
 -2.5147050E+001
 -1.7017599E+001
 -3.7556824E+000
  1.2864961E+001
  2.2918761E+001
  2.4518396E+001
 -1.3753403E+001
 -7.9433705E+001
 -1.9955449E+002
 -5.0175189E+001
 -1.2339281E+002
  4.7486964E+002
 -1.8284600E+002
 -1.1485892E+001
 -2.5740510E+002
 -3.8119393E+002
 -5.8085219E+002
 -7.1249500E+002
  2.8461935E+002
  7.8615199E+001
  2.4017961E+001
 -1.4749613E+001
 -6.3331794E+000
  2.0055324E+001
  5.6688322E+001
  9.6288396E+001
  1.2666136E+002
  1.4659885E+002
  6.3951155E+001
 -2.6361395E+002
 -2.2171808E+002
 -1.0734795E+003
  9.0510724E+001
 -1.9547426E+002
 -3.8167512E+001
 -9.8313070E+001
 -6.8888897E+001
 -4.6517252E+001
 -1.6196478E+001
  3.1365715E+001
  9.0756013E+001
  1.5718745E+002
  2.3961233E+002
  3.1235074E+002
  5.2496612E+002
  6.6746345E+002
  2.0999741E+003
  6.7438856E+002
 -9.1488523E+001
 -1.6152746E+002
 -1.7766150E+002
 -1.5387509E+002
 -1.0425843E+002
 -4.5180457E+001
  2.2124905E+001
  1.0022211E+002
  1.8326772E+002
  2.9093830E+002
  3.6279168E+002
  6.5275305E+002
  1.9841260E+002
  4.7145285E+002
 -1.2535597E+002
 -3.3330253E+002
 -3.1555748E+002
 -3.0006730E+002
 -2.7484694E+002
 -2.2747028E+002
 -1.6402396E+002
 -8.9091507E+001
 -7.1899407E+000
  7.8975258E+001
  1.6890657E+002
  2.4876131E+002
  3.3371564E+002
  2.8034841E+002
  1.7656994E+002
  1.0553037E+002
 -2.9297018E+002
 -4.8076451E+002
 -4.7441008E+002
 -4.4169051E+002
 -4.1444179E+002
 -3.6458621E+002
 -3.0151369E+002
 -2.2558399E+002
 -1.4165373E+002
 -5.3398418E+001
  3.5322851E+001
  1.1664194E+002
  1.8332807E+002
  1.9743538E+002
  1.6583403E+002
  4.8296282E+001
  8.8394847E+001
 -4.8198313E+002
 -7.0808710E+002
 -7.1640056E+002
 -6.5550240E+002
 -5.8963610E+002
 -5.2182318E+002
 -4.5164383E+002
 -3.7327434E+002
 -2.8870949E+002
 -1.9978930E+002
 -1.0969629E+002
 -2.2925761E+001
  5.4161923E+001
  1.0706623E+002
  1.2186356E+002
  9.1490121E+001
  2.8852092E+001
  6.0502403E+001
 -1.9777293E+002
 -2.2541975E+003
 -1.1333360E+003
 -1.0379882E+003
 -8.3079544E+002
 -7.2410051E+002
 -6.2172473E+002
 -5.3081661E+002
 -4.4065952E+002
 -3.5018052E+002
 -2.5958721E+002
 -1.7081161E+002
 -8.6398469E+001
 -1.1734424E+001
  4.9975981E+001
  7.7018884E+001
  7.8613308E+001
  1.4497104E+001
  7.6244373E+001
 -3.0528237E+003
 -5.1998123E+003
 -3.2601034E+003
 -3.2300935E+003
 -3.0984297E+003
 -2.6248977E+003
 -2.9364813E+003
 -5.7458078E+002
 -5.1869809E+003
  1.0324862E+003
  7.7657735E+002
 -3.4890011E+003
 -1.6836987E+003
 -1.2854351E+003
 -1.6642429E+003
 -1.3250199E+003
 -1.1635261E+003
 -9.6247397E+002
 -8.2190231E+002
 -7.0111285E+002
 -5.9629887E+002
 -4.9874957E+002
 -4.0588664E+002
 -3.1671796E+002
 -2.3174357E+002
 -1.5237053E+002
 -7.7670233E+001
 -1.1025454E+001
  6.5800403E+001
  8.4371857E+001
  5.9127894E+001
  8.0430085E+001
 -2.7050602E+003
 -2.8450719E+003
 -3.1339306E+003
 -3.3600180E+003
 -3.6419239E+003
 -3.5211301E+003
 -6.1667401E+003
 -3.8015811E+003
 -4.1447449E+003
 -3.3832247E+003
 -3.7307756E+003
 -3.1142865E+003
 -3.1146838E+003
 -2.8326928E+003
 -2.6679789E+003
 -2.6271135E+003
 -2.3159444E+003
 -2.4818811E+003  5.2242933E+002
  5.5111829E+00  1.3 -2.1011872E+003
 -2.4279707E+003
 -2.2728127E+003
 -2.5826466E+003
 -2.4224322E+003
 -2.3160487E+003
 -3.7589139E+003
 -2.2469194E+003
 -1.9633738E+003
 -1.6247526E+003
 -1.3514460E+003
 -1.1786273E+003
 -1.0182622E+003
 -8.7457784E+002
 -7.5099691E+002
 -6.4167599E+002
 -5.4268261E+002
 -4.5129128E+002
 -3.6643554E+002
 -2.8837414E+002
 -2.1649761E+002
 -1.5291026E+002
 -8.0044817E+001
 -2.4019953E+001
  1.9989299E+002
  2.8032641E+001
  2.8653017E+002
 -2.2655350E+003
 -2.4947215E+003
 -2.7117143E+003
 -2.8401935E+003
 -2.9154091E+003
 -3.0545485E+003
 -3.0613856E+003
 -3.1011338E+003
 -2.9871848E+003
 -2.8856317E+003
 -2.7366481E+003
 -2.6351009E+003
 -2.5403858E+003
 -2.4568246E+003
 -2.2963370E+003
 -2.1459922E+003
 -1.9170119E+003
 -1.7121824E+003
 -1.5351303E+003
 -1.3322902E+003
 -1.1622144E+003
 -1.0187045E+003
 -8.8793894E+002
 -7.6988880E+002
 -6.6410229E+002
 -5.6871309E+002
 -4.8230887E+002
 -4.0419222E+002
 -3.3465402E+002
 -2.7437733E+002
 -2.2529182E+002
 -1.8302265E+002
 -1.5266923E+002
 -3.7054070E+001
  1.1403647E+002
  9.9452211E+002
 -1.8812430E+003
 -2.0321018E+003
 -2.1786271E+003
 -2.2888413E+003
 -2.3810955E+003
 -2.4870059E+003
 -2.6398335E+003
 -2.7647573E+003
 -2.9359258E+003
 -2.9273076E+003
 -2.9442229E+003
 -2.7870893E+003
 -2.6270964E+003
 -2.4501010E+003
 -2.2017882E+003
 -1.9512132E+003
 -1.7542587E+003
 -1.5773759E+003
 -1.4137947E+003
 -1.2628674E+003
 -1.1189615E+003
 -9.8826770E+002
 -8.6953576E+002
 -7.6111800E+002
 -6.6303924E+002
 -5.7488855E+002
 -4.9595471E+002
 -4.2584306E+002
 -3.6488205E+002
 -3.1482957E+002
 -2.7922626E+002
 -2.6758596E+002
 -2.9131490E+002
 -4.0480977E+002
 -5.8525273E+002
 -3.2227626E+002
 -7.6244042E+002
  1.3060505E+002
 -1.4550249E+003
 -1.5378337E+003
 -1.6294547E+003
 -1.7057981E+003
 -1.7821606E+003
 -1.9070329E+003
 -2.1677811E+003
 -2.5531645E+003
 -2.7954861E+003
 -3.3664676E+003
 -3.1282933E+003
 -3.1491957E+003
 -2.8389328E+003
 -2.4238781E+003
 -2.0713628E+003
 -1.8408867E+003
 -1.6293586E+003
 -1.4533662E+003
 -1.3076169E+003
 -1.1747749E+003
 -1.0505198E+003
 -9.3367593E+002
 -8.2578557E+002
 -7.2759636E+002
 -6.3925822E+002
 -5.6051675E+002
 -4.9069341E+002
 -4.2903908E+002
 -3.7521035E+002
 -3.2998213E+002
 -2.9628086E+002
 -2.8205408E+002
 -3.0174709E+002
 -3.9714173E+002
 -5.6317838E+002
 -3.0540984E+002
 -7.2133606E+002
 -1.0340573E+003
 -1.0379949E+003
 -1.0625455E+003
 -1.0384449E+003
 -1.1551664E+003
 -1.1300283E+003
 -2.1212705E+003
 -3.3959167E+003
 -3.2217109E+003
 -5.0669896E+003
 -4.6154905E+003
 -2.3128654E+003
 -2.3277759E+003
 -1.9056166E+003
 -1.7081054E+003
 -1.4770437E+003
 -1.3226734E+003
 -1.1922370E+003
 -1.0754521E+003
 -9.6299849E+002
 -8.5663768E+002
 -7.5871865E+002
 -6.7092907E+002
 -5.9349922E+002
 -5.2575590E+002
 -4.6645559E+002
 -4.1391731E+002
 -3.6630958E+002
 -3.2150786E+002
 -2.7864849E+002
 -2.3175062E+002
 -1.8617582E+002
 -4.7365605E+001
  1.1852638E+002
  9.6268604E+002
  1.6927251E+002
 -4.7372413E+002
 -3.1686091E+002
 -5.4108985E+001
 -7.5833352E+000
  1.2947758E+002
  6.7158247E+002
  1.0900248E+003
 -1.5673216E+003
 -2.8417256E+003
 -1.5427220E+003
 -1.4793436E+003
 -1.2585208E+003
 -1.1661804E+003
 -1.0627425E+003
 -9.6038083E+002
 -8.5536576E+002
 -7.5635537E+002
 -6.6790243E+002
 -5.9140403E+002
 -5.2628175E+002
 -4.7121199E+002
 -4.2421951E+002
 -3.8255956E+002
 -3.4287006E+002
 -2.9963864E+002
 -2.4955540E+002
 -1.7270224E+002
 -9.3155092E+001
  1.5113685E+002
  1.7264097E+001
  2.5430121E+002
  5.9991167E+002
  3.7924737E+002
 -3.5864940E+002
 -9.8174635E+002
 -1.0460143E+003
 -1.0379264E+003
 -9.9225973E+002
 -9.2051854E+002
 -8.2403260E+002
 -7.2073534E+002
 -6.2894007E+002
 -5.5210582E+002
 -4.8902628E+002
 -4.3822781E+002
 -3.9774158E+002
 -3.6519391E+002
 -3.3737815E+002
 -3.0964142E+002
 -2.7606223E+002
 -2.2736216E+002
 -1.597979 -6.5803634E+002
 -6.3494546E+002
 -6 -1.8  3.5206254E+001
  5.0815454E+001
 -8.1453400E+002
 -8.4955465E+002
 -8.2435343E+002
 -8.2261007E+002
 -7.6331092E+002
 -6.4716445E+002
 -5.4765894E+002
 -4.7141325E+002
 -4.1111979E+002
 -3.6504014E+002
 -3.3070930E+002
 -3.0643591E+002
 -2.9016507E+002
 -2.7900717E+002
 -2.6863903E+002
 -2.5249007E+002
 -2.2338569E+002
 -1.7216618E+002
 -1.1047964E+002
 -4.3399699E+001
 -2.3605189E+001
  3.0316031E+001
 -6.5577214E+002
 -8.3966056E+002
 -6.3265528E+002
 -5.2300026E+002
 -3.9250938E+002
 -3.3646292E+002
 -2.8505512E+002
 -2.4938358E+002
 -2.2314054E+002
 -2.0662678E+002
 -1.9888343E+002
 -1.9917970E+002
 -2.0590555E+002
 -2.1598188E+002
 -2.2426193E+002
 -2.2285610E+002
 -2.0424668E+002
 -1.6219385E+002
 -1.0198231E+002
 -4.2803234E+001
 -8.7060193E-001
  1.0393090E+001
 -3.0646401E+001
 -8.7162254E+001
 -1.0621389E+002
 -9.6441041E+001
 -8.5754329E+001
 -7.5980037E+001
 -7.0615951E+001
 -7.0755120E+001
 -7.7632225E+001
 -9.2172576E+001
 -1.1468033E+002
 -1.4418398E+002
 -1.7758741E+002
 -2.0839920E+002
 -2.2465666E+002
 -2.1018942E+002
 -1.5137400E+002
 -6.4683946E+001
 -4.4550698E+001
  7.2506198E+002
  2.8561843E+002
  2.5730271E+002
  1.4958913E+002
  1.2858058E+002
  1.0698210E+002
  9.4807221E+001
  8.2992713E+001
  7.0106463E+001
  5.3250700E+001
  2.9924213E+001
 -2.3587080E+000
 -4.4635163E+001
 -9.6046297E+001
 -1.5328725E+002
 -2.0526755E+002
 -2.2698426E+002
 -2.0236408E+002
 -8.5023038E+001
 -6.6314381E+001
  3.1175093E+002
 -2.8465940E+002
  1.0100512E+002
  2.0110301E+002
  3.6005754E+002
  3.4209364E+002
  3.0731534E+002
  2.7564423E+002
  2.4916479E+002
  2.2726623E+002
  2.0763806E+002
  1.8754684E+002
  1.6347952E+002
  1.3128777E+002
  8.7024066E+001
  3.2137217E+001
 -2.8302269E+001
 -1.0052714E+002
 -1.3661374E+002
 -1.2563427E+002
 -7.4089988E+000
 -3.5145435E+002
  1.4166241E+002
  1.9949289E+002
  4.8509182E+002
  4.6500366E+002
  4.7674446E+002
  4.4343466E+002
  4.0877219E+002
  3.7750099E+002
  3.5235685E+002
  3.3257987E+002
  3.1633189E+002
  3.0050857E+002
  2.8032617E+002
  2.4948516E+002
  2.0198267E+002
  1.6362086E+002
  1.5876214E+002
  9.4230813E+001
  1.3555238E+002
  2.7104039E+002
  6.6862903E+002
  1.2625147E+003
  6.3346260E+002
  6.9774782E+002
  5.9517992E+002
  5.7622322E+002
  5.3718026E+002
  5.0358307E+002
  4.7309011E+002
  4.5028018E+002
  4.3528921E+002
  4.2804919E+002
  4.2728136E+002
  4.3004488E+002
  4.2899949E+002
  4.1308579E+002
  3.5360137E+002
  4.5003109E+002
  7.8077711E+002
  1.8818259E+003
  9.8053965E+002
  5.1586316E+002
 -2.3460096E+002
  1.9646893E+002
  6.5221305E+002
  6.7312583E+002
  6.6907827E+002
  6.2238568E+002
  5.8931666E+002
  5.5766731E+002
  5.3267956E+002
  5.1516626E+002
  5.0705402E+002
  5.0987920E+002
  5.2494217E+002
  5.5460671E+002
  5.9326730E+002
  6.4544631E+002
  6.1268605E+002
  4.8476472E+002
  6.3797980E+001
 -6.9703996E+002
  1.7197367E+003
  1.0095737E+003
  7.7952210E+002
  6.6622942E+002
  6.5074670E+002
  6.2111722E+002
  5.9545982E+002
  5.7304744E+002
  5.5554481E+002
  5.4450755E+002
  5.4209066E+002
  5.5087970E+002
  5.7510014E+002
  6.1830156E+002
  6.9438291E+002
  7.8710155E+002
  9.9660042E+002
  1.0036905E+003
  2.2604613E+003
  8.4186448E+002
  8.3405863E+002
  1.3551374E+003
  6.7772141E+002
  6.5339470E+002
  6.4028055E+002
  6.0444644E+002
  5.8165456E+002
  5.7360164E+002
  5.6349720E+002
  5.5371874E+002
  5.4525848E+002
  5.3988867E+002
  5.3978540E+002
  5.4711464E+002
  5.6715560E+002
  5.9887489E+002
  6.7346684E+002
  7.1403586E+002
  1.0399000E+003
  3.6106927E+002
  5.8608196E+002
 -1.0083583E+002
  7.1773092E+002
  2.2122796E+002
  3.1069709E+002
  3.7972788E+002
  4.1507462E+002
  4.5943948E+002
  4.8074133E+002
  4.9537877E+002
  5.0447319E+002
  5.0837632E+002
  5.0885517E+002
  5.0752035E+002
  5.0580848E+002
  5.0509650E+002
  5.060507 -3.7130525E+002
 -3.8139591E+00  1.1416554E+002
  2.4339017E+001
 -9.8409681E+001
 -2.3772971E+002
 -3.7825173E+002
 -4.8409959E+002
 -5.1630476E+002
 -4.4670303E+002
 -2.5683146E+002
  7.5114683E+001
  5.9272160E+002
  1.3340924E+003
  2.4869861E+003
  3.6255446E+003
  5.8167649E+003
  3.4637953E+003
  3.6862235E+003
  9.5394241E+003
  7.2316362E+002
  1.6309278E+001
  1.2282153E+002
  4.9035168E+002
  5.5673062E+002
  5.0254617E+002
  4.2032531E+002
  3.2069767E+002
  2.1824854E+002
  1.1279923E+002
  3.6962732E+000
 -1.1321781E+002
 -2.4365430E+002
 -3.9283472E+002
 -5.6593001E+002
 -7.6036252E+002
 -9.7020810E+002
 -1.1733754E+003
 -1.3394077E+003
 -1.4335169E+003
 -1.4221779E+003
 -1.2752166E+003
 -9.6656843E+002
 -4.7250180E+002
  2.3161353E+002
  1.1327129E+003
  2.3058117E+003
  3.5102830E+003
  3.6141604E+003
  3.7842676E+003
  2.4766473E+003
  2.8320555E+003
  5.7303267E+003
  5.6446849E+002
  5.2830231E+002
  5.3738279E+002
  5.5484704E+002
  4.9808658E+002
  3.9040616E+002
  2.4591692E+002
  8.3878188E+001
 -8.5095180E+001
 -2.6079077E+002
 -4.4741679E+002
 -6.5106292E+002
 -8.7803342E+002
 -1.1319593E+003
 -1.4124923E+003
 -1.7098093E+003
 -2.0049856E+003
 -2.2669707E+003
 -2.4568849E+003
 -2.5319748E+003
 -2.4550179E+003
 -2.2004678E+003
 -1.7463644E+003
 -1.0991121E+003
 -2.7154321E+002
  6.5009400E+002
  1.4124618E+003
  1.9564242E+003
  2.5466608E+003
  2.3717588E+003
  2.2315663E+003
  1.2314656E+003
  1.7459537E+003
  2.2868486E+003
  2.8282299E+002
 -1.1425738E+002
 -2.2149182E+002
  2.4057214E+002
  4.5423777E+002
  5.7372359E+002
  5.5539285E+002
  4.0061197E+002
  1.8623420E+002
 -4.2842485E+001
 -2.7588774E+002
 -5.1432057E+002
 -7.6447468E+002
 -1.0354296E+003
 -1.3358937E+003
 -1.6723846E+003
 -2.0462552E+003
 -2.4515484E+003
 -2.8694096E+003
 -3.2673288E+003
 -3.5942377E+003
 -3.7954899E+003
 -3.8199848E+003
 -3.6255678E+003
 -3.2221586E+003
 -2.5957920E+003
 -1.7912223E+003
 -9.0383492E+002
 -3.9987504E+001
  6.7039120E+002
  1.0911489E+003
  1.3516544E+003
  1.5342786E+003
  1.2563628E+003
  8.2964181E+002
  3.0405036E+002
  6.3938948E+002
  6.0987863E+000
  3.7712536E+001
  1.1011653E+002
  9.1465236E+001
  5.7272208E+002
  8.7230307E+002
  7.5414827E+002
  4.5755883E+002
  1.4394477E+002
 -1.6360047E+002
 -4.6161328E+002
 -7.5610484E+002
 -1.0608880E+003
 -1.3902833E+003
 -1.7579866E+003
 -2.1753001E+003
 -2.6495846E+003
 -3.1800980E+003
 -3.7551611E+003
 -4.3355872E+003
 -4.8614100E+003
 -5.2330203E+003
 -5.3738492E+003
 -5.2883719E+003
 -4.8904084E+003
 -4.2623083E+003
 -3.4129727E+003
 -2.4161153E+003
 -1.4176948E+003
 -5.3175638E+002
  1.6495069E+002
  6.0056067E+002
  7.5998794E+002
  7.4628884E+002
  6.4834957E+002
  3.5628054E+002
 -2.9619178E+001
 -1.8679020E+002
 -7.5784327E+001
 -4.4440417E+002
 -2.6330293E+002
  5.7412327E+002
  5.6511000E+002
  1.1916290E+003
  1.0368997E+003
  5.6450711E+002
  1.0328636E+002
 -2.9640682E+002
 -6.5086066E+002
 -9.8802833E+002
 -1.3327089E+003
 -1.7068641E+003
 -2.1302956E+003
 -2.6215599E+003
 -3.1965112E+003
 -3.8670390E+003
 -4.6297196E+003
 -5.4668217E+003
 -6.2701186E+003
 -6.9188267E+003
 -7.2646867E+003
 -7.1487570E+003
 -6.8882592E+003
 -6.1829570E+003
 -5.1441758E+003
 -3.9340190E+003
 -2.6424383E+003
 -1.4865213E+003
 -5.8233756E+002
  2.5409337E+001
  3.6125421E+002
  4.6229473E+002
  3.8574390E+002
  2.1905255E+002
  1.8067417E+001
 -2.0557598E+002
 -4.0913581E+002
 -7.7044379E+002
 -5.4115996E+002
  1.2923038E+002
  4.2433978E+003
  1.7251855E+003
  6.2960109E+002
 -6.5157475E+000
 -4.7680507E+002
 -8.5813447E+002
 -1.2125881E+003
 -1.5750629E+003
 -1.9739901E+003
 -2.4347023E+003
 -2.9832144E+003
 -3.6491210E+003
 -4.4603021E+003
 -5.4456476E+003
 -6.5946596E+003
 -7.8784112E+003
 -8.8680868E+003
 -9.2057078E+003
 -9.5436625E+003
 -8.9580373E+003
 -8.3316502E+003
 -7.1828999E+003
 -5.5342817E+003
 -3.8256906E+003
 -2 -4.6850734E+002
 -5.1656713E+00 -2.5348897E+002
  1.4673129E+002
  3.0514205E+002
  3.0153537E+002
  1.8232900E+002
 -1.6006340E+000
 -2.0167438E+002
 -4.3193537E+002
 -5.5346265E+002
 -9.3619565E+002
 -6.2908407E+002
  4.1519436E+003
  6.8812851E+002
  5.0495925E+002
 -3.5247728E+002
 -7.2694431E+002
 -1.0971390E+003
 -1.4275406E+003
 -1.7811594E+003
 -2.1791686E+003
 -2.6507065E+003
 -3.2278102E+003
 -3.9516312E+003
 -4.8846345E+003
 -6.0913777E+003
 -7.6533981E+003
 -9.5950130E+003
 -1.1750060E+004
 -1.2611784E+004
 -1.1375970E+004
 -1.2404083E+004
 -1.1489053E+004
 -9.1733118E+003
 -7.1961850E+003
 -4.6126088E+003
 -2.4612453E+003
 -1.0075866E+003
 -1.9853384E+002
  1.8611816E+002
  3.2693157E+002
  3.1006453E+002
  1.9516981E+002
  1.9543741E+001
 -1.9603635E+002
 -4.1927335E+002
 -6.7457089E+002
 -6.5081944E+002
 -7.1576375E+002
 -2.7288151E+002
  2.2824585E+003
  6.0525825E+002
 -5.1022513E+002
 -7.7858629E+002
 -1.0880637E+003
 -1.3457470E+003
 -1.6266913E+003
 -1.9406584E+003
 -2.3112122E+003
 -2.7614241E+003
 -3.3239105E+003
 -4.0482433E+003
 -5.0163991E+003
 -6.3719739E+003
 -8.4278059E+003
 -1.1088356E+004
 -1.5514147E+004
 -1.2729591E+004
 -1.5811214E+004
 -1.3149466E+004
 -1.4579046E+004
 -1.2142487E+004
 -1.0048852E+004
 -6.0004071E+003
 -2.0503219E+003
 -3.1273191E+002
  2.5305803E+002
  4.8367816E+002
  5.0822639E+002
  4.2368523E+002
  2.7230990E+002
  7.2917603E+001
 -1.7101699E+002
 -4.2942144E+002
 -7.9027687E+002
 -1.0382488E+003
 -2.5321614E+003
 -6.3148960E+003
 -1.6680918E+003
 -1.5673593E+003
 -1.3404688E+003
 -1.4476587E+003
 -1.5844840E+003
 -1.7890410E+003
 -2.0445481E+003
 -2.3637058E+003
 -2.7595713E+003
 -3.2616625E+003
 -3.8939852E+003
 -4.7908487E+003
 -5.8782953E+003
 -8.3727443E+003
 -1.0920647E+004
 -2.9699099E+004
 -2.1718173E+004
 -1.4749334E+004
 -2.2735869E+004
 -2.8061033E+004
 -9.1307854E+003
 -1.4628488E+004
 -1.8469345E+003
  5.1153158E+002
  9.7248679E+002
  1.2097457E+003
  1.0118788E+003
  7.8937520E+002
  5.9686880E+002
  3.9680698E+002
  1.6408884E+002
 -1.0636348E+002
 -4.2994048E+002
 -7.6063186E+002
 -1.2105490E+003
 -1.0566109E+003
 -1.3686359E+003
 -8.6708479E+001
 -3.2463639E+002
 -7.2368135E+003
 -3.5726119E+003
  4.6104418E+001
 -3.4732023E+003
 -5.8594356E+003
 -3.8592727E+003
 -2.5612544E+003
 -2.0870358E+003
 -1.7880965E+003
 -1.7270562E+003
 -1.7711421E+003
 -1.8968766E+003
 -2.0863494E+003
 -2.3382919E+003
 -2.6562604E+003
 -3.0544303E+003
 -3.5368005E+003
 -4.1747686E+003
 -4.8084153E+003
 -6.0613826E+003
 -4.5764241E+003
 -4.6636372E+003
  4.9536233E+002
 -5.0630374E+003
 -3.9495374E+004
 -4.6180897E+003
  2.1321465E+003
  5.2535139E+003
  2.3675254E+003
  1.4907365E+003
  1.0272995E+003
  7.8479912E+002
  5.5402454E+002
  2.9677291E+002
 -5.3759742E+000
 -3.6214876E+002
 -7.6240223E+002
 -1.3220553E+003
 -1.9906284E+003
 -4.1641262E+003
  4.4690350E+001
 -9.9879800E+003
 -3.9871889E+003
 -1.8489032E+003
 -4.9609585E+003
 -3.7316175E+003
 -3.8949575E+003
 -3.3849773E+003
 -2.7303457E+003
 -2.2768795E+003
 -2.0210741E+003
 -1.8953713E+003
 -1.8787434E+003
 -1.9407374E+003
 -2.0662267E+003
 -2.2459478E+003
 -2.4761766E+003
 -2.7497011E+003
 -3.0708836E+003
 -3.3711375E+003
 -3.7524267E+003
 -3.4172511E+003
 -4.2081437E+003
 -6.2706357E+002
  7.6264999E+003
  4.4680566E+004
  2.8206205E+004
  6.6125785E+003
  1.9813237E+003
  1.5123285E+003
  1.0712262E+003
  9.2839889E+002
  7.3514905E+002
  4.7716427E+002
  1.4700782E+002
 -2.3608110E+002
 -6.9370806E+002
 -1.1855199E+003
 -1.7623377E+003
 -1.8969770E+003
 -2.7488683E+003
 -1.3898270E+003
  1.0904652E+003
 -1.5924761E+004
 -5.7149667E+003
 -2.0666794E+003
 -6.5577449E+003
 -5.0341012E+003
 -4.6387969E+003
 -3.9568654E+003
 -3.4591570E+003
 -3.1079817E+003
 -2.7001593E+003
 -2.3339967E+003
 -2.0944612E+003
 -1.9580863E+003
 -1.9056727E+003
 -1.9215285E+003
 -1.9914154E+003
 -2.1040697E+003
 -2.2482943E+003
 -2.4113491E+003
 -2.5667229E+003
 -2.6863036E+003
 -2.6440452E+003
 -2.4629206E+003
 -1.7021051E+003
  3.7483470E+002
 -2.5653256E+003
 -6.3482463E+002
  8.5755729E+002
  1.0207730E+003
  1.2042174E+003
  1.0174330E+003
  7.1334416E+002
  3.6045862E+002
 -5.3390630E+001
 -5.2323607E+002
 -1.0688101E+003
 -1.6393759E+003
 -2.4119375E+003
 -1.8054003E+003
 -1.5642995E+003
 -8.9525956E+002
 -6.9400164E+003
 -8.2755621E+003
 -7.1690313E+003
 -8.5713699E+003
 -7.4030625E+003
 -8.8786782E+003
 -7.7094622E+003
 -9.1452176E+003
 -7.9832308E+003
 -9.7144561E+003
 -8.8318887E+003
 -9.8936864E+003
 -8.0197803E+003
 -1.4508286E+004
 -8.9624753E+003
 -6.9038201E+003
 -5.9915234E+003
 -4.8800084E+003
 -4.2213259E+003
 -3.7093568E+003
 -3.2865539E+003
 -2.9066067E+003
 -2.5658726E+003
 -2.2831528E+003
 -2.0699976E+003
 -1.9342841E+003
 -1.8641181E+003
 -1.8478478E+003
 -1.8738191E+003
 -1.9299459E+003
 -2.0029380E+003
 -2.0739482E+003
 -2.1203554E+003
 -2.0883454E+003
 -1.9589461E+003
 -1.5089736E+003
 -8.3758734E+002
  1.0810702E+003
  8.4076329E+002
  1.0321653E+003
  1.4094961E+003
  1.3126420E+003
  1.0315415E+003
  6.3890160E+002
  1.8995894E+002
 -2.9870727E+002
 -8.8044432E+002
 -1.5074566E+003
 -2.5747485E+003
 -3.7454751E+003
 -1.0863999E+004
 -5.9476866E+003
 -6.1070321E+003
 -6.2845824E+003
 -6.4700023E+003
 -6.7440773E+003
 -6.8032725E+003
 -7.4095310E+003
 -6.9381352E+003
 -5.8190389E+003
 -5.0508125E+003
 -4.4096159E+003
 -3.8315373E+003
 -3.3718176E+003
 -2.9890555E+003
 -2.6650809E+003
 -2.3862969E+003
 -2.1520971E+003
 -1.9720845E+003
 -1.8455803E+003
 -1.7684039E+003
 -1.7317897E+003
 -1.7258191E+003
 -1.7392031E+003
 -1.7582551E+003
 -1.7659924E+003
 -1.7376714E+003
 -1.6461057E+003
 -1.4378248E+003
 -1.0822007E+003
 -5.2854846E+002
  1.4318540E+002
  6.3705886E+002
  5.6110476E+002
  8.1148514E+002
  3.7528156E+003
  2.0405057E+003
  1.4417327E+003
  9.2998937E+002
  4.8828235E+002
 -6.7477401E+000
 -5.6881162E+002
 -1.2330116E+003
 -2.0907881E+003
 -2.9732245E+003
 -4.2607438E+003
 -2.6709298E+003
 -5.8048296E+003
 -2.8502610E+003
 -2.7077350E+003
 -1.8468438E+003
 -2.1024418E+003
 -1.4140436E+003
 -1.4181380E+003
 -1.0006072E+003
 -9.6878653E+002
 -7.0207122E+002
 -5.9052486E+002
 -4.6499883E+002
 -3.0961916E+002
 -2.9012400E+002
 -1.1495783E+002
 -1.6259013E+002
 -1.3493357E+000
 -7.0310405E+001
  5.7043101E+000
  5.8599351E+001
  7.5946081E+000
 -4.8609021E+003
 -4.9391224E+003
 -5.0203386E+003
 -5.1384839E+003
 -5.2454758E+003
 -5.4211041E+003
 -5.3220358E+003
 -5.1618944E+003
 -4.7495467E+003
 -4.2082130E+003
 -3.7312366E+003
 -3.3159455E+003
 -2.9549992E+003
 -2.6482680E+003
 -2.3838851E+003
 -2.1572333E+003
 -1.9689784E+003
 -1.8192683E+003
 -1.7082971E+003
 -1.6322544E+003
 -1.5850460E+003
 -1.5584764E+003
 -1.5426495E+003
 -1.5256510E+003
 -1.4925936E+003
 -1.4259249E+003
 -1.3025488E+003
 -1.1013197E+003
 -8.0132178E+002
 -3.9830885E+002
  2.3090854E+001
  2.4985315E+002
  2.5972870E+002
  3.0609912E+002
  1.1781559E+003
  1.4841069E+003
  1.6603540E+003
  1.2486191E+003
  8.3416087E+002
  3.5285653E+002
 -1.6442867E+002
 -7.4306030E+002
 -1.3746632E+003
 -2.0813353E+003
 -2.7081688E+003
 -2.6051129E+003
 -1.8619179E+003
 -1.6078005E+003
 -1.2189753E+003
 -9.4041488E+002
 -7.0101282E+002
 -5.1107018E+002
 -3.5896009E+002
 -2.3799580E+002
 -1.4605120E+002
 -5.8840761E+001
 -2.2719703E+001
  8.8762090E+001
  8.2419482E+000
  2.4725540E+001
  5.1440776E+001
  2.9337430E+001
 -3.8128195E+003
 -3.7843674E+003
 -3.7886934E+003
 -3.8036691E+003
 -3.8784305E+003
 -3.9200344E+003
 -3.9590635E+003
 -3.8384000E+003
 -3.5966977E+003
 -3.3154026E+003
 -3.0185090E+003
 -2.7399479E+003
 -2.4868831E+003
 -2.2610834E+003
 -2.0630315E+003
 -1.8914738E+003
 -1.7462207E+003
 -1.6280344E+003
 -1.5359651E+003
 -1.4674313E+003
 -1.4177236E+003
 -1.3804125E+003
 -1.3474311E+003
 -1.3090506E+003
 -1.2539187E+003
 -1.1689309E+003
 -1.0406598E+003
 -8.5737567E+002
 -6.1197092E+002
 -3.2609917E+002
 -1.4675933E+001
  2.6179591E+002
  7.9608848E+002
  1.2337932E+002
  4.2545710E+003
  2.0076500E+003
  1.6323436E+003
  1.1747688E+003
  7.6913871E+002
  3.0072534E+002
 -1.8435763E+002
 -6.8675461E+002
 -1.1652795E+003
 -1.4549297E+003
 -1.4701589E+003
 -1.4106632E+003
 -1.1733909E+003
 -1.0015173E+003
 -8.2101311E+002
 -6.6759478E+002
 -5.3125755E+002
 -4.1135482E+002
 -3.0494033E+002
 -2.0896470E+002
 -1.2591987E+002
 -6.0820876E+001
 -2.2239751E+001
  1.2699132E+001
  1.9514676E+001
  2.5630404E+001
 -2.7384175E+003
 -2.6162795E+003
 -2.4246969E+003
 -2.3909562E+003
 -2.4634167E+003
 -2.5696045E+003
 -2.5806100E+003
 -2.5836586E+003
 -2.5367502E+003
 -2.4280849E+003
 -2.2889072E+003
 -2.1388227E+003
 -1.9895742E+003
 -1.8474445E+003
 -1.7163238E+003
 -1.5988060E+003
 -1.4966175E+003
 -1.4104898E+003
 -1.3401626E+003
 -1.2838065E+003
 -1.2380689E+003
 -1.1980907E+003
 -1.1576662E+003
 -1.1094009E+003
 -1.0449221E+003
 -9.5547838E+002
 -8.3297363E+002
 -6.7192985E+002
 -4.7453470E+002
 -2.5111791E+002
 -2.9571712E+001
  1.3427460E+002
  2.1956593E+002
 -1.7707715E+001
  2.1804977E-001
  1.2456678E+003
  1.6087063E+003
  1.9765293E+003
  1.6073644E+003
  1.2026763E+003
  7.9510462E+002
  3.8532698E+002
 -2.4460233E+001
 -3.9217048E+002
 -6.7735250E+002
 -8.2490924E+002
 -8.3201792E+002
 -8.1217055E+002
 -7.4921781E+002
 -6.8429710E+002
 -6.1048753E+002
 -5.3210460E+002
 -4.4697219E+002
 -3.5566517E+002
 -2.6145558E+002
 -1.7191221E+002
 -9.8409342E+001
 -3.6186470E+001
  7.8954902E+000
  6.7676810E+001
 -1.7997297E+003
 -1.4499225E+003
 -1.3352105E+003
 -9.3389213E+002
 -1.1729479E+003
 -1.0888194E+003
 -1.2251935E+003
 -1.4249017E+003
 -1.5293708E+003
 -1.5657740E+003
 -1.5698893E+003
 -1.5390540E+003
 -1.4855570E+003
 -1.4222578E+003
 -1.3558593E+003
 -1.2909616E+003
 -1.2308194E+003
 -1.1771637E+003
 -1.1303674E+003
 -1.0895958E+003
 -1.0526920E+003
 -1.0162601E+003
 -9.7580195E+002
 -9.2595966E+002
 -8.6088990E+002
 -7.7485906E+002
 -6.6317250E+002
 -5.2405663E+002
 -3.5988619E+002
 -1.8237254E+002
 -8.7677146E+000
  1.4886732E+002
  2.4296568E+002
  2.6529704E+002
  1.0014700E+003
  2.3114332E+003
  2.1152999E+003
  2.0294839E+003
  1.6641498E+003
  1.3021731E+003
  9.4176544E+002
  6.0761737E+002
  2.8485213E+002
  8.5457354E+000
 -2.0464096E+002
 -3.5945607E+002
 -4.5400531E+002
 -5.1766303E+002
 -5.5140631E+002
 -5.6017469E+002
 -5.4028666E+002
 -4.8938020E+002
 -4.0838192E+002
 -3.0852479E+002
 -2.0606783E+002
 -1.1284999E+002
 -4.5564204E+001
  5.8702177E+000
  7.2746827E+001
 -5.5846944E+002
 -5.4129241E+001
  8.0030468E+002
  1.5586370E+003
  2.2470181E+002
 -4.5515894E+001
  9.8490515E+001
 -3.1960861E+002
 -5.1971299E+002
 -7.6646679E+002
 -8.9298359E+002
 -9.5529943E+002
 -9.9141089E+002
 -1.0014054E+003
 -9.9376914E+002
 -9.7828705E+002
 -9.5864125E+002
 -9.3694546E+002
 -9.1454918E+002
 -8.9152156E+002
 -8.6686290E+002
 -8.3848261E+002
 -8.0333498E+002
 -7.5773617E+002
 -6.9775456E+002
 -6.1971645E+002
 -5.2098124E+002
 -4.0064823E+002
 -2.6118153E+002
 -1.0726039E+002
  4.9466578E+001
  1.7870883E+002
  2.3054102E+002
 -1.4533606E+001
  1.4887993E+003
  5.2025992E+003
  2.7538433E+003
  2.1456833E+003
  1.7430123E+003
  1.4992593E+003
  1.2184829E+003
  9.2290096E+002
  6.1427541E+002
  3.2700535E+002
  7.6046456E+001
 -1.3748473E+002
 -3.1090851E+002
 -4.4586404E+002
 -5.3757249E+002
 -5.7901236E+002
 -5.6307553E+002
 -4.8802315E+002
 -3.6167074E+002
 -2.1672452E+002
 -1.1139224E+002
 -3.0082770E+001
  3.5513466E+000
  5.6039142E+001
  5.4817780E+002
  4.1025130E+002
  2.2120618E+003
  2.5664868E+003
  4.0027748E+002
  3.7582588E+002
 -7.1893875E+001
 -2.1994139E+002
 -4.2252773E+002
 -5.2927280E+002
 -5.9210239E+002
 -6.4001019E+002
 -6.7036190E+002
 -6.8807814E+002
 -6.9747839E+002
 -6.9940249E+002
 -6.9505176E+002
 -6.8476959E+002
 -6.6748606E+002
 -6.4131856E+002
 -6.0387475E+002
 -5.5261188E+002
 -4.8527412E+002
 -4.0020620E+002
 -2.9707307E+002
 -1.7560441E+002
 -3.8859082E+001
  1.2643305E+002
  3.1731472E+002
  7.6078348E+002
 -1.2336832E+001
  1.6956182E+003
  1.7490175E+003
  2.3030556E+003
  2.1447298E+003
  2.0524470E+003
  1.8659935E+003
  1.5617295E+003
  1.2058346E+003
  8.2843802E+002
  4.6930862E+002
  1.4247584E+002
 -1.4412323E+002
 -3.8310926E+002
 -5.6515285E+002
 -6.7640876E+002
 -6.9072035E+002
 -5.9063433E+002
 -4.1595748E+002
 -2.4500487E+002
 -4.2704073E+001
 -2.8428210E+001
  1.5807775E+001
  2.1620240E+001
  9.0272875E+001
  5.8297436E+002
  1.8972660E+003
  3.4676211E+002
  3.5578245E+002
  3.7559872E+001
 -6.5085221E+001
 -2.2067323E+002
 -3.0575330E+002
 -3.7138703E+002
 -4.2752224E+002
 -4.6580566E+002
 -4.9006674E+002
 -5.0458041E+002
 -5.0969239E+002
 -5.0537404E+002
 -4.9057872E+002
 -4.6380280E+002
 -4.2352564E+002
 -3.6848717E+002
 -2.9763033E+002
 -2.1127388E+002
 -1.0663610E+002
  7.5309235E+000
  1.7130522E+002
  2.5969264E+002
  6.9730259E+002
  1.8342376E+002
  4.0917268E+003
  2.3427972E+003
  2.5965283E+003
  2.7374055E+003
  2.5839131E+003
  2.2769116E+003
  1.8033724E+003
  1.3153175E+003
  8.3133676E+002
  3.8186479E+002
 -2.3746756E+001
 -3.7835877E+002
 -6.6507737E+002
 -8.6094980E+002
 -9.5764817E+002
 -8.7931350E+002
 -5.2490210E+002
 -8.3528279E+001
  6.5072296E+001
  1.1580611E+002
  2.4742921E+001
  1.2275769E+001
  6.0129707E+001
  4.0593262E+002
  1.3883763E+003
  2.9438596E+002
  3.2264079E+002
  1.1683821E+002
  3.4833306E+001
 -9.4910006E+001
 -1.8328943E+002
 -2.4509730E+002
 -2.9193415E+002
 -3.2340774E+002
 -3.4403855E+002
 -3.5380056E+002
 -3.5178650E+002
 -3.3721472E+002
 -3.0922455E+002
 -2.6729871E+002
 -2.1127643E+002
 -1.4096230E+002
 -5.7488569E+001
  4.2170962E+001
  1.4653033E+002
  2.8700620E+002
  4.1130610E+002
  1.0808927E+003
  1.7771899E+003
  3.0870570E+003
  3.4390232E+003
  3.6596664E+003
  3.0454042E+003
  2.4584530E+003
  1.7909367E+003
  1.1615432E+003
  5.7670417E+002
  4.4394162E+001
 -4.3572591E+002
 -8.6158491E+002
 -1.1750802E+003
 -1.2785683E+003
 -1.0913437E+003
 -4.9694405E+002
 -2.5520831E+002
  1.6048943E+002
  3.8707432E+001
  3.1176976E+002
  1.1118913E+003
  2.5718083E+002
  3.7024471E+002
  1.4629273E+002
  4.1685465E+001
 -4.9820777E+001
 -1.0460028E+002
 -1.5344771E+002
 -1.8960155E+002
 -2.1368182E+002
 -2.2564691E+002
 -2.2401242E+002
 -2.0881113E+002
 -1.8031134E+002
 -1.3884294E+002
 -8.5261088E+001
 -1.9780238E+001
  5.3689792E+001
  1.4111543E+002
  2.1909763E+002
  3.3398932E+002
  6.9373184E+002
  1.4587390E+003
  3.1524204E+003
  5.9526561E+003
  4.6379101E+003
  4.1187334E+003
  3.1222625E+003
  2.2488827E+003
  1.4408917E+003
  7.1992176E+002
  5.8611776E+001
 -5.5617037E+002
 -1.1267140E+003
 -1.6944268E+003
 -2.1748764E+003
 -3.3134570E+003
 -2.3929572E+002
  2.4307664E+001
  3.3254770E+002
  1.0247421E+003
  3.0812700E+002
  2.2879495E+002
  1.4245800E+002
  6.1146890E+001
  2.6426768E+000
 -4.4658773E+001
 -8.6872700E+001
 -1.1305064E+002
 -1.2425086E+002
 -1.2172004E+002
 -1.0621179E+002
 -7.8805297E+001
 -4.0600092E+001
  6.7128799E+000
  6.1443460E+001
  1.1992171E+002
  1.7364890E+002
  2.3361493E+002
  8.0905156E+001
  6.2004625E+003
  7.2829209E+003
  6.9882686E+003
  5.1841283E+003
  3.7764213E+003
  2.6036424E+003
  1.6404303E+003
  8.0003119E+002
  2.9331735E+001
 -7.2907946E+002
 -1.4657136E+003
 -2.1800866E+003
 -2.0434192E+003
 -6.7759108E+002
  2.7032917E+002
  4.3780021E+002
  2.5018419E+002
  3.0029257E+002
  2.1689490E+002
  1.6929898E+002
  8.5242013E+001
  2.5315008E+001
 -1.4294956E+001
 -3.8498968E+001
 -4.7681183E+001
 -4.4137960E+001
 -2.9468095E+001
 -5.2839937E+000
  2.6794469E+001
  6.3779852E+001
  1.0323187E+002
  1.3515115E+002
  1.5362078E+002
  3.2543771E+004
  1.4225304E+004
  9.4709205E+003
  5.9455208E+003
  4.1342495E+003
  2.7564636E+003
  1.7129763E+003
  8.1462660E+002
 -2.0953778E+001
 -8.7641194E+002
 -1.8868761E+003
 -3.2379556E+003
 -6.4987160E+003
  4.2841327E+002
  2.1119727E+002
  2.4683104E+002
  8.2066245E+002
  2.4568508E+002
  3.4480253E+002
  1.9140195E+002
  1.2345291E+002
  6.4727773E+001
  3.2813409E+001
  1.3780258E+001
  7.0382991E+000
  1.0209049E+001
  2.2233569E+001
  4.1664171E+001
  6.6723585E+001
  8.8243732E+001
  1.0148728E+002
  2.0459788E+001
  3.0192440E+004
  1.3894022E+004
  8.8207262E+003
  5.6540686E+003
  3.9113266E+003
  2.6253169E+003
  1.6296270E+003
  7.7273663E+002
 -6.2049484E+001
 -8.4065121E+002
 -2.1329313E+003
 -2.4403646E+003
 -7.0839289E+003
  3.0441308E+001
  2.4541545E+002
  7.5997043E+002
  2.4592075E+002
  1.9325439E+002
  1.2861221E+002
  8.9711866E+001
  6.0783389E+001
  4.8428748E+001
  4.1335920E+001
  4.2029305E+001
  5.0471348E+001
  6.9912249E+001
  9.2700882E+001
  1.9751201E+002
  2.2068546E+001
  1.1192663E+003
  5.4217704E+003
  5.4803573E+003
  4.2852150E+003
  3.1728852E+003
  2.2273834E+003
  1.4132918E+003
  6.7511043E+002
 -2.8612631E+001
 -7.7595777E+002
 -1.5308802E+003
 -2.7480388E+003
 -4.2724294E+003
  1.6313173E+002
  2.4905150E+002
  1.6595024E+002
  1.8208345E+002
  1.1769183E+002
  1.0792988E+002
  8.3879368E+001
  6.3212461E+001
  5.4267895E+001
  5.1930551E+001
  6.1512924E+001
  5.2862438E+001
  1.0233806E+002
 -1.5197115E+003
  2.9972569E+003
  2.6206763E+003
  2.7782119E+003
  2.2441855E+003
  1.6964224E+003
  1.1166712E+003
  5.5552883E+002
  3.0808733E+000
 -5.3809779E+002
 -1.0614204E+003
 -1.4378827E+003
 -1.2517649E+003
  2.5451635E+002
  6.8957800E+002
  1.3190617E+002
  1.0769025E+002
  3.6131134E+002
  1.3457392E+002
  1.2219994E+002
  1.1562393E+002
  7.5007580E+001
  5.8089225E+001
  4.8769209E+001
  4.0497406E+001
  4.3199874E+001
  7.6207317E+000
 -2.1242973E+003
 -6.4000647E+003
 -1.6452732E+003
  1.1607440E+002
  1.3597655E+003
  1.4952587E+003
  1.4399510E+003
  1.1605243E+003
  8.0889401E+002
  4.2268374E+002
  3.2931517E+001
 -3.3721961E+002
 -6.5866970E+002
 -8.7628268E+002
 -8.8224247E+002
 -6.8278294E+002
  1.0461320E+001
 -1.5275795E+000
  2.0852385E+002
  2.0298462E+002
  6.4177843E+001
  5.4499087E+001
  3.8439185E+001
  2.9193724E+001
  2.6492560E+001
  9.4773622E+000
  2.4883510E+002
 -7.3627197E+003
 -2.5224770E+003
 -1.8268965E+003
 -3.3922797E+003
 -1.6797572E+003
 -5.3672480E+002
  3.1035640E+002
  7.1050273E+002
  7.9583363E+002
  7.1559929E+002
  5.3012216E+002
  2.9428145E+002
  4.2965923E+001
 -1.9368855E+002
 -3.8166386E+002
 -4.5811314E+002
 -3.5605342E+002
 -8.3191216E+001
  3.9774459E+002
  3.8330081E+002
 -2.5155868E+001
 -1.9028250E+001
  3.8068368E+001
  2.7772271E+001
  6.4442835E+000
  7.1385585E+000
 -3.1509906E+003
 -3.7860858E+003
 -3.1375462E+003
 -2.5961261E+003
 -1.6911954E+003
 -8.4951009E+002
 -2.1343027E+002
  1.6955140E+002
  3.4673931E+002
  3.7207826E+002
  3.0385487E+002
  1.8080292E+002
  3.6489887E+001
 -1.0011055E+002
 -1.9744434E+002
 -2.2621083E+002
 -1.6940366E+002
 -2.0058180E+001
  1.6848333E+002
  4.0076415E+002
  2.3389651E+002
 -3.1015898E+003
 -3.0474469E+003
 -2.5444117E+003
 -2.1064952E+003
 -1.5556678E+003
 -9.7097221E+002
 -4.9361271E+002
 -1.5669087E+002
  4.0473778E+001
  1.2637862E+002
  1.3224841E+002
  8.8739462E+001
  2.2075223E+001
 -4.3305060E+001
 -8.5119611E+001
 -8.3818525E+001
 -2.7616097E+001
  7.7600577E+001
  2.0474845E+002
  2.2582078E+002
  2.4955328E+002
  1.2725348E+002
 -2.4355861E+003
 -2.3871849E+003
 -2.1798912E+003
 -1.8168101E+003
 -1.4101713E+003
 -9.9798317E+002
 -6.3004987E+002
 -3.4690213E+002
 -1.5357994E+002
 -4.0494003E+001
  1.0680198E+001
  1.9903190E+001
  6.8925986E+000
 -1.0246445E+001
 -1.5190420E+001
  3.7796729E+000
  5.4818497E+001
  1.2862442E+002
  2.4030485E+002
  3.3933083E+002
  7.6434811E+002
 -2.1152112E+003
 -2.0289340E+003
 -1.8376241E+003
 -1.5827201E+003
 -1.2798467E+003
 -9.6923513E+002
 -6.8417441E+002
 -4.4704383E+002
 -2.6834628E+002
 -1.4547302E+002
 -6.9092432E+001
 -2.6469918E+001
 -4.0929305E+000
  1.1037231E+001
  3.0104947E+001
  6.1780135E+001
  1.0940951E+002
  1.7463162E+002
  2.4436254E+002
  3.1686540E+002
  2.9681701E+002
  2.0420643E+002
  3.9087115E+001
 -1.8251240E+003
 -1.7399017E+003
 -1.5934058E+003
 -1.3911971E+003
 -1.1585464E+003
 -9.1705257E+002
 -6.8850757E+002
 -4.8922425E+002
 -3.2742354E+002
 -2.0422356E+002
 -1.1513475E+002
 -5.2584883E+001
 -7.6870322E+000
  2.8368263E+001
  6.3281156E+001
  1.0262387E+002
  1.4910848E+002
  2.0261172E+002
  2.5749241E+002
  3.2921343E+002
  3.9707570E+002
  6.6487544E+002
 -1.6087544E+003
 -1.5229000E+003
 -1.3946184E+003
 -1.2318968E+003
 -1.0457371E+003
 -8.5160097E+002
 -6.6382190E+002
 -4.9369702E+002
 -3.4804979E+002
 -2.2895597E+002
 -1.3470905E+002
 -6.1037393E+001
 -2.4058301E+000
  4.6920756E+001
  9.1969012E+001
  1.3637178E+002
  1.8181093E+002
  2.2783180E+002
  2.7343272E+002
  3.1168523E+002
  3.1852650E+002
  2.9300376E+002
  8.6295408E+000
  1.4381900E+001
 -1.4290339E+003
 -1.3456339E+003
 -1.2330624E+003
 -1.0954036E+003
 -9.4109237E+002
 -7.7983649E+002
 -6.2138412E+002
 -4.7372564E+002
 -3.4212784E+002
 -2.2890297E+002
 -1.3374483E+002
 -5.4462567E+001
  1.2197380E+001
  6.9756228E+001
  1.2131421E+002
  1.6903017E+002
  2.1366294E+002
  2.5505001E+002
  2.9020625E+002
  3.1873567E+002
  3.3447793E+002
  3.5016394E+002
  3.1444054E+002
 -1.2797609E+003
 -1.1983583E+003
 -1.0958595E+003
 -9.7573096E+002
 -8.4331199E+002
 -7.0524516E+002
 -5.6814778E+002
 -4.3767661E+002
 -3.1785087E+002
 -2.1080435E+002
 -1.1692885E+002
 -3.5276501E+001
  3.5901808E+001
  9.8591534E+001
  1.5451441E+002
  2.0465962E+002
  2.4922124E+002
  2.8682099E+002
  3.1732175E+002
  3.3519635E+002
  3.6037607E+002
  3.3432408E+002
  5.0188468E+002
 -1.1520497E+003
 -1.0719738E+003
 -9.7652129E+002
 -8.6830103E+002
 -7.5119380E+002
 -6.2966970E+002
 -5.0826929E+002
 -3.9097713E+002
 -2.8079631E+002
 -1.7954637E+002
 -8.7902301E+001
 -5.6250660E+000
  6.8088391E+001
  1.3420686E+002
  1.9346094E+002
  2.4602212E+002
  2.9120598E+002
  3.2735843E+002
  3.5223723E+002
  3.6304131E+002
  3.6267396E+002
  3.6663706E+002
  4.3256799E+002
 -1.0410305E+003
 -9.6110614E+002
 -8.6987780E+002
 -7.6979708E+002
 -6.6348229E+002
 -5.5396429E+002
 -4.4427182E+002
 -3.3715846E+002
 -2.3480943E+002
 -1.3868634E+002
 -4.9515936E+001
  3.2582041E+001
  1.0786700E+002
  1.7668014E+002
  2.3914014E+002
  2.9475912E+002
  3.4226382E+002
  3.7916291E+002
  4.0075836E+002
  4.0260326E+002
  3.7399062E+002
  3.1114361E+002
  1.6138231E+002
 -1.5128518E+002
 -1.1402077E+002
 -9.4327953E+002
 -8.6127327E+002
 -7.7223788E+002
 -6.7750084E+002
 -5.7899233E+002
 -4.7842516E+002
 -3.7768536E+002
 -2.7856634E+002
 -1.8259235E+002
 -9.0873558E+001
 -4.0612308E+000
  7.7596955E+001
  1.5410418E+002
  2.2551270E+002
  2.9161893E+002
  3.5177970E+002
  4.0401306E+002
  4.4561455E+002
  4.7064730E+002
  4.6514010E+002
  4.1374588E+002
  3.3838467E+002
  3.3398274E+002
 -6.2075450E+001
 -8.5437245E+002
 -7.6937647E+002
 -6.8000405E+002
 -5.8910654E+002
 -4.9654257E+002
 -4.0304383E+002
 -3.0946758E+002
 -2.1682326E+002
 -1.2611355E+002
 -3.8152483E+001
  4.6547084E+001
  1.2775567E+002
  2.0543959E+002
  2.7959007E+002
  3.5012146E+002
  4.1632749E+002
  4.7753125E+002
  5.2857453E+002
  5.6716960E+002
  5.7937204E+002
  5.3361814E+002
  3.2701975E+002
  5.8653439E+001
 -7.7520726E+002
 -6.7925058E+002
 -5.9024657E+002
 -5.0222462E+002
 -4.1498186E+002
 -3.2774521E+002
 -2.4030779E+002
 -1.5312561E+002
 -6.6880869E+001
  1.7834418E+001
  1.0064507E+002
  1.8144263E+002
  2.6028914E+002
  3.3733726E+002
  4.1263172E+002
  4.8655335E+002
  5.5808068E+002
  6.3130983E+002
  6.9171660E+002
  7.4066188E+002
  6.1278379E+002
  2.8184958E+002
  1.9938773E+002
 -6.8565302E+002
 -5.8930310E+002
 -4.9826860E+002
 -4.1436864E+002
 -3.3347683E+002
 -2.5257944E+002
 -1.7089131E+002
 -8.8519049E+001
 -6.1057235E+000
  7.5725027E+001
  1.5675891E+002
  2.3707707E+002
  3.1696842E+002
  3.9677852E+002
  4.7688793E+002
  5.5763005E+002
  6.4125802E+002
  7.2831804E+002
  8.5003182E+002
  1.0434565E+003
  1.7502882E+003
  8.0970208E+001
 -7.7520367E+002
 -5.9416367E+002
 -4.8569330E+002
 -3.9816199E+002
 -3.2386212E+002
 -2.5175940E+002
 -1.7849744E+002
 -1.0212208E+002
 -2.3800777E+001
  5.5239205E+001
  1.3442033E+002
  2.1357705E+002
  2.9313479E+002
  3.7375851E+002
  4.5593617E+002
  5.4072564E+002
  6.2633669E+002
  7.1968008E+002
  7.9868070E+002
  9.4526964E+002
  8.6396561E+002
  1.5136865E+003
 -8.6326641E+002
 -3.5454546E+002
 -3.7496924E+002
 -2.8249022E+002
 -2.3204385E+002
 -1.7210644E+002
 -1.0651622E+002
 -3.5397106E+001
  3.9683403E+001
  1.1652231E+002
  1.9310485E+002
  2.6998146E+002
  3.4815356E+002
  4.2881162E+002
  5.1316738E+002
  6.0149580E+002
  6.9573442E+002
  7.8732952E+002
  8.8649374E+002
  9.2914886E+002
  1.0111885E+003
  7.5975710E+002
  1.5904118E+002
  3.5689182E+000
 -2.8863464E+002
 -1.5152017E+002
 -1.4548033E+002
 -9.5149031E+001
 -4.3742966E+001
  2.7627197E+001
  1.0339933E+002
  1.7787999E+002
  2.5153876E+002
  3.2500784E+002
  4.0063806E+002
  4.8033322E+002
  5.6566586E+002
  6.5872956E+002
  7.5917810E+002
  8.7276902E+002
  9.7471261E+002
  1.0398347E+003
  8.6873407E+002
 -5.4525728E+001
 -4.0219539E+000
 -2.4123503E+001
 -5.5404466E+001
 -4.6066529E+001
  1.6204594E+001
  8.3628629E+001
  1.6193931E+002
  2.4059539E+002
  3.0997150E+002
  3.7791039E+002
  4.4903106E+002
  5.2608361E+002
  6.1105745E+002
  7.0589822E+002
  8.1721207E+002
  9.4285866E+002
  1.1317330E+003
  1.3704119E+003
  2.1608991E+003
 -1.8625757E+002
 -2.2949446E+001
 -8.7506039E-001
 -3.4708956E+000
  1.7663183E+001
  1.3608178E+002
  2.4466585E+002
  3.1232013E+002
  3.6911193E+002
  4.2722595E+002
  4.9201166E+002
  5.6392333E+002
  6.4591792E+002
  7.3914631E+002
  8.5269506E+002
  9.8048773E+002
  1.1999756E+003
  1.2951844E+003
  2.1044175E+003
 -2.8567373E+001
  8.0587336E+001
  1.6737336E+002
  2.9175535E+002
  3.9135950E+002
  4.2652807E+002
  4.7316373E+002
  5.2644875E+002
  5.9232401E+002
  6.6846806E+002
  7.5586740E+002
  8.5960378E+002
  9.7944579E+002
  1.1581511E+003
  1.2852160E+003
  1.8927648E+003
  3.9354757E+001
  7.3606774E+002
  5.0923456E+002
  4.8490863E+002
  5.0393919E+002
  5.5055241E+002
  6.0985342E+002
  6.7968763E+002
  7.5744833E+002
  8.4522136E+002
  9.3770114E+002
  1.0638185E+003
  1.2167319E+003
  1.6697406E+003
  6.4869494E+002
  4.3363212E+002
  5.0384595E+002
  5.1084440E+002
  5.6140295E+002
  6.1728998E+002
  6.8231245E+002
  7.5131737E+002
  8.1928644E+002
  8.8574016E+002
  9.1993477E+002
  8.9340445E+002
  6.1682455E+002
 -1.7828041E+002
 -2.5816636E+002
  3.9215003E+002
  4.5599726E+002
  4.5650624E+002
  5.0806524E+002
  5.5747116E+002
  6.1790283E+002
  6.8096596E+002
  7.4379534E+002
  8.0294228E+002
  8.4340068E+002
  8.6151423E+002
  8.0322444E+002
  6.6213344E+002
  2.4584961E+002
  3.7816878E+002
  3.7637179E+002
  4.3005464E+002
  4.8338563E+002
  5.4883789E+002
  6.1416973E+002
  6.7956472E+002
  7.4208866E+002
  7.9759162E+002
  8.4467890E+002
  8.6201608E+002
  8.1805993E+002
  5.8226621E+002
 -1.5381145E+002
  1.7636119E+002
  2.9069862E+002
  3.7549664E+002
  4.5928812E+002
  5.3671558E+002
  6.1126325E+002
  6.8120197E+002
  7.4577641E+002
  8.0573645E+002
  8.6039263E+002
  9.3233694E+002
  1.0385954E+003
  1.4861705E+003
 -1.7967341E+002
 -2.3463868E+002
 -2.4230056E+002
  2.0909579E+001
  2.1217434E+002
  3.3151071E+002
  4.3750185E+002
  5.2904904E+002
  6.1257312E+002
  6.8817773E+002
  7.5479346E+002
  8.1790640E+002
  8.6531771E+002
  9.7414950E+002
  9.4465853E+002
  1.5242831E+003
 -1.9355461E+002
 -2.3107657E+002
 -1.1801413E+002
  3.6708630E+001
  1.7807388E+002
  3.1184337E+002
  4.2639142E+002
  5.3007345E+002
  6.2201137E+002
  7.0286926E+002
  7.7227830E+002
  8.2737521E+002
  8.7655582E+002
  8.9947105E+002
  9.8758999E+002
  1.0176217E+003
 -1.3036159E+002
 -1.7740777E+001
 -2.4938907E+002
 -9.3405865E+001
  1.3517282E+001
  1.6900867E+002
  3.0367499E+002
  4.2961735E+002
  5.4206552E+002
  6.4258892E+002
  7.2979146E+002
  8.0089374E+002
  8.5269129E+002
  8.7523767E+002
  8.8028800E+002
  8.4433179E+002
  8.4704626E+002
 -6.9877994E+002
 -2.0585679E+002
 -1.9299401E+002
  1.2958642E+001
  1.6051203E+002
  3.1060890E+002
  4.4415183E+002
  5.6668914E+002
  6.7672064E+002
  7.7233732E+002
  8.5031668E+002
  9.0144617E+002
  9.1022728E+002
  8.3730921E+002
  7.3372820E+002
  5.8516690E+002
 -1.1842640E+003
 -5.0371623E+002
 -2.1715614E+002
 -2.6935286E+000
  1.7076376E+002
  3.2802741E+002
  4.7131043E+002
  6.0344898E+002
  7.2461222E+002
  8.3452720E+002
  9.2543704E+002
  9.9149517E+002
  1.0180609E+003
  9.3561294E+002
  6.4517862E+002
 -9.9833348E+000
 -6.1727289E+002
 -7.8327777E+002
 -6.2539687E+002
 -3.9819673E+002
 -1.8151471E+002
  1.8118028E+001
  1.9726409E+002
  3.5919098E+002
  5.0964047E+002
  6.5070397E+002
  7.8479424E+002
  9.1075210E+002
  1.0345532E+003
  1.1312171E+003
  1.2030882E+003
  1.0254119E+003
  5.1399445E+002
  3.4877405E+002
 -8.7619043E+002
 -8.4597307E+002
 -6.9374602E+002
 -5.2687939E+002
 -3.2822183E+002
 -1.2030718E+002
  6.5739892E+001
  2.3933192E+002
  4.0242577E+002
  5.5695581E+002
  7.0599169E+002
  8.5048649E+002
  9.9657169E+002
  1.1399886E+003
  1.3302128E+003
  1.5636589E+003
  2.6965260E+003
  2.6697888E+002
 -9.3704369E+002
 -9.1226659E+002
 -7.6134922E+002
 -5.7570571E+002
 -4.0863395E+002
 -2.2912294E+002
 -5.0554612E+001
  1.2549314E+002
  2.9300031E+002
  4.5392166E+002
  6.1024695E+002
  7.6473427E+002
  9.1894456E+002
  1.0792063E+003
  1.2202493E+003
  1.4516551E+003
  1.3206882E+003
  2.0225573E+003
 -1.0183434E+003
 -9.8873574E+002
 -8.3038803E+002
 -6.4371291E+002
 -4.8034938E+002
 -3.0959710E+002
 -1.4133029E+002
  2.7570047E+001
  1.9235197E+002
  3.5308480E+002
  5.1009294E+002
  6.6553240E+002
  8.2259714E+002
  9.8571439E+002
  1.1584123E+003
  1.3441378E+003
  1.4204819E+003
  1.3972736E+003
 -9.2733957E+001
 -7.8519986E+002
 -1.8316849E+003
 -8.9738261E+002
 -7.4648097E+002
 -5.3776150E+002
 -3.7346073E+002
 -2.0963454E+002
 -4.9790692E+001
  1.0818401E+002
  2.6380779E+002
  4.1671243E+002
  5.6775978E+002
  7.1917348E+002
  8.7416712E+002
  1.0413105E+003
  1.2259933E+003
  1.4862849E+003
  1.8499460E+003
  3.0734528E+003
 -8.9774345E+001
 -2.5560831E+002
 -8.5188780E+002
 -5.4554686E+002
 -6.4437373E+002
 -9.3729109E+002
 -7.2844408E+002
 -5.9380090E+002
 -4.1701879E+002
 -2.6225965E+002
 -1.0768317E+002
  4.2861314E+001
  1.9158132E+002
  3.3788662E+002
  4.8222117E+002
  6.2510925E+002
  7.6902465E+002
  9.1453299E+002
  1.0772296E+003
  1.2324236E+003
  1.5358876E+003
  1.5399818E+003
  2.7484377E+003
 -4.8627135E+002
 -1.5119392E+003
 -6.6592502E+002
 -7.3257520E+002
 -6.6809324E+002
 -5.6532061E+002
 -4.2736836E+002
 -2.8985065E+002
 -1.4546128E+002
 -3.1306563E+000
  1.3804938E+002
  2.7712096E+002
  4.1409554E+002
  5.4894964E+002
  6.8225486E+002
  8.1446908E+002
  9.4836968E+002
  1.0815501E+003
  1.2335355E+003
  1.3487015E+003
  1.6037547E+003
  1.6351358E+003
 -7.5032132E+002
 -6.4063836E+002
 -5.6249613E+002
 -4.9246355E+002
 -4.0435601E+002
 -2.8664770E+002
 -1.5996693E+002
 -2.9137538E+001
  1.0338150E+002
  2.3504351E+002
  3.6488719E+002
  4.9235695E+002
  6.1738961E+002
  7.3993918E+002
  8.6020136E+002
  9.7631336E+002
  1.0894297E+003
  1.1864969E+003
  1.2820434E+003
  1.2947303E+003
  1.3606305E+003
 -5.0126894E+002
 -4.3381382E+002
 -3.5663088E+002
 -2.6211082E+002
 -1.5474523E+002
 -3.6582552E+001
  8.6296467E+001
  2.1059060E+002
  3.3396797E+002
  4.5499862E+002
  5.7310185E+002
  6.8816985E+002
  8.0028640E+002
  9.0850848E+002
  1.0120457E+003
  1.1014355E+003
  1.1752688E+003
  1.2034510E+003
  1.1832500E+003
  9.4104908E+002
 -3.0934699E+002
 -2.2952549E+002
 -1.3690117E+002
 -3.1697565E+001
  8.1914909E+001
  1.9997607E+002
  3.1866319E+002
  4.3524962E+002
  5.4804703E+002
  6.5684282E+002
  7.6204744E+002
  8.6398438E+002
  9.6288031E+002
  1.0561734E+003
  1.1429872E+003
  1.2032305E+003
  1.1929911E+003
  1.0081017E+003
 -4.6125345E+001
 -1.1794779E+002
 -2.3083040E+001
  8.2723231E+001
  1.9603036E+002
  3.1317311E+002
  4.2923017E+002
  5.4022692E+002
  6.4515149E+002
  7.4417832E+002
  8.3902071E+002
  9.3145089E+002
  1.0211211E+003
  1.1111757E+003
  1.1924990E+003
  1.3029908E+003
  1.4005846E+003
  2.2122745E+003
 -6.7407389E+001
  7.9842186E+001
  1.8894255E+002
  3.0690232E+002
  4.2666992E+002
  5.4335787E+002
  6.5176327E+002
  7.4790721E+002
  8.3570881E+002
  9.1865381E+002
  1.0006968E+003
  1.0829980E+003
  1.1683812E+003
  1.2361041E+003
  1.3625105E+003
  1.2188211E+003
  1.6815968E+003
  2.8952135E+002
  4.1310521E+002
  5.4592128E+002
  6.7168417E+002
  7.7421716E+002
  8.5976889E+002
  9.3147106E+002
  9.9946544E+002
  1.0689542E+003
  1.1444966E+003
  1.2281716E+003
  1.3191424E+003
  1.3198610E+003
  1.2197992E+003
 -7.0376780E+001
  6.6010857E+002
  8.0367235E+002
  9.1889166E+002
  9.8259216E+002
  1.0319817E+003
  1.0784442E+003
  1.1311330E+003
  1.1971345E+003
  1.2796455E+003
  1.4248608E+003
  1.6467917E+003
  2.5822809E+003
 -7.3475965E+001
  1.0429451E+003
  1.1012329E+003
  1.1230544E+003
  1.1332393E+003
  1.1528113E+003
  1.1803533E+003
  1.2310989E+003
  1.2823334E+003
  1.4553540E+003
  1.3819095E+003
  2.2484220E+003
SCALARS Stress_xy double
LOOKUP_TABLE default
 -3.5092067E+003
 -3.6642091E+003
 -1.3125353E+003
 -1.1080473E+003
 -7.7979108E+002
 -8.3561729E+002
  7.3573251E+002
  8.1442589E+002
  1.3676542E+003
  1.1126444E+003
  3.8302884E+003
  3.4377222E+003
  9.2772849E+001
 -2.3679095E+002
 -4.0082727E+002
 -9.0962351E+001
 -6.7769498E+002
 -2.0577620E+002
 -8.1738858E+002
 -2.6321266E+002
 -9.5359789E+002
 -2.9670018E+002
 -1.0655830E+003
 -3.3081042E+002
 -1.1721905E+003
 -3.6033755E+002
 -1.2705476E+003
 -3.9766726E+002
 -1.3853090E+003
 -4.1421714E+002
 -1.4899183E+003
 -5.4062947E+002
 -1.7894785E+003
 -4.8134202E+002
 -2.0727571E+003
 -1.6434625E+003
 -1.4433639E+003
 -5.4064019E+002
 -5.1959753E+002
  3.6190235E+002
  6.5254616E+002
  2.0661673E+003
  3.5933760E+003
  2.7584395E+003
  3.3543374E+003
  1.6183821E+003
  5.4037856E+003
  3.2803960E+003
 -6.2336948E+002
 -8.8600785E+002
 -1.2479295E+003
 -1.5394901E+003
 -1.7919127E+003
 -2.0156564E+003
 -2.2160230E+003
 -2.3988570E+003
 -2.5587910E+003
 -2.7103469E+003
 -2.7607917E+003
 -2.4002379E+003
 -1.2046036E+003
 -6.5179498E+002
 -3.9381199E+002
 -1.3924970E+002
  4.7379354E+002
  1.6944409E+003
  3.6687843E+003
  4.2036837E+003
  5.5055484E+003
  5.4976457E+003
  3.0785181E+003
  4.5501735E+003
  1.1558944E+003
 -3.0151178E+002
 -2.0374396E+002
 -7.1853301E+002
 -1.2415735E+003
 -1.5877828E+003
 -1.9427420E+003
 -2.2637574E+003
 -2.5518951E+003
 -2.8041791E+003
 -3.0152867E+003
 -3.1720848E+003
 -3.2251424E+003
 -3.0667768E+003
 -2.5575462E+003
 -1.9731881E+003
 -1.3165346E+003
 -8.8855891E+002
 -4.1780025E+002
  3.5069086E+002
  1.5974621E+003
  2.8276049E+003
  4.2881626E+003
  5.7292395E+003
  8.2734117E+003
  7.5988884E+003
  6.3427969E+003
 -3.5554738E+002
 -6.3721719E+002
 -1.0265842E+003
 -1.4805107E+003
 -1.7806022E+003
 -2.1887577E+003
 -2.5521456E+003
 -2.8821263E+003
 -3.1632747E+003
 -3.3894095E+003
 -3.5366894E+003
 -3.5599076E+003
 -3.3970661E+003
 -3.0507535E+003
 -2.5313737E+003
 -2.0322486E+003
 -1.5175388E+003
 -9.1143833E+002
 -6.7586360E+001
  1.0256926E+003
  2.3554112E+003
  3.7435020E+003
  5.2096204E+003
  6.5587025E+003
  7.4114368E+003
  1.3962217E+004
 -1.0509620E+003
 -9.6548369E+002
 -1.3386671E+003
 -1.8174530E+003
 -2.2458671E+003
 -2.6441510E+003
 -2.9866128E+003
 -3.2777312E+003
 -3.5119877E+003
 -3.6729209E+003
 -3.7303711E+003
 -3.6582071E+003
 -3.4428028E+003
 -3.1251108E+003
 -2.7099762E+003
 -2.2072426E+003
 -1.5531103E+003
 -6.9633705E+002
  3.7443707E+002
  1.5646987E+003
  2.7942971E+003
  3.7890765E+003
  4.5187190E+003
  3.8593811E+003
  7.7605406E+003
  8.2660188E+003
  7.3794686E+003
  9.2284248E+003
  3.6340619E+003
 -7.3545668E+002
 -3.7908463E+002
 -5.3872408E+002
 -7.3586118E+002
 -1.1742093E+003
 -1.7094111E+003
 -2.1768138E+003
 -2.5700561E+003
 -2.8993181E+003
 -3.1813864E+003
 -3.4233410E+003
 -3.6181486E+003
 -3.7493023E+003
 -3.7971728E+003
 -3.7502485E+003
 -3.5941577E+003
 -3.3192388E+003
 -2.8868082E+003
 -2.2577682E+003
 -1.4105578E+003
 -3.7537687E+002
  7.6396457E+002
  1.8580142E+003
  2.7611420E+003
  3.3430323E+003
  4.5027273E+003
  6.5348360E+003
  7.7547302E+003
  7.7741225E+003
  5.9508282E+003
  4.6050122E+003
  5.8966420E+003
  2.4687107E+003
 -3.8537604E+002
 -3.5254094E+002
 -5.5288726E+002
 -1.0281812E+003
 -1.5559304E+003
 -2.0014573E+003
 -2.3416229E+003
 -2.6195461E+003
 -2.8731468E+003
 -3.1186354E+003
 -3.3552182E+003
 -3.5725285E+003
 -3.7551497E+003
 -3.8803419E+003
 -3.9153734E+003
 -3.8077069E+003
 -3.4971469E+003
 -2.9350036E+003
 -2.1113003E+003
 -1.0804980E+003
  6.4762850E+001
  1.2051223E+003
  2.2426249E+003
  3.2780478E+003
  4.4622511E+003
  5.7596453E+003
  6.4307651E+003
  6.9388104E+003
  6.4416292E+003
  5.2788474E+003
  3.5312401E+003
  2.6338893E+003
  2.6189644E+003
  7.4822764E+002
 -1.9054755E+002
 -3.3566179E+001
  1.5735218E+002
  1.7116015E+002
 -2.4134119E+002
 -8.3841641E+002
 -1.3682627E+003
 -1.7201850E+003
 -1.9400377E+003
 -2.1310314E+003
 -2.3422395E+003
 -2.5862569E+003
 -2.8609778E+003
 -3.1598024E+003
 -3.4713113E+003
 -3.7718195E+003
 -4.0120104E+003
 -4.1103256E+003
 -3.9667965E+003
 -3.4997200E+003
 -2.7124747E+003
 -1.6570597E+003
 -4.6536958E+002
  7.8455735E+002
  2.0537894E+003
  3.3002028E+003
  4.4992491E+003
  5.4690107E+003
  6.1134466E+003
  6.1070648E+003
  5.4856742E+003
  4.8675483E+003
  3.9481447E+003
  2.5209487E+003
  1.2609590E+003
  8.7221471E+002
  2.7036619E+002
 -2.7550427E+002
  1.0255207E+002
  3.6333442E+002
  6.9242222E+002
  3.0939094E+002
 -5.7742460E+002
 -1.1340844E+003
 -1.2571865E+003
 -1.3039437E+003
 -1.4031731E+003
 -1.5780830E+003
 -1.8191685E+003
 -2.1188040E+003
 -2.4746146E+003
 -2.8859609E+003
 -3.3409553E+003
 -3.7924245E+003
 -4.1337781E+003
 -4.2017665E+003
 -3.8695440E+003
 -3.0884227E+003
 -2.0633127E+003
 -8.4786857E+002
  4.6498074E+002
  1.8341264E+003
  3.2386666E+003
  4.4392161E+003
  5.2456121E+003
  5.4999285E+003
  5.2563707E+003
  4.7018257E+003
  3.9139426E+003
  2.9934043E+003
  2.2147983E+003
  1.4301332E+003
  3.8106864E+002
 -3.1456544E+002
 -1.4926053E+002
 -7.1263352E+002
 -4.6089513E+002
  8.2128796E+002
  1.4540918E+003
  7.2020361E+002
 -5.6766465E+002
 -6.1952545E+002
 -4.3959219E+002
 -3.5456480E+002
 -4.2681836E+002
 -5.9649568E+002
 -8.3751301E+002
 -1.1376773E+003
 -1.5032517E+003
 -1.9507870E+003
 -2.4953156E+003
 -3.1246492E+003
 -3.7331920E+003
 -4.0859557E+003
 -3.8686328E+003
 -3.1659673E+003
 -2.0513276E+003
 -1.1188206E+003
 -7.6159773E+001
  1.3948358E+003
  2.8870168E+003
  4.1531502E+003
  4.8169211E+003
  4.7324212E+003
  4.1212098E+003
  3.2966551E+003
  2.5396191E+003
  1.9222534E+003
  1.3366700E+003
  7.3061842E+002
  1.3424222E+002
 -4.5709065E+002
 -8.5604960E+002
 -1.1433293E+003
 -9.5292134E+002
  3.1101595E+003
  2.6578996E+003
  6.3923958E+002
  5.4930101E+002
  9.3945995E+002
  8.7926116E+002
  7.4252002E+002
  5.3164882E+002
  2.9552460E+002
  3.1889339E+001
 -2.7419778E+002
 -6.5547732E+002
 -1.1594510E+003
 -1.8307896E+003
 -2.6740022E+003
 -3.3871134E+003
 -3.4465766E+003
 -2.2938243E+003
 -1.6583665E+003
 -1.2165790E+003
 -8.2499201E+002
 -4.8673021E+001
  1.7530824E+003
  3.2899438E+003
  3.9224443E+003
  3.5409129E+003
  2.4178925E+003
  1.3532302E+003
  7.1468321E+002
  4.2086920E+002
  2.3887510E+002
 -1.1741731E+001
 -3.8454886E+002
 -7.6876962E+002
 -1.1223812E+003
 -1.3260839E+003
 -1.3067974E+003
 -1.1333019E+003
  5.0965265E+002
  2.0874590E+003
  2.7982752E+003
  2.5136934E+003
  2.2310603E+003
  1.9299869E+003
  1.6790943E+003
  1.4686830E+003
  1.2904510E+003
  1.1223559E+003
  9.2862038E+002
  6.5658069E+002
  2.0652041E+002
 -5.1888037E+002
 -1.7046898E+003
 -2.0252811E+003
 -8.1171953E+002
  1.4360311E+003
 -1.1289081E+003
 -3.8278552E+003
 -2.0663505E+003
 -1.9319923E+002
  1.4193554E+003
  2.5305271E+003
  1.5250538E+003
 -2.3271529E+002
 -1.3837149E+003
 -1.4910257E+003
 -1.1312870E+003
 -8.2047268E+002
 -7.3843861E+002
 -8.6728529E+002
 -1.1554955E+003
 -1.4539303E+003
 -1.8760880E+003
 -1.6667192E+003
 -1.1278843E+003
 -4.5055834E+002
  3.1879236E+003
  4.0558646E+003
  4.7037685E+003
  3.7529709E+003
  3.3098147E+003
  2.9189592E+003
  2.6816650E+003
  2.5438729E+003
  2.4985361E+003
  2.5279923E+003
  2.6195475E+003
  2.7360677E+003
  2.8675982E+003
  2.7695957E+003
  2.5649003E+003
  2.2891135E+002
  4.5304285E+003
  5.6487649E+003
 -7.9753459E+002
 -6.6421856E+003
 -8.3223676E+003
 -7.1717825E+003
 -3.7415550E+003
  3.7640765E+002
 -9.8454947E+002
 -4.4671002E+003
 -4.8546196E+003
 -3.5802355E+003
 -2.3079422E+003
 -1.5179696E+003
 -1.1872664E+003
 -1.1936154E+003
 -1.4094311E+003
 -1.7446357E+003
 -2.0898562E+003
 -2.2770733E+003
 -2.5597561E+003
  5.8854528E+003
  4.3819009E+003
  4.7628322E+003
  4.1647227E+003
  3.8146838E+003
  3.5363519E+003
  3.4023304E+003
  3.3909200E+003
  3.5046291E+003
  3.7461476E+003
  4.1264159E+003
  4.6742812E+003
  5.4251066E+003
  6.4842032E+003
  8.1300321E+003
  9.7637104E+003
  2.1683721E+004
  7.1612010E+003
 -8.2621549E+002
 -6.5728608E+003
 -1.9699646E+004
 -1.6349141E+004
 -7.3639708E+003
  1.5634625E+003
 -1.0443382E+004
 -1.1122905E+004
 -7.6128481E+003
 -4.4093912E+003
 -2.5307572E+003
 -1.5849464E+003
 -1.2288666E+003
 -1.2400770E+003
 -1.4625868E+003
 -1.8229103E+003
 -2.1314012E+003
 -2.6870800E+003
 -2.6092640E+003
 -2.2504930E+003
 -8.5671227E+002
  3.9688179E+003
  6.6384116E+003
  3.6829097E+003
  1.9854222E+003
  4.4061569E+003
  3.1877144E+003
  3.0306436E+003
  2.5413877E+003
  3.6081890E+003
  3.7615138E+003
  3.7652419E+003
  3.7376953E+003
  3.7806930E+003
  3.9231917E+003
  4.1879649E+003
  4.5918910E+003
  5.1744512E+003
  5.9405065E+003
  7.1078394E+003
  8.2921910E+003
  1.1379998E+004
  1.1174209E+004
  1.0892487E+004
 -1.1152130E+004
 -1.6988759E+004
 -3.3268475E+004
 -1.9616215E+004
 -1.7876800E+004
 -1.1421758E+004
 -6.1094849E+003
 -2.9683511E+003
 -1.5851181E+003
 -9.7113833E+002
 -8.5762642E+002
 -1.0066331E+003
 -1.3010122E+003
 -1.6714192E+003
 -2.1331180E+003
 -2.6458496E+003
 -3.3215175E+003
 -4.4943360E+003
  4.7452376E+003
  9.1832131E+003
  5.0464214E+003
  4.3810104E+003
  5.3711434E+003
  3.9078221E+003
  3.9851407E+003
  2.5480847E+003
  2.1884877E+003
  2.5804176E+003
  3.0873739E+003
  3.3861370E+003
  3.6091563E+003
  3.8353078E+003
  4.1179053E+003
  4.4884507E+003
  4.9711613E+003
  5.5827101E+003
  6.3462961E+003
  7.2201243E+003
  8.1684985E+003
  8.5008720E+003
  5.0852555E+003
 -1.2918227E+003
 -5.4722208E+004
 -3.6487722E+004
 -1.7683022E+004
 -9.3554109E+002
 -1.3816390E+003
 -1.1790867E+002
 -1.8859195E+001
  1.9070636E+000
 -2.4435031E+002
 -5.7837994E+002
 -9.4821222E+002
 -1.3542099E+003
 -1.8344482E+003
 -2.3537715E+003
 -2.8926852E+003
 -3.7617653E+003
 -4.0234571E+003
 -3.9359324E+003
  8.4388502E+003
  1.0333300E+004
  5.9461564E+003
  5.7379264E+003
  6.2768983E+003
  4.2400545E+003
  3.7071666E+003
  2.9312154E+003
  2.4455377E+003
  2.1285595E+003
  1.8388400E+003
  2.0407181E+003
  2.4669525E+003
  2.8980370E+003
  3.2756927E+003
  3.6341995E+003
  4.0086202E+003
  4.4238751E+003
  4.8903180E+003
  5.4038316E+003
  5.9166320E+003
  6.3444371E+003
  6.3258614E+003
  5.3818649E+003
  2.5886311E+003
  1.4934028E+003
  3.8253759E+003
  7.5387180E+002
  1.5603930E+003
  1.2235873E+003
  1.0968842E+003
  4.3893568E+002
 -6.7514650E+001
 -4.3780039E+002
 -8.5332456E+002
 -1.3410860E+003
 -2.0127143E+003
 -2.8904369E+003
 -4.7984773E+003
 -5.0744925E+003
 -4.5496634E+003
 -2.7085221E+002
  8.3416485E+002
  2.5367238E+002
  8.3394156E+002
  2.4521435E+002
  8.4342667E+002
  2.5853583E+002
  9.6052976E+002
  2.2902063E+002
  1.1933935E+003
  5.3361124E+002
  2.1966748E+003
  4.0450360E+002
  3.7071759E+003
  3.7955677E+003
  3.4656528E+003
  2.6827823E+003
  2.9822235E+003
  2.2278841E+003
  2.0492190E+003
  1.7774799E+003
  1.5460549E+003
  1.3469465E+003
  1.3584150E+003
  1.5657852E+003
  1.9488451E+003
  2.3950943E+003
  2.8363424E+003
  3.2573466E+003
  3.6661255E+003
  4.0684908E+003
  4.4571334E+003
  4.7994421E+003
  5.0248489E+003
  4.9854276E+003
  4.4522780E+003
  3.2113439E+003
  1.6114136E+003
  9.2981214E+002
  1.5316860E+003
  2.1711163E+003
  1.6456550E+003
  8.3625658E+002
  6.0234637E+002
  2.3667061E+002
 -1.8627921E+002
 -6.8879896E+002
 -1.3324410E+003
 -2.2002922E+003
 -3.3043012E+003
 -4.3093417E+003
 -8.7058448E+003
  1.5897140E+003
  1.5899360E+003
  1.6095441E+003
  1.7048330E+003
  2.0274216E+003
  2.5080327E+003
  2.4584948E+003
  5.6262774E+002
  7.3101509E+001
  4.6890422E+002
  6.3069128E+002
  5.8185225E+002
  5.9920864E+002
  6.0460211E+002
  6.6475055E+002
  8.0734836E+002
  1.0831062E+003
  1.4640566E+003
  1.9023457E+003
  2.3494823E+003
  2.7775894E+003
  3.1737217E+003
  3.5263725E+003
  3.8130282E+003
  3.9906016E+003
  3.9842201E+003
  3.6887341E+003
  2.9966300E+003
  1.9466788E+003
  7.7953446E+002
  6.3545691E+002
  9.1414707E+002
  1.2384825E+003
  3.1314283E+003
  3.5387734E+003
  2.3173488E+003
  1.5100820E+003
  1.0323794E+003
  5.8494059E+002
  1.1982587E+002
 -4.3193433E+002
 -9.6574854E+002
 -1.4625260E+003
 -1.1056715E+003
 -3.3926726E+003
 -4.3977277E+003
 -3.6670842E+003
 -2.7630640E+003
 -3.5891174E+002
 -1.8731976E+003
 -7.3813253E+002
 -1.5137879E+003
 -3.8887329E+002
 -1.1950303E+003
 -3.6538569E+002
 -9.4092143E+002
 -2.7065125E+002
 -6.9743147E+002
 -2.0091403E+002
 -4.7391869E+002
 -1.2958585E+002
 -2.7474285E+002
 -5.6972549E+001
 -1.1853685E+002
  7.7813628E+000
 -9.5731051E+000
  5.9684994E+001
  1.9967496E+003
  1.9892057E+003
  1.9490717E+003
  1.8962698E+003
  1.8425284E+003
  1.6042670E+003
  8.2481110E+002
  7.9091800E+001
 -6.8952515E+002
 -8.4700476E+002
 -6.8442102E+002
 -4.9061799E+002
 -3.2783462E+002
 -1.5291018E+002
  4.2359067E+001
  2.9594540E+002
  6.1872837E+002
  1.0053554E+003
  1.4276090E+003
  1.8532525E+003
  2.2547256E+003
  2.6103672E+003
  2.8987396E+003
  3.0914672E+003
  3.1476259E+003
  3.0137234E+003
  2.6373381E+003
  2.0075437E+003
  1.2254401E+003
  6.0273152E+002
  4.3492933E+002
  5.4844752E+002
  4.4998271E+002
  5.3732186E+002
  2.2749586E+003
  2.5120563E+003
  2.2857729E+003
  1.7981464E+003
  1.4369302E+003
  9.2609007E+002
  4.4684701E+002
  6.7190501E+000
 -3.3947266E+002
 -1.1654053E+003
 -2.7021876E+003
 -4.4404534E+003
 -4.2246977E+003
 -3.4892906E+003
 -2.8490618E+003
 -2.3296482E+003
 -1.8425275E+003
 -1.3868965E+003
 -9.6769581E+002
 -6.0745203E+002
 -3.4295787E+002
 -1.3055981E+002
  9.3853397E+000
  2.7602793E+001
  5.1655433E+001
  3.4708362E+001
  6.2137937E+001
  4.4157163E+001
  2.1534932E+003
  2.1381614E+003
  1.9996298E+003
  1.7812856E+003
  1.4388666E+003
  9.3618849E+002
  2.4008824E+002
 -6.2133513E+002
 -1.1835856E+003
 -1.4143582E+003
 -1.3684751E+003
 -1.1867713E+003
 -9.5692718E+002
 -7.0933355E+002
 -4.3684150E+002
 -1.3199672E+002
  2.1337868E+002
  5.9283540E+002
  9.8908242E+002
  1.3783984E+003
  1.7365299E+003
  2.0403283E+003
  2.2661961E+003
  2.3874616E+003
  2.3737882E+003
  2.1963574E+003
  1.8428967E+003
  1.3455878E+003
  8.1103905E+002
  4.0479689E+002
  2.3103437E+002
  3.0521534E+002
  5.8008310E+002
  1.9878152E+003
  3.9293576E+003
  3.1553049E+003
  2.7115345E+003
  2.1856849E+003
  1.6014610E+003
  1.0914744E+003
  5.7163172E+002
 -1.1450520E+002
 -1.1341463E+003
 -2.5600062E+003
 -3.6220704E+003
 -4.1830879E+003
 -4.0060686E+003
 -3.5361883E+003
 -2.9794013E+003
 -2.4014234E+003
 -1.8267429E+003
 -1.2905603E+003
 -8.3053100E+002
 -4.6974080E+002
 -2.0975181E+002
 -3.7909723E+001
  4.2130812E+001
  5.0366994E+001
  2.9485492E+001
  4.1404181E+001
  2.0228045E+003
  2.0248790E+003
  1.9167972E+003
  1.4756661E+003
  1.0207398E+003
  5.2122567E+002
 -1.1467071E+002
 -8.2892246E+002
 -1.3634773E+003
 -1.6060454E+003
 -1.6240815E+003
 -1.4966349E+003
 -1.2870064E+003
 -1.0333197E+003
 -7.5056640E+002
 -4.4009967E+002
 -1.0420730E+002
  2.4999438E+002
  6.0828395E+002
  9.5168802E+002
  1.2592731E+003
  1.5098714E+003
  1.6823595E+003
  1.7558656E+003
  1.7118838E+003
  1.5403544E+003
  1.2506436E+003
  8.8480479E+002
  5.1890794E+002
  2.3842106E+002
  7.2880462E+001
  1.7147521E+001
  1.2573182E+002
  1.7072634E+002
  4.4130809E+002
  2.1577577E+003
  3.3940586E+003
  3.6856591E+003
  2.6594072E+003
  2.0785437E+003
  1.5467408E+003
  8.7459231E+002
 -3.6301306E+001
 -1.1947753E+003
 -2.4292073E+003
 -3.5192222E+003
 -4.0828242E+003
 -4.1737811E+003
 -3.8811380E+003
 -3.3747977E+003
 -2.7600214E+003
 -2.1068947E+003
 -1.4758096E+003
 -9.2544825E+002
 -4.9974650E+002
 -2.1335542E+002
 -5.3706278E+001
  1.7072710E+001
  3.1728267E+001
  2.1597306E+001
  1.2066052E+003
  1.2452628E+003
  1.3731324E+003
  1.0924521E+003
  7.7798439E+002
  6.8216341E+002
 -1.6364152E+002
 -8.4689234E+002
 -1.2255270E+003
 -1.4573639E+003
 -1.5488789E+003
 -1.4915691E+003
 -1.3421025E+003
 -1.1363404E+003
 -8.9027697E+002
 -6.1432880E+002
 -3.1646368E+002
 -6.0989362E+000
  3.0289005E+002
  5.9359596E+002
  8.4794241E+002
  1.0480151E+003
  1.1769873E+003
  1.2204615E+003
  1.1692813E+003
  1.0244282E+003
  8.0329910E+002
  5.4336947E+002
  2.9767415E+002
  1.1436249E+002
  1.1901989E+001
 -2.5132853E+001
 -1.6757972E+001
 -9.2067055E+000
  1.5853984E+003
  3.8109548E+003
  3.4488831E+003
  2.7285043E+003
  2.5334783E+003
  1.9809313E+003
  1.1216398E+003
  8.5831022E+000
 -1.2369337E+003
 -2.4558900E+003
 -3.4196131E+003
 -4.0150180E+003
 -4.1782299E+003
 -3.9856159E+003
 -3.5311655E+003
 -2.9099414E+003
 -2.2031644E+003
 -1.4945898E+003
 -8.7169908E+002
 -4.0788031E+002
 -1.3223163E+002
 -2.5950881E+001
 -2.2326686E+000
 -5.4552710E+000
 -4.6658821E+000
  4.0497225E+002
  3.5542163E+002
  8.2808621E+002
  1.3373065E+003
  9.3185188E+002
  9.8151651E+002
  2.7515225E+002
 -3.9603012E+002
 -6.7029433E+002
 -1.0445711E+003
 -1.1833472E+003
 -1.2166600E+003
 -1.1692629E+003
 -1.0425797E+003
 -8.6602190E+002
 -6.5602487E+002
 -4.1857250E+002
 -1.6698095E+002
  8.3500134E+001
  3.1671757E+002
  5.1688118E+002
  6.6956974E+002
  7.6237140E+002
  7.8615247E+002
  7.3760631E+002
  6.2262497E+002
  4.5913193E+002
  2.7765667E+002
  1.1546205E+002
  8.7231755E+000
 -2.2541031E+001
 -4.0006134E+001
 -1.5783182E+002
 -1.6110612E+002
  4.6291293E+003
  5.3482888E+003
  3.9849331E+003
  3.2238244E+003
  2.4783983E+003
  1.3540128E+003
  2.7029032E+001
 -1.3651256E+003
 -2.5718081E+003
 -3.4661153E+003
 -3.9786378E+003
 -4.1271570E+003
 -3.9550761E+003
 -3.5257141E+003
 -2.8997213E+003
 -2.1457906E+003
 -1.3548274E+003
 -6.5508577E+002
 -1.7486347E+002
  2.7343119E+001
  4.7341521E+001
 -3.3470433E+001
 -5.0623608E+001
 -2.7223242E+001
  1.2142906E+003
  6.7727537E+002
  9.6818165E+002
  1.5754351E+003
  6.9948443E+002
  3.0965124E+002
 -3.6396300E+002
 -5.5399661E+002
 -7.7038719E+002
 -8.0549479E+002
 -7.7691147E+002
 -7.0516852E+002
 -5.7738296E+002
 -4.1550213E+002
 -2.3295127E+002
 -4.6599241E+001
  1.2594427E+002
  2.7120095E+002
  3.7871108E+002
  4.3966066E+002
  4.4829759E+002
  4.0406382E+002
  3.1367888E+002
  1.9277125E+002
  6.3152517E+001
 -4.5131755E+001
 -1.2172652E+002
 -1.1851608E+002
 -1.8087893E+002
 -4.7150695E+002
 -4.5165855E+002
  2.9705384E+003
  3.6064118E+003
  3.8291682E+003
  2.7967911E+003
  1.5994011E+003
 -1.0337464E+002
 -1.6468481E+003
 -2.8238963E+003
 -3.5608722E+003
 -3.9262437E+003
 -3.9887340E+003
 -3.7969123E+003
 -3.3778540E+003
 -2.7558086E+003
 -1.9602121E+003
 -1.0844945E+003
 -3.0517860E+002
  1.7698319E+002
  3.1073874E+002
  8.3752336E+001
 -6.8779214E+001
 -6.1708847E+001
 -2.4736147E+001
  1.5517578E+003
  1.0774181E+003
  1.4136412E+003
  5.0840736E+002
  2.7521357E+002
 -1.8402711E+002
 -2.8405497E+002
 -4.1875262E+002
 -4.2520021E+002
 -3.9936655E+002
 -3.2302409E+002
 -2.0917733E+002
 -8.9369878E+001
  1.8975675E+001
  1.0855616E+002
  1.7215333E+002
  2.0357725E+002
  1.9836620E+002
  1.5629024E+002
  8.3053688E+001
 -1.0018768E+001
 -1.0578990E+002
 -1.9092562E+002
 -2.4075833E+002
 -2.9826664E+002
 -2.8598614E+002
 -2.2814051E+002
  1.6071333E+003
  4.2827077E+003
  3.9122847E+003
  3.4642190E+003
  1.5850514E+003
 -5.2550132E+002
 -2.2264775E+003
 -3.1952344E+003
 -3.6207139E+003
 -3.7428485E+003
 -3.6840131E+003
 -3.4680235E+003
 -3.0725874E+003
 -2.4720571E+003
 -1.6768920E+003
 -6.6006913E+002
  3.3030774E+002
  6.8851109E+002
  3.2016633E+002
 -8.3487696E+000
 -7.9490115E+001
 -2.7191738E+001
 -1.5379526E+001
  1.0421217E+003
  8.0563487E+002
  1.0626828E+003
  4.4204389E+002
  3.3309490E+002
  4.3439008E+001
 -5.6110744E+001
 -1.5927241E+002
 -1.5243425E+002
 -1.0176393E+002
 -5.3732170E+001
 -1.2218732E+001
  2.0248734E+001
  4.1806333E+001
  4.5626948E+001
  2.6724656E+001
 -1.6121380E+001
 -7.9318039E+001
 -1.5447598E+002
 -2.3045051E+002
 -2.9584372E+002
 -3.3987200E+002
 -3.6226209E+002
 -2.5458232E+002
 -7.5292902E+001
  1.8144332E+003
  3.7569384E+003
  3.4710616E+003
  1.1893358E+003
 -1.6598079E+003
 -3.1971818E+003
 -3.5164250E+003
 -3.4171720E+003
 -3.2519911E+003
 -3.0849956E+003
 -2.8917835E+003
 -2.5782354E+003
 -2.0176186E+003
 -1.1954951E+003
 -3.3224383E+002
  7.6955257E+002
  1.3260329E+003
  3.2163439E+002
 -2.9989525E+002
  7.4412991E+002
  6.2148727E+002
  8.9810576E+002
  4.8425600E+002
  4.1096624E+002
  7.7563238E+001
  1.0171077E+002
  8.1942572E+001
  4.8404993E+001
  1.3809698E+001
 -5.1914527E+000
 -2.2636415E+001
 -4.4008151E+001
 -7.5877552E+001
 -1.2224477E+002
 -1.8077561E+002
 -2.4508599E+002
 -3.0618818E+002
 -3.5597325E+002
 -3.7940918E+002
 -3.6341507E+002
 -2.1850764E+002
 -8.5444052E+001
  1.1876753E+003
  2.4080200E+003
  4.7312281E+003
 -4.5420940E+002
 -4.1951922E+003
 -4.0917637E+003
 -3.2311218E+003
 -2.6188409E+003
 -2.2453179E+003
 -2.0647966E+003
 -1.9728280E+003
 -1.8586523E+003
 -1.4422493E+003
 -4.2420613E+002
  1.2441794E+003
  2.8496360E+003
  2.2847573E+003
  5.4084674E+002
  6.0914935E+002
  9.4102585E+002
  4.7591838E+002
  4.6146194E+002
  2.9120982E+002
  1.6395077E+002
  9.0064408E+001
  1.9693364E+001
 -3.3408593E+001
 -7.3566715E+001
 -1.1763462E+002
 -1.7052474E+002
 -2.2921673E+002
 -2.8712117E+002
 -3.3673590E+002
 -3.7023091E+002
 -3.7494928E+002
 -3.4146154E+002
 -2.0394424E+002
 -6.6055274E+001
  7.8571714E+003
 -1.7822931E+003
 -6.7968361E+003
 -6.4295352E+003
 -2.9986166E+003
 -1.6899677E+003
 -8.9612559E+002
 -6.1609855E+002
 -5.6560939E+002
 -6.5377608E+002
 -7.7761183E+002
 -8.2931343E+002
  2.2768127E+001
  1.7519247E+003
  2.1222185E+003
  9.2530443E+002
  7.1153844E+002
  5.7498610E+002
  4.9033154E+002
  3.2444221E+002
  2.0864791E+002
  7.7864497E+001
  4.2658916E+000
 -4.7795138E+001
 -1.0678624E+002
 -1.7109227E+002
 -2.3359994E+002
 -2.8932588E+002
 -3.3038481E+002
 -3.5017329E+002
 -3.3828207E+002
 -3.0496066E+002
 -1.9242390E+002
 -8.3174171E+001
 -1.1839966E+004
 -3.6040672E+003
 -1.6195006E+003
  1.0551405E+003
  1.4740039E+003
  1.6571885E+003
  1.5222311E+003
  1.3032172E+003
  1.0073110E+003
  7.6803628E+002
  2.7957515E+002
  9.6654280E+002
  3.9957362E+003
  3.5861363E+003
  3.2398438E+002
  4.1527144E+002
  7.2594958E+002
  4.5471369E+002
  4.0898513E+002
  1.3823679E+002
  1.0542196E+002
  2.9189274E+001
 -5.5882427E+001
 -1.3529820E+002
 -2.0589589E+002
 -2.6168070E+002
 -2.9885643E+002
 -3.1003911E+002
 -2.8679337E+002
 -2.3571451E+002
 -1.5068778E+002
 -6.7665444E+001
  1.3772248E+004
  9.2413294E+003
  9.2168702E+003
  6.2594458E+003
  5.3512032E+003
  4.4188952E+003
  3.7754998E+003
  3.2306026E+003
  2.8030493E+003
  2.4165374E+003
  2.2270491E+003
  1.6332127E+003
  1.0558220E+003
  3.9243456E+002
  4.5271014E+002
  6.9931569E+002
  3.3104208E+002
  2.7887952E+002
  1.2012304E+002
  9.4175753E+000
 -8.0309641E+001
 -1.5104835E+002
 -2.1558755E+002
 -2.5110837E+002
 -2.6147019E+002
 -2.4111171E+002
 -1.9603436E+002
 -1.8704350E+002
 -1.1505564E+002
  1.1421140E+004
  1.2230709E+004
  1.3519942E+004
  9.7871691E+003
  8.0571796E+003
  6.5944077E+003
  5.6056253E+003
  4.8499478E+003
  4.3081539E+003
  3.8300977E+003
  3.6369879E+003
  1.9603025E+003
 -1.6888651E+003
  6.3285834E+002
  4.4425063E+002
  3.1187099E+002
  2.0746480E+002
  6.9796211E+001
  1.2697078E+001
 -9.6009316E+001
 -1.5945239E+002
 -1.9153717E+002
 -1.9864683E+002
 -2.0197032E+002
 -1.5090609E+002
 -9.7149235E+001
  2.2378162E+003
  6.4813129E+003
  1.0341137E+004
  1.0013589E+004
  8.7951503E+003
  7.6328199E+003
  6.6551318E+003
  5.8719706E+003
  5.2326983E+003
  4.6627167E+003
  3.9272685E+003
  2.4266186E+003
  1.7360458E+002
 -6.0047459E+002
 -2.5470464E+003
  2.0423659E+002
  2.0185943E+002
  3.0266424E+002
  1.1446583E+002
  8.5680491E+001
 -1.7074347E+001
 -9.0867508E+001
 -1.0957414E+002
 -1.3221257E+002
 -1.3242869E+002
 -8.0717842E+001
 -1.3517780E+001
  5.9645090E+003
  6.0265529E+003
  3.4201104E+003
  4.2981530E+003
  6.8010928E+003
  8.1110560E+003
  8.0926595E+003
  7.5521779E+003
  6.8841754E+003
  6.2144553E+003
  5.5560732E+003
  4.8292647E+003
  3.8216934E+003
  2.3227710E+003
  6.0569124E+002
 -3.2934739E+002
  2.0287461E+002
  8.6671187E+001
  9.2594146E+001
  9.8729160E+001
  4.1680062E-001
 -2.9194921E+001
 -6.0346704E+001
 -5.6371013E+001
 -3.7512764E+001
 -1.8607808E+001
  3.5313059E+003
  5.4267276E+003
  3.8475301E+003
  3.8131684E+003
  3.6639014E+003
  1.6595914E+003
  3.0915421E+003
  4.6898725E+003
  6.1170905E+003
  6.7552657E+003
  6.7895680E+003
  6.4856624E+003
  6.0072571E+003
  5.4024398E+003
  4.6369090E+003
  3.6373585E+003
  2.4467727E+003
  1.3136791E+003
  5.2975940E+002
  3.7833552E+002
 -3.0347043E+001
  1.2016108E+002
  2.5712550E+001
  1.0922653E+001
 -2.1159388E+001
 -1.2037550E+001
 -1.4677554E+001
  2.7055748E+003
  2.8634054E+003
  2.5545760E+003
  2.1314449E+003
  1.7097619E+003
  2.1952708E+003
  3.4321690E+003
  4.6141304E+003
  5.4208934E+003
  5.7671878E+003
  5.7448700E+003
  5.4580649E+003
  4.9642275E+003
  4.2776951E+003
  3.4133528E+003
  2.4378208E+003
  1.4858458E+003
  7.6745134E+002
  5.2810974E+002
  5.3687439E+002
  4.8970365E+002
  2.7191709E+003
  1.9268958E+003
  1.4453178E+003
  1.3686693E+003
  1.3350313E+003
  1.7716530E+003
  2.6090449E+003
  3.5510834E+003
  4.3067220E+003
  4.7577279E+003
  4.8947907E+003
  4.7593649E+003
  4.3950716E+003
  3.8377187E+003
  3.1312100E+003
  2.3474393E+003
  1.6086554E+003
  1.0397475E+003
  7.7385452E+002
  5.7  1.7790730E+003
  2.0123199E+003
  2.0392036E+003
  2.6460412E+003
  4.7250195E+003
  5.1547818E+003
 -9.8150611E+001
 -3.3488228E+002
 -4.4806814E+002
 -3.7574074E+002
 -3.0075658E+002
 -2.3857450E+002
 -1.9754238E+002
 -1.8012978E+002
 -1.8171090E+002
 -1.8627125E+002
 -1.0885526E+002
 -5.1209940E+001
  5.0349685E+002
  7.1303966E+002
  9.9574244E+002
  1.2539838E+003
  1.6003324E+003
  1.8822837E+003
  2.1707984E+003
  2.3670145E+003
  2.8736691E+003
  2.6355610E+003
  2.1423087E+003
 -3.2899417E+002
 -3.9523489E+002
 -3.9966982E+002
 -3.2061647E+002
 -2.8906007E+002
 -2.4540348E+002
 -2.1512437E+002
 -1.9392171E+002
 -1.7630242E+002
 -1.4672078E+002
 -8.0987603E+001
 -1.8150071E+001
  1.1667062E+003
  6.8639195E+002
  9.1892997E+002
  1.4739505E+003
  1.8377546E+003
  2.1433874E+003
  2.3774227E+003
  2.5843763E+003
  2.7328062E+003
  1.8738403E+003
  3.4916809E+002
 -7.9034400E+002
 -3.4629878E+002
 -2.2827784E+002
 -2.7849023E+002
 -2.5638339E+002
 -2.4125259E+002
 -2.1719595E+002
 -1.9356046E+002
 -1.6405404E+002
 -1.2501569E+002
 -6.1153170E+001
 -1.7490833E+001
  1.0847504E+003
 -3.1919890E+001
  2.3087509E+002
  5.6603835E+002
  1.1911819E+003
  1.7214772E+003
  2.0995711E+003
  2.3325726E+003
  2.4505065E+003
  2.4297275E+003
  2.3721792E+003
  1.5609259E+003
  8.0578778E+002
 -6.9809684E+002
 -2.1615738E+002
 -3.4933605E+002
 -2.7557451E+002
 -2.2767792E+002
 -2.4526127E+002
 -2.4789154E+002
 -2.3605090E+002
 -2.1619878E+002
 -1.8962217E+002
 -1.5507869E+002
 -1.1205002E+002
 -5.3734054E+001
 -1.3608951E+001
 -1.4879970E+001
  1.3449472E+002
  9.8116197E+002
  1.6106881E+003
  2.0496886E+003
  2.3475579E+003
  2.5014883E+003
  2.4682697E+003
  2.1995319E+003
  1.8139244E+003
  1.2779232E+003
  5.6623848E+002
 -2.3155138E+002
 -3.6436624E+002
 -4.0032766E+002
 -2.9897699E+002
 -2.7524780E+002
 -2.5843804E+002
 -2.4115423E+002
 -2.1771183E+002
 -1.8825105E+002
 -1.5072824E+002
 -1.0664762E+002
 -5.0200294E+001
 -1.3138717E+001
 -1.4530906E+003
 -1.0123147E+003
  8.0717475E+002
  1.9215004E+003
  2.2463468E+003
  2.5697910E+003
  2.6553205E+003
  2.5786569E+003
  2.1727861E+003
  1.7876153E+003
  2.0630138E+003
  1.4804856E+003
 -8.2557679E+001
 -2.6273673E+002
 -3.8673139E+002
 -3.5686020E+002
 -3.1372010E+002
 -2.7896350E+002
 -2.5087404E+002
 -2.2260230E+002
 -1.9038212E+002
 -1.5123287E+002
 -1.0631247E+002
 -5.0042321E+001
 -1.3047046E+001
 -8.2020556E+001
  6.6380726E+002
  1.7502260E+003
  2.3772107E+003
  2.6956469E+003
  2.8159638E+003
  2.6738518E+003
  2.4740069E+003
  1.7403930E+003
  1.0602333E+003
 -9.2734198E+001
 -2.3019160E+002
 -3.7528744E+002
 -3.6548658E+002
 -3.2819738E+002
 -2.8875880E+002
 -2.5713962E+002
 -2.2742430E+002
 -1.9508227E+002
 -1.5582697E+002
 -1.1032032E+002
 -5.2256374E+001
 -1.3790209E+001
  2.2825911E+002
  7.8055309E+002
  1.7464501E+003
  2.4048804E+003
  2.7879620E+003
  2.8998213E+003
  2.7680010E+003
  2.4326664E+003
  1.4568757E+003
  3.9611174E+002
 -6.8525856E+001
 -2.6523657E+002
 -3.6723929E+002
 -3.3913830E+002
 -3.0839712E+002
 -2.7930859E+002
 -2.5395195E+002
 -2.2954673E+002
 -2.0127854E+002
 -1.6433585E+002
 -1.1869687E+002
 -5.7044985E+001
 -1.5219210E+001
  2.5293482E+002
  9.3280181E+002
  1.8613877E+003
  2.4787631E+003
  2.8441480E+003
  2.9264995E+003
  2.7323161E+003
  2.2776116E+003
  1.2316941E+003
  4.1803863E+002
 -2.8359896E+002
 -3.2576118E+002
 -3.2100864E+002
 -2.6830956E+002
 -2.6628876E+002
 -2.5215506E+002
 -2.4204168E+002
 -2.2861042E+002
 -2.0920331E+002
 -1.7757209E+002
 -1.3273914E+002
 -6.5290765E+001
 -1.7785682E+001
  2.9496710E+002
  1.0319737E+003
  2.0263905E+003
  2.5995181E+003
  2.8882036E+003
  2.8857856E+003
  2.6184671E+003
  2.1094330E+003
  1.1359857E+003
  3.3703351E+002
 -6.9490959E+002
 -2.7503201E+002
 -1.5674002E+002
 -2.1023479E+002
 -2.0940720E+002
 -2.2082340E+002
 -2.2480777E+002
 -2.2647322E+  3.4 -2.1985845E+002
 -1.9737268E+002
 -1.5499225E+002
 -7.8874014E+001
 -2.1918053E+001
  3.5061030E+002
  1.1741623E+003
  2.2716946E+003
  2.7650349E+003
  2.9084154E+003
  2.7664217E+003
  2.4259988E+003
  1.9325075E+003
  1.0276745E+003
  3.4419150E+002
 -6.2718487E+002
 -1.8911633E+002
 -2.9191324E+002
 -1.9959140E+002
 -1.4138715E+002
 -1.5719627E+002
 -1.7448757E+002
 -1.9037495E+002
 -2.0750357E+002
 -2.2361146E+002
 -2.3370681E+002
 -2.2550859E+002
 -1.8963947E+002
 -1.0130334E+002
 -3.0016412E+001
  3.6903095E+002
  1.5091765E+003
  2.6692017E+003
  2.9879346E+003
  2.8568507E+003
  2.5126465E+003
  2.0984952E+003
  1.6769205E+003
  9.5778388E+002
  2.6350919E+002
 -1.9605327E+002
 -2.9680675E+002
 -2.9530039E+002
 -1.8417851E+002
 -1.5635289E+002
 -1.5342532E+002
 -1.6663670E+002
 -1.8890443E+002
 -2.1796144E+002
 -2.4774317E+002
 -2.6212431E+002
 -2.4114599E+002
 -1.3777250E+002
 -4.1117345E+001
  8.6347560E+002
  2.0117384E+003
  3.4228370E+003
  3.1704410E+003
  2.6167553E+003
  2.0534182E+003
  1.5607461E+003
  1.2307527E+003
  8.5962369E+002
  5.6112701E+002
 -7.2724415E+001
 -1.9502638E+002
 -2.6804473E+002
 -2.0767927E+002
 -1.5730918E+002
 -1.3714626E+002
 -1.4251351E+002
 -1.6580464E+002
 -2.0357389E+002
 -2.5372870E+002
 -3.0035142E+002
 -3.1642308E+002
 -2.0098624E+002
 -7.5311147E+001
  9.2304064E+002
  3.8167699E+003
  4.3109390E+003
  2.9661001E+003
  2.0110154E+003
  1.3515782E+003
  8.8543314E+002
  4.8330395E+002
  4.0850649E+002
  1.0653167E+003
 -5.6582219E+001
 -1.8471417E+002
 -2.3313522E+002
 -1.7769180E+002
 -1.3291754E+002
 -1.1037256E+002
 -1.1260742E+002
 -1.3588700E+002
 -1.7689822E+002
 -2.3783428E+002
 -3.2127842E+002
 -4.0403936E+002
 -2.9780049E+002
 -1.0046186E+002
  5.9887867E+003
  5.9783519E+003
  4.2308218E+003
  1.7691470E+003
  1.0931993E+003
  4.8048840E+002
  1.4445293E+002
 -8.3550338E+001
 -7.1338320E+001
  3.4915203E+002
  4.2708567E+002
  1.1015219E+003
 -1.8276102E+002
 -1.9988044E+002
 -1.7184670E+002
 -1.0995504E+002
 -8.6792081E+001
 -7.0819728E+001
 -7.7380030E+001
 -1.0351763E+002
 -1.4534000E+002
 -2.0297439E+002
 -2.8020497E+002
 -4.8259647E+002
 -4.9725670E+002
 -3.3795662E+002
  1.8249420E+004
  6.8624279E+003
  6.4636085E+002
  6.9620116E+002
 -1.1264110E+002
 -3.0337256E+002
 -4.9020911E+002
 -4.9455231E+002
 -1.8864825E+002
  1.6798782E+002
  2.4891608E+002
 -4.6953334E+002
 -1.5836990E+002
 -4.4010881E+001
 -5.4429203E+001
 -3.1312553E+001
 -3.0118644E+001
 -4.2478296E+001
 -7.6500811E+001
 -1.3038585E+002
 -1.8881661E+002
 -2.2874709E+002
 -3.4490652E+002
 -5.0849229E+002
 -3.4584540E+002
  5.8465525E+003
  2.9597124E+003
 -4.2238664E+002
 -4.9096029E+002
 -7.6796933E+002
 -8.8197305E+002
 -9.3161985E+002
 -8.4607766E+002
 -5.8797363E+002
 -1.8851510E+002
  1.3060475E+001
 -4.2597582E+002
 -1.2277501E+002
 -1.8842576E+002
 -1.0970673E+002
 -3.1286534E+001
 -9.2390749E+000
  2.4350671E+000
  2.9918200E+000
 -1.4206794E+001
 -5.9952069E+001
 -1.3371352E+002
 -2.6314938E+002
 -3.0608030E+002
 -5.3546841E+002
 -1.2056647E+003
 -1.0590443E+003
  4.6723531E+002
  1.6611856E+003
  3.8185524E+002
 -5.2192038E+002
 -8.7334949E+002
 -1.0876721E+003
 -1.1719438E+003
 -1.1175592E+003
 -9.9005239E+002
 -5.6661041E+002
  1.7220156E+002
 -1.3358762E+002
 -2.1438236E+002
 -1.7971023E+002
 -5.8564721E+001
 -7.9979620E+000
  1.5062939E+001
  1.9014630E+001
  2.8861146E+000
 -4.1914112E+001
 -1.4677076E+002
 -3.1531598E+002
 -6.3366185E+002
 -7.2001715E+002
 -5.5356741E+002
  1.6883525E+003
  1.6166391E+003
  1.2464622E+003
  7.0329164E+001
 -6.0617883E+002
 -1.0194785E+003
 -1.2141395E+003
 -1.2587145E+003
 -1.2786064E+002
 -1.7272608E+002
 -1.5176717E+002
 -6.8410521E+001
 -2.1086017E+001
  6.8884586E+000
  1.4940404E+001
  5.2975011E+000
 -2.8862596E+001
 -1.1261323E+002
 -2.8849594E+002
 -7.2344778E+002
 -8.2989694E+002
 -4.9005030E+002
  1.2675661E+  8.5  1.5499804E+003
  1.4802782E+003
  4.7929872E+002
 -3.2874535E+002
 -8.4949176E+002
 -1.1410997E+003
 -2.7817882E+002
 -1.3244002E+002
 -7.6099907E+001
 -6.6779767E+001
 -3.5939166E+001
 -1.9381520E+001
 -1.2209560E+001
 -1.7233669E+001
 -3.8735919E+001
 -8.0932938E+001
 -1.5647767E+002
 -4.1416908E+002
 -7.1128177E+002
 -5.0874167E+002
 -2.3747327E+002
 -5.3815592E+001
 -9.6270091E+001
 -7.9261067E+001
 -6.6270230E+001
 -7.0410980E+001
 -6.7432285E+001
 -6.3676137E+001
 -6.3786374E+001
 -7.4907760E+001
 -8.7394142E+001
 -1.5372315E+002
 -1.3047218E+002
 -5.1509863E+002
 -1.5897188E+003
 -1.4719537E+003
 -2.6863234E+001
 -8.9092064E+001
 -9.9559368E+001
 -9.9896733E+001
 -1.0922319E+002
 -1.1929919E+002
 -1.2739838E+002
 -1.3814645E+002
 -1.5368741E+002
 -1.9290120E+002
 -2.3308495E+002
 -4.2758545E+002
 -5.8855182E+002
 -6.0441879E+002
  1.2825787E+002
  2.0722129E+002
  5.4093252E+001
 -6.7733469E+001
 -1.2050835E+002
 -1.5196571E+002
 -1.7239138E+002
 -1.9052559E+002
 -2.0674624E+002
 -2.2340969E+002
 -2.4590775E+002
 -2.8066632E+002
 -3.4178969E+002
 -4.4562977E+002
 -3.7638067E+002
 -8.0958238E+001
  3.4440681E+002
  3.9591015E+002
  2.0533260E+002
  1.1711174E+001
 -9.4924076E+001
 -1.6895428E+002
 -2.1583306E+002
 -2.4894204E+002
 -2.7394518E+002
 -2.9431605E+002
 -3.1213855E+002
 -3.2898369E+002
 -3.4880950E+002
 -3.6570804E+002
 -3.5969503E+002
 -2.0584706E+002
 -8.9162533E+001
  5.2221280E+002
  6.3034542E+002
  3.8256088E+002
  1.4704597E+002
 -2.1075465E+001
 -1.4932471E+002
 -2.3417547E+002
 -2.9258452E+002
 -3.3347707E+002
 -3.6309831E+002
 -3.8444971E+002
 -3.9831143E+002
 -4.0296683E+002
 -3.9350667E+002
 -3.5740933E+002
 -2.8379390E+002
 -1.4613985E+002
 -3.5716140E+001
  8.7575304E+002
  9.6928670E+002
  4.3648980E+002
  2.6710673E+002
  4.7012371E+001
 -1.0813050E+002
 -2.2940706E+002
 -3.1649239E+002
 -3.7882046E+002
 -4.2295516E+002
 -4.5376579E+002
 -4.7342002E+002
 -4.8126507E+002
 -4.7298281E+002
 -4.3787625E+002
 -3.5950528E+002
 -2.3723835E+002
 -1.0290381E+002
 -1.2580854E+001
 -6.2465134E+002
 -5.3166899E+002
 -4.9138394E+002
 -1.2108411E+002
 -5.5015739E+002
 -3.8578165E+002
 -5.2832676E+002
 -3.7084192E+002
 -1.2115109E+003
 -1.1325663E+003
  6.8947931E+002
  9.6055341E+002
  6.0038986E+002
  6.0170270E+002
  5.6252721E+002
  1.6476071E+002
  5.7084121E+001
 -9.8688413E+001
 -2.2541919E+002
 -3.3105802E+002
 -4.1162166E+002
 -4.7144004E+002
 -5.1415195E+002
 -5.4283335E+002
 -5.5864818E+002
 -5.6058480E+002
 -5.4337556E+002
 -4.9801621E+002
 -4.0052072E+002
 -2.2509592E+002
 -3.0464784E+001
 -8.0757230E+000
 -5.5748916E+002
 -5.6685168E+002
 -5.2949869E+002
 -2.9646379E+002
 -4.4267351E+002
 -5.8307926E+002
 -5.1288533E+002
 -4.9287508E+002
 -1.3875076E+002
 -4.1180576E+002
 -1.6428591E+002
 -3.7341814E+002
 -1.2522634E+002
 -3.0503975E+002
 -1.0643520E+002
 -2.1316590E+002
 -6.6191344E+001
 -9.0233415E+001
 -2.6451637E+001
  2.0063953E+001
  1.1290728E+001
  1.1348960E+002
  6.5868688E+001
  2.4863976E+002
  6.7662149E+001
  4.0997451E+002
  3.8369538E+002
  4.0119285E+002
  3.0005116E+002
  1.9979690E+002
  5.5660617E+000
 -1.4252336E+002
 -2.5434304E+002
 -3.5686232E+002
 -4.4374950E+002
 -5.1346045E+002
 -5.6631475E+002
 -6.0387066E+002
 -6.2745906E+002
 -6.3760459E+002
 -6.3281577E+002
 -6.1181456E+002
 -5.6347511E+002
 -4.9237080E+002
 -3.0720752E+002
  1.2631615E+001
  2.1218769E+002
 -2.9992274E+002
 -3.2231535E+002
 -2.3372196E+002
 -1.3791615E+002
 -1.9403047E+002
 -5.3432034E+002
 -6.5786169E+002
 -6.5147332E+002
 -6.1460512E+002
 -5.2886749E+002
 -3.7489478E+002
 -2.1292212E+002
 -2.8245031E+001
  1.1943330E+002
  2.3437077E+002
  2.7711855E+002
  1.1115580E+002
  3.5196877E+000
 -6.4266196E+001
 -1.8114456E+002
 -3.0012746E+002
 -4.0050186E+002
 -4.8525233E+002
 -5.5721277E+002
 -6.1524385E+002
 -6.5910931E+002
 -6.8908432E+002
 -7.0543742E+002
 -7.0751724E+ -1.3 -6.9502134E+002
 -6.6345443E+002
 -6.2317150E+002
 -5.3843215E+002
 -5.2978571E+002
 -1.3556117E+002
  7.6068951E+002
 -1.4681961E+002
 -1.1590829E+002
 -7.2592080E+001
 -6.7871285E+001
 -1.8979241E+002
 -3.4785642E+002
 -5.3912089E+002
 -6.3899993E+002
 -6.0208248E+002
 -5.9831377E+002
 -5.4620876E+002
 -2.7177956E+002
 -1.2346933E+002
 -6.5418392E+001
  9.9029984E+000
  1.1781046E+001
 -4.1552152E+001
 -1.5137820E+002
 -2.5371958E+002
 -3.4794067E+002
 -4.4388080E+002
 -5.3087560E+002
 -6.0441632E+002
 -6.6461110E+002
 -7.1184811E+002
 -7.4616506E+002
 -7.6750735E+002
 -7.7532274E+002
 -7.6834065E+002
 -7.4401194E+002
 -7.0054382E+002
 -6.3328944E+002
 -5.5162990E+002
 -4.5581343E+002
 -3.1722168E+002
  8.1838997E-001
  2.1142004E+001
  9.3241670E+002
 -2.9939322E+001
  1.4727264E+001
  4.3884075E+001
  7.9220558E+000
 -8.8148950E+001
 -2.0057500E+002
 -3.0309154E+002
 -3.0154262E+002
 -2.9841116E+002
 -4.1278982E+002
 -5.8062603E+002
 -5.4895929E+002
 -4.4921265E+002
 -3.8803786E+002
 -2.4567650E+002
 -1.9989699E+002
 -2.4465593E+002
 -3.1297959E+002
 -3.9745963E+002
 -4.8702676E+002
 -5.7258703E+002
 -6.4910633E+002
 -7.1280577E+002
 -7.6289926E+002
 -8.0005707E+002
 -8.2492428E+002
 -8.3755222E+002
 -8.3708912E+002
 -8.2125854E+002
 -7.8645901E+002
 -7.2603282E+002
 -6.3467557E+002
 -4.9487349E+002
 -2.9924264E+002
 -8.3363479E+001
 -9.0358365E+001
 -9.0598486E+000
  7.1889717E+001
  9.0362158E+001
  5.4614486E+001
 -6.1593430E+001
 -5.9402862E+001
 -2.0580951E+001
  2.5457397E+002
 -5.1561349E+001
 -1.0192581E+002
 -4.8317849E+002
 -1.2327213E+003
 -7.8319881E+002
 -8.3976786E+002
 -4.6086984E+002
 -4.5348835E+002
 -4.2577806E+002
 -4.5941190E+002
 -5.2559284E+002
 -6.0793136E+002
 -6.8810532E+002
 -7.5680940E+002
 -8.1092786E+002
 -8.5083332E+002
 -8.7794891E+002
 -8.9353492E+002
 -8.9805989E+002
 -8.9068780E+002
 -8.6914172E+002
 -8.2799450E+002
 -7.6243096E+002
 -6.5306824E+002
 -5.1922735E+002
 -2.5792571E+002
 -2.6506440E+002
 -8.0118070E+002
 -8.4162496E+002
  9.7551959E+001
 -4.5232896E+001
 -1.9131214E+002
 -1.8029568E+001
  5.2235574E+001
  3.5673563E+002
 -8.7233685E+002
 -7.6708479E+002
 -1.3157556E+003
 -7.5456952E+002
 -6.9348593E+002
 -5.7216360E+002
 -5.7695239E+002
 -6.3552625E+002
 -7.1834577E+002
 -7.9519260E+002
 -8.5550996E+002
 -8.9875770E+002
 -9.2741096E+002
 -9.4395424E+002
 -9.5031189E+002
 -9.4749215E+002
 -9.3531687E+002
 -9.1173552E+002
 -8.7315525E+002
 -8.1124814E+002
 -7.2493196E+002
 -5.9130017E+002
 -5.0559874E+002
 -4.1367568E+002
 -3.3021699E+002
 -3.4458800E+002
 -3.9724375E+002
 -1.1787702E+003
 -9.6074381E+002
 -7.7195114E+002
 -6.4933670E+002
 -6.5210189E+002
 -7.2989146E+002
 -8.2573474E+002
 -8.9706499E+002
 -9.4502240E+002
 -9.7490520E+002
 -9.9096663E+002
 -9.9633189E+002
 -9.9339502E+002
 -9.8379040E+002
 -9.6823756E+002
 -9.4615367E+002
 -9.1498278E+002
 -8.7018571E+002
 -8.0570639E+002
 -7.1826043E+002
 -6.2741980E+002
 -3.9984372E+002
 -1.1220404E+002
 -8.4740553E+002
 -7.7400482E+002
 -6.4439668E+002
 -6.7560425E+002
 -8.3905679E+002
 -9.3547481E+002
 -9.9045649E+002
 -1.0211531E+003
 -1.0361152E+003
 -1.0390982E+003
 -1.0332715E+003
 -1.0210578E+003
 -1.0046746E+003
 -9.8598710E+002
 -9.6607026E+002
 -9.4464154E+002
 -9.1783828E+002
 -8.7946458E+002
 -8.0821193E+002
 -6.8612518E+002
 -3.7680667E+002
 -1.3006419E+002
 -6.6522032E+002
 -6.5700048E+002
 -7.9617263E+002
 -9.7386438E+002
 -1.0299110E+003
 -1.0614849E+003
 -1.0763479E+003
 -1.0778397E+003
 -1.0695451E+003
 -1.0536021E+003
 -1.0324862E+003
 -1.0088545E+003
 -9.8571778E+002
 -9.6601519E+002
 -9.5174711E+002
 -9.4101478E+002
 -9.2503921E+002
 -8.7107354E+002
 -7.4461063E+002
 -4.1910305E+002
 -1.3360663E+002
 -5.6338828E+002
 -8.0410492E+002
 -1.0620763E+003
 -1.0568845E+003
 -1.0991292E+003
 -1.1017897E+003
 -1.0975436E+003
 -1.0814019E+003
 -1.0578794E+003
 -1.0287661E+003
 -9.972  0.0000000 -9.6738981E+002
 -9.4381592E+002
 -9.3106319E+002
 -9.3064825E+002
 -9.3668122E+002
 -9.1506266E+002
 -8.2743629E+002
 -4.8713194E+002
 -1.5602261E+002
 -5.9368290E+002
 -7.2577563E+002
 -9.4498840E+002
 -1.0534928E+003
 -1.0879545E+003
 -1.1014151E+003
 -1.0951438E+003
 -1.0770173E+003
 -1.0489463E+003
 -1.0136097E+003
 -9.7406742E+002
 -9.3506067E+002
 -9.0308907E+002
 -8.8524412E+002
 -8.8573719E+002
 -9.1006862E+002
 -9.2685999E+002
 -8.9611795E+002
 -5.8780115E+002
 -2.6519754E+002
 -4.2330498E+002
 -1.6777910E+002
 -5.1741045E+002
 -7.5618652E+002
 -9.0285016E+002
 -1.0098038E+003
 -1.0602039E+003
 -1.0787145E+003
 -1.0774311E+003
 -1.0608930E+003
 -1.0321336E+003
 -9.9316418E+002
 -9.4667877E+002
 -8.9724742E+002
 -8.5314244E+002
 -8.2625750E+002
 -8.2327790E+002
 -8.4551977E+002
 -9.1739426E+002
 -1.0093210E+003
 -6.6986177E+002
 -1.9307572E+002
 -5.3011089E+002
 -7.5899524E+002
 -9.2939509E+002
 -9.0846142E+002
 -9.8278790E+002
 -1.0228035E+003
 -1.0470823E+003
 -1.0510779E+003
 -1.0395984E+003
 -1.0137483E+003
 -9.7496240E+002
 -9.2472059E+002
 -8.6642574E+002
 -8.0765071E+002
 -7.6809530E+002
 -7.7410666E+002
 -8.1555549E+002
 -8.1435630E+002
 -9.2568561E+002
 -8.7415309E+002
 -3.7024670E+002
 -1.0205017E+003
 -8.4037175E+002
 -8.6622344E+002
 -9.1678950E+002
 -9.4819977E+002
 -9.8725809E+002
 -1.0124873E+003
 -1.0233973E+003
 -1.0188477E+003
 -9.9950902E+002
 -9.6561857E+002
 -9.1754739E+002
 -8.5602413E+002
 -7.8670621E+002
 -7.2109923E+002
 -7.3339891E+002
 -8.9004180E+002
 -1.2298601E+003
 -1.6827362E+003
 -1.2975896E+003
 -5.0419897E+002
 -7.5220629E+002
 -8.8452052E+002
 -8.9570407E+002
 -8.1847566E+002
 -8.7730978E+002
 -9.1257157E+002
 -9.5165835E+002
 -9.8116999E+002
 -9.9883475E+002
 -1.0026671E+003
 -9.9249003E+002
 -9.6828666E+002
 -9.2969773E+002
 -8.7650920E+002
 -8.0664553E+002
 -7.3202536E+002
 -6.4628331E+002
 -8.6001152E+002
 -1.1329303E+003
 -1.0364060E+003
 -1.4179724E+003
 -1.0236614E+003
 -8.5915125E+002
 -8.2154588E+002
 -8.3649202E+002
 -8.8101681E+002
 -9.2197337E+002
 -9.5652326E+002
 -9.8038099E+002
 -9.9236702E+002
 -9.9221277E+002
 -9.8052588E+002
 -9.5715241E+002
 -9.2434138E+002
 -8.7259648E+002
 -8.2915654E+002
 -6.9154820E+002
 -8.5160900E+002
 -1.7055298E+003
 -1.1996893E+003
 -1.3107837E+003
 -1.1719398E+003
 -8.5176839E+002
 -7.4490262E+002
 -7.6756669E+002
 -7.8980996E+002
 -8.1952424E+002
 -8.6152397E+002
 -9.0458400E+002
 -9.4138362E+002
 -9.6922103E+002
 -9.8700255E+002
 -9.9504521E+002
 -9.9440191E+002
 -9.8737786E+002
 -9.7429228E+002
 -9.6336771E+002
 -9.3092881E+002
 -9.5111681E+002
 -7.3758805E+002
 -4.8895254E+002
 -8.3824808E+002
 -5.2838727E+002
 -1.0041861E+003
 -8.7918231E+002
 -8.1075132E+002
 -7.6611524E+002
 -7.8920701E+002
 -8.2332584E+002
 -8.6280979E+002
 -9.0238506E+002
 -9.3742449E+002
 -9.6507027E+002
 -9.8440628E+002
 -9.9584453E+002
 -1.0007166E+003
 -1.0018404E+003
 -1.0002911E+003
 -1.0051669E+003
 -9.8647624E+002
 -1.0134007E+003
 -5.1986937E+002
  5.6618417E+002
 -1.1685361E+003
 -1.0915145E+003
 -9.6868594E+002
 -8.7811240E+002
 -8.3951127E+002
 -8.3491182E+002
 -8.5517689E+002
 -8.8458344E+002
 -9.1579275E+002
 -9.4416285E+002
 -9.6679460E+002
 -9.8235590E+002
 -9.9075282E+002
 -9.9275581E+002
 -9.8947701E+002
 -9.8177657E+002
 -9.6656352E+002
 -9.3228908E+002
 -8.1281900E+002
 -4.3586396E+002
  5.7218258E+001
  1.5167027E+002
  7.3412823E+002
 -1.1941189E+003
 -1.1655859E+003
 -1.0726728E+003
 -9.8349563E+002
 -9.2776064E+002
 -9.0649314E+002
 -9.0825818E+002
 -9.2287003E+002
 -9.4181603E+002
 -9.5963223E+002
 -9.7288742E+002
 -9.7961057E+002
 -9.7881224E+002
 -9.6983650E+002
 -9.5158819E+002
 -9.2067568E+002
 -8.6974263E+002
 -7.7697202E+002
 -6.0523909E+002
 -2.8456430E+002
  2.0337801E+001
  1.3797283E+002
 -1.2345923E+003
 -1.2005050E+003
 -1.1365842E+003
 -1.0664078E+003
 -1.0125442E+003
 -9.8158133E+002
 -9.699  0.0000000 -9.7043145E+002
 -9.7595590E+002
 -9.8107353E+002
 -9.8198809E+002
 -9.7619509E+002
 -9.6188283E+002
 -9.3715133E+002
 -8.9875838E+002
 -8.4098435E+002
 -7.5269084E+002
 -6.2117007E+002
 -4.4180891E+002
 -2.9733667E+002
 -1.7896269E+002
 -1.2209650E+002
 -1.2256719E+003
 -1.2155389E+003
 -1.1753233E+003
 -1.1254243E+003
 -1.0808774E+003
 -1.0492105E+003
 -1.0303872E+003
 -1.0203054E+003
 -1.0137062E+003
 -1.0058540E+003
 -9.9311856E+002
 -9.7292299E+002
 -9.4325548E+002
 -9.0180361E+002
 -8.4500961E+002
 -7.6655835E+002
 -6.5855560E+002
 -5.1234647E+002
 -3.3830485E+002
 -2.2568179E+002
 -2.1855775E+002
 -1.3167743E+002
 -1.2085321E+003
 -1.2128607E+003
 -1.1938451E+003
 -1.1631013E+003
 -1.1313600E+003
 -1.1046771E+003
 -1.0842831E+003
 -1.0679188E+003
 -1.0517830E+003
 -1.0320477E+003
 -1.0056853E+003
 -9.7066917E+002
 -9.2560462E+002
 -8.6920035E+002
 -7.9886022E+002
 -7.1231152E+002
 -6.0091742E+002
 -4.8030273E+002
 -3.1135083E+002
 -2.8679455E+002
 -5.4862253E+002
 -4.8542398E+002
 -1.1830362E+003
 -1.2001914E+003
 -1.1980299E+003
 -1.1843624E+003
 -1.1661494E+003
 -1.1476976E+003
 -1.1299713E+003
 -1.1112789E+003
 -1.0885541E+003
 -1.0586736E+003
 -1.0194062E+003
 -9.6977425E+002
 -9.0991101E+002
 -8.4034222E+002
 -7.6188633E+002
 -6.7351699E+002
 -5.8004695E+002
 -4.7176810E+002
 -4.0930444E+002
 -3.1908724E+002
 -2.3721559E+002
 -1.1805190E+003
 -1.1918527E+003
 -1.1929442E+003
 -1.1881023E+003
 -1.1797446E+003
 -1.1678446E+003
 -1.1502770E+003
 -1.1238641E+003
 -1.0857040E+003
 -1.0342789E+003
 -9.7003372E+002
 -8.9519479E+002
 -8.1310027E+002
 -7.2738730E+002
 -6.4175359E+002
 -5.5929701E+002
 -4.8156421E+002
 -4.1403814E+002
 -2.5809747E+002
 -6.4748109E+001
 -1.1778138E+003
 -1.1915922E+003
 -1.1996018E+003
 -1.2025977E+003
 -1.1991534E+003
 -1.1859098E+003
 -1.1586613E+003
 -1.1139436E+003
 -1.0506810E+003
 -9.7093133E+002
 -8.7962467E+002
 -7.8326457E+002
 -6.8864707E+002
 -6.0143306E+002
 -5.2714785E+002
 -4.5992222E+002
 -3.8599973E+002
 -2.1151597E+002
 -7.6578942E+001
 -1.1819297E+003
 -1.2021790E+003
 -1.2175656E+003
 -1.2251314E+003
 -1.2196031E+003
 -1.1945895E+003
 -1.1450318E+003
 -1.0695229E+003
 -9.7205407E+002
 -8.6115736E+002
 -7.4734553E+002
 -6.4023833E+002
 -5.4663990E+002
 -4.7158621E+002
 -4.1391536E+002
 -3.5970580E+002
 -2.1402462E+002
 -6.2367157E+001
 -1.1964296E+003
 -1.2250271E+003
 -1.2463255E+003
 -1.2525356E+003
 -1.2337566E+003
 -1.1810663E+003
 -1.0921437E+003
 -9.7307941E+002
 -8.3772727E+002
 -7.0259756E+002
 -5.8100921E+002
 -4.7883483E+002
 -3.9829565E+002
 -3.3757178E+002
 -3.3709932E+002
 -2.6119459E+002
 -1.5051567E+002
 -1.2241662E+003
 -1.2618388E+003
 -1.2850055E+003
 -1.2778293E+003
 -1.2256839E+003
 -1.1208546E+003
 -9.7330915E+002
 -8.0632488E+002
 -6.4591214E+002
 -5.1088102E+002
 -4.0737175E+002
 -3.2769037E+002
 -2.5778387E+002
 -2.3287458E+002
 -2.3831392E+002
 -1.4416508E+002
 -1.2130948E+003
 -1.2686659E+003
 -1.3145459E+003
 -1.3287661E+003
 -1.2796157E+003
 -1.1563011E+003
 -9.7048329E+002
 -7.6062635E+002
 -5.7112434E+002
 -4.2855952E+002
 -3.3487375E+002
 -2.9158504E+002
 -2.3427690E+002
 -2.6617255E+002
 -5.0012537E+002
 -4.2573416E+002
 -1.2606964E+003
 -1.3353267E+003
 -1.3807308E+003
 -1.3556351E+003
 -1.2057506E+003
 -9.5846161E+002
 -6.9057244E+002
 -4.6921959E+002
 -3.2747247E+002
 -2.6364723E+002
 -2.5455748E+002
 -3.2061467E+002
 -3.0787103E+002
 -2.2444484E+002
 -1.3282084E+003
 -1.4350320E+003
 -1.4176463E+003
 -1.2455143E+003
 -9.2291700E+002
 -5.7045318E+002
 -3.3280926E+002
 -2.1549409E+002
 -1.8525217E+002
 -2.0971721E+002
 -3.3089379E+002
 -3.3156442E+002
 -1.8202273E+002
 -1.4170454E+003
 -1.5719025E+003
 -1.3387611E+003
 -8.2736931E+002
 -3.9317112E+002
 -1.7111507E+002
 -1.2765742E+002
 -1.4045286E+002
 -1.6826316E+002
 -2.2642931E+002
 -2.9042127E+002
 -1.9989001E+002
 -1.2408837E+003
 -1.0383108E+003
 -6.179  0.0000000 -1.0920821E+002
 -1.0366072E+002
 -1.1309724E+002
 -1.8037560E+002
 -2.2296926E+002
 -3.2883692E+002
 -6.2347751E+002
 -5.4122344E+002
 -7.3973535E+002
 -5.4475577E+002
 -9.9757494E+002
 -3.0088919E+002
 -2.1037655E+002
 -2.1656654E+002
 -2.3947661E+002
 -4.2572570E+002
 -5.1205993E+002
 -4.4483298E+002
 -4.1832736E+002
 -4.6190656E+002
 -4.3078277E+002
 -3.4775437E+002
 -3.4566879E+002
 -3.9183179E+002
 -4.6758406E+002
 -2.6993811E+002
 -4.0056964E+000
 -2.8425479E+002
 -4.7439547E+002
 -5.0376499E+002
 -4.8811702E+002
 -5.4535648E+002
 -8.5378138E+002
 -7.2711495E+002
  4.5812955E+001
 -2.7334049E+002
 -4.9790538E+002
 -5.4254480E+002
 -7.1224943E+002
 -7.1445330E+002
 -5.7284231E+002
  1.9227924E+002
  4.1232582E+001
 -7.3301744E+001
 -3.4496898E+002
 -5.0004528E+002
 -5.5349243E+002
 -5.9625463E+002
 -5.7652965E+002
 -2.8694241E+002
 -4.3495112E+001
 -1.7138654E+002
 -3.8162691E+002
 -5.4450709E+002
 -5.8167331E+002
 -6.1291419E+002
 -8.6731119E+002
 -6.9531921E+002
 -7.0613198E+002
 -6.0993091E+002
 -4.2810424E+002
SCALARS Stress_yz double
LOOKUP_TABLE default
  0.0000000E+000
  0.0000000E+000
  0.0000000E+000
  0.0000000E+000
  0.0000000E+000
  0.0000000E+000
  0.0000000E+000
  0.0000000E+000
  0.0000000E+000
  0.0000000E+000
  0.0000000E+000
  0.0000000E+000
  0.0000000E+000
  0.0000000E+000
  0.0000000E+000
  0.0000000E+000
  0.0000000E+000
  0.0000000E+000
  0.0000000E+000
  0.0000000E+000
  0.0000000E+000
  0.0000000E+000
  0.0000000E+000
  0.0000000E+000
  0.0000000E+000
  0.0000000E+000
  0.0000000E+000
  0.0000000E+000
  0.0000000E+000
  0.0000000E+000
  0.0000000E+000
  0.0000000E+000
  0.0000000E+000
  0.0000000E+000
  0.0000000E+000
  0.0000000E+000
  0.0000000E+000
  0.0000000E+000
  0.0000000E+000
  0.0000000E+000
  0.0000000E+000
  0.0000000E+000
  0.0000000E+000
  0.0000000E+000
  0.0000000E+000
  0.0000000E+000
  0.0000000E+000
  0.0000000E+000
  0.0000000E+000
  0.0000000E+000
  0.0000000E+000
  0.0000000E+000
  0.0000000E+000
  0.0000000E+000
  0.0000000E+000
  0.0000000E+000
  0.0000000E+000
  0.0000000E+000
  0.0000000E+000
  0.0000000E+000
  0.0000000E+000
  0.0000000E+000
  0.0000000E+000
  0.0000000E+000
  0.0000000E+000
  0.0000000E+000
  0.0000000E+000
  0.0000000E+000
  0.0000000E+000
  0.0000000E+000
  0.0000000E+000
  0.0000000E+000
  0.0000000E+000
  0.0000000E+000
  0.0000000E+000
  0.0000000E+000
  0.0000000E+000
  0.0000000E+000
  0.0000000E+000
  0.0000000E+000
  0.0000000E+000
  0.0000000E+000
  0.0000000E+000
  0.0000000E+000
  0.0000000E+000
  0.0000000E+000
  0.0000000E+000
  0.0000000E+000
  0.0000000E+000
  0.0000000E+000
  0.0000000E+000
  0.0000000E+000
  0.0000000E+000
  0.0000000E+000
  0.0000000E+000
  0.0000000E+000
  0.0000000E+000
  0.0000000E+000
  0.0000000E+000
  0.0000000E+000
  0.0000000E+000
  0.0000000E+000
  0.0000000E+000
  0.0000000E+000
  0.0000000E+000
  0.0000000E+000
  0.0000000E+000
  0.0000000E+000
  0.0000000E+000
  0.0000000E+000
  0.0000000E+000
  0.0000000E+000
  0.0000000E+000
  0.0000000E+000
  0.0000000E+000
  0.0000000E+000
  0.0000000E+000
  0.0000000E+000
  0.0000000E+000
  0.0000000E+000
  0.0000000E+000
  0.0000000E+000
  0.0000000E+000
  0.0000000E+000
  0.0000000E+000
  0.0000000E+000
  0.0000000E+000
  0.0000000E+000
  0.0000000E+000
  0.0000000E+000
  0.0000000E+000
  0.0000000E+000
  0.0000000E+000
  0.0000000E+000
  0.0000000E+000
  0.0000000E+000
  0.0000000E+000
  0.0000000E+000
  0.0000000E+000
  0.0000000E+000
  0.0000000E+000
  0.0000000E+000
  0.0000000E+000
  0.0000000E+000
  0.0000000E+000
  0.0000000E+000
  0.0000000E+000
  0.0000000E+000
  0.0000000E+000
  0.0000000E+000
  0.0000000E+000
  0.0000000E+000
  0.0000000E+000
  0.0000000E+000
  0.0000000E+000
  0.0000000E+000
  0.0000000E+000
  0.0000000E+000
  0.0000000E+000
  0.0000000E+000
  0.0000000E+000
  0.0000000E+000
  0.0000000E+000
  0.0000000E+  0.0  0.0000000E+000
  0.0000000E+000
  0.0000000E+000
  0.0000000E+000
  0.0000000E+000
  0.0000000E+000
  0.0000000E+000
  0.0000000E+000
  0.0000000E+000
  0.0000000E+000
  0.0000000E+000
  0.0000000E+000
  0.0000000E+000
  0.0000000E+000
  0.0000000E+000
  0.0000000E+000
  0.0000000E+000
  0.0000000E+000
  0.0000000E+000
  0.0000000E+000
  0.0000000E+000
  0.0000000E+000
  0.0000000E+000
  0.0000000E+000
  0.0000000E+000
  0.0000000E+000
  0.0000000E+000
  0.0000000E+000
  0.0000000E+000
  0.0000000E+000
  0.0000000E+000
  0.0000000E+000
  0.0000000E+000
  0.0000000E+000
  0.0000000E+000
  0.0000000E+000
  0.0000000E+000
  0.0000000E+000
  0.0000000E+000
  0.0000000E+000
  0.0000000E+000
  0.0000000E+000
  0.0000000E+000
  0.0000000E+000
  0.0000000E+000
  0.0000000E+000
  0.0000000E+000
  0.0000000E+000
  0.0000000E+000
  0.0000000E+000
  0.0000000E+000
  0.0000000E+000
  0.0000000E+000
  0.0000000E+000
  0.0000000E+000
  0.0000000E+000
  0.0000000E+000
  0.0000000E+000
  0.0000000E+000
  0.0000000E+000
  0.0000000E+000
  0.0000000E+000
  0.0000000E+000
  0.0000000E+000
  0.0000000E+000
  0.0000000E+000
  0.0000000E+000
  0.0000000E+000
  0.0000000E+000
  0.0000000E+000
  0.0000000E+000
  0.0000000E+000
  0.0000000E+000
  0.0000000E+000
  0.0000000E+000
  0.0000000E+000
  0.0000000E+000
  0.0000000E+000
  0.0000000E+000
  0.0000000E+000
  0.0000000E+000
  0.0000000E+000
  0.0000000E+000
  0.0000000E+000
  0.0000000E+000
  0.0000000E+000
  0.0000000E+000
  0.0000000E+000
  0.0000000E+000
  0.0000000E+000
  0.0000000E+000
  0.0000000E+000
  0.0000000E+000
  0.0000000E+000
  0.0000000E+000
  0.0000000E+000
  0.0000000E+000
  0.0000000E+000
  0.0000000E+000
  0.0000000E+000
  0.0000000E+000
  0.0000000E+000
  0.0000000E+000
  0.0000000E+000
  0.0000000E+000
  0.0000000E+000
  0.0000000E+000
  0.0000000E+000
  0.0000000E+000
  0.0000000E+000
  0.0000000E+000
  0.0000000E+000
  0.0000000E+000
  0.0000000E+000
  0.0000000E+000
  0.0000000E+000
  0.0000000E+000
  0.0000000E+000
  0.0000000E+000
  0.0000000E+000
  0.0000000E+000
  0.0000000E+000
  0.0000000E+000
  0.0000000E+000
  0.0000000E+000
  0.0000000E+000
  0.0000000E+000
  0.0000000E+000
  0.0000000E+000
  0.0000000E+000
  0.0000000E+000
  0.0000000E+000
  0.0000000E+000
  0.0000000E+000
  0.0000000E+000
  0.0000000E+000
  0.0000000E+000
  0.0000000E+000
  0.0000000E+000
  0.0000000E+000
  0.0000000E+000
  0.0000000E+000
  0.0000000E+000
  0.0000000E+000
  0.0000000E+000
  0.0000000E+000
  0.0000000E+000
  0.0000000E+000
  0.0000000E+000
  0.0000000E+000
  0.0000000E+000
  0.0000000E+000
  0.0000000E+000
  0.0000000E+000
  0.0000000E+000
  0.0000000E+000
  0.0000000E+000
  0.0000000E+000
  0.0000000E+000
  0.0000000E+000
  0.0000000E+000
  0.0000000E+000
  0.0000000E+000
  0.0000000E+000
  0.0000000E+000
  0.0000000E+000
  0.0000000E+000
  0.0000000E+000
  0.0000000E+000
  0.0000000E+000
  0.0000000E+000
  0.0000000E+000
  0.0000000E+000
  0.0000000E+000
  0.0000000E+000
  0.0000000E+000
  0.0000000E+000
  0.0000000E+000
  0.0000000E+000
  0.0000000E+000
  0.0000000E+000
  0.0000000E+000
  0.0000000E+000
  0.0000000E+000
  0.0000000E+000
  0.0000000E+000
  0.0000000E+000
  0.0000000E+000
  0.0000000E+000
  0.0000000E+000
  0.0000000E+000
  0.0000000E+000
  0.0000000E+000
  0.0000000E+000
  0.0000000E+000
  0.0000000E+000
  0.0000000E+000
  0.0000000E+000
  0.0000000E+000
  0.0000000E+000
  0.0000000E+000
  0.0000000E+000
  0.0000000E+000
  0.0000000E+000
  0.0000000E+000
  0.0000000E+000
  0.0000000E+000
  0.0000000E+000
  0.0000000E+000
  0.0000000E+000
  0.0000000E+000
  0.0000000E+000
  0.0000000E+000
  0.0000000E+000
  0.0000000E+000
  0.0000000E+000
  0.0000000E+000
  0.0000000E+000
  0.0000000E+000
  0.0000000E+000
  0.0000000E+000
  0.0000000E+000
  0.0000000E+000
  0.0000000E+000
  0.0000000E+000
  0.0000000E+000
  0.0000000E+000
  0.0000000E+  0.0  0.0000000E+000
  0.0000000E+000
  0.0000000E+000
  0.0000000E+000
  0.0000000E+000
  0.0000000E+000
  0.0000000E+000
  0.0000000E+000
  0.0000000E+000
  0.0000000E+000
  0.0000000E+000
  0.0000000E+000
  0.0000000E+000
  0.0000000E+000
  0.0000000E+000
  0.0000000E+000
  0.0000000E+000
  0.0000000E+000
  0.0000000E+000
  0.0000000E+000
  0.0000000E+000
  0.0000000E+000
  0.0000000E+000
  0.0000000E+000
  0.0000000E+000
  0.0000000E+000
  0.0000000E+000
  0.0000000E+000
  0.0000000E+000
  0.0000000E+000
  0.0000000E+000
  0.0000000E+000
  0.0000000E+000
  0.0000000E+000
  0.0000000E+000
  0.0000000E+000
  0.0000000E+000
  0.0000000E+000
  0.0000000E+000
  0.0000000E+000
  0.0000000E+000
  0.0000000E+000
  0.0000000E+000
  0.0000000E+000
  0.0000000E+000
  0.0000000E+000
  0.0000000E+000
  0.0000000E+000
  0.0000000E+000
  0.0000000E+000
  0.0000000E+000
  0.0000000E+000
  0.0000000E+000
  0.0000000E+000
  0.0000000E+000
  0.0000000E+000
  0.0000000E+000
  0.0000000E+000
  0.0000000E+000
  0.0000000E+000
  0.0000000E+000
  0.0000000E+000
  0.0000000E+000
  0.0000000E+000
  0.0000000E+000
  0.0000000E+000
  0.0000000E+000
  0.0000000E+000
  0.0000000E+000
  0.0000000E+000
  0.0000000E+000
  0.0000000E+000
  0.0000000E+000
  0.0000000E+000
  0.0000000E+000
  0.0000000E+000
  0.0000000E+000
  0.0000000E+000
  0.0000000E+000
  0.0000000E+000
  0.0000000E+000
  0.0000000E+000
  0.0000000E+000
  0.0000000E+000
  0.0000000E+000
  0.0000000E+000
  0.0000000E+000
  0.0000000E+000
  0.0000000E+000
  0.0000000E+000
  0.0000000E+000
  0.0000000E+000
  0.0000000E+000
  0.0000000E+000
  0.0000000E+000
  0.0000000E+000
  0.0000000E+000
  0.0000000E+000
  0.0000000E+000
  0.0000000E+000
  0.0000000E+000
  0.0000000E+000
  0.0000000E+000
  0.0000000E+000
  0.0000000E+000
  0.0000000E+000
  0.0000000E+000
  0.0000000E+000
  0.0000000E+000
  0.0000000E+000
  0.0000000E+000
  0.0000000E+000
  0.0000000E+000
  0.0000000E+000
  0.0000000E+000
  0.0000000E+000
  0.0000000E+000
  0.0000000E+000
  0.0000000E+000
  0.0000000E+000
  0.0000000E+000
  0.0000000E+000
  0.0000000E+000
  0.0000000E+000
  0.0000000E+000
  0.0000000E+000
  0.0000000E+000
  0.0000000E+000
  0.0000000E+000
  0.0000000E+000
  0.0000000E+000
  0.0000000E+000
  0.0000000E+000
  0.0000000E+000
  0.0000000E+000
  0.0000000E+000
  0.0000000E+000
  0.0000000E+000
  0.0000000E+000
  0.0000000E+000
  0.0000000E+000
  0.0000000E+000
  0.0000000E+000
  0.0000000E+000
  0.0000000E+000
  0.0000000E+000
  0.0000000E+000
  0.0000000E+000
  0.0000000E+000
  0.0000000E+000
  0.0000000E+000
  0.0000000E+000
  0.0000000E+000
  0.0000000E+000
  0.0000000E+000
  0.0000000E+000
  0.0000000E+000
  0.0000000E+000
  0.0000000E+000
  0.0000000E+000
  0.0000000E+000
  0.0000000E+000
  0.0000000E+000
  0.0000000E+000
  0.0000000E+000
  0.0000000E+000
  0.0000000E+000
  0.0000000E+000
  0.0000000E+000
  0.0000000E+000
  0.0000000E+000
  0.0000000E+000
  0.0000000E+000
  0.0000000E+000
  0.0000000E+000
  0.0000000E+000
  0.0000000E+000
  0.0000000E+000
  0.0000000E+000
  0.0000000E+000
  0.0000000E+000
  0.0000000E+000
  0.0000000E+000
  0.0000000E+000
  0.0000000E+000
  0.0000000E+000
  0.0000000E+000
  0.0000000E+000
  0.0000000E+000
  0.0000000E+000
  0.0000000E+000
  0.0000000E+000
  0.0000000E+000
  0.0000000E+000
  0.0000000E+000
  0.0000000E+000
  0.0000000E+000
  0.0000000E+000
  0.0000000E+000
  0.0000000E+000
  0.0000000E+000
  0.0000000E+000
  0.0000000E+000
  0.0000000E+000
  0.0000000E+000
  0.0000000E+000
  0.0000000E+000
  0.0000000E+000
  0.0000000E+000
  0.0000000E+000
  0.0000000E+000
  0.0000000E+000
  0.0000000E+000
  0.0000000E+000
  0.0000000E+000
  0.0000000E+000
  0.0000000E+000
  0.0000000E+000
  0.0000000E+000
  0.0000000E+000
  0.0000000E+000
  0.0000000E+000
  0.0000000E+000
  0.0000000E+000
  0.0000000E+000
  0.0000000E+000
  0.0000000E+000
  0.0000000E+  0.0  0.0000000E+000
  0.0000000E+000
  0.0000000E+000
  0.0000000E+000
  0.0000000E+000
  0.0000000E+000
  0.0000000E+000
  0.0000000E+000
  0.0000000E+000
  0.0000000E+000
  0.0000000E+000
  0.0000000E+000
  0.0000000E+000
  0.0000000E+000
  0.0000000E+000
  0.0000000E+000
  0.0000000E+000
  0.0000000E+000
  0.0000000E+000
  0.0000000E+000
  0.0000000E+000
  0.0000000E+000
  0.0000000E+000
  0.0000000E+000
  0.0000000E+000
  0.0000000E+000
  0.0000000E+000
  0.0000000E+000
  0.0000000E+000
  0.0000000E+000
  0.0000000E+000
  0.0000000E+000
  0.0000000E+000
  0.0000000E+000
  0.0000000E+000
  0.0000000E+000
  0.0000000E+000
  0.0000000E+000
  0.0000000E+000
  0.0000000E+000
  0.0000000E+000
  0.0000000E+000
  0.0000000E+000
  0.0000000E+000
  0.0000000E+000
  0.0000000E+000
  0.0000000E+000
  0.0000000E+000
  0.0000000E+000
  0.0000000E+000
  0.0000000E+000
  0.0000000E+000
  0.0000000E+000
  0.0000000E+000
  0.0000000E+000
  0.0000000E+000
  0.0000000E+000
  0.0000000E+000
  0.0000000E+000
  0.0000000E+000
  0.0000000E+000
  0.0000000E+000
  0.0000000E+000
  0.0000000E+000
  0.0000000E+000
  0.0000000E+000
  0.0000000E+000
  0.0000000E+000
  0.0000000E+000
  0.0000000E+000
  0.0000000E+000
  0.0000000E+000
  0.0000000E+000
  0.0000000E+000
  0.0000000E+000
  0.0000000E+000
  0.0000000E+000
  0.0000000E+000
  0.0000000E+000
  0.0000000E+000
  0.0000000E+000
  0.0000000E+000
  0.0000000E+000
  0.0000000E+000
  0.0000000E+000
  0.0000000E+000
  0.0000000E+000
  0.0000000E+000
  0.0000000E+000
  0.0000000E+000
  0.0000000E+000
  0.0000000E+000
  0.0000000E+000
  0.0000000E+000
  0.0000000E+000
  0.0000000E+000
  0.0000000E+000
  0.0000000E+000
  0.0000000E+000
  0.0000000E+000
  0.0000000E+000
  0.0000000E+000
  0.0000000E+000
  0.0000000E+000
  0.0000000E+000
  0.0000000E+000
  0.0000000E+000
  0.0000000E+000
  0.0000000E+000
  0.0000000E+000
  0.0000000E+000
  0.0000000E+000
  0.0000000E+000
  0.0000000E+000
  0.0000000E+000
  0.0000000E+000
  0.0000000E+000
  0.0000000E+000
  0.0000000E+000
  0.0000000E+000
  0.0000000E+000
  0.0000000E+000
  0.0000000E+000
  0.0000000E+000
  0.0000000E+000
  0.0000000E+000
  0.0000000E+000
  0.0000000E+000
  0.0000000E+000
  0.0000000E+000
  0.0000000E+000
  0.0000000E+000
  0.0000000E+000
  0.0000000E+000
  0.0000000E+000
  0.0000000E+000
  0.0000000E+000
  0.0000000E+000
  0.0000000E+000
  0.0000000E+000
  0.0000000E+000
  0.0000000E+000
  0.0000000E+000
  0.0000000E+000
  0.0000000E+000
  0.0000000E+000
  0.0000000E+000
  0.0000000E+000
  0.0000000E+000
  0.0000000E+000
  0.0000000E+000
  0.0000000E+000
  0.0000000E+000
  0.0000000E+000
  0.0000000E+000
  0.0000000E+000
  0.0000000E+000
  0.0000000E+000
  0.0000000E+000
  0.0000000E+000
  0.0000000E+000
  0.0000000E+000
  0.0000000E+000
  0.0000000E+000
  0.0000000E+000
  0.0000000E+000
  0.0000000E+000
  0.0000000E+000
  0.0000000E+000
  0.0000000E+000
  0.0000000E+000
  0.0000000E+000
  0.0000000E+000
  0.0000000E+000
  0.0000000E+000
  0.0000000E+000
  0.0000000E+000
  0.0000000E+000
  0.0000000E+000
  0.0000000E+000
  0.0000000E+000
  0.0000000E+000
  0.0000000E+000
  0.0000000E+000
  0.0000000E+000
  0.0000000E+000
  0.0000000E+000
  0.0000000E+000
  0.0000000E+000
  0.0000000E+000
  0.0000000E+000
  0.0000000E+000
  0.0000000E+000
  0.0000000E+000
  0.0000000E+000
  0.0000000E+000
  0.0000000E+000
  0.0000000E+000
  0.0000000E+000
  0.0000000E+000
  0.0000000E+000
  0.0000000E+000
  0.0000000E+000
  0.0000000E+000
  0.0000000E+000
  0.0000000E+000
  0.0000000E+000
  0.0000000E+000
  0.0000000E+000
  0.0000000E+000
  0.0000000E+000
  0.0000000E+000
  0.0000000E+000
  0.0000000E+000
  0.0000000E+000
  0.0000000E+000
  0.0000000E+000
  0.0000000E+000
  0.0000000E+000
  0.0000000E+000
  0.0000000E+000
  0.0000000E+000
  0.0000000E+000
  0.0000000E+000
  0.0000000E+000
  0.0000000E+000
  0.0000000E+000
  0.0000000E+  0.0  0.0000000E+000
  0.0000000E+000
  0.0000000E+000
  0.0000000E+000
  0.0000000E+000
  0.0000000E+000
  0.0000000E+000
  0.0000000E+000
  0.0000000E+000
  0.0000000E+000
  0.0000000E+000
  0.0000000E+000
  0.0000000E+000
  0.0000000E+000
  0.0000000E+000
  0.0000000E+000
  0.0000000E+000
  0.0000000E+000
  0.0000000E+000
  0.0000000E+000
  0.0000000E+000
  0.0000000E+000
  0.0000000E+000
  0.0000000E+000
  0.0000000E+000
  0.0000000E+000
  0.0000000E+000
  0.0000000E+000
  0.0000000E+000
  0.0000000E+000
  0.0000000E+000
  0.0000000E+000
  0.0000000E+000
  0.0000000E+000
  0.0000000E+000
  0.0000000E+000
  0.0000000E+000
  0.0000000E+000
  0.0000000E+000
  0.0000000E+000
  0.0000000E+000
  0.0000000E+000
  0.0000000E+000
  0.0000000E+000
  0.0000000E+000
  0.0000000E+000
  0.0000000E+000
  0.0000000E+000
  0.0000000E+000
  0.0000000E+000
  0.0000000E+000
  0.0000000E+000
  0.0000000E+000
  0.0000000E+000
  0.0000000E+000
  0.0000000E+000
  0.0000000E+000
  0.0000000E+000
  0.0000000E+000
  0.0000000E+000
  0.0000000E+000
  0.0000000E+000
  0.0000000E+000
  0.0000000E+000
  0.0000000E+000
  0.0000000E+000
  0.0000000E+000
  0.0000000E+000
  0.0000000E+000
  0.0000000E+000
  0.0000000E+000
  0.0000000E+000
  0.0000000E+000
  0.0000000E+000
  0.0000000E+000
  0.0000000E+000
  0.0000000E+000
  0.0000000E+000
  0.0000000E+000
  0.0000000E+000
  0.0000000E+000
  0.0000000E+000
  0.0000000E+000
  0.0000000E+000
  0.0000000E+000
  0.0000000E+000
  0.0000000E+000
  0.0000000E+000
  0.0000000E+000
  0.0000000E+000
  0.0000000E+000
  0.0000000E+000
  0.0000000E+000
  0.0000000E+000
  0.0000000E+000
  0.0000000E+000
  0.0000000E+000
  0.0000000E+000
  0.0000000E+000
  0.0000000E+000
  0.0000000E+000
  0.0000000E+000
  0.0000000E+000
  0.0000000E+000
  0.0000000E+000
  0.0000000E+000
  0.0000000E+000
  0.0000000E+000
  0.0000000E+000
  0.0000000E+000
  0.0000000E+000
  0.0000000E+000
  0.0000000E+000
  0.0000000E+000
  0.0000000E+000
  0.0000000E+000
  0.0000000E+000
  0.0000000E+000
  0.0000000E+000
  0.0000000E+000
  0.0000000E+000
  0.0000000E+000
  0.0000000E+000
  0.0000000E+000
  0.0000000E+000
  0.0000000E+000
  0.0000000E+000
  0.0000000E+000
  0.0000000E+000
  0.0000000E+000
  0.0000000E+000
  0.0000000E+000
  0.0000000E+000
  0.0000000E+000
  0.0000000E+000
  0.0000000E+000
  0.0000000E+000
  0.0000000E+000
  0.0000000E+000
  0.0000000E+000
  0.0000000E+000
  0.0000000E+000
  0.0000000E+000
  0.0000000E+000
  0.0000000E+000
  0.0000000E+000
  0.0000000E+000
  0.0000000E+000
  0.0000000E+000
  0.0000000E+000
  0.0000000E+000
  0.0000000E+000
  0.0000000E+000
  0.0000000E+000
  0.0000000E+000
  0.0000000E+000
  0.0000000E+000
  0.0000000E+000
  0.0000000E+000
  0.0000000E+000
  0.0000000E+000
  0.0000000E+000
  0.0000000E+000
  0.0000000E+000
  0.0000000E+000
  0.0000000E+000
  0.0000000E+000
  0.0000000E+000
  0.0000000E+000
  0.0000000E+000
  0.0000000E+000
  0.0000000E+000
  0.0000000E+000
  0.0000000E+000
  0.0000000E+000
  0.0000000E+000
  0.0000000E+000
  0.0000000E+000
  0.0000000E+000
  0.0000000E+000
  0.0000000E+000
  0.0000000E+000
  0.0000000E+000
  0.0000000E+000
  0.0000000E+000
  0.0000000E+000
  0.0000000E+000
  0.0000000E+000
  0.0000000E+000
  0.0000000E+000
  0.0000000E+000
  0.0000000E+000
  0.0000000E+000
  0.0000000E+000
  0.0000000E+000
  0.0000000E+000
  0.0000000E+000
  0.0000000E+000
  0.0000000E+000
  0.0000000E+000
  0.0000000E+000
  0.0000000E+000
  0.0000000E+000
  0.0000000E+000
  0.0000000E+000
  0.0000000E+000
  0.0000000E+000
  0.0000000E+000
  0.0000000E+000
  0.0000000E+000
  0.0000000E+000
  0.0000000E+000
  0.0000000E+000
  0.0000000E+000
  0.0000000E+000
  0.0000000E+000
  0.0000000E+000
  0.0000000E+000
  0.0000000E+000
  0.0000000E+000
  0.0000000E+000
  0.0000000E+000
  0.0000000E+000
  0.0000000E+000
  0.0000000E+000
  0.0000000E+000
  0.0000000E+000
  0.0000000E+  0.0  0.0000000E+000
  0.0000000E+000
  0.0000000E+000
  0.0000000E+000
  0.0000000E+000
  0.0000000E+000
  0.0000000E+000
  0.0000000E+000
  0.0000000E+000
  0.0000000E+000
  0.0000000E+000
  0.0000000E+000
  0.0000000E+000
  0.0000000E+000
  0.0000000E+000
  0.0000000E+000
  0.0000000E+000
  0.0000000E+000
  0.0000000E+000
  0.0000000E+000
  0.0000000E+000
  0.0000000E+000
  0.0000000E+000
  0.0000000E+000
  0.0000000E+000
  0.0000000E+000
  0.0000000E+000
  0.0000000E+000
  0.0000000E+000
  0.0000000E+000
  0.0000000E+000
  0.0000000E+000
  0.0000000E+000
  0.0000000E+000
  0.0000000E+000
  0.0000000E+000
  0.0000000E+000
  0.0000000E+000
  0.0000000E+000
  0.0000000E+000
  0.0000000E+000
  0.0000000E+000
  0.0000000E+000
  0.0000000E+000
  0.0000000E+000
  0.0000000E+000
  0.0000000E+000
  0.0000000E+000
  0.0000000E+000
  0.0000000E+000
  0.0000000E+000
  0.0000000E+000
  0.0000000E+000
  0.0000000E+000
  0.0000000E+000
  0.0000000E+000
  0.0000000E+000
  0.0000000E+000
  0.0000000E+000
  0.0000000E+000
  0.0000000E+000
  0.0000000E+000
  0.0000000E+000
  0.0000000E+000
  0.0000000E+000
  0.0000000E+000
  0.0000000E+000
  0.0000000E+000
  0.0000000E+000
  0.0000000E+000
  0.0000000E+000
  0.0000000E+000
  0.0000000E+000
  0.0000000E+000
  0.0000000E+000
  0.0000000E+000
  0.0000000E+000
  0.0000000E+000
  0.0000000E+000
  0.0000000E+000
  0.0000000E+000
  0.0000000E+000
  0.0000000E+000
  0.0000000E+000
  0.0000000E+000
  0.0000000E+000
  0.0000000E+000
  0.0000000E+000
  0.0000000E+000
  0.0000000E+000
  0.0000000E+000
  0.0000000E+000
  0.0000000E+000
  0.0000000E+000
  0.0000000E+000
  0.0000000E+000
  0.0000000E+000
  0.0000000E+000
  0.0000000E+000
  0.0000000E+000
  0.0000000E+000
  0.0000000E+000
  0.0000000E+000
  0.0000000E+000
  0.0000000E+000
  0.0000000E+000
  0.0000000E+000
  0.0000000E+000
  0.0000000E+000
  0.0000000E+000
  0.0000000E+000
  0.0000000E+000
  0.0000000E+000
  0.0000000E+000
  0.0000000E+000
  0.0000000E+000
  0.0000000E+000
  0.0000000E+000
  0.0000000E+000
  0.0000000E+000
  0.0000000E+000
  0.0000000E+000
  0.0000000E+000
  0.0000000E+000
  0.0000000E+000
  0.0000000E+000
  0.0000000E+000
  0.0000000E+000
  0.0000000E+000
  0.0000000E+000
  0.0000000E+000
  0.0000000E+000
  0.0000000E+000
  0.0000000E+000
  0.0000000E+000
  0.0000000E+000
  0.0000000E+000
  0.0000000E+000
  0.0000000E+000
  0.0000000E+000
  0.0000000E+000
  0.0000000E+000
  0.0000000E+000
  0.0000000E+000
  0.0000000E+000
  0.0000000E+000
  0.0000000E+000
  0.0000000E+000
  0.0000000E+000
  0.0000000E+000
  0.0000000E+000
  0.0000000E+000
  0.0000000E+000
  0.0000000E+000
  0.0000000E+000
  0.0000000E+000
  0.0000000E+000
  0.0000000E+000
  0.0000000E+000
  0.0000000E+000
  0.0000000E+000
  0.0000000E+000
  0.0000000E+000
  0.0000000E+000
  0.0000000E+000
  0.0000000E+000
  0.0000000E+000
  0.0000000E+000
  0.0000000E+000
  0.0000000E+000
  0.0000000E+000
  0.0000000E+000
  0.0000000E+000
  0.0000000E+000
  0.0000000E+000
  0.0000000E+000
  0.0000000E+000
  0.0000000E+000
  0.0000000E+000
  0.0000000E+000
  0.0000000E+000
  0.0000000E+000
  0.0000000E+000
  0.0000000E+000
  0.0000000E+000
  0.0000000E+000
  0.0000000E+000
  0.0000000E+000
  0.0000000E+000
  0.0000000E+000
  0.0000000E+000
  0.0000000E+000
  0.0000000E+000
  0.0000000E+000
  0.0000000E+000
  0.0000000E+000
  0.0000000E+000
  0.0000000E+000
  0.0000000E+000
  0.0000000E+000
  0.0000000E+000
  0.0000000E+000
  0.0000000E+000
  0.0000000E+000
  0.0000000E+000
  0.0000000E+000
  0.0000000E+000
  0.0000000E+000
  0.0000000E+000
  0.0000000E+000
  0.0000000E+000
  0.0000000E+000
  0.0000000E+000
  0.0000000E+000
  0.0000000E+000
  0.0000000E+000
  0.0000000E+000
  0.0000000E+000
  0.0000000E+000
  0.0000000E+000
  0.0000000E+000
  0.0000000E+000
  0.0000000E+000
  0.0000000E+000
  0.0000000E+000
  0.0000000E+000
  0.0000000E+000
  0.0000000E+  0.0  0.0000000E+000
  0.0000000E+000
  0.0000000E+000
  0.0000000E+000
  0.0000000E+000
  0.0000000E+000
  0.0000000E+000
  0.0000000E+000
  0.0000000E+000
  0.0000000E+000
  0.0000000E+000
  0.0000000E+000
  0.0000000E+000
  0.0000000E+000
  0.0000000E+000
  0.0000000E+000
  0.0000000E+000
  0.0000000E+000
  0.0000000E+000
  0.0000000E+000
  0.0000000E+000
  0.0000000E+000
  0.0000000E+000
  0.0000000E+000
  0.0000000E+000
  0.0000000E+000
  0.0000000E+000
  0.0000000E+000
  0.0000000E+000
  0.0000000E+000
  0.0000000E+000
  0.0000000E+000
  0.0000000E+000
  0.0000000E+000
  0.0000000E+000
  0.0000000E+000
  0.0000000E+000
  0.0000000E+000
  0.0000000E+000
  0.0000000E+000
  0.0000000E+000
  0.0000000E+000
  0.0000000E+000
  0.0000000E+000
  0.0000000E+000
  0.0000000E+000
  0.0000000E+000
  0.0000000E+000
  0.0000000E+000
  0.0000000E+000
  0.0000000E+000
  0.0000000E+000
  0.0000000E+000
  0.0000000E+000
  0.0000000E+000
  0.0000000E+000
  0.0000000E+000
  0.0000000E+000
  0.0000000E+000
  0.0000000E+000
  0.0000000E+000
  0.0000000E+000
  0.0000000E+000
  0.0000000E+000
  0.0000000E+000
  0.0000000E+000
  0.0000000E+000
  0.0000000E+000
  0.0000000E+000
  0.0000000E+000
  0.0000000E+000
  0.0000000E+000
  0.0000000E+000
  0.0000000E+000
  0.0000000E+000
  0.0000000E+000
  0.0000000E+000
  0.0000000E+000
  0.0000000E+000
  0.0000000E+000
  0.0000000E+000
  0.0000000E+000
  0.0000000E+000
  0.0000000E+000
  0.0000000E+000
  0.0000000E+000
  0.0000000E+000
  0.0000000E+000
  0.0000000E+000
  0.0000000E+000
  0.0000000E+000
  0.0000000E+000
  0.0000000E+000
  0.0000000E+000
  0.0000000E+000
  0.0000000E+000
  0.0000000E+000
  0.0000000E+000
  0.0000000E+000
  0.0000000E+000
  0.0000000E+000
  0.0000000E+000
  0.0000000E+000
  0.0000000E+000
  0.0000000E+000
  0.0000000E+000
  0.0000000E+000
  0.0000000E+000
  0.0000000E+000
  0.0000000E+000
  0.0000000E+000
  0.0000000E+000
  0.0000000E+000
  0.0000000E+000
  0.0000000E+000
  0.0000000E+000
  0.0000000E+000
  0.0000000E+000
  0.0000000E+000
  0.0000000E+000
  0.0000000E+000
  0.0000000E+000
  0.0000000E+000
  0.0000000E+000
  0.0000000E+000
  0.0000000E+000
  0.0000000E+000
  0.0000000E+000
  0.0000000E+000
  0.0000000E+000
  0.0000000E+000
  0.0000000E+000
  0.0000000E+000
  0.0000000E+000
  0.0000000E+000
  0.0000000E+000
  0.0000000E+000
  0.0000000E+000
  0.0000000E+000
  0.0000000E+000
  0.0000000E+000
  0.0000000E+000
  0.0000000E+000
  0.0000000E+000
  0.0000000E+000
  0.0000000E+000
  0.0000000E+000
  0.0000000E+000
  0.0000000E+000
  0.0000000E+000
  0.0000000E+000
  0.0000000E+000
  0.0000000E+000
  0.0000000E+000
  0.0000000E+000
  0.0000000E+000
  0.0000000E+000
  0.0000000E+000
  0.0000000E+000
  0.0000000E+000
  0.0000000E+000
  0.0000000E+000
  0.0000000E+000
  0.0000000E+000
  0.0000000E+000
  0.0000000E+000
  0.0000000E+000
  0.0000000E+000
  0.0000000E+000
  0.0000000E+000
  0.0000000E+000
  0.0000000E+000
  0.0000000E+000
  0.0000000E+000
  0.0000000E+000
  0.0000000E+000
  0.0000000E+000
  0.0000000E+000
  0.0000000E+000
  0.0000000E+000
  0.0000000E+000
  0.0000000E+000
  0.0000000E+000
  0.0000000E+000
  0.0000000E+000
  0.0000000E+000
  0.0000000E+000
  0.0000000E+000
  0.0000000E+000
  0.0000000E+000
  0.0000000E+000
  0.0000000E+000
  0.0000000E+000
  0.0000000E+000
  0.0000000E+000
  0.0000000E+000
  0.0000000E+000
  0.0000000E+000
  0.0000000E+000
  0.0000000E+000
  0.0000000E+000
  0.0000000E+000
  0.0000000E+000
  0.0000000E+000
  0.0000000E+000
  0.0000000E+000
  0.0000000E+000
  0.0000000E+000
  0.0000000E+000
  0.0000000E+000
  0.0000000E+000
  0.0000000E+000
  0.0000000E+000
  0.0000000E+000
  0.0000000E+000
  0.0000000E+000
  0.0000000E+000
  0.0000000E+000
  0.0000000E+000
  0.0000000E+000
  0.0000000E+000
  0.0000000E+000
  0.0000000E+000
  0.0000000E+000
  0.0000000E+000
  0.0000000E+000
  0.0000000E+000
  0.0000000E+  0.0  0.0000000E+000
  0.0000000E+000
  0.0000000E+000
  0.0000000E+000
  0.0000000E+000
  0.0000000E+000
  0.0000000E+000
  0.0000000E+000
  0.0000000E+000
  0.0000000E+000
  0.0000000E+000
  0.0000000E+000
  0.0000000E+000
  0.0000000E+000
  0.0000000E+000
  0.0000000E+000
  0.0000000E+000
  0.0000000E+000
  0.0000000E+000
  0.0000000E+000
  0.0000000E+000
  0.0000000E+000
  0.0000000E+000
  0.0000000E+000
  0.0000000E+000
  0.0000000E+000
  0.0000000E+000
  0.0000000E+000
  0.0000000E+000
  0.0000000E+000
  0.0000000E+000
  0.0000000E+000
  0.0000000E+000
  0.0000000E+000
  0.0000000E+000
  0.0000000E+000
  0.0000000E+000
  0.0000000E+000
  0.0000000E+000
  0.0000000E+000
  0.0000000E+000
  0.0000000E+000
  0.0000000E+000
  0.0000000E+000
  0.0000000E+000
  0.0000000E+000
  0.0000000E+000
  0.0000000E+000
  0.0000000E+000
  0.0000000E+000
  0.0000000E+000
  0.0000000E+000
  0.0000000E+000
  0.0000000E+000
  0.0000000E+000
  0.0000000E+000
  0.0000000E+000
  0.0000000E+000
  0.0000000E+000
  0.0000000E+000
  0.0000000E+000
  0.0000000E+000
  0.0000000E+000
  0.0000000E+000
  0.0000000E+000
  0.0000000E+000
  0.0000000E+000
  0.0000000E+000
  0.0000000E+000
  0.0000000E+000
  0.0000000E+000
  0.0000000E+000
  0.0000000E+000
  0.0000000E+000
  0.0000000E+000
  0.0000000E+000
  0.0000000E+000
  0.0000000E+000
  0.0000000E+000
  0.0000000E+000
  0.0000000E+000
  0.0000000E+000
  0.0000000E+000
  0.0000000E+000
  0.0000000E+000
  0.0000000E+000
  0.0000000E+000
  0.0000000E+000
  0.0000000E+000
  0.0000000E+000
  0.0000000E+000
  0.0000000E+000
  0.0000000E+000
  0.0000000E+000
  0.0000000E+000
  0.0000000E+000
  0.0000000E+000
  0.0000000E+000
  0.0000000E+000
  0.0000000E+000
  0.0000000E+000
  0.0000000E+000
  0.0000000E+000
  0.0000000E+000
  0.0000000E+000
  0.0000000E+000
  0.0000000E+000
  0.0000000E+000
  0.0000000E+000
  0.0000000E+000
  0.0000000E+000
  0.0000000E+000
  0.0000000E+000
  0.0000000E+000
  0.0000000E+000
  0.0000000E+000
  0.0000000E+000
  0.0000000E+000
  0.0000000E+000
  0.0000000E+000
  0.0000000E+000
  0.0000000E+000
  0.0000000E+000
  0.0000000E+000
  0.0000000E+000
  0.0000000E+000
  0.0000000E+000
  0.0000000E+000
  0.0000000E+000
  0.0000000E+000
  0.0000000E+000
  0.0000000E+000
  0.0000000E+000
  0.0000000E+000
  0.0000000E+000
  0.0000000E+000
  0.0000000E+000
  0.0000000E+000
  0.0000000E+000
  0.0000000E+000
  0.0000000E+000
  0.0000000E+000
  0.0000000E+000
  0.0000000E+000
  0.0000000E+000
  0.0000000E+000
  0.0000000E+000
  0.0000000E+000
  0.0000000E+000
  0.0000000E+000
  0.0000000E+000
  0.0000000E+000
  0.0000000E+000
  0.0000000E+000
  0.0000000E+000
  0.0000000E+000
  0.0000000E+000
  0.0000000E+000
  0.0000000E+000
  0.0000000E+000
  0.0000000E+000
  0.0000000E+000
  0.0000000E+000
  0.0000000E+000
  0.0000000E+000
  0.0000000E+000
  0.0000000E+000
  0.0000000E+000
  0.0000000E+000
  0.0000000E+000
  0.0000000E+000
  0.0000000E+000
  0.0000000E+000
  0.0000000E+000
  0.0000000E+000
  0.0000000E+000
  0.0000000E+000
  0.0000000E+000
  0.0000000E+000
  0.0000000E+000
  0.0000000E+000
  0.0000000E+000
  0.0000000E+000
  0.0000000E+000
  0.0000000E+000
  0.0000000E+000
  0.0000000E+000
  0.0000000E+000
  0.0000000E+000
  0.0000000E+000
  0.0000000E+000
  0.0000000E+000
  0.0000000E+000
  0.0000000E+000
  0.0000000E+000
  0.0000000E+000
  0.0000000E+000
  0.0000000E+000
  0.0000000E+000
  0.0000000E+000
  0.0000000E+000
  0.0000000E+000
  0.0000000E+000
  0.0000000E+000
  0.0000000E+000
  0.0000000E+000
  0.0000000E+000
  0.0000000E+000
  0.0000000E+000
  0.0000000E+000
  0.0000000E+000
  0.0000000E+000
  0.0000000E+000
  0.0000000E+000
  0.0000000E+000
  0.0000000E+000
  0.0000000E+000
  0.0000000E+000
  0.0000000E+000
  0.0000000E+000
  0.0000000E+000
  0.0000000E+000
  0.0000000E+000
  0.0000000E+000
  0.0000000E+000
  0.0000000E+000
  0.0000000E+000
  0.000  0.0000000  0.0000000E+000
  0.0000000E+000
  0.0000000E+000
  0.0000000E+000
  0.0000000E+000
  0.0000000E+000
  0.0000000E+000
  0.0000000E+000
  0.0000000E+000
  0.0000000E+000
  0.0000000E+000
  0.0000000E+000
  0.0000000E+000
  0.0000000E+000
  0.0000000E+000
  0.0000000E+000
  0.0000000E+000
  0.0000000E+000
  0.0000000E+000
  0.0000000E+000
  0.0000000E+000
  0.0000000E+000
  0.0000000E+000
  0.0000000E+000
  0.0000000E+000
  0.0000000E+000
  0.0000000E+000
  0.0000000E+000
  0.0000000E+000
  0.0000000E+000
  0.0000000E+000
  0.0000000E+000
  0.0000000E+000
  0.0000000E+000
  0.0000000E+000
  0.0000000E+000
  0.0000000E+000
  0.0000000E+000
  0.0000000E+000
  0.0000000E+000
  0.0000000E+000
  0.0000000E+000
  0.0000000E+000
  0.0000000E+000
  0.0000000E+000
  0.0000000E+000
  0.0000000E+000
  0.0000000E+000
  0.0000000E+000
  0.0000000E+000
  0.0000000E+000
  0.0000000E+000
  0.0000000E+000
  0.0000000E+000
  0.0000000E+000
  0.0000000E+000
  0.0000000E+000
  0.0000000E+000
  0.0000000E+000
  0.0000000E+000
  0.0000000E+000
  0.0000000E+000
  0.0000000E+000
  0.0000000E+000
  0.0000000E+000
  0.0000000E+000
  0.0000000E+000
  0.0000000E+000
  0.0000000E+000
  0.0000000E+000
  0.0000000E+000
  0.0000000E+000
  0.0000000E+000
  0.0000000E+000
  0.0000000E+000
  0.0000000E+000
  0.0000000E+000
  0.0000000E+000
  0.0000000E+000
  0.0000000E+000
  0.0000000E+000
  0.0000000E+000
  0.0000000E+000
  0.0000000E+000
  0.0000000E+000
  0.0000000E+000
  0.0000000E+000
  0.0000000E+000
  0.0000000E+000
  0.0000000E+000
  0.0000000E+000
  0.0000000E+000
  0.0000000E+000
  0.0000000E+000
  0.0000000E+000
  0.0000000E+000
  0.0000000E+000
  0.0000000E+000
  0.0000000E+000
  0.0000000E+000
  0.0000000E+000
  0.0000000E+000
  0.0000000E+000
  0.0000000E+000
  0.0000000E+000
  0.0000000E+000
  0.0000000E+000
  0.0000000E+000
  0.0000000E+000
  0.0000000E+000
  0.0000000E+000
  0.0000000E+000
  0.0000000E+000
  0.0000000E+000
  0.0000000E+000
  0.0000000E+000
  0.0000000E+000
  0.0000000E+000
  0.0000000E+000
  0.0000000E+000
  0.0000000E+000
  0.0000000E+000
  0.0000000E+000
  0.0000000E+000
  0.0000000E+000
  0.0000000E+000
  0.0000000E+000
  0.0000000E+000
  0.0000000E+000
  0.0000000E+000
  0.0000000E+000
  0.0000000E+000
  0.0000000E+000
  0.0000000E+000
  0.0000000E+000
  0.0000000E+000
  0.0000000E+000
  0.0000000E+000
  0.0000000E+000
  0.0000000E+000
  0.0000000E+000
  0.0000000E+000
  0.0000000E+000
  0.0000000E+000
  0.0000000E+000
  0.0000000E+000
  0.0000000E+000
  0.0000000E+000
  0.0000000E+000
  0.0000000E+000
  0.0000000E+000
  0.0000000E+000
  0.0000000E+000
  0.0000000E+000
  0.0000000E+000
  0.0000000E+000
  0.0000000E+000
  0.0000000E+000
  0.0000000E+000
  0.0000000E+000
  0.0000000E+000
  0.0000000E+000
  0.0000000E+000
  0.0000000E+000
  0.0000000E+000
  0.0000000E+000
  0.0000000E+000
  0.0000000E+000
  0.0000000E+000
  0.0000000E+000
  0.0000000E+000
  0.0000000E+000
  0.0000000E+000
  0.0000000E+000
  0.0000000E+000
  0.0000000E+000
  0.0000000E+000
  0.0000000E+000
  0.0000000E+000
  0.0000000E+000
  0.0000000E+000
  0.0000000E+000
  0.0000000E+000
  0.0000000E+000
  0.0000000E+000
  0.0000000E+000
  0.0000000E+000
  0.0000000E+000
  0.0000000E+000
  0.0000000E+000
  0.0000000E+000
  0.0000000E+000
  0.0000000E+000
  0.0000000E+000
  0.0000000E+000
  0.0000000E+000
  0.0000000E+000
  0.0000000E+000
  0.0000000E+000
  0.0000000E+000
  0.0000000E+000
  0.0000000E+000
  0.0000000E+000
  0.0000000E+000
  0.0000000E+000
  0.0000000E+000
  0.0000000E+000
  0.0000000E+000
  0.0000000E+000
  0.0000000E+000
  0.0000000E+000
  0.0000000E+000
  0.0000000E+000
  0.0000000E+000
  0.0000000E+000
  0.0000000E+000
  0.0000000E+000
  0.0000000E+000
  0.0000000E+000
  0.0000000E+000
  0.0000000E+000
  0.0000000E+000
  0.0000000E+000
  0.0000000E+000
  0.0000000E+000
  0.0000000E+000
  0.0000000E+000
  0.000  0.0000000  0.0000000E+000
  0.0000000E+000
  0.0000000E+000
  0.0000000E+000
  0.0000000E+000
  0.0000000E+000
  0.0000000E+000
  0.0000000E+000
  0.0000000E+000
  0.0000000E+000
  0.0000000E+000
  0.0000000E+000
  0.0000000E+000
  0.0000000E+000
  0.0000000E+000
  0.0000000E+000
  0.0000000E+000
  0.0000000E+000
  0.0000000E+000
  0.0000000E+000
  0.0000000E+000
  0.0000000E+000
  0.0000000E+000
  0.0000000E+000
  0.0000000E+000
  0.0000000E+000
  0.0000000E+000
  0.0000000E+000
  0.0000000E+000
  0.0000000E+000
  0.0000000E+000
  0.0000000E+000
  0.0000000E+000
  0.0000000E+000
  0.0000000E+000
  0.0000000E+000
  0.0000000E+000
  0.0000000E+000
  0.0000000E+000
  0.0000000E+000
  0.0000000E+000
  0.0000000E+000
  0.0000000E+000
  0.0000000E+000
  0.0000000E+000
  0.0000000E+000
  0.0000000E+000
  0.0000000E+000
  0.0000000E+000
  0.0000000E+000
  0.0000000E+000
  0.0000000E+000
  0.0000000E+000
  0.0000000E+000
  0.0000000E+000
  0.0000000E+000
  0.0000000E+000
  0.0000000E+000
  0.0000000E+000
  0.0000000E+000
  0.0000000E+000
  0.0000000E+000
  0.0000000E+000
  0.0000000E+000
  0.0000000E+000
  0.0000000E+000
  0.0000000E+000
  0.0000000E+000
  0.0000000E+000
  0.0000000E+000
  0.0000000E+000
  0.0000000E+000
  0.0000000E+000
  0.0000000E+000
  0.0000000E+000
  0.0000000E+000
  0.0000000E+000
  0.0000000E+000
  0.0000000E+000
  0.0000000E+000
  0.0000000E+000
  0.0000000E+000
  0.0000000E+000
  0.0000000E+000
  0.0000000E+000
  0.0000000E+000
  0.0000000E+000
  0.0000000E+000
  0.0000000E+000
  0.0000000E+000
  0.0000000E+000
  0.0000000E+000
  0.0000000E+000
  0.0000000E+000
  0.0000000E+000
  0.0000000E+000
  0.0000000E+000
  0.0000000E+000
  0.0000000E+000
  0.0000000E+000
  0.0000000E+000
  0.0000000E+000
  0.0000000E+000
  0.0000000E+000
  0.0000000E+000
  0.0000000E+000
  0.0000000E+000
  0.0000000E+000
  0.0000000E+000
  0.0000000E+000
  0.0000000E+000
  0.0000000E+000
  0.0000000E+000
  0.0000000E+000
  0.0000000E+000
  0.0000000E+000
  0.0000000E+000
  0.0000000E+000
  0.0000000E+000
  0.0000000E+000
  0.0000000E+000
  0.0000000E+000
  0.0000000E+000
  0.0000000E+000
  0.0000000E+000
  0.0000000E+000
  0.0000000E+000
  0.0000000E+000
  0.0000000E+000
  0.0000000E+000
  0.0000000E+000
  0.0000000E+000
  0.0000000E+000
  0.0000000E+000
  0.0000000E+000
  0.0000000E+000
  0.0000000E+000
  0.0000000E+000
  0.0000000E+000
  0.0000000E+000
  0.0000000E+000
  0.0000000E+000
  0.0000000E+000
  0.0000000E+000
  0.0000000E+000
  0.0000000E+000
  0.0000000E+000
  0.0000000E+000
  0.0000000E+000
  0.0000000E+000
  0.0000000E+000
  0.0000000E+000
  0.0000000E+000
  0.0000000E+000
  0.0000000E+000
  0.0000000E+000
  0.0000000E+000
  0.0000000E+000
  0.0000000E+000
  0.0000000E+000
  0.0000000E+000
  0.0000000E+000
  0.0000000E+000
  0.0000000E+000
  0.0000000E+000
  0.0000000E+000
  0.0000000E+000
  0.0000000E+000
  0.0000000E+000
  0.0000000E+000
  0.0000000E+000
  0.0000000E+000
  0.0000000E+000
  0.0000000E+000
  0.0000000E+000
  0.0000000E+000
  0.0000000E+000
  0.0000000E+000
  0.0000000E+000
  0.0000000E+000
  0.0000000E+000
  0.0000000E+000
  0.0000000E+000
  0.0000000E+000
  0.0000000E+000
  0.0000000E+000
  0.0000000E+000
  0.0000000E+000
  0.0000000E+000
  0.0000000E+000
  0.0000000E+000
  0.0000000E+000
  0.0000000E+000
  0.0000000E+000
  0.0000000E+000
  0.0000000E+000
  0.0000000E+000
  0.0000000E+000
  0.0000000E+000
  0.0000000E+000
  0.0000000E+000
  0.0000000E+000
  0.0000000E+000
  0.0000000E+000
  0.0000000E+000
  0.0000000E+000
  0.0000000E+000
  0.0000000E+000
  0.0000000E+000
  0.0000000E+000
  0.0000000E+000
  0.0000000E+000
  0.0000000E+000
  0.0000000E+000
  0.0000000E+000
  0.0000000E+000
  0.0000000E+000
  0.0000000E+000
  0.0000000E+000
  0.0000000E+000
  0.0000000E+000
  0.0000000E+000
  0.0000000E+000
  0.0000000E+000
  0.0000000E+000
  0.0000000E+000
  0.0000000E+000
  0.000  0.0000000  0.0000000E+000
  0.0000000E+000
  0.0000000E+000
  0.0000000E+000
  0.0000000E+000
  0.0000000E+000
  0.0000000E+000
  0.0000000E+000
  0.0000000E+000
  0.0000000E+000
  0.0000000E+000
  0.0000000E+000
  0.0000000E+000
  0.0000000E+000
  0.0000000E+000
  0.0000000E+000
  0.0000000E+000
  0.0000000E+000
  0.0000000E+000
  0.0000000E+000
  0.0000000E+000
  0.0000000E+000
  0.0000000E+000
  0.0000000E+000
  0.0000000E+000
  0.0000000E+000
  0.0000000E+000
  0.0000000E+000
  0.0000000E+000
  0.0000000E+000
  0.0000000E+000
  0.0000000E+000
  0.0000000E+000
  0.0000000E+000
  0.0000000E+000
  0.0000000E+000
  0.0000000E+000
  0.0000000E+000
  0.0000000E+000
  0.0000000E+000
  0.0000000E+000
  0.0000000E+000
  0.0000000E+000
  0.0000000E+000
  0.0000000E+000
  0.0000000E+000
  0.0000000E+000
  0.0000000E+000
  0.0000000E+000
  0.0000000E+000
  0.0000000E+000
  0.0000000E+000
  0.0000000E+000
  0.0000000E+000
  0.0000000E+000
  0.0000000E+000
  0.0000000E+000
  0.0000000E+000
  0.0000000E+000
  0.0000000E+000
  0.0000000E+000
  0.0000000E+000
  0.0000000E+000
  0.0000000E+000
  0.0000000E+000
  0.0000000E+000
  0.0000000E+000
  0.0000000E+000
  0.0000000E+000
  0.0000000E+000
  0.0000000E+000
  0.0000000E+000
  0.0000000E+000
  0.0000000E+000
  0.0000000E+000
  0.0000000E+000
  0.0000000E+000
  0.0000000E+000
  0.0000000E+000
  0.0000000E+000
  0.0000000E+000
  0.0000000E+000
  0.0000000E+000
  0.0000000E+000
  0.0000000E+000
  0.0000000E+000
  0.0000000E+000
  0.0000000E+000
  0.0000000E+000
  0.0000000E+000
  0.0000000E+000
  0.0000000E+000
  0.0000000E+000
  0.0000000E+000
  0.0000000E+000
  0.0000000E+000
  0.0000000E+000
  0.0000000E+000
  0.0000000E+000
  0.0000000E+000
  0.0000000E+000
  0.0000000E+000
  0.0000000E+000
  0.0000000E+000
  0.0000000E+000
  0.0000000E+000
  0.0000000E+000
  0.0000000E+000
  0.0000000E+000
  0.0000000E+000
  0.0000000E+000
  0.0000000E+000
  0.0000000E+000
  0.0000000E+000
  0.0000000E+000
  0.0000000E+000
  0.0000000E+000
  0.0000000E+000
  0.0000000E+000
  0.0000000E+000
  0.0000000E+000
  0.0000000E+000
  0.0000000E+000
  0.0000000E+000
  0.0000000E+000
  0.0000000E+000
  0.0000000E+000
  0.0000000E+000
  0.0000000E+000
  0.0000000E+000
  0.0000000E+000
  0.0000000E+000
  0.0000000E+000
  0.0000000E+000
  0.0000000E+000
  0.0000000E+000
  0.0000000E+000
  0.0000000E+000
  0.0000000E+000
  0.0000000E+000
  0.0000000E+000
  0.0000000E+000
  0.0000000E+000
  0.0000000E+000
  0.0000000E+000
  0.0000000E+000
  0.0000000E+000
SCALARS Stress_xz double
LOOKUP_TABLE default
  0.0000000E+000
  0.0000000E+000
  0.0000000E+000
  0.0000000E+000
  0.0000000E+000
  0.0000000E+000
  0.0000000E+000
  0.0000000E+000
  0.0000000E+000
  0.0000000E+000
  0.0000000E+000
  0.0000000E+000
  0.0000000E+000
  0.0000000E+000
  0.0000000E+000
  0.0000000E+000
  0.0000000E+000
  0.0000000E+000
  0.0000000E+000
  0.0000000E+000
  0.0000000E+000
  0.0000000E+000
  0.0000000E+000
  0.0000000E+000
  0.0000000E+000
  0.0000000E+000
  0.0000000E+000
  0.0000000E+000
  0.0000000E+000
  0.0000000E+000
  0.0000000E+000
  0.0000000E+000
  0.0000000E+000
  0.0000000E+000
  0.0000000E+000
  0.0000000E+000
  0.0000000E+000
  0.0000000E+000
  0.0000000E+000
  0.0000000E+000
  0.0000000E+000
  0.0000000E+000
  0.0000000E+000
  0.0000000E+000
  0.0000000E+000
  0.0000000E+000
  0.0000000E+000
  0.0000000E+000
  0.0000000E+000
  0.0000000E+000
  0.0000000E+000
  0.0000000E+000
  0.0000000E+000
  0.0000000E+000
  0.0000000E+000
  0.0000000E+000
  0.0000000E+000
  0.0000000E+000
  0.0000000E+000
  0.0000000E+000
  0.0000000E+000
  0.0000000E+000
  0.0000000E+000
  0.0000000E+000
  0.0000000E+000
  0.0000000E+000
  0.0000000E+000
  0.0000000E+000
  0.0000000E+000
  0.0000000E+000
  0.0000000E+000
  0.0000000E+000
  0.0000000E+000
  0.0000000E+000
  0.0000000E+000
  0.0000000E+000
  0.0000000E+000
  0.0000000E+  0.0  0.0000000E+000
  0.0000000E+000
  0.0000000E+000
  0.0000000E+000
  0.0000000E+000
  0.0000000E+000
  0.0000000E+000
  0.0000000E+000
  0.0000000E+000
  0.0000000E+000
  0.0000000E+000
  0.0000000E+000
  0.0000000E+000
  0.0000000E+000
  0.0000000E+000
  0.0000000E+000
  0.0000000E+000
  0.0000000E+000
  0.0000000E+000
  0.0000000E+000
  0.0000000E+000
  0.0000000E+000
  0.0000000E+000
  0.0000000E+000
  0.0000000E+000
  0.0000000E+000
  0.0000000E+000
  0.0000000E+000
  0.0000000E+000
  0.0000000E+000
  0.0000000E+000
  0.0000000E+000
  0.0000000E+000
  0.0000000E+000
  0.0000000E+000
  0.0000000E+000
  0.0000000E+000
  0.0000000E+000
  0.0000000E+000
  0.0000000E+000
  0.0000000E+000
  0.0000000E+000
  0.0000000E+000
  0.0000000E+000
  0.0000000E+000
  0.0000000E+000
  0.0000000E+000
  0.0000000E+000
  0.0000000E+000
  0.0000000E+000
  0.0000000E+000
  0.0000000E+000
  0.0000000E+000
  0.0000000E+000
  0.0000000E+000
  0.0000000E+000
  0.0000000E+000
  0.0000000E+000
  0.0000000E+000
  0.0000000E+000
  0.0000000E+000
  0.0000000E+000
  0.0000000E+000
  0.0000000E+000
  0.0000000E+000
  0.0000000E+000
  0.0000000E+000
  0.0000000E+000
  0.0000000E+000
  0.0000000E+000
  0.0000000E+000
  0.0000000E+000
  0.0000000E+000
  0.0000000E+000
  0.0000000E+000
  0.0000000E+000
  0.0000000E+000
  0.0000000E+000
  0.0000000E+000
  0.0000000E+000
  0.0000000E+000
  0.0000000E+000
  0.0000000E+000
  0.0000000E+000
  0.0000000E+000
  0.0000000E+000
  0.0000000E+000
  0.0000000E+000
  0.0000000E+000
  0.0000000E+000
  0.0000000E+000
  0.0000000E+000
  0.0000000E+000
  0.0000000E+000
  0.0000000E+000
  0.0000000E+000
  0.0000000E+000
  0.0000000E+000
  0.0000000E+000
  0.0000000E+000
  0.0000000E+000
  0.0000000E+000
  0.0000000E+000
  0.0000000E+000
  0.0000000E+000
  0.0000000E+000
  0.0000000E+000
  0.0000000E+000
  0.0000000E+000
  0.0000000E+000
  0.0000000E+000
  0.0000000E+000
  0.0000000E+000
  0.0000000E+000
  0.0000000E+000
  0.0000000E+000
  0.0000000E+000
  0.0000000E+000
  0.0000000E+000
  0.0000000E+000
  0.0000000E+000
  0.0000000E+000
  0.0000000E+000
  0.0000000E+000
  0.0000000E+000
  0.0000000E+000
  0.0000000E+000
  0.0000000E+000
  0.0000000E+000
  0.0000000E+000
  0.0000000E+000
  0.0000000E+000
  0.0000000E+000
  0.0000000E+000
  0.0000000E+000
  0.0000000E+000
  0.0000000E+000
  0.0000000E+000
  0.0000000E+000
  0.0000000E+000
  0.0000000E+000
  0.0000000E+000
  0.0000000E+000
  0.0000000E+000
  0.0000000E+000
  0.0000000E+000
  0.0000000E+000
  0.0000000E+000
  0.0000000E+000
  0.0000000E+000
  0.0000000E+000
  0.0000000E+000
  0.0000000E+000
  0.0000000E+000
  0.0000000E+000
  0.0000000E+000
  0.0000000E+000
  0.0000000E+000
  0.0000000E+000
  0.0000000E+000
  0.0000000E+000
  0.0000000E+000
  0.0000000E+000
  0.0000000E+000
  0.0000000E+000
  0.0000000E+000
  0.0000000E+000
  0.0000000E+000
  0.0000000E+000
  0.0000000E+000
  0.0000000E+000
  0.0000000E+000
  0.0000000E+000
  0.0000000E+000
  0.0000000E+000
  0.0000000E+000
  0.0000000E+000
  0.0000000E+000
  0.0000000E+000
  0.0000000E+000
  0.0000000E+000
  0.0000000E+000
  0.0000000E+000
  0.0000000E+000
  0.0000000E+000
  0.0000000E+000
  0.0000000E+000
  0.0000000E+000
  0.0000000E+000
  0.0000000E+000
  0.0000000E+000
  0.0000000E+000
  0.0000000E+000
  0.0000000E+000
  0.0000000E+000
  0.0000000E+000
  0.0000000E+000
  0.0000000E+000
  0.0000000E+000
  0.0000000E+000
  0.0000000E+000
  0.0000000E+000
  0.0000000E+000
  0.0000000E+000
  0.0000000E+000
  0.0000000E+000
  0.0000000E+000
  0.0000000E+000
  0.0000000E+000
  0.0000000E+000
  0.0000000E+000
  0.0000000E+000
  0.0000000E+000
  0.0000000E+000
  0.0000000E+000
  0.0000000E+000
  0.0000000E+000
  0.0000000E+000
  0.0000000E+000
  0.0000000E+000
  0.0000000E+000
  0.0000000E+000
  0.0000000E+000
  0.0000000E+000
  0.0000000E+000
  0.0000000E+000
  0.0000000E+000
  0.0000000E+  0.0  0.0000000E+000
  0.0000000E+000
  0.0000000E+000
  0.0000000E+000
  0.0000000E+000
  0.0000000E+000
  0.0000000E+000
  0.0000000E+000
  0.0000000E+000
  0.0000000E+000
  0.0000000E+000
  0.0000000E+000
  0.0000000E+000
  0.0000000E+000
  0.0000000E+000
  0.0000000E+000
  0.0000000E+000
  0.0000000E+000
  0.0000000E+000
  0.0000000E+000
  0.0000000E+000
  0.0000000E+000
  0.0000000E+000
  0.0000000E+000
  0.0000000E+000
  0.0000000E+000
  0.0000000E+000
  0.0000000E+000
  0.0000000E+000
  0.0000000E+000
  0.0000000E+000
  0.0000000E+000
  0.0000000E+000
  0.0000000E+000
  0.0000000E+000
  0.0000000E+000
  0.0000000E+000
  0.0000000E+000
  0.0000000E+000
  0.0000000E+000
  0.0000000E+000
  0.0000000E+000
  0.0000000E+000
  0.0000000E+000
  0.0000000E+000
  0.0000000E+000
  0.0000000E+000
  0.0000000E+000
  0.0000000E+000
  0.0000000E+000
  0.0000000E+000
  0.0000000E+000
  0.0000000E+000
  0.0000000E+000
  0.0000000E+000
  0.0000000E+000
  0.0000000E+000
  0.0000000E+000
  0.0000000E+000
  0.0000000E+000
  0.0000000E+000
  0.0000000E+000
  0.0000000E+000
  0.0000000E+000
  0.0000000E+000
  0.0000000E+000
  0.0000000E+000
  0.0000000E+000
  0.0000000E+000
  0.0000000E+000
  0.0000000E+000
  0.0000000E+000
  0.0000000E+000
  0.0000000E+000
  0.0000000E+000
  0.0000000E+000
  0.0000000E+000
  0.0000000E+000
  0.0000000E+000
  0.0000000E+000
  0.0000000E+000
  0.0000000E+000
  0.0000000E+000
  0.0000000E+000
  0.0000000E+000
  0.0000000E+000
  0.0000000E+000
  0.0000000E+000
  0.0000000E+000
  0.0000000E+000
  0.0000000E+000
  0.0000000E+000
  0.0000000E+000
  0.0000000E+000
  0.0000000E+000
  0.0000000E+000
  0.0000000E+000
  0.0000000E+000
  0.0000000E+000
  0.0000000E+000
  0.0000000E+000
  0.0000000E+000
  0.0000000E+000
  0.0000000E+000
  0.0000000E+000
  0.0000000E+000
  0.0000000E+000
  0.0000000E+000
  0.0000000E+000
  0.0000000E+000
  0.0000000E+000
  0.0000000E+000
  0.0000000E+000
  0.0000000E+000
  0.0000000E+000
  0.0000000E+000
  0.0000000E+000
  0.0000000E+000
  0.0000000E+000
  0.0000000E+000
  0.0000000E+000
  0.0000000E+000
  0.0000000E+000
  0.0000000E+000
  0.0000000E+000
  0.0000000E+000
  0.0000000E+000
  0.0000000E+000
  0.0000000E+000
  0.0000000E+000
  0.0000000E+000
  0.0000000E+000
  0.0000000E+000
  0.0000000E+000
  0.0000000E+000
  0.0000000E+000
  0.0000000E+000
  0.0000000E+000
  0.0000000E+000
  0.0000000E+000
  0.0000000E+000
  0.0000000E+000
  0.0000000E+000
  0.0000000E+000
  0.0000000E+000
  0.0000000E+000
  0.0000000E+000
  0.0000000E+000
  0.0000000E+000
  0.0000000E+000
  0.0000000E+000
  0.0000000E+000
  0.0000000E+000
  0.0000000E+000
  0.0000000E+000
  0.0000000E+000
  0.0000000E+000
  0.0000000E+000
  0.0000000E+000
  0.0000000E+000
  0.0000000E+000
  0.0000000E+000
  0.0000000E+000
  0.0000000E+000
  0.0000000E+000
  0.0000000E+000
  0.0000000E+000
  0.0000000E+000
  0.0000000E+000
  0.0000000E+000
  0.0000000E+000
  0.0000000E+000
  0.0000000E+000
  0.0000000E+000
  0.0000000E+000
  0.0000000E+000
  0.0000000E+000
  0.0000000E+000
  0.0000000E+000
  0.0000000E+000
  0.0000000E+000
  0.0000000E+000
  0.0000000E+000
  0.0000000E+000
  0.0000000E+000
  0.0000000E+000
  0.0000000E+000
  0.0000000E+000
  0.0000000E+000
  0.0000000E+000
  0.0000000E+000
  0.0000000E+000
  0.0000000E+000
  0.0000000E+000
  0.0000000E+000
  0.0000000E+000
  0.0000000E+000
  0.0000000E+000
  0.0000000E+000
  0.0000000E+000
  0.0000000E+000
  0.0000000E+000
  0.0000000E+000
  0.0000000E+000
  0.0000000E+000
  0.0000000E+000
  0.0000000E+000
  0.0000000E+000
  0.0000000E+000
  0.0000000E+000
  0.0000000E+000
  0.0000000E+000
  0.0000000E+000
  0.0000000E+000
  0.0000000E+000
  0.0000000E+000
  0.0000000E+000
  0.0000000E+000
  0.0000000E+000
  0.0000000E+000
  0.0000000E+000
  0.0000000E+000
  0.0000000E+000
  0.0000000E+000
  0.0000000E+000
  0.0000000E+000
  0.0000000E+000
  0.0000000E+  0.0  0.0000000E+000
  0.0000000E+000
  0.0000000E+000
  0.0000000E+000
  0.0000000E+000
  0.0000000E+000
  0.0000000E+000
  0.0000000E+000
  0.0000000E+000
  0.0000000E+000
  0.0000000E+000
  0.0000000E+000
  0.0000000E+000
  0.0000000E+000
  0.0000000E+000
  0.0000000E+000
  0.0000000E+000
  0.0000000E+000
  0.0000000E+000
  0.0000000E+000
  0.0000000E+000
  0.0000000E+000
  0.0000000E+000
  0.0000000E+000
  0.0000000E+000
  0.0000000E+000
  0.0000000E+000
  0.0000000E+000
  0.0000000E+000
  0.0000000E+000
  0.0000000E+000
  0.0000000E+000
  0.0000000E+000
  0.0000000E+000
  0.0000000E+000
  0.0000000E+000
  0.0000000E+000
  0.0000000E+000
  0.0000000E+000
  0.0000000E+000
  0.0000000E+000
  0.0000000E+000
  0.0000000E+000
  0.0000000E+000
  0.0000000E+000
  0.0000000E+000
  0.0000000E+000
  0.0000000E+000
  0.0000000E+000
  0.0000000E+000
  0.0000000E+000
  0.0000000E+000
  0.0000000E+000
  0.0000000E+000
  0.0000000E+000
  0.0000000E+000
  0.0000000E+000
  0.0000000E+000
  0.0000000E+000
  0.0000000E+000
  0.0000000E+000
  0.0000000E+000
  0.0000000E+000
  0.0000000E+000
  0.0000000E+000
  0.0000000E+000
  0.0000000E+000
  0.0000000E+000
  0.0000000E+000
  0.0000000E+000
  0.0000000E+000
  0.0000000E+000
  0.0000000E+000
  0.0000000E+000
  0.0000000E+000
  0.0000000E+000
  0.0000000E+000
  0.0000000E+000
  0.0000000E+000
  0.0000000E+000
  0.0000000E+000
  0.0000000E+000
  0.0000000E+000
  0.0000000E+000
  0.0000000E+000
  0.0000000E+000
  0.0000000E+000
  0.0000000E+000
  0.0000000E+000
  0.0000000E+000
  0.0000000E+000
  0.0000000E+000
  0.0000000E+000
  0.0000000E+000
  0.0000000E+000
  0.0000000E+000
  0.0000000E+000
  0.0000000E+000
  0.0000000E+000
  0.0000000E+000
  0.0000000E+000
  0.0000000E+000
  0.0000000E+000
  0.0000000E+000
  0.0000000E+000
  0.0000000E+000
  0.0000000E+000
  0.0000000E+000
  0.0000000E+000
  0.0000000E+000
  0.0000000E+000
  0.0000000E+000
  0.0000000E+000
  0.0000000E+000
  0.0000000E+000
  0.0000000E+000
  0.0000000E+000
  0.0000000E+000
  0.0000000E+000
  0.0000000E+000
  0.0000000E+000
  0.0000000E+000
  0.0000000E+000
  0.0000000E+000
  0.0000000E+000
  0.0000000E+000
  0.0000000E+000
  0.0000000E+000
  0.0000000E+000
  0.0000000E+000
  0.0000000E+000
  0.0000000E+000
  0.0000000E+000
  0.0000000E+000
  0.0000000E+000
  0.0000000E+000
  0.0000000E+000
  0.0000000E+000
  0.0000000E+000
  0.0000000E+000
  0.0000000E+000
  0.0000000E+000
  0.0000000E+000
  0.0000000E+000
  0.0000000E+000
  0.0000000E+000
  0.0000000E+000
  0.0000000E+000
  0.0000000E+000
  0.0000000E+000
  0.0000000E+000
  0.0000000E+000
  0.0000000E+000
  0.0000000E+000
  0.0000000E+000
  0.0000000E+000
  0.0000000E+000
  0.0000000E+000
  0.0000000E+000
  0.0000000E+000
  0.0000000E+000
  0.0000000E+000
  0.0000000E+000
  0.0000000E+000
  0.0000000E+000
  0.0000000E+000
  0.0000000E+000
  0.0000000E+000
  0.0000000E+000
  0.0000000E+000
  0.0000000E+000
  0.0000000E+000
  0.0000000E+000
  0.0000000E+000
  0.0000000E+000
  0.0000000E+000
  0.0000000E+000
  0.0000000E+000
  0.0000000E+000
  0.0000000E+000
  0.0000000E+000
  0.0000000E+000
  0.0000000E+000
  0.0000000E+000
  0.0000000E+000
  0.0000000E+000
  0.0000000E+000
  0.0000000E+000
  0.0000000E+000
  0.0000000E+000
  0.0000000E+000
  0.0000000E+000
  0.0000000E+000
  0.0000000E+000
  0.0000000E+000
  0.0000000E+000
  0.0000000E+000
  0.0000000E+000
  0.0000000E+000
  0.0000000E+000
  0.0000000E+000
  0.0000000E+000
  0.0000000E+000
  0.0000000E+000
  0.0000000E+000
  0.0000000E+000
  0.0000000E+000
  0.0000000E+000
  0.0000000E+000
  0.0000000E+000
  0.0000000E+000
  0.0000000E+000
  0.0000000E+000
  0.0000000E+000
  0.0000000E+000
  0.0000000E+000
  0.0000000E+000
  0.0000000E+000
  0.0000000E+000
  0.0000000E+000
  0.0000000E+000
  0.0000000E+000
  0.0000000E+000
  0.0000000E+000
  0.0000000E+000
  0.0000000E+000
  0.0000000E+000
  0.0000000E+  0.0  0.0000000E+000
  0.0000000E+000
  0.0000000E+000
  0.0000000E+000
  0.0000000E+000
  0.0000000E+000
  0.0000000E+000
  0.0000000E+000
  0.0000000E+000
  0.0000000E+000
  0.0000000E+000
  0.0000000E+000
  0.0000000E+000
  0.0000000E+000
  0.0000000E+000
  0.0000000E+000
  0.0000000E+000
  0.0000000E+000
  0.0000000E+000
  0.0000000E+000
  0.0000000E+000
  0.0000000E+000
  0.0000000E+000
  0.0000000E+000
  0.0000000E+000
  0.0000000E+000
  0.0000000E+000
  0.0000000E+000
  0.0000000E+000
  0.0000000E+000
  0.0000000E+000
  0.0000000E+000
  0.0000000E+000
  0.0000000E+000
  0.0000000E+000
  0.0000000E+000
  0.0000000E+000
  0.0000000E+000
  0.0000000E+000
  0.0000000E+000
  0.0000000E+000
  0.0000000E+000
  0.0000000E+000
  0.0000000E+000
  0.0000000E+000
  0.0000000E+000
  0.0000000E+000
  0.0000000E+000
  0.0000000E+000
  0.0000000E+000
  0.0000000E+000
  0.0000000E+000
  0.0000000E+000
  0.0000000E+000
  0.0000000E+000
  0.0000000E+000
  0.0000000E+000
  0.0000000E+000
  0.0000000E+000
  0.0000000E+000
  0.0000000E+000
  0.0000000E+000
  0.0000000E+000
  0.0000000E+000
  0.0000000E+000
  0.0000000E+000
  0.0000000E+000
  0.0000000E+000
  0.0000000E+000
  0.0000000E+000
  0.0000000E+000
  0.0000000E+000
  0.0000000E+000
  0.0000000E+000
  0.0000000E+000
  0.0000000E+000
  0.0000000E+000
  0.0000000E+000
  0.0000000E+000
  0.0000000E+000
  0.0000000E+000
  0.0000000E+000
  0.0000000E+000
  0.0000000E+000
  0.0000000E+000
  0.0000000E+000
  0.0000000E+000
  0.0000000E+000
  0.0000000E+000
  0.0000000E+000
  0.0000000E+000
  0.0000000E+000
  0.0000000E+000
  0.0000000E+000
  0.0000000E+000
  0.0000000E+000
  0.0000000E+000
  0.0000000E+000
  0.0000000E+000
  0.0000000E+000
  0.0000000E+000
  0.0000000E+000
  0.0000000E+000
  0.0000000E+000
  0.0000000E+000
  0.0000000E+000
  0.0000000E+000
  0.0000000E+000
  0.0000000E+000
  0.0000000E+000
  0.0000000E+000
  0.0000000E+000
  0.0000000E+000
  0.0000000E+000
  0.0000000E+000
  0.0000000E+000
  0.0000000E+000
  0.0000000E+000
  0.0000000E+000
  0.0000000E+000
  0.0000000E+000
  0.0000000E+000
  0.0000000E+000
  0.0000000E+000
  0.0000000E+000
  0.0000000E+000
  0.0000000E+000
  0.0000000E+000
  0.0000000E+000
  0.0000000E+000
  0.0000000E+000
  0.0000000E+000
  0.0000000E+000
  0.0000000E+000
  0.0000000E+000
  0.0000000E+000
  0.0000000E+000
  0.0000000E+000
  0.0000000E+000
  0.0000000E+000
  0.0000000E+000
  0.0000000E+000
  0.0000000E+000
  0.0000000E+000
  0.0000000E+000
  0.0000000E+000
  0.0000000E+000
  0.0000000E+000
  0.0000000E+000
  0.0000000E+000
  0.0000000E+000
  0.0000000E+000
  0.0000000E+000
  0.0000000E+000
  0.0000000E+000
  0.0000000E+000
  0.0000000E+000
  0.0000000E+000
  0.0000000E+000
  0.0000000E+000
  0.0000000E+000
  0.0000000E+000
  0.0000000E+000
  0.0000000E+000
  0.0000000E+000
  0.0000000E+000
  0.0000000E+000
  0.0000000E+000
  0.0000000E+000
  0.0000000E+000
  0.0000000E+000
  0.0000000E+000
  0.0000000E+000
  0.0000000E+000
  0.0000000E+000
  0.0000000E+000
  0.0000000E+000
  0.0000000E+000
  0.0000000E+000
  0.0000000E+000
  0.0000000E+000
  0.0000000E+000
  0.0000000E+000
  0.0000000E+000
  0.0000000E+000
  0.0000000E+000
  0.0000000E+000
  0.0000000E+000
  0.0000000E+000
  0.0000000E+000
  0.0000000E+000
  0.0000000E+000
  0.0000000E+000
  0.0000000E+000
  0.0000000E+000
  0.0000000E+000
  0.0000000E+000
  0.0000000E+000
  0.0000000E+000
  0.0000000E+000
  0.0000000E+000
  0.0000000E+000
  0.0000000E+000
  0.0000000E+000
  0.0000000E+000
  0.0000000E+000
  0.0000000E+000
  0.0000000E+000
  0.0000000E+000
  0.0000000E+000
  0.0000000E+000
  0.0000000E+000
  0.0000000E+000
  0.0000000E+000
  0.0000000E+000
  0.0000000E+000
  0.0000000E+000
  0.0000000E+000
  0.0000000E+000
  0.0000000E+000
  0.0000000E+000
  0.0000000E+000
  0.0000000E+000
  0.0000000E+000
  0.0000000E+000
  0.0000000E+000
  0.0000000E+000
  0.0000000E+  0.0  0.0000000E+000
  0.0000000E+000
  0.0000000E+000
  0.0000000E+000
  0.0000000E+000
  0.0000000E+000
  0.0000000E+000
  0.0000000E+000
  0.0000000E+000
  0.0000000E+000
  0.0000000E+000
  0.0000000E+000
  0.0000000E+000
  0.0000000E+000
  0.0000000E+000
  0.0000000E+000
  0.0000000E+000
  0.0000000E+000
  0.0000000E+000
  0.0000000E+000
  0.0000000E+000
  0.0000000E+000
  0.0000000E+000
  0.0000000E+000
  0.0000000E+000
  0.0000000E+000
  0.0000000E+000
  0.0000000E+000
  0.0000000E+000
  0.0000000E+000
  0.0000000E+000
  0.0000000E+000
  0.0000000E+000
  0.0000000E+000
  0.0000000E+000
  0.0000000E+000
  0.0000000E+000
  0.0000000E+000
  0.0000000E+000
  0.0000000E+000
  0.0000000E+000
  0.0000000E+000
  0.0000000E+000
  0.0000000E+000
  0.0000000E+000
  0.0000000E+000
  0.0000000E+000
  0.0000000E+000
  0.0000000E+000
  0.0000000E+000
  0.0000000E+000
  0.0000000E+000
  0.0000000E+000
  0.0000000E+000
  0.0000000E+000
  0.0000000E+000
  0.0000000E+000
  0.0000000E+000
  0.0000000E+000
  0.0000000E+000
  0.0000000E+000
  0.0000000E+000
  0.0000000E+000
  0.0000000E+000
  0.0000000E+000
  0.0000000E+000
  0.0000000E+000
  0.0000000E+000
  0.0000000E+000
  0.0000000E+000
  0.0000000E+000
  0.0000000E+000
  0.0000000E+000
  0.0000000E+000
  0.0000000E+000
  0.0000000E+000
  0.0000000E+000
  0.0000000E+000
  0.0000000E+000
  0.0000000E+000
  0.0000000E+000
  0.0000000E+000
  0.0000000E+000
  0.0000000E+000
  0.0000000E+000
  0.0000000E+000
  0.0000000E+000
  0.0000000E+000
  0.0000000E+000
  0.0000000E+000
  0.0000000E+000
  0.0000000E+000
  0.0000000E+000
  0.0000000E+000
  0.0000000E+000
  0.0000000E+000
  0.0000000E+000
  0.0000000E+000
  0.0000000E+000
  0.0000000E+000
  0.0000000E+000
  0.0000000E+000
  0.0000000E+000
  0.0000000E+000
  0.0000000E+000
  0.0000000E+000
  0.0000000E+000
  0.0000000E+000
  0.0000000E+000
  0.0000000E+000
  0.0000000E+000
  0.0000000E+000
  0.0000000E+000
  0.0000000E+000
  0.0000000E+000
  0.0000000E+000
  0.0000000E+000
  0.0000000E+000
  0.0000000E+000
  0.0000000E+000
  0.0000000E+000
  0.0000000E+000
  0.0000000E+000
  0.0000000E+000
  0.0000000E+000
  0.0000000E+000
  0.0000000E+000
  0.0000000E+000
  0.0000000E+000
  0.0000000E+000
  0.0000000E+000
  0.0000000E+000
  0.0000000E+000
  0.0000000E+000
  0.0000000E+000
  0.0000000E+000
  0.0000000E+000
  0.0000000E+000
  0.0000000E+000
  0.0000000E+000
  0.0000000E+000
  0.0000000E+000
  0.0000000E+000
  0.0000000E+000
  0.0000000E+000
  0.0000000E+000
  0.0000000E+000
  0.0000000E+000
  0.0000000E+000
  0.0000000E+000
  0.0000000E+000
  0.0000000E+000
  0.0000000E+000
  0.0000000E+000
  0.0000000E+000
  0.0000000E+000
  0.0000000E+000
  0.0000000E+000
  0.0000000E+000
  0.0000000E+000
  0.0000000E+000
  0.0000000E+000
  0.0000000E+000
  0.0000000E+000
  0.0000000E+000
  0.0000000E+000
  0.0000000E+000
  0.0000000E+000
  0.0000000E+000
  0.0000000E+000
  0.0000000E+000
  0.0000000E+000
  0.0000000E+000
  0.0000000E+000
  0.0000000E+000
  0.0000000E+000
  0.0000000E+000
  0.0000000E+000
  0.0000000E+000
  0.0000000E+000
  0.0000000E+000
  0.0000000E+000
  0.0000000E+000
  0.0000000E+000
  0.0000000E+000
  0.0000000E+000
  0.0000000E+000
  0.0000000E+000
  0.0000000E+000
  0.0000000E+000
  0.0000000E+000
  0.0000000E+000
  0.0000000E+000
  0.0000000E+000
  0.0000000E+000
  0.0000000E+000
  0.0000000E+000
  0.0000000E+000
  0.0000000E+000
  0.0000000E+000
  0.0000000E+000
  0.0000000E+000
  0.0000000E+000
  0.0000000E+000
  0.0000000E+000
  0.0000000E+000
  0.0000000E+000
  0.0000000E+000
  0.0000000E+000
  0.0000000E+000
  0.0000000E+000
  0.0000000E+000
  0.0000000E+000
  0.0000000E+000
  0.0000000E+000
  0.0000000E+000
  0.0000000E+000
  0.0000000E+000
  0.0000000E+000
  0.0000000E+000
  0.0000000E+000
  0.0000000E+000
  0.0000000E+000
  0.0000000E+000
  0.0000000E+000
  0.0000000E+000
  0.0000000E+000
  0.0000000E+  0.0  0.0000000E+000
  0.0000000E+000
  0.0000000E+000
  0.0000000E+000
  0.0000000E+000
  0.0000000E+000
  0.0000000E+000
  0.0000000E+000
  0.0000000E+000
  0.0000000E+000
  0.0000000E+000
  0.0000000E+000
  0.0000000E+000
  0.0000000E+000
  0.0000000E+000
  0.0000000E+000
  0.0000000E+000
  0.0000000E+000
  0.0000000E+000
  0.0000000E+000
  0.0000000E+000
  0.0000000E+000
  0.0000000E+000
  0.0000000E+000
  0.0000000E+000
  0.0000000E+000
  0.0000000E+000
  0.0000000E+000
  0.0000000E+000
  0.0000000E+000
  0.0000000E+000
  0.0000000E+000
  0.0000000E+000
  0.0000000E+000
  0.0000000E+000
  0.0000000E+000
  0.0000000E+000
  0.0000000E+000
  0.0000000E+000
  0.0000000E+000
  0.0000000E+000
  0.0000000E+000
  0.0000000E+000
  0.0000000E+000
  0.0000000E+000
  0.0000000E+000
  0.0000000E+000
  0.0000000E+000
  0.0000000E+000
  0.0000000E+000
  0.0000000E+000
  0.0000000E+000
  0.0000000E+000
  0.0000000E+000
  0.0000000E+000
  0.0000000E+000
  0.0000000E+000
  0.0000000E+000
  0.0000000E+000
  0.0000000E+000
  0.0000000E+000
  0.0000000E+000
  0.0000000E+000
  0.0000000E+000
  0.0000000E+000
  0.0000000E+000
  0.0000000E+000
  0.0000000E+000
  0.0000000E+000
  0.0000000E+000
  0.0000000E+000
  0.0000000E+000
  0.0000000E+000
  0.0000000E+000
  0.0000000E+000
  0.0000000E+000
  0.0000000E+000
  0.0000000E+000
  0.0000000E+000
  0.0000000E+000
  0.0000000E+000
  0.0000000E+000
  0.0000000E+000
  0.0000000E+000
  0.0000000E+000
  0.0000000E+000
  0.0000000E+000
  0.0000000E+000
  0.0000000E+000
  0.0000000E+000
  0.0000000E+000
  0.0000000E+000
  0.0000000E+000
  0.0000000E+000
  0.0000000E+000
  0.0000000E+000
  0.0000000E+000
  0.0000000E+000
  0.0000000E+000
  0.0000000E+000
  0.0000000E+000
  0.0000000E+000
  0.0000000E+000
  0.0000000E+000
  0.0000000E+000
  0.0000000E+000
  0.0000000E+000
  0.0000000E+000
  0.0000000E+000
  0.0000000E+000
  0.0000000E+000
  0.0000000E+000
  0.0000000E+000
  0.0000000E+000
  0.0000000E+000
  0.0000000E+000
  0.0000000E+000
  0.0000000E+000
  0.0000000E+000
  0.0000000E+000
  0.0000000E+000
  0.0000000E+000
  0.0000000E+000
  0.0000000E+000
  0.0000000E+000
  0.0000000E+000
  0.0000000E+000
  0.0000000E+000
  0.0000000E+000
  0.0000000E+000
  0.0000000E+000
  0.0000000E+000
  0.0000000E+000
  0.0000000E+000
  0.0000000E+000
  0.0000000E+000
  0.0000000E+000
  0.0000000E+000
  0.0000000E+000
  0.0000000E+000
  0.0000000E+000
  0.0000000E+000
  0.0000000E+000
  0.0000000E+000
  0.0000000E+000
  0.0000000E+000
  0.0000000E+000
  0.0000000E+000
  0.0000000E+000
  0.0000000E+000
  0.0000000E+000
  0.0000000E+000
  0.0000000E+000
  0.0000000E+000
  0.0000000E+000
  0.0000000E+000
  0.0000000E+000
  0.0000000E+000
  0.0000000E+000
  0.0000000E+000
  0.0000000E+000
  0.0000000E+000
  0.0000000E+000
  0.0000000E+000
  0.0000000E+000
  0.0000000E+000
  0.0000000E+000
  0.0000000E+000
  0.0000000E+000
  0.0000000E+000
  0.0000000E+000
  0.0000000E+000
  0.0000000E+000
  0.0000000E+000
  0.0000000E+000
  0.0000000E+000
  0.0000000E+000
  0.0000000E+000
  0.0000000E+000
  0.0000000E+000
  0.0000000E+000
  0.0000000E+000
  0.0000000E+000
  0.0000000E+000
  0.0000000E+000
  0.0000000E+000
  0.0000000E+000
  0.0000000E+000
  0.0000000E+000
  0.0000000E+000
  0.0000000E+000
  0.0000000E+000
  0.0000000E+000
  0.0000000E+000
  0.0000000E+000
  0.0000000E+000
  0.0000000E+000
  0.0000000E+000
  0.0000000E+000
  0.0000000E+000
  0.0000000E+000
  0.0000000E+000
  0.0000000E+000
  0.0000000E+000
  0.0000000E+000
  0.0000000E+000
  0.0000000E+000
  0.0000000E+000
  0.0000000E+000
  0.0000000E+000
  0.0000000E+000
  0.0000000E+000
  0.0000000E+000
  0.0000000E+000
  0.0000000E+000
  0.0000000E+000
  0.0000000E+000
  0.0000000E+000
  0.0000000E+000
  0.0000000E+000
  0.0000000E+000
  0.0000000E+000
  0.0000000E+000
  0.0000000E+000
  0.0000000E+000
  0.0000000E+000
  0.0000000E+000
  0.0000000E+  0.0  0.0000000E+000
  0.0000000E+000
  0.0000000E+000
  0.0000000E+000
  0.0000000E+000
  0.0000000E+000
  0.0000000E+000
  0.0000000E+000
  0.0000000E+000
  0.0000000E+000
  0.0000000E+000
  0.0000000E+000
  0.0000000E+000
  0.0000000E+000
  0.0000000E+000
  0.0000000E+000
  0.0000000E+000
  0.0000000E+000
  0.0000000E+000
  0.0000000E+000
  0.0000000E+000
  0.0000000E+000
  0.0000000E+000
  0.0000000E+000
  0.0000000E+000
  0.0000000E+000
  0.0000000E+000
  0.0000000E+000
  0.0000000E+000
  0.0000000E+000
  0.0000000E+000
  0.0000000E+000
  0.0000000E+000
  0.0000000E+000
  0.0000000E+000
  0.0000000E+000
  0.0000000E+000
  0.0000000E+000
  0.0000000E+000
  0.0000000E+000
  0.0000000E+000
  0.0000000E+000
  0.0000000E+000
  0.0000000E+000
  0.0000000E+000
  0.0000000E+000
  0.0000000E+000
  0.0000000E+000
  0.0000000E+000
  0.0000000E+000
  0.0000000E+000
  0.0000000E+000
  0.0000000E+000
  0.0000000E+000
  0.0000000E+000
  0.0000000E+000
  0.0000000E+000
  0.0000000E+000
  0.0000000E+000
  0.0000000E+000
  0.0000000E+000
  0.0000000E+000
  0.0000000E+000
  0.0000000E+000
  0.0000000E+000
  0.0000000E+000
  0.0000000E+000
  0.0000000E+000
  0.0000000E+000
  0.0000000E+000
  0.0000000E+000
  0.0000000E+000
  0.0000000E+000
  0.0000000E+000
  0.0000000E+000
  0.0000000E+000
  0.0000000E+000
  0.0000000E+000
  0.0000000E+000
  0.0000000E+000
  0.0000000E+000
  0.0000000E+000
  0.0000000E+000
  0.0000000E+000
  0.0000000E+000
  0.0000000E+000
  0.0000000E+000
  0.0000000E+000
  0.0000000E+000
  0.0000000E+000
  0.0000000E+000
  0.0000000E+000
  0.0000000E+000
  0.0000000E+000
  0.0000000E+000
  0.0000000E+000
  0.0000000E+000
  0.0000000E+000
  0.0000000E+000
  0.0000000E+000
  0.0000000E+000
  0.0000000E+000
  0.0000000E+000
  0.0000000E+000
  0.0000000E+000
  0.0000000E+000
  0.0000000E+000
  0.0000000E+000
  0.0000000E+000
  0.0000000E+000
  0.0000000E+000
  0.0000000E+000
  0.0000000E+000
  0.0000000E+000
  0.0000000E+000
  0.0000000E+000
  0.0000000E+000
  0.0000000E+000
  0.0000000E+000
  0.0000000E+000
  0.0000000E+000
  0.0000000E+000
  0.0000000E+000
  0.0000000E+000
  0.0000000E+000
  0.0000000E+000
  0.0000000E+000
  0.0000000E+000
  0.0000000E+000
  0.0000000E+000
  0.0000000E+000
  0.0000000E+000
  0.0000000E+000
  0.0000000E+000
  0.0000000E+000
  0.0000000E+000
  0.0000000E+000
  0.0000000E+000
  0.0000000E+000
  0.0000000E+000
  0.0000000E+000
  0.0000000E+000
  0.0000000E+000
  0.0000000E+000
  0.0000000E+000
  0.0000000E+000
  0.0000000E+000
  0.0000000E+000
  0.0000000E+000
  0.0000000E+000
  0.0000000E+000
  0.0000000E+000
  0.0000000E+000
  0.0000000E+000
  0.0000000E+000
  0.0000000E+000
  0.0000000E+000
  0.0000000E+000
  0.0000000E+000
  0.0000000E+000
  0.0000000E+000
  0.0000000E+000
  0.0000000E+000
  0.0000000E+000
  0.0000000E+000
  0.0000000E+000
  0.0000000E+000
  0.0000000E+000
  0.0000000E+000
  0.0000000E+000
  0.0000000E+000
  0.0000000E+000
  0.0000000E+000
  0.0000000E+000
  0.0000000E+000
  0.0000000E+000
  0.0000000E+000
  0.0000000E+000
  0.0000000E+000
  0.0000000E+000
  0.0000000E+000
  0.0000000E+000
  0.0000000E+000
  0.0000000E+000
  0.0000000E+000
  0.0000000E+000
  0.0000000E+000
  0.0000000E+000
  0.0000000E+000
  0.0000000E+000
  0.0000000E+000
  0.0000000E+000
  0.0000000E+000
  0.0000000E+000
  0.0000000E+000
  0.0000000E+000
  0.0000000E+000
  0.0000000E+000
  0.0000000E+000
  0.0000000E+000
  0.0000000E+000
  0.0000000E+000
  0.0000000E+000
  0.0000000E+000
  0.0000000E+000
  0.0000000E+000
  0.0000000E+000
  0.0000000E+000
  0.0000000E+000
  0.0000000E+000
  0.0000000E+000
  0.0000000E+000
  0.0000000E+000
  0.0000000E+000
  0.0000000E+000
  0.0000000E+000
  0.0000000E+000
  0.0000000E+000
  0.0000000E+000
  0.0000000E+000
  0.0000000E+000
  0.0000000E+000
  0.0000000E+000
  0.0000000E+000
  0.0000000E+000
  0.0000000E+000
  0.0000000E+000
  0.00  1.4274250E  0.0000000E+000
  0.0000000E+000
  0.0000000E+000
  0.0000000E+000
  0.0000000E+000
  0.0000000E+000
  0.0000000E+000
  0.0000000E+000
  0.0000000E+000
  0.0000000E+000
  0.0000000E+000
  0.0000000E+000
  0.0000000E+000
  0.0000000E+000
  0.0000000E+000
  0.0000000E+000
  0.0000000E+000
  0.0000000E+000
  0.0000000E+000
  0.0000000E+000
  0.0000000E+000
  0.0000000E+000
  0.0000000E+000
  0.0000000E+000
  0.0000000E+000
  0.0000000E+000
  0.0000000E+000
  0.0000000E+000
  0.0000000E+000
  0.0000000E+000
  0.0000000E+000
  0.0000000E+000
  0.0000000E+000
  0.0000000E+000
  0.0000000E+000
  0.0000000E+000
  0.0000000E+000
  0.0000000E+000
  0.0000000E+000
  0.0000000E+000
  0.0000000E+000
  0.0000000E+000
  0.0000000E+000
  0.0000000E+000
  0.0000000E+000
  0.0000000E+000
  0.0000000E+000
  0.0000000E+000
  0.0000000E+000
  0.0000000E+000
  0.0000000E+000
  0.0000000E+000
  0.0000000E+000
  0.0000000E+000
  0.0000000E+000
  0.0000000E+000
  0.0000000E+000
  0.0000000E+000
  0.0000000E+000
  0.0000000E+000
  0.0000000E+000
  0.0000000E+000
  0.0000000E+000
  0.0000000E+000
  0.0000000E+000
  0.0000000E+000
  0.0000000E+000
  0.0000000E+000
  0.0000000E+000
  0.0000000E+000
  0.0000000E+000
  0.0000000E+000
  0.0000000E+000
  0.0000000E+000
  0.0000000E+000
  0.0000000E+000
  0.0000000E+000
  0.0000000E+000
  0.0000000E+000
  0.0000000E+000
  0.0000000E+000
  0.0000000E+000
  0.0000000E+000
  0.0000000E+000
  0.0000000E+000
  0.0000000E+000
  0.0000000E+000
  0.0000000E+000
  0.0000000E+000
  0.0000000E+000
  0.0000000E+000
  0.0000000E+000
  0.0000000E+000
  0.0000000E+000
  0.0000000E+000
  0.0000000E+000
  0.0000000E+000
  0.0000000E+000
  0.0000000E+000
  0.0000000E+000
  0.0000000E+000
  0.0000000E+000
  0.0000000E+000
  0.0000000E+000
  0.0000000E+000
  0.0000000E+000
  0.0000000E+000
  0.0000000E+000
  0.0000000E+000
  0.0000000E+000
  0.0000000E+000
  0.0000000E+000
  0.0000000E+000
  0.0000000E+000
  0.0000000E+000
  0.0000000E+000
  0.0000000E+000
  0.0000000E+000
  0.0000000E+000
  0.0000000E+000
  0.0000000E+000
  0.0000000E+000
  0.0000000E+000
  0.0000000E+000
  0.0000000E+000
  0.0000000E+000
  0.0000000E+000
  0.0000000E+000
  0.0000000E+000
  0.0000000E+000
  0.0000000E+000
  0.0000000E+000
  0.0000000E+000
  0.0000000E+000
  0.0000000E+000
  0.0000000E+000
  0.0000000E+000
  0.0000000E+000
  0.0000000E+000
  0.0000000E+000
  0.0000000E+000
  0.0000000E+000
  0.0000000E+000
  0.0000000E+000
  0.0000000E+000
  0.0000000E+000
  0.0000000E+000
  0.0000000E+000
  0.0000000E+000
  0.0000000E+000
  0.0000000E+000
  0.0000000E+000
  0.0000000E+000
  0.0000000E+000
  0.0000000E+000
  0.0000000E+000
  0.0000000E+000
  0.0000000E+000
  0.0000000E+000
  0.0000000E+000
  0.0000000E+000
  0.0000000E+000
  0.0000000E+000
  0.0000000E+000
  0.0000000E+000
  0.0000000E+000
  0.0000000E+000
  0.0000000E+000
  0.0000000E+000
  0.0000000E+000
  0.0000000E+000
  0.0000000E+000
  0.0000000E+000
  0.0000000E+000
  0.0000000E+000
  0.0000000E+000
  0.0000000E+000
  0.0000000E+000
  0.0000000E+000
  0.0000000E+000
  0.0000000E+000
  0.0000000E+000
  0.0000000E+000
  0.0000000E+000
  0.0000000E+000
  0.0000000E+000
  0.0000000E+000
  0.0000000E+000
  0.0000000E+000
  0.0000000E+000
  0.0000000E+000
  0.0000000E+000
  0.0000000E+000
  0.0000000E+000
  0.0000000E+000
  0.0000000E+000
  0.0000000E+000
  0.0000000E+000
  0.0000000E+000
  0.0000000E+000
  0.0000000E+000
  0.0000000E+000
  0.0000000E+000
  0.0000000E+000
  0.0000000E+000
  0.0000000E+000
  0.0000000E+000
  0.0000000E+000
  0.0000000E+000
  0.0000000E+000
  0.0000000E+000
  0.0000000E+000
  0.0000000E+000
  0.0000000E+000
  0.0000000E+000
  0.0000000E+000
  0.0000000E+000
  0.0000000E+000
  0.0000000E+000
  0.0000000E+000
  0.0000000E+000
  0.0000000E+000
  0.0000000E+000
  0.0000000E+000
  0.0000000E+000
  0.0000000E+000
  0.0000000E+000
  0.00  8.3680536E+003
  8.8983631E+003
  9.2489928E+003
  9.3580879E+003
  9.1609101E+003
  8.6071898E+003
  7.7242350E+003
  6.5555884E+003
  5.3551817E+003
  4.2420826E+003
  3.6682729E+003
  4.5083787E+003
  6.8226911E+003
  9.7287413E+003
  1.2340406E+004
  1.3913231E+004
  1.4173023E+004
  1.3202496E+004
  1.1250231E+004
  8.8618844E+003
  6.6002916E+003
  4.3368204E+003
  2.1401456E+003
  1.3607544E+003
  8.1788268E+002
  1.3776600E+003
  9.2127149E+002
  1.6300717E+003
  2.9436267E+003
  4.5801976E+003
  5.0397967E+003
  4.2071672E+003
  4.2714298E+003
  4.9413544E+003
  5.8146865E+003
  6.7404380E+003
  7.6578687E+003
  8.5390228E+003
  9.3605538E+003
  1.0093263E+004
  1.0689244E+004
  1.1063805E+004
  1.1063739E+004
  1.0536686E+004
  9.4293363E+003
  8.1156752E+003
  6.8903724E+003
  6.1923161E+003
  5.8408955E+003
  6.4108223E+003
  8.5187443E+003
  1.1460760E+004
  1.4177648E+004
  1.5751603E+004
  1.5821708E+004
  1.4534793E+004
  1.2413099E+004
  9.9518267E+003
  7.4835362E+003
  5.2337977E+003
  3.4273826E+003
  2.3206643E+003
  1.8678390E+003
  2.0696822E+003
  1.7106476E+003
  5.8070481E+003
  7.8081435E+003
  4.1915766E+003
  3.4552530E+003
  4.7013279E+003
  5.7601771E+003
  6.8031365E+003
  7.7747940E+003
  8.7175978E+003
  9.6416264E+003
  1.0553551E+004
  1.1447774E+004
  1.2299234E+004
  1.3028957E+004
  1.3444543E+004
  1.3107025E+004
  1.1918799E+004
  1.0696900E+004
  1.0800612E+004
  1.1170494E+004
  1.0809364E+004
  1.0124317E+004
  1.0626446E+004
  1.3182908E+004
  1.6057394E+004
  1.7829056E+004
  1.7657317E+004
  1.5842537E+004
  1.3196556E+004
  1.0490200E+004
  8.0832277E+003
  6.0364218E+003
  4.3972165E+003
  3.2144048E+003
  2.5683580E+003
  2.3597647E+003
  2.4134431E+003
  2.0170384E+003
  1.1265345E+004
  5.3159936E+003
  6.2180083E+003
  7.0430251E+003
  7.7412342E+003
  8.4831746E+003
  9.2357963E+003
  1.0031836E+004
  1.0877724E+004
  1.1788646E+004
  1.2779003E+004
  1.3856352E+004
  1.5005350E+004
  1.6090907E+004
  1.6603776E+004
  1.5239196E+004
  1.3906803E+004
  1.7844016E+004
  2.1095210E+004
  1.9876240E+004
  1.5362357E+004
  1.4346069E+004
  1.5163956E+004
  1.7967308E+004
  2.0184997E+004
  1.9701633E+004
  1.6838831E+004
  1.3349727E+004
  1.0387707E+004
  8.1466563E+003
  6.4288367E+003
  5.0669733E+003
  4.0470087E+003
  3.3594828E+003
  3.4037444E+003
  3.0252229E+003
  3.0514485E+003
  1.2052509E+003
  6.7159815E+003
  9.0553943E+003
  1.0787875E+004
  1.0068877E+004
  1.0164668E+004
  1.0363428E+004
  1.0773247E+004
  1.1318827E+004
  1.2000343E+004
  1.2824113E+004
  1.3818782E+004
  1.5027310E+004
  1.6524817E+004
  1.8335422E+004
  2.0582460E+004
  2.0934758E+004
  2.2440170E+004
  3.2528579E+004
  3.9873987E+004
  3.4939009E+004
  2.8950492E+004
  2.3793504E+004
  1.5922623E+004
  1.7898776E+004
  2.3543502E+004
  2.2128113E+004
  1.7012407E+004
  1.2322264E+004
  9.3215057E+003
  7.5404589E+003
  6.3479073E+003
  5.4101080E+003
  4.6615756E+003
  4.1569132E+003
  4.0413891E+003
  4.0193279E+003
  5.2381527E+003
  1.6180044E+004
  1.3680391E+004
  1.3757210E+004
  1.2506291E+004
  1.2085485E+004
  1.1889176E+004
  1.1979780E+004
  1.2268981E+004
  1.2745758E+004
  1.3409248E+004
  1.4297561E+004
  1.5444982E+004
  1.7071353E+004
  1.8992230E+004
  2.3192302E+004
  2.5239050E+004
  4.7907675E+004
  6.3077718E+004
  4.2527036E+004
  6.2911363E+004
  5.4042692E+004
  3.7183488E+004
  1.7117067E+004
  2.5037763E+004
  3.3105161E+004
  2.4415477E+004
  1.5262874E+004
  9.6026358E+003
  7.1272495E+003
  6.2494839E+003
  5.8279341E+003
  5.4215663E+003
  4.9948487E+003
  4.6883677E+003
  4.4132571E+003
  4.8033349E+003
  4.8777539E+003
  5.9954159E+003
  2.5918863E+003
  8.3808480E+003
  1.6072598E+004
  1.3003208E+004
  6.2757182E+003
  1.3343570E+004
  1.6594033E+004
  1.1674760E+004
  1.3760682E+004
  1.4229562E+004
  1.3563511E+004
  1.3036961E+004
  1.2697810E+004
  1.2582290E+004
  1.2662808E+004
  1.2928774E+004
  1.3377022E+004
  1.4042250E+004
  1.4911938E+004
  1.6276284E+004
  1.7438040E+004
  2.1491392E+004
  1.9738406E+004
  2.8640196E+004
  3.0093917E+004
  4.6298342E+004
  6.4419336E+004
  3.8822091E+004
  3.1504511E+004
  2.0718072E+004
  1.0954017E+004
  5.3078397E+003
  4.1450215E+003
  4.6729407E+003
  5.1317241E+003
  5.2221458E+003
  5.0850295E+003
  4.9003121E+003
  4.8025575E+003
  5.0808658E+003
  5.9561826E+003
  8.6476903E+003
  1.1409445E+004
  2.1991416E+004
  1.5400422E+004
  1.3350807E+004
  1.5139452E+004
  1.4265714E+004
  1.3393211E+004
  1.1743967E+004
  1.2617035E+004
  1.3428103E+004
  1.3387091E+004
  1.3040633E+004
  1.2716923E+004
  1.2505040E+004
  1.2431503E+004
  1.2497714E+004
  1.2704623E+004
  1.3046815E+004
  1.3547614E+004
  1.4114724E+004
  1.4864149E+004
  1.4973855E+004
  1.1648764E+004
  2.5558078E+003
  1.3864982E+005
  9.4591902E+004
  6.5960119E+004
  1.3798645E+004
  5.7454540E+003
  1.5873823E+003
  2.0815550E+003
  3.7333374E+003
  4.7017846E+003
  5.0093354E+003
  5.0028940E+003
  4.9008397E+003
  4.8768514E+003
  4.9836340E+003
  5.2701304E+003
  6.7565730E+003
  7.6379809E+003
  7.0538369E+003
  1.9109176E+004
  3.1236222E+004
  2.0865646E+004
  1.7995241E+004
  1.8789013E+004
  1.6427285E+004
  1.4838422E+004
  1.3450326E+004
  1.2757100E+004
  1.2209653E+004
  1.2163533E+004
  1.2480090E+004
  1.2557697E+004
  1.2367514E+004
  1.2090242E+004
  1.1835114E+004
  1.1645957E+004
  1.1535326E+004
  1.1497291E+004
  1.1517875E+004
  1.1542274E+004
  1.1531150E+004
  1.1122863E+004
  1.0039426E+004
  5.7817712E+003
  2.7085795E+003
  8.2409683E+003
  2.1234414E+003
  2.7868305E+003
  2.9044033E+003
  4.3211592E+003
  4.7834564E+003
  4.8484337E+003
  4.7985909E+003
  4.7554093E+003
  4.7342950E+003
  4.9253222E+003
  5.6217327E+003
  8.5621382E+003
  9.0715371E+003
  1.1462225E+004
  3.5190026E+003
  2.1614219E+004
  2.4560631E+004
  2.2322960E+004
  2.5428238E+004
  2.3015150E+004
  2.6319568E+004
  2.3773017E+004
  2.7126979E+004
  2.4342690E+004
  2.8621150E+004
  2.5659487E+004
  2.8972314E+004
  2.3186433E+004
  4.0071551E+004
  1.9863788E+004
  1.9656229E+004
  1.6898966E+004
  1.4912702E+004
  1.3974660E+004
  1.2879857E+004
  1.2103195E+004
  1.1653996E+004
  1.1528827E+004
  1.1524131E+004
  1.1474369E+004
  1.1298438E+004
  1.1033467E+004
  1.0742335E+004
  1.0462142E+004
  1.0203846E+004
  9.9587630E+003
  9.6950155E+003
  9.3596875E+003
  8.8287944E+003
  7.9247664E+003
  6.3261523E+003
  4.0274783E+003
  1.7906725E+003
  2.7337399E+003
  4.0271865E+003
  4.5999588E+003
  4.7196153E+003
  4.6052763E+003
  4.6414193E+003
  4.5877378E+003
  4.5391912E+003
  4.7453902E+003
  5.4393343E+003
  7.3349474E+003
  8.8771265E+003
  1.7442113E+004
  1.8423685E+004
  1.8908050E+004
  1.9340117E+004
  1.9591617E+004
  1.9595200E+004
  1.8490504E+004
  1.5966735E+004
  1.3871555E+004
  1.4478115E+004
  1.4391290E+004
  1.3311257E+004
  1.2425128E+004
  1.1738117E+004
  1.1164964E+004
  1.0782155E+004
  1.0556162E+004
  1.0412078E+004
  1.0250014E+004
  1.0024720E+004
  9.7361333E+003
  9.4066530E+003
  9.0560112E+003
  8.6894423E+003
  8.2948788E+003
  7.8420295E+003
  7.2733415E+003
  6.5056551E+003
  5.4155521E+003
  3.9461248E+003
  1.8659155E+003
  1.1343568E+003
  1.7846947E+003
  2.1912002E+003
  5.6840116E+003
  7.7421188E+003
  5.5869390E+003
  5.0237736E+003
  4.8343300E+003
  4.5728484E+003
  4.4327553E+003
  4.3935655E+003
  4.6189555E+003
  5.1265327E+003
  4.2799440E+003
  6.7823495E+003
  9.5164560E+003
  1.7747627E+004
  8.5453134E+003
  7.6143002E+003
  6.0534149E+003
  6.3972621E+003
  4.7075365E+003
  4.3144451E+003
  3.4291538E+003
  3.0101253E+003
  2.4464035E+003
  1.8873661E+003
  1.6403045E+003
  1.0565405E+003
  1.0135179E+003
  4.7052335E+002
  5.3481358E+002
  1.1751295E+002
  2.1153233E+002
  5.7945410E+001
  1.0641587E+002
  1.1493801E+002
  1.5346236E+004
  1.5610669E+004
  1.5753264E+004
  1.5600233E+004
  1.4909671E+004
  1.3544037E+004
  1.2016996E+004
  1.1204315E+004
  1.1170156E+004
  1.1364264E+004
  1.1179762E+004
  1.0734968E+004
  1.0289421E+004
  9.9046183E+003
  9.5960293E+003
  9.3587008E+003
  9.1489567E+003
  8.9239240E+003
  8.6553818E+003
  8.3375545E+003
  7.9769062E+003
  7.5809897E+003
  7.1504203E+003
  6.6747483E+003
  6.1298098E+003
  5.4769868E+003
  4.6655482E+003
  3.6469343E+003
  2.4018477E+003
  1.1566367E+003
  8.9484955E+002
  1.4205822E+003
  1.5616775E+003
  1.1556361E+003
  6.7888464E+003
  6.4257662E+003
  5.9554123E+003
  5.2269049E+003
  4.9586149E+003
  4.5343604E+003
  4.0961828E+003
  3.6556435E+003
  2.9686000E+003
  2.7016469E+003
  5.0901342E+003
  7.9711599E+003
  7.9595030E+003
  6.8846513E+003
  5.5918021E+003
  4.4708232E+003
  3.4334683E+003
  2.5157980E+003
  1.7189495E+003
  1.0668490E+003
  6.0843666E+002
  2.3942352E+002
  6.5381290E+001
  2.2980811E+002
  1.0702639E+002
  1.1232297E+002
  1.1401427E+002
  8.3984960E+001
  1.2227383E+004
  1.2306225E+004
  1.2205376E+004
  1.1785169E+004
  1.0920660E+004
  9.8097508E+003
  8.7950561E+003
  8.3796095E+003
  8.5811596E+003
  8.8567733E+003
  8.9512599E+003
  8.8579054E+003
  8.6616070E+003
  8.4411322E+003
  8.2251172E+003
  8.0148405E+003
  7.7966877E+003
  7.5509813E+003
  7.2648064E+003
  6.9340543E+003
  6.5609110E+003
  6.1487080E+003
  5.6975896E+003
  5.2016225E+003
  4.6474730E+003
  4.0152273E+003
  3.2824533E+003
  2.4389829E+003
  1.5249722E+003
  7.3990687E+002
  6.5745581E+002
  1.0203164E+003
  1.6194809E+003
  4.8070765E+003
  8.9062608E+003
  6.6731962E+003
  6.1514907E+003
  5.6662457E+003
  4.8196951E+003
  3.9649479E+003
  2.9572916E+003
  1.7644434E+003
  2.1671019E+003
  4.5723017E+003
  6.3655331E+003
  7.3326399E+003
  7.0555733E+003
  6.2304684E+003
  5.2218926E+003
  4.1900730E+003
  3.1914437E+003
  2.2821642E+003
  1.5105237E+003
  8.9356056E+002
  4.2604189E+002
  1.1826707E+002
  7.5121894E+001
  1.1001963E+002
  1.0389891E+002
  7.9610059E+001
  9.1093118E+003
  8.9443756E+003
  8.8067440E+003
  8.2030000E+003
  7.2647348E+003
  6.3939781E+003
  5.9241510E+003
  5.8911855E+003
  6.1774674E+003
  6.5468263E+003
  6.8214604E+003
  6.9442042E+003
  6.9468604E+003
  6.8767985E+003
  6.7614642E+003
  6.6095792E+003
  6.4200334E+003
  6.1886829E+003
  5.9125530E+003
  5.5919093E+003
  5.2295158E+003
  4.8290508E+003
  4.3931949E+003
  3.9220727E+003
  3.4125297E+003
  2.8588357E+003
  2.2563936E+003
  1.6114168E+003
  9.6473708E+002
  5.1384261E+002
  6.8201518E+002
  1.0948848E+003
  1.0918579E+003
  6.4632694E+002
  9.3605885E+002
  6.4527928E+003
  7.2792681E+003
  7.8047100E+003
  6.2534235E+003
  5.0849688E+003
  4.0025834E+003
  2.7254635E+003
  1.3019206E+003
  2.1024694E+003
  4.2772776E+003
  6.1869380E+003
  7.1388863E+003
  7.2829158E+003
  6.7792044E+003
  5.9300724E+003
  4.9201957E+003
  3.8633089E+003
  2.8417339E+003
  1.9246451E+003
  1.1620812E+003
  5.8836992E+002
  2.1742013E+002
  4.2753722E+001
  9.8318431E+001
  1.8447404E+002
  5.6485712E+003
  4.8643316E+003
  4.6301799E+003
  4.3759664E+003
  3.3034164E+003
  3.2855108E+003
  3.2882576E+003
  3.4090444E+003
  3.7891500E+003
  4.3409775E+003
  4.7862879E+003
  5.0623313E+003
  5.2268129E+003
  5.2970462E+003
  5.2879750E+003
  5.2127287E+003
  5.0771621E+003
  4.8858521E+003
  4.6436967E+003
  4.3550511E+003
  4.0247416E+003
  3.6585626E+003
  3.2628829E+003
  2.8436204E+003
  2.4053016E+003
  1.9511010E+003
  1.4845423E+003
  1.0149186E+003
  5.8306080E+002
  4.2070214E+002
  7.5775356E+002
  1.1186010E+003
  1.0807499E+003
  8.7573812E+002
  3.7681530E+003
  7.2303035E+003
  7.2309786E+003
  6.0636367E+003
  5.3338346E+003
  4.3861337E+003
  2.9590722E+003
  1.4368687E+003
  2.1885277E+003
  4.2870966E+003
  6.0499522E+003
  7.1487098E+003
  7.4816213E+003
  7.2140811E+003
  6.5264599E+003
  5.5862384E+003
  4.5131170E+003
  3.4050506E+003
  2.3506014E+003
  1.4402062E+003
  7.3689905E+002
  2.7775489E+002
  4.3494765E+001
  8.8759387E+001
  2.0044399E+002
  2.5447977E+003
  1.3231331E+003
  1.7729872E+003
  2.6121260E+003
  2.0140433E+003
  1.7568958E+003
  6.1323045E+002
  7.3337530E+002
  1.4352290E+003
  2.3044896E+003
  2.8075641E+003
  3.2504161E+003
  3.5704474E+003
  3.7616428E+003
  3.8641435E+003
  3.8789977E+003
  3.8119295E+003
  3.6783840E+003
  3.4885137E+003
  3.2494919E+003
  2.9676679E+003
  2.6509656E+003
  2.3095819E+003
  1.9542846E+003
  1.5947034E+003
  1.2385260E+003
  8.9176984E+002
  5.6286627E+002
  2.9336203E+002
  3.2371961E+002
  6.3575991E+002
  1.0379958E+003
  1.0467494E+003
  6.0536587E+002
  8.3418697E+003
  1.0772981E+004
  7.5628795E+003
  6.3020217E+003
  5.2050858E+003
  3.5450253E+003
  2.0149643E+003
  2.5718025E+003
  4.4997460E+003
  6.2003069E+003
  7.2752008E+003
  7.7066134E+003
  7.5854473E+003
  7.0496998E+003
  6.2152185E+003
  5.1756855E+003
  4.0131893E+003
  2.8354980E+003
  1.7405442E+003
  8.6160228E+002
  2.8273078E+002
  6.2814733E+001
  1.2075739E+002
  1.5863604E+002
  2.2810044E+003
  2.5086208E+003
  5.6359984E+003
  4.3587526E+003
  2.3884589E+003
  1.0563265E+003
  8.0274144E+002
  1.0022565E+003
  1.6204115E+003
  1.9817093E+003
  2.3137480E+003
  2.5415834E+003
  2.6425301E+003
  2.6536396E+003
  2.5883304E+003
  2.4634130E+003
  2.2875573E+003
  2.0650611E+003
  1.8060299E+003
  1.5248388E+003
  1.2364021E+003
  9.5376612E+002
  6.8716900E+002
  4.4531174E+002
  2.4139311E+002
  1.5831508E+002
  3.0410827E+002
  4.6917653E+002
  8.2957244E+002
  1.4679572E+003
  9.3605840E+002
  8.2164018E+003
  7.5254191E+003
  7.4725768E+003
  5.9519633E+003
  4.4834221E+003
  2.9411713E+003
  3.2924508E+003
  4.9911061E+003
  6.5001935E+003
  7.4656925E+003
  7.8851473E+003
  7.8526011E+003
  7.4571066E+003
  6.7725223E+003
  5.8373149E+003
  4.6842359E+003
  3.3532172E+003
  2.0937359E+003
  1.0523316E+003
  1.9794227E+002
  1.2093624E+002
  1.0803987E+002
  7.2275555E+001
  3.3011642E+003
  3.6411936E+003
  3.6118436E+003
  1.9090032E+003
  9.6148332E+002
  5.1569439E+002
  5.4001594E+002
  1.0309244E+003
  1.3113072E+003
  1.5319421E+003
  1.6186129E+003
  1.6210561E+003
  1.5752875E+003
  1.4723869E+003
  1.3143510E+003
  1.1158502E+003
  8.9656386E+002
  6.7610297E+002
  4.7246229E+002
  3.0775931E+002
  2.2273070E+002
  2.4921595E+002
  3.3963403E+002
  4.4094206E+002
  6.2760179E+002
  9.3219721E+002
  1.8756243E+003
  4.3664608E+003
  8.9495650E+003
  7.5653105E+003
  7.3167714E+003
  5.7574665E+003
  4.1363415E+003
  4.4331638E+003
  5.7621846E+003
  6.9192159E+003
  7.6186651E+003
  7.9260175E+003
  7.9267424E+003
  7.6676094E+003
  7.1526239E+003
  6.4198881E+003
  5.4096594E+003
  4.1246427E+003
  2.3395793E+003
  7.0455714E+002
  8.9186299E+001
  2.9563547E+002
  6.5678678E+001
  2.8497637E+001
  2.3240170E+003
  2.6524862E+003
  2.6840665E+003
  1.4684385E+003
  8.3112971E+002
  2.4241695E+002
  2.6330805E+002
  5.8007835E+002
  6.8852315E+002
  7.8233843E+002
  8.2808371E+002
  8.0095600E+002
  7.0710103E+002
  5.6977678E+002
  4.1913961E+002
  2.8804869E+002
  2.2573481E+002
  2.6245880E+002
  3.4638646E+002
  4.3400845E+002
  5.1604976E+002
  6.0059118E+002
  7.3645624E+002
  9.4645865E+002
  1.1582383E+003
  5.0636958E+003
  7.3911478E+003
  8.4521944E+003
  7.0651671E+003
  5.9870029E+003
  6.0034381E+003
  6.7700459E+003
  7.3326636E+003
  7.6221285E+003
  7.7023880E+003
  7.6799277E+003
  7.5802564E+003
  7.2925726E+003
  6.6587731E+003
  5.8987058E+003
  4.2800713E+003
  2.6029745E+003
  6.4564648E+002
  5.3545354E+002
  1.6834010E+003
  1.9895998E+003
  2.1659898E+003
  1.2570706E+003
  8.0720709E+002
  2.7317220E+002
  1.9367722E+002
  1.9083202E+002
  2.6245913E+002
  2.7447408E+002
  2.3303788E+002
  1.8267797E+002
  1.8213213E+002
  2.4686912E+002
  3.3567515E+002
  4.2438116E+002
  5.0295720E+002
  5.6690908E+002
  6.2095133E+002
  6.6739808E+002
  7.3182131E+002
  7.6801371E+002
  9.5582266E+002
  2.9553292E+003
  4.8332264E+003
  1.0163563E+004
  1.0773182E+004
  8.7017251E+003
  8.1090736E+003
  7.8530906E+003
  7.7171967E+003
  7.4359106E+003
  7.1694905E+003
  7.0089226E+003
  7.0397879E+003
  7.2457793E+003
  7.0630264E+003
  6.4817364E+003
  7.1381513E+003
  4.3529324E+003
  1.2937160E+003
  1.8261022E+003
  1.9789860E+003
  1.0475579E+003
  9.5911273E+002
  5.6428241E+002
  3.2707231E+002
  2.1685727E+002
  1.7781233E+002
  2.5293155E+002
  3.4236815E+002
  4.1768725E+002
  4.8627986E+002
  5.4771487E+002
  5.9703806E+002
  6.3015964E+002
  6.4877986E+002
  6.5703782E+002
  6.6968637E+002
  6.3389416E+002
  6.8811796E+002
  1.4685540E+004
  1.4546297E+004
  1.5091387E+004
  1.3593726E+004
  1.0318927E+004
  9.3214581E+003
  8.2274635E+003
  7.3375998E+003
  6.5867114E+003
  6.0922918E+003
  5.9727713E+003
  6.5559152E+003
  7.9732370E+003
  8.0662787E+003
  6.9460705E+003
  1.6666818E+003
  1.3541458E+003
  1.2379408E+003
  9.9101509E+002
  7.6757091E+002
  5.5153654E+002
  4.4418623E+002
  4.9757533E+002
  5.2329125E+002
  5.4525786E+002
  5.7511485E+002
  6.0640812E+002
  6.2992347E+002
  6.3574791E+002
  6.2137986E+002
  5.8976155E+002
  5.8784229E+002
  5.2235428E+002
  4.7730327E+002
  3.1360376E+004
  2.2596772E+004
  1.8197569E+004
  1.3639607E+004
  1.1170928E+004
  9.3252597E+003
  7.8699261E+003
  6.6911318E+003
  5.7474107E+003
  5.2631196E+003
  5.1679878E+003
  7.5827135E+003
  1.2551839E+004
  7.9242742E+003
  7.5743192E+002
  1.2681389E+003
  1.6563203E+003
  1.1299574E+003
  9.0704798E+002
  6.9887584E+002
  7.0927891E+002
  6.4134935E+002
  6.0497812E+002
  6.0079291E+002
  6.0981096E+002
  6.1425489E+002
  6.0292128E+002
  5.6574098E+002
  4.9938816E+002
  4.4819195E+002
  3.9384734E+002
  2.2921616E+002
  3.2538371E+004
  2.6599887E+004
  2.3017461E+004
  1.6338119E+004
  1.3386120E+004
  1.0938499E+004
  9.2211643E+003
  7.8626576E+003
  6.8313600E+003
  6.1608397E+003
  6.0042368E+003
  7.7547896E+003
  1.8542017E+004
  9.3928703E+002
  1.3569526E+003
  1.5171375E+003
  8.8818144E+002
  8.6795740E+002
  6.5993807E+002
  6.0739395E+002
  5.8857179E+002
  5.6695046E+002
  5.6349049E+002
  5.4493978E+002
  4.9943213E+002
  4.2877290E+002
  3.4989922E+002
  4.0549052E+002
  2.3499839E+002
  2.3405749E+004
  2.3021979E+004
  2.3841982E+004
  1.7803721E+004
  1.4979065E+004
  1.2493046E+004
  1.0757210E+004
  9.4282747E+003
  8.5141038E+003
  7.8850423E+003
  7.9992650E+003
  8.1780372E+003
  8.6826430E+003
  1.1527372E+003
  8.6096823E+002
  7.8382242E+002
  6.4903829E+002
  6.2162828E+002
  5.4436328E+002
  4.8657587E+002
  4.9346151E+002
  4.6820671E+002
  4.0659960E+002
  3.6563714E+002
  2.6891215E+002
  3.0426974E+002
  6.2479340E+003
  1.7287502E+004
  1.9917222E+004
  1.7704673E+004
  1.5321455E+004
  1.3343024E+004
  1.1756565E+004
  1.0541489E+004
  9.6415875E+003
  9.0273115E+003
  8.6122492E+003
  7.9400765E+003
  5.2353720E+003
  2.5007356E+003
  5.4486890E+003
  4.6732112E+002
  6.5523911E+002
  7.7285195E+002
  5.6597458E+002
  5.0291532E+002
  4.0897964E+002
  4.2955382E+002
  3.5628693E+002
  2.9873721E+002
  2.4315206E+002
  1.4824743E+002
  3.8067195E+001
  1.0943884E+004
  1.2637700E+004
  9.2053401E+003
  1.3343263E+004
  1.5922117E+004
  1.5878287E+004
  1.4629544E+004
  1.3223047E+004
  1.1938415E+004
  1.0832921E+004
  9.8940289E+003
  9.0459574E+003
  8.0753056E+003
  6.5635997E+003
  4.3958514E+003
  2.2721485E+003
  4.2712292E+002
  3.0261481E+002
  6.2543348E+002
  4.3081297E+002
  2.7937682E+002
  2.2747685E+002
  1.7248847E+002
  1.1693980E+002
  6.7949936E+001
  3.3537643E+001
  8.4798796E+003
  1.4279748E+004
  9.9456092E+003
  1.1017641E+004
  8.3693670E+003
  8.2173012E+003
  1.1358738E+004
  1.3014421E+004
  1.3630898E+004
  1.3217330E+004
  1.2370509E+004
  1.1392790E+004
  1.0409667E+004
  9.4316339E+003
  8.3942681E+003
  7.1660067E+003
  5.6605913E+003
  3.9488136E+003
  1.9876667E+003
  7.8317826E+002
  8.3365449E+002
  2.5694778E+002
  1.1053858E+002
  1.4267930E+002
  1.0609788E+002
  4.0497286E+001
  2.8827758E+001
  9.3461241E+003
  8.2537250E+003
  7.9992469E+003
  7.0030483E+003
  7.5407669E+003
  9.4333862E+003
  1.0920792E+004
  1.1582091E+004
  1.1584651E+004
  1.1123849E+004
  1.0408972E+004
  9.5552864E+003
  8.5986895E+003
  7.5222003E+003
  6.2958605E+003
  4.9161017E+003
  3.4140580E+003
  1.9357360E+003
  9.7027131E+002
  1.0002490E+003
  8.6577489E+002
  7.0675363E+003
  5.6790549E+003
  5.5964495E+003
  6.1275810E+003
  6.8524216E+003
  8.0853708E+003
  9.2051765E+003
  9.8602071E+003
  1.0018381E+004
  9.7825025E+003
  9.2610941E+003
  8.5394063E+003
  7.6631458E+003
  6.6513357E+003
  5.5189631E+003
  4.2952954E+003
  3.0651185E+003
  1.9601734E+003
  1.3580903E+003
  1.1016608E+003
  1.1244207E+003
  5.4762464E+002
  5.6056643E+003
  5.0378436E+003
  4.7560318E+003
  5.1761255E+003
  6.0379713E+003
  6.9973700E+003
  7.8550938E+003
  8.4210027E+003
  8.6333286E+003
  8.5177811E+003
  8.1333721E+003
  7.5364418E+003
  6.7711297E+003
  5.8719118E+003
  4.8746095E+003
  3.8328312E+003
  2.8281341E+003
  1.9927867E+003
  1.4470166E+003
  1.2401695E+003
  1.5841486E+003
  4.8761365E+003
  4.3562404E+003
  4.2510954E+003
  4.6140419E+003
  5.2977836E+003
  6.0792600E+003
  6.7628690E+003
  7.2380965E+003
  7.4517648E+003
  7.4023289E+003
  7.1168927E+003
  6.6325361E+003
  5.9867445E+003
  5.2173715E+003
  4.3679426E+003
  3.4954335E+003
  2.6726136E+003
  1.9910483E+003
  1.4874645E+003
  1.3121266E+003
  1.2479877E+003
  1.1962436E+003
  8.7655257E+002
  4.3173528E+003
  3.9803473E+003
  3.9002923E+003
  4.1799330E+003
  4.7126993E+003
  5.3230299E+003
  5.8713866E+003
  6.2663923E+003
  6.4635294E+003
  6.4514070E+003
  6.2411696E+003
  5.8563534E+003
  5.3269347E+003
  4.6879105E+003
  3.9813213E+003
  3.2584114E+003
  2.5810921E+003
  2.0089819E+003
  1.6199987E+003
  1.4074489E+003
  1.3242849E+003
  1.4506968E+003
  3.9169538E+003
  3.6616902E+003
  3.6216010E+003
  3.8347940E+003
  4.2364618E+003
  4.7079018E+003
  5.1420318E+003
  5.4669124E+003
  5.6423587E+003
  5.6534138E+003
  5.5028260E+003
  5.2052953E+003
  4.7836634E+003
  4.2674331E+003
  3.6929372E+003
  3.1038173E+003
  2.5495822E+003
  2.0822955E+003
  1.7416707E+003
  1.5089901E+003
  1.4112466E+003
  1.1558917E+003
  5.9812716E+002
  7.6696882E+002
  3.5854746E+003
  3.4007016E+003
  3.3757268E+003
  3.5366455E+003
  3.8383656E+003
  4.1989123E+003
  4.5401201E+003
  4.8048861E+003
  4.9587147E+003
  4.9856478E+003
  4.8839383E+003
  4.6623621E+003
  4.3377210E+003
  3.9334612E+003
  3.4790810E+003
  3.0093545E+003
  2.5628187E+003
  2.1750458E+003
  1.8693384E+003
  1.6473133E+003
  1.5075376E+003
  1.3014186E+003
  1.0387788E+003
  3.2992804E+003
  3.1617147E+003
  3.1467695E+003
  3.2672187E+003
  3.4927775E+003
  3.7673817E+003
  4.0343149E+003
  4.2495266E+003
  4.3841757E+003
  4.4230328E+003
  4.3619815E+003
  4.2058061E+003
  3.9664813E+003
  3.6619423E+003
  3.3150227E+003
  2.9518814E+003
  2.5991321E+003
  2.2776253E+003
  1.9970188E+003
  1.7431948E+003
  1.4722228E+003
  1.2159112E+003
  1.4826052E+003
  3.0395975E+003
  2.9371740E+003
  2.9261211E+003
  3.0145219E+003
  3.1819491E+003
  3.3902434E+003
  3.5989374E+003
  3.7745681E+003
  3.8935856E+003
  3.9421488E+003
  3.9150138E+003
  3.8142795E+003
  3.6482220E+003
  3.4302240E+003
  3.1774907E+003
  2.9091284E+003
  2.6416416E+003
  2.3852454E+003
  2.1311080E+003
  1.8704730E+003
  1.5588133E+003
  1.3040972E+003
  1.0634572E+003
  2.7994557E+003
  2.7211757E+003
  2.7094061E+003
  2.7706243E+003
  2.8924146E+003
  3.0495160E+003
  3.2133560E+003
  3.3586061E+003
  3.4660000E+003
  3.5231132E+003
  3.5241964E+003
  3.4695582E+003
  3.3647119E+003
  3.2194178E+003
  3.0465657E+003
  2.8603609E+003
  2.6729771E+003
  2.4858819E+003
  2.2858943E+003
  2.0406025E+003
  1.7515561E+003
  1.4394329E+003
  7.1157932E+002
  1.1366569E+002
  4.5194764E+002
  2.5762033E+003
  2.5115475E+003
  2.4926306E+003
  2.5281795E+003
  2.6128468E+003
  2.7306453E+003
  2.8612668E+003
  2.9848489E+003
  3.0850232E+003
  3.1503790E+003
  3.1749487E+003
  3.1579181E+003
  3.1028116E+003
  3.0164734E+003
  2.9081305E+003
  2.7885212E+003
  2.6687390E+003
  2.5565374E+003
  2.4311105E+003
  2.2400916E+003
  1.8735678E+003
  1.3578439E+003
  9.0519007E+002
  2.8145396E+002
  2.3704927E+003
  2.3046734E+003
  2.2693834E+003
  2.2782795E+003
  2.3321971E+003
  2.4214936E+003
  2.5300701E+003
  2.6408799E+003
  2.7388560E+003
  2.8129988E+003
  2.8573289E+003
  2.8705946E+003
  2.8551681E+003
  2.8156593E+003
  2.7576117E+003
  2.6872366E+003
  2.6120681E+003
  2.5474998E+003
  2.5180115E+003
  2.4381405E+003
  2.1741601E+003
  1.3538831E+003
  6.8141834E+002
  2.1763775E+003
  2.0918246E+003
  2.0279488E+003
  2.0079051E+003
  2.0395037E+003
  2.1120656E+003
  2.2107440E+003
  2.3186564E+003
  2.4203083E+003
  2.5045992E+003
  2.5659042E+003
  2.6034691E+003
  2.6197099E+003
  2.6182165E+003
  2.6018255E+003
  2.5702661E+003
  2.5218932E+003
  2.4540575E+003
  2.4122700E+003
  2.5269198E+003
  2.1511495E+003
  1.3601817E+003
  6.5787145E+002
  1.9893841E+003
  1.8556629E+003
  1.7419179E+003
  1.7034767E+003
  1.7252674E+003
  1.7954157E+003
  1.8982784E+003
  2.0146134E+003
  2.1268040E+003
  2.2231493E+003
  2.2992611E+003
  2.3561960E+003
  2.3979641E+003
  2.4292335E+003
  2.4530762E+003
  2.4687520E+003
  2.4609704E+003
  2.4234934E+003
  2.2629413E+003
  2.3959769E+003
  3.3733192E+003
  2.4229412E+003
  1.9361340E+003
  1.7823479E+003
  1.5159975E+003
  1.3916335E+003
  1.3582005E+003
  1.3846386E+003
  1.4682756E+003
  1.5923867E+003
  1.7305535E+003
  1.8602853E+003
  1.9704541E+003
  2.0592464E+003
  2.1312149E+003
  2.1932908E+003
  2.2532265E+003
  2.3178863E+003
  2.3964428E+003
  2.4863324E+003
  2.5883175E+003
  2.6514329E+003
  2.8578333E+003
  4.3438645E+003
  1.8522562E+003
  1.1690817E+003
  1.0973266E+003
  9.8932404E+002
  9.8059373E+002
  1.0179237E+003
  1.1353794E+003
  1.2995416E+003
  1.4721542E+003
  1.6266597E+003
  1.7510767E+003
  1.8498622E+003
  1.9329729E+003
  2.0107967E+003
  2.0932117E+003
  2.1930567E+003
  2.3277880E+003
  2.5313526E+003
  2.8455025E+003
  3.2648664E+003
  3.3712531E+003
  2.5713982E+003
  1.0427830E+003
  6.1226350E+002
  7.4501352E+002
  5.3452048E+002
  5.9790374E+002
  6.3931547E+002
  8.0599773E+002
  1.0315465E+003
  1.2555140E+003
  1.4345659E+003
  1.5702823E+003
  1.6752862E+003
  1.7671928E+003
  1.8583218E+003
  1.9577589E+003
  2.0766326E+003
  2.2400051E+003
  2.4808791E+003
  2.8786409E+003
  3.5688864E+003
  3.1481955E+003
  1.5408017E+003
  3.4577333E+002
  1.9956857E+002
  2.2763866E+002
  2.9192829E+002
  5.2630840E+002
  8.1416493E+002
  1.0801656E+003
  1.2916607E+003
  1.4304341E+003
  1.5363580E+003
  1.6386579E+003
  1.7474410E+003
  1.8636587E+003
  1.9953402E+003
  2.1490202E+003
  2.3872377E+003
  2.6594077E+003
  3.3136638E+003
  4.3741993E+003
  2.6054512E+003
  6.8468677E+001
  5.8251621E+001
  5.9226106E+001
  2.3245815E+002
  6.5533203E+002
  1.0189615E+003
  1.2090240E+003
  1.3225360E+003
  1.4251973E+003
  1.5509259E+003
  1.6887396E+003
  1.8327463E+003
  1.9840728E+003
  2.1481887E+003
  2.3528979E+003
  2.6617098E+003
  3.6200934E+003
  5.8227311E+003
  1.0451423E+002
  2.1391765E+002
  6.2967584E+002
  9.1396964E+002
  1.1508285E+003
  1.2069374E+003
  1.3417039E+003
  1.5097194E+003
  1.6874050E+003
  1.8722003E+003
  2.0645126E+003
  2.2666770E+003
  2.5056279E+003
  2.7976251E+003
  3.5918050E+003
  5.2792928E+003
  1.0480219E+003
  1.4316251E+003
  1.0943396E+003
  1.1227047E+003
  1.3253307E+003
  1.5242101E+003
  1.7441185E+003
  1.9709895E+003
  2.2120932E+003
  2.4715358E+003
  2.7646781E+003
  3.0483573E+003
  3.2937079E+003
  3.5366524E+003
  1.8515828E+003
  1.2623568E+003
  1.2335358E+003
  1.3951822E+003
  1.6118224E+003
  1.8540056E+003
  2.1091156E+003
  2.3808467E+003
  2.6796751E+003
  3.0062222E+003
  3.3286953E+003
  3.4993396E+003
  2.3735542E+003
  8.2518848E+002
  2.0093317E+003
  1.2046293E+003
  1.3518071E+003
  1.3906059E+003
  1.5462344E+003
  1.7643124E+003
  2.0074296E+003
  2.2660022E+003
  2.5358840E+003
  2.8176648E+003
  3.1169828E+003
  3.4083063E+003
  3.3517435E+003
  2.4401648E+003
  1.1361871E+003
  1.1929585E+003
  1.2397491E+003
  1.5363825E+003
  1.7361507E+003
  1.9536933E+003
  2.1882253E+003
  2.4292293E+003
  2.6637714E+003
  2.8811051E+003
  3.0622643E+003
  3.1962168E+003
  3.2552771E+003
  2.2588190E+003
  8.1010130E+002
  8.0683292E+002
  1.3807765E+003
  1.6871532E+003
  1.9288126E+003
  2.1531784E+003
  2.3782958E+003
  2.5953038E+003
  2.7858823E+003
  2.9151486E+003
  2.9774659E+003
  2.8672433E+003
  2.8991032E+003
  3.1546028E+003
  1.7609599E+003
  3.8064669E+002
  5.4877332E+002
  8.2842114E+002
  1.4675147E+003
  1.8309079E+003
  2.0992113E+003
  2.3396487E+003
  2.5639753E+003
  2.7682108E+003
  2.9301948E+003
  3.0137041E+003
  2.9962955E+003
  2.8852050E+003
  2.9793102E+003
  4.3184291E+003
  6.1505491E+002
  6.2145675E+002
  5.8977483E+002
  9.4912467E+002
  1.4989756E+003
  1.9253153E+003
  2.2372127E+003
  2.4978910E+003
  2.7337208E+003
  2.9444347E+003
  3.1115025E+003
  3.2041913E+003
  3.1889115E+003
  3.1156672E+003
  3.1416640E+003
  3.0835327E+003
  4.3856357E+002
  3.1844411E+002
  8.5998711E+002
  9.3062806E+002
  1.1762221E+003
  1.6101972E+003
  2.0145164E+003
  2.3430373E+003
  2.6218180E+003
  2.8729049E+003
  3.1039798E+003
  3.3055215E+003
  3.4464909E+003
  3.4735548E+003
  3.3463335E+003
  2.8951034E+003
  2.6822707E+003
  1.9806662E+003
  1.2395667E+003
  1.3771761E+003
  1.4242904E+003
  1.7703302E+003
  2.1098747E+003
  2.4250945E+003
  2.7066824E+003
  2.9667240E+003
  3.2134735E+003
  3.4533716E+003
  3.6664129E+003
  3.7488299E+003
  3.5190544E+003
  2.7617631E+003
  2.0117151E+003
  2.4125758E+003
  1.5008098E+003
  1.4717076E+003
  1.6286763E+003
  1.8956430E+003
  2.1897148E+003
  2.4793732E+003
  2.7520416E+003
  3.0103656E+003
  3.2538872E+003
  3.4875350E+003
  3.7544513E+003
  3.9657703E+003
  3.8625271E+003
  2.5374853E+003
  9.1098688E+002
  2.6258419E+003
  2.4500062E+003
  1.7113427E+003
  1.1856103E+003
  1.4425046E+003
  1.6957915E+003
  1.9608678E+003
  2.2352656E+003
  2.5038324E+003
  2.7646416E+003
  3.0174900E+003
  3.2576227E+003
  3.4438839E+003
  3.5826966E+003
  3.9039351E+003
  3.5870741E+003
  2.3219153E+003
  1.0998599E+003
  2.6309036E+003
  2.5973256E+003
  2.1354832E+003
  1.5645705E+003
  1.2578567E+003
  1.3922508E+003
  1.6973498E+003
  1.9840185E+003
  2.2533986E+003
  2.5100868E+003
  2.7591718E+003
  3.0150465E+003
  3.2742163E+003
  3.5520479E+003
  3.5310344E+003
  3.7186966E+003
  5.2408305E+003
  3.8370786E+003
  2.8375587E+003
  2.8089381E+003
  2.3453780E+003
  1.8014808E+003
  1.4122860E+003
  1.2542723E+003
  1.4119915E+003
  1.7037628E+003
  2.0005361E+003
  2.2715726E+003
  2.5212725E+003
  2.7613805E+003
  3.0117223E+003
  3.3175314E+003
  3.7548024E+003
  4.3784798E+003
  4.7525949E+003
  6.1639443E+003
  3.0508730E+003
  3.1402896E+003
  2.5462911E+003
  1.9870321E+003
  1.5812588E+003
  1.2991274E+003
  1.2630111E+003
  1.4532964E+003
  1.7429071E+003
  2.0412562E+003
  2.3170978E+003
  2.5  2.9144054E+003
  3.1683641E+003
  3.4109569E+003
  3.6048690E+003
  3.6378044E+003
  3.6165811E+003
  4.9851154E+003
  2.9387172E+003
  4.1440988E+003
  5.2749732E+003
  4.2285262E+003
  3.3713155E+003
  2.8405722E+003
  2.5021600E+003
  2.2668009E+003
  1.2326989E+003
  1.1921294E+003
  1.5378048E+003
  1.8604547E+003
  2.1309926E+003
  2.3822831E+003
  2.6311059E+003
  2.8874540E+003
  3.1595597E+003
  3.4716039E+003
  3.8476566E+003
  4.2347219E+003
  4.1469125E+003
  3.0979852E+003
  1.7330475E+003
  4.0842228E+003
  4.1353178E+003
  3.2993558E+003
  2.7639334E+003
  2.4734746E+003
  2.3417247E+003
  9.7797116E+002
  1.1632769E+003
  1.4704971E+003
  1.8145365E+003
  2.0955266E+003
  2.3516441E+003
  2.5961209E+003
  2.8446505E+003
  3.1154763E+003
  3.4243267E+003
  3.8487396E+003
  4.5497190E+003
  3.8916031E+003
  1.8274062E+003
  5.2767159E+002
  2.3278043E+002
  7.2773090E+002
  1.2482458E+003
  1.5355933E+003
  1.8249375E+003
  2.0933135E+003
  2.3385476E+003
  2.5732720E+003
  2.8122990E+003
  3.0575704E+003
  3.3599895E+003
  3.5935211E+003
  4.2398492E+003
  5.3541991E+003
  3.1544606E+003
  3.7319065E+002
  8.8877652E+002
  1.3026009E+003
  1.6183472E+003
  1.8801629E+003
  2.1245757E+003
  2.3560351E+003
  2.5824109E+003
  2.8167541E+003
  3.0692508E+003
  3.3746661E+003
  3.7422168E+003
  4.5812629E+003
  7.2026288E+003
  2.9215447E+002
  4.0871312E+002
  5.8826829E+002
  1.0320146E+003
  1.3989084E+003
  1.7016943E+003
  1.9557897E+003
  2.1855674E+003
  2.4062721E+003
  2.6295957E+003
  2.8701645E+003
  3.1532923E+003
  3.5116361E+003
  4.0606116E+003
  4.9958458E+003
  5.3317160E+003
  6.2222320E+002
  7.2211673E+002
  5.9772191E+002
  8.5164760E+002
  1.2040537E+003
  1.5300451E+003
  1.8074018E+003
  2.0493986E+003
  2.2701342E+003
  2.4840313E+003
  2.7054026E+003
  2.9529718E+003
  3.2537972E+003
  3.6513899E+003
  4.1972096E+003
  4.7632139E+003
  5.2696204E+003
  9.4325713E+002
  1.1457903E+003
  8.6716511E+002
  8.6578525E+002
  1.0888788E+003
  1.3934317E+003
  1.6786248E+003
  1.9331989E+003
  2.1609589E+003
  2.3725517E+003
  2.5795264E+003
  2.7950139E+003
  3.0355974E+003
  3.3258482E+003
  3.6992075E+003
  4.1525909E+003
  4.6635050E+003
  5.0101213E+003
  1.5769559E+003
  2.0679856E+003
  1.1491687E+003
  1.1304277E+003
  1.1366668E+003
  1.3469510E+003
  1.5928070E+003
  1.8414241E+003
  2.0717742E+003
  2.2845581E+003
  2.4856831E+003
  2.6834734E+003
  2.8870426E+003
  3.1074159E+003
  3.3574223E+003
  3.6607038E+003
  4.0614051E+003
  4.5182298E+003
  4.9585283E+003
  2.8014575E+003
  4.4805460E+003
  2.9916004E+003
  2.8866717E+003
  3.0039758E+003
  2.4925696E+003
  2.9259640E+003
  1.3758157E+003
  3.9972559E+003
  2.3955153E+003
  1.6208825E+003
  2.7264564E+003
  1.8340140E+003
  1.7950147E+003
  1.5072503E+003
  1.2374219E+003
  1.3025628E+003
  1.3975993E+003
  1.5769841E+003
  1.7896289E+003
  2.0062738E+003
  2.2144433E+003
  2.4117520E+003
  2.6012369E+003
  2.7879239E+003
  2.9773297E+003
  3.1726973E+003
  3.3774759E+003
  3.5899132E+003
  3.8641201E+003
  4.4388861E+003
  4.7445271E+003
  2.2257840E+003
  2.6741368E+003
  3.0859325E+003
  3.2607883E+003
  2.9986074E+003
  3.2368114E+003
  5.2762436E+003
  3.4311042E+003
  3.6361070E+003
  3.0837217E+003
  3.2988544E+003
  2.8144416E+003
  2.7815859E+003
  2.5279159E+003
  2.3942241E+003
  2.2886472E+003
  2.0929092E+003
  2.1316359E+003
  1.9318497E+003
  2.0922718E+003
  1.8988619E+003
  2.1075548E+003
  2.0393592E+003
  2.2352420E+003
  2.1521196E+003
  2.0675927E+003
  3.2508308E+003
  1.7726649E+003
  1.6959431E+003
  1.4090540E+003
  1.3270183E+003
  1.4555413E+003
  1.6030901E+003
  1.7780003E+003
  1.9686489E+003
  2.1622905E+003
  2.3512699E+003
  2.5335562E+003
  2.7105278E+003
  2.8854587E+003
  3.0609762E+003
  3.2401953E+003
  3.4119900E+003
  3.5804002E+003
  3.6611380E+003
  3.9417448E+003
  5.5918786E+003
  1.8211041E+003
  2.1977602E+003
  2.5329028E+003
  2.5928226E+003
  2.4288378E+003
  2.6282836E+003
  2.8900578E+003
  2.9352897E+003
  2.8086136E+003
  2.6069956E+003
  2.3732304E+003
  2.2015359E+003
  2.1005918E+003
  2.0537154E+003
  1.9160043E+003
  1.6518582E+003
  1.4023721E+003
  1.4158814E+003
  1.4374996E+003
  1.4697929E+003
  1.6007140E+003
  1.7703965E+003
  1.9454383E+003
  2.1236844E+003
  2.3007996E+003
  2.4738082E+003
  2.6417565E+003
  2.8055380E+003
  2.9672061E+003
  3.1298839E+003
  3.2960850E+003
  3.4674067E+003
  3.6373522E+003
  3.7283468E+003
  3.7672812E+003
  3.6336721E+003
  1.4215518E+003
  1.7066068E+003
  1.9594405E+003
  2.0849655E+003
  2.1538992E+003
  2.2893381E+003
  2.5130976E+003
  2.6445436E+003
  2.6993478E+003
  2.6816738E+003
  2.4587848E+003
  2.1463200E+003
  2.1129911E+003
  1.9705771E+003
  1.7012789E+003
  1.4938093E+003
  1.3787200E+003
  1.3741722E+003
  1.4635345E+003
  1.5890013E+003
  1.7414905E+003
  1.9119620E+003
  2.0843897E+003
  2.2528986E+003
  2.4169223E+003
  2.5760719E+003
  2.7302939E+003
  2.8799550E+003
  3.0261371E+003
  3.1710425E+003
  3.3197669E+003
  3.4812356E+003
  3.6681615E+003
  3.9061443E+003
  4.0192834E+003
  2.6132115E+003
  5.9092798E+002
  2.0324622E+003
  1.0087364E+003
  1.2192263E+003
  1.4438288E+003
  1.6102141E+003
  1.7058090E+003
  1.8303881E+003
  2.0845021E+003
  2.2676878E+003
  2.4959345E+003
  2.9730502E+003
  2.8418621E+003
  2.5268344E+003
  2.4103615E+003
  1.9343858E+003
  1.5895451E+003
  1.4435463E+003
  1.3823363E+003
  1.4230870E+003
  1.5391775E+003
  1.6949247E+003
  1.8639136E+003
  2.0336447E+003
  2.1984383E+003
  2.3563942E+003
  2.5081275E+003
  2.6545287E+003
  2.7957164E+003
  2.9310901E+003
  3.0595532E+003
  3.1808466E+003
  3.2958466E+003
  3.4137196E+003
  3.5414681E+003
  3.7131810E+003
  3.7948611E+003
  2.5336685E+003
  5.7605396E+002
  7.4236089E+002
  9.3809621E+002
  1.1085077E+003
  1.1375658E+003
  1.0587423E+003
  1.0633158E+003
  1.6989802E+003
  2.9594727E+003
  2.8511418E+003
  4.3748136E+003
  3.6096871E+003
  2.4428272E+003
  2.0868198E+003
  1.5686318E+003
  1.4932867E+003
  1.4161039E+003
  1.4818441E+003
  1.6232021E+003
  1.7966828E+003
  1.9709563E+003
  2.1353915E+003
  2.2888642E+003
  2.4338625E+003
  2.5728329E+003
  2.7072088E+003
  2.8368269E+003
  2.9595638E+003
  3.0718361E+003
  3.1675696E+003
  3.2445291E+003
  3.2873324E+003
  3.3270241E+003
  3.2270739E+003
  3.2636459E+003
  3.2786924E+003
  1.8201740E+003
  4.4484212E+002
  5.3566894E+002
  5.2171728E+002
  1.5729101E+002
  1.9055676E+002
  8.4161892E+002
  2.0825611E+003
  2.2484091E+003
  2.7210842E+003
  1.6092766E+003
  1.5597255E+003
  1.4092450E+003
  1.5231735E+003
  1.7001242E+003
  1.8930676E+003
  2.0654124E+003
  2.2168638E+003
  2.3543367E+003
  2.4838847E+003
  2.6093969E+003
  2.7326916E+003
  2.8531981E+003
  2.9676261E+003
  3.0695160E+003
  3.1496166E+003
  3.1956966E+003
  3.1978163E+003
  3.1485571E+003
  3.0679431E+003
  3.1875173E+003
  4.5748813E+003
  7.6427459E+002
  7.3356063E+002
  2.1064313E+003
  1.7161044E+003
  1.4405023E+003
  1.3606519E+003
  1.5291658E+003
  1.7765914E+003
  1.9879174E+003
  2.1445870E+003
  2.2745750E+003
  2.3918344E+003
  2.5041228E+003
  2.6159531E+003
  2.7293872E+003
  2.8438636E+003
  2.9556037E+003
  3.0568766E+003
  3.1357726E+003
  3.1770730E+003
  3.1694228E+003
  3.1144238E+003
  3.0958457E+003
  3.2885862E+003
  3.3620026E+003
  1.5164153E+003
  1.3847788E+003
  1.2419934E+003
  1.5261851E+003
  1.8915048E+003
  2.0725917E+003
  2.1978406E+003
  2.3015538E+003
  2.3974810E+003
  2.4924765E+003
  2.5910876E+003
  2.6957646E+003
  2.8066682E+003
  2.9207204E+003
  3.0304227E+003
  3.1231177E+003
  3.1811861E+003
  3.1883616E+003
  3.1385293E+003
  3.0764365E+003
  2.9837272E+003
  3.0942484E+003
  1.1976076E+003
  1.2095872E+003
  1.7099611E+003
  2.0000022E+003
  2.1105310E+003
  2.2084225E+003
  2.2907401E+003
  2.3690253E+003
  2.4489523E+003
  2.5352774E+003
  2.6314901E+003
  2.7393645E+003
  2.8577600E+003
  2.9809425E+003
  3.0969202E+003
  3.1852935E+003
  3.2193573E+003
  3.1621179E+003
  2.9950508E+003
  2.7295302E+003
  2.6291672E+003
  1.2283516E+003
  1.5275969E+003
  2.0051040E+003
  2.0512240E+003
  2.1717657E+003
  2.2397674E+003
  2.3095977E+003
  2.3774667E+003
  2.4525502E+003
  2.5391852E+003
  2.6417853E+003
  2.7622745E+003
  2.8979446E+003
  3.0389021E+003
  3.1638030E+003
  3.2350361E+003
  3.1850757E+003
  2.9586710E+003
  2.4487025E+003
  2.1372703E+003
  1.4206671E+003
  1.3912175E+003
  1.7533284E+003
  1.9795702E+003
  2.0820360E+003
  2.1639901E+003
  2.2267616E+003
  2.2872592E+003
  2.3512823E+003
  2.4260856E+003
  2.5183538E+003
  2.6342502E+003
  2.7756823E+003
  2.9350755E+003
  3.0924867E+003
  3.2112462E+003
  3.1914010E+003
  2.9229949E+003
  2.2223952E+003
  1.5723889E+003
  8.4631233E+002
  5.9222732E+002
  1.4102090E+003
  1.5791842E+003
  1.6973728E+003
  1.8780012E+003
  1.9934475E+003
  2.0730858E+003
  2.1357572E+003
  2.1902014E+003
  2.2441396E+003
  2.3045959E+003
  2.3801793E+003
  2.4811029E+003
  2.6170709E+003
  2.7862323E+003
  2.9594329E+003
  3.1093266E+003
  3.1759852E+003
  2.9985459E+003
  1.9394928E+003
  6.8975390E+002
  2.1042325E+003
  1.7111622E+003
  1.7943750E+003
  1.7130768E+003
  1.8215993E+003
  1.9083088E+003
  1.9871107E+003
  2.0483146E+003
  2.0998102E+003
  2.1454919E+003
  2.1914058E+003
  2.2456202E+003
  2.3207923E+003
  2.4341073E+003
  2.6058549E+003
  2.8085207E+003
  2.9269367E+003
  2.9344155E+003
  2.5855821E+003
  1.7265206E+003
  7.9396188E+002
  2.3904558E+003
  1.7066927E+003
  1.6466518E+003
  1.7121921E+003
  1.7589461E+003
  1.8393316E+003
  1.9120681E+003
  1.9752807E+003
  2.0266132E+003
  2.0684325E+003
  2.1038244E+003
  2.1384557E+003
  2.1822006E+003
  2.2576031E+003
  2.3956061E+003
  2.6862159E+003
  2.9510993E+003
  3.1322723E+003
  3.7081648E+003
  2.4092573E+003
  1.3026619E+003
  2.0976347E+003
  1.9403279E+003
  1.8091155E+003
  1.5790372E+003
  1.6459926E+003
  1.7036000E+003
  1.7811833E+003
  1.8557222E+003
  1.9221756E+003
  1.9771334E+003
  2.0206878E+003
  2.0540794E+003
  2.0796352E+003
  2.1025025E+003
  2.1352914E+003
  2.2161085E+003
  2.4365412E+003
  3.1237167E+003
  3.3517199E+003
  3.0926306E+003
  2.7823319E+003
  1.9512533E+003
  1.6768088E+003
  1.5997796E+003
  1.5969325E+003
  1.6671417E+003
  1.7443378E+003
  1.8221444E+003
  1.8922773E+003
  1.9525335E+003
  2.0024295E+003
  2.0432292E+003
  2.0752057E+003
  2.1044563E+003
  2.1207000E+003
  2.1930554E+003
  2.2076993E+003
  3.0007033E+003
  4.6998376E+003
  2.7838622E+003
  2.3087267E+003
  2.1164551E+003
  1.6872620E+003
  1.5688290E+003
  1.5535629E+003
  1.5724318E+003
  1.6037418E+003
  1.6639733E+003
  1.7391796E+003
  1.8149406E+003
  1.8858204E+003
  1.9495981E+003
  2.0067682E+003
  2.0592704E+003
  2.1107212E+003
  2.1637019E+003
  2.2287778E+003
  2.3048117E+003
  2.4779664E+003
  2.9734336E+003
  6.0581788E+003
  1.4872144E+003
  1.0475116E+003
  1.9667455E+003
  1.8714956E+003
  1.7627313E+003
  1.6438459E+003
  1.6302664E+003
  1.6571470E+003
  1.7060250E+003
  1.7681039E+003
  1.8346956E+003
  1.8999790E+003
  1.9621800E+003
  2.0224080E+003
  2.0839367E+003
  2.1529434E+003
  2.2350065E+003
  2.3484833E+003
  2.4797278E+003
  2.7413384E+003
  2.9786304E+003
  2.7898630E+003
  2.1526951E+003
  2.1652164E+003
  2.0534425E+003
  1.9167998E+003
  1.8199169E+003
  1.7652049E+003
  1.7599118E+003
  1.7848352E+003
  1.8265688E+003
  1.8764758E+003
  1.9291509E+003
  1.9826011E+003
  2.0379757E+003
  2.0991529E+003
  2.1725065E+003
  2.2670693E+003
  2.3929557E+003
  2.5563221E+003
  2.7387655E+003
  2.7336226E+003
  1.8433238E+003
  5.7987092E+002
  1.5890669E+003
  2.1954103E+003
  2.2554554E+003
  2.1967650E+003
  2.0856131E+003
  1.9826687E+003
  1.9159995E+003
  1.8855275E+003
  1.8846206E+003
  1.9027399E+003
  1.9315250E+003
  1.9657541E+003
  2.0032807E+003
  2.0448194E+003
  2.0934822E+003
  2.1544536E+003
  2.2339532E+003
  2.3380480E+003
  2.4606817E+003
  2.5348128E+003
  2.3285620E+003
  1.6566938E+003
  9.1758553E+002
  2.2505886E+003
  2.2846114E+003
  2.2581489E+003
  2.1901808E+003
  2.1124861E+003
  2.0482605E+003
  2.0069736E+003
  1.9872190E+003
  1.9835459E+003
  1.9899483E+003
  2.0021226E+003
  2.0181336E+003
  2.0382457E+003
  2.0643594E+003
  2.0988879E+003
  2.1441464E+003
  2.1983419E+003
  2.2534563E+003
  2.2669502E+003
  2.1001449E+003
  1.5109577E+003
  8.8411402E+002
  2.2207428E+003
  2.2801168E+003
  2.2851686E+003
  2.2529838E+003
  2.2031534E+003
  2.1525475E+003
  2.1106458E+003
  2.0799961E+003
  2.0587602E+003
  2.0437216E+003
  2.0322667E+003
  2.0233405E+003
  2.0174182E+003
  2.0155639E+003
  2.0181992E+003
  2.0224961E+003
  2.0233594E+003
  2.0057300E+003
  1.9693833E+003
  1.9463355E+003
  1.4111674E+003
  5.2181248E+002
  2.1819013E+003
  2.2544829E+003
  2.2864280E+003
  2.2852772E+003
  2.2626049E+003
  2.2293670E+003
  2.1932169E+003
  2.1576186E+003
  2.1229228E+003
  2.0881738E+003
  2.0527521E+003
  2.0173031E+003
  1.9835845E+003
  1.9536186E+003
  1.9266843E+003
  1.9005666E+003
  1.8582612E+003
  1.8111225E+003
  1.6793508E+003
  1.6879914E+003
  1.8589350E+003
  1.0453928E+003
  2.1324667E+003
  2.2185167E+003
  2.2721444E+003
  2.2969715E+003
  2.2987912E+003
  2.2837660E+003
  2.2566331E+003
  2.2200431E+003
  2.1749971E+003
  2.1220459E+003
  2.0626148E+003
  1.9997889E+003
  1.9381928E+003
  1.8823921E+003
  1.8348996E+003
  1.7915612E+003
  1.7463464E+003
  1.6829226E+003
  1.6285889E+003
  1.6747428E+003
  2.3893995E+003
  2.1759601E+003
  2.2471975E+003
  2.2940270E+003
  2.3180469E+003
  2.3212348E+003
  2.3050717E+003
  2.2702311E+003
  2.2170795E+003
  2.1468233E+003
  2.0627768E+003
  1.9712186E+003
  1.8810374E+003
  1.8018444E+003
  1.7405739E+003
  1.6975806E+003
  1.6659169E+003
  1.6334556E+003
  1.6269938E+003
  1.6871895E+003
  1.6218186E+003
  2.2142153E+003
  2.2800875E+003
  2.3246794E+003
  2.3463523E+003
  2.3430567E+003
  2.3125226E+003
  2.2532262E+003
  2.1659497E+003
  2.0556337E+003
  1.9322952E+003
  1.8106617E+003
  1.7072898E+003
  1.6357084E+003
  1.6003690E+003
  1.5945037E+003
  1.5948685E+003
  1.5849244E+003
  1.4958640E+003
  1.4636648E+003
  2.2567608E+003
  2.3210258E+003
  2.3621683E+003
  2.3744191E+003
  2.3515691E+003
  2.2886067E+003
  2.1845624E+003
  2.0450036E+003
  1.8844318E+003
  1.7252449E+003
  1.5934564E+003
  1.5104735E+003
  1.4840429E+003
  1.5064404E+003
  1.5447356E+003
  1.5294520E+003
  1.3591441E+003
  1.2058431E+003
  2.3074975E+003
  2.3697375E+003
  2.4014755E+003
  2.3914212E+003
  2.3290853E+003
  2.2087428E+003
  2.0361994E+003
  1.8302802E+003
  1.6238373E+003
  1.4567779E+003
  1.3613964E+003
  1.3439232E+003
  1.3888770E+003
  1.4683048E+003
  1.5244504E+003
  1.3196905E+003
  9.6368117E+002
  2.3675574E+003
  2.4238731E+003
  2.4345844E+003
  2.3800200E+003
  2.2476921E+003
  2.0369385E+003
  1.7737614E+003
  1.5062653E+003
  1.2957974E+003
  1.1921920E+003
  1.1963146E+003
  1.2566649E+003
  1.3353621E+003
  1.4681631E+003
  1.2070903E+003
  5.2481180E+002
  2.3511268E+003
  2.4369757E+003
  2.4791730E+003
  2.4469221E+003
  2.3051813E+003
  2.0545857E+003
  1.7201200E+003
  1.3707230E+003
  1.1070519E+003
  1.0130297E+003
  1.0659168E+003
  1.1795851E+003
  1.2051088E+003
  1.3130737E+003
  1.5851246E+003
  9.0990045E+002
  2.4288619E+003
  2.5166152E+003
  2.5243042E+003
  2.4080726E+003
  2.1077602E+003
  1.6732269E+003
  1.2142338E+003
  8.8412094E+002
  8.3296881E+002
  9.9023255E+002
  1.1784797E+003
  1.3043885E+003
  1.3694031E+003
  1.9615634E+003
  2.5150160E+003
  2.6130678E+003
  2.4908192E+003
  2.1690815E+003
  1.6331455E+003
  1.0136984E+003
  6.2294081E+002
  6.9919580E+002
  9.7436859E+002
  1.2497085E+003
  1.5042918E+003
  1.5452403E+003
  1.2120240E+003
  2.6064198E+003
  2.7542549E+003
  2.3620988E+003
  1.5935461E+003
  7.6574140E+002
  3.7139639E+002
  7.0698407E+002
  1.0277935E+003
  1.2857310E+003
  1.5982523E+003
  1.4438161E+003
  7.2416499E+002
  2.1578071E+003
  1.8623070E+003
  1.3216096E+003
  2.8288515E+002
  4.7866768E+002
  8.5359002E+002
  1.1663133E+003
  1.3152568E+003
  1.4773597E+003
  1.9236701E+003
  1.1473148E+003
  2.0411170E+003
  1.3391223E+003
  2.0143799E+003
  6.1516482E+002
  7.7460394E+002
  1.0119130E+003
  1.3131254E+003
  1.6237687E+003
  1.7901516E+003
  2.3506798E+003
  2.0480711E+003
  8.5319584E+002
  9.4023590E+002
  1.0854243E+003
  1.3425898E+003
  1.7700450E+003
  1.8845224E+003
  9.6126842E+002
  1.0596614E+003
  6.5798546E+002
  8.8517487E+002
  1.1828372E+003
  1.3471435E+003
  1.6399788E+003
  2.3831647E+003
  1.4840887E+003
  5.4108913E+002
  5.2381178E+002
  8.9443713E+002
  1.1837487E+003
  1.6663772E+003
  1.9333977E+003
  2.7293181E+003
  3.9814977E+002
  1.8478727E+002
  2.7088830E+002
  6.2180632E+002
  8.9162098E+002
  1.1421782E+003
  1.6132108E+003
  1.8788088E+003
  9.9347617E+002
  1.4423318E+002
  3.1008936E+002
  6.6724285E+002
  9.7526869E+002
  1.1317612E+003
  1.4430531E+003
  2.2349815E+003
  1.4034412E+003
  1.3529626E+003
  1.4767067E+003
  2.3752134E+003
