# vtk DataFile Version 3.0
ElmerSolver output; started at 2023/07/06 13:55:16
ASCII
DATASET UNSTRUCTURED_GRID
POINTS 9030 double
 -4.7000000E-001  1.0000000E-002 0.0
 -4.6500000E-001  1.0000000E-002 0.0
 -4.6500000E-001  1.5000000E-002 0.0
 -4.7000000E-001  1.5000000E-002 0.0
 -4.6500000E-001  2.0000000E-002 0.0
 -4.7000000E-001  2.0000000E-002 0.0
 -4.6500000E-001  2.5000000E-002 0.0
 -4.7000000E-001  2.5000000E-002 0.0
 -4.6500000E-001  3.0000000E-002 0.0
 -4.7000000E-001  3.0000000E-002 0.0
 -4.6500000E-001  3.5000000E-002 0.0
 -4.7000000E-001  3.5000000E-002 0.0
 -4.6500000E-001 -5.0000000E-002 0.0
 -4.6000000E-001 -5.0000000E-002 0.0
 -4.6000000E-001 -4.5000000E-002 0.0
 -4.6500000E-001 -4.5000000E-002 0.0
 -4.6000000E-001 -4.0000000E-002 0.0
 -4.6500000E-001 -4.0000000E-002 0.0
 -4.6000000E-001 -3.5000000E-002 0.0
 -4.6500000E-001 -3.5000000E-002 0.0
 -4.6000000E-001 -3.0000000E-002 0.0
 -4.6500000E-001 -3.0000000E-002 0.0
 -4.6000000E-001 -2.5000000E-002 0.0
 -4.6500000E-001 -2.5000000E-002 0.0
 -4.6000000E-001 -2.0000000E-002 0.0
 -4.6500000E-001 -2.0000000E-002 0.0
 -4.6000000E-001 -1.5000000E-002 0.0
 -4.6500000E-001 -1.5000000E-002 0.0
 -4.6000000E-001 -1.0000000E-002 0.0
 -4.6500000E-001 -1.0000000E-002 0.0
 -4.6000000E-001 -5.0000000E-003 0.0
 -4.6500000E-001 -5.0000000E-003 0.0
 -4.6000000E-001  0.0000000E+000 0.0
 -4.6500000E-001  0.0000000E+000 0.0
 -4.6000000E-001  5.0000000E-003 0.0
 -4.6500000E-001  5.0000000E-003 0.0
 -4.6000000E-001  1.0000000E-002 0.0
 -4.6000000E-001  1.5000000E-002 0.0
 -4.6000000E-001  2.0000000E-002 0.0
 -4.6000000E-001  2.5000000E-002 0.0
 -4.6000000E-001  3.0000000E-002 0.0
 -4.6000000E-001  3.5000000E-002 0.0
 -4.6000000E-001  4.0000000E-002 0.0
 -4.6500000E-001  4.0000000E-002 0.0
 -4.6000000E-001  4.5000000E-002 0.0
 -4.6500000E-001  4.5000000E-002 0.0
 -4.6000000E-001  5.0000000E-002 0.0
 -4.6500000E-001  5.0000000E-002 0.0
 -4.5500000E-001 -5.0000000E-002 0.0
 -4.5500000E-001 -4.5000000E-002 0.0
 -4.5500000E-001 -4.0000000E-002 0.0
 -4.5500000E-001 -3.5000000E-002 0.0
 -4.5500000E-001 -3.0000000E-002 0.0
 -4.5500000E-001 -2.5000000E-002 0.0
 -4.5500000E-001 -2.0000000E-002 0.0
 -4.5500000E-001 -1.5000000E-002 0.0
 -4.5500000E-001 -1.0000000E-002 0.0
 -4.5500000E-001 -5.0000000E-003 0.0
 -4.5500000E-001  0.0000000E+000 0.0
 -4.5500000E-001  5.0000000E-003 0.0
 -4.5500000E-001  1.0000000E-002 0.0
 -4.5500000E-001  1.5000000E-002 0.0
 -4.5500000E-001  2.0000000E-002 0.0
 -4.5500000E-001  2.5000000E-002 0.0
 -4.5500000E-001  3.0000000E-002 0.0
 -4.5500000E-001  3.5000000E-002 0.0
 -4.5500000E-001  4.0000000E-002 0.0
 -4.5500000E-001  4.5000000E-002 0.0
 -4.5500000E-001  5.0000000E-002 0.0
 -4.5500000E-001  5.5000000E-002 0.0
 -4.6000000E-001  5.5000000E-002 0.0
 -4.5500000E-001  6.0000000E-002 0.0
 -4.6000000E-001  6.0000000E-002 0.0
 -4.5500000E-001 -5.5000000E-002 0.0
 -4.5000000E-001 -5.5000000E-002 0.0
 -4.5000000E-001 -5.0000000E-002 0.0
 -4.5000000E-001 -4.5000000E-002 0.0
 -4.5000000E-001 -4.0000000E-002 0.0
 -4.5000000E-001 -3.5000000E-002 0.0
 -4.5000000E-001 -3.0000000E-002 0.0
 -4.5000000E-001 -2.5000000E-002 0.0
 -4.5000000E-001 -2.0000000E-002 0.0
 -4.5000000E-001 -1.5000000E-002 0.0
 -4.5000000E-001 -1.0000000E-002 0.0
 -4.5000000E-001 -5.0000000E-003 0.0
 -4.5000000E-001  0.0000000E+000 0.0
 -4.5000000E-001  5.0000000E-003 0.0
 -4.5000000E-001  1.0000000E-002 0.0
 -4.5000000E-001  1.5000000E-002 0.0
 -4.5000000E-001  2.0000000E-002 0.0
 -4.5000000E-001  2.5000000E-002 0.0
 -4.5000000E-001  3.0000000E-002 0.0
 -4.5000000E-001  3.5000000E-002 0.0
 -4.5000000E-001  4.0000000E-002 0.0
 -4.5000000E-001  4.5000000E-002 0.0
 -4.5000000E-001  5.0000000E-002 0.0
 -4.5000000E-001  5.5000000E-002 0.0
 -4.5000000E-001  6.0000000E-002 0.0
 -4.5000000E-001  6.5000000E-002 0.0
 -4.5500000E-001  6.5000000E-002 0.0
 -4.4500000E-001 -5.5000000E-002 0.0
 -4.4500000E-001 -5.0000000E-002 0.0
 -4.4500000E-001 -4.5000000E-002 0.0
 -4.4500000E-001 -4.0000000E-002 0.0
 -4.4500000E-001 -3.5000000E-002 0.0
 -4.4500000E-001 -3.0000000E-002 0.0
 -4.4500000E-001 -2.5000000E-002 0.0
 -4.4500000E-001 -2.0000000E-002 0.0
 -4.4500000E-001 -1.5000000E-002 0.0
 -4.4500000E-001 -1.0000000E-002 0.0
 -4.4500000E-001 -5.0000000E-003 0.0
 -4.4500000E-001  0.0000000E+000 0.0
 -4.4500000E-001  5.0000000E-003 0.0
 -4.4500000E-001  1.0000000E-002 0.0
 -4.4500000E-001  1.5000000E-002 0.0
 -4.4500000E-001  2.0000000E-002 0.0
 -4.4500000E-001  2.5000000E-002 0.0
 -4.4500000E-001  3.0000000E-002 0.0
 -4.4500000E-001  3.5000000E-002 0.0
 -4.4500000E-001  4.0000000E-002 0.0
 -4.4500000E-001  4.5000000E-002 0.0
 -4.4500000E-001  5.0000000E-002 0.0
 -4.4500000E-001  5.5000000E-002 0.0
 -4.4500000E-001  6.0000000E-002 0.0
 -4.4500000E-001  6.5000000E-002 0.0
 -4.4000000E-001 -5.5000000E-002 0.0
 -4.4000000E-001 -5.0000000E-002 0.0
 -4.4000000E-001 -4.5000000E-002 0.0
 -4.4000000E-001 -4.0000000E-002 0.0
 -4.4000000E-001 -3.5000000E-002 0.0
 -4.4000000E-001 -3.0000000E-002 0.0
 -4.4000000E-001 -2.5000000E-002 0.0
 -4.4000000E-001 -2.0000000E-002 0.0
 -4.4000000E-001 -1.5000000E-002 0.0
 -4.4000000E-001 -1.0000000E-002 0.0
 -4.4000000E-001 -5.0000000E-003 0.0
 -4.4000000E-001  0.0000000E+000 0.0
 -4.4000000E-001  5.0000000E-003 0.0
 -4.4000000E-001  1.0000000E-002 0.0
 -4.4000000E-001  1.5000000E-002 0.0
 -4.4000000E-001  2.0000000E-002 0.0
 -4.4000000E-001  2.5000000E-002 0.0
 -4.4000000E-001  3.0000000E-002 0.0
 -4.4000000E-001  3.5000000E-002 0.0
 -4.4000000E-001  4.0000000E-002 0.0
 -4.4000000E-001  4.5000000E-002 0.0
 -4.4000000E-001  5.0000000E-002 0.0
 -4.4000000E-001  5.5000000E-002 0.0
 -4.4000000E-001  6.0000000E-002 0.0
 -4.4000000E-001  6.5000000E-002 0.0
 -4.4000000E-001  7.0000000E-002 0.0
 -4.4500000E-001  7.0000000E-002 0.0
 -4.4000000E-001  7.5000000E-002 0.0
 -4.4500000E-001  7.5000000E-002 0.0
 -4.4000000E-001 -6.0000000E-002 0.0
 -4.3500000E-001 -6.0000000E-002 0.0
 -4.3500000E-001 -5.5000000E-002 0.0
 -4.3500000E-001 -5.0000000E-002 0.0
 -4.3500000E-001 -4.5000000E-002 0.0
 -4.3500000E-001 -4.0000000E-002 0.0
 -4.3500000E-001 -3.5000000E-002 0.0
 -4.3500000E-001 -3.0000000E-002 0.0
 -4.3500000E-001 -2.5000000E-002 0.0
 -4.3500000E-001 -2.0000000E-002 0.0
 -4.3500000E-001 -1.5000000E-002 0.0
 -4.3500000E-001 -1.0000000E-002 0.0
 -4.3500000E-001 -5.0000000E-003 0.0
 -4.3500000E-001  0.0000000E+000 0.0
 -4.3500000E-001  5.0000000E-003 0.0
 -4.3500000E-001  1.0000000E-002 0.0
 -4.3500000E-001  1.5000000E-002 0.0
 -4.3500000E-001  2.0000000E-002 0.0
 -4.3500000E-001  2.5000000E-002 0.0
 -4.3500000E-001  3.0000000E-002 0.0
 -4.3500000E-001  3.5000000E-002 0.0
 -4.3500000E-001  4.0000000E-002 0.0
 -4.3500000E-001  4.5000000E-002 0.0
 -4.3500000E-001  5.0000000E-002 0.0
 -4.3500000E-001  5.5000000E-002 0.0
 -4.3500000E-001  6.0000000E-002 0.0
 -4.3500000E-001  6.5000000E-002 0.0
 -4.3500000E-001  7.0000000E-002 0.0
 -4.3500000E-001  7.5000000E-002 0.0
 -4.3500000E-001  8.0000000E-002 0.0
 -4.4000000E-001  8.0000000E-002 0.0
 -4.3500000E-001  8.5000000E-002 0.0
 -4.4000000E-001  8.5000000E-002 0.0
 -4.3000000E-001 -6.0000000E-002 0.0
 -4.3000000E-001 -5.5000000E-002 0.0
 -4.3000000E-001 -5.0000000E-002 0.0
 -4.3000000E-001 -4.5000000E-002 0.0
 -4.3000000E-001 -4.0000000E-002 0.0
 -4.3000000E-001 -3.5000000E-002 0.0
 -4.3000000E-001 -3.0000000E-002 0.0
 -4.3000000E-001 -2.5000000E-002 0.0
 -4.3000000E-001 -2.0000000E-002 0.0
 -4.3000000E-001 -1.5000000E-002 0.0
 -4.3000000E-001 -1.0000000E-002 0.0
 -4.3000000E-001 -5.0000000E-003 0.0
 -4.3000000E-001  0.0000000E+000 0.0
 -4.3000000E-001  5.0000000E-003 0.0
 -4.3000000E-001  1.0000000E-002 0.0
 -4.3000000E-001  1.5000000E-002 0.0
 -4.3000000E-001  2.0000000E-002 0.0
 -4.3000000E-001  2.5000000E-002 0.0
 -4.3000000E-001  3.0000000E-002 0.0
 -4.3000000E-001  3.5000000E-002 0.0
 -4.3000000E-001  4.0000000E-002 0.0
 -4.3000000E-001  4.5000000E-002 0.0
 -4.3000000E-001  5.0000000E-002 0.0
 -4.3000000E-001  5.5000000E-002 0.0
 -4.3000000E-001  6.0000000E-002 0.0
 -4.3000000E-001  6.5000000E-002 0.0
 -4.3000000E-001  7.0000000E-002 0.0
 -4.3000000E-001  7.5000000E-002 0.0
 -4.3000000E-001  8.0000000E-002 0.0
 -4.3000000E-001  8.5000000E-002 0.0
 -4.3000000E-001  9.0000000E-002 0.0
 -4.3500000E-001  9.0000000E-002 0.0
 -4.3000000E-001  9.5000000E-002 0.0
 -4.3500000E-001  9.5000000E-002 0.0
 -4.3000000E-001 -6.5000000E-002 0.0
 -4.2500000E-001 -6.5000000E-002 0.0
 -4.2500000E-001 -6.0000000E-002 0.0
 -4.2500000E-001 -5.5000000E-002 0.0
 -4.2500000E-001 -5.0000000E-002 0.0
 -4.2500000E-001 -4.5000000E-002 0.0
 -4.2500000E-001 -4.0000000E-002 0.0
 -4.2500000E-001 -3.5000000E-002 0.0
 -4.2500000E-001 -3.0000000E-002 0.0
 -4.2500000E-001 -2.5000000E-002 0.0
 -4.2500000E-001 -2.0000000E-002 0.0
 -4.2500000E-001 -1.5000000E-002 0.0
 -4.2500000E-001 -1.0000000E-002 0.0
 -4.2500000E-001 -5.0000000E-003 0.0
 -4.2500000E-001  0.0000000E+000 0.0
 -4.2500000E-001  5.0000000E-003 0.0
 -4.2500000E-001  1.0000000E-002 0.0
 -4.2500000E-001  1.5000000E-002 0.0
 -4.2500000E-001  2.0000000E-002 0.0
 -4.2500000E-001  2.5000000E-002 0.0
 -4.2500000E-001  3.0000000E-002 0.0
 -4.2500000E-001  3.5000000E-002 0.0
 -4.2500000E-001  4.0000000E-002 0.0
 -4.2500000E-001  4.5000000E-002 0.0
 -4.2500000E-001  5.0000000E-002 0.0
 -4.2500000E-001  5.5000000E-002 0.0
 -4.2500000E-001  6.0000000E-002 0.0
 -4.2500000E-001  6.5000000E-002 0.0
 -4.2500000E-001  7.0000000E-002 0.0
 -4.2500000E-001  7.5000000E-002 0.0
 -4.2500000E-001  8.0000000E-002 0.0
 -4.2500000E-001  8.5000000E-002 0.0
 -4.2500000E-001  9.0000000E-002 0.0
 -4.2500000E-001  9.5000000E-002 0.0
 -4.2500000E-001  1.0000000E-001 0.0
 -4.3000000E-001  1.0000000E-001 0.0
 -4.2500000E-001  1.0500000E-001 0.0
 -4.3000000E-001  1.0500000E-001 0.0
 -4.2000000E-001 -6.5000000E-002 0.0
 -4.2000000E-001 -6.0000000E-002 0.0
 -4.2000000E-001 -5.5000000E-002 0.0
 -4.2000000E-001 -5.0000000E-002 0.0
 -4.2000000E-001 -4.5000000E-002 0.0
 -4.2000000E-001 -4.0000000E-002 0.0
 -4.2000000E-001 -3.5000000E-002 0.0
 -4.2000000E-001 -3.0000000E-002 0.0
 -4.2000000E-001 -2.5000000E-002 0.0
 -4.2000000E-001 -2.0000000E-002 0.0
 -4.2000000E-001 -1.5000000E-002 0.0
 -4.2000000E-001 -1.0000000E-002 0.0
 -4.2000000E-001 -5.0000000E-003 0.0
 -4.2000000E-001  0.0000000E+000 0.0
 -4.2000000E-001  5.0000000E-003 0.0
 -4.2000000E-001  1.0000000E-002 0.0
 -4.2000000E-001  1.5000000E-002 0.0
 -4.2000000E-001  2.0000000E-002 0.0
 -4.2000000E-001  2.5000000E-002 0.0
 -4.2000000E-001  3.0000000E-002 0.0
 -4.2000000E-001  3.5000000E-002 0.0
 -4.2000000E-001  4.0000000E-002 0.0
 -4.2000000E-001  4.5000000E-002 0.0
 -4.2000000E-001  5.0000000E-002 0.0
 -4.2000000E-001  5.5000000E-002 0.0
 -4.2000000E-001  6.0000000E-002 0.0
 -4.2000000E-001  6.5000000E-002 0.0
 -4.2000000E-001  7.0000000E-002 0.0
 -4.2000000E-001  7.5000000E-002 0.0
 -4.2000000E-001  8.0000000E-002 0.0
 -4.2000000E-001  8.5000000E-002 0.0
 -4.2000000E-001  9.0000000E-002 0.0
 -4.2000000E-001  9.5000000E-002 0.0
 -4.2000000E-001  1.0000000E-001 0.0
 -4.2000000E-001  1.0500000E-001 0.0
 -4.2000000E-001  1.1000000E-001 0.0
 -4.2500000E-001  1.1000000E-001 0.0
 -4.2000000E-001  1.1500000E-001 0.0
 -4.2500000E-001  1.1500000E-001 0.0
 -4.1500000E-001 -6.0000000E-002 0.0
 -4.1500000E-001 -5.5000000E-002 0.0
 -4.1500000E-001 -5.0000000E-002 0.0
 -4.1500000E-001 -4.5000000E-002 0.0
 -4.1500000E-001 -4.0000000E-002 0.0
 -4.1500000E-001 -3.5000000E-002 0.0
 -4.1500000E-001 -3.0000000E-002 0.0
 -4.1500000E-001 -2.5000000E-002 0.0
 -4.1500000E-001 -2.0000000E-002 0.0
 -4.1500000E-001 -1.5000000E-002 0.0
 -4.1500000E-001 -1.0000000E-002 0.0
 -4.1500000E-001 -5.0000000E-003 0.0
 -4.1500000E-001  0.0000000E+000 0.0
 -4.1500000E-001  5.0000000E-003 0.0
 -4.1500000E-001  1.0000000E-002 0.0
 -4.1500000E-001  1.5000000E-002 0.0
 -4.1500000E-001  2.0000000E-002 0.0
 -4.1500000E-001  2.5000000E-002 0.0
 -4.1500000E-001  3.0000000E-002 0.0
 -4.1500000E-001  3.5000000E-002 0.0
 -4.1500000E-001  4.0000000E-002 0.0
 -4.1500000E-001  4.5000000E-002 0.0
 -4.1500000E-001  5.0000000E-002 0.0
 -4.1500000E-001  5.5000000E-002 0.0
 -4.1500000E-001  6.0000000E-002 0.0
 -4.1500000E-001  6.5000000E-002 0.0
 -4.1500000E-001  7.0000000E-002 0.0
 -4.1500000E-001  7.5000000E-002 0.0
 -4.1500000E-001  8.0000000E-002 0.0
 -4.1500000E-001  8.5000000E-002 0.0
 -4.1500000E-001  9.0000000E-002 0.0
 -4.1500000E-001  9.5000000E-002 0.0
 -4.1500000E-001  1.0000000E-001 0.0
 -4.1500000E-001  1.0500000E-001 0.0
 -4.1500000E-001  1.1000000E-001 0.0
 -4.1500000E-001  1.1500000E-001 0.0
 -4.1500000E-001  1.2000000E-001 0.0
 -4.2000000E-001  1.2000000E-001 0.0
 -4.1000000E-001 -5.5000000E-002 0.0
 -4.1000000E-001 -5.0000000E-002 0.0
 -4.1000000E-001 -4.5000000E-002 0.0
 -4.1000000E-001 -4.0000000E-002 0.0
 -4.1000000E-001 -3.5000000E-002 0.0
 -4.1000000E-001 -3.0000000E-002 0.0
 -4.1000000E-001 -2.5000000E-002 0.0
 -4.1000000E-001 -2.0000000E-002 0.0
 -4.1000000E-001 -1.5000000E-002 0.0
 -4.1000000E-001 -1.0000000E-002 0.0
 -4.1000000E-001 -5.0000000E-003 0.0
 -4.1000000E-001  0.0000000E+000 0.0
 -4.1000000E-001  5.0000000E-003 0.0
 -4.1000000E-001  1.0000000E-002 0.0
 -4.1000000E-001  1.5000000E-002 0.0
 -4.1000000E-001  2.0000000E-002 0.0
 -4.1000000E-001  2.5000000E-002 0.0
 -4.1000000E-001  3.0000000E-002 0.0
 -4.1000000E-001  3.5000000E-002 0.0
 -4.1000000E-001  4.0000000E-002 0.0
 -4.1000000E-001  4.5000000E-002 0.0
 -4.1000000E-001  5.0000000E-002 0.0
 -4.1000000E-001  5.5000000E-002 0.0
 -4.1000000E-001  6.0000000E-002 0.0
 -4.1000000E-001  6.5000000E-002 0.0
 -4.1000000E-001  7.0000000E-002 0.0
 -4.1000000E-001  7.5000000E-002 0.0
 -4.1000000E-001  8.0000000E-002 0.0
 -4.1000000E-001  8.5000000E-002 0.0
 -4.1000000E-001  9.0000000E-002 0.0
 -4.1000000E-001  9.5000000E-002 0.0
 -4.1000000E-001  1.0000000E-001 0.0
 -4.1000000E-001  1.0500000E-001 0.0
 -4.1000000E-001  1.1000000E-001 0.0
 -4.1000000E-001  1.1500000E-001 0.0
 -4.1000000E-001  1.2000000E-001 0.0
 -4.1000000E-001  1.2500000E-001 0.0
 -4.1500000E-001  1.2500000E-001 0.0
 -4.0500000E-001 -5.0000000E-002 0.0
 -4.0500000E-001 -4.5000000E-002 0.0
 -4.0500000E-001 -4.0000000E-002 0.0
 -4.0500000E-001 -3.5000000E-002 0.0
 -4.0500000E-001 -3.0000000E-002 0.0
 -4.0500000E-001 -2.5000000E-002 0.0
 -4.0500000E-001 -2.0000000E-002 0.0
 -4.0500000E-001 -1.5000000E-002 0.0
 -4.0500000E-001 -1.0000000E-002 0.0
 -4.0500000E-001 -5.0000000E-003 0.0
 -4.0500000E-001  0.0000000E+000 0.0
 -4.0500000E-001  5.0000000E-003 0.0
 -4.0500000E-001  1.0000000E-002 0.0
 -4.0500000E-001  1.5000000E-002 0.0
 -4.0500000E-001  2.0000000E-002 0.0
 -4.0500000E-001  2.5000000E-002 0.0
 -4.0500000E-001  3.0000000E-002 0.0
 -4.0500000E-001  3.5000000E-002 0.0
 -4.0500000E-001  4.0000000E-002 0.0
 -4.0500000E-001  4.5000000E-002 0.0
 -4.0500000E-001  5.0000000E-002 0.0
 -4.0500000E-001  5.5000000E-002 0.0
 -4.0500000E-001  6.0000000E-002 0.0
 -4.0500000E-001  6.5000000E-002 0.0
 -4.0500000E-001  7.0000000E-002 0.0
 -4.0500000E-001  7.5000000E-002 0.0
 -4.0500000E-001  8.0000000E-002 0.0
 -4.0500000E-001  8.5000000E-002 0.0
 -4.0500000E-001  9.0000000E-002 0.0
 -4.0500000E-001  9.5000000E-002 0.0
 -4.0500000E-001  1.0000000E-001 0.0
 -4.0500000E-001  1.0500000E-001 0.0
 -4.0500000E-001  1.1000000E-001 0.0
 -4.0500000E-001  1.1500000E-001 0.0
 -4.0500000E-001  1.2000000E-001 0.0
 -4.0500000E-001  1.2500000E-001 0.0
 -4.0500000E-001  1.3000000E-001 0.0
 -4.1000000E-001  1.3000000E-001 0.0
 -4.0000000E-001 -5.0000000E-002 0.0
 -4.0000000E-001 -4.5000000E-002 0.0
 -4.0000000E-001 -4.0000000E-002 0.0
 -4.0000000E-001 -3.5000000E-002 0.0
 -4.0000000E-001 -3.0000000E-002 0.0
 -4.0000000E-001 -2.5000000E-002 0.0
 -4.0000000E-001 -2.0000000E-002 0.0
 -4.0000000E-001 -1.5000000E-002 0.0
 -4.0000000E-001 -1.0000000E-002 0.0
 -4.0000000E-001 -5.0000000E-003 0.0
 -4.0000000E-001  0.0000000E+000 0.0
 -4.0000000E-001  5.0000000E-003 0.0
 -4.0000000E-001  1.0000000E-002 0.0
 -4.0000000E-001  1.5000000E-002 0.0
 -4.0000000E-001  2.0000000E-002 0.0
 -4.0000000E-001  2.5000000E-002 0.0
 -4.0000000E-001  3.0000000E-002 0.0
 -4.0000000E-001  3.5000000E-002 0.0
 -4.0000000E-001  4.0000000E-002 0.0
 -4.0000000E-001  4.5000000E-002 0.0
 -4.0000000E-001  5.0000000E-002 0.0
 -4.0000000E-001  5.5000000E-002 0.0
 -4.0000000E-001  6.0000000E-002 0.0
 -4.0000000E-001  6.5000000E-002 0.0
 -4.0000000E-001  7.0000000E-002 0.0
 -4.0000000E-001  7.5000000E-002 0.0
 -4.0000000E-001  8.0000000E-002 0.0
 -4.0000000E-001  8.5000000E-002 0.0
 -4.0000000E-001  9.0000000E-002 0.0
 -4.0000000E-001  9.5000000E-002 0.0
 -4.0000000E-001  1.0000000E-001 0.0
 -4.0000000E-001  1.0500000E-001 0.0
 -4.0000000E-001  1.1000000E-001 0.0
 -4.0000000E-001  1.1500000E-001 0.0
 -4.0000000E-001  1.2000000E-001 0.0
 -4.0000000E-001  1.2500000E-001 0.0
 -4.0000000E-001  1.3000000E-001 0.0
 -3.9500000E-001 -5.0000000E-002 0.0
 -3.9500000E-001 -4.5000000E-002 0.0
 -3.9500000E-001 -4.0000000E-002 0.0
 -3.9500000E-001 -3.5000000E-002 0.0
 -3.9500000E-001 -3.0000000E-002 0.0
 -3.9500000E-001 -2.5000000E-002 0.0
 -3.9500000E-001 -2.0000000E-002 0.0
 -3.9500000E-001 -1.5000000E-002 0.0
 -3.9500000E-001 -1.0000000E-002 0.0
 -3.9500000E-001 -5.0000000E-003 0.0
 -3.9500000E-001  0.0000000E+000 0.0
 -3.9500000E-001  5.0000000E-003 0.0
 -3.9500000E-001  1.0000000E-002 0.0
 -3.9500000E-001  1.5000000E-002 0.0
 -3.9500000E-001  2.0000000E-002 0.0
 -3.9500000E-001  2.5000000E-002 0.0
 -3.9500000E-001  3.0000000E-002 0.0
 -3.9500000E-001  3.5000000E-002 0.0
 -3.9500000E-001  4.0000000E-002 0.0
 -3.9500000E-001  4.5000000E-002 0.0
 -3.9500000E-001  5.0000000E-002 0.0
 -3.9500000E-001  5.5000000E-002 0.0
 -3.9500000E-001  6.0000000E-002 0.0
 -3.9500000E-001  6.5000000E-002 0.0
 -3.9500000E-001  7.0000000E-002 0.0
 -3.9500000E-001  7.5000000E-002 0.0
 -3.9500000E-001  8.0000000E-002 0.0
 -3.9500000E-001  8.5000000E-002 0.0
 -3.9500000E-001  9.0000000E-002 0.0
 -3.9500000E-001  9.5000000E-002 0.0
 -3.9500000E-001  1.0000000E-001 0.0
 -3.9500000E-001  1.0500000E-001 0.0
 -3.9500000E-001  1.1000000E-001 0.0
 -3.9500000E-001  1.1500000E-001 0.0
 -3.9500000E-001  1.2000000E-001 0.0
 -3.9500000E-001  1.2500000E-001 0.0
 -3.9500000E-001  1.3000000E-001 0.0
 -3.9500000E-001  1.3500000E-001 0.0
 -4.0000000E-001  1.3500000E-001 0.0
 -3.9500000E-001 -2.2500000E-001 0.0
 -3.9000000E-001 -2.2500000E-001 0.0
 -3.9000000E-001 -2.2000000E-001 0.0
 -3.9500000E-001 -2.2000000E-001 0.0
 -3.9000000E-001 -2.1500000E-001 0.0
 -3.9500000E-001 -2.1500000E-001 0.0
 -3.9000000E-001 -2.1000000E-001 0.0
 -3.9500000E-001 -2.1000000E-001 0.0
 -3.9000000E-001 -2.0500000E-001 0.0
 -3.9500000E-001 -2.0500000E-001 0.0
 -3.9500000E-001 -6.5000000E-002 0.0
 -3.9000000E-001 -6.5000000E-002 0.0
 -3.9000000E-001 -6.0000000E-002 0.0
 -3.9500000E-001 -6.0000000E-002 0.0
 -3.9000000E-001 -5.5000000E-002 0.0
 -3.9500000E-001 -5.5000000E-002 0.0
 -3.9000000E-001 -5.0000000E-002 0.0
 -3.9000000E-001 -4.5000000E-002 0.0
 -3.9000000E-001 -4.0000000E-002 0.0
 -3.9000000E-001 -3.5000000E-002 0.0
 -3.9000000E-001 -3.0000000E-002 0.0
 -3.9000000E-001 -2.5000000E-002 0.0
 -3.9000000E-001 -2.0000000E-002 0.0
 -3.9000000E-001 -1.5000000E-002 0.0
 -3.9000000E-001 -1.0000000E-002 0.0
 -3.9000000E-001 -5.0000000E-003 0.0
 -3.9000000E-001  0.0000000E+000 0.0
 -3.9000000E-001  5.0000000E-003 0.0
 -3.9000000E-001  1.0000000E-002 0.0
 -3.9000000E-001  1.5000000E-002 0.0
 -3.9000000E-001  2.0000000E-002 0.0
 -3.9000000E-001  2.5000000E-002 0.0
 -3.9000000E-001  3.0000000E-002 0.0
 -3.9000000E-001  5.0000000E-002 0.0
 -3.9000000E-001  5.5000000E-002 0.0
 -3.9000000E-001  6.0000000E-002 0.0
 -3.9000000E-001  6.5000000E-002 0.0
 -3.9000000E-001  7.0000000E-002 0.0
 -3.9000000E-001  7.5000000E-002 0.0
 -3.9000000E-001  8.0000000E-002 0.0
 -3.9000000E-001  8.5000000E-002 0.0
 -3.9000000E-001  9.0000000E-002 0.0
 -3.9000000E-001  9.5000000E-002 0.0
 -3.9000000E-001  1.0000000E-001 0.0
 -3.9000000E-001  1.0500000E-001 0.0
 -3.9000000E-001  1.1000000E-001 0.0
 -3.9000000E-001  1.1500000E-001 0.0
 -3.9000000E-001  1.2000000E-001 0.0
 -3.9000000E-001  1.2500000E-001 0.0
 -3.9000000E-001  1.3000000E-001 0.0
 -3.9000000E-001  1.3500000E-001 0.0
 -3.9000000E-001 -2.3000000E-001 0.0
 -3.8500000E-001 -2.3000000E-001 0.0
 -3.8500000E-001 -2.2500000E-001 0.0
 -3.8500000E-001 -2.2000000E-001 0.0
 -3.8500000E-001 -2.1500000E-001 0.0
 -3.8500000E-001 -2.1000000E-001 0.0
 -3.8500000E-001 -2.0500000E-001 0.0
 -3.8500000E-001 -2.0000000E-001 0.0
 -3.9000000E-001 -2.0000000E-001 0.0
 -3.8500000E-001 -1.9500000E-001 0.0
 -3.9000000E-001 -1.9500000E-001 0.0
 -3.8500000E-001 -1.9000000E-001 0.0
 -3.9000000E-001 -1.9000000E-001 0.0
 -3.9000000E-001 -7.5000000E-002 0.0
 -3.8500000E-001 -7.5000000E-002 0.0
 -3.8500000E-001 -7.0000000E-002 0.0
 -3.9000000E-001 -7.0000000E-002 0.0
 -3.8500000E-001 -6.5000000E-002 0.0
 -3.8500000E-001 -6.0000000E-002 0.0
 -3.8500000E-001 -5.5000000E-002 0.0
 -3.8500000E-001 -5.0000000E-002 0.0
 -3.8500000E-001 -4.5000000E-002 0.0
 -3.8500000E-001 -4.0000000E-002 0.0
 -3.8500000E-001 -3.5000000E-002 0.0
 -3.8500000E-001 -3.0000000E-002 0.0
 -3.8500000E-001 -2.5000000E-002 0.0
 -3.8500000E-001 -2.0000000E-002 0.0
 -3.8500000E-001 -1.5000000E-002 0.0
 -3.8500000E-001 -1.0000000E-002 0.0
 -3.8500000E-001 -5.0000000E-003 0.0
 -3.8500000E-001  0.0000000E+000 0.0
 -3.8500000E-001  5.0000000E-003 0.0
 -3.8500000E-001  1.0000000E-002 0.0
 -3.8500000E-001  1.5000000E-002 0.0
 -3.8500000E-001  2.0000000E-002 0.0
 -3.8500000E-001  2.5000000E-002 0.0
 -3.8500000E-001  3.0000000E-002 0.0
 -3.8500000E-001  6.0000000E-002 0.0
 -3.8500000E-001  6.5000000E-002 0.0
 -3.8500000E-001  7.0000000E-002 0.0
 -3.8500000E-001  7.5000000E-002 0.0
 -3.8500000E-001  8.0000000E-002 0.0
 -3.8500000E-001  8.5000000E-002 0.0
 -3.8500000E-001  9.0000000E-002 0.0
 -3.8500000E-001  9.5000000E-002 0.0
 -3.8500000E-001  1.0000000E-001 0.0
 -3.8500000E-001  1.0500000E-001 0.0
 -3.8500000E-001  1.1000000E-001 0.0
 -3.8500000E-001  1.1500000E-001 0.0
 -3.8500000E-001  1.2000000E-001 0.0
 -3.8500000E-001  1.2500000E-001 0.0
 -3.8500000E-001  1.3000000E-001 0.0
 -3.8500000E-001  1.3500000E-001 0.0
 -3.8500000E-001  1.4000000E-001 0.0
 -3.9000000E-001  1.4000000E-001 0.0
 -3.8000000E-001 -2.3000000E-001 0.0
 -3.8000000E-001 -2.2500000E-001 0.0
 -3.8000000E-001 -2.2000000E-001 0.0
 -3.8000000E-001 -2.1500000E-001 0.0
 -3.8000000E-001 -2.1000000E-001 0.0
 -3.8000000E-001 -2.0500000E-001 0.0
 -3.8000000E-001 -2.0000000E-001 0.0
 -3.8000000E-001 -1.9500000E-001 0.0
 -3.8000000E-001 -1.9000000E-001 0.0
 -3.8000000E-001 -1.8500000E-001 0.0
 -3.8500000E-001 -1.8500000E-001 0.0
 -3.8000000E-001 -1.8000000E-001 0.0
 -3.8500000E-001 -1.8000000E-001 0.0
 -3.8000000E-001 -1.7500000E-001 0.0
 -3.8500000E-001 -1.7500000E-001 0.0
 -3.8000000E-001 -1.7000000E-001 0.0
 -3.8500000E-001 -1.7000000E-001 0.0
 -3.8500000E-001 -8.5000000E-002 0.0
 -3.8000000E-001 -8.5000000E-002 0.0
 -3.8000000E-001 -8.0000000E-002 0.0
 -3.8500000E-001 -8.0000000E-002 0.0
 -3.8000000E-001 -7.5000000E-002 0.0
 -3.8000000E-001 -7.0000000E-002 0.0
 -3.8000000E-001 -6.5000000E-002 0.0
 -3.8000000E-001 -6.0000000E-002 0.0
 -3.8000000E-001 -5.5000000E-002 0.0
 -3.8000000E-001 -5.0000000E-002 0.0
 -3.8000000E-001 -4.5000000E-002 0.0
 -3.8000000E-001 -4.0000000E-002 0.0
 -3.8000000E-001 -3.5000000E-002 0.0
 -3.8000000E-001 -3.0000000E-002 0.0
 -3.8000000E-001 -2.5000000E-002 0.0
 -3.8000000E-001 -2.0000000E-002 0.0
 -3.8000000E-001 -1.5000000E-002 0.0
 -3.8000000E-001 -1.0000000E-002 0.0
 -3.8000000E-001 -5.0000000E-003 0.0
 -3.8000000E-001  0.0000000E+000 0.0
 -3.8000000E-001  5.0000000E-003 0.0
 -3.8000000E-001  1.0000000E-002 0.0
 -3.8000000E-001  1.5000000E-002 0.0
 -3.8000000E-001  2.0000000E-002 0.0
 -3.8000000E-001  2.5000000E-002 0.0
 -3.8000000E-001  3.0000000E-002 0.0
 -3.8000000E-001  7.5000000E-002 0.0
 -3.8000000E-001  8.0000000E-002 0.0
 -3.8000000E-001  8.5000000E-002 0.0
 -3.8000000E-001  9.0000000E-002 0.0
 -3.8000000E-001  9.5000000E-002 0.0
 -3.8000000E-001  1.0000000E-001 0.0
 -3.8000000E-001  1.0500000E-001 0.0
 -3.8000000E-001  1.1000000E-001 0.0
 -3.8000000E-001  1.1500000E-001 0.0
 -3.8000000E-001  1.2000000E-001 0.0
 -3.8000000E-001  1.2500000E-001 0.0
 -3.8000000E-001  1.3000000E-001 0.0
 -3.8000000E-001  1.3500000E-001 0.0
 -3.8000000E-001  1.4000000E-001 0.0
 -3.8000000E-001  1.4500000E-001 0.0
 -3.8500000E-001  1.4500000E-001 0.0
 -3.8000000E-001 -2.3500000E-001 0.0
 -3.7500000E-001 -2.3500000E-001 0.0
 -3.7500000E-001 -2.3000000E-001 0.0
 -3.7500000E-001 -2.2500000E-001 0.0
 -3.7500000E-001 -2.2000000E-001 0.0
 -3.7500000E-001 -2.1500000E-001 0.0
 -3.7500000E-001 -2.1000000E-001 0.0
 -3.7500000E-001 -2.0500000E-001 0.0
 -3.7500000E-001 -2.0000000E-001 0.0
 -3.7500000E-001 -1.9500000E-001 0.0
 -3.7500000E-001 -1.9000000E-001 0.0
 -3.7500000E-001 -1.8500000E-001 0.0
 -3.7500000E-001 -1.8000000E-001 0.0
 -3.7500000E-001 -1.7500000E-001 0.0
 -3.7500000E-001 -1.7000000E-001 0.0
 -3.7500000E-001 -1.6500000E-001 0.0
 -3.8000000E-001 -1.6500000E-001 0.0
 -3.7500000E-001 -1.6000000E-001 0.0
 -3.8000000E-001 -1.6000000E-001 0.0
 -3.7500000E-001 -1.5500000E-001 0.0
 -3.8000000E-001 -1.5500000E-001 0.0
 -3.7500000E-001 -1.5000000E-001 0.0
 -3.8000000E-001 -1.5000000E-001 0.0
 -3.7500000E-001 -1.4500000E-001 0.0
 -3.8000000E-001 -1.4500000E-001 0.0
 -3.7500000E-001 -1.4000000E-001 0.0
 -3.8000000E-001 -1.4000000E-001 0.0
 -3.7500000E-001 -1.3500000E-001 0.0
 -3.8000000E-001 -1.3500000E-001 0.0
 -3.7500000E-001 -1.3000000E-001 0.0
 -3.8000000E-001 -1.3000000E-001 0.0
 -3.7500000E-001 -1.2500000E-001 0.0
 -3.8000000E-001 -1.2500000E-001 0.0
 -3.7500000E-001 -1.2000000E-001 0.0
 -3.8000000E-001 -1.2000000E-001 0.0
 -3.7500000E-001 -1.1500000E-001 0.0
 -3.8000000E-001 -1.1500000E-001 0.0
 -3.7500000E-001 -1.1000000E-001 0.0
 -3.8000000E-001 -1.1000000E-001 0.0
 -3.7500000E-001 -1.0500000E-001 0.0
 -3.8000000E-001 -1.0500000E-001 0.0
 -3.7500000E-001 -1.0000000E-001 0.0
 -3.8000000E-001 -1.0000000E-001 0.0
 -3.7500000E-001 -9.5000000E-002 0.0
 -3.8000000E-001 -9.5000000E-002 0.0
 -3.7500000E-001 -9.0000000E-002 0.0
 -3.8000000E-001 -9.0000000E-002 0.0
 -3.7500000E-001 -8.5000000E-002 0.0
 -3.7500000E-001 -8.0000000E-002 0.0
 -3.7500000E-001 -7.5000000E-002 0.0
 -3.7500000E-001 -7.0000000E-002 0.0
 -3.7500000E-001 -6.5000000E-002 0.0
 -3.7500000E-001 -6.0000000E-002 0.0
 -3.7500000E-001 -5.5000000E-002 0.0
 -3.7500000E-001 -5.0000000E-002 0.0
 -3.7500000E-001 -4.5000000E-002 0.0
 -3.7500000E-001 -4.0000000E-002 0.0
 -3.7500000E-001 -3.5000000E-002 0.0
 -3.7500000E-001 -3.0000000E-002 0.0
 -3.7500000E-001 -2.5000000E-002 0.0
 -3.7500000E-001 -2.0000000E-002 0.0
 -3.7500000E-001 -1.5000000E-002 0.0
 -3.7500000E-001 -1.0000000E-002 0.0
 -3.7500000E-001 -5.0000000E-003 0.0
 -3.7500000E-001  0.0000000E+000 0.0
 -3.7500000E-001  5.0000000E-003 0.0
 -3.7500000E-001  1.0000000E-002 0.0
 -3.7500000E-001  1.5000000E-002 0.0
 -3.7500000E-001  2.0000000E-002 0.0
 -3.7500000E-001  2.5000000E-002 0.0
 -3.7500000E-001  3.0000000E-002 0.0
 -3.7500000E-001  8.5000000E-002 0.0
 -3.7500000E-001  9.0000000E-002 0.0
 -3.7500000E-001  9.5000000E-002 0.0
 -3.7500000E-001  1.0000000E-001 0.0
 -3.7500000E-001  1.0500000E-001 0.0
 -3.7500000E-001  1.1000000E-001 0.0
 -3.7500000E-001  1.1500000E-001 0.0
 -3.7500000E-001  1.2000000E-001 0.0
 -3.7500000E-001  1.2500000E-001 0.0
 -3.7500000E-001  1.3000000E-001 0.0
 -3.7500000E-001  1.3500000E-001 0.0
 -3.7500000E-001  1.4000000E-001 0.0
 -3.7500000E-001  1.4500000E-001 0.0
 -3.7000000E-001 -2.3500000E-001 0.0
 -3.7000000E-001 -2.3000000E-001 0.0
 -3.7000000E-001 -2.2500000E-001 0.0
 -3.7000000E-001 -2.2000000E-001 0.0
 -3.7000000E-001 -2.1500000E-001 0.0
 -3.7000000E-001 -2.1000000E-001 0.0
 -3.7000000E-001 -2.0500000E-001 0.0
 -3.7000000E-001 -2.0000000E-001 0.0
 -3.7000000E-001 -1.9500000E-001 0.0
 -3.7000000E-001 -1.9000000E-001 0.0
 -3.7000000E-001 -1.8500000E-001 0.0
 -3.7000000E-001 -1.8000000E-001 0.0
 -3.7000000E-001 -1.7500000E-001 0.0
 -3.7000000E-001 -1.7000000E-001 0.0
 -3.7000000E-001 -1.6500000E-001 0.0
 -3.7000000E-001 -1.6000000E-001 0.0
 -3.7000000E-001 -1.5500000E-001 0.0
 -3.7000000E-001 -1.5000000E-001 0.0
 -3.7000000E-001 -1.4500000E-001 0.0
 -3.7000000E-001 -1.4000000E-001 0.0
 -3.7000000E-001 -1.3500000E-001 0.0
 -3.7000000E-001 -1.3000000E-001 0.0
 -3.7000000E-001 -1.2500000E-001 0.0
 -3.7000000E-001 -1.2000000E-001 0.0
 -3.7000000E-001 -1.1500000E-001 0.0
 -3.7000000E-001 -1.1000000E-001 0.0
 -3.7000000E-001 -1.0500000E-001 0.0
 -3.7000000E-001 -1.0000000E-001 0.0
 -3.7000000E-001 -9.5000000E-002 0.0
 -3.7000000E-001 -9.0000000E-002 0.0
 -3.7000000E-001 -8.5000000E-002 0.0
 -3.7000000E-001 -8.0000000E-002 0.0
 -3.7000000E-001 -7.5000000E-002 0.0
 -3.7000000E-001 -7.0000000E-002 0.0
 -3.7000000E-001 -6.5000000E-002 0.0
 -3.7000000E-001 -6.0000000E-002 0.0
 -3.7000000E-001 -5.5000000E-002 0.0
 -3.7000000E-001 -5.0000000E-002 0.0
 -3.7000000E-001 -4.5000000E-002 0.0
 -3.7000000E-001 -4.0000000E-002 0.0
 -3.7000000E-001 -3.5000000E-002 0.0
 -3.7000000E-001 -3.0000000E-002 0.0
 -3.7000000E-001 -2.5000000E-002 0.0
 -3.7000000E-001 -2.0000000E-002 0.0
 -3.7000000E-001 -1.5000000E-002 0.0
 -3.7000000E-001 -1.0000000E-002 0.0
 -3.7000000E-001 -5.0000000E-003 0.0
 -3.7000000E-001  0.0000000E+000 0.0
 -3.7000000E-001  5.0000000E-003 0.0
 -3.7000000E-001  1.0000000E-002 0.0
 -3.7000000E-001  1.5000000E-002 0.0
 -3.7000000E-001  2.0000000E-002 0.0
 -3.7000000E-001  2.5000000E-002 0.0
 -3.7000000E-001  3.0000000E-002 0.0
 -3.7000000E-001  3.5000000E-002 0.0
 -3.7500000E-001  3.5000000E-002 0.0
 -3.7000000E-001  9.0000000E-002 0.0
 -3.7000000E-001  9.5000000E-002 0.0
 -3.7000000E-001  1.0000000E-001 0.0
 -3.7000000E-001  1.0500000E-001 0.0
 -3.7000000E-001  1.1000000E-001 0.0
 -3.7000000E-001  1.1500000E-001 0.0
 -3.7000000E-001  1.2000000E-001 0.0
 -3.7000000E-001  1.2500000E-001 0.0
 -3.7000000E-001  1.3000000E-001 0.0
 -3.7000000E-001  1.3500000E-001 0.0
 -3.7000000E-001  1.4000000E-001 0.0
 -3.7000000E-001  1.4500000E-001 0.0
 -3.7000000E-001  1.5000000E-001 0.0
 -3.7500000E-001  1.5000000E-001 0.0
 -3.7000000E-001  1.5500000E-001 0.0
 -3.7500000E-001  1.5500000E-001 0.0
 -3.7000000E-001  1.6000000E-001 0.0
 -3.7500000E-001  1.6000000E-001 0.0
 -3.7000000E-001  1.6500000E-001 0.0
 -3.7500000E-001  1.6500000E-001 0.0
 -3.7000000E-001  1.7000000E-001 0.0
 -3.7500000E-001  1.7000000E-001 0.0
 -3.7000000E-001  1.7500000E-001 0.0
 -3.7500000E-001  1.7500000E-001 0.0
 -3.7000000E-001  1.8000000E-001 0.0
 -3.7500000E-001  1.8000000E-001 0.0
 -3.7000000E-001  1.8500000E-001 0.0
 -3.7500000E-001  1.8500000E-001 0.0
 -3.7000000E-001  1.9000000E-001 0.0
 -3.7500000E-001  1.9000000E-001 0.0
 -3.7000000E-001  1.9500000E-001 0.0
 -3.7500000E-001  1.9500000E-001 0.0
 -3.7000000E-001  2.0000000E-001 0.0
 -3.7500000E-001  2.0000000E-001 0.0
 -3.6500000E-001 -2.3500000E-001 0.0
 -3.6500000E-001 -2.3000000E-001 0.0
 -3.6500000E-001 -2.2500000E-001 0.0
 -3.6500000E-001 -2.2000000E-001 0.0
 -3.6500000E-001 -2.1500000E-001 0.0
 -3.6500000E-001 -2.1000000E-001 0.0
 -3.6500000E-001 -2.0500000E-001 0.0
 -3.6500000E-001 -2.0000000E-001 0.0
 -3.6500000E-001 -1.9500000E-001 0.0
 -3.6500000E-001 -1.9000000E-001 0.0
 -3.6500000E-001 -1.8500000E-001 0.0
 -3.6500000E-001 -1.8000000E-001 0.0
 -3.6500000E-001 -1.7500000E-001 0.0
 -3.6500000E-001 -1.7000000E-001 0.0
 -3.6500000E-001 -1.6500000E-001 0.0
 -3.6500000E-001 -1.6000000E-001 0.0
 -3.6500000E-001 -1.5500000E-001 0.0
 -3.6500000E-001 -1.5000000E-001 0.0
 -3.6500000E-001 -1.4500000E-001 0.0
 -3.6500000E-001 -1.4000000E-001 0.0
 -3.6500000E-001 -1.3500000E-001 0.0
 -3.6500000E-001 -1.3000000E-001 0.0
 -3.6500000E-001 -1.2500000E-001 0.0
 -3.6500000E-001 -1.2000000E-001 0.0
 -3.6500000E-001 -1.1500000E-001 0.0
 -3.6500000E-001 -1.1000000E-001 0.0
 -3.6500000E-001 -1.0500000E-001 0.0
 -3.6500000E-001 -1.0000000E-001 0.0
 -3.6500000E-001 -9.5000000E-002 0.0
 -3.6500000E-001 -9.0000000E-002 0.0
 -3.6500000E-001 -8.5000000E-002 0.0
 -3.6500000E-001 -8.0000000E-002 0.0
 -3.6500000E-001 -7.5000000E-002 0.0
 -3.6500000E-001 -7.0000000E-002 0.0
 -3.6500000E-001 -6.5000000E-002 0.0
 -3.6500000E-001 -6.0000000E-002 0.0
 -3.6500000E-001 -5.5000000E-002 0.0
 -3.6500000E-001 -5.0000000E-002 0.0
 -3.6500000E-001 -4.5000000E-002 0.0
 -3.6500000E-001 -4.0000000E-002 0.0
 -3.6500000E-001 -3.5000000E-002 0.0
 -3.6500000E-001 -3.0000000E-002 0.0
 -3.6500000E-001 -2.5000000E-002 0.0
 -3.6500000E-001 -2.0000000E-002 0.0
 -3.6500000E-001 -1.5000000E-002 0.0
 -3.6500000E-001 -1.0000000E-002 0.0
 -3.6500000E-001 -5.0000000E-003 0.0
 -3.6500000E-001  0.0000000E+000 0.0
 -3.6500000E-001  5.0000000E-003 0.0
 -3.6500000E-001  1.0000000E-002 0.0
 -3.6500000E-001  1.5000000E-002 0.0
 -3.6500000E-001  2.0000000E-002 0.0
 -3.6500000E-001  2.5000000E-002 0.0
 -3.6500000E-001  3.0000000E-002 0.0
 -3.6500000E-001  3.5000000E-002 0.0
 -3.6500000E-001  4.0000000E-002 0.0
 -3.7000000E-001  4.0000000E-002 0.0
 -3.6500000E-001  9.5000000E-002 0.0
 -3.6500000E-001  1.0000000E-001 0.0
 -3.6500000E-001  1.0500000E-001 0.0
 -3.6500000E-001  1.1000000E-001 0.0
 -3.6500000E-001  1.1500000E-001 0.0
 -3.6500000E-001  1.2000000E-001 0.0
 -3.6500000E-001  1.2500000E-001 0.0
 -3.6500000E-001  1.3000000E-001 0.0
 -3.6500000E-001  1.3500000E-001 0.0
 -3.6500000E-001  1.4000000E-001 0.0
 -3.6500000E-001  1.4500000E-001 0.0
 -3.6500000E-001  1.5000000E-001 0.0
 -3.6500000E-001  1.5500000E-001 0.0
 -3.6500000E-001  1.6000000E-001 0.0
 -3.6500000E-001  1.6500000E-001 0.0
 -3.6500000E-001  1.7000000E-001 0.0
 -3.6500000E-001  1.7500000E-001 0.0
 -3.6500000E-001  1.8000000E-001 0.0
 -3.6500000E-001  1.8500000E-001 0.0
 -3.6500000E-001  1.9000000E-001 0.0
 -3.6500000E-001  1.9500000E-001 0.0
 -3.6500000E-001  2.0000000E-001 0.0
 -3.6500000E-001  2.0500000E-001 0.0
 -3.7000000E-001  2.0500000E-001 0.0
 -3.6500000E-001  2.1000000E-001 0.0
 -3.7000000E-001  2.1000000E-001 0.0
 -3.6500000E-001  2.1500000E-001 0.0
 -3.7000000E-001  2.1500000E-001 0.0
 -3.6000000E-001 -2.3500000E-001 0.0
 -3.6000000E-001 -2.3000000E-001 0.0
 -3.6000000E-001 -2.2500000E-001 0.0
 -3.6000000E-001 -2.2000000E-001 0.0
 -3.6000000E-001 -2.1500000E-001 0.0
 -3.6000000E-001 -2.1000000E-001 0.0
 -3.6000000E-001 -2.0500000E-001 0.0
 -3.6000000E-001 -2.0000000E-001 0.0
 -3.6000000E-001 -1.9500000E-001 0.0
 -3.6000000E-001 -1.9000000E-001 0.0
 -3.6000000E-001 -1.8500000E-001 0.0
 -3.6000000E-001 -1.8000000E-001 0.0
 -3.6000000E-001 -1.7500000E-001 0.0
 -3.6000000E-001 -1.7000000E-001 0.0
 -3.6000000E-001 -1.6500000E-001 0.0
 -3.6000000E-001 -1.6000000E-001 0.0
 -3.6000000E-001 -1.5500000E-001 0.0
 -3.6000000E-001 -1.5000000E-001 0.0
 -3.6000000E-001 -1.4500000E-001 0.0
 -3.6000000E-001 -1.4000000E-001 0.0
 -3.6000000E-001 -1.3500000E-001 0.0
 -3.6000000E-001 -1.3000000E-001 0.0
 -3.6000000E-001 -1.2500000E-001 0.0
 -3.6000000E-001 -1.2000000E-001 0.0
 -3.6000000E-001 -1.1500000E-001 0.0
 -3.6000000E-001 -1.1000000E-001 0.0
 -3.6000000E-001 -1.0500000E-001 0.0
 -3.6000000E-001 -1.0000000E-001 0.0
 -3.6000000E-001 -9.5000000E-002 0.0
 -3.6000000E-001 -9.0000000E-002 0.0
 -3.6000000E-001 -8.5000000E-002 0.0
 -3.6000000E-001 -8.0000000E-002 0.0
 -3.6000000E-001 -7.5000000E-002 0.0
 -3.6000000E-001 -7.0000000E-002 0.0
 -3.6000000E-001 -6.5000000E-002 0.0
 -3.6000000E-001 -6.0000000E-002 0.0
 -3.6000000E-001 -5.5000000E-002 0.0
 -3.6000000E-001 -5.0000000E-002 0.0
 -3.6000000E-001 -4.5000000E-002 0.0
 -3.6000000E-001 -4.0000000E-002 0.0
 -3.6000000E-001 -3.5000000E-002 0.0
 -3.6000000E-001 -3.0000000E-002 0.0
 -3.6000000E-001 -2.5000000E-002 0.0
 -3.6000000E-001 -2.0000000E-002 0.0
 -3.6000000E-001 -1.5000000E-002 0.0
 -3.6000000E-001 -1.0000000E-002 0.0
 -3.6000000E-001 -5.0000000E-003 0.0
 -3.6000000E-001  0.0000000E+000 0.0
 -3.6000000E-001  5.0000000E-003 0.0
 -3.6000000E-001  1.0000000E-002 0.0
 -3.6000000E-001  1.5000000E-002 0.0
 -3.6000000E-001  2.0000000E-002 0.0
 -3.6000000E-001  2.5000000E-002 0.0
 -3.6000000E-001  3.0000000E-002 0.0
 -3.6000000E-001  3.5000000E-002 0.0
 -3.6000000E-001  4.0000000E-002 0.0
 -3.6000000E-001  9.5000000E-002 0.0
 -3.6000000E-001  1.0000000E-001 0.0
 -3.6000000E-001  1.0500000E-001 0.0
 -3.6000000E-001  1.1000000E-001 0.0
 -3.6000000E-001  1.1500000E-001 0.0
 -3.6000000E-001  1.2000000E-001 0.0
 -3.6000000E-001  1.2500000E-001 0.0
 -3.6000000E-001  1.3000000E-001 0.0
 -3.6000000E-001  1.3500000E-001 0.0
 -3.6000000E-001  1.4000000E-001 0.0
 -3.6000000E-001  1.4500000E-001 0.0
 -3.6000000E-001  1.5000000E-001 0.0
 -3.6000000E-001  1.5500000E-001 0.0
 -3.6000000E-001  1.6000000E-001 0.0
 -3.6000000E-001  1.6500000E-001 0.0
 -3.6000000E-001  1.7000000E-001 0.0
 -3.6000000E-001  1.7500000E-001 0.0
 -3.6000000E-001  1.8000000E-001 0.0
 -3.6000000E-001  1.8500000E-001 0.0
 -3.6000000E-001  1.9000000E-001 0.0
 -3.6000000E-001  1.9500000E-001 0.0
 -3.6000000E-001  2.0000000E-001 0.0
 -3.6000000E-001  2.0500000E-001 0.0
 -3.6000000E-001  2.1000000E-001 0.0
 -3.6000000E-001  2.1500000E-001 0.0
 -3.6000000E-001  2.2000000E-001 0.0
 -3.6500000E-001  2.2000000E-001 0.0
 -3.5500000E-001 -2.3500000E-001 0.0
 -3.5500000E-001 -2.3000000E-001 0.0
 -3.5500000E-001 -2.2500000E-001 0.0
 -3.5500000E-001 -2.2000000E-001 0.0
 -3.5500000E-001 -2.1500000E-001 0.0
 -3.5500000E-001 -2.1000000E-001 0.0
 -3.5500000E-001 -2.0500000E-001 0.0
 -3.5500000E-001 -2.0000000E-001 0.0
 -3.5500000E-001 -1.9500000E-001 0.0
 -3.5500000E-001 -1.9000000E-001 0.0
 -3.5500000E-001 -1.8500000E-001 0.0
 -3.5500000E-001 -1.8000000E-001 0.0
 -3.5500000E-001 -1.7500000E-001 0.0
 -3.5500000E-001 -1.7000000E-001 0.0
 -3.5500000E-001 -1.6500000E-001 0.0
 -3.5500000E-001 -1.6000000E-001 0.0
 -3.5500000E-001 -1.5500000E-001 0.0
 -3.5500000E-001 -1.5000000E-001 0.0
 -3.5500000E-001 -1.4500000E-001 0.0
 -3.5500000E-001 -1.4000000E-001 0.0
 -3.5500000E-001 -1.3500000E-001 0.0
 -3.5500000E-001 -1.3000000E-001 0.0
 -3.5500000E-001 -1.2500000E-001 0.0
 -3.5500000E-001 -1.2000000E-001 0.0
 -3.5500000E-001 -1.1500000E-001 0.0
 -3.5500000E-001 -1.1000000E-001 0.0
 -3.5500000E-001 -1.0500000E-001 0.0
 -3.5500000E-001 -1.0000000E-001 0.0
 -3.5500000E-001 -9.5000000E-002 0.0
 -3.5500000E-001 -9.0000000E-002 0.0
 -3.5500000E-001 -8.5000000E-002 0.0
 -3.5500000E-001 -8.0000000E-002 0.0
 -3.5500000E-001 -7.5000000E-002 0.0
 -3.5500000E-001 -7.0000000E-002 0.0
 -3.5500000E-001 -6.5000000E-002 0.0
 -3.5500000E-001 -6.0000000E-002 0.0
 -3.5500000E-001 -5.5000000E-002 0.0
 -3.5500000E-001 -5.0000000E-002 0.0
 -3.5500000E-001 -4.5000000E-002 0.0
 -3.5500000E-001 -4.0000000E-002 0.0
 -3.5500000E-001 -3.5000000E-002 0.0
 -3.5500000E-001 -3.0000000E-002 0.0
 -3.5500000E-001 -2.5000000E-002 0.0
 -3.5500000E-001 -2.0000000E-002 0.0
 -3.5500000E-001 -1.5000000E-002 0.0
 -3.5500000E-001 -1.0000000E-002 0.0
 -3.5500000E-001 -5.0000000E-003 0.0
 -3.5500000E-001  0.0000000E+000 0.0
 -3.5500000E-001  5.0000000E-003 0.0
 -3.5500000E-001  1.0000000E-002 0.0
 -3.5500000E-001  1.5000000E-002 0.0
 -3.5500000E-001  2.0000000E-002 0.0
 -3.5500000E-001  2.5000000E-002 0.0
 -3.5500000E-001  3.0000000E-002 0.0
 -3.5500000E-001  3.5000000E-002 0.0
 -3.5500000E-001  4.0000000E-002 0.0
 -3.5500000E-001  4.5000000E-002 0.0
 -3.6000000E-001  4.5000000E-002 0.0
 -3.5500000E-001  1.0000000E-001 0.0
 -3.5500000E-001  1.0500000E-001 0.0
 -3.5500000E-001  1.1000000E-001 0.0
 -3.5500000E-001  1.1500000E-001 0.0
 -3.5500000E-001  1.2000000E-001 0.0
 -3.5500000E-001  1.2500000E-001 0.0
 -3.5500000E-001  1.3000000E-001 0.0
 -3.5500000E-001  1.3500000E-001 0.0
 -3.5500000E-001  1.4000000E-001 0.0
 -3.5500000E-001  1.4500000E-001 0.0
 -3.5500000E-001  1.5000000E-001 0.0
 -3.5500000E-001  1.5500000E-001 0.0
 -3.5500000E-001  1.6000000E-001 0.0
 -3.5500000E-001  1.6500000E-001 0.0
 -3.5500000E-001  1.7000000E-001 0.0
 -3.5500000E-001  1.7500000E-001 0.0
 -3.5500000E-001  1.8000000E-001 0.0
 -3.5500000E-001  1.8500000E-001 0.0
 -3.5500000E-001  1.9000000E-001 0.0
 -3.5500000E-001  1.9500000E-001 0.0
 -3.5500000E-001  2.0000000E-001 0.0
 -3.5500000E-001  2.0500000E-001 0.0
 -3.5500000E-001  2.1000000E-001 0.0
 -3.5500000E-001  2.1500000E-001 0.0
 -3.5500000E-001  2.2000000E-001 0.0
 -3.5000000E-001 -2.3500000E-001 0.0
 -3.5000000E-001 -2.3000000E-001 0.0
 -3.5000000E-001 -2.2500000E-001 0.0
 -3.5000000E-001 -2.2000000E-001 0.0
 -3.5000000E-001 -2.1500000E-001 0.0
 -3.5000000E-001 -2.1000000E-001 0.0
 -3.5000000E-001 -2.0500000E-001 0.0
 -3.5000000E-001 -2.0000000E-001 0.0
 -3.5000000E-001 -1.9500000E-001 0.0
 -3.5000000E-001 -1.9000000E-001 0.0
 -3.5000000E-001 -1.8500000E-001 0.0
 -3.5000000E-001 -1.8000000E-001 0.0
 -3.5000000E-001 -1.7500000E-001 0.0
 -3.5000000E-001 -1.7000000E-001 0.0
 -3.5000000E-001 -1.6500000E-001 0.0
 -3.5000000E-001 -1.6000000E-001 0.0
 -3.5000000E-001 -1.5500000E-001 0.0
 -3.5000000E-001 -1.5000000E-001 0.0
 -3.5000000E-001 -1.4500000E-001 0.0
 -3.5000000E-001 -1.4000000E-001 0.0
 -3.5000000E-001 -1.3500000E-001 0.0
 -3.5000000E-001 -1.3000000E-001 0.0
 -3.5000000E-001 -1.2500000E-001 0.0
 -3.5000000E-001 -1.2000000E-001 0.0
 -3.5000000E-001 -1.1500000E-001 0.0
 -3.5000000E-001 -1.1000000E-001 0.0
 -3.5000000E-001 -1.0500000E-001 0.0
 -3.5000000E-001 -1.0000000E-001 0.0
 -3.5000000E-001 -9.5000000E-002 0.0
 -3.5000000E-001 -9.0000000E-002 0.0
 -3.5000000E-001 -8.5000000E-002 0.0
 -3.5000000E-001 -8.0000000E-002 0.0
 -3.5000000E-001 -7.5000000E-002 0.0
 -3.5000000E-001 -7.0000000E-002 0.0
 -3.5000000E-001 -6.5000000E-002 0.0
 -3.5000000E-001 -6.0000000E-002 0.0
 -3.5000000E-001 -5.5000000E-002 0.0
 -3.5000000E-001 -5.0000000E-002 0.0
 -3.5000000E-001 -4.5000000E-002 0.0
 -3.5000000E-001 -4.0000000E-002 0.0
 -3.5000000E-001 -3.5000000E-002 0.0
 -3.5000000E-001 -3.0000000E-002 0.0
 -3.5000000E-001 -2.5000000E-002 0.0
 -3.5000000E-001 -2.0000000E-002 0.0
 -3.5000000E-001 -1.5000000E-002 0.0
 -3.5000000E-001 -1.0000000E-002 0.0
 -3.5000000E-001 -5.0000000E-003 0.0
 -3.5000000E-001  0.0000000E+000 0.0
 -3.5000000E-001  5.0000000E-003 0.0
 -3.5000000E-001  1.0000000E-002 0.0
 -3.5000000E-001  1.5000000E-002 0.0
 -3.5000000E-001  2.0000000E-002 0.0
 -3.5000000E-001  2.5000000E-002 0.0
 -3.5000000E-001  3.0000000E-002 0.0
 -3.5000000E-001  3.5000000E-002 0.0
 -3.5000000E-001  4.0000000E-002 0.0
 -3.5000000E-001  4.5000000E-002 0.0
 -3.5000000E-001  1.0000000E-001 0.0
 -3.5000000E-001  1.0500000E-001 0.0
 -3.5000000E-001  1.1000000E-001 0.0
 -3.5000000E-001  1.1500000E-001 0.0
 -3.5000000E-001  1.2000000E-001 0.0
 -3.5000000E-001  1.2500000E-001 0.0
 -3.5000000E-001  1.3000000E-001 0.0
 -3.5000000E-001  1.3500000E-001 0.0
 -3.5000000E-001  1.4000000E-001 0.0
 -3.5000000E-001  1.4500000E-001 0.0
 -3.5000000E-001  1.5000000E-001 0.0
 -3.5000000E-001  1.5500000E-001 0.0
 -3.5000000E-001  1.6000000E-001 0.0
 -3.5000000E-001  1.6500000E-001 0.0
 -3.5000000E-001  1.7000000E-001 0.0
 -3.5000000E-001  1.7500000E-001 0.0
 -3.5000000E-001  1.8000000E-001 0.0
 -3.5000000E-001  1.8500000E-001 0.0
 -3.5000000E-001  1.9000000E-001 0.0
 -3.5000000E-001  1.9500000E-001 0.0
 -3.5000000E-001  2.0000000E-001 0.0
 -3.5000000E-001  2.0500000E-001 0.0
 -3.5000000E-001  2.1000000E-001 0.0
 -3.5000000E-001  2.1500000E-001 0.0
 -3.5000000E-001  2.2000000E-001 0.0
 -3.4500000E-001 -2.3000000E-001 0.0
 -3.4500000E-001 -2.2500000E-001 0.0
 -3.4500000E-001 -2.2000000E-001 0.0
 -3.4500000E-001 -2.1500000E-001 0.0
 -3.4500000E-001 -2.1000000E-001 0.0
 -3.4500000E-001 -2.0500000E-001 0.0
 -3.4500000E-001 -2.0000000E-001 0.0
 -3.4500000E-001 -1.9500000E-001 0.0
 -3.4500000E-001 -1.9000000E-001 0.0
 -3.4500000E-001 -1.8500000E-001 0.0
 -3.4500000E-001 -1.8000000E-001 0.0
 -3.4500000E-001 -1.7500000E-001 0.0
 -3.4500000E-001 -1.7000000E-001 0.0
 -3.4500000E-001 -1.6500000E-001 0.0
 -3.4500000E-001 -1.6000000E-001 0.0
 -3.4500000E-001 -1.5500000E-001 0.0
 -3.4500000E-001 -1.5000000E-001 0.0
 -3.4500000E-001 -1.4500000E-001 0.0
 -3.4500000E-001 -1.4000000E-001 0.0
 -3.4500000E-001 -1.3500000E-001 0.0
 -3.4500000E-001 -1.3000000E-001 0.0
 -3.4500000E-001 -1.2500000E-001 0.0
 -3.4500000E-001 -1.2000000E-001 0.0
 -3.4500000E-001 -1.1500000E-001 0.0
 -3.4500000E-001 -1.1000000E-001 0.0
 -3.4500000E-001 -1.0500000E-001 0.0
 -3.4500000E-001 -1.0000000E-001 0.0
 -3.4500000E-001 -9.5000000E-002 0.0
 -3.4500000E-001 -9.0000000E-002 0.0
 -3.4500000E-001 -8.5000000E-002 0.0
 -3.4500000E-001 -8.0000000E-002 0.0
 -3.4500000E-001 -7.5000000E-002 0.0
 -3.4500000E-001 -7.0000000E-002 0.0
 -3.4500000E-001 -6.5000000E-002 0.0
 -3.4500000E-001 -6.0000000E-002 0.0
 -3.4500000E-001 -5.5000000E-002 0.0
 -3.4500000E-001 -5.0000000E-002 0.0
 -3.4500000E-001 -4.5000000E-002 0.0
 -3.4500000E-001 -4.0000000E-002 0.0
 -3.4500000E-001 -3.5000000E-002 0.0
 -3.4500000E-001 -3.0000000E-002 0.0
 -3.4500000E-001 -2.5000000E-002 0.0
 -3.4500000E-001 -2.0000000E-002 0.0
 -3.4500000E-001 -1.5000000E-002 0.0
 -3.4500000E-001 -1.0000000E-002 0.0
 -3.4500000E-001 -5.0000000E-003 0.0
 -3.4500000E-001  0.0000000E+000 0.0
 -3.4500000E-001  5.0000000E-003 0.0
 -3.4500000E-001  1.0000000E-002 0.0
 -3.4500000E-001  1.5000000E-002 0.0
 -3.4500000E-001  2.0000000E-002 0.0
 -3.4500000E-001  2.5000000E-002 0.0
 -3.4500000E-001  3.0000000E-002 0.0
 -3.4500000E-001  3.5000000E-002 0.0
 -3.4500000E-001  4.0000000E-002 0.0
 -3.4500000E-001  4.5000000E-002 0.0
 -3.4500000E-001  1.0500000E-001 0.0
 -3.4500000E-001  1.1000000E-001 0.0
 -3.4500000E-001  1.1500000E-001 0.0
 -3.4500000E-001  1.2000000E-001 0.0
 -3.4500000E-001  1.2500000E-001 0.0
 -3.4500000E-001  1.3000000E-001 0.0
 -3.4500000E-001  1.3500000E-001 0.0
 -3.4500000E-001  1.4000000E-001 0.0
 -3.4500000E-001  1.4500000E-001 0.0
 -3.4500000E-001  1.5000000E-001 0.0
 -3.4500000E-001  1.5500000E-001 0.0
 -3.4500000E-001  1.6000000E-001 0.0
 -3.4500000E-001  1.6500000E-001 0.0
 -3.4500000E-001  1.7000000E-001 0.0
 -3.4500000E-001  1.7500000E-001 0.0
 -3.4500000E-001  1.8000000E-001 0.0
 -3.4500000E-001  1.8500000E-001 0.0
 -3.4500000E-001  1.9000000E-001 0.0
 -3.4500000E-001  1.9500000E-001 0.0
 -3.4500000E-001  2.0000000E-001 0.0
 -3.4500000E-001  2.0500000E-001 0.0
 -3.4500000E-001  2.1000000E-001 0.0
 -3.4500000E-001  2.1500000E-001 0.0
 -3.4500000E-001  2.2000000E-001 0.0
 -3.4000000E-001 -2.3000000E-001 0.0
 -3.4000000E-001 -2.2500000E-001 0.0
 -3.4000000E-001 -2.2000000E-001 0.0
 -3.4000000E-001 -2.1500000E-001 0.0
 -3.4000000E-001 -2.1000000E-001 0.0
 -3.4000000E-001 -2.0500000E-001 0.0
 -3.4000000E-001 -2.0000000E-001 0.0
 -3.4000000E-001 -1.9500000E-001 0.0
 -3.4000000E-001 -1.9000000E-001 0.0
 -3.4000000E-001 -1.8500000E-001 0.0
 -3.4000000E-001 -1.8000000E-001 0.0
 -3.4000000E-001 -1.7500000E-001 0.0
 -3.4000000E-001 -1.7000000E-001 0.0
 -3.4000000E-001 -1.6500000E-001 0.0
 -3.4000000E-001 -1.6000000E-001 0.0
 -3.4000000E-001 -1.5500000E-001 0.0
 -3.4000000E-001 -1.5000000E-001 0.0
 -3.4000000E-001 -1.4500000E-001 0.0
 -3.4000000E-001 -1.4000000E-001 0.0
 -3.4000000E-001 -1.3500000E-001 0.0
 -3.4000000E-001 -1.0500000E-001 0.0
 -3.4000000E-001 -1.0000000E-001 0.0
 -3.4000000E-001 -9.5000000E-002 0.0
 -3.4000000E-001 -9.0000000E-002 0.0
 -3.4000000E-001 -8.5000000E-002 0.0
 -3.4000000E-001 -8.0000000E-002 0.0
 -3.4000000E-001 -7.5000000E-002 0.0
 -3.4000000E-001 -7.0000000E-002 0.0
 -3.4000000E-001 -6.5000000E-002 0.0
 -3.4000000E-001 -6.0000000E-002 0.0
 -3.4000000E-001 -5.5000000E-002 0.0
 -3.4000000E-001 -5.0000000E-002 0.0
 -3.4000000E-001 -4.5000000E-002 0.0
 -3.4000000E-001 -4.0000000E-002 0.0
 -3.4000000E-001 -3.5000000E-002 0.0
 -3.4000000E-001 -3.0000000E-002 0.0
 -3.4000000E-001 -2.5000000E-002 0.0
 -3.4000000E-001 -2.0000000E-002 0.0
 -3.4000000E-001 -1.5000000E-002 0.0
 -3.4000000E-001 -1.0000000E-002 0.0
 -3.4000000E-001 -5.0000000E-003 0.0
 -3.4000000E-001  0.0000000E+000 0.0
 -3.4000000E-001  5.0000000E-003 0.0
 -3.4000000E-001  1.0000000E-002 0.0
 -3.4000000E-001  1.5000000E-002 0.0
 -3.4000000E-001  2.0000000E-002 0.0
 -3.4000000E-001  2.5000000E-002 0.0
 -3.4000000E-001  3.0000000E-002 0.0
 -3.4000000E-001  3.5000000E-002 0.0
 -3.4000000E-001  4.0000000E-002 0.0
 -3.4000000E-001  4.5000000E-002 0.0
 -3.4000000E-001  1.1000000E-001 0.0
 -3.4000000E-001  1.1500000E-001 0.0
 -3.4000000E-001  1.2000000E-001 0.0
 -3.4000000E-001  1.2500000E-001 0.0
 -3.4000000E-001  1.3000000E-001 0.0
 -3.4000000E-001  1.3500000E-001 0.0
 -3.4000000E-001  1.4000000E-001 0.0
 -3.4000000E-001  1.4500000E-001 0.0
 -3.4000000E-001  1.5000000E-001 0.0
 -3.4000000E-001  1.5500000E-001 0.0
 -3.4000000E-001  1.6000000E-001 0.0
 -3.4000000E-001  1.6500000E-001 0.0
 -3.4000000E-001  1.7000000E-001 0.0
 -3.4000000E-001  1.7500000E-001 0.0
 -3.4000000E-001  1.8000000E-001 0.0
 -3.4000000E-001  1.8500000E-001 0.0
 -3.4000000E-001  1.9000000E-001 0.0
 -3.4000000E-001  1.9500000E-001 0.0
 -3.4000000E-001  2.0000000E-001 0.0
 -3.4000000E-001  2.0500000E-001 0.0
 -3.4000000E-001  2.1000000E-001 0.0
 -3.4000000E-001  2.1500000E-001 0.0
 -3.4000000E-001  2.2000000E-001 0.0
 -3.3500000E-001 -2.3000000E-001 0.0
 -3.3500000E-001 -2.2500000E-001 0.0
 -3.3500000E-001 -2.2000000E-001 0.0
 -3.3500000E-001 -2.1500000E-001 0.0
 -3.3500000E-001 -2.1000000E-001 0.0
 -3.3500000E-001 -2.0500000E-001 0.0
 -3.3500000E-001 -2.0000000E-001 0.0
 -3.3500000E-001 -1.9500000E-001 0.0
 -3.3500000E-001 -1.9000000E-001 0.0
 -3.3500000E-001 -1.8500000E-001 0.0
 -3.3500000E-001 -1.8000000E-001 0.0
 -3.3500000E-001 -1.7500000E-001 0.0
 -3.3500000E-001 -1.7000000E-001 0.0
 -3.3500000E-001 -1.6500000E-001 0.0
 -3.3500000E-001 -1.6000000E-001 0.0
 -3.3500000E-001 -1.5500000E-001 0.0
 -3.3500000E-001 -1.5000000E-001 0.0
 -3.3500000E-001 -1.4500000E-001 0.0
 -3.3500000E-001 -1.4000000E-001 0.0
 -3.3500000E-001 -1.3500000E-001 0.0
 -3.3500000E-001 -9.0000000E-002 0.0
 -3.3500000E-001 -8.5000000E-002 0.0
 -3.3500000E-001 -8.0000000E-002 0.0
 -3.3500000E-001 -7.5000000E-002 0.0
 -3.3500000E-001 -7.0000000E-002 0.0
 -3.3500000E-001 -6.5000000E-002 0.0
 -3.3500000E-001 -6.0000000E-002 0.0
 -3.3500000E-001 -5.5000000E-002 0.0
 -3.3500000E-001 -5.0000000E-002 0.0
 -3.3500000E-001 -4.5000000E-002 0.0
 -3.3500000E-001 -4.0000000E-002 0.0
 -3.3500000E-001 -3.5000000E-002 0.0
 -3.3500000E-001 -3.0000000E-002 0.0
 -3.3500000E-001 -2.5000000E-002 0.0
 -3.3500000E-001 -2.0000000E-002 0.0
 -3.3500000E-001 -1.5000000E-002 0.0
 -3.3500000E-001 -1.0000000E-002 0.0
 -3.3500000E-001 -5.0000000E-003 0.0
 -3.3500000E-001  0.0000000E+000 0.0
 -3.3500000E-001  5.0000000E-003 0.0
 -3.3500000E-001  1.0000000E-002 0.0
 -3.3500000E-001  1.5000000E-002 0.0
 -3.3500000E-001  2.0000000E-002 0.0
 -3.3500000E-001  2.5000000E-002 0.0
 -3.3500000E-001  3.0000000E-002 0.0
 -3.3500000E-001  3.5000000E-002 0.0
 -3.3500000E-001  4.0000000E-002 0.0
 -3.3500000E-001  1.1000000E-001 0.0
 -3.3500000E-001  1.1500000E-001 0.0
 -3.3500000E-001  1.2000000E-001 0.0
 -3.3500000E-001  1.2500000E-001 0.0
 -3.3500000E-001  1.3000000E-001 0.0
 -3.3500000E-001  1.3500000E-001 0.0
 -3.3500000E-001  1.4000000E-001 0.0
 -3.3500000E-001  1.4500000E-001 0.0
 -3.3500000E-001  1.5000000E-001 0.0
 -3.3500000E-001  1.5500000E-001 0.0
 -3.3500000E-001  1.6000000E-001 0.0
 -3.3500000E-001  1.6500000E-001 0.0
 -3.3500000E-001  1.7000000E-001 0.0
 -3.3500000E-001  1.7500000E-001 0.0
 -3.3500000E-001  1.8000000E-001 0.0
 -3.3500000E-001  1.8500000E-001 0.0
 -3.3500000E-001  1.9000000E-001 0.0
 -3.3500000E-001  1.9500000E-001 0.0
 -3.3500000E-001  2.0000000E-001 0.0
 -3.3500000E-001  2.0500000E-001 0.0
 -3.3500000E-001  2.1000000E-001 0.0
 -3.3500000E-001  2.1500000E-001 0.0
 -3.3500000E-001  2.2000000E-001 0.0
 -3.3000000E-001 -2.2500000E-001 0.0
 -3.3000000E-001 -2.2000000E-001 0.0
 -3.3000000E-001 -2.1500000E-001 0.0
 -3.3000000E-001 -2.1000000E-001 0.0
 -3.3000000E-001 -2.0500000E-001 0.0
 -3.3000000E-001 -2.0000000E-001 0.0
 -3.3000000E-001 -1.9500000E-001 0.0
 -3.3000000E-001 -1.9000000E-001 0.0
 -3.3000000E-001 -1.8500000E-001 0.0
 -3.3000000E-001 -1.8000000E-001 0.0
 -3.3000000E-001 -1.7500000E-001 0.0
 -3.3000000E-001 -1.7000000E-001 0.0
 -3.3000000E-001 -1.6500000E-001 0.0
 -3.3000000E-001 -1.6000000E-001 0.0
 -3.3000000E-001 -1.5500000E-001 0.0
 -3.3000000E-001 -1.5000000E-001 0.0
 -3.3000000E-001 -1.4500000E-001 0.0
 -3.3000000E-001 -1.4000000E-001 0.0
 -3.3000000E-001 -1.3500000E-001 0.0
 -3.3000000E-001 -8.0000000E-002 0.0
 -3.3000000E-001 -7.5000000E-002 0.0
 -3.3000000E-001 -7.0000000E-002 0.0
 -3.3000000E-001 -6.5000000E-002 0.0
 -3.3000000E-001 -6.0000000E-002 0.0
 -3.3000000E-001 -5.5000000E-002 0.0
 -3.3000000E-001 -5.0000000E-002 0.0
 -3.3000000E-001 -4.5000000E-002 0.0
 -3.3000000E-001 -4.0000000E-002 0.0
 -3.3000000E-001 -3.5000000E-002 0.0
 -3.3000000E-001 -3.0000000E-002 0.0
 -3.3000000E-001 -2.5000000E-002 0.0
 -3.3000000E-001 -2.0000000E-002 0.0
 -3.3000000E-001 -1.5000000E-002 0.0
 -3.3000000E-001 -1.0000000E-002 0.0
 -3.3000000E-001 -5.0000000E-003 0.0
 -3.3000000E-001  0.0000000E+000 0.0
 -3.3000000E-001  5.0000000E-003 0.0
 -3.3000000E-001  1.0000000E-002 0.0
 -3.3000000E-001  1.5000000E-002 0.0
 -3.3000000E-001  2.0000000E-002 0.0
 -3.3000000E-001  2.5000000E-002 0.0
 -3.3000000E-001  3.0000000E-002 0.0
 -3.3000000E-001  3.5000000E-002 0.0
 -3.3000000E-001  4.0000000E-002 0.0
 -3.3000000E-001  1.1500000E-001 0.0
 -3.3000000E-001  1.2000000E-001 0.0
 -3.3000000E-001  1.2500000E-001 0.0
 -3.3000000E-001  1.3000000E-001 0.0
 -3.3000000E-001  1.3500000E-001 0.0
 -3.3000000E-001  1.4000000E-001 0.0
 -3.3000000E-001  1.4500000E-001 0.0
 -3.3000000E-001  1.5000000E-001 0.0
 -3.3000000E-001  1.5500000E-001 0.0
 -3.3000000E-001  1.6000000E-001 0.0
 -3.3000000E-001  1.6500000E-001 0.0
 -3.3000000E-001  1.7000000E-001 0.0
 -3.3000000E-001  1.7500000E-001 0.0
 -3.3000000E-001  1.8000000E-001 0.0
 -3.3000000E-001  1.8500000E-001 0.0
 -3.3000000E-001  1.9000000E-001 0.0
 -3.3000000E-001  1.9500000E-001 0.0
 -3.3000000E-001  2.0000000E-001 0.0
 -3.3000000E-001  2.0500000E-001 0.0
 -3.2500000E-001 -2.2000000E-001 0.0
 -3.2500000E-001 -2.1500000E-001 0.0
 -3.2500000E-001 -2.1000000E-001 0.0
 -3.2500000E-001 -2.0500000E-001 0.0
 -3.2500000E-001 -2.0000000E-001 0.0
 -3.2500000E-001 -1.9500000E-001 0.0
 -3.2500000E-001 -1.9000000E-001 0.0
 -3.2500000E-001 -1.8500000E-001 0.0
 -3.2500000E-001 -1.8000000E-001 0.0
 -3.2500000E-001 -1.7500000E-001 0.0
 -3.2500000E-001 -1.7000000E-001 0.0
 -3.2500000E-001 -1.6500000E-001 0.0
 -3.2500000E-001 -1.6000000E-001 0.0
 -3.2500000E-001 -1.5500000E-001 0.0
 -3.2500000E-001 -1.5000000E-001 0.0
 -3.2500000E-001 -1.4500000E-001 0.0
 -3.2500000E-001 -1.4000000E-001 0.0
 -3.2500000E-001 -1.3500000E-001 0.0
 -3.2500000E-001 -7.0000000E-002 0.0
 -3.2500000E-001 -6.5000000E-002 0.0
 -3.2500000E-001 -6.0000000E-002 0.0
 -3.2500000E-001 -5.5000000E-002 0.0
 -3.2500000E-001 -5.0000000E-002 0.0
 -3.2500000E-001 -4.5000000E-002 0.0
 -3.2500000E-001 -4.0000000E-002 0.0
 -3.2500000E-001 -3.5000000E-002 0.0
 -3.2500000E-001 -3.0000000E-002 0.0
 -3.2500000E-001 -2.5000000E-002 0.0
 -3.2500000E-001 -2.0000000E-002 0.0
 -3.2500000E-001 -1.5000000E-002 0.0
 -3.2500000E-001 -1.0000000E-002 0.0
 -3.2500000E-001 -5.0000000E-003 0.0
 -3.2500000E-001  0.0000000E+000 0.0
 -3.2500000E-001  5.0000000E-003 0.0
 -3.2500000E-001  1.0000000E-002 0.0
 -3.2500000E-001  1.5000000E-002 0.0
 -3.2500000E-001  2.0000000E-002 0.0
 -3.2500000E-001  2.5000000E-002 0.0
 -3.2500000E-001  3.0000000E-002 0.0
 -3.2500000E-001  3.5000000E-002 0.0
 -3.2500000E-001  4.0000000E-002 0.0
 -3.2500000E-001  1.1500000E-001 0.0
 -3.2500000E-001  1.2000000E-001 0.0
 -3.2500000E-001  1.2500000E-001 0.0
 -3.2500000E-001  1.3000000E-001 0.0
 -3.2500000E-001  1.3500000E-001 0.0
 -3.2500000E-001  1.4000000E-001 0.0
 -3.2500000E-001  1.4500000E-001 0.0
 -3.2500000E-001  1.5000000E-001 0.0
 -3.2500000E-001  1.5500000E-001 0.0
 -3.2500000E-001  1.6000000E-001 0.0
 -3.2500000E-001  1.6500000E-001 0.0
 -3.2500000E-001  1.7000000E-001 0.0
 -3.2500000E-001  1.7500000E-001 0.0
 -3.2500000E-001  1.8000000E-001 0.0
 -3.2500000E-001  1.8500000E-001 0.0
 -3.2500000E-001  1.9000000E-001 0.0
 -3.2500000E-001  1.9500000E-001 0.0
 -3.2000000E-001 -2.1000000E-001 0.0
 -3.2000000E-001 -2.0500000E-001 0.0
 -3.2000000E-001 -2.0000000E-001 0.0
 -3.2000000E-001 -1.9500000E-001 0.0
 -3.2000000E-001 -1.9000000E-001 0.0
 -3.2000000E-001 -1.8500000E-001 0.0
 -3.2000000E-001 -1.8000000E-001 0.0
 -3.2000000E-001 -1.7500000E-001 0.0
 -3.2000000E-001 -1.7000000E-001 0.0
 -3.2000000E-001 -1.6500000E-001 0.0
 -3.2000000E-001 -1.6000000E-001 0.0
 -3.2000000E-001 -1.5500000E-001 0.0
 -3.2000000E-001 -1.5000000E-001 0.0
 -3.2000000E-001 -1.4500000E-001 0.0
 -3.2000000E-001 -1.4000000E-001 0.0
 -3.2000000E-001 -1.3500000E-001 0.0
 -3.2000000E-001 -6.0000000E-002 0.0
 -3.2000000E-001 -5.5000000E-002 0.0
 -3.2000000E-001 -5.0000000E-002 0.0
 -3.2000000E-001 -4.5000000E-002 0.0
 -3.2000000E-001 -4.0000000E-002 0.0
 -3.2000000E-001 -3.5000000E-002 0.0
 -3.2000000E-001 -3.0000000E-002 0.0
 -3.2000000E-001 -2.5000000E-002 0.0
 -3.2000000E-001 -2.0000000E-002 0.0
 -3.2000000E-001 -1.5000000E-002 0.0
 -3.2000000E-001 -1.0000000E-002 0.0
 -3.2000000E-001 -5.0000000E-003 0.0
 -3.2000000E-001  0.0000000E+000 0.0
 -3.2000000E-001  5.0000000E-003 0.0
 -3.2000000E-001  1.0000000E-002 0.0
 -3.2000000E-001  1.5000000E-002 0.0
 -3.2000000E-001  2.0000000E-002 0.0
 -3.2000000E-001  2.5000000E-002 0.0
 -3.2000000E-001  3.0000000E-002 0.0
 -3.2000000E-001  3.5000000E-002 0.0
 -3.2000000E-001  4.0000000E-002 0.0
 -3.2000000E-001  1.2000000E-001 0.0
 -3.2000000E-001  1.2500000E-001 0.0
 -3.2000000E-001  1.3000000E-001 0.0
 -3.2000000E-001  1.3500000E-001 0.0
 -3.2000000E-001  1.4000000E-001 0.0
 -3.2000000E-001  1.4500000E-001 0.0
 -3.2000000E-001  1.5000000E-001 0.0
 -3.2000000E-001  1.5500000E-001 0.0
 -3.2000000E-001  1.6000000E-001 0.0
 -3.2000000E-001  1.6500000E-001 0.0
 -3.2000000E-001  1.7000000E-001 0.0
 -3.2000000E-001  1.7500000E-001 0.0
 -3.2000000E-001  1.8000000E-001 0.0
 -3.2000000E-001  1.8500000E-001 0.0
 -3.2000000E-001  1.9000000E-001 0.0
 -3.1500000E-001 -2.1000000E-001 0.0
 -3.1500000E-001 -2.0500000E-001 0.0
 -3.1500000E-001 -2.0000000E-001 0.0
 -3.1500000E-001 -1.9500000E-001 0.0
 -3.1500000E-001 -1.9000000E-001 0.0
 -3.1500000E-001 -1.8500000E-001 0.0
 -3.1500000E-001 -1.8000000E-001 0.0
 -3.1500000E-001 -1.7500000E-001 0.0
 -3.1500000E-001 -1.7000000E-001 0.0
 -3.1500000E-001 -1.6500000E-001 0.0
 -3.1500000E-001 -1.6000000E-001 0.0
 -3.1500000E-001 -1.5500000E-001 0.0
 -3.1500000E-001 -1.5000000E-001 0.0
 -3.1500000E-001 -1.4500000E-001 0.0
 -3.1500000E-001 -1.4000000E-001 0.0
 -3.1500000E-001 -1.3500000E-001 0.0
 -3.1500000E-001 -5.0000000E-002 0.0
 -3.1500000E-001 -4.5000000E-002 0.0
 -3.1500000E-001 -4.0000000E-002 0.0
 -3.1500000E-001 -3.5000000E-002 0.0
 -3.1500000E-001 -3.0000000E-002 0.0
 -3.1500000E-001 -2.5000000E-002 0.0
 -3.1500000E-001 -2.0000000E-002 0.0
 -3.1500000E-001 -1.5000000E-002 0.0
 -3.1500000E-001 -1.0000000E-002 0.0
 -3.1500000E-001 -5.0000000E-003 0.0
 -3.1500000E-001  0.0000000E+000 0.0
 -3.1500000E-001  5.0000000E-003 0.0
 -3.1500000E-001  1.0000000E-002 0.0
 -3.1500000E-001  1.5000000E-002 0.0
 -3.1500000E-001  2.0000000E-002 0.0
 -3.1500000E-001  2.5000000E-002 0.0
 -3.1500000E-001  3.0000000E-002 0.0
 -3.1500000E-001  3.5000000E-002 0.0
 -3.1500000E-001  4.0000000E-002 0.0
 -3.1500000E-001  1.2500000E-001 0.0
 -3.1500000E-001  1.3000000E-001 0.0
 -3.1500000E-001  1.3500000E-001 0.0
 -3.1500000E-001  1.4000000E-001 0.0
 -3.1500000E-001  1.4500000E-001 0.0
 -3.1500000E-001  1.5000000E-001 0.0
 -3.1500000E-001  1.5500000E-001 0.0
 -3.1500000E-001  1.6000000E-001 0.0
 -3.1500000E-001  1.6500000E-001 0.0
 -3.1500000E-001  1.7000000E-001 0.0
 -3.1500000E-001  1.7500000E-001 0.0
 -3.1500000E-001  1.8000000E-001 0.0
 -3.1500000E-001  1.8500000E-001 0.0
 -3.1500000E-001  1.9000000E-001 0.0
 -3.1000000E-001 -2.1000000E-001 0.0
 -3.1000000E-001 -2.0500000E-001 0.0
 -3.1000000E-001 -2.0000000E-001 0.0
 -3.1000000E-001 -1.9500000E-001 0.0
 -3.1000000E-001 -1.9000000E-001 0.0
 -3.1000000E-001 -1.8500000E-001 0.0
 -3.1000000E-001 -1.8000000E-001 0.0
 -3.1000000E-001 -1.7500000E-001 0.0
 -3.1000000E-001 -1.7000000E-001 0.0
 -3.1000000E-001 -1.6500000E-001 0.0
 -3.1000000E-001 -1.6000000E-001 0.0
 -3.1000000E-001 -1.5500000E-001 0.0
 -3.1000000E-001 -1.5000000E-001 0.0
 -3.1000000E-001 -1.4500000E-001 0.0
 -3.1000000E-001 -1.4000000E-001 0.0
 -3.1000000E-001 -1.3500000E-001 0.0
 -3.1000000E-001 -4.5000000E-002 0.0
 -3.1000000E-001 -4.0000000E-002 0.0
 -3.1000000E-001 -3.5000000E-002 0.0
 -3.1000000E-001 -3.0000000E-002 0.0
 -3.1000000E-001 -2.5000000E-002 0.0
 -3.1000000E-001 -2.0000000E-002 0.0
 -3.1000000E-001 -1.5000000E-002 0.0
 -3.1000000E-001 -1.0000000E-002 0.0
 -3.1000000E-001 -5.0000000E-003 0.0
 -3.1000000E-001  0.0000000E+000 0.0
 -3.1000000E-001  5.0000000E-003 0.0
 -3.1000000E-001  1.0000000E-002 0.0
 -3.1000000E-001  1.5000000E-002 0.0
 -3.1000000E-001  2.0000000E-002 0.0
 -3.1000000E-001  2.5000000E-002 0.0
 -3.1000000E-001  3.0000000E-002 0.0
 -3.1000000E-001  3.5000000E-002 0.0
 -3.1000000E-001  4.0000000E-002 0.0
 -3.1000000E-001  1.2500000E-001 0.0
 -3.1000000E-001  1.3000000E-001 0.0
 -3.1000000E-001  1.3500000E-001 0.0
 -3.1000000E-001  1.4000000E-001 0.0
 -3.1000000E-001  1.4500000E-001 0.0
 -3.1000000E-001  1.5000000E-001 0.0
 -3.1000000E-001  1.5500000E-001 0.0
 -3.1000000E-001  1.6000000E-001 0.0
 -3.1000000E-001  1.6500000E-001 0.0
 -3.1000000E-001  1.7000000E-001 0.0
 -3.1000000E-001  1.7500000E-001 0.0
 -3.1000000E-001  1.8000000E-001 0.0
 -3.1000000E-001  1.8500000E-001 0.0
 -3.0500000E-001 -2.0500000E-001 0.0
 -3.0500000E-001 -2.0000000E-001 0.0
 -3.0500000E-001 -1.9500000E-001 0.0
 -3.0500000E-001 -1.9000000E-001 0.0
 -3.0500000E-001 -1.8500000E-001 0.0
 -3.0500000E-001 -1.8000000E-001 0.0
 -3.0500000E-001 -1.7500000E-001 0.0
 -3.0500000E-001 -1.7000000E-001 0.0
 -3.0500000E-001 -1.6500000E-001 0.0
 -3.0500000E-001 -1.6000000E-001 0.0
 -3.0500000E-001 -1.5500000E-001 0.0
 -3.0500000E-001 -1.5000000E-001 0.0
 -3.0500000E-001 -1.4500000E-001 0.0
 -3.0500000E-001 -1.4000000E-001 0.0
 -3.0500000E-001 -1.3500000E-001 0.0
 -3.0500000E-001 -3.5000000E-002 0.0
 -3.0500000E-001 -3.0000000E-002 0.0
 -3.0500000E-001 -2.5000000E-002 0.0
 -3.0500000E-001 -2.0000000E-002 0.0
 -3.0500000E-001 -1.5000000E-002 0.0
 -3.0500000E-001 -1.0000000E-002 0.0
 -3.0500000E-001 -5.0000000E-003 0.0
 -3.0500000E-001  0.0000000E+000 0.0
 -3.0500000E-001  5.0000000E-003 0.0
 -3.0500000E-001  1.0000000E-002 0.0
 -3.0500000E-001  1.5000000E-002 0.0
 -3.0500000E-001  2.0000000E-002 0.0
 -3.0500000E-001  2.5000000E-002 0.0
 -3.0500000E-001  3.0000000E-002 0.0
 -3.0500000E-001  3.5000000E-002 0.0
 -3.0500000E-001  4.0000000E-002 0.0
 -3.0500000E-001  1.2500000E-001 0.0
 -3.0500000E-001  1.3000000E-001 0.0
 -3.0500000E-001  1.3500000E-001 0.0
 -3.0500000E-001  1.4000000E-001 0.0
 -3.0500000E-001  1.4500000E-001 0.0
 -3.0500000E-001  1.5000000E-001 0.0
 -3.0500000E-001  1.5500000E-001 0.0
 -3.0500000E-001  1.6000000E-001 0.0
 -3.0500000E-001  1.6500000E-001 0.0
 -3.0500000E-001  1.7000000E-001 0.0
 -3.0500000E-001  1.7500000E-001 0.0
 -3.0500000E-001  1.8000000E-001 0.0
 -3.0500000E-001  1.8500000E-001 0.0
 -3.0000000E-001 -2.0500000E-001 0.0
 -3.0000000E-001 -2.0000000E-001 0.0
 -3.0000000E-001 -1.9500000E-001 0.0
 -3.0000000E-001 -1.9000000E-001 0.0
 -3.0000000E-001 -1.8500000E-001 0.0
 -3.0000000E-001 -1.8000000E-001 0.0
 -3.0000000E-001 -1.7500000E-001 0.0
 -3.0000000E-001 -1.7000000E-001 0.0
 -3.0000000E-001 -1.6500000E-001 0.0
 -3.0000000E-001 -1.6000000E-001 0.0
 -3.0000000E-001 -1.5500000E-001 0.0
 -3.0000000E-001 -1.5000000E-001 0.0
 -3.0000000E-001 -1.4500000E-001 0.0
 -3.0000000E-001 -1.4000000E-001 0.0
 -3.0000000E-001 -1.3500000E-001 0.0
 -3.0000000E-001 -2.5000000E-002 0.0
 -3.0000000E-001 -2.0000000E-002 0.0
 -3.0000000E-001 -1.5000000E-002 0.0
 -3.0000000E-001 -1.0000000E-002 0.0
 -3.0000000E-001 -5.0000000E-003 0.0
 -3.0000000E-001  0.0000000E+000 0.0
 -3.0000000E-001  5.0000000E-003 0.0
 -3.0000000E-001  1.0000000E-002 0.0
 -3.0000000E-001  1.5000000E-002 0.0
 -3.0000000E-001  2.0000000E-002 0.0
 -3.0000000E-001  2.5000000E-002 0.0
 -3.0000000E-001  3.0000000E-002 0.0
 -3.0000000E-001  3.5000000E-002 0.0
 -3.0000000E-001  1.2500000E-001 0.0
 -3.0000000E-001  1.3000000E-001 0.0
 -3.0000000E-001  1.3500000E-001 0.0
 -3.0000000E-001  1.4000000E-001 0.0
 -3.0000000E-001  1.4500000E-001 0.0
 -3.0000000E-001  1.5000000E-001 0.0
 -3.0000000E-001  1.5500000E-001 0.0
 -3.0000000E-001  1.6000000E-001 0.0
 -3.0000000E-001  1.6500000E-001 0.0
 -3.0000000E-001  1.7000000E-001 0.0
 -3.0000000E-001  1.7500000E-001 0.0
 -3.0000000E-001  1.8000000E-001 0.0
 -3.0000000E-001  1.8500000E-001 0.0
 -3.0000000E-001  1.9000000E-001 0.0
 -3.0500000E-001  1.9000000E-001 0.0
 -2.9500000E-001 -2.0500000E-001 0.0
 -2.9500000E-001 -2.0000000E-001 0.0
 -2.9500000E-001 -1.9500000E-001 0.0
 -2.9500000E-001 -1.9000000E-001 0.0
 -2.9500000E-001 -1.8500000E-001 0.0
 -2.9500000E-001 -1.8000000E-001 0.0
 -2.9500000E-001 -1.7500000E-001 0.0
 -2.9500000E-001 -1.7000000E-001 0.0
 -2.9500000E-001 -1.6500000E-001 0.0
 -2.9500000E-001 -1.6000000E-001 0.0
 -2.9500000E-001 -1.5500000E-001 0.0
 -2.9500000E-001 -1.5000000E-001 0.0
 -2.9500000E-001 -1.4500000E-001 0.0
 -2.9500000E-001 -1.4000000E-001 0.0
 -2.9500000E-001 -1.3500000E-001 0.0
 -2.9500000E-001 -1.3000000E-001 0.0
 -3.0000000E-001 -1.3000000E-001 0.0
 -2.9500000E-001 -2.0000000E-002 0.0
 -2.9500000E-001 -1.5000000E-002 0.0
 -2.9500000E-001 -1.0000000E-002 0.0
 -2.9500000E-001 -5.0000000E-003 0.0
 -2.9500000E-001  0.0000000E+000 0.0
 -2.9500000E-001  5.0000000E-003 0.0
 -2.9500000E-001  1.0000000E-002 0.0
 -2.9500000E-001  1.5000000E-002 0.0
 -2.9500000E-001  2.0000000E-002 0.0
 -2.9500000E-001  2.5000000E-002 0.0
 -2.9500000E-001  3.0000000E-002 0.0
 -2.9500000E-001  3.5000000E-002 0.0
 -3.0000000E-001  1.2000000E-001 0.0
 -2.9500000E-001  1.2000000E-001 0.0
 -2.9500000E-001  1.2500000E-001 0.0
 -2.9500000E-001  1.3000000E-001 0.0
 -2.9500000E-001  1.3500000E-001 0.0
 -2.9500000E-001  1.4000000E-001 0.0
 -2.9500000E-001  1.4500000E-001 0.0
 -2.9500000E-001  1.5000000E-001 0.0
 -2.9500000E-001  1.5500000E-001 0.0
 -2.9500000E-001  1.6000000E-001 0.0
 -2.9500000E-001  1.6500000E-001 0.0
 -2.9500000E-001  1.7000000E-001 0.0
 -2.9500000E-001  1.7500000E-001 0.0
 -2.9500000E-001  1.8000000E-001 0.0
 -2.9500000E-001  1.8500000E-001 0.0
 -2.9500000E-001  1.9000000E-001 0.0
 -2.9000000E-001 -2.0500000E-001 0.0
 -2.9000000E-001 -2.0000000E-001 0.0
 -2.9000000E-001 -1.9500000E-001 0.0
 -2.9000000E-001 -1.9000000E-001 0.0
 -2.9000000E-001 -1.8500000E-001 0.0
 -2.9000000E-001 -1.8000000E-001 0.0
 -2.9000000E-001 -1.7500000E-001 0.0
 -2.9000000E-001 -1.7000000E-001 0.0
 -2.9000000E-001 -1.6500000E-001 0.0
 -2.9000000E-001 -1.6000000E-001 0.0
 -2.9000000E-001 -1.5500000E-001 0.0
 -2.9000000E-001 -1.5000000E-001 0.0
 -2.9000000E-001 -1.4500000E-001 0.0
 -2.9000000E-001 -1.4000000E-001 0.0
 -2.9000000E-001 -1.3500000E-001 0.0
 -2.9000000E-001 -1.3000000E-001 0.0
 -2.9000000E-001 -1.0000000E-002 0.0
 -2.9000000E-001 -5.0000000E-003 0.0
 -2.9000000E-001  0.0000000E+000 0.0
 -2.9000000E-001  5.0000000E-003 0.0
 -2.9000000E-001  1.0000000E-002 0.0
 -2.9000000E-001  1.5000000E-002 0.0
 -2.9000000E-001  2.0000000E-002 0.0
 -2.9000000E-001  2.5000000E-002 0.0
 -2.9000000E-001  3.0000000E-002 0.0
 -2.9000000E-001  3.5000000E-002 0.0
 -2.9500000E-001  1.1000000E-001 0.0
 -2.9000000E-001  1.1000000E-001 0.0
 -2.9000000E-001  1.1500000E-001 0.0
 -2.9500000E-001  1.1500000E-001 0.0
 -2.9000000E-001  1.2000000E-001 0.0
 -2.9000000E-001  1.2500000E-001 0.0
 -2.9000000E-001  1.3000000E-001 0.0
 -2.9000000E-001  1.3500000E-001 0.0
 -2.9000000E-001  1.4000000E-001 0.0
 -2.9000000E-001  1.4500000E-001 0.0
 -2.9000000E-001  1.5000000E-001 0.0
 -2.9000000E-001  1.5500000E-001 0.0
 -2.9000000E-001  1.6000000E-001 0.0
 -2.9000000E-001  1.6500000E-001 0.0
 -2.9000000E-001  1.7000000E-001 0.0
 -2.9000000E-001  1.7500000E-001 0.0
 -2.9000000E-001  1.8000000E-001 0.0
 -2.9000000E-001  1.8500000E-001 0.0
 -2.9000000E-001  1.9000000E-001 0.0
 -2.9000000E-001  1.9500000E-001 0.0
 -2.9500000E-001  1.9500000E-001 0.0
 -2.8500000E-001 -2.0500000E-001 0.0
 -2.8500000E-001 -2.0000000E-001 0.0
 -2.8500000E-001 -1.9500000E-001 0.0
 -2.8500000E-001 -1.9000000E-001 0.0
 -2.8500000E-001 -1.8500000E-001 0.0
 -2.8500000E-001 -1.8000000E-001 0.0
 -2.8500000E-001 -1.7500000E-001 0.0
 -2.8500000E-001 -1.7000000E-001 0.0
 -2.8500000E-001 -1.6500000E-001 0.0
 -2.8500000E-001 -1.6000000E-001 0.0
 -2.8500000E-001 -1.5500000E-001 0.0
 -2.8500000E-001 -1.5000000E-001 0.0
 -2.8500000E-001 -1.4500000E-001 0.0
 -2.8500000E-001 -1.4000000E-001 0.0
 -2.8500000E-001 -1.3500000E-001 0.0
 -2.8500000E-001 -1.3000000E-001 0.0
 -2.8500000E-001  5.0000000E-003 0.0
 -2.8500000E-001  1.0000000E-002 0.0
 -2.8500000E-001  1.5000000E-002 0.0
 -2.8500000E-001  2.0000000E-002 0.0
 -2.8500000E-001  2.5000000E-002 0.0
 -2.8500000E-001  3.0000000E-002 0.0
 -2.9000000E-001  5.5000000E-002 0.0
 -2.8500000E-001  5.5000000E-002 0.0
 -2.8500000E-001  6.0000000E-002 0.0
 -2.9000000E-001  6.0000000E-002 0.0
 -2.8500000E-001  6.5000000E-002 0.0
 -2.9000000E-001  6.5000000E-002 0.0
 -2.8500000E-001  7.0000000E-002 0.0
 -2.9000000E-001  7.0000000E-002 0.0
 -2.8500000E-001  7.5000000E-002 0.0
 -2.9000000E-001  7.5000000E-002 0.0
 -2.8500000E-001  8.0000000E-002 0.0
 -2.9000000E-001  8.0000000E-002 0.0
 -2.8500000E-001  8.5000000E-002 0.0
 -2.9000000E-001  8.5000000E-002 0.0
 -2.8500000E-001  9.0000000E-002 0.0
 -2.9000000E-001  9.0000000E-002 0.0
 -2.8500000E-001  9.5000000E-002 0.0
 -2.9000000E-001  9.5000000E-002 0.0
 -2.8500000E-001  1.0000000E-001 0.0
 -2.9000000E-001  1.0000000E-001 0.0
 -2.8500000E-001  1.0500000E-001 0.0
 -2.9000000E-001  1.0500000E-001 0.0
 -2.8500000E-001  1.1000000E-001 0.0
 -2.8500000E-001  1.1500000E-001 0.0
 -2.8500000E-001  1.2000000E-001 0.0
 -2.8500000E-001  1.2500000E-001 0.0
 -2.8500000E-001  1.3000000E-001 0.0
 -2.8500000E-001  1.3500000E-001 0.0
 -2.8500000E-001  1.4000000E-001 0.0
 -2.8500000E-001  1.4500000E-001 0.0
 -2.8500000E-001  1.5000000E-001 0.0
 -2.8500000E-001  1.5500000E-001 0.0
 -2.8500000E-001  1.6000000E-001 0.0
 -2.8500000E-001  1.6500000E-001 0.0
 -2.8500000E-001  1.7000000E-001 0.0
 -2.8500000E-001  1.7500000E-001 0.0
 -2.8500000E-001  1.8000000E-001 0.0
 -2.8500000E-001  1.8500000E-001 0.0
 -2.8500000E-001  1.9000000E-001 0.0
 -2.8500000E-001  1.9500000E-001 0.0
 -2.8500000E-001  2.0000000E-001 0.0
 -2.9000000E-001  2.0000000E-001 0.0
 -2.8000000E-001 -2.0000000E-001 0.0
 -2.8000000E-001 -1.9500000E-001 0.0
 -2.8000000E-001 -1.9000000E-001 0.0
 -2.8000000E-001 -1.8500000E-001 0.0
 -2.8000000E-001 -1.8000000E-001 0.0
 -2.8000000E-001 -1.7500000E-001 0.0
 -2.8000000E-001 -1.7000000E-001 0.0
 -2.8000000E-001 -1.6500000E-001 0.0
 -2.8000000E-001 -1.6000000E-001 0.0
 -2.8000000E-001 -1.5500000E-001 0.0
 -2.8000000E-001 -1.5000000E-001 0.0
 -2.8000000E-001 -1.4500000E-001 0.0
 -2.8000000E-001 -1.4000000E-001 0.0
 -2.8000000E-001 -1.3500000E-001 0.0
 -2.8000000E-001 -1.3000000E-001 0.0
 -2.8000000E-001 -1.2500000E-001 0.0
 -2.8500000E-001 -1.2500000E-001 0.0
 -2.8500000E-001  4.0000000E-002 0.0
 -2.8000000E-001  4.0000000E-002 0.0
 -2.8000000E-001  4.5000000E-002 0.0
 -2.8500000E-001  4.5000000E-002 0.0
 -2.8000000E-001  5.0000000E-002 0.0
 -2.8500000E-001  5.0000000E-002 0.0
 -2.8000000E-001  5.5000000E-002 0.0
 -2.8000000E-001  6.0000000E-002 0.0
 -2.8000000E-001  6.5000000E-002 0.0
 -2.8000000E-001  7.0000000E-002 0.0
 -2.8000000E-001  7.5000000E-002 0.0
 -2.8000000E-001  8.0000000E-002 0.0
 -2.8000000E-001  8.5000000E-002 0.0
 -2.8000000E-001  9.0000000E-002 0.0
 -2.8000000E-001  9.5000000E-002 0.0
 -2.8000000E-001  1.0000000E-001 0.0
 -2.8000000E-001  1.0500000E-001 0.0
 -2.8000000E-001  1.1000000E-001 0.0
 -2.8000000E-001  1.1500000E-001 0.0
 -2.8000000E-001  1.2000000E-001 0.0
 -2.8000000E-001  1.2500000E-001 0.0
 -2.8000000E-001  1.3000000E-001 0.0
 -2.8000000E-001  1.3500000E-001 0.0
 -2.8000000E-001  1.4000000E-001 0.0
 -2.8000000E-001  1.4500000E-001 0.0
 -2.8000000E-001  1.5000000E-001 0.0
 -2.8000000E-001  1.5500000E-001 0.0
 -2.8000000E-001  1.6000000E-001 0.0
 -2.8000000E-001  1.6500000E-001 0.0
 -2.8000000E-001  1.7000000E-001 0.0
 -2.8000000E-001  1.7500000E-001 0.0
 -2.8000000E-001  1.8000000E-001 0.0
 -2.8000000E-001  1.8500000E-001 0.0
 -2.8000000E-001  1.9000000E-001 0.0
 -2.8000000E-001  1.9500000E-001 0.0
 -2.8000000E-001  2.0000000E-001 0.0
 -2.8000000E-001  2.0500000E-001 0.0
 -2.8500000E-001  2.0500000E-001 0.0
 -2.7500000E-001 -2.0000000E-001 0.0
 -2.7500000E-001 -1.9500000E-001 0.0
 -2.7500000E-001 -1.9000000E-001 0.0
 -2.7500000E-001 -1.8500000E-001 0.0
 -2.7500000E-001 -1.8000000E-001 0.0
 -2.7500000E-001 -1.7500000E-001 0.0
 -2.7500000E-001 -1.7000000E-001 0.0
 -2.7500000E-001 -1.6500000E-001 0.0
 -2.7500000E-001 -1.6000000E-001 0.0
 -2.7500000E-001 -1.5500000E-001 0.0
 -2.7500000E-001 -1.5000000E-001 0.0
 -2.7500000E-001 -1.4500000E-001 0.0
 -2.7500000E-001 -1.4000000E-001 0.0
 -2.7500000E-001 -1.3500000E-001 0.0
 -2.7500000E-001 -1.3000000E-001 0.0
 -2.7500000E-001 -1.2500000E-001 0.0
 -2.8000000E-001  3.0000000E-002 0.0
 -2.7500000E-001  3.0000000E-002 0.0
 -2.7500000E-001  3.5000000E-002 0.0
 -2.8000000E-001  3.5000000E-002 0.0
 -2.7500000E-001  4.0000000E-002 0.0
 -2.7500000E-001  4.5000000E-002 0.0
 -2.7500000E-001  5.0000000E-002 0.0
 -2.7500000E-001  5.5000000E-002 0.0
 -2.7500000E-001  6.0000000E-002 0.0
 -2.7500000E-001  6.5000000E-002 0.0
 -2.7500000E-001  7.0000000E-002 0.0
 -2.7500000E-001  7.5000000E-002 0.0
 -2.7500000E-001  8.0000000E-002 0.0
 -2.7500000E-001  8.5000000E-002 0.0
 -2.7500000E-001  9.0000000E-002 0.0
 -2.7500000E-001  9.5000000E-002 0.0
 -2.7500000E-001  1.0000000E-001 0.0
 -2.7500000E-001  1.0500000E-001 0.0
 -2.7500000E-001  1.1000000E-001 0.0
 -2.7500000E-001  1.1500000E-001 0.0
 -2.7500000E-001  1.2000000E-001 0.0
 -2.7500000E-001  1.2500000E-001 0.0
 -2.7500000E-001  1.3000000E-001 0.0
 -2.7500000E-001  1.3500000E-001 0.0
 -2.7500000E-001  1.4000000E-001 0.0
 -2.7500000E-001  1.4500000E-001 0.0
 -2.7500000E-001  1.5000000E-001 0.0
 -2.7500000E-001  1.5500000E-001 0.0
 -2.7500000E-001  1.6000000E-001 0.0
 -2.7500000E-001  1.6500000E-001 0.0
 -2.7500000E-001  1.7000000E-001 0.0
 -2.7500000E-001  1.7500000E-001 0.0
 -2.7500000E-001  1.8000000E-001 0.0
 -2.7500000E-001  1.8500000E-001 0.0
 -2.7500000E-001  1.9000000E-001 0.0
 -2.7500000E-001  1.9500000E-001 0.0
 -2.7500000E-001  2.0000000E-001 0.0
 -2.7500000E-001  2.0500000E-001 0.0
 -2.7000000E-001 -2.0000000E-001 0.0
 -2.7000000E-001 -1.9500000E-001 0.0
 -2.7000000E-001 -1.9000000E-001 0.0
 -2.7000000E-001 -1.8500000E-001 0.0
 -2.7000000E-001 -1.8000000E-001 0.0
 -2.7000000E-001 -1.7500000E-001 0.0
 -2.7000000E-001 -1.7000000E-001 0.0
 -2.7000000E-001 -1.6500000E-001 0.0
 -2.7000000E-001 -1.6000000E-001 0.0
 -2.7000000E-001 -1.5500000E-001 0.0
 -2.7000000E-001 -1.5000000E-001 0.0
 -2.7000000E-001 -1.4500000E-001 0.0
 -2.7000000E-001 -1.4000000E-001 0.0
 -2.7000000E-001 -1.3500000E-001 0.0
 -2.7000000E-001 -1.3000000E-001 0.0
 -2.7000000E-001 -1.2500000E-001 0.0
 -2.7000000E-001 -1.2000000E-001 0.0
 -2.7500000E-001 -1.2000000E-001 0.0
 -2.7500000E-001  1.5000000E-002 0.0
 -2.7000000E-001  1.5000000E-002 0.0
 -2.7000000E-001  2.0000000E-002 0.0
 -2.7500000E-001  2.0000000E-002 0.0
 -2.7000000E-001  2.5000000E-002 0.0
 -2.7500000E-001  2.5000000E-002 0.0
 -2.7000000E-001  3.0000000E-002 0.0
 -2.7000000E-001  3.5000000E-002 0.0
 -2.7000000E-001  4.0000000E-002 0.0
 -2.7000000E-001  4.5000000E-002 0.0
 -2.7000000E-001  5.0000000E-002 0.0
 -2.7000000E-001  5.5000000E-002 0.0
 -2.7000000E-001  6.0000000E-002 0.0
 -2.7000000E-001  6.5000000E-002 0.0
 -2.7000000E-001  7.0000000E-002 0.0
 -2.7000000E-001  7.5000000E-002 0.0
 -2.7000000E-001  8.0000000E-002 0.0
 -2.7000000E-001  8.5000000E-002 0.0
 -2.7000000E-001  9.0000000E-002 0.0
 -2.7000000E-001  9.5000000E-002 0.0
 -2.7000000E-001  1.0000000E-001 0.0
 -2.7000000E-001  1.0500000E-001 0.0
 -2.7000000E-001  1.1000000E-001 0.0
 -2.7000000E-001  1.1500000E-001 0.0
 -2.7000000E-001  1.2000000E-001 0.0
 -2.7000000E-001  1.2500000E-001 0.0
 -2.7000000E-001  1.3000000E-001 0.0
 -2.7000000E-001  1.3500000E-001 0.0
 -2.7000000E-001  1.4000000E-001 0.0
 -2.7000000E-001  1.4500000E-001 0.0
 -2.7000000E-001  1.5000000E-001 0.0
 -2.7000000E-001  1.5500000E-001 0.0
 -2.7000000E-001  1.6000000E-001 0.0
 -2.7000000E-001  1.6500000E-001 0.0
 -2.7000000E-001  1.7000000E-001 0.0
 -2.7000000E-001  1.7500000E-001 0.0
 -2.7000000E-001  1.8000000E-001 0.0
 -2.7000000E-001  1.8500000E-001 0.0
 -2.7000000E-001  1.9000000E-001 0.0
 -2.7000000E-001  1.9500000E-001 0.0
 -2.7000000E-001  2.0000000E-001 0.0
 -2.7000000E-001  2.0500000E-001 0.0
 -2.7000000E-001  2.1000000E-001 0.0
 -2.7500000E-001  2.1000000E-001 0.0
 -2.6500000E-001 -2.0000000E-001 0.0
 -2.6500000E-001 -1.9500000E-001 0.0
 -2.6500000E-001 -1.9000000E-001 0.0
 -2.6500000E-001 -1.8500000E-001 0.0
 -2.6500000E-001 -1.8000000E-001 0.0
 -2.6500000E-001 -1.7500000E-001 0.0
 -2.6500000E-001 -1.7000000E-001 0.0
 -2.6500000E-001 -1.6500000E-001 0.0
 -2.6500000E-001 -1.6000000E-001 0.0
 -2.6500000E-001 -1.5500000E-001 0.0
 -2.6500000E-001 -1.5000000E-001 0.0
 -2.6500000E-001 -1.4500000E-001 0.0
 -2.6500000E-001 -1.4000000E-001 0.0
 -2.6500000E-001 -1.3500000E-001 0.0
 -2.6500000E-001 -1.3000000E-001 0.0
 -2.6500000E-001 -1.2500000E-001 0.0
 -2.6500000E-001 -1.2000000E-001 0.0
 -2.7000000E-001  0.0000000E+000 0.0
 -2.6500000E-001  0.0000000E+000 0.0
 -2.6500000E-001  5.0000000E-003 0.0
 -2.7000000E-001  5.0000000E-003 0.0
 -2.6500000E-001  1.0000000E-002 0.0
 -2.7000000E-001  1.0000000E-002 0.0
 -2.6500000E-001  1.5000000E-002 0.0
 -2.6500000E-001  2.0000000E-002 0.0
 -2.6500000E-001  2.5000000E-002 0.0
 -2.6500000E-001  3.0000000E-002 0.0
 -2.6500000E-001  3.5000000E-002 0.0
 -2.6500000E-001  4.0000000E-002 0.0
 -2.6500000E-001  4.5000000E-002 0.0
 -2.6500000E-001  5.0000000E-002 0.0
 -2.6500000E-001  5.5000000E-002 0.0
 -2.6500000E-001  6.0000000E-002 0.0
 -2.6500000E-001  6.5000000E-002 0.0
 -2.6500000E-001  7.0000000E-002 0.0
 -2.6500000E-001  7.5000000E-002 0.0
 -2.6500000E-001  8.0000000E-002 0.0
 -2.6500000E-001  8.5000000E-002 0.0
 -2.6500000E-001  9.0000000E-002 0.0
 -2.6500000E-001  9.5000000E-002 0.0
 -2.6500000E-001  1.0000000E-001 0.0
 -2.6500000E-001  1.0500000E-001 0.0
 -2.6500000E-001  1.1000000E-001 0.0
 -2.6500000E-001  1.1500000E-001 0.0
 -2.6500000E-001  1.2000000E-001 0.0
 -2.6500000E-001  1.2500000E-001 0.0
 -2.6500000E-001  1.3000000E-001 0.0
 -2.6500000E-001  1.3500000E-001 0.0
 -2.6500000E-001  1.4000000E-001 0.0
 -2.6500000E-001  1.4500000E-001 0.0
 -2.6500000E-001  1.5000000E-001 0.0
 -2.6500000E-001  1.5500000E-001 0.0
 -2.6500000E-001  1.6000000E-001 0.0
 -2.6500000E-001  1.6500000E-001 0.0
 -2.6500000E-001  1.7000000E-001 0.0
 -2.6500000E-001  1.7500000E-001 0.0
 -2.6500000E-001  1.8000000E-001 0.0
 -2.6500000E-001  1.8500000E-001 0.0
 -2.6500000E-001  1.9000000E-001 0.0
 -2.6500000E-001  1.9500000E-001 0.0
 -2.6500000E-001  2.0000000E-001 0.0
 -2.6500000E-001  2.0500000E-001 0.0
 -2.6500000E-001  2.1000000E-001 0.0
 -2.6000000E-001 -1.9500000E-001 0.0
 -2.6000000E-001 -1.9000000E-001 0.0
 -2.6000000E-001 -1.8500000E-001 0.0
 -2.6000000E-001 -1.8000000E-001 0.0
 -2.6000000E-001 -1.7500000E-001 0.0
 -2.6000000E-001 -1.7000000E-001 0.0
 -2.6000000E-001 -1.6500000E-001 0.0
 -2.6000000E-001 -1.6000000E-001 0.0
 -2.6000000E-001 -1.5500000E-001 0.0
 -2.6000000E-001 -1.5000000E-001 0.0
 -2.6000000E-001 -1.4500000E-001 0.0
 -2.6000000E-001 -1.4000000E-001 0.0
 -2.6000000E-001 -1.3500000E-001 0.0
 -2.6000000E-001 -1.3000000E-001 0.0
 -2.6000000E-001 -1.2500000E-001 0.0
 -2.6000000E-001 -1.2000000E-001 0.0
 -2.6500000E-001 -3.0000000E-002 0.0
 -2.6000000E-001 -3.0000000E-002 0.0
 -2.6000000E-001 -2.5000000E-002 0.0
 -2.6500000E-001 -2.5000000E-002 0.0
 -2.6000000E-001 -2.0000000E-002 0.0
 -2.6500000E-001 -2.0000000E-002 0.0
 -2.6000000E-001 -1.5000000E-002 0.0
 -2.6500000E-001 -1.5000000E-002 0.0
 -2.6000000E-001 -1.0000000E-002 0.0
 -2.6500000E-001 -1.0000000E-002 0.0
 -2.6000000E-001 -5.0000000E-003 0.0
 -2.6500000E-001 -5.0000000E-003 0.0
 -2.6000000E-001  0.0000000E+000 0.0
 -2.6000000E-001  5.0000000E-003 0.0
 -2.6000000E-001  1.0000000E-002 0.0
 -2.6000000E-001  1.5000000E-002 0.0
 -2.6000000E-001  2.0000000E-002 0.0
 -2.6000000E-001  2.5000000E-002 0.0
 -2.6000000E-001  3.0000000E-002 0.0
 -2.6000000E-001  3.5000000E-002 0.0
 -2.6000000E-001  4.0000000E-002 0.0
 -2.6000000E-001  4.5000000E-002 0.0
 -2.6000000E-001  5.0000000E-002 0.0
 -2.6000000E-001  5.5000000E-002 0.0
 -2.6000000E-001  6.0000000E-002 0.0
 -2.6000000E-001  6.5000000E-002 0.0
 -2.6000000E-001  7.0000000E-002 0.0
 -2.6000000E-001  7.5000000E-002 0.0
 -2.6000000E-001  8.0000000E-002 0.0
 -2.6000000E-001  8.5000000E-002 0.0
 -2.6000000E-001  9.0000000E-002 0.0
 -2.6000000E-001  9.5000000E-002 0.0
 -2.6000000E-001  1.0000000E-001 0.0
 -2.6000000E-001  1.0500000E-001 0.0
 -2.6000000E-001  1.1000000E-001 0.0
 -2.6000000E-001  1.1500000E-001 0.0
 -2.6000000E-001  1.2000000E-001 0.0
 -2.6000000E-001  1.2500000E-001 0.0
 -2.6000000E-001  1.3000000E-001 0.0
 -2.6000000E-001  1.3500000E-001 0.0
 -2.6000000E-001  1.4000000E-001 0.0
 -2.6000000E-001  1.4500000E-001 0.0
 -2.6000000E-001  1.5000000E-001 0.0
 -2.6000000E-001  1.5500000E-001 0.0
 -2.6000000E-001  1.6000000E-001 0.0
 -2.6000000E-001  1.6500000E-001 0.0
 -2.6000000E-001  1.7000000E-001 0.0
 -2.6000000E-001  1.7500000E-001 0.0
 -2.6000000E-001  1.8000000E-001 0.0
 -2.6000000E-001  1.8500000E-001 0.0
 -2.6000000E-001  1.9000000E-001 0.0
 -2.6000000E-001  1.9500000E-001 0.0
 -2.6000000E-001  2.0000000E-001 0.0
 -2.6000000E-001  2.0500000E-001 0.0
 -2.6000000E-001  2.1000000E-001 0.0
 -2.6000000E-001  2.1500000E-001 0.0
 -2.6500000E-001  2.1500000E-001 0.0
 -2.5500000E-001 -1.9500000E-001 0.0
 -2.5500000E-001 -1.9000000E-001 0.0
 -2.5500000E-001 -1.8500000E-001 0.0
 -2.5500000E-001 -1.8000000E-001 0.0
 -2.5500000E-001 -1.7500000E-001 0.0
 -2.5500000E-001 -1.7000000E-001 0.0
 -2.5500000E-001 -1.6500000E-001 0.0
 -2.5500000E-001 -1.6000000E-001 0.0
 -2.5500000E-001 -1.5500000E-001 0.0
 -2.5500000E-001 -1.5000000E-001 0.0
 -2.5500000E-001 -1.4500000E-001 0.0
 -2.5500000E-001 -1.4000000E-001 0.0
 -2.5500000E-001 -1.3500000E-001 0.0
 -2.5500000E-001 -1.3000000E-001 0.0
 -2.5500000E-001 -1.2500000E-001 0.0
 -2.5500000E-001 -1.2000000E-001 0.0
 -2.5500000E-001 -1.1500000E-001 0.0
 -2.6000000E-001 -1.1500000E-001 0.0
 -2.6000000E-001 -5.0000000E-002 0.0
 -2.5500000E-001 -5.0000000E-002 0.0
 -2.5500000E-001 -4.5000000E-002 0.0
 -2.6000000E-001 -4.5000000E-002 0.0
 -2.5500000E-001 -4.0000000E-002 0.0
 -2.6000000E-001 -4.0000000E-002 0.0
 -2.5500000E-001 -3.5000000E-002 0.0
 -2.6000000E-001 -3.5000000E-002 0.0
 -2.5500000E-001 -3.0000000E-002 0.0
 -2.5500000E-001 -2.5000000E-002 0.0
 -2.5500000E-001 -2.0000000E-002 0.0
 -2.5500000E-001 -1.5000000E-002 0.0
 -2.5500000E-001 -1.0000000E-002 0.0
 -2.5500000E-001 -5.0000000E-003 0.0
 -2.5500000E-001  0.0000000E+000 0.0
 -2.5500000E-001  5.0000000E-003 0.0
 -2.5500000E-001  1.0000000E-002 0.0
 -2.5500000E-001  1.5000000E-002 0.0
 -2.5500000E-001  2.0000000E-002 0.0
 -2.5500000E-001  2.5000000E-002 0.0
 -2.5500000E-001  3.0000000E-002 0.0
 -2.5500000E-001  3.5000000E-002 0.0
 -2.5500000E-001  4.0000000E-002 0.0
 -2.5500000E-001  4.5000000E-002 0.0
 -2.5500000E-001  5.0000000E-002 0.0
 -2.5500000E-001  5.5000000E-002 0.0
 -2.5500000E-001  6.0000000E-002 0.0
 -2.5500000E-001  6.5000000E-002 0.0
 -2.5500000E-001  7.0000000E-002 0.0
 -2.5500000E-001  7.5000000E-002 0.0
 -2.5500000E-001  8.0000000E-002 0.0
 -2.5500000E-001  8.5000000E-002 0.0
 -2.5500000E-001  9.0000000E-002 0.0
 -2.5500000E-001  9.5000000E-002 0.0
 -2.5500000E-001  1.0000000E-001 0.0
 -2.5500000E-001  1.0500000E-001 0.0
 -2.5500000E-001  1.1000000E-001 0.0
 -2.5500000E-001  1.1500000E-001 0.0
 -2.5500000E-001  1.2000000E-001 0.0
 -2.5500000E-001  1.2500000E-001 0.0
 -2.5500000E-001  1.3000000E-001 0.0
 -2.5500000E-001  1.3500000E-001 0.0
 -2.5500000E-001  1.4000000E-001 0.0
 -2.5500000E-001  1.4500000E-001 0.0
 -2.5500000E-001  1.5000000E-001 0.0
 -2.5500000E-001  1.5500000E-001 0.0
 -2.5500000E-001  1.6000000E-001 0.0
 -2.5500000E-001  1.6500000E-001 0.0
 -2.5500000E-001  1.7000000E-001 0.0
 -2.5500000E-001  1.7500000E-001 0.0
 -2.5500000E-001  1.8000000E-001 0.0
 -2.5500000E-001  1.8500000E-001 0.0
 -2.5500000E-001  1.9000000E-001 0.0
 -2.5500000E-001  1.9500000E-001 0.0
 -2.5500000E-001  2.0000000E-001 0.0
 -2.5500000E-001  2.0500000E-001 0.0
 -2.5500000E-001  2.1000000E-001 0.0
 -2.5500000E-001  2.1500000E-001 0.0
 -2.5000000E-001 -1.9000000E-001 0.0
 -2.5000000E-001 -1.8500000E-001 0.0
 -2.5000000E-001 -1.8000000E-001 0.0
 -2.5000000E-001 -1.7500000E-001 0.0
 -2.5000000E-001 -1.7000000E-001 0.0
 -2.5000000E-001 -1.6500000E-001 0.0
 -2.5000000E-001 -1.6000000E-001 0.0
 -2.5000000E-001 -1.5500000E-001 0.0
 -2.5000000E-001 -1.5000000E-001 0.0
 -2.5000000E-001 -1.4500000E-001 0.0
 -2.5000000E-001 -1.4000000E-001 0.0
 -2.5000000E-001 -1.3500000E-001 0.0
 -2.5000000E-001 -1.3000000E-001 0.0
 -2.5000000E-001 -1.2500000E-001 0.0
 -2.5000000E-001 -1.2000000E-001 0.0
 -2.5000000E-001 -1.1500000E-001 0.0
 -2.5000000E-001 -1.1000000E-001 0.0
 -2.5500000E-001 -1.1000000E-001 0.0
 -2.5500000E-001 -6.5000000E-002 0.0
 -2.5000000E-001 -6.5000000E-002 0.0
 -2.5000000E-001 -6.0000000E-002 0.0
 -2.5500000E-001 -6.0000000E-002 0.0
 -2.5000000E-001 -5.5000000E-002 0.0
 -2.5500000E-001 -5.5000000E-002 0.0
 -2.5000000E-001 -5.0000000E-002 0.0
 -2.5000000E-001 -4.5000000E-002 0.0
 -2.5000000E-001 -4.0000000E-002 0.0
 -2.5000000E-001 -3.5000000E-002 0.0
 -2.5000000E-001 -3.0000000E-002 0.0
 -2.5000000E-001 -2.5000000E-002 0.0
 -2.5000000E-001 -2.0000000E-002 0.0
 -2.5000000E-001 -1.5000000E-002 0.0
 -2.5000000E-001 -1.0000000E-002 0.0
 -2.5000000E-001 -5.0000000E-003 0.0
 -2.5000000E-001  0.0000000E+000 0.0
 -2.5000000E-001  5.0000000E-003 0.0
 -2.5000000E-001  1.0000000E-002 0.0
 -2.5000000E-001  1.5000000E-002 0.0
 -2.5000000E-001  2.0000000E-002 0.0
 -2.5000000E-001  2.5000000E-002 0.0
 -2.5000000E-001  3.0000000E-002 0.0
 -2.5000000E-001  3.5000000E-002 0.0
 -2.5000000E-001  4.0000000E-002 0.0
 -2.5000000E-001  4.5000000E-002 0.0
 -2.5000000E-001  5.0000000E-002 0.0
 -2.5000000E-001  5.5000000E-002 0.0
 -2.5000000E-001  6.0000000E-002 0.0
 -2.5000000E-001  6.5000000E-002 0.0
 -2.5000000E-001  7.0000000E-002 0.0
 -2.5000000E-001  7.5000000E-002 0.0
 -2.5000000E-001  8.0000000E-002 0.0
 -2.5000000E-001  8.5000000E-002 0.0
 -2.5000000E-001  9.0000000E-002 0.0
 -2.5000000E-001  9.5000000E-002 0.0
 -2.5000000E-001  1.0000000E-001 0.0
 -2.5000000E-001  1.0500000E-001 0.0
 -2.5000000E-001  1.1000000E-001 0.0
 -2.5000000E-001  1.1500000E-001 0.0
 -2.5000000E-001  1.2000000E-001 0.0
 -2.5000000E-001  1.2500000E-001 0.0
 -2.5000000E-001  1.3000000E-001 0.0
 -2.5000000E-001  1.3500000E-001 0.0
 -2.5000000E-001  1.4000000E-001 0.0
 -2.5000000E-001  1.4500000E-001 0.0
 -2.5000000E-001  1.5000000E-001 0.0
 -2.5000000E-001  1.5500000E-001 0.0
 -2.5000000E-001  1.6000000E-001 0.0
 -2.5000000E-001  1.6500000E-001 0.0
 -2.5000000E-001  1.7000000E-001 0.0
 -2.5000000E-001  1.7500000E-001 0.0
 -2.5000000E-001  1.8000000E-001 0.0
 -2.5000000E-001  1.8500000E-001 0.0
 -2.5000000E-001  1.9000000E-001 0.0
 -2.5000000E-001  1.9500000E-001 0.0
 -2.5000000E-001  2.0000000E-001 0.0
 -2.5000000E-001  2.0500000E-001 0.0
 -2.5000000E-001  2.1000000E-001 0.0
 -2.5000000E-001  2.1500000E-001 0.0
 -2.4500000E-001 -1.9000000E-001 0.0
 -2.4500000E-001 -1.8500000E-001 0.0
 -2.4500000E-001 -1.8000000E-001 0.0
 -2.4500000E-001 -1.7500000E-001 0.0
 -2.4500000E-001 -1.7000000E-001 0.0
 -2.4500000E-001 -1.6500000E-001 0.0
 -2.4500000E-001 -1.6000000E-001 0.0
 -2.4500000E-001 -1.5500000E-001 0.0
 -2.4500000E-001 -1.5000000E-001 0.0
 -2.4500000E-001 -1.4500000E-001 0.0
 -2.4500000E-001 -1.4000000E-001 0.0
 -2.4500000E-001 -1.3500000E-001 0.0
 -2.4500000E-001 -1.3000000E-001 0.0
 -2.4500000E-001 -1.2500000E-001 0.0
 -2.4500000E-001 -1.2000000E-001 0.0
 -2.4500000E-001 -1.1500000E-001 0.0
 -2.4500000E-001 -1.1000000E-001 0.0
 -2.4500000E-001 -1.0500000E-001 0.0
 -2.5000000E-001 -1.0500000E-001 0.0
 -2.4500000E-001 -1.0000000E-001 0.0
 -2.5000000E-001 -1.0000000E-001 0.0
 -2.4500000E-001 -9.5000000E-002 0.0
 -2.5000000E-001 -9.5000000E-002 0.0
 -2.4500000E-001 -9.0000000E-002 0.0
 -2.5000000E-001 -9.0000000E-002 0.0
 -2.4500000E-001 -8.5000000E-002 0.0
 -2.5000000E-001 -8.5000000E-002 0.0
 -2.4500000E-001 -8.0000000E-002 0.0
 -2.5000000E-001 -8.0000000E-002 0.0
 -2.4500000E-001 -7.5000000E-002 0.0
 -2.5000000E-001 -7.5000000E-002 0.0
 -2.4500000E-001 -7.0000000E-002 0.0
 -2.5000000E-001 -7.0000000E-002 0.0
 -2.4500000E-001 -6.5000000E-002 0.0
 -2.4500000E-001 -6.0000000E-002 0.0
 -2.4500000E-001 -5.5000000E-002 0.0
 -2.4500000E-001 -5.0000000E-002 0.0
 -2.4500000E-001 -4.5000000E-002 0.0
 -2.4500000E-001 -4.0000000E-002 0.0
 -2.4500000E-001 -3.5000000E-002 0.0
 -2.4500000E-001 -3.0000000E-002 0.0
 -2.4500000E-001 -2.5000000E-002 0.0
 -2.4500000E-001 -2.0000000E-002 0.0
 -2.4500000E-001 -1.5000000E-002 0.0
 -2.4500000E-001 -1.0000000E-002 0.0
 -2.4500000E-001 -5.0000000E-003 0.0
 -2.4500000E-001  0.0000000E+000 0.0
 -2.4500000E-001  5.0000000E-003 0.0
 -2.4500000E-001  1.0000000E-002 0.0
 -2.4500000E-001  1.5000000E-002 0.0
 -2.4500000E-001  2.0000000E-002 0.0
 -2.4500000E-001  2.5000000E-002 0.0
 -2.4500000E-001  3.0000000E-002 0.0
 -2.4500000E-001  3.5000000E-002 0.0
 -2.4500000E-001  4.0000000E-002 0.0
 -2.4500000E-001  4.5000000E-002 0.0
 -2.4500000E-001  5.0000000E-002 0.0
 -2.4500000E-001  5.5000000E-002 0.0
 -2.4500000E-001  6.0000000E-002 0.0
 -2.4500000E-001  6.5000000E-002 0.0
 -2.4500000E-001  7.0000000E-002 0.0
 -2.4500000E-001  7.5000000E-002 0.0
 -2.4500000E-001  8.0000000E-002 0.0
 -2.4500000E-001  8.5000000E-002 0.0
 -2.4500000E-001  9.0000000E-002 0.0
 -2.4500000E-001  9.5000000E-002 0.0
 -2.4500000E-001  1.0000000E-001 0.0
 -2.4500000E-001  1.0500000E-001 0.0
 -2.4500000E-001  1.1000000E-001 0.0
 -2.4500000E-001  1.1500000E-001 0.0
 -2.4500000E-001  1.2000000E-001 0.0
 -2.4500000E-001  1.2500000E-001 0.0
 -2.4500000E-001  1.3000000E-001 0.0
 -2.4500000E-001  1.3500000E-001 0.0
 -2.4500000E-001  1.4000000E-001 0.0
 -2.4500000E-001  1.4500000E-001 0.0
 -2.4500000E-001  1.5000000E-001 0.0
 -2.4500000E-001  1.5500000E-001 0.0
 -2.4500000E-001  1.6000000E-001 0.0
 -2.4500000E-001  1.6500000E-001 0.0
 -2.4500000E-001  1.7000000E-001 0.0
 -2.4500000E-001  1.7500000E-001 0.0
 -2.4500000E-001  1.8000000E-001 0.0
 -2.4500000E-001  1.8500000E-001 0.0
 -2.4500000E-001  1.9000000E-001 0.0
 -2.4500000E-001  1.9500000E-001 0.0
 -2.4500000E-001  2.0000000E-001 0.0
 -2.4500000E-001  2.0500000E-001 0.0
 -2.4500000E-001  2.1000000E-001 0.0
 -2.4500000E-001  2.1500000E-001 0.0
 -2.4000000E-001 -1.8500000E-001 0.0
 -2.4000000E-001 -1.8000000E-001 0.0
 -2.4000000E-001 -1.7500000E-001 0.0
 -2.4000000E-001 -1.7000000E-001 0.0
 -2.4000000E-001 -1.6500000E-001 0.0
 -2.4000000E-001 -1.6000000E-001 0.0
 -2.4000000E-001 -1.5500000E-001 0.0
 -2.4000000E-001 -1.5000000E-001 0.0
 -2.4000000E-001 -1.4500000E-001 0.0
 -2.4000000E-001 -1.4000000E-001 0.0
 -2.4000000E-001 -1.3500000E-001 0.0
 -2.4000000E-001 -1.3000000E-001 0.0
 -2.4000000E-001 -1.2500000E-001 0.0
 -2.4000000E-001 -1.2000000E-001 0.0
 -2.4000000E-001 -1.1500000E-001 0.0
 -2.4000000E-001 -1.1000000E-001 0.0
 -2.4000000E-001 -1.0500000E-001 0.0
 -2.4000000E-001 -1.0000000E-001 0.0
 -2.4000000E-001 -9.5000000E-002 0.0
 -2.4000000E-001 -9.0000000E-002 0.0
 -2.4000000E-001 -8.5000000E-002 0.0
 -2.4000000E-001 -8.0000000E-002 0.0
 -2.4000000E-001 -7.5000000E-002 0.0
 -2.4000000E-001 -7.0000000E-002 0.0
 -2.4000000E-001 -6.5000000E-002 0.0
 -2.4000000E-001 -6.0000000E-002 0.0
 -2.4000000E-001 -5.5000000E-002 0.0
 -2.4000000E-001 -5.0000000E-002 0.0
 -2.4000000E-001 -4.5000000E-002 0.0
 -2.4000000E-001 -4.0000000E-002 0.0
 -2.4000000E-001 -3.5000000E-002 0.0
 -2.4000000E-001 -3.0000000E-002 0.0
 -2.4000000E-001 -2.5000000E-002 0.0
 -2.4000000E-001 -2.0000000E-002 0.0
 -2.4000000E-001 -1.5000000E-002 0.0
 -2.4000000E-001 -1.0000000E-002 0.0
 -2.4000000E-001 -5.0000000E-003 0.0
 -2.4000000E-001  0.0000000E+000 0.0
 -2.4000000E-001  5.0000000E-003 0.0
 -2.4000000E-001  1.0000000E-002 0.0
 -2.4000000E-001  1.5000000E-002 0.0
 -2.4000000E-001  2.0000000E-002 0.0
 -2.4000000E-001  2.5000000E-002 0.0
 -2.4000000E-001  3.0000000E-002 0.0
 -2.4000000E-001  3.5000000E-002 0.0
 -2.4000000E-001  4.0000000E-002 0.0
 -2.4000000E-001  4.5000000E-002 0.0
 -2.4000000E-001  5.0000000E-002 0.0
 -2.4000000E-001  5.5000000E-002 0.0
 -2.4000000E-001  6.0000000E-002 0.0
 -2.4000000E-001  6.5000000E-002 0.0
 -2.4000000E-001  7.0000000E-002 0.0
 -2.4000000E-001  7.5000000E-002 0.0
 -2.4000000E-001  8.0000000E-002 0.0
 -2.4000000E-001  8.5000000E-002 0.0
 -2.4000000E-001  9.0000000E-002 0.0
 -2.4000000E-001  9.5000000E-002 0.0
 -2.4000000E-001  1.0000000E-001 0.0
 -2.4000000E-001  1.0500000E-001 0.0
 -2.4000000E-001  1.1000000E-001 0.0
 -2.4000000E-001  1.1500000E-001 0.0
 -2.4000000E-001  1.2000000E-001 0.0
 -2.4000000E-001  1.2500000E-001 0.0
 -2.4000000E-001  1.3000000E-001 0.0
 -2.4000000E-001  1.3500000E-001 0.0
 -2.4000000E-001  1.4000000E-001 0.0
 -2.4000000E-001  1.4500000E-001 0.0
 -2.4000000E-001  1.5000000E-001 0.0
 -2.4000000E-001  1.5500000E-001 0.0
 -2.4000000E-001  1.6000000E-001 0.0
 -2.4000000E-001  1.6500000E-001 0.0
 -2.4000000E-001  1.7000000E-001 0.0
 -2.4000000E-001  1.7500000E-001 0.0
 -2.4000000E-001  1.8000000E-001 0.0
 -2.4000000E-001  1.8500000E-001 0.0
 -2.4000000E-001  1.9000000E-001 0.0
 -2.4000000E-001  1.9500000E-001 0.0
 -2.4000000E-001  2.0000000E-001 0.0
 -2.4000000E-001  2.0500000E-001 0.0
 -2.4000000E-001  2.1000000E-001 0.0
 -2.4000000E-001  2.1500000E-001 0.0
 -2.4000000E-001  2.2000000E-001 0.0
 -2.4500000E-001  2.2000000E-001 0.0
 -2.3500000E-001 -1.8500000E-001 0.0
 -2.3500000E-001 -1.8000000E-001 0.0
 -2.3500000E-001 -1.7500000E-001 0.0
 -2.3500000E-001 -1.7000000E-001 0.0
 -2.3500000E-001 -1.6500000E-001 0.0
 -2.3500000E-001 -1.6000000E-001 0.0
 -2.3500000E-001 -1.5500000E-001 0.0
 -2.3500000E-001 -1.5000000E-001 0.0
 -2.3500000E-001 -1.4500000E-001 0.0
 -2.3500000E-001 -1.4000000E-001 0.0
 -2.3500000E-001 -1.3500000E-001 0.0
 -2.3500000E-001 -1.3000000E-001 0.0
 -2.3500000E-001 -1.2500000E-001 0.0
 -2.3500000E-001 -1.2000000E-001 0.0
 -2.3500000E-001 -1.1500000E-001 0.0
 -2.3500000E-001 -1.1000000E-001 0.0
 -2.3500000E-001 -1.0500000E-001 0.0
 -2.3500000E-001 -1.0000000E-001 0.0
 -2.3500000E-001 -9.5000000E-002 0.0
 -2.3500000E-001 -9.0000000E-002 0.0
 -2.3500000E-001 -8.5000000E-002 0.0
 -2.3500000E-001 -8.0000000E-002 0.0
 -2.3500000E-001 -7.5000000E-002 0.0
 -2.3500000E-001 -7.0000000E-002 0.0
 -2.3500000E-001 -6.5000000E-002 0.0
 -2.3500000E-001 -6.0000000E-002 0.0
 -2.3500000E-001 -5.5000000E-002 0.0
 -2.3500000E-001 -5.0000000E-002 0.0
 -2.3500000E-001 -4.5000000E-002 0.0
 -2.3500000E-001 -4.0000000E-002 0.0
 -2.3500000E-001 -3.5000000E-002 0.0
 -2.3500000E-001 -3.0000000E-002 0.0
 -2.3500000E-001 -2.5000000E-002 0.0
 -2.3500000E-001 -2.0000000E-002 0.0
 -2.3500000E-001 -1.5000000E-002 0.0
 -2.3500000E-001 -1.0000000E-002 0.0
 -2.3500000E-001 -5.0000000E-003 0.0
 -2.3500000E-001  0.0000000E+000 0.0
 -2.3500000E-001  5.0000000E-003 0.0
 -2.3500000E-001  1.0000000E-002 0.0
 -2.3500000E-001  1.5000000E-002 0.0
 -2.3500000E-001  2.0000000E-002 0.0
 -2.3500000E-001  2.5000000E-002 0.0
 -2.3500000E-001  3.0000000E-002 0.0
 -2.3500000E-001  3.5000000E-002 0.0
 -2.3500000E-001  4.0000000E-002 0.0
 -2.3500000E-001  4.5000000E-002 0.0
 -2.3500000E-001  5.0000000E-002 0.0
 -2.3500000E-001  5.5000000E-002 0.0
 -2.3500000E-001  6.0000000E-002 0.0
 -2.3500000E-001  6.5000000E-002 0.0
 -2.3500000E-001  7.0000000E-002 0.0
 -2.3500000E-001  7.5000000E-002 0.0
 -2.3500000E-001  8.0000000E-002 0.0
 -2.3500000E-001  8.5000000E-002 0.0
 -2.3500000E-001  9.0000000E-002 0.0
 -2.3500000E-001  9.5000000E-002 0.0
 -2.3500000E-001  1.0000000E-001 0.0
 -2.3500000E-001  1.0500000E-001 0.0
 -2.3500000E-001  1.1000000E-001 0.0
 -2.3500000E-001  1.1500000E-001 0.0
 -2.3500000E-001  1.2000000E-001 0.0
 -2.3500000E-001  1.2500000E-001 0.0
 -2.3500000E-001  1.3000000E-001 0.0
 -2.3500000E-001  1.3500000E-001 0.0
 -2.3500000E-001  1.4000000E-001 0.0
 -2.3500000E-001  1.4500000E-001 0.0
 -2.3500000E-001  1.5000000E-001 0.0
 -2.3500000E-001  1.5500000E-001 0.0
 -2.3500000E-001  1.6000000E-001 0.0
 -2.3500000E-001  1.6500000E-001 0.0
 -2.3500000E-001  1.7000000E-001 0.0
 -2.3500000E-001  1.7500000E-001 0.0
 -2.3500000E-001  1.8000000E-001 0.0
 -2.3500000E-001  1.8500000E-001 0.0
 -2.3500000E-001  1.9000000E-001 0.0
 -2.3500000E-001  1.9500000E-001 0.0
 -2.3500000E-001  2.0000000E-001 0.0
 -2.3500000E-001  2.0500000E-001 0.0
 -2.3500000E-001  2.1000000E-001 0.0
 -2.3500000E-001  2.1500000E-001 0.0
 -2.3500000E-001  2.2000000E-001 0.0
 -2.3000000E-001 -1.8000000E-001 0.0
 -2.3000000E-001 -1.7500000E-001 0.0
 -2.3000000E-001 -1.7000000E-001 0.0
 -2.3000000E-001 -1.6500000E-001 0.0
 -2.3000000E-001 -1.6000000E-001 0.0
 -2.3000000E-001 -1.5500000E-001 0.0
 -2.3000000E-001 -1.5000000E-001 0.0
 -2.3000000E-001 -1.4500000E-001 0.0
 -2.3000000E-001 -1.4000000E-001 0.0
 -2.3000000E-001 -1.3500000E-001 0.0
 -2.3000000E-001 -1.3000000E-001 0.0
 -2.3000000E-001 -1.2500000E-001 0.0
 -2.3000000E-001 -1.2000000E-001 0.0
 -2.3000000E-001 -1.1500000E-001 0.0
 -2.3000000E-001 -1.1000000E-001 0.0
 -2.3000000E-001 -1.0500000E-001 0.0
 -2.3000000E-001 -1.0000000E-001 0.0
 -2.3000000E-001 -9.5000000E-002 0.0
 -2.3000000E-001 -9.0000000E-002 0.0
 -2.3000000E-001 -8.5000000E-002 0.0
 -2.3000000E-001 -8.0000000E-002 0.0
 -2.3000000E-001 -7.5000000E-002 0.0
 -2.3000000E-001 -7.0000000E-002 0.0
 -2.3000000E-001 -6.5000000E-002 0.0
 -2.3000000E-001 -6.0000000E-002 0.0
 -2.3000000E-001 -5.5000000E-002 0.0
 -2.3000000E-001 -5.0000000E-002 0.0
 -2.3000000E-001 -4.5000000E-002 0.0
 -2.3000000E-001 -4.0000000E-002 0.0
 -2.3000000E-001 -3.5000000E-002 0.0
 -2.3000000E-001 -3.0000000E-002 0.0
 -2.3000000E-001 -2.5000000E-002 0.0
 -2.3000000E-001 -2.0000000E-002 0.0
 -2.3000000E-001 -1.5000000E-002 0.0
 -2.3000000E-001 -1.0000000E-002 0.0
 -2.3000000E-001 -5.0000000E-003 0.0
 -2.3000000E-001  0.0000000E+000 0.0
 -2.3000000E-001  5.0000000E-003 0.0
 -2.3000000E-001  1.0000000E-002 0.0
 -2.3000000E-001  1.5000000E-002 0.0
 -2.3000000E-001  2.0000000E-002 0.0
 -2.3000000E-001  2.5000000E-002 0.0
 -2.3000000E-001  3.0000000E-002 0.0
 -2.3000000E-001  3.5000000E-002 0.0
 -2.3000000E-001  4.0000000E-002 0.0
 -2.3000000E-001  4.5000000E-002 0.0
 -2.3000000E-001  5.0000000E-002 0.0
 -2.3000000E-001  5.5000000E-002 0.0
 -2.3000000E-001  6.0000000E-002 0.0
 -2.3000000E-001  6.5000000E-002 0.0
 -2.3000000E-001  7.0000000E-002 0.0
 -2.3000000E-001  7.5000000E-002 0.0
 -2.3000000E-001  8.0000000E-002 0.0
 -2.3000000E-001  8.5000000E-002 0.0
 -2.3000000E-001  9.0000000E-002 0.0
 -2.3000000E-001  9.5000000E-002 0.0
 -2.3000000E-001  1.0000000E-001 0.0
 -2.3000000E-001  1.0500000E-001 0.0
 -2.3000000E-001  1.1000000E-001 0.0
 -2.3000000E-001  1.1500000E-001 0.0
 -2.3000000E-001  1.2000000E-001 0.0
 -2.3000000E-001  1.2500000E-001 0.0
 -2.3000000E-001  1.3000000E-001 0.0
 -2.3000000E-001  1.3500000E-001 0.0
 -2.3000000E-001  1.4000000E-001 0.0
 -2.3000000E-001  1.4500000E-001 0.0
 -2.3000000E-001  1.5000000E-001 0.0
 -2.3000000E-001  1.5500000E-001 0.0
 -2.3000000E-001  1.6000000E-001 0.0
 -2.3000000E-001  1.6500000E-001 0.0
 -2.3000000E-001  1.7000000E-001 0.0
 -2.3000000E-001  1.7500000E-001 0.0
 -2.3000000E-001  1.8000000E-001 0.0
 -2.3000000E-001  1.8500000E-001 0.0
 -2.3000000E-001  1.9000000E-001 0.0
 -2.3000000E-001  1.9500000E-001 0.0
 -2.3000000E-001  2.0000000E-001 0.0
 -2.3000000E-001  2.0500000E-001 0.0
 -2.3000000E-001  2.1000000E-001 0.0
 -2.3000000E-001  2.1500000E-001 0.0
 -2.2500000E-001 -1.8000000E-001 0.0
 -2.2500000E-001 -1.7500000E-001 0.0
 -2.2500000E-001 -1.7000000E-001 0.0
 -2.2500000E-001 -1.6500000E-001 0.0
 -2.2500000E-001 -1.6000000E-001 0.0
 -2.2500000E-001 -1.5500000E-001 0.0
 -2.2500000E-001 -1.5000000E-001 0.0
 -2.2500000E-001 -1.4500000E-001 0.0
 -2.2500000E-001 -1.4000000E-001 0.0
 -2.2500000E-001 -1.3500000E-001 0.0
 -2.2500000E-001 -1.3000000E-001 0.0
 -2.2500000E-001 -1.2500000E-001 0.0
 -2.2500000E-001 -1.2000000E-001 0.0
 -2.2500000E-001 -1.1500000E-001 0.0
 -2.2500000E-001 -1.1000000E-001 0.0
 -2.2500000E-001 -1.0500000E-001 0.0
 -2.2500000E-001 -1.0000000E-001 0.0
 -2.2500000E-001 -9.5000000E-002 0.0
 -2.2500000E-001 -9.0000000E-002 0.0
 -2.2500000E-001 -8.5000000E-002 0.0
 -2.2500000E-001 -8.0000000E-002 0.0
 -2.2500000E-001 -7.5000000E-002 0.0
 -2.2500000E-001 -7.0000000E-002 0.0
 -2.2500000E-001 -6.5000000E-002 0.0
 -2.2500000E-001 -6.0000000E-002 0.0
 -2.2500000E-001 -5.5000000E-002 0.0
 -2.2500000E-001 -5.0000000E-002 0.0
 -2.2500000E-001 -4.5000000E-002 0.0
 -2.2500000E-001 -4.0000000E-002 0.0
 -2.2500000E-001 -3.5000000E-002 0.0
 -2.2500000E-001 -3.0000000E-002 0.0
 -2.2500000E-001 -2.5000000E-002 0.0
 -2.2500000E-001 -2.0000000E-002 0.0
 -2.2500000E-001 -1.5000000E-002 0.0
 -2.2500000E-001 -1.0000000E-002 0.0
 -2.2500000E-001 -5.0000000E-003 0.0
 -2.2500000E-001  0.0000000E+000 0.0
 -2.2500000E-001  5.0000000E-003 0.0
 -2.2500000E-001  1.0000000E-002 0.0
 -2.2500000E-001  1.5000000E-002 0.0
 -2.2500000E-001  2.0000000E-002 0.0
 -2.2500000E-001  2.5000000E-002 0.0
 -2.2500000E-001  3.0000000E-002 0.0
 -2.2500000E-001  3.5000000E-002 0.0
 -2.2500000E-001  4.0000000E-002 0.0
 -2.2500000E-001  4.5000000E-002 0.0
 -2.2500000E-001  5.0000000E-002 0.0
 -2.2500000E-001  5.5000000E-002 0.0
 -2.2500000E-001  6.0000000E-002 0.0
 -2.2500000E-001  6.5000000E-002 0.0
 -2.2500000E-001  7.0000000E-002 0.0
 -2.2500000E-001  7.5000000E-002 0.0
 -2.2500000E-001  8.0000000E-002 0.0
 -2.2500000E-001  8.5000000E-002 0.0
 -2.2500000E-001  9.0000000E-002 0.0
 -2.2500000E-001  9.5000000E-002 0.0
 -2.2500000E-001  1.0000000E-001 0.0
 -2.2500000E-001  1.0500000E-001 0.0
 -2.2500000E-001  1.1000000E-001 0.0
 -2.2500000E-001  1.1500000E-001 0.0
 -2.2500000E-001  1.2000000E-001 0.0
 -2.2500000E-001  1.2500000E-001 0.0
 -2.2500000E-001  1.3000000E-001 0.0
 -2.2500000E-001  1.3500000E-001 0.0
 -2.2500000E-001  1.4000000E-001 0.0
 -2.2500000E-001  1.4500000E-001 0.0
 -2.2500000E-001  1.5000000E-001 0.0
 -2.2500000E-001  1.5500000E-001 0.0
 -2.2500000E-001  1.6000000E-001 0.0
 -2.2500000E-001  1.6500000E-001 0.0
 -2.2500000E-001  1.7000000E-001 0.0
 -2.2500000E-001  1.7500000E-001 0.0
 -2.2500000E-001  1.8000000E-001 0.0
 -2.2500000E-001  1.8500000E-001 0.0
 -2.2500000E-001  1.9000000E-001 0.0
 -2.2500000E-001  1.9500000E-001 0.0
 -2.2500000E-001  2.0000000E-001 0.0
 -2.2500000E-001  2.0500000E-001 0.0
 -2.2500000E-001  2.1000000E-001 0.0
 -2.2500000E-001  2.1500000E-001 0.0
 -2.2000000E-001 -1.7500000E-001 0.0
 -2.2000000E-001 -1.7000000E-001 0.0
 -2.2000000E-001 -1.6500000E-001 0.0
 -2.2000000E-001 -1.6000000E-001 0.0
 -2.2000000E-001 -1.5500000E-001 0.0
 -2.2000000E-001 -1.5000000E-001 0.0
 -2.2000000E-001 -1.4500000E-001 0.0
 -2.2000000E-001 -1.4000000E-001 0.0
 -2.2000000E-001 -1.3500000E-001 0.0
 -2.2000000E-001 -1.3000000E-001 0.0
 -2.2000000E-001 -1.2500000E-001 0.0
 -2.2000000E-001 -1.2000000E-001 0.0
 -2.2000000E-001 -1.1500000E-001 0.0
 -2.2000000E-001 -1.1000000E-001 0.0
 -2.2000000E-001 -1.0500000E-001 0.0
 -2.2000000E-001 -1.0000000E-001 0.0
 -2.2000000E-001 -9.5000000E-002 0.0
 -2.2000000E-001 -9.0000000E-002 0.0
 -2.2000000E-001 -8.5000000E-002 0.0
 -2.2000000E-001 -8.0000000E-002 0.0
 -2.2000000E-001 -7.5000000E-002 0.0
 -2.2000000E-001 -7.0000000E-002 0.0
 -2.2000000E-001 -6.5000000E-002 0.0
 -2.2000000E-001 -6.0000000E-002 0.0
 -2.2000000E-001 -5.5000000E-002 0.0
 -2.2000000E-001 -5.0000000E-002 0.0
 -2.2000000E-001 -4.5000000E-002 0.0
 -2.2000000E-001 -4.0000000E-002 0.0
 -2.2000000E-001 -3.5000000E-002 0.0
 -2.2000000E-001 -3.0000000E-002 0.0
 -2.2000000E-001 -2.5000000E-002 0.0
 -2.2000000E-001 -2.0000000E-002 0.0
 -2.2000000E-001 -1.5000000E-002 0.0
 -2.2000000E-001 -1.0000000E-002 0.0
 -2.2000000E-001 -5.0000000E-003 0.0
 -2.2000000E-001  0.0000000E+000 0.0
 -2.2000000E-001  5.0000000E-003 0.0
 -2.2000000E-001  1.0000000E-002 0.0
 -2.2000000E-001  1.5000000E-002 0.0
 -2.2000000E-001  2.0000000E-002 0.0
 -2.2000000E-001  2.5000000E-002 0.0
 -2.2000000E-001  3.0000000E-002 0.0
 -2.2000000E-001  3.5000000E-002 0.0
 -2.2000000E-001  4.0000000E-002 0.0
 -2.2000000E-001  4.5000000E-002 0.0
 -2.2000000E-001  5.0000000E-002 0.0
 -2.2000000E-001  5.5000000E-002 0.0
 -2.2000000E-001  6.0000000E-002 0.0
 -2.2000000E-001  6.5000000E-002 0.0
 -2.2000000E-001  7.0000000E-002 0.0
 -2.2000000E-001  7.5000000E-002 0.0
 -2.2000000E-001  8.0000000E-002 0.0
 -2.2000000E-001  8.5000000E-002 0.0
 -2.2000000E-001  9.0000000E-002 0.0
 -2.2000000E-001  9.5000000E-002 0.0
 -2.2000000E-001  1.0000000E-001 0.0
 -2.2000000E-001  1.0500000E-001 0.0
 -2.2000000E-001  1.1000000E-001 0.0
 -2.2000000E-001  1.1500000E-001 0.0
 -2.2000000E-001  1.2000000E-001 0.0
 -2.2000000E-001  1.2500000E-001 0.0
 -2.2000000E-001  1.3000000E-001 0.0
 -2.2000000E-001  1.3500000E-001 0.0
 -2.2000000E-001  1.4000000E-001 0.0
 -2.2000000E-001  1.4500000E-001 0.0
 -2.2000000E-001  1.5000000E-001 0.0
 -2.2000000E-001  1.5500000E-001 0.0
 -2.2000000E-001  1.6000000E-001 0.0
 -2.2000000E-001  1.6500000E-001 0.0
 -2.2000000E-001  1.7000000E-001 0.0
 -2.2000000E-001  1.7500000E-001 0.0
 -2.2000000E-001  1.8000000E-001 0.0
 -2.2000000E-001  1.8500000E-001 0.0
 -2.2000000E-001  1.9000000E-001 0.0
 -2.2000000E-001  1.9500000E-001 0.0
 -2.2000000E-001  2.0000000E-001 0.0
 -2.2000000E-001  2.0500000E-001 0.0
 -2.2000000E-001  2.1000000E-001 0.0
 -2.1500000E-001 -1.7500000E-001 0.0
 -2.1500000E-001 -1.7000000E-001 0.0
 -2.1500000E-001 -1.6500000E-001 0.0
 -2.1500000E-001 -1.6000000E-001 0.0
 -2.1500000E-001 -1.5500000E-001 0.0
 -2.1500000E-001 -1.5000000E-001 0.0
 -2.1500000E-001 -1.4500000E-001 0.0
 -2.1500000E-001 -1.4000000E-001 0.0
 -2.1500000E-001 -1.3500000E-001 0.0
 -2.1500000E-001 -1.3000000E-001 0.0
 -2.1500000E-001 -1.2500000E-001 0.0
 -2.1500000E-001 -1.2000000E-001 0.0
 -2.1500000E-001 -1.1500000E-001 0.0
 -2.1500000E-001 -1.1000000E-001 0.0
 -2.1500000E-001 -1.0500000E-001 0.0
 -2.1500000E-001 -1.0000000E-001 0.0
 -2.1500000E-001 -9.5000000E-002 0.0
 -2.1500000E-001 -9.0000000E-002 0.0
 -2.1500000E-001 -8.5000000E-002 0.0
 -2.1500000E-001 -8.0000000E-002 0.0
 -2.1500000E-001 -7.5000000E-002 0.0
 -2.1500000E-001 -7.0000000E-002 0.0
 -2.1500000E-001 -6.5000000E-002 0.0
 -2.1500000E-001 -6.0000000E-002 0.0
 -2.1500000E-001 -5.5000000E-002 0.0
 -2.1500000E-001 -5.0000000E-002 0.0
 -2.1500000E-001 -4.5000000E-002 0.0
 -2.1500000E-001 -4.0000000E-002 0.0
 -2.1500000E-001 -3.5000000E-002 0.0
 -2.1500000E-001 -3.0000000E-002 0.0
 -2.1500000E-001 -2.5000000E-002 0.0
 -2.1500000E-001 -2.0000000E-002 0.0
 -2.1500000E-001 -1.5000000E-002 0.0
 -2.1500000E-001 -1.0000000E-002 0.0
 -2.1500000E-001 -5.0000000E-003 0.0
 -2.1500000E-001  0.0000000E+000 0.0
 -2.1500000E-001  5.0000000E-003 0.0
 -2.1500000E-001  1.0000000E-002 0.0
 -2.1500000E-001  1.5000000E-002 0.0
 -2.1500000E-001  2.0000000E-002 0.0
 -2.1500000E-001  2.5000000E-002 0.0
 -2.1500000E-001  3.0000000E-002 0.0
 -2.1500000E-001  3.5000000E-002 0.0
 -2.1500000E-001  4.0000000E-002 0.0
 -2.1500000E-001  4.5000000E-002 0.0
 -2.1500000E-001  5.0000000E-002 0.0
 -2.1500000E-001  5.5000000E-002 0.0
 -2.1500000E-001  6.0000000E-002 0.0
 -2.1500000E-001  6.5000000E-002 0.0
 -2.1500000E-001  7.0000000E-002 0.0
 -2.1500000E-001  7.5000000E-002 0.0
 -2.1500000E-001  8.0000000E-002 0.0
 -2.1500000E-001  8.5000000E-002 0.0
 -2.1500000E-001  9.0000000E-002 0.0
 -2.1500000E-001  9.5000000E-002 0.0
 -2.1500000E-001  1.0000000E-001 0.0
 -2.1500000E-001  1.0500000E-001 0.0
 -2.1500000E-001  1.1000000E-001 0.0
 -2.1500000E-001  1.1500000E-001 0.0
 -2.1500000E-001  1.2000000E-001 0.0
 -2.1500000E-001  1.2500000E-001 0.0
 -2.1500000E-001  1.3000000E-001 0.0
 -2.1500000E-001  1.3500000E-001 0.0
 -2.1500000E-001  1.4000000E-001 0.0
 -2.1500000E-001  1.4500000E-001 0.0
 -2.1500000E-001  1.5000000E-001 0.0
 -2.1500000E-001  1.5500000E-001 0.0
 -2.1500000E-001  1.6000000E-001 0.0
 -2.1500000E-001  1.6500000E-001 0.0
 -2.1500000E-001  1.7000000E-001 0.0
 -2.1500000E-001  1.7500000E-001 0.0
 -2.1500000E-001  1.8000000E-001 0.0
 -2.1500000E-001  1.8500000E-001 0.0
 -2.1500000E-001  1.9000000E-001 0.0
 -2.1500000E-001  1.9500000E-001 0.0
 -2.1500000E-001  2.0000000E-001 0.0
 -2.1500000E-001  2.0500000E-001 0.0
 -2.1000000E-001 -1.7500000E-001 0.0
 -2.1000000E-001 -1.7000000E-001 0.0
 -2.1000000E-001 -1.6500000E-001 0.0
 -2.1000000E-001 -1.6000000E-001 0.0
 -2.1000000E-001 -1.5500000E-001 0.0
 -2.1000000E-001 -1.5000000E-001 0.0
 -2.1000000E-001 -1.4500000E-001 0.0
 -2.1000000E-001 -1.4000000E-001 0.0
 -2.1000000E-001 -1.3500000E-001 0.0
 -2.1000000E-001 -1.3000000E-001 0.0
 -2.1000000E-001 -1.2500000E-001 0.0
 -2.1000000E-001 -1.2000000E-001 0.0
 -2.1000000E-001 -1.1500000E-001 0.0
 -2.1000000E-001 -1.1000000E-001 0.0
 -2.1000000E-001 -1.0500000E-001 0.0
 -2.1000000E-001 -1.0000000E-001 0.0
 -2.1000000E-001 -9.5000000E-002 0.0
 -2.1000000E-001 -9.0000000E-002 0.0
 -2.1000000E-001 -8.5000000E-002 0.0
 -2.1000000E-001 -8.0000000E-002 0.0
 -2.1000000E-001 -7.5000000E-002 0.0
 -2.1000000E-001 -7.0000000E-002 0.0
 -2.1000000E-001 -6.5000000E-002 0.0
 -2.1000000E-001 -6.0000000E-002 0.0
 -2.1000000E-001 -5.5000000E-002 0.0
 -2.1000000E-001 -5.0000000E-002 0.0
 -2.1000000E-001 -4.5000000E-002 0.0
 -2.1000000E-001 -4.0000000E-002 0.0
 -2.1000000E-001 -3.5000000E-002 0.0
 -2.1000000E-001 -3.0000000E-002 0.0
 -2.1000000E-001 -2.5000000E-002 0.0
 -2.1000000E-001 -2.0000000E-002 0.0
 -2.1000000E-001 -1.5000000E-002 0.0
 -2.1000000E-001 -1.0000000E-002 0.0
 -2.1000000E-001 -5.0000000E-003 0.0
 -2.1000000E-001  0.0000000E+000 0.0
 -2.1000000E-001  5.0000000E-003 0.0
 -2.1000000E-001  1.0000000E-002 0.0
 -2.1000000E-001  1.5000000E-002 0.0
 -2.1000000E-001  2.0000000E-002 0.0
 -2.1000000E-001  2.5000000E-002 0.0
 -2.1000000E-001  3.0000000E-002 0.0
 -2.1000000E-001  3.5000000E-002 0.0
 -2.1000000E-001  4.0000000E-002 0.0
 -2.1000000E-001  4.5000000E-002 0.0
 -2.1000000E-001  5.0000000E-002 0.0
 -2.1000000E-001  5.5000000E-002 0.0
 -2.1000000E-001  6.0000000E-002 0.0
 -2.1000000E-001  6.5000000E-002 0.0
 -2.1000000E-001  7.0000000E-002 0.0
 -2.1000000E-001  7.5000000E-002 0.0
 -2.1000000E-001  8.0000000E-002 0.0
 -2.1000000E-001  8.5000000E-002 0.0
 -2.1000000E-001  9.0000000E-002 0.0
 -2.1000000E-001  9.5000000E-002 0.0
 -2.1000000E-001  1.0000000E-001 0.0
 -2.1000000E-001  1.0500000E-001 0.0
 -2.1000000E-001  1.1000000E-001 0.0
 -2.1000000E-001  1.1500000E-001 0.0
 -2.1000000E-001  1.2000000E-001 0.0
 -2.1000000E-001  1.2500000E-001 0.0
 -2.1000000E-001  1.3000000E-001 0.0
 -2.1000000E-001  1.3500000E-001 0.0
 -2.1000000E-001  1.4000000E-001 0.0
 -2.1000000E-001  1.4500000E-001 0.0
 -2.1000000E-001  1.5000000E-001 0.0
 -2.1000000E-001  1.5500000E-001 0.0
 -2.1000000E-001  1.6000000E-001 0.0
 -2.1000000E-001  1.6500000E-001 0.0
 -2.1000000E-001  1.7000000E-001 0.0
 -2.1000000E-001  1.7500000E-001 0.0
 -2.1000000E-001  1.8000000E-001 0.0
 -2.1000000E-001  1.8500000E-001 0.0
 -2.1000000E-001  1.9000000E-001 0.0
 -2.1000000E-001  1.9500000E-001 0.0
 -2.1000000E-001  2.0000000E-001 0.0
 -2.1000000E-001  2.0500000E-001 0.0
 -2.0500000E-001 -1.7500000E-001 0.0
 -2.0500000E-001 -1.7000000E-001 0.0
 -2.0500000E-001 -1.6500000E-001 0.0
 -2.0500000E-001 -1.6000000E-001 0.0
 -2.0500000E-001 -1.5500000E-001 0.0
 -2.0500000E-001 -1.5000000E-001 0.0
 -2.0500000E-001 -1.4500000E-001 0.0
 -2.0500000E-001 -1.4000000E-001 0.0
 -2.0500000E-001 -1.3500000E-001 0.0
 -2.0500000E-001 -1.3000000E-001 0.0
 -2.0500000E-001 -1.2500000E-001 0.0
 -2.0500000E-001 -1.2000000E-001 0.0
 -2.0500000E-001 -1.1500000E-001 0.0
 -2.0500000E-001 -1.1000000E-001 0.0
 -2.0500000E-001 -1.0500000E-001 0.0
 -2.0500000E-001 -1.0000000E-001 0.0
 -2.0500000E-001 -9.5000000E-002 0.0
 -2.0500000E-001 -9.0000000E-002 0.0
 -2.0500000E-001 -8.5000000E-002 0.0
 -2.0500000E-001 -8.0000000E-002 0.0
 -2.0500000E-001 -7.5000000E-002 0.0
 -2.0500000E-001 -7.0000000E-002 0.0
 -2.0500000E-001 -6.5000000E-002 0.0
 -2.0500000E-001 -6.0000000E-002 0.0
 -2.0500000E-001 -5.5000000E-002 0.0
 -2.0500000E-001 -5.0000000E-002 0.0
 -2.0500000E-001 -4.5000000E-002 0.0
 -2.0500000E-001 -4.0000000E-002 0.0
 -2.0500000E-001 -3.5000000E-002 0.0
 -2.0500000E-001 -3.0000000E-002 0.0
 -2.0500000E-001 -2.5000000E-002 0.0
 -2.0500000E-001 -2.0000000E-002 0.0
 -2.0500000E-001 -1.5000000E-002 0.0
 -2.0500000E-001 -1.0000000E-002 0.0
 -2.0500000E-001 -5.0000000E-003 0.0
 -2.0500000E-001  0.0000000E+000 0.0
 -2.0500000E-001  5.0000000E-003 0.0
 -2.0500000E-001  1.0000000E-002 0.0
 -2.0500000E-001  1.5000000E-002 0.0
 -2.0500000E-001  2.0000000E-002 0.0
 -2.0500000E-001  2.5000000E-002 0.0
 -2.0500000E-001  3.0000000E-002 0.0
 -2.0500000E-001  3.5000000E-002 0.0
 -2.0500000E-001  4.0000000E-002 0.0
 -2.0500000E-001  4.5000000E-002 0.0
 -2.0500000E-001  5.0000000E-002 0.0
 -2.0500000E-001  5.5000000E-002 0.0
 -2.0500000E-001  6.0000000E-002 0.0
 -2.0500000E-001  6.5000000E-002 0.0
 -2.0500000E-001  7.0000000E-002 0.0
 -2.0500000E-001  7.5000000E-002 0.0
 -2.0500000E-001  8.0000000E-002 0.0
 -2.0500000E-001  8.5000000E-002 0.0
 -2.0500000E-001  1.0000000E-001 0.0
 -2.0500000E-001  1.0500000E-001 0.0
 -2.0500000E-001  1.1000000E-001 0.0
 -2.0500000E-001  1.1500000E-001 0.0
 -2.0500000E-001  1.2000000E-001 0.0
 -2.0500000E-001  1.2500000E-001 0.0
 -2.0500000E-001  1.3000000E-001 0.0
 -2.0500000E-001  1.3500000E-001 0.0
 -2.0500000E-001  1.4000000E-001 0.0
 -2.0500000E-001  1.4500000E-001 0.0
 -2.0500000E-001  1.5000000E-001 0.0
 -2.0500000E-001  1.5500000E-001 0.0
 -2.0500000E-001  1.6000000E-001 0.0
 -2.0500000E-001  1.6500000E-001 0.0
 -2.0500000E-001  1.7000000E-001 0.0
 -2.0500000E-001  1.7500000E-001 0.0
 -2.0500000E-001  1.8000000E-001 0.0
 -2.0500000E-001  1.8500000E-001 0.0
 -2.0500000E-001  1.9000000E-001 0.0
 -2.0500000E-001  1.9500000E-001 0.0
 -2.0500000E-001  2.0000000E-001 0.0
 -2.0500000E-001  2.0500000E-001 0.0
 -2.0000000E-001 -1.7500000E-001 0.0
 -2.0000000E-001 -1.7000000E-001 0.0
 -2.0000000E-001 -1.6500000E-001 0.0
 -2.0000000E-001 -1.6000000E-001 0.0
 -2.0000000E-001 -1.5500000E-001 0.0
 -2.0000000E-001 -1.5000000E-001 0.0
 -2.0000000E-001 -1.4500000E-001 0.0
 -2.0000000E-001 -1.4000000E-001 0.0
 -2.0000000E-001 -1.3500000E-001 0.0
 -2.0000000E-001 -1.3000000E-001 0.0
 -2.0000000E-001 -1.2500000E-001 0.0
 -2.0000000E-001 -1.2000000E-001 0.0
 -2.0000000E-001 -1.1500000E-001 0.0
 -2.0000000E-001 -1.1000000E-001 0.0
 -2.0000000E-001 -1.0500000E-001 0.0
 -2.0000000E-001 -1.0000000E-001 0.0
 -2.0000000E-001 -9.5000000E-002 0.0
 -2.0000000E-001 -9.0000000E-002 0.0
 -2.0000000E-001 -8.5000000E-002 0.0
 -2.0000000E-001 -8.0000000E-002 0.0
 -2.0000000E-001 -7.5000000E-002 0.0
 -2.0000000E-001 -7.0000000E-002 0.0
 -2.0000000E-001 -6.5000000E-002 0.0
 -2.0000000E-001 -6.0000000E-002 0.0
 -2.0000000E-001 -5.5000000E-002 0.0
 -2.0000000E-001 -5.0000000E-002 0.0
 -2.0000000E-001 -4.5000000E-002 0.0
 -2.0000000E-001 -4.0000000E-002 0.0
 -2.0000000E-001 -3.5000000E-002 0.0
 -2.0000000E-001 -3.0000000E-002 0.0
 -2.0000000E-001 -2.5000000E-002 0.0
 -2.0000000E-001 -2.0000000E-002 0.0
 -2.0000000E-001 -1.5000000E-002 0.0
 -2.0000000E-001 -1.0000000E-002 0.0
 -2.0000000E-001 -5.0000000E-003 0.0
 -2.0000000E-001  0.0000000E+000 0.0
 -2.0000000E-001  5.0000000E-003 0.0
 -2.0000000E-001  1.0000000E-002 0.0
 -2.0000000E-001  1.5000000E-002 0.0
 -2.0000000E-001  2.0000000E-002 0.0
 -2.0000000E-001  2.5000000E-002 0.0
 -2.0000000E-001  3.0000000E-002 0.0
 -2.0000000E-001  3.5000000E-002 0.0
 -2.0000000E-001  4.0000000E-002 0.0
 -2.0000000E-001  4.5000000E-002 0.0
 -2.0000000E-001  5.0000000E-002 0.0
 -2.0000000E-001  5.5000000E-002 0.0
 -2.0000000E-001  6.0000000E-002 0.0
 -2.0000000E-001  6.5000000E-002 0.0
 -2.0000000E-001  7.0000000E-002 0.0
 -2.0000000E-001  7.5000000E-002 0.0
 -2.0000000E-001  8.0000000E-002 0.0
 -2.0000000E-001  1.1000000E-001 0.0
 -2.0000000E-001  1.1500000E-001 0.0
 -2.0000000E-001  1.2000000E-001 0.0
 -2.0000000E-001  1.2500000E-001 0.0
 -2.0000000E-001  1.3000000E-001 0.0
 -2.0000000E-001  1.3500000E-001 0.0
 -2.0000000E-001  1.4000000E-001 0.0
 -2.0000000E-001  1.4500000E-001 0.0
 -2.0000000E-001  1.5000000E-001 0.0
 -2.0000000E-001  1.5500000E-001 0.0
 -2.0000000E-001  1.6000000E-001 0.0
 -2.0000000E-001  1.6500000E-001 0.0
 -2.0000000E-001  1.7000000E-001 0.0
 -2.0000000E-001  1.7500000E-001 0.0
 -2.0000000E-001  1.8000000E-001 0.0
 -2.0000000E-001  1.8500000E-001 0.0
 -2.0000000E-001  1.9000000E-001 0.0
 -2.0000000E-001  1.9500000E-001 0.0
 -2.0000000E-001  2.0000000E-001 0.0
 -2.0000000E-001  2.0500000E-001 0.0
 -1.9500000E-001 -1.7500000E-001 0.0
 -1.9500000E-001 -1.7000000E-001 0.0
 -1.9500000E-001 -1.6500000E-001 0.0
 -1.9500000E-001 -1.6000000E-001 0.0
 -1.9500000E-001 -1.5500000E-001 0.0
 -1.9500000E-001 -1.5000000E-001 0.0
 -1.9500000E-001 -1.4500000E-001 0.0
 -1.9500000E-001 -1.4000000E-001 0.0
 -1.9500000E-001 -1.3500000E-001 0.0
 -1.9500000E-001 -1.3000000E-001 0.0
 -1.9500000E-001 -1.2500000E-001 0.0
 -1.9500000E-001 -1.2000000E-001 0.0
 -1.9500000E-001 -1.1500000E-001 0.0
 -1.9500000E-001 -1.1000000E-001 0.0
 -1.9500000E-001 -1.0500000E-001 0.0
 -1.9500000E-001 -1.0000000E-001 0.0
 -1.9500000E-001 -9.5000000E-002 0.0
 -1.9500000E-001 -9.0000000E-002 0.0
 -1.9500000E-001 -8.5000000E-002 0.0
 -1.9500000E-001 -8.0000000E-002 0.0
 -1.9500000E-001 -7.5000000E-002 0.0
 -1.9500000E-001 -7.0000000E-002 0.0
 -1.9500000E-001 -6.5000000E-002 0.0
 -1.9500000E-001 -6.0000000E-002 0.0
 -1.9500000E-001 -5.5000000E-002 0.0
 -1.9500000E-001 -5.0000000E-002 0.0
 -1.9500000E-001 -4.5000000E-002 0.0
 -1.9500000E-001 -4.0000000E-002 0.0
 -1.9500000E-001 -3.5000000E-002 0.0
 -1.9500000E-001 -3.0000000E-002 0.0
 -1.9500000E-001 -2.5000000E-002 0.0
 -1.9500000E-001 -2.0000000E-002 0.0
 -1.9500000E-001 -1.5000000E-002 0.0
 -1.9500000E-001 -1.0000000E-002 0.0
 -1.9500000E-001 -5.0000000E-003 0.0
 -1.9500000E-001  0.0000000E+000 0.0
 -1.9500000E-001  5.0000000E-003 0.0
 -1.9500000E-001  1.0000000E-002 0.0
 -1.9500000E-001  1.5000000E-002 0.0
 -1.9500000E-001  2.0000000E-002 0.0
 -1.9500000E-001  2.5000000E-002 0.0
 -1.9500000E-001  3.0000000E-002 0.0
 -1.9500000E-001  3.5000000E-002 0.0
 -1.9500000E-001  4.0000000E-002 0.0
 -1.9500000E-001  4.5000000E-002 0.0
 -1.9500000E-001  5.0000000E-002 0.0
 -1.9500000E-001  5.5000000E-002 0.0
 -1.9500000E-001  6.0000000E-002 0.0
 -1.9500000E-001  6.5000000E-002 0.0
 -1.9500000E-001  7.0000000E-002 0.0
 -1.9500000E-001  7.5000000E-002 0.0
 -1.9500000E-001  1.1500000E-001 0.0
 -1.9500000E-001  1.2000000E-001 0.0
 -1.9500000E-001  1.2500000E-001 0.0
 -1.9500000E-001  1.3000000E-001 0.0
 -1.9500000E-001  1.3500000E-001 0.0
 -1.9500000E-001  1.4000000E-001 0.0
 -1.9500000E-001  1.4500000E-001 0.0
 -1.9500000E-001  1.5000000E-001 0.0
 -1.9500000E-001  1.5500000E-001 0.0
 -1.9500000E-001  1.6000000E-001 0.0
 -1.9500000E-001  1.6500000E-001 0.0
 -1.9500000E-001  1.7000000E-001 0.0
 -1.9500000E-001  1.7500000E-001 0.0
 -1.9500000E-001  1.8000000E-001 0.0
 -1.9500000E-001  1.8500000E-001 0.0
 -1.9500000E-001  1.9000000E-001 0.0
 -1.9500000E-001  1.9500000E-001 0.0
 -1.9500000E-001  2.0000000E-001 0.0
 -1.9000000E-001 -1.7000000E-001 0.0
 -1.9000000E-001 -1.6500000E-001 0.0
 -1.9000000E-001 -1.6000000E-001 0.0
 -1.9000000E-001 -1.5500000E-001 0.0
 -1.9000000E-001 -1.5000000E-001 0.0
 -1.9000000E-001 -1.4500000E-001 0.0
 -1.9000000E-001 -1.4000000E-001 0.0
 -1.9000000E-001 -1.3500000E-001 0.0
 -1.9000000E-001 -1.3000000E-001 0.0
 -1.9000000E-001 -1.2500000E-001 0.0
 -1.9000000E-001 -1.2000000E-001 0.0
 -1.9000000E-001 -1.1500000E-001 0.0
 -1.9000000E-001 -1.1000000E-001 0.0
 -1.9000000E-001 -1.0500000E-001 0.0
 -1.9000000E-001 -1.0000000E-001 0.0
 -1.9000000E-001 -9.5000000E-002 0.0
 -1.9000000E-001 -9.0000000E-002 0.0
 -1.9000000E-001 -8.5000000E-002 0.0
 -1.9000000E-001 -8.0000000E-002 0.0
 -1.9000000E-001 -7.5000000E-002 0.0
 -1.9000000E-001 -7.0000000E-002 0.0
 -1.9000000E-001 -6.5000000E-002 0.0
 -1.9000000E-001 -6.0000000E-002 0.0
 -1.9000000E-001 -5.5000000E-002 0.0
 -1.9000000E-001 -5.0000000E-002 0.0
 -1.9000000E-001 -4.5000000E-002 0.0
 -1.9000000E-001 -4.0000000E-002 0.0
 -1.9000000E-001 -3.5000000E-002 0.0
 -1.9000000E-001 -3.0000000E-002 0.0
 -1.9000000E-001 -2.5000000E-002 0.0
 -1.9000000E-001 -2.0000000E-002 0.0
 -1.9000000E-001 -1.5000000E-002 0.0
 -1.9000000E-001 -1.0000000E-002 0.0
 -1.9000000E-001 -5.0000000E-003 0.0
 -1.9000000E-001  0.0000000E+000 0.0
 -1.9000000E-001  5.0000000E-003 0.0
 -1.9000000E-001  1.0000000E-002 0.0
 -1.9000000E-001  1.5000000E-002 0.0
 -1.9000000E-001  2.0000000E-002 0.0
 -1.9000000E-001  2.5000000E-002 0.0
 -1.9000000E-001  3.0000000E-002 0.0
 -1.9000000E-001  3.5000000E-002 0.0
 -1.9000000E-001  4.0000000E-002 0.0
 -1.9000000E-001  4.5000000E-002 0.0
 -1.9000000E-001  5.0000000E-002 0.0
 -1.9000000E-001  5.5000000E-002 0.0
 -1.9000000E-001  6.0000000E-002 0.0
 -1.9000000E-001  6.5000000E-002 0.0
 -1.9000000E-001  7.0000000E-002 0.0
 -1.9000000E-001  1.2500000E-001 0.0
 -1.9000000E-001  1.3000000E-001 0.0
 -1.9000000E-001  1.3500000E-001 0.0
 -1.9000000E-001  1.4000000E-001 0.0
 -1.9000000E-001  1.4500000E-001 0.0
 -1.9000000E-001  1.5000000E-001 0.0
 -1.9000000E-001  1.5500000E-001 0.0
 -1.9000000E-001  1.6000000E-001 0.0
 -1.9000000E-001  1.6500000E-001 0.0
 -1.9000000E-001  1.7000000E-001 0.0
 -1.9000000E-001  1.7500000E-001 0.0
 -1.9000000E-001  1.8000000E-001 0.0
 -1.9000000E-001  1.8500000E-001 0.0
 -1.9000000E-001  1.9000000E-001 0.0
 -1.9000000E-001  1.9500000E-001 0.0
 -1.9000000E-001  2.0000000E-001 0.0
 -1.8500000E-001 -1.7000000E-001 0.0
 -1.8500000E-001 -1.6500000E-001 0.0
 -1.8500000E-001 -1.6000000E-001 0.0
 -1.8500000E-001 -1.5500000E-001 0.0
 -1.8500000E-001 -1.5000000E-001 0.0
 -1.8500000E-001 -1.4500000E-001 0.0
 -1.8500000E-001 -1.4000000E-001 0.0
 -1.8500000E-001 -1.3500000E-001 0.0
 -1.8500000E-001 -1.3000000E-001 0.0
 -1.8500000E-001 -1.2500000E-001 0.0
 -1.8500000E-001 -1.2000000E-001 0.0
 -1.8500000E-001 -1.1500000E-001 0.0
 -1.8500000E-001 -1.1000000E-001 0.0
 -1.8500000E-001 -1.0500000E-001 0.0
 -1.8500000E-001 -1.0000000E-001 0.0
 -1.8500000E-001 -9.5000000E-002 0.0
 -1.8500000E-001 -9.0000000E-002 0.0
 -1.8500000E-001 -8.5000000E-002 0.0
 -1.8500000E-001 -8.0000000E-002 0.0
 -1.8500000E-001 -7.5000000E-002 0.0
 -1.8500000E-001 -7.0000000E-002 0.0
 -1.8500000E-001 -6.5000000E-002 0.0
 -1.8500000E-001 -6.0000000E-002 0.0
 -1.8500000E-001 -5.5000000E-002 0.0
 -1.8500000E-001 -5.0000000E-002 0.0
 -1.8500000E-001 -4.5000000E-002 0.0
 -1.8500000E-001 -4.0000000E-002 0.0
 -1.8500000E-001 -3.5000000E-002 0.0
 -1.8500000E-001 -3.0000000E-002 0.0
 -1.8500000E-001 -2.5000000E-002 0.0
 -1.8500000E-001 -2.0000000E-002 0.0
 -1.8500000E-001 -1.5000000E-002 0.0
 -1.8500000E-001 -1.0000000E-002 0.0
 -1.8500000E-001 -5.0000000E-003 0.0
 -1.8500000E-001  0.0000000E+000 0.0
 -1.8500000E-001  5.0000000E-003 0.0
 -1.8500000E-001  1.0000000E-002 0.0
 -1.8500000E-001  1.5000000E-002 0.0
 -1.8500000E-001  2.0000000E-002 0.0
 -1.8500000E-001  2.5000000E-002 0.0
 -1.8500000E-001  3.0000000E-002 0.0
 -1.8500000E-001  3.5000000E-002 0.0
 -1.8500000E-001  4.0000000E-002 0.0
 -1.8500000E-001  4.5000000E-002 0.0
 -1.8500000E-001  5.0000000E-002 0.0
 -1.8500000E-001  5.5000000E-002 0.0
 -1.8500000E-001  6.0000000E-002 0.0
 -1.8500000E-001  6.5000000E-002 0.0
 -1.8500000E-001  1.3500000E-001 0.0
 -1.8500000E-001  1.4000000E-001 0.0
 -1.8500000E-001  1.4500000E-001 0.0
 -1.8500000E-001  1.5000000E-001 0.0
 -1.8500000E-001  1.5500000E-001 0.0
 -1.8500000E-001  1.6000000E-001 0.0
 -1.8500000E-001  1.6500000E-001 0.0
 -1.8500000E-001  1.7000000E-001 0.0
 -1.8500000E-001  1.7500000E-001 0.0
 -1.8500000E-001  1.8000000E-001 0.0
 -1.8500000E-001  1.8500000E-001 0.0
 -1.8500000E-001  1.9000000E-001 0.0
 -1.8500000E-001  1.9500000E-001 0.0
 -1.8500000E-001  2.0000000E-001 0.0
 -1.8000000E-001 -1.7000000E-001 0.0
 -1.8000000E-001 -1.6500000E-001 0.0
 -1.8000000E-001 -1.6000000E-001 0.0
 -1.8000000E-001 -1.5500000E-001 0.0
 -1.8000000E-001 -1.5000000E-001 0.0
 -1.8000000E-001 -1.4500000E-001 0.0
 -1.8000000E-001 -1.4000000E-001 0.0
 -1.8000000E-001 -1.3500000E-001 0.0
 -1.8000000E-001 -1.3000000E-001 0.0
 -1.8000000E-001 -1.2500000E-001 0.0
 -1.8000000E-001 -1.2000000E-001 0.0
 -1.8000000E-001 -1.1500000E-001 0.0
 -1.8000000E-001 -1.1000000E-001 0.0
 -1.8000000E-001 -1.0500000E-001 0.0
 -1.8000000E-001 -1.0000000E-001 0.0
 -1.8000000E-001 -9.5000000E-002 0.0
 -1.8000000E-001 -9.0000000E-002 0.0
 -1.8000000E-001 -8.5000000E-002 0.0
 -1.8000000E-001 -8.0000000E-002 0.0
 -1.8000000E-001 -7.5000000E-002 0.0
 -1.8000000E-001 -7.0000000E-002 0.0
 -1.8000000E-001 -6.5000000E-002 0.0
 -1.8000000E-001 -6.0000000E-002 0.0
 -1.8000000E-001 -5.5000000E-002 0.0
 -1.8000000E-001 -5.0000000E-002 0.0
 -1.8000000E-001 -4.5000000E-002 0.0
 -1.8000000E-001 -4.0000000E-002 0.0
 -1.8000000E-001 -3.5000000E-002 0.0
 -1.8000000E-001 -3.0000000E-002 0.0
 -1.8000000E-001 -2.5000000E-002 0.0
 -1.8000000E-001 -2.0000000E-002 0.0
 -1.8000000E-001 -1.5000000E-002 0.0
 -1.8000000E-001 -1.0000000E-002 0.0
 -1.8000000E-001 -5.0000000E-003 0.0
 -1.8000000E-001  0.0000000E+000 0.0
 -1.8000000E-001  5.0000000E-003 0.0
 -1.8000000E-001  1.0000000E-002 0.0
 -1.8000000E-001  1.5000000E-002 0.0
 -1.8000000E-001  2.0000000E-002 0.0
 -1.8000000E-001  2.5000000E-002 0.0
 -1.8000000E-001  3.0000000E-002 0.0
 -1.8000000E-001  3.5000000E-002 0.0
 -1.8000000E-001  4.0000000E-002 0.0
 -1.8000000E-001  4.5000000E-002 0.0
 -1.8000000E-001  5.0000000E-002 0.0
 -1.8000000E-001  5.5000000E-002 0.0
 -1.8000000E-001  6.0000000E-002 0.0
 -1.8000000E-001  1.4000000E-001 0.0
 -1.8000000E-001  1.4500000E-001 0.0
 -1.8000000E-001  1.5000000E-001 0.0
 -1.8000000E-001  1.5500000E-001 0.0
 -1.8000000E-001  1.6000000E-001 0.0
 -1.8000000E-001  1.6500000E-001 0.0
 -1.8000000E-001  1.7000000E-001 0.0
 -1.8000000E-001  1.7500000E-001 0.0
 -1.8000000E-001  1.8000000E-001 0.0
 -1.8000000E-001  1.8500000E-001 0.0
 -1.8000000E-001  1.9000000E-001 0.0
 -1.8000000E-001  1.9500000E-001 0.0
 -1.8000000E-001  2.0000000E-001 0.0
 -1.8000000E-001  2.0500000E-001 0.0
 -1.8500000E-001  2.0500000E-001 0.0
 -1.7500000E-001 -1.7000000E-001 0.0
 -1.7500000E-001 -1.6500000E-001 0.0
 -1.7500000E-001 -1.6000000E-001 0.0
 -1.7500000E-001 -1.5500000E-001 0.0
 -1.7500000E-001 -1.5000000E-001 0.0
 -1.7500000E-001 -1.4500000E-001 0.0
 -1.7500000E-001 -1.4000000E-001 0.0
 -1.7500000E-001 -1.3500000E-001 0.0
 -1.7500000E-001 -1.3000000E-001 0.0
 -1.7500000E-001 -1.2500000E-001 0.0
 -1.7500000E-001 -1.2000000E-001 0.0
 -1.7500000E-001 -1.1500000E-001 0.0
 -1.7500000E-001 -1.1000000E-001 0.0
 -1.7500000E-001 -1.0500000E-001 0.0
 -1.7500000E-001 -1.0000000E-001 0.0
 -1.7500000E-001 -9.5000000E-002 0.0
 -1.7500000E-001 -9.0000000E-002 0.0
 -1.7500000E-001 -8.5000000E-002 0.0
 -1.7500000E-001 -8.0000000E-002 0.0
 -1.7500000E-001 -7.5000000E-002 0.0
 -1.7500000E-001 -7.0000000E-002 0.0
 -1.7500000E-001 -6.5000000E-002 0.0
 -1.7500000E-001 -6.0000000E-002 0.0
 -1.7500000E-001 -5.5000000E-002 0.0
 -1.7500000E-001 -5.0000000E-002 0.0
 -1.7500000E-001 -4.5000000E-002 0.0
 -1.7500000E-001 -4.0000000E-002 0.0
 -1.7500000E-001 -3.5000000E-002 0.0
 -1.7500000E-001 -3.0000000E-002 0.0
 -1.7500000E-001 -2.5000000E-002 0.0
 -1.7500000E-001 -2.0000000E-002 0.0
 -1.7500000E-001 -1.5000000E-002 0.0
 -1.7500000E-001 -1.0000000E-002 0.0
 -1.7500000E-001 -5.0000000E-003 0.0
 -1.7500000E-001  0.0000000E+000 0.0
 -1.7500000E-001  5.0000000E-003 0.0
 -1.7500000E-001  1.0000000E-002 0.0
 -1.7500000E-001  1.5000000E-002 0.0
 -1.7500000E-001  2.0000000E-002 0.0
 -1.7500000E-001  2.5000000E-002 0.0
 -1.7500000E-001  3.0000000E-002 0.0
 -1.7500000E-001  3.5000000E-002 0.0
 -1.7500000E-001  4.0000000E-002 0.0
 -1.7500000E-001  4.5000000E-002 0.0
 -1.7500000E-001  5.0000000E-002 0.0
 -1.7500000E-001  5.5000000E-002 0.0
 -1.7500000E-001  6.0000000E-002 0.0
 -1.7500000E-001  1.4000000E-001 0.0
 -1.7500000E-001  1.4500000E-001 0.0
 -1.7500000E-001  1.5000000E-001 0.0
 -1.7500000E-001  1.5500000E-001 0.0
 -1.7500000E-001  1.6000000E-001 0.0
 -1.7500000E-001  1.6500000E-001 0.0
 -1.7500000E-001  1.7000000E-001 0.0
 -1.7500000E-001  1.7500000E-001 0.0
 -1.7500000E-001  1.8000000E-001 0.0
 -1.7500000E-001  1.8500000E-001 0.0
 -1.7500000E-001  1.9000000E-001 0.0
 -1.7500000E-001  1.9500000E-001 0.0
 -1.7500000E-001  2.0000000E-001 0.0
 -1.7500000E-001  2.0500000E-001 0.0
 -1.7500000E-001 -1.8000000E-001 0.0
 -1.7000000E-001 -1.8000000E-001 0.0
 -1.7000000E-001 -1.7500000E-001 0.0
 -1.7500000E-001 -1.7500000E-001 0.0
 -1.7000000E-001 -1.7000000E-001 0.0
 -1.7000000E-001 -1.6500000E-001 0.0
 -1.7000000E-001 -1.6000000E-001 0.0
 -1.7000000E-001 -1.5500000E-001 0.0
 -1.7000000E-001 -1.5000000E-001 0.0
 -1.7000000E-001 -1.4500000E-001 0.0
 -1.7000000E-001 -1.4000000E-001 0.0
 -1.7000000E-001 -1.3500000E-001 0.0
 -1.7000000E-001 -1.3000000E-001 0.0
 -1.7000000E-001 -1.2500000E-001 0.0
 -1.7000000E-001 -1.2000000E-001 0.0
 -1.7000000E-001 -1.1500000E-001 0.0
 -1.7000000E-001 -1.1000000E-001 0.0
 -1.7000000E-001 -1.0500000E-001 0.0
 -1.7000000E-001 -1.0000000E-001 0.0
 -1.7000000E-001 -9.5000000E-002 0.0
 -1.7000000E-001 -9.0000000E-002 0.0
 -1.7000000E-001 -8.5000000E-002 0.0
 -1.7000000E-001 -8.0000000E-002 0.0
 -1.7000000E-001 -7.5000000E-002 0.0
 -1.7000000E-001 -7.0000000E-002 0.0
 -1.7000000E-001 -6.5000000E-002 0.0
 -1.7000000E-001 -6.0000000E-002 0.0
 -1.7000000E-001 -5.5000000E-002 0.0
 -1.7000000E-001 -5.0000000E-002 0.0
 -1.7000000E-001 -4.5000000E-002 0.0
 -1.7000000E-001 -4.0000000E-002 0.0
 -1.7000000E-001 -3.5000000E-002 0.0
 -1.7000000E-001 -3.0000000E-002 0.0
 -1.7000000E-001 -2.5000000E-002 0.0
 -1.7000000E-001 -2.0000000E-002 0.0
 -1.7000000E-001 -1.5000000E-002 0.0
 -1.7000000E-001 -1.0000000E-002 0.0
 -1.7000000E-001 -5.0000000E-003 0.0
 -1.7000000E-001  0.0000000E+000 0.0
 -1.7000000E-001  5.0000000E-003 0.0
 -1.7000000E-001  1.0000000E-002 0.0
 -1.7000000E-001  1.5000000E-002 0.0
 -1.7000000E-001  2.0000000E-002 0.0
 -1.7000000E-001  2.5000000E-002 0.0
 -1.7000000E-001  3.0000000E-002 0.0
 -1.7000000E-001  3.5000000E-002 0.0
 -1.7000000E-001  4.0000000E-002 0.0
 -1.7000000E-001  4.5000000E-002 0.0
 -1.7000000E-001  5.0000000E-002 0.0
 -1.7000000E-001  5.5000000E-002 0.0
 -1.7000000E-001  1.4000000E-001 0.0
 -1.7000000E-001  1.4500000E-001 0.0
 -1.7000000E-001  1.5000000E-001 0.0
 -1.7000000E-001  1.5500000E-001 0.0
 -1.7000000E-001  1.6000000E-001 0.0
 -1.7000000E-001  1.6500000E-001 0.0
 -1.7000000E-001  1.7000000E-001 0.0
 -1.7000000E-001  1.7500000E-001 0.0
 -1.7000000E-001  1.8000000E-001 0.0
 -1.7000000E-001  1.8500000E-001 0.0
 -1.7000000E-001  1.9000000E-001 0.0
 -1.7000000E-001  1.9500000E-001 0.0
 -1.7000000E-001  2.0000000E-001 0.0
 -1.7000000E-001  2.0500000E-001 0.0
 -1.7000000E-001 -1.8500000E-001 0.0
 -1.6500000E-001 -1.8500000E-001 0.0
 -1.6500000E-001 -1.8000000E-001 0.0
 -1.6500000E-001 -1.7500000E-001 0.0
 -1.6500000E-001 -1.7000000E-001 0.0
 -1.6500000E-001 -1.6500000E-001 0.0
 -1.6500000E-001 -1.6000000E-001 0.0
 -1.6500000E-001 -1.5500000E-001 0.0
 -1.6500000E-001 -1.5000000E-001 0.0
 -1.6500000E-001 -1.4500000E-001 0.0
 -1.6500000E-001 -1.4000000E-001 0.0
 -1.6500000E-001 -1.3500000E-001 0.0
 -1.6500000E-001 -1.3000000E-001 0.0
 -1.6500000E-001 -1.2500000E-001 0.0
 -1.6500000E-001 -1.2000000E-001 0.0
 -1.6500000E-001 -1.1500000E-001 0.0
 -1.6500000E-001 -1.1000000E-001 0.0
 -1.6500000E-001 -1.0500000E-001 0.0
 -1.6500000E-001 -1.0000000E-001 0.0
 -1.6500000E-001 -9.5000000E-002 0.0
 -1.6500000E-001 -9.0000000E-002 0.0
 -1.6500000E-001 -8.5000000E-002 0.0
 -1.6500000E-001 -8.0000000E-002 0.0
 -1.6500000E-001 -7.5000000E-002 0.0
 -1.6500000E-001 -7.0000000E-002 0.0
 -1.6500000E-001 -6.5000000E-002 0.0
 -1.6500000E-001 -6.0000000E-002 0.0
 -1.6500000E-001 -5.5000000E-002 0.0
 -1.6500000E-001 -5.0000000E-002 0.0
 -1.6500000E-001 -4.5000000E-002 0.0
 -1.6500000E-001 -4.0000000E-002 0.0
 -1.6500000E-001 -3.5000000E-002 0.0
 -1.6500000E-001 -3.0000000E-002 0.0
 -1.6500000E-001 -2.5000000E-002 0.0
 -1.6500000E-001 -2.0000000E-002 0.0
 -1.6500000E-001 -1.5000000E-002 0.0
 -1.6500000E-001 -1.0000000E-002 0.0
 -1.6500000E-001 -5.0000000E-003 0.0
 -1.6500000E-001  0.0000000E+000 0.0
 -1.6500000E-001  5.0000000E-003 0.0
 -1.6500000E-001  1.0000000E-002 0.0
 -1.6500000E-001  1.5000000E-002 0.0
 -1.6500000E-001  2.0000000E-002 0.0
 -1.6500000E-001  2.5000000E-002 0.0
 -1.6500000E-001  3.0000000E-002 0.0
 -1.6500000E-001  3.5000000E-002 0.0
 -1.6500000E-001  4.0000000E-002 0.0
 -1.6500000E-001  4.5000000E-002 0.0
 -1.6500000E-001  5.0000000E-002 0.0
 -1.6500000E-001  5.5000000E-002 0.0
 -1.6500000E-001  1.4000000E-001 0.0
 -1.6500000E-001  1.4500000E-001 0.0
 -1.6500000E-001  1.5000000E-001 0.0
 -1.6500000E-001  1.5500000E-001 0.0
 -1.6500000E-001  1.6000000E-001 0.0
 -1.6500000E-001  1.6500000E-001 0.0
 -1.6500000E-001  1.7000000E-001 0.0
 -1.6500000E-001  1.7500000E-001 0.0
 -1.6500000E-001  1.8000000E-001 0.0
 -1.6500000E-001  1.8500000E-001 0.0
 -1.6500000E-001  1.9000000E-001 0.0
 -1.6500000E-001  1.9500000E-001 0.0
 -1.6500000E-001  2.0000000E-001 0.0
 -1.6500000E-001  2.0500000E-001 0.0
 -1.6000000E-001 -1.8500000E-001 0.0
 -1.6000000E-001 -1.8000000E-001 0.0
 -1.6000000E-001 -1.7500000E-001 0.0
 -1.6000000E-001 -1.7000000E-001 0.0
 -1.6000000E-001 -1.6500000E-001 0.0
 -1.6000000E-001 -1.6000000E-001 0.0
 -1.6000000E-001 -1.5500000E-001 0.0
 -1.6000000E-001 -1.5000000E-001 0.0
 -1.6000000E-001 -1.4500000E-001 0.0
 -1.6000000E-001 -1.4000000E-001 0.0
 -1.6000000E-001 -1.3500000E-001 0.0
 -1.6000000E-001 -1.3000000E-001 0.0
 -1.6000000E-001 -1.2500000E-001 0.0
 -1.6000000E-001 -1.2000000E-001 0.0
 -1.6000000E-001 -1.1500000E-001 0.0
 -1.6000000E-001 -1.1000000E-001 0.0
 -1.6000000E-001 -1.0500000E-001 0.0
 -1.6000000E-001 -1.0000000E-001 0.0
 -1.6000000E-001 -9.5000000E-002 0.0
 -1.6000000E-001 -9.0000000E-002 0.0
 -1.6000000E-001 -8.5000000E-002 0.0
 -1.6000000E-001 -8.0000000E-002 0.0
 -1.6000000E-001 -7.5000000E-002 0.0
 -1.6000000E-001 -7.0000000E-002 0.0
 -1.6000000E-001 -6.5000000E-002 0.0
 -1.6000000E-001 -6.0000000E-002 0.0
 -1.6000000E-001 -5.5000000E-002 0.0
 -1.6000000E-001 -5.0000000E-002 0.0
 -1.6000000E-001 -4.5000000E-002 0.0
 -1.6000000E-001 -4.0000000E-002 0.0
 -1.6000000E-001 -3.5000000E-002 0.0
 -1.6000000E-001 -3.0000000E-002 0.0
 -1.6000000E-001 -2.5000000E-002 0.0
 -1.6000000E-001 -2.0000000E-002 0.0
 -1.6000000E-001 -1.5000000E-002 0.0
 -1.6000000E-001 -1.0000000E-002 0.0
 -1.6000000E-001 -5.0000000E-003 0.0
 -1.6000000E-001  0.0000000E+000 0.0
 -1.6000000E-001  5.0000000E-003 0.0
 -1.6000000E-001  1.0000000E-002 0.0
 -1.6000000E-001  1.5000000E-002 0.0
 -1.6000000E-001  2.0000000E-002 0.0
 -1.6000000E-001  2.5000000E-002 0.0
 -1.6000000E-001  3.0000000E-002 0.0
 -1.6000000E-001  3.5000000E-002 0.0
 -1.6000000E-001  4.0000000E-002 0.0
 -1.6000000E-001  4.5000000E-002 0.0
 -1.6000000E-001  5.0000000E-002 0.0
 -1.6000000E-001  5.5000000E-002 0.0
 -1.6500000E-001  1.3500000E-001 0.0
 -1.6000000E-001  1.3500000E-001 0.0
 -1.6000000E-001  1.4000000E-001 0.0
 -1.6000000E-001  1.4500000E-001 0.0
 -1.6000000E-001  1.5000000E-001 0.0
 -1.6000000E-001  1.5500000E-001 0.0
 -1.6000000E-001  1.6000000E-001 0.0
 -1.6000000E-001  1.6500000E-001 0.0
 -1.6000000E-001  1.7000000E-001 0.0
 -1.6000000E-001  1.7500000E-001 0.0
 -1.6000000E-001  1.8000000E-001 0.0
 -1.6000000E-001  1.8500000E-001 0.0
 -1.6000000E-001  1.9000000E-001 0.0
 -1.6000000E-001  1.9500000E-001 0.0
 -1.6000000E-001  2.0000000E-001 0.0
 -1.5500000E-001 -1.8500000E-001 0.0
 -1.5500000E-001 -1.8000000E-001 0.0
 -1.5500000E-001 -1.7500000E-001 0.0
 -1.5500000E-001 -1.7000000E-001 0.0
 -1.5500000E-001 -1.6500000E-001 0.0
 -1.5500000E-001 -1.6000000E-001 0.0
 -1.5500000E-001 -1.5500000E-001 0.0
 -1.5500000E-001 -1.5000000E-001 0.0
 -1.5500000E-001 -1.4500000E-001 0.0
 -1.5500000E-001 -1.4000000E-001 0.0
 -1.5500000E-001 -1.3500000E-001 0.0
 -1.5500000E-001 -1.3000000E-001 0.0
 -1.5500000E-001 -1.2500000E-001 0.0
 -1.5500000E-001 -1.2000000E-001 0.0
 -1.5500000E-001 -1.1500000E-001 0.0
 -1.5500000E-001 -1.1000000E-001 0.0
 -1.5500000E-001 -1.0500000E-001 0.0
 -1.5500000E-001 -1.0000000E-001 0.0
 -1.5500000E-001 -9.5000000E-002 0.0
 -1.5500000E-001 -9.0000000E-002 0.0
 -1.5500000E-001 -8.5000000E-002 0.0
 -1.5500000E-001 -8.0000000E-002 0.0
 -1.5500000E-001 -7.5000000E-002 0.0
 -1.5500000E-001 -7.0000000E-002 0.0
 -1.5500000E-001 -6.5000000E-002 0.0
 -1.5500000E-001 -6.0000000E-002 0.0
 -1.5500000E-001 -5.5000000E-002 0.0
 -1.5500000E-001 -5.0000000E-002 0.0
 -1.5500000E-001 -4.5000000E-002 0.0
 -1.5500000E-001 -4.0000000E-002 0.0
 -1.5500000E-001 -3.5000000E-002 0.0
 -1.5500000E-001 -3.0000000E-002 0.0
 -1.5500000E-001 -2.5000000E-002 0.0
 -1.5500000E-001 -2.0000000E-002 0.0
 -1.5500000E-001 -1.5000000E-002 0.0
 -1.5500000E-001 -1.0000000E-002 0.0
 -1.5500000E-001 -5.0000000E-003 0.0
 -1.5500000E-001  0.0000000E+000 0.0
 -1.5500000E-001  5.0000000E-003 0.0
 -1.5500000E-001  1.0000000E-002 0.0
 -1.5500000E-001  1.5000000E-002 0.0
 -1.5500000E-001  2.0000000E-002 0.0
 -1.5500000E-001  2.5000000E-002 0.0
 -1.5500000E-001  3.0000000E-002 0.0
 -1.5500000E-001  3.5000000E-002 0.0
 -1.5500000E-001  4.0000000E-002 0.0
 -1.5500000E-001  4.5000000E-002 0.0
 -1.5500000E-001  5.0000000E-002 0.0
 -1.5500000E-001  5.5000000E-002 0.0
 -1.6000000E-001  1.3000000E-001 0.0
 -1.5500000E-001  1.3000000E-001 0.0
 -1.5500000E-001  1.3500000E-001 0.0
 -1.5500000E-001  1.4000000E-001 0.0
 -1.5500000E-001  1.4500000E-001 0.0
 -1.5500000E-001  1.5000000E-001 0.0
 -1.5500000E-001  1.5500000E-001 0.0
 -1.5500000E-001  1.6000000E-001 0.0
 -1.5500000E-001  1.6500000E-001 0.0
 -1.5500000E-001  1.7000000E-001 0.0
 -1.5500000E-001  1.7500000E-001 0.0
 -1.5500000E-001  1.8000000E-001 0.0
 -1.5500000E-001  1.8500000E-001 0.0
 -1.5500000E-001  1.9000000E-001 0.0
 -1.5500000E-001  1.9500000E-001 0.0
 -1.5500000E-001  2.0000000E-001 0.0
 -1.5000000E-001 -1.8500000E-001 0.0
 -1.5000000E-001 -1.8000000E-001 0.0
 -1.5000000E-001 -1.7500000E-001 0.0
 -1.5000000E-001 -1.7000000E-001 0.0
 -1.5000000E-001 -1.6500000E-001 0.0
 -1.5000000E-001 -1.6000000E-001 0.0
 -1.5000000E-001 -1.5500000E-001 0.0
 -1.5000000E-001 -1.5000000E-001 0.0
 -1.5000000E-001 -1.4500000E-001 0.0
 -1.5000000E-001 -1.4000000E-001 0.0
 -1.5000000E-001 -1.3500000E-001 0.0
 -1.5000000E-001 -1.3000000E-001 0.0
 -1.5000000E-001 -1.2500000E-001 0.0
 -1.5000000E-001 -1.2000000E-001 0.0
 -1.5000000E-001 -1.1500000E-001 0.0
 -1.5000000E-001 -1.1000000E-001 0.0
 -1.5000000E-001 -1.0500000E-001 0.0
 -1.5000000E-001 -1.0000000E-001 0.0
 -1.5000000E-001 -9.5000000E-002 0.0
 -1.5000000E-001 -9.0000000E-002 0.0
 -1.5000000E-001 -8.5000000E-002 0.0
 -1.5000000E-001 -8.0000000E-002 0.0
 -1.5000000E-001 -7.5000000E-002 0.0
 -1.5000000E-001 -7.0000000E-002 0.0
 -1.5000000E-001 -6.5000000E-002 0.0
 -1.5000000E-001 -6.0000000E-002 0.0
 -1.5000000E-001 -5.5000000E-002 0.0
 -1.5000000E-001 -5.0000000E-002 0.0
 -1.5000000E-001 -4.5000000E-002 0.0
 -1.5000000E-001 -4.0000000E-002 0.0
 -1.5000000E-001 -3.5000000E-002 0.0
 -1.5000000E-001 -3.0000000E-002 0.0
 -1.5000000E-001 -2.5000000E-002 0.0
 -1.5000000E-001 -2.0000000E-002 0.0
 -1.5000000E-001 -1.5000000E-002 0.0
 -1.5000000E-001 -1.0000000E-002 0.0
 -1.5000000E-001 -5.0000000E-003 0.0
 -1.5000000E-001  0.0000000E+000 0.0
 -1.5000000E-001  5.0000000E-003 0.0
 -1.5000000E-001  1.0000000E-002 0.0
 -1.5000000E-001  1.5000000E-002 0.0
 -1.5000000E-001  2.0000000E-002 0.0
 -1.5000000E-001  2.5000000E-002 0.0
 -1.5000000E-001  3.0000000E-002 0.0
 -1.5000000E-001  3.5000000E-002 0.0
 -1.5000000E-001  4.0000000E-002 0.0
 -1.5000000E-001  4.5000000E-002 0.0
 -1.5000000E-001  5.0000000E-002 0.0
 -1.5000000E-001  5.5000000E-002 0.0
 -1.5500000E-001  1.2500000E-001 0.0
 -1.5000000E-001  1.2500000E-001 0.0
 -1.5000000E-001  1.3000000E-001 0.0
 -1.5000000E-001  1.3500000E-001 0.0
 -1.5000000E-001  1.4000000E-001 0.0
 -1.5000000E-001  1.4500000E-001 0.0
 -1.5000000E-001  1.5000000E-001 0.0
 -1.5000000E-001  1.5500000E-001 0.0
 -1.5000000E-001  1.6000000E-001 0.0
 -1.5000000E-001  1.6500000E-001 0.0
 -1.5000000E-001  1.7000000E-001 0.0
 -1.5000000E-001  1.7500000E-001 0.0
 -1.5000000E-001  1.8000000E-001 0.0
 -1.5000000E-001  1.8500000E-001 0.0
 -1.5000000E-001  1.9000000E-001 0.0
 -1.5000000E-001  1.9500000E-001 0.0
 -1.5000000E-001  2.0000000E-001 0.0
 -1.4500000E-001 -1.8500000E-001 0.0
 -1.4500000E-001 -1.8000000E-001 0.0
 -1.4500000E-001 -1.7500000E-001 0.0
 -1.4500000E-001 -1.7000000E-001 0.0
 -1.4500000E-001 -1.6500000E-001 0.0
 -1.4500000E-001 -1.6000000E-001 0.0
 -1.4500000E-001 -1.5500000E-001 0.0
 -1.4500000E-001 -1.5000000E-001 0.0
 -1.4500000E-001 -1.4500000E-001 0.0
 -1.4500000E-001 -1.4000000E-001 0.0
 -1.4500000E-001 -1.3500000E-001 0.0
 -1.4500000E-001 -1.3000000E-001 0.0
 -1.4500000E-001 -1.2500000E-001 0.0
 -1.4500000E-001 -1.2000000E-001 0.0
 -1.4500000E-001 -1.1500000E-001 0.0
 -1.4500000E-001 -1.1000000E-001 0.0
 -1.4500000E-001 -1.0500000E-001 0.0
 -1.4500000E-001 -1.0000000E-001 0.0
 -1.4500000E-001 -9.5000000E-002 0.0
 -1.4500000E-001 -9.0000000E-002 0.0
 -1.4500000E-001 -8.5000000E-002 0.0
 -1.4500000E-001 -8.0000000E-002 0.0
 -1.4500000E-001 -7.5000000E-002 0.0
 -1.4500000E-001 -7.0000000E-002 0.0
 -1.4500000E-001 -6.5000000E-002 0.0
 -1.4500000E-001 -6.0000000E-002 0.0
 -1.4500000E-001 -5.5000000E-002 0.0
 -1.4500000E-001 -5.0000000E-002 0.0
 -1.4500000E-001 -4.5000000E-002 0.0
 -1.4500000E-001 -4.0000000E-002 0.0
 -1.4500000E-001 -3.5000000E-002 0.0
 -1.4500000E-001 -3.0000000E-002 0.0
 -1.4500000E-001 -2.5000000E-002 0.0
 -1.4500000E-001 -2.0000000E-002 0.0
 -1.4500000E-001 -1.5000000E-002 0.0
 -1.4500000E-001 -1.0000000E-002 0.0
 -1.4500000E-001 -5.0000000E-003 0.0
 -1.4500000E-001  0.0000000E+000 0.0
 -1.4500000E-001  5.0000000E-003 0.0
 -1.4500000E-001  1.0000000E-002 0.0
 -1.4500000E-001  2.5000000E-002 0.0
 -1.4500000E-001  3.0000000E-002 0.0
 -1.4500000E-001  3.5000000E-002 0.0
 -1.4500000E-001  4.0000000E-002 0.0
 -1.4500000E-001  4.5000000E-002 0.0
 -1.4500000E-001  5.0000000E-002 0.0
 -1.4500000E-001  5.5000000E-002 0.0
 -1.4500000E-001  1.2500000E-001 0.0
 -1.4500000E-001  1.3000000E-001 0.0
 -1.4500000E-001  1.3500000E-001 0.0
 -1.4500000E-001  1.4000000E-001 0.0
 -1.4500000E-001  1.4500000E-001 0.0
 -1.4500000E-001  1.5000000E-001 0.0
 -1.4500000E-001  1.5500000E-001 0.0
 -1.4500000E-001  1.6000000E-001 0.0
 -1.4500000E-001  1.6500000E-001 0.0
 -1.4500000E-001  1.7000000E-001 0.0
 -1.4500000E-001  1.7500000E-001 0.0
 -1.4500000E-001  1.8000000E-001 0.0
 -1.4500000E-001  1.8500000E-001 0.0
 -1.4500000E-001  1.9000000E-001 0.0
 -1.4500000E-001  1.9500000E-001 0.0
 -1.4500000E-001  2.0000000E-001 0.0
 -1.4000000E-001 -1.8500000E-001 0.0
 -1.4000000E-001 -1.8000000E-001 0.0
 -1.4000000E-001 -1.7500000E-001 0.0
 -1.4000000E-001 -1.7000000E-001 0.0
 -1.4000000E-001 -1.6500000E-001 0.0
 -1.4000000E-001 -1.6000000E-001 0.0
 -1.4000000E-001 -1.5500000E-001 0.0
 -1.4000000E-001 -1.5000000E-001 0.0
 -1.4000000E-001 -1.4500000E-001 0.0
 -1.4000000E-001 -1.4000000E-001 0.0
 -1.4000000E-001 -1.3500000E-001 0.0
 -1.4000000E-001 -1.3000000E-001 0.0
 -1.4000000E-001 -1.2500000E-001 0.0
 -1.4000000E-001 -1.2000000E-001 0.0
 -1.4000000E-001 -1.1500000E-001 0.0
 -1.4000000E-001 -1.1000000E-001 0.0
 -1.4000000E-001 -1.0500000E-001 0.0
 -1.4000000E-001 -1.0000000E-001 0.0
 -1.4000000E-001 -9.5000000E-002 0.0
 -1.4000000E-001 -9.0000000E-002 0.0
 -1.4000000E-001 -8.5000000E-002 0.0
 -1.4000000E-001 -8.0000000E-002 0.0
 -1.4000000E-001 -7.5000000E-002 0.0
 -1.4000000E-001 -7.0000000E-002 0.0
 -1.4000000E-001 -6.5000000E-002 0.0
 -1.4000000E-001 -6.0000000E-002 0.0
 -1.4000000E-001 -5.5000000E-002 0.0
 -1.4000000E-001 -5.0000000E-002 0.0
 -1.4000000E-001 -4.5000000E-002 0.0
 -1.4000000E-001 -4.0000000E-002 0.0
 -1.4000000E-001 -3.5000000E-002 0.0
 -1.4000000E-001 -3.0000000E-002 0.0
 -1.4000000E-001 -2.5000000E-002 0.0
 -1.4000000E-001  2.5000000E-002 0.0
 -1.4000000E-001  3.0000000E-002 0.0
 -1.4000000E-001  3.5000000E-002 0.0
 -1.4000000E-001  4.0000000E-002 0.0
 -1.4000000E-001  4.5000000E-002 0.0
 -1.4000000E-001  5.0000000E-002 0.0
 -1.4000000E-001  1.2500000E-001 0.0
 -1.4000000E-001  1.3000000E-001 0.0
 -1.4000000E-001  1.3500000E-001 0.0
 -1.4000000E-001  1.4000000E-001 0.0
 -1.4000000E-001  1.4500000E-001 0.0
 -1.4000000E-001  1.5000000E-001 0.0
 -1.4000000E-001  1.5500000E-001 0.0
 -1.4000000E-001  1.6000000E-001 0.0
 -1.4000000E-001  1.6500000E-001 0.0
 -1.4000000E-001  1.7000000E-001 0.0
 -1.4000000E-001  1.7500000E-001 0.0
 -1.4000000E-001  1.8000000E-001 0.0
 -1.4000000E-001  1.8500000E-001 0.0
 -1.4000000E-001  1.9000000E-001 0.0
 -1.4000000E-001  1.9500000E-001 0.0
 -1.4000000E-001  2.0000000E-001 0.0
 -1.3500000E-001 -1.8000000E-001 0.0
 -1.3500000E-001 -1.7500000E-001 0.0
 -1.3500000E-001 -1.7000000E-001 0.0
 -1.3500000E-001 -1.6500000E-001 0.0
 -1.3500000E-001 -1.6000000E-001 0.0
 -1.3500000E-001 -1.5500000E-001 0.0
 -1.3500000E-001 -1.5000000E-001 0.0
 -1.3500000E-001 -1.4500000E-001 0.0
 -1.3500000E-001 -1.4000000E-001 0.0
 -1.3500000E-001 -1.3500000E-001 0.0
 -1.3500000E-001 -1.3000000E-001 0.0
 -1.3500000E-001 -1.2500000E-001 0.0
 -1.3500000E-001 -1.2000000E-001 0.0
 -1.3500000E-001 -1.1500000E-001 0.0
 -1.3500000E-001 -1.1000000E-001 0.0
 -1.3500000E-001 -1.0500000E-001 0.0
 -1.3500000E-001 -1.0000000E-001 0.0
 -1.3500000E-001 -9.5000000E-002 0.0
 -1.3500000E-001 -9.0000000E-002 0.0
 -1.3500000E-001 -8.5000000E-002 0.0
 -1.3500000E-001 -8.0000000E-002 0.0
 -1.3500000E-001 -7.5000000E-002 0.0
 -1.3500000E-001 -7.0000000E-002 0.0
 -1.3500000E-001 -6.5000000E-002 0.0
 -1.3500000E-001 -6.0000000E-002 0.0
 -1.3500000E-001 -5.5000000E-002 0.0
 -1.3500000E-001 -5.0000000E-002 0.0
 -1.3500000E-001 -4.5000000E-002 0.0
 -1.3500000E-001 -4.0000000E-002 0.0
 -1.3500000E-001 -3.5000000E-002 0.0
 -1.4000000E-001  2.0000000E-002 0.0
 -1.3500000E-001  2.0000000E-002 0.0
 -1.3500000E-001  2.5000000E-002 0.0
 -1.3500000E-001  3.0000000E-002 0.0
 -1.3500000E-001  3.5000000E-002 0.0
 -1.3500000E-001  4.0000000E-002 0.0
 -1.3500000E-001  4.5000000E-002 0.0
 -1.3500000E-001  5.0000000E-002 0.0
 -1.4000000E-001  1.2000000E-001 0.0
 -1.3500000E-001  1.2000000E-001 0.0
 -1.3500000E-001  1.2500000E-001 0.0
 -1.3500000E-001  1.3000000E-001 0.0
 -1.3500000E-001  1.3500000E-001 0.0
 -1.3500000E-001  1.4000000E-001 0.0
 -1.3500000E-001  1.4500000E-001 0.0
 -1.3500000E-001  1.5000000E-001 0.0
 -1.3500000E-001  1.5500000E-001 0.0
 -1.3500000E-001  1.6000000E-001 0.0
 -1.3500000E-001  1.6500000E-001 0.0
 -1.3500000E-001  1.7000000E-001 0.0
 -1.3500000E-001  1.7500000E-001 0.0
 -1.3500000E-001  1.8000000E-001 0.0
 -1.3500000E-001  1.8500000E-001 0.0
 -1.3500000E-001  1.9000000E-001 0.0
 -1.3500000E-001  1.9500000E-001 0.0
 -1.3500000E-001  2.0000000E-001 0.0
 -1.3000000E-001 -1.8000000E-001 0.0
 -1.3000000E-001 -1.7500000E-001 0.0
 -1.3000000E-001 -1.7000000E-001 0.0
 -1.3000000E-001 -1.6500000E-001 0.0
 -1.3000000E-001 -1.6000000E-001 0.0
 -1.3000000E-001 -1.5500000E-001 0.0
 -1.3000000E-001 -1.5000000E-001 0.0
 -1.3000000E-001 -1.4500000E-001 0.0
 -1.3000000E-001 -1.4000000E-001 0.0
 -1.3000000E-001 -1.3500000E-001 0.0
 -1.3000000E-001 -1.3000000E-001 0.0
 -1.3000000E-001 -1.2500000E-001 0.0
 -1.3000000E-001 -1.2000000E-001 0.0
 -1.3000000E-001 -1.1500000E-001 0.0
 -1.3000000E-001 -1.1000000E-001 0.0
 -1.3000000E-001 -1.0500000E-001 0.0
 -1.3000000E-001 -1.0000000E-001 0.0
 -1.3000000E-001 -9.5000000E-002 0.0
 -1.3000000E-001 -9.0000000E-002 0.0
 -1.3000000E-001 -8.5000000E-002 0.0
 -1.3000000E-001 -8.0000000E-002 0.0
 -1.3000000E-001 -7.5000000E-002 0.0
 -1.3000000E-001 -7.0000000E-002 0.0
 -1.3000000E-001 -6.5000000E-002 0.0
 -1.3000000E-001 -6.0000000E-002 0.0
 -1.3000000E-001 -5.5000000E-002 0.0
 -1.3000000E-001 -5.0000000E-002 0.0
 -1.3000000E-001 -4.5000000E-002 0.0
 -1.3000000E-001  2.0000000E-002 0.0
 -1.3000000E-001  2.5000000E-002 0.0
 -1.3000000E-001  3.0000000E-002 0.0
 -1.3000000E-001  3.5000000E-002 0.0
 -1.3000000E-001  4.0000000E-002 0.0
 -1.3000000E-001  4.5000000E-002 0.0
 -1.3500000E-001  1.1500000E-001 0.0
 -1.3000000E-001  1.1500000E-001 0.0
 -1.3000000E-001  1.2000000E-001 0.0
 -1.3000000E-001  1.2500000E-001 0.0
 -1.3000000E-001  1.3000000E-001 0.0
 -1.3000000E-001  1.3500000E-001 0.0
 -1.3000000E-001  1.4000000E-001 0.0
 -1.3000000E-001  1.4500000E-001 0.0
 -1.3000000E-001  1.5000000E-001 0.0
 -1.3000000E-001  1.5500000E-001 0.0
 -1.3000000E-001  1.6000000E-001 0.0
 -1.3000000E-001  1.6500000E-001 0.0
 -1.3000000E-001  1.7000000E-001 0.0
 -1.3000000E-001  1.7500000E-001 0.0
 -1.3000000E-001  1.8000000E-001 0.0
 -1.3000000E-001  1.8500000E-001 0.0
 -1.3000000E-001  1.9000000E-001 0.0
 -1.3000000E-001  1.9500000E-001 0.0
 -1.2500000E-001 -1.7500000E-001 0.0
 -1.2500000E-001 -1.7000000E-001 0.0
 -1.2500000E-001 -1.6500000E-001 0.0
 -1.2500000E-001 -1.6000000E-001 0.0
 -1.2500000E-001 -1.5500000E-001 0.0
 -1.2500000E-001 -1.5000000E-001 0.0
 -1.2500000E-001 -1.4500000E-001 0.0
 -1.2500000E-001 -1.4000000E-001 0.0
 -1.2500000E-001 -1.3500000E-001 0.0
 -1.2500000E-001 -1.3000000E-001 0.0
 -1.2500000E-001 -1.2500000E-001 0.0
 -1.2500000E-001 -1.2000000E-001 0.0
 -1.2500000E-001 -1.1500000E-001 0.0
 -1.2500000E-001 -1.1000000E-001 0.0
 -1.2500000E-001 -1.0500000E-001 0.0
 -1.2500000E-001 -1.0000000E-001 0.0
 -1.2500000E-001 -9.5000000E-002 0.0
 -1.2500000E-001 -9.0000000E-002 0.0
 -1.2500000E-001 -8.5000000E-002 0.0
 -1.2500000E-001 -8.0000000E-002 0.0
 -1.2500000E-001 -7.5000000E-002 0.0
 -1.2500000E-001 -7.0000000E-002 0.0
 -1.2500000E-001 -6.5000000E-002 0.0
 -1.2500000E-001 -6.0000000E-002 0.0
 -1.2500000E-001 -5.5000000E-002 0.0
 -1.2500000E-001 -5.0000000E-002 0.0
 -1.2500000E-001  2.5000000E-002 0.0
 -1.2500000E-001  3.0000000E-002 0.0
 -1.2500000E-001  3.5000000E-002 0.0
 -1.3000000E-001  1.1000000E-001 0.0
 -1.2500000E-001  1.1000000E-001 0.0
 -1.2500000E-001  1.1500000E-001 0.0
 -1.2500000E-001  1.2000000E-001 0.0
 -1.2500000E-001  1.2500000E-001 0.0
 -1.2500000E-001  1.3000000E-001 0.0
 -1.2500000E-001  1.3500000E-001 0.0
 -1.2500000E-001  1.4000000E-001 0.0
 -1.2500000E-001  1.4500000E-001 0.0
 -1.2500000E-001  1.5000000E-001 0.0
 -1.2500000E-001  1.5500000E-001 0.0
 -1.2500000E-001  1.6000000E-001 0.0
 -1.2500000E-001  1.6500000E-001 0.0
 -1.2500000E-001  1.7000000E-001 0.0
 -1.2500000E-001  1.7500000E-001 0.0
 -1.2500000E-001  1.8000000E-001 0.0
 -1.2500000E-001  1.8500000E-001 0.0
 -1.2500000E-001  1.9000000E-001 0.0
 -1.2000000E-001 -1.7000000E-001 0.0
 -1.2000000E-001 -1.6500000E-001 0.0
 -1.2000000E-001 -1.6000000E-001 0.0
 -1.2000000E-001 -1.5500000E-001 0.0
 -1.2000000E-001 -1.5000000E-001 0.0
 -1.2000000E-001 -1.4500000E-001 0.0
 -1.2000000E-001 -1.4000000E-001 0.0
 -1.2000000E-001 -1.3500000E-001 0.0
 -1.2000000E-001 -1.3000000E-001 0.0
 -1.2000000E-001 -1.2500000E-001 0.0
 -1.2000000E-001 -1.2000000E-001 0.0
 -1.2000000E-001 -1.1500000E-001 0.0
 -1.2000000E-001 -1.1000000E-001 0.0
 -1.2000000E-001 -1.0500000E-001 0.0
 -1.2000000E-001 -1.0000000E-001 0.0
 -1.2000000E-001 -9.5000000E-002 0.0
 -1.2000000E-001 -9.0000000E-002 0.0
 -1.2000000E-001 -8.5000000E-002 0.0
 -1.2000000E-001 -8.0000000E-002 0.0
 -1.2000000E-001 -7.5000000E-002 0.0
 -1.2000000E-001 -7.0000000E-002 0.0
 -1.2000000E-001 -6.5000000E-002 0.0
 -1.2000000E-001 -6.0000000E-002 0.0
 -1.2000000E-001 -5.5000000E-002 0.0
 -1.2000000E-001 -5.0000000E-002 0.0
 -1.2500000E-001  1.0500000E-001 0.0
 -1.2000000E-001  1.0500000E-001 0.0
 -1.2000000E-001  1.1000000E-001 0.0
 -1.2000000E-001  1.1500000E-001 0.0
 -1.2000000E-001  1.2000000E-001 0.0
 -1.2000000E-001  1.2500000E-001 0.0
 -1.2000000E-001  1.3000000E-001 0.0
 -1.2000000E-001  1.3500000E-001 0.0
 -1.2000000E-001  1.4000000E-001 0.0
 -1.2000000E-001  1.4500000E-001 0.0
 -1.2000000E-001  1.5000000E-001 0.0
 -1.2000000E-001  1.5500000E-001 0.0
 -1.2000000E-001  1.6000000E-001 0.0
 -1.2000000E-001  1.6500000E-001 0.0
 -1.2000000E-001  1.7000000E-001 0.0
 -1.2000000E-001  1.7500000E-001 0.0
 -1.2000000E-001  1.8000000E-001 0.0
 -1.2000000E-001  1.8500000E-001 0.0
 -1.2000000E-001  1.9000000E-001 0.0
 -1.1500000E-001 -1.7000000E-001 0.0
 -1.1500000E-001 -1.6500000E-001 0.0
 -1.1500000E-001 -1.6000000E-001 0.0
 -1.1500000E-001 -1.5500000E-001 0.0
 -1.1500000E-001 -1.5000000E-001 0.0
 -1.1500000E-001 -1.4500000E-001 0.0
 -1.1500000E-001 -1.4000000E-001 0.0
 -1.1500000E-001 -1.3500000E-001 0.0
 -1.1500000E-001 -1.3000000E-001 0.0
 -1.1500000E-001 -1.2500000E-001 0.0
 -1.1500000E-001 -1.2000000E-001 0.0
 -1.1500000E-001 -1.1500000E-001 0.0
 -1.1500000E-001 -1.1000000E-001 0.0
 -1.1500000E-001 -1.0500000E-001 0.0
 -1.1500000E-001 -1.0000000E-001 0.0
 -1.1500000E-001 -9.5000000E-002 0.0
 -1.1500000E-001 -9.0000000E-002 0.0
 -1.1500000E-001 -8.5000000E-002 0.0
 -1.1500000E-001 -8.0000000E-002 0.0
 -1.1500000E-001 -7.5000000E-002 0.0
 -1.1500000E-001 -7.0000000E-002 0.0
 -1.1500000E-001 -6.5000000E-002 0.0
 -1.1500000E-001 -6.0000000E-002 0.0
 -1.1500000E-001 -5.5000000E-002 0.0
 -1.2000000E-001  1.0000000E-001 0.0
 -1.1500000E-001  1.0000000E-001 0.0
 -1.1500000E-001  1.0500000E-001 0.0
 -1.1500000E-001  1.1000000E-001 0.0
 -1.1500000E-001  1.1500000E-001 0.0
 -1.1500000E-001  1.2000000E-001 0.0
 -1.1500000E-001  1.2500000E-001 0.0
 -1.1500000E-001  1.3000000E-001 0.0
 -1.1500000E-001  1.3500000E-001 0.0
 -1.1500000E-001  1.4000000E-001 0.0
 -1.1500000E-001  1.4500000E-001 0.0
 -1.1500000E-001  1.5000000E-001 0.0
 -1.1500000E-001  1.5500000E-001 0.0
 -1.1500000E-001  1.6000000E-001 0.0
 -1.1500000E-001  1.6500000E-001 0.0
 -1.1500000E-001  1.7000000E-001 0.0
 -1.1500000E-001  1.7500000E-001 0.0
 -1.1500000E-001  1.8000000E-001 0.0
 -1.1500000E-001  1.8500000E-001 0.0
 -1.1500000E-001  1.9000000E-001 0.0
 -1.1000000E-001 -1.6000000E-001 0.0
 -1.1000000E-001 -1.5500000E-001 0.0
 -1.1000000E-001 -1.5000000E-001 0.0
 -1.1000000E-001 -1.4500000E-001 0.0
 -1.1000000E-001 -1.4000000E-001 0.0
 -1.1000000E-001 -1.3500000E-001 0.0
 -1.1000000E-001 -1.3000000E-001 0.0
 -1.1000000E-001 -1.2500000E-001 0.0
 -1.1000000E-001 -1.2000000E-001 0.0
 -1.1000000E-001 -1.1500000E-001 0.0
 -1.1000000E-001 -1.1000000E-001 0.0
 -1.1000000E-001 -1.0500000E-001 0.0
 -1.1000000E-001 -1.0000000E-001 0.0
 -1.1000000E-001 -9.5000000E-002 0.0
 -1.1000000E-001 -9.0000000E-002 0.0
 -1.1000000E-001 -8.5000000E-002 0.0
 -1.1000000E-001 -8.0000000E-002 0.0
 -1.1000000E-001 -7.5000000E-002 0.0
 -1.1000000E-001 -7.0000000E-002 0.0
 -1.1000000E-001 -6.5000000E-002 0.0
 -1.1000000E-001 -6.0000000E-002 0.0
 -1.1000000E-001 -5.5000000E-002 0.0
 -1.1500000E-001  9.0000000E-002 0.0
 -1.1000000E-001  9.0000000E-002 0.0
 -1.1000000E-001  9.5000000E-002 0.0
 -1.1500000E-001  9.5000000E-002 0.0
 -1.1000000E-001  1.0000000E-001 0.0
 -1.1000000E-001  1.0500000E-001 0.0
 -1.1000000E-001  1.1000000E-001 0.0
 -1.1000000E-001  1.1500000E-001 0.0
 -1.1000000E-001  1.2000000E-001 0.0
 -1.1000000E-001  1.2500000E-001 0.0
 -1.1000000E-001  1.3000000E-001 0.0
 -1.1000000E-001  1.3500000E-001 0.0
 -1.1000000E-001  1.4000000E-001 0.0
 -1.1000000E-001  1.4500000E-001 0.0
 -1.1000000E-001  1.5000000E-001 0.0
 -1.1000000E-001  1.5500000E-001 0.0
 -1.1000000E-001  1.6000000E-001 0.0
 -1.1000000E-001  1.6500000E-001 0.0
 -1.1000000E-001  1.7000000E-001 0.0
 -1.1000000E-001  1.7500000E-001 0.0
 -1.1000000E-001  1.8000000E-001 0.0
 -1.1000000E-001  1.8500000E-001 0.0
 -1.0500000E-001 -1.6000000E-001 0.0
 -1.0500000E-001 -1.5500000E-001 0.0
 -1.0500000E-001 -1.5000000E-001 0.0
 -1.0500000E-001 -1.4500000E-001 0.0
 -1.0500000E-001 -1.4000000E-001 0.0
 -1.0500000E-001 -1.3500000E-001 0.0
 -1.0500000E-001 -1.3000000E-001 0.0
 -1.0500000E-001 -1.2500000E-001 0.0
 -1.0500000E-001 -1.2000000E-001 0.0
 -1.0500000E-001 -1.1500000E-001 0.0
 -1.0500000E-001 -1.1000000E-001 0.0
 -1.0500000E-001 -1.0500000E-001 0.0
 -1.0500000E-001 -1.0000000E-001 0.0
 -1.0500000E-001 -9.5000000E-002 0.0
 -1.0500000E-001 -9.0000000E-002 0.0
 -1.0500000E-001 -8.5000000E-002 0.0
 -1.0500000E-001 -8.0000000E-002 0.0
 -1.0500000E-001 -7.5000000E-002 0.0
 -1.0500000E-001 -7.0000000E-002 0.0
 -1.0500000E-001 -6.5000000E-002 0.0
 -1.0500000E-001 -6.0000000E-002 0.0
 -1.0500000E-001 -5.5000000E-002 0.0
 -1.1000000E-001  8.5000000E-002 0.0
 -1.0500000E-001  8.5000000E-002 0.0
 -1.0500000E-001  9.0000000E-002 0.0
 -1.0500000E-001  9.5000000E-002 0.0
 -1.0500000E-001  1.0000000E-001 0.0
 -1.0500000E-001  1.0500000E-001 0.0
 -1.0500000E-001  1.1000000E-001 0.0
 -1.0500000E-001  1.1500000E-001 0.0
 -1.0500000E-001  1.2000000E-001 0.0
 -1.0500000E-001  1.2500000E-001 0.0
 -1.0500000E-001  1.3000000E-001 0.0
 -1.0500000E-001  1.3500000E-001 0.0
 -1.0500000E-001  1.4000000E-001 0.0
 -1.0500000E-001  1.4500000E-001 0.0
 -1.0500000E-001  1.5000000E-001 0.0
 -1.0500000E-001  1.5500000E-001 0.0
 -1.0500000E-001  1.6000000E-001 0.0
 -1.0500000E-001  1.6500000E-001 0.0
 -1.0500000E-001  1.7000000E-001 0.0
 -1.0500000E-001  1.7500000E-001 0.0
 -1.0500000E-001  1.8000000E-001 0.0
 -1.0500000E-001  1.8500000E-001 0.0
 -1.0000000E-001 -1.5000000E-001 0.0
 -1.0000000E-001 -1.4500000E-001 0.0
 -1.0000000E-001 -1.4000000E-001 0.0
 -1.0000000E-001 -1.3500000E-001 0.0
 -1.0000000E-001 -1.3000000E-001 0.0
 -1.0000000E-001 -1.2500000E-001 0.0
 -1.0000000E-001 -1.2000000E-001 0.0
 -1.0000000E-001 -1.1500000E-001 0.0
 -1.0000000E-001 -1.1000000E-001 0.0
 -1.0000000E-001 -1.0500000E-001 0.0
 -1.0000000E-001 -1.0000000E-001 0.0
 -1.0000000E-001 -9.5000000E-002 0.0
 -1.0000000E-001 -9.0000000E-002 0.0
 -1.0000000E-001 -8.5000000E-002 0.0
 -1.0000000E-001 -8.0000000E-002 0.0
 -1.0000000E-001 -7.5000000E-002 0.0
 -1.0000000E-001 -7.0000000E-002 0.0
 -1.0000000E-001 -6.5000000E-002 0.0
 -1.0000000E-001 -6.0000000E-002 0.0
 -1.0000000E-001 -5.5000000E-002 0.0
 -1.0500000E-001  7.5000000E-002 0.0
 -1.0000000E-001  7.5000000E-002 0.0
 -1.0000000E-001  8.0000000E-002 0.0
 -1.0500000E-001  8.0000000E-002 0.0
 -1.0000000E-001  8.5000000E-002 0.0
 -1.0000000E-001  9.0000000E-002 0.0
 -1.0000000E-001  9.5000000E-002 0.0
 -1.0000000E-001  1.0000000E-001 0.0
 -1.0000000E-001  1.0500000E-001 0.0
 -1.0000000E-001  1.1000000E-001 0.0
 -1.0000000E-001  1.1500000E-001 0.0
 -1.0000000E-001  1.2000000E-001 0.0
 -1.0000000E-001  1.2500000E-001 0.0
 -1.0000000E-001  1.3000000E-001 0.0
 -1.0000000E-001  1.3500000E-001 0.0
 -1.0000000E-001  1.4000000E-001 0.0
 -1.0000000E-001  1.4500000E-001 0.0
 -1.0000000E-001  1.5000000E-001 0.0
 -1.0000000E-001  1.5500000E-001 0.0
 -1.0000000E-001  1.6000000E-001 0.0
 -1.0000000E-001  1.6500000E-001 0.0
 -1.0000000E-001  1.7000000E-001 0.0
 -1.0000000E-001  1.7500000E-001 0.0
 -1.0000000E-001  1.8000000E-001 0.0
 -1.0000000E-001  1.8500000E-001 0.0
 -9.5000000E-002 -1.4500000E-001 0.0
 -9.5000000E-002 -1.4000000E-001 0.0
 -9.5000000E-002 -1.3500000E-001 0.0
 -9.5000000E-002 -1.3000000E-001 0.0
 -9.5000000E-002 -1.2500000E-001 0.0
 -9.5000000E-002 -1.2000000E-001 0.0
 -9.5000000E-002 -1.1500000E-001 0.0
 -9.5000000E-002 -1.1000000E-001 0.0
 -9.5000000E-002 -1.0500000E-001 0.0
 -9.5000000E-002 -1.0000000E-001 0.0
 -9.5000000E-002 -9.5000000E-002 0.0
 -9.5000000E-002 -9.0000000E-002 0.0
 -9.5000000E-002 -8.5000000E-002 0.0
 -9.5000000E-002 -8.0000000E-002 0.0
 -9.5000000E-002 -7.5000000E-002 0.0
 -9.5000000E-002 -7.0000000E-002 0.0
 -9.5000000E-002 -6.5000000E-002 0.0
 -9.5000000E-002 -6.0000000E-002 0.0
 -9.5000000E-002 -5.5000000E-002 0.0
 -9.5000000E-002 -5.0000000E-002 0.0
 -1.0000000E-001 -5.0000000E-002 0.0
 -1.0000000E-001  7.0000000E-002 0.0
 -9.5000000E-002  7.0000000E-002 0.0
 -9.5000000E-002  7.5000000E-002 0.0
 -9.5000000E-002  8.0000000E-002 0.0
 -9.5000000E-002  8.5000000E-002 0.0
 -9.5000000E-002  9.0000000E-002 0.0
 -9.5000000E-002  9.5000000E-002 0.0
 -9.5000000E-002  1.0000000E-001 0.0
 -9.5000000E-002  1.0500000E-001 0.0
 -9.5000000E-002  1.1000000E-001 0.0
 -9.5000000E-002  1.1500000E-001 0.0
 -9.5000000E-002  1.2000000E-001 0.0
 -9.5000000E-002  1.2500000E-001 0.0
 -9.5000000E-002  1.3000000E-001 0.0
 -9.5000000E-002  1.3500000E-001 0.0
 -9.5000000E-002  1.4000000E-001 0.0
 -9.5000000E-002  1.4500000E-001 0.0
 -9.5000000E-002  1.5000000E-001 0.0
 -9.5000000E-002  1.5500000E-001 0.0
 -9.5000000E-002  1.6000000E-001 0.0
 -9.5000000E-002  1.6500000E-001 0.0
 -9.5000000E-002  1.7000000E-001 0.0
 -9.5000000E-002  1.7500000E-001 0.0
 -9.5000000E-002  1.8000000E-001 0.0
 -9.5000000E-002  1.8500000E-001 0.0
 -9.0000000E-002 -1.4000000E-001 0.0
 -9.0000000E-002 -1.3500000E-001 0.0
 -9.0000000E-002 -1.3000000E-001 0.0
 -9.0000000E-002 -1.2500000E-001 0.0
 -9.0000000E-002 -1.2000000E-001 0.0
 -9.0000000E-002 -1.1500000E-001 0.0
 -9.0000000E-002 -1.1000000E-001 0.0
 -9.0000000E-002 -1.0500000E-001 0.0
 -9.0000000E-002 -1.0000000E-001 0.0
 -9.0000000E-002 -9.5000000E-002 0.0
 -9.0000000E-002 -9.0000000E-002 0.0
 -9.0000000E-002 -8.5000000E-002 0.0
 -9.0000000E-002 -8.0000000E-002 0.0
 -9.0000000E-002 -7.5000000E-002 0.0
 -9.0000000E-002 -7.0000000E-002 0.0
 -9.0000000E-002 -6.5000000E-002 0.0
 -9.0000000E-002 -6.0000000E-002 0.0
 -9.0000000E-002 -5.5000000E-002 0.0
 -9.0000000E-002 -5.0000000E-002 0.0
 -9.0000000E-002 -4.5000000E-002 0.0
 -9.5000000E-002 -4.5000000E-002 0.0
 -9.0000000E-002 -4.0000000E-002 0.0
 -9.5000000E-002 -4.0000000E-002 0.0
 -9.0000000E-002 -3.5000000E-002 0.0
 -9.5000000E-002 -3.5000000E-002 0.0
 -9.0000000E-002 -3.0000000E-002 0.0
 -9.5000000E-002 -3.0000000E-002 0.0
 -9.5000000E-002  6.0000000E-002 0.0
 -9.0000000E-002  6.0000000E-002 0.0
 -9.0000000E-002  6.5000000E-002 0.0
 -9.5000000E-002  6.5000000E-002 0.0
 -9.0000000E-002  7.0000000E-002 0.0
 -9.0000000E-002  7.5000000E-002 0.0
 -9.0000000E-002  8.0000000E-002 0.0
 -9.0000000E-002  8.5000000E-002 0.0
 -9.0000000E-002  9.0000000E-002 0.0
 -9.0000000E-002  9.5000000E-002 0.0
 -9.0000000E-002  1.0000000E-001 0.0
 -9.0000000E-002  1.0500000E-001 0.0
 -9.0000000E-002  1.1000000E-001 0.0
 -9.0000000E-002  1.1500000E-001 0.0
 -9.0000000E-002  1.2000000E-001 0.0
 -9.0000000E-002  1.2500000E-001 0.0
 -9.0000000E-002  1.3000000E-001 0.0
 -9.0000000E-002  1.3500000E-001 0.0
 -9.0000000E-002  1.4000000E-001 0.0
 -9.0000000E-002  1.4500000E-001 0.0
 -9.0000000E-002  1.5000000E-001 0.0
 -9.0000000E-002  1.5500000E-001 0.0
 -9.0000000E-002  1.6000000E-001 0.0
 -9.0000000E-002  1.6500000E-001 0.0
 -9.0000000E-002  1.7000000E-001 0.0
 -9.0000000E-002  1.7500000E-001 0.0
 -9.0000000E-002  1.8000000E-001 0.0
 -9.0000000E-002  1.8500000E-001 0.0
 -8.5000000E-002 -1.3500000E-001 0.0
 -8.5000000E-002 -1.3000000E-001 0.0
 -8.5000000E-002 -1.2500000E-001 0.0
 -8.5000000E-002 -1.2000000E-001 0.0
 -8.5000000E-002 -1.1500000E-001 0.0
 -8.5000000E-002 -1.1000000E-001 0.0
 -8.5000000E-002 -1.0500000E-001 0.0
 -8.5000000E-002 -1.0000000E-001 0.0
 -8.5000000E-002 -9.5000000E-002 0.0
 -8.5000000E-002 -9.0000000E-002 0.0
 -8.5000000E-002 -8.5000000E-002 0.0
 -8.5000000E-002 -8.0000000E-002 0.0
 -8.5000000E-002 -7.5000000E-002 0.0
 -8.5000000E-002 -7.0000000E-002 0.0
 -8.5000000E-002 -6.5000000E-002 0.0
 -8.5000000E-002 -6.0000000E-002 0.0
 -8.5000000E-002 -5.5000000E-002 0.0
 -8.5000000E-002 -5.0000000E-002 0.0
 -8.5000000E-002 -4.5000000E-002 0.0
 -8.5000000E-002 -4.0000000E-002 0.0
 -8.5000000E-002 -3.5000000E-002 0.0
 -8.5000000E-002 -3.0000000E-002 0.0
 -8.5000000E-002 -2.5000000E-002 0.0
 -9.0000000E-002 -2.5000000E-002 0.0
 -8.5000000E-002 -2.0000000E-002 0.0
 -9.0000000E-002 -2.0000000E-002 0.0
 -8.5000000E-002 -1.5000000E-002 0.0
 -9.0000000E-002 -1.5000000E-002 0.0
 -8.5000000E-002 -1.0000000E-002 0.0
 -9.0000000E-002 -1.0000000E-002 0.0
 -8.5000000E-002 -5.0000000E-003 0.0
 -9.0000000E-002 -5.0000000E-003 0.0
 -8.5000000E-002  0.0000000E+000 0.0
 -9.0000000E-002  0.0000000E+000 0.0
 -9.0000000E-002  5.5000000E-002 0.0
 -8.5000000E-002  5.5000000E-002 0.0
 -8.5000000E-002  6.0000000E-002 0.0
 -8.5000000E-002  6.5000000E-002 0.0
 -8.5000000E-002  7.0000000E-002 0.0
 -8.5000000E-002  7.5000000E-002 0.0
 -8.5000000E-002  8.0000000E-002 0.0
 -8.5000000E-002  8.5000000E-002 0.0
 -8.5000000E-002  9.0000000E-002 0.0
 -8.5000000E-002  9.5000000E-002 0.0
 -8.5000000E-002  1.0000000E-001 0.0
 -8.5000000E-002  1.0500000E-001 0.0
 -8.5000000E-002  1.1000000E-001 0.0
 -8.5000000E-002  1.1500000E-001 0.0
 -8.5000000E-002  1.2000000E-001 0.0
 -8.5000000E-002  1.2500000E-001 0.0
 -8.5000000E-002  1.3000000E-001 0.0
 -8.5000000E-002  1.3500000E-001 0.0
 -8.5000000E-002  1.4000000E-001 0.0
 -8.5000000E-002  1.4500000E-001 0.0
 -8.5000000E-002  1.5000000E-001 0.0
 -8.5000000E-002  1.5500000E-001 0.0
 -8.5000000E-002  1.6000000E-001 0.0
 -8.5000000E-002  1.6500000E-001 0.0
 -8.5000000E-002  1.7000000E-001 0.0
 -8.5000000E-002  1.7500000E-001 0.0
 -8.5000000E-002  1.8000000E-001 0.0
 -8.5000000E-002  1.8500000E-001 0.0
 -8.0000000E-002 -1.3500000E-001 0.0
 -8.0000000E-002 -1.3000000E-001 0.0
 -8.0000000E-002 -1.2500000E-001 0.0
 -8.0000000E-002 -1.2000000E-001 0.0
 -8.0000000E-002 -1.1500000E-001 0.0
 -8.0000000E-002 -1.1000000E-001 0.0
 -8.0000000E-002 -1.0500000E-001 0.0
 -8.0000000E-002 -1.0000000E-001 0.0
 -8.0000000E-002 -9.5000000E-002 0.0
 -8.0000000E-002 -9.0000000E-002 0.0
 -8.0000000E-002 -8.5000000E-002 0.0
 -8.0000000E-002 -8.0000000E-002 0.0
 -8.0000000E-002 -7.5000000E-002 0.0
 -8.0000000E-002 -7.0000000E-002 0.0
 -8.0000000E-002 -6.5000000E-002 0.0
 -8.0000000E-002 -6.0000000E-002 0.0
 -8.0000000E-002 -5.5000000E-002 0.0
 -8.0000000E-002 -5.0000000E-002 0.0
 -8.0000000E-002 -4.5000000E-002 0.0
 -8.0000000E-002 -4.0000000E-002 0.0
 -8.0000000E-002 -3.5000000E-002 0.0
 -8.0000000E-002 -3.0000000E-002 0.0
 -8.0000000E-002 -2.5000000E-002 0.0
 -8.0000000E-002 -2.0000000E-002 0.0
 -8.0000000E-002 -1.5000000E-002 0.0
 -8.0000000E-002 -1.0000000E-002 0.0
 -8.0000000E-002 -5.0000000E-003 0.0
 -8.0000000E-002  0.0000000E+000 0.0
 -8.0000000E-002  5.0000000E-003 0.0
 -8.5000000E-002  5.0000000E-003 0.0
 -8.5000000E-002  4.5000000E-002 0.0
 -8.0000000E-002  4.5000000E-002 0.0
 -8.0000000E-002  5.0000000E-002 0.0
 -8.5000000E-002  5.0000000E-002 0.0
 -8.0000000E-002  5.5000000E-002 0.0
 -8.0000000E-002  6.0000000E-002 0.0
 -8.0000000E-002  6.5000000E-002 0.0
 -8.0000000E-002  7.0000000E-002 0.0
 -8.0000000E-002  7.5000000E-002 0.0
 -8.0000000E-002  8.0000000E-002 0.0
 -8.0000000E-002  8.5000000E-002 0.0
 -8.0000000E-002  9.0000000E-002 0.0
 -8.0000000E-002  9.5000000E-002 0.0
 -8.0000000E-002  1.0000000E-001 0.0
 -8.0000000E-002  1.0500000E-001 0.0
 -8.0000000E-002  1.1000000E-001 0.0
 -8.0000000E-002  1.1500000E-001 0.0
 -8.0000000E-002  1.2000000E-001 0.0
 -8.0000000E-002  1.2500000E-001 0.0
 -8.0000000E-002  1.3000000E-001 0.0
 -8.0000000E-002  1.3500000E-001 0.0
 -8.0000000E-002  1.4000000E-001 0.0
 -8.0000000E-002  1.4500000E-001 0.0
 -8.0000000E-002  1.5000000E-001 0.0
 -8.0000000E-002  1.5500000E-001 0.0
 -8.0000000E-002  1.6000000E-001 0.0
 -8.0000000E-002  1.6500000E-001 0.0
 -8.0000000E-002  1.7000000E-001 0.0
 -8.0000000E-002  1.7500000E-001 0.0
 -8.0000000E-002  1.8000000E-001 0.0
 -7.5000000E-002 -1.3000000E-001 0.0
 -7.5000000E-002 -1.2500000E-001 0.0
 -7.5000000E-002 -1.2000000E-001 0.0
 -7.5000000E-002 -1.1500000E-001 0.0
 -7.5000000E-002 -1.1000000E-001 0.0
 -7.5000000E-002 -1.0500000E-001 0.0
 -7.5000000E-002 -1.0000000E-001 0.0
 -7.5000000E-002 -9.5000000E-002 0.0
 -7.5000000E-002 -9.0000000E-002 0.0
 -7.5000000E-002 -8.5000000E-002 0.0
 -7.5000000E-002 -8.0000000E-002 0.0
 -7.5000000E-002 -7.5000000E-002 0.0
 -7.5000000E-002 -7.0000000E-002 0.0
 -7.5000000E-002 -6.5000000E-002 0.0
 -7.5000000E-002 -6.0000000E-002 0.0
 -7.5000000E-002 -5.5000000E-002 0.0
 -7.5000000E-002 -5.0000000E-002 0.0
 -7.5000000E-002 -4.5000000E-002 0.0
 -7.5000000E-002 -4.0000000E-002 0.0
 -7.5000000E-002 -3.5000000E-002 0.0
 -7.5000000E-002 -3.0000000E-002 0.0
 -7.5000000E-002 -2.5000000E-002 0.0
 -7.5000000E-002 -2.0000000E-002 0.0
 -7.5000000E-002 -1.5000000E-002 0.0
 -7.5000000E-002 -1.0000000E-002 0.0
 -7.5000000E-002 -5.0000000E-003 0.0
 -7.5000000E-002  0.0000000E+000 0.0
 -7.5000000E-002  5.0000000E-003 0.0
 -7.5000000E-002  1.0000000E-002 0.0
 -8.0000000E-002  1.0000000E-002 0.0
 -7.5000000E-002  1.5000000E-002 0.0
 -8.0000000E-002  1.5000000E-002 0.0
 -7.5000000E-002  2.0000000E-002 0.0
 -8.0000000E-002  2.0000000E-002 0.0
 -7.5000000E-002  2.5000000E-002 0.0
 -8.0000000E-002  2.5000000E-002 0.0
 -7.5000000E-002  3.0000000E-002 0.0
 -8.0000000E-002  3.0000000E-002 0.0
 -7.5000000E-002  3.5000000E-002 0.0
 -8.0000000E-002  3.5000000E-002 0.0
 -7.5000000E-002  4.0000000E-002 0.0
 -8.0000000E-002  4.0000000E-002 0.0
 -7.5000000E-002  4.5000000E-002 0.0
 -7.5000000E-002  5.0000000E-002 0.0
 -7.5000000E-002  5.5000000E-002 0.0
 -7.5000000E-002  6.0000000E-002 0.0
 -7.5000000E-002  6.5000000E-002 0.0
 -7.5000000E-002  7.0000000E-002 0.0
 -7.5000000E-002  7.5000000E-002 0.0
 -7.5000000E-002  8.0000000E-002 0.0
 -7.5000000E-002  8.5000000E-002 0.0
 -7.5000000E-002  9.0000000E-002 0.0
 -7.5000000E-002  9.5000000E-002 0.0
 -7.5000000E-002  1.0000000E-001 0.0
 -7.5000000E-002  1.0500000E-001 0.0
 -7.5000000E-002  1.1000000E-001 0.0
 -7.5000000E-002  1.1500000E-001 0.0
 -7.5000000E-002  1.2000000E-001 0.0
 -7.5000000E-002  1.2500000E-001 0.0
 -7.5000000E-002  1.3000000E-001 0.0
 -7.5000000E-002  1.3500000E-001 0.0
 -7.5000000E-002  1.4000000E-001 0.0
 -7.5000000E-002  1.4500000E-001 0.0
 -7.5000000E-002  1.5000000E-001 0.0
 -7.5000000E-002  1.5500000E-001 0.0
 -7.5000000E-002  1.6000000E-001 0.0
 -7.5000000E-002  1.6500000E-001 0.0
 -7.5000000E-002  1.7000000E-001 0.0
 -7.5000000E-002  1.7500000E-001 0.0
 -7.5000000E-002  1.8000000E-001 0.0
 -7.0000000E-002 -1.2500000E-001 0.0
 -7.0000000E-002 -1.2000000E-001 0.0
 -7.0000000E-002 -1.1500000E-001 0.0
 -7.0000000E-002 -1.1000000E-001 0.0
 -7.0000000E-002 -1.0500000E-001 0.0
 -7.0000000E-002 -1.0000000E-001 0.0
 -7.0000000E-002 -9.5000000E-002 0.0
 -7.0000000E-002 -9.0000000E-002 0.0
 -7.0000000E-002 -8.5000000E-002 0.0
 -7.0000000E-002 -8.0000000E-002 0.0
 -7.0000000E-002 -7.5000000E-002 0.0
 -7.0000000E-002 -7.0000000E-002 0.0
 -7.0000000E-002 -6.5000000E-002 0.0
 -7.0000000E-002 -6.0000000E-002 0.0
 -7.0000000E-002 -5.5000000E-002 0.0
 -7.0000000E-002 -5.0000000E-002 0.0
 -7.0000000E-002 -4.5000000E-002 0.0
 -7.0000000E-002 -4.0000000E-002 0.0
 -7.0000000E-002 -3.5000000E-002 0.0
 -7.0000000E-002 -3.0000000E-002 0.0
 -7.0000000E-002 -2.5000000E-002 0.0
 -7.0000000E-002 -2.0000000E-002 0.0
 -7.0000000E-002 -1.5000000E-002 0.0
 -7.0000000E-002 -1.0000000E-002 0.0
 -7.0000000E-002 -5.0000000E-003 0.0
 -7.0000000E-002  0.0000000E+000 0.0
 -7.0000000E-002  5.0000000E-003 0.0
 -7.0000000E-002  1.0000000E-002 0.0
 -7.0000000E-002  1.5000000E-002 0.0
 -7.0000000E-002  2.0000000E-002 0.0
 -7.0000000E-002  2.5000000E-002 0.0
 -7.0000000E-002  3.0000000E-002 0.0
 -7.0000000E-002  3.5000000E-002 0.0
 -7.0000000E-002  4.0000000E-002 0.0
 -7.0000000E-002  4.5000000E-002 0.0
 -7.0000000E-002  5.0000000E-002 0.0
 -7.0000000E-002  5.5000000E-002 0.0
 -7.0000000E-002  6.0000000E-002 0.0
 -7.0000000E-002  6.5000000E-002 0.0
 -7.0000000E-002  7.0000000E-002 0.0
 -7.0000000E-002  7.5000000E-002 0.0
 -7.0000000E-002  8.0000000E-002 0.0
 -7.0000000E-002  8.5000000E-002 0.0
 -7.0000000E-002  9.0000000E-002 0.0
 -7.0000000E-002  9.5000000E-002 0.0
 -7.0000000E-002  1.0000000E-001 0.0
 -7.0000000E-002  1.0500000E-001 0.0
 -7.0000000E-002  1.1000000E-001 0.0
 -7.0000000E-002  1.1500000E-001 0.0
 -7.0000000E-002  1.2000000E-001 0.0
 -7.0000000E-002  1.2500000E-001 0.0
 -7.0000000E-002  1.3000000E-001 0.0
 -7.0000000E-002  1.3500000E-001 0.0
 -7.0000000E-002  1.4000000E-001 0.0
 -7.0000000E-002  1.4500000E-001 0.0
 -7.0000000E-002  1.5000000E-001 0.0
 -7.0000000E-002  1.5500000E-001 0.0
 -7.0000000E-002  1.6000000E-001 0.0
 -7.0000000E-002  1.6500000E-001 0.0
 -7.0000000E-002  1.7000000E-001 0.0
 -7.0000000E-002  1.7500000E-001 0.0
 -7.0000000E-002  1.8000000E-001 0.0
 -6.5000000E-002 -1.2000000E-001 0.0
 -6.5000000E-002 -1.1500000E-001 0.0
 -6.5000000E-002 -1.1000000E-001 0.0
 -6.5000000E-002 -1.0500000E-001 0.0
 -6.5000000E-002 -1.0000000E-001 0.0
 -6.5000000E-002 -9.5000000E-002 0.0
 -6.5000000E-002 -9.0000000E-002 0.0
 -6.5000000E-002 -8.5000000E-002 0.0
 -6.5000000E-002 -8.0000000E-002 0.0
 -6.5000000E-002 -7.5000000E-002 0.0
 -6.5000000E-002 -7.0000000E-002 0.0
 -6.5000000E-002 -6.5000000E-002 0.0
 -6.5000000E-002 -6.0000000E-002 0.0
 -6.5000000E-002 -5.5000000E-002 0.0
 -6.5000000E-002 -5.0000000E-002 0.0
 -6.5000000E-002 -4.5000000E-002 0.0
 -6.5000000E-002 -4.0000000E-002 0.0
 -6.5000000E-002 -3.5000000E-002 0.0
 -6.5000000E-002 -3.0000000E-002 0.0
 -6.5000000E-002 -2.5000000E-002 0.0
 -6.5000000E-002 -2.0000000E-002 0.0
 -6.5000000E-002 -1.5000000E-002 0.0
 -6.5000000E-002 -1.0000000E-002 0.0
 -6.5000000E-002 -5.0000000E-003 0.0
 -6.5000000E-002  0.0000000E+000 0.0
 -6.5000000E-002  5.0000000E-003 0.0
 -6.5000000E-002  1.0000000E-002 0.0
 -6.5000000E-002  1.5000000E-002 0.0
 -6.5000000E-002  2.0000000E-002 0.0
 -6.5000000E-002  2.5000000E-002 0.0
 -6.5000000E-002  3.0000000E-002 0.0
 -6.5000000E-002  3.5000000E-002 0.0
 -6.5000000E-002  4.0000000E-002 0.0
 -6.5000000E-002  4.5000000E-002 0.0
 -6.5000000E-002  5.0000000E-002 0.0
 -6.5000000E-002  5.5000000E-002 0.0
 -6.5000000E-002  6.0000000E-002 0.0
 -6.5000000E-002  6.5000000E-002 0.0
 -6.5000000E-002  7.0000000E-002 0.0
 -6.5000000E-002  7.5000000E-002 0.0
 -6.5000000E-002  8.0000000E-002 0.0
 -6.5000000E-002  8.5000000E-002 0.0
 -6.5000000E-002  9.0000000E-002 0.0
 -6.5000000E-002  9.5000000E-002 0.0
 -6.5000000E-002  1.0000000E-001 0.0
 -6.5000000E-002  1.0500000E-001 0.0
 -6.5000000E-002  1.1000000E-001 0.0
 -6.5000000E-002  1.1500000E-001 0.0
 -6.5000000E-002  1.2000000E-001 0.0
 -6.5000000E-002  1.2500000E-001 0.0
 -6.5000000E-002  1.3000000E-001 0.0
 -6.5000000E-002  1.3500000E-001 0.0
 -6.5000000E-002  1.4000000E-001 0.0
 -6.5000000E-002  1.4500000E-001 0.0
 -6.5000000E-002  1.5000000E-001 0.0
 -6.5000000E-002  1.5500000E-001 0.0
 -6.5000000E-002  1.6000000E-001 0.0
 -6.5000000E-002  1.6500000E-001 0.0
 -6.5000000E-002  1.7000000E-001 0.0
 -6.5000000E-002  1.7500000E-001 0.0
 -6.0000000E-002 -1.1500000E-001 0.0
 -6.0000000E-002 -1.1000000E-001 0.0
 -6.0000000E-002 -1.0500000E-001 0.0
 -6.0000000E-002 -1.0000000E-001 0.0
 -6.0000000E-002 -9.5000000E-002 0.0
 -6.0000000E-002 -9.0000000E-002 0.0
 -6.0000000E-002 -8.5000000E-002 0.0
 -6.0000000E-002 -8.0000000E-002 0.0
 -6.0000000E-002 -7.5000000E-002 0.0
 -6.0000000E-002 -7.0000000E-002 0.0
 -6.0000000E-002 -6.5000000E-002 0.0
 -6.0000000E-002 -6.0000000E-002 0.0
 -6.0000000E-002 -5.5000000E-002 0.0
 -6.0000000E-002 -5.0000000E-002 0.0
 -6.0000000E-002 -4.5000000E-002 0.0
 -6.0000000E-002 -4.0000000E-002 0.0
 -6.0000000E-002 -3.5000000E-002 0.0
 -6.0000000E-002 -3.0000000E-002 0.0
 -6.0000000E-002 -2.5000000E-002 0.0
 -6.0000000E-002 -2.0000000E-002 0.0
 -6.0000000E-002 -1.5000000E-002 0.0
 -6.0000000E-002 -1.0000000E-002 0.0
 -6.0000000E-002 -5.0000000E-003 0.0
 -6.0000000E-002  0.0000000E+000 0.0
 -6.0000000E-002  5.0000000E-003 0.0
 -6.0000000E-002  1.0000000E-002 0.0
 -6.0000000E-002  1.5000000E-002 0.0
 -6.0000000E-002  2.0000000E-002 0.0
 -6.0000000E-002  2.5000000E-002 0.0
 -6.0000000E-002  3.0000000E-002 0.0
 -6.0000000E-002  3.5000000E-002 0.0
 -6.0000000E-002  4.0000000E-002 0.0
 -6.0000000E-002  4.5000000E-002 0.0
 -6.0000000E-002  5.0000000E-002 0.0
 -6.0000000E-002  5.5000000E-002 0.0
 -6.0000000E-002  6.0000000E-002 0.0
 -6.0000000E-002  6.5000000E-002 0.0
 -6.0000000E-002  7.0000000E-002 0.0
 -6.0000000E-002  7.5000000E-002 0.0
 -6.0000000E-002  8.0000000E-002 0.0
 -6.0000000E-002  8.5000000E-002 0.0
 -6.0000000E-002  9.0000000E-002 0.0
 -6.0000000E-002  9.5000000E-002 0.0
 -6.0000000E-002  1.0000000E-001 0.0
 -6.0000000E-002  1.0500000E-001 0.0
 -6.0000000E-002  1.1000000E-001 0.0
 -6.0000000E-002  1.1500000E-001 0.0
 -6.0000000E-002  1.2000000E-001 0.0
 -6.0000000E-002  1.2500000E-001 0.0
 -6.0000000E-002  1.3000000E-001 0.0
 -6.0000000E-002  1.3500000E-001 0.0
 -6.0000000E-002  1.4000000E-001 0.0
 -6.0000000E-002  1.4500000E-001 0.0
 -6.0000000E-002  1.5000000E-001 0.0
 -6.0000000E-002  1.5500000E-001 0.0
 -6.0000000E-002  1.6000000E-001 0.0
 -6.0000000E-002  1.6500000E-001 0.0
 -6.0000000E-002  1.7000000E-001 0.0
 -6.0000000E-002  1.7500000E-001 0.0
 -5.5000000E-002 -1.1000000E-001 0.0
 -5.5000000E-002 -1.0500000E-001 0.0
 -5.5000000E-002 -1.0000000E-001 0.0
 -5.5000000E-002 -9.5000000E-002 0.0
 -5.5000000E-002 -9.0000000E-002 0.0
 -5.5000000E-002 -8.5000000E-002 0.0
 -5.5000000E-002 -8.0000000E-002 0.0
 -5.5000000E-002 -7.5000000E-002 0.0
 -5.5000000E-002 -7.0000000E-002 0.0
 -5.5000000E-002 -6.5000000E-002 0.0
 -5.5000000E-002 -6.0000000E-002 0.0
 -5.5000000E-002 -5.5000000E-002 0.0
 -5.5000000E-002 -5.0000000E-002 0.0
 -5.5000000E-002 -4.5000000E-002 0.0
 -5.5000000E-002 -4.0000000E-002 0.0
 -5.5000000E-002 -3.5000000E-002 0.0
 -5.5000000E-002 -3.0000000E-002 0.0
 -5.5000000E-002 -2.5000000E-002 0.0
 -5.5000000E-002 -2.0000000E-002 0.0
 -5.5000000E-002 -1.5000000E-002 0.0
 -5.5000000E-002 -1.0000000E-002 0.0
 -5.5000000E-002 -5.0000000E-003 0.0
 -5.5000000E-002  0.0000000E+000 0.0
 -5.5000000E-002  5.0000000E-003 0.0
 -5.5000000E-002  1.0000000E-002 0.0
 -5.5000000E-002  1.5000000E-002 0.0
 -5.5000000E-002  2.0000000E-002 0.0
 -5.5000000E-002  2.5000000E-002 0.0
 -5.5000000E-002  3.0000000E-002 0.0
 -5.5000000E-002  3.5000000E-002 0.0
 -5.5000000E-002  4.0000000E-002 0.0
 -5.5000000E-002  4.5000000E-002 0.0
 -5.5000000E-002  5.0000000E-002 0.0
 -5.5000000E-002  5.5000000E-002 0.0
 -5.5000000E-002  6.0000000E-002 0.0
 -5.5000000E-002  6.5000000E-002 0.0
 -5.5000000E-002  7.0000000E-002 0.0
 -5.5000000E-002  7.5000000E-002 0.0
 -5.5000000E-002  8.0000000E-002 0.0
 -5.5000000E-002  8.5000000E-002 0.0
 -5.5000000E-002  9.0000000E-002 0.0
 -5.5000000E-002  9.5000000E-002 0.0
 -5.5000000E-002  1.0000000E-001 0.0
 -5.5000000E-002  1.0500000E-001 0.0
 -5.5000000E-002  1.1000000E-001 0.0
 -5.5000000E-002  1.1500000E-001 0.0
 -5.5000000E-002  1.2000000E-001 0.0
 -5.5000000E-002  1.2500000E-001 0.0
 -5.5000000E-002  1.3000000E-001 0.0
 -5.5000000E-002  1.3500000E-001 0.0
 -5.5000000E-002  1.4000000E-001 0.0
 -5.5000000E-002  1.4500000E-001 0.0
 -5.5000000E-002  1.5000000E-001 0.0
 -5.5000000E-002  1.5500000E-001 0.0
 -5.5000000E-002  1.6000000E-001 0.0
 -5.5000000E-002  1.6500000E-001 0.0
 -5.5000000E-002  1.7000000E-001 0.0
 -5.5000000E-002  1.7500000E-001 0.0
 -5.0000000E-002 -1.1000000E-001 0.0
 -5.0000000E-002 -1.0500000E-001 0.0
 -5.0000000E-002 -1.0000000E-001 0.0
 -5.0000000E-002 -9.5000000E-002 0.0
 -5.0000000E-002 -9.0000000E-002 0.0
 -5.0000000E-002 -8.5000000E-002 0.0
 -5.0000000E-002 -8.0000000E-002 0.0
 -5.0000000E-002 -7.5000000E-002 0.0
 -5.0000000E-002 -7.0000000E-002 0.0
 -5.0000000E-002 -6.5000000E-002 0.0
 -5.0000000E-002 -6.0000000E-002 0.0
 -5.0000000E-002 -5.5000000E-002 0.0
 -5.0000000E-002 -5.0000000E-002 0.0
 -5.0000000E-002 -4.5000000E-002 0.0
 -5.0000000E-002 -4.0000000E-002 0.0
 -5.0000000E-002 -3.5000000E-002 0.0
 -5.0000000E-002 -3.0000000E-002 0.0
 -5.0000000E-002 -2.5000000E-002 0.0
 -5.0000000E-002 -2.0000000E-002 0.0
 -5.0000000E-002 -1.5000000E-002 0.0
 -5.0000000E-002 -1.0000000E-002 0.0
 -5.0000000E-002 -5.0000000E-003 0.0
 -5.0000000E-002  0.0000000E+000 0.0
 -5.0000000E-002  5.0000000E-003 0.0
 -5.0000000E-002  1.0000000E-002 0.0
 -5.0000000E-002  1.5000000E-002 0.0
 -5.0000000E-002  2.0000000E-002 0.0
 -5.0000000E-002  2.5000000E-002 0.0
 -5.0000000E-002  3.0000000E-002 0.0
 -5.0000000E-002  3.5000000E-002 0.0
 -5.0000000E-002  4.0000000E-002 0.0
 -5.0000000E-002  4.5000000E-002 0.0
 -5.0000000E-002  5.0000000E-002 0.0
 -5.0000000E-002  5.5000000E-002 0.0
 -5.0000000E-002  6.0000000E-002 0.0
 -5.0000000E-002  6.5000000E-002 0.0
 -5.0000000E-002  7.0000000E-002 0.0
 -5.0000000E-002  7.5000000E-002 0.0
 -5.0000000E-002  8.0000000E-002 0.0
 -5.0000000E-002  8.5000000E-002 0.0
 -5.0000000E-002  9.0000000E-002 0.0
 -5.0000000E-002  9.5000000E-002 0.0
 -5.0000000E-002  1.0000000E-001 0.0
 -5.0000000E-002  1.0500000E-001 0.0
 -5.0000000E-002  1.1000000E-001 0.0
 -5.0000000E-002  1.2500000E-001 0.0
 -5.0000000E-002  1.3000000E-001 0.0
 -5.0000000E-002  1.3500000E-001 0.0
 -5.0000000E-002  1.4000000E-001 0.0
 -5.0000000E-002  1.4500000E-001 0.0
 -5.0000000E-002  1.5000000E-001 0.0
 -5.0000000E-002  1.5500000E-001 0.0
 -5.0000000E-002  1.6000000E-001 0.0
 -5.0000000E-002  1.6500000E-001 0.0
 -5.0000000E-002  1.7000000E-001 0.0
 -5.0000000E-002  1.7500000E-001 0.0
 -4.5000000E-002 -1.1000000E-001 0.0
 -4.5000000E-002 -1.0500000E-001 0.0
 -4.5000000E-002 -1.0000000E-001 0.0
 -4.5000000E-002 -9.5000000E-002 0.0
 -4.5000000E-002 -9.0000000E-002 0.0
 -4.5000000E-002 -8.5000000E-002 0.0
 -4.5000000E-002 -8.0000000E-002 0.0
 -4.5000000E-002 -7.5000000E-002 0.0
 -4.5000000E-002 -7.0000000E-002 0.0
 -4.5000000E-002 -6.5000000E-002 0.0
 -4.5000000E-002 -6.0000000E-002 0.0
 -4.5000000E-002 -5.5000000E-002 0.0
 -4.5000000E-002 -5.0000000E-002 0.0
 -4.5000000E-002 -4.5000000E-002 0.0
 -4.5000000E-002 -4.0000000E-002 0.0
 -4.5000000E-002 -3.5000000E-002 0.0
 -4.5000000E-002 -3.0000000E-002 0.0
 -4.5000000E-002 -2.5000000E-002 0.0
 -4.5000000E-002 -2.0000000E-002 0.0
 -4.5000000E-002 -1.5000000E-002 0.0
 -4.5000000E-002 -1.0000000E-002 0.0
 -4.5000000E-002 -5.0000000E-003 0.0
 -4.5000000E-002  0.0000000E+000 0.0
 -4.5000000E-002  5.0000000E-003 0.0
 -4.5000000E-002  1.0000000E-002 0.0
 -4.5000000E-002  1.5000000E-002 0.0
 -4.5000000E-002  2.0000000E-002 0.0
 -4.5000000E-002  2.5000000E-002 0.0
 -4.5000000E-002  3.0000000E-002 0.0
 -4.5000000E-002  3.5000000E-002 0.0
 -4.5000000E-002  4.0000000E-002 0.0
 -4.5000000E-002  4.5000000E-002 0.0
 -4.5000000E-002  5.0000000E-002 0.0
 -4.5000000E-002  5.5000000E-002 0.0
 -4.5000000E-002  6.0000000E-002 0.0
 -4.5000000E-002  6.5000000E-002 0.0
 -4.5000000E-002  7.0000000E-002 0.0
 -4.5000000E-002  7.5000000E-002 0.0
 -4.5000000E-002  8.0000000E-002 0.0
 -4.5000000E-002  8.5000000E-002 0.0
 -4.5000000E-002  9.0000000E-002 0.0
 -4.5000000E-002  9.5000000E-002 0.0
 -4.5000000E-002  1.0000000E-001 0.0
 -4.5000000E-002  1.0500000E-001 0.0
 -4.5000000E-002  1.1000000E-001 0.0
 -4.5000000E-002  1.2500000E-001 0.0
 -4.5000000E-002  1.3000000E-001 0.0
 -4.5000000E-002  1.3500000E-001 0.0
 -4.5000000E-002  1.4000000E-001 0.0
 -4.5000000E-002  1.4500000E-001 0.0
 -4.5000000E-002  1.5000000E-001 0.0
 -4.5000000E-002  1.5500000E-001 0.0
 -4.5000000E-002  1.6000000E-001 0.0
 -4.5000000E-002  1.6500000E-001 0.0
 -4.5000000E-002  1.7000000E-001 0.0
 -4.5000000E-002  1.7500000E-001 0.0
 -4.5000000E-002 -1.1500000E-001 0.0
 -4.0000000E-002 -1.1500000E-001 0.0
 -4.0000000E-002 -1.1000000E-001 0.0
 -4.0000000E-002 -1.0500000E-001 0.0
 -4.0000000E-002 -1.0000000E-001 0.0
 -4.0000000E-002 -9.5000000E-002 0.0
 -4.0000000E-002 -9.0000000E-002 0.0
 -4.0000000E-002 -8.5000000E-002 0.0
 -4.0000000E-002 -8.0000000E-002 0.0
 -4.0000000E-002 -7.5000000E-002 0.0
 -4.0000000E-002 -7.0000000E-002 0.0
 -4.0000000E-002 -6.5000000E-002 0.0
 -4.0000000E-002 -6.0000000E-002 0.0
 -4.0000000E-002 -5.5000000E-002 0.0
 -4.0000000E-002 -5.0000000E-002 0.0
 -4.0000000E-002 -4.5000000E-002 0.0
 -4.0000000E-002 -4.0000000E-002 0.0
 -4.0000000E-002 -3.5000000E-002 0.0
 -4.0000000E-002 -3.0000000E-002 0.0
 -4.0000000E-002 -2.5000000E-002 0.0
 -4.0000000E-002 -2.0000000E-002 0.0
 -4.0000000E-002 -1.5000000E-002 0.0
 -4.0000000E-002 -1.0000000E-002 0.0
 -4.0000000E-002 -5.0000000E-003 0.0
 -4.0000000E-002  0.0000000E+000 0.0
 -4.0000000E-002  5.0000000E-003 0.0
 -4.0000000E-002  1.0000000E-002 0.0
 -4.0000000E-002  1.5000000E-002 0.0
 -4.0000000E-002  2.0000000E-002 0.0
 -4.0000000E-002  2.5000000E-002 0.0
 -4.0000000E-002  3.0000000E-002 0.0
 -4.0000000E-002  3.5000000E-002 0.0
 -4.0000000E-002  4.0000000E-002 0.0
 -4.0000000E-002  4.5000000E-002 0.0
 -4.0000000E-002  5.0000000E-002 0.0
 -4.0000000E-002  5.5000000E-002 0.0
 -4.0000000E-002  6.0000000E-002 0.0
 -4.0000000E-002  6.5000000E-002 0.0
 -4.0000000E-002  7.0000000E-002 0.0
 -4.0000000E-002  7.5000000E-002 0.0
 -4.0000000E-002  8.0000000E-002 0.0
 -4.0000000E-002  8.5000000E-002 0.0
 -4.0000000E-002  9.0000000E-002 0.0
 -4.0000000E-002  9.5000000E-002 0.0
 -4.0000000E-002  1.0000000E-001 0.0
 -4.0000000E-002  1.0500000E-001 0.0
 -4.0000000E-002  1.2500000E-001 0.0
 -4.0000000E-002  1.3000000E-001 0.0
 -4.0000000E-002  1.3500000E-001 0.0
 -4.0000000E-002  1.4000000E-001 0.0
 -4.0000000E-002  1.4500000E-001 0.0
 -4.0000000E-002  1.5000000E-001 0.0
 -4.0000000E-002  1.5500000E-001 0.0
 -4.0000000E-002  1.6000000E-001 0.0
 -4.0000000E-002  1.6500000E-001 0.0
 -4.0000000E-002  1.7000000E-001 0.0
 -4.0000000E-002  1.7500000E-001 0.0
 -3.5000000E-002 -1.1500000E-001 0.0
 -3.5000000E-002 -1.1000000E-001 0.0
 -3.5000000E-002 -1.0500000E-001 0.0
 -3.5000000E-002 -1.0000000E-001 0.0
 -3.5000000E-002 -9.5000000E-002 0.0
 -3.5000000E-002 -9.0000000E-002 0.0
 -3.5000000E-002 -8.5000000E-002 0.0
 -3.5000000E-002 -8.0000000E-002 0.0
 -3.5000000E-002 -7.5000000E-002 0.0
 -3.5000000E-002 -7.0000000E-002 0.0
 -3.5000000E-002 -6.5000000E-002 0.0
 -3.5000000E-002 -6.0000000E-002 0.0
 -3.5000000E-002 -5.5000000E-002 0.0
 -3.5000000E-002 -5.0000000E-002 0.0
 -3.5000000E-002 -4.5000000E-002 0.0
 -3.5000000E-002 -4.0000000E-002 0.0
 -3.5000000E-002 -3.5000000E-002 0.0
 -3.5000000E-002 -3.0000000E-002 0.0
 -3.5000000E-002 -2.5000000E-002 0.0
 -3.5000000E-002 -2.0000000E-002 0.0
 -3.5000000E-002 -1.5000000E-002 0.0
 -3.5000000E-002 -1.0000000E-002 0.0
 -3.5000000E-002 -5.0000000E-003 0.0
 -3.5000000E-002  0.0000000E+000 0.0
 -3.5000000E-002  5.0000000E-003 0.0
 -3.5000000E-002  1.0000000E-002 0.0
 -3.5000000E-002  1.5000000E-002 0.0
 -3.5000000E-002  2.0000000E-002 0.0
 -3.5000000E-002  2.5000000E-002 0.0
 -3.5000000E-002  3.0000000E-002 0.0
 -3.5000000E-002  3.5000000E-002 0.0
 -3.5000000E-002  4.0000000E-002 0.0
 -3.5000000E-002  4.5000000E-002 0.0
 -3.5000000E-002  5.0000000E-002 0.0
 -3.5000000E-002  5.5000000E-002 0.0
 -3.5000000E-002  6.0000000E-002 0.0
 -3.5000000E-002  6.5000000E-002 0.0
 -3.5000000E-002  7.0000000E-002 0.0
 -3.5000000E-002  7.5000000E-002 0.0
 -3.5000000E-002  8.0000000E-002 0.0
 -3.5000000E-002  8.5000000E-002 0.0
 -3.5000000E-002  9.0000000E-002 0.0
 -3.5000000E-002  9.5000000E-002 0.0
 -3.5000000E-002  1.0000000E-001 0.0
 -3.5000000E-002  1.2500000E-001 0.0
 -3.5000000E-002  1.3000000E-001 0.0
 -3.5000000E-002  1.3500000E-001 0.0
 -3.5000000E-002  1.4000000E-001 0.0
 -3.5000000E-002  1.4500000E-001 0.0
 -3.5000000E-002  1.5000000E-001 0.0
 -3.5000000E-002  1.5500000E-001 0.0
 -3.5000000E-002  1.6000000E-001 0.0
 -3.5000000E-002  1.6500000E-001 0.0
 -3.5000000E-002  1.7000000E-001 0.0
 -3.5000000E-002  1.7500000E-001 0.0
 -3.0000000E-002 -1.1500000E-001 0.0
 -3.0000000E-002 -1.1000000E-001 0.0
 -3.0000000E-002 -1.0500000E-001 0.0
 -3.0000000E-002 -1.0000000E-001 0.0
 -3.0000000E-002 -9.5000000E-002 0.0
 -3.0000000E-002 -9.0000000E-002 0.0
 -3.0000000E-002 -8.5000000E-002 0.0
 -3.0000000E-002 -8.0000000E-002 0.0
 -3.0000000E-002 -7.5000000E-002 0.0
 -3.0000000E-002 -7.0000000E-002 0.0
 -3.0000000E-002 -6.5000000E-002 0.0
 -3.0000000E-002 -6.0000000E-002 0.0
 -3.0000000E-002 -5.5000000E-002 0.0
 -3.0000000E-002 -5.0000000E-002 0.0
 -3.0000000E-002 -4.5000000E-002 0.0
 -3.0000000E-002 -4.0000000E-002 0.0
 -3.0000000E-002 -3.5000000E-002 0.0
 -3.0000000E-002 -3.0000000E-002 0.0
 -3.0000000E-002 -2.5000000E-002 0.0
 -3.0000000E-002 -2.0000000E-002 0.0
 -3.0000000E-002 -1.5000000E-002 0.0
 -3.0000000E-002 -1.0000000E-002 0.0
 -3.0000000E-002 -5.0000000E-003 0.0
 -3.0000000E-002  0.0000000E+000 0.0
 -3.0000000E-002  5.0000000E-003 0.0
 -3.0000000E-002  1.0000000E-002 0.0
 -3.0000000E-002  1.5000000E-002 0.0
 -3.0000000E-002  2.0000000E-002 0.0
 -3.0000000E-002  2.5000000E-002 0.0
 -3.0000000E-002  3.0000000E-002 0.0
 -3.0000000E-002  3.5000000E-002 0.0
 -3.0000000E-002  4.0000000E-002 0.0
 -3.0000000E-002  4.5000000E-002 0.0
 -3.0000000E-002  5.0000000E-002 0.0
 -3.0000000E-002  5.5000000E-002 0.0
 -3.0000000E-002  6.0000000E-002 0.0
 -3.0000000E-002  6.5000000E-002 0.0
 -3.0000000E-002  7.0000000E-002 0.0
 -3.0000000E-002  7.5000000E-002 0.0
 -3.0000000E-002  8.0000000E-002 0.0
 -3.0000000E-002  8.5000000E-002 0.0
 -3.0000000E-002  9.0000000E-002 0.0
 -3.0000000E-002  9.5000000E-002 0.0
 -3.0000000E-002  1.2500000E-001 0.0
 -3.0000000E-002  1.3000000E-001 0.0
 -3.0000000E-002  1.3500000E-001 0.0
 -3.0000000E-002  1.4000000E-001 0.0
 -3.0000000E-002  1.4500000E-001 0.0
 -3.0000000E-002  1.5000000E-001 0.0
 -3.0000000E-002  1.5500000E-001 0.0
 -3.0000000E-002  1.6000000E-001 0.0
 -3.0000000E-002  1.6500000E-001 0.0
 -3.0000000E-002  1.7000000E-001 0.0
 -3.0000000E-002  1.7500000E-001 0.0
 -2.5000000E-002 -1.1500000E-001 0.0
 -2.5000000E-002 -1.1000000E-001 0.0
 -2.5000000E-002 -1.0500000E-001 0.0
 -2.5000000E-002 -1.0000000E-001 0.0
 -2.5000000E-002 -9.5000000E-002 0.0
 -2.5000000E-002 -9.0000000E-002 0.0
 -2.5000000E-002 -8.5000000E-002 0.0
 -2.5000000E-002 -8.0000000E-002 0.0
 -2.5000000E-002 -7.5000000E-002 0.0
 -2.5000000E-002 -7.0000000E-002 0.0
 -2.5000000E-002 -6.5000000E-002 0.0
 -2.5000000E-002 -6.0000000E-002 0.0
 -2.5000000E-002 -5.5000000E-002 0.0
 -2.5000000E-002 -5.0000000E-002 0.0
 -2.5000000E-002 -4.5000000E-002 0.0
 -2.5000000E-002 -4.0000000E-002 0.0
 -2.5000000E-002 -3.5000000E-002 0.0
 -2.5000000E-002 -3.0000000E-002 0.0
 -2.5000000E-002 -2.5000000E-002 0.0
 -2.5000000E-002 -2.0000000E-002 0.0
 -2.5000000E-002 -1.5000000E-002 0.0
 -2.5000000E-002 -1.0000000E-002 0.0
 -2.5000000E-002 -5.0000000E-003 0.0
 -2.5000000E-002  0.0000000E+000 0.0
 -2.5000000E-002  5.0000000E-003 0.0
 -2.5000000E-002  1.0000000E-002 0.0
 -2.5000000E-002  1.5000000E-002 0.0
 -2.5000000E-002  2.0000000E-002 0.0
 -2.5000000E-002  2.5000000E-002 0.0
 -2.5000000E-002  3.0000000E-002 0.0
 -2.5000000E-002  3.5000000E-002 0.0
 -2.5000000E-002  4.0000000E-002 0.0
 -2.5000000E-002  4.5000000E-002 0.0
 -2.5000000E-002  5.0000000E-002 0.0
 -2.5000000E-002  5.5000000E-002 0.0
 -2.5000000E-002  6.0000000E-002 0.0
 -2.5000000E-002  6.5000000E-002 0.0
 -2.5000000E-002  7.0000000E-002 0.0
 -2.5000000E-002  7.5000000E-002 0.0
 -2.5000000E-002  8.0000000E-002 0.0
 -2.5000000E-002  8.5000000E-002 0.0
 -2.5000000E-002  1.2500000E-001 0.0
 -2.5000000E-002  1.3000000E-001 0.0
 -2.5000000E-002  1.3500000E-001 0.0
 -2.5000000E-002  1.4000000E-001 0.0
 -2.5000000E-002  1.4500000E-001 0.0
 -2.5000000E-002  1.5000000E-001 0.0
 -2.5000000E-002  1.5500000E-001 0.0
 -2.5000000E-002  1.6000000E-001 0.0
 -2.5000000E-002  1.6500000E-001 0.0
 -2.5000000E-002  1.7000000E-001 0.0
 -2.5000000E-002  1.7500000E-001 0.0
 -2.0000000E-002 -1.1500000E-001 0.0
 -2.0000000E-002 -1.1000000E-001 0.0
 -2.0000000E-002 -1.0500000E-001 0.0
 -2.0000000E-002 -1.0000000E-001 0.0
 -2.0000000E-002 -9.5000000E-002 0.0
 -2.0000000E-002 -9.0000000E-002 0.0
 -2.0000000E-002 -8.5000000E-002 0.0
 -2.0000000E-002 -8.0000000E-002 0.0
 -2.0000000E-002 -7.5000000E-002 0.0
 -2.0000000E-002 -7.0000000E-002 0.0
 -2.0000000E-002 -6.5000000E-002 0.0
 -2.0000000E-002 -6.0000000E-002 0.0
 -2.0000000E-002 -5.5000000E-002 0.0
 -2.0000000E-002 -5.0000000E-002 0.0
 -2.0000000E-002 -4.5000000E-002 0.0
 -2.0000000E-002 -4.0000000E-002 0.0
 -2.0000000E-002 -3.5000000E-002 0.0
 -2.0000000E-002 -3.0000000E-002 0.0
 -2.0000000E-002 -2.5000000E-002 0.0
 -2.0000000E-002 -2.0000000E-002 0.0
 -2.0000000E-002 -1.5000000E-002 0.0
 -2.0000000E-002 -1.0000000E-002 0.0
 -2.0000000E-002  2.5000000E-002 0.0
 -2.0000000E-002  3.0000000E-002 0.0
 -2.0000000E-002  3.5000000E-002 0.0
 -2.0000000E-002  4.0000000E-002 0.0
 -2.0000000E-002  4.5000000E-002 0.0
 -2.0000000E-002  5.0000000E-002 0.0
 -2.0000000E-002  5.5000000E-002 0.0
 -2.0000000E-002  6.0000000E-002 0.0
 -2.0000000E-002  6.5000000E-002 0.0
 -2.0000000E-002  7.0000000E-002 0.0
 -2.0000000E-002  7.5000000E-002 0.0
 -2.0000000E-002  8.0000000E-002 0.0
 -2.5000000E-002  1.2000000E-001 0.0
 -2.0000000E-002  1.2000000E-001 0.0
 -2.0000000E-002  1.2500000E-001 0.0
 -2.0000000E-002  1.3000000E-001 0.0
 -2.0000000E-002  1.3500000E-001 0.0
 -2.0000000E-002  1.4000000E-001 0.0
 -2.0000000E-002  1.4500000E-001 0.0
 -2.0000000E-002  1.5000000E-001 0.0
 -2.0000000E-002  1.5500000E-001 0.0
 -2.0000000E-002  1.6000000E-001 0.0
 -2.0000000E-002  1.6500000E-001 0.0
 -2.0000000E-002  1.7000000E-001 0.0
 -2.0000000E-002  1.7500000E-001 0.0
 -1.5000000E-002 -1.1500000E-001 0.0
 -1.5000000E-002 -1.1000000E-001 0.0
 -1.5000000E-002 -1.0500000E-001 0.0
 -1.5000000E-002 -1.0000000E-001 0.0
 -1.5000000E-002 -9.5000000E-002 0.0
 -1.5000000E-002 -9.0000000E-002 0.0
 -1.5000000E-002 -8.5000000E-002 0.0
 -1.5000000E-002 -8.0000000E-002 0.0
 -1.5000000E-002 -7.5000000E-002 0.0
 -1.5000000E-002 -7.0000000E-002 0.0
 -1.5000000E-002 -6.5000000E-002 0.0
 -1.5000000E-002 -6.0000000E-002 0.0
 -1.5000000E-002 -5.5000000E-002 0.0
 -1.5000000E-002 -5.0000000E-002 0.0
 -1.5000000E-002 -4.5000000E-002 0.0
 -1.5000000E-002 -4.0000000E-002 0.0
 -1.5000000E-002 -3.5000000E-002 0.0
 -1.5000000E-002 -3.0000000E-002 0.0
 -1.5000000E-002 -2.5000000E-002 0.0
 -1.5000000E-002 -2.0000000E-002 0.0
 -1.5000000E-002 -1.5000000E-002 0.0
 -1.5000000E-002  1.2000000E-001 0.0
 -1.5000000E-002  1.2500000E-001 0.0
 -1.5000000E-002  1.3000000E-001 0.0
 -1.5000000E-002  1.3500000E-001 0.0
 -1.5000000E-002  1.4000000E-001 0.0
 -1.5000000E-002  1.4500000E-001 0.0
 -1.5000000E-002  1.5000000E-001 0.0
 -1.5000000E-002  1.5500000E-001 0.0
 -1.5000000E-002  1.6000000E-001 0.0
 -1.5000000E-002  1.6500000E-001 0.0
 -1.5000000E-002  1.7000000E-001 0.0
 -1.5000000E-002  1.7500000E-001 0.0
 -1.0000000E-002 -1.1500000E-001 0.0
 -1.0000000E-002 -1.1000000E-001 0.0
 -1.0000000E-002 -1.0500000E-001 0.0
 -1.0000000E-002 -1.0000000E-001 0.0
 -1.0000000E-002 -9.5000000E-002 0.0
 -1.0000000E-002 -9.0000000E-002 0.0
 -1.0000000E-002 -8.5000000E-002 0.0
 -1.0000000E-002 -8.0000000E-002 0.0
 -1.0000000E-002 -7.5000000E-002 0.0
 -1.0000000E-002 -7.0000000E-002 0.0
 -1.0000000E-002 -6.5000000E-002 0.0
 -1.0000000E-002 -6.0000000E-002 0.0
 -1.0000000E-002 -5.5000000E-002 0.0
 -1.0000000E-002 -5.0000000E-002 0.0
 -1.0000000E-002 -4.5000000E-002 0.0
 -1.0000000E-002 -4.0000000E-002 0.0
 -1.0000000E-002 -3.5000000E-002 0.0
 -1.0000000E-002 -3.0000000E-002 0.0
 -1.0000000E-002 -2.5000000E-002 0.0
 -1.0000000E-002  1.2000000E-001 0.0
 -1.0000000E-002  1.2500000E-001 0.0
 -1.0000000E-002  1.3000000E-001 0.0
 -1.0000000E-002  1.3500000E-001 0.0
 -1.0000000E-002  1.4000000E-001 0.0
 -1.0000000E-002  1.4500000E-001 0.0
 -1.0000000E-002  1.5000000E-001 0.0
 -1.0000000E-002  1.5500000E-001 0.0
 -1.0000000E-002  1.6000000E-001 0.0
 -1.0000000E-002  1.6500000E-001 0.0
 -1.0000000E-002  1.7000000E-001 0.0
 -1.0000000E-002  1.7500000E-001 0.0
 -5.0000000E-003 -1.1500000E-001 0.0
 -5.0000000E-003 -1.1000000E-001 0.0
 -5.0000000E-003 -1.0500000E-001 0.0
 -5.0000000E-003 -1.0000000E-001 0.0
 -5.0000000E-003 -9.5000000E-002 0.0
 -5.0000000E-003 -9.0000000E-002 0.0
 -5.0000000E-003 -8.5000000E-002 0.0
 -5.0000000E-003 -8.0000000E-002 0.0
 -5.0000000E-003 -7.5000000E-002 0.0
 -5.0000000E-003 -7.0000000E-002 0.0
 -5.0000000E-003 -6.5000000E-002 0.0
 -5.0000000E-003 -6.0000000E-002 0.0
 -5.0000000E-003 -5.5000000E-002 0.0
 -5.0000000E-003 -5.0000000E-002 0.0
 -5.0000000E-003 -4.5000000E-002 0.0
 -5.0000000E-003 -4.0000000E-002 0.0
 -5.0000000E-003 -3.5000000E-002 0.0
 -5.0000000E-003 -3.0000000E-002 0.0
 -5.0000000E-003  1.2000000E-001 0.0
 -5.0000000E-003  1.2500000E-001 0.0
 -5.0000000E-003  1.3000000E-001 0.0
 -5.0000000E-003  1.3500000E-001 0.0
 -5.0000000E-003  1.4000000E-001 0.0
 -5.0000000E-003  1.4500000E-001 0.0
 -5.0000000E-003  1.5000000E-001 0.0
 -5.0000000E-003  1.5500000E-001 0.0
 -5.0000000E-003  1.6000000E-001 0.0
 -5.0000000E-003  1.6500000E-001 0.0
 -5.0000000E-003  1.7000000E-001 0.0
 -5.0000000E-003  1.7500000E-001 0.0
  0.0000000E+000 -1.1000000E-001 0.0
  0.0000000E+000 -1.0500000E-001 0.0
  0.0000000E+000 -1.0000000E-001 0.0
  0.0000000E+000 -9.5000000E-002 0.0
  0.0000000E+000 -9.0000000E-002 0.0
  0.0000000E+000 -8.5000000E-002 0.0
  0.0000000E+000 -8.0000000E-002 0.0
  0.0000000E+000 -7.5000000E-002 0.0
  0.0000000E+000 -7.0000000E-002 0.0
  0.0000000E+000 -6.5000000E-002 0.0
  0.0000000E+000 -6.0000000E-002 0.0
  0.0000000E+000 -5.5000000E-002 0.0
  0.0000000E+000 -5.0000000E-002 0.0
  0.0000000E+000 -4.5000000E-002 0.0
  0.0000000E+000 -4.0000000E-002 0.0
  0.0000000E+000 -3.5000000E-002 0.0
 -5.0000000E-003  1.1500000E-001 0.0
  0.0000000E+000  1.1500000E-001 0.0
  0.0000000E+000  1.2000000E-001 0.0
  0.0000000E+000  1.2500000E-001 0.0
  0.0000000E+000  1.3000000E-001 0.0
  0.0000000E+000  1.3500000E-001 0.0
  0.0000000E+000  1.4000000E-001 0.0
  0.0000000E+000  1.4500000E-001 0.0
  0.0000000E+000  1.5000000E-001 0.0
  0.0000000E+000  1.5500000E-001 0.0
  0.0000000E+000  1.6000000E-001 0.0
  0.0000000E+000  1.6500000E-001 0.0
  0.0000000E+000  1.7000000E-001 0.0
  0.0000000E+000  1.7500000E-001 0.0
  5.0000000E-003 -1.1000000E-001 0.0
  5.0000000E-003 -1.0500000E-001 0.0
  5.0000000E-003 -1.0000000E-001 0.0
  5.0000000E-003 -9.5000000E-002 0.0
  5.0000000E-003 -9.0000000E-002 0.0
  5.0000000E-003 -8.5000000E-002 0.0
  5.0000000E-003 -8.0000000E-002 0.0
  5.0000000E-003 -7.5000000E-002 0.0
  5.0000000E-003 -7.0000000E-002 0.0
  5.0000000E-003 -6.5000000E-002 0.0
  5.0000000E-003 -6.0000000E-002 0.0
  5.0000000E-003 -5.5000000E-002 0.0
  5.0000000E-003 -5.0000000E-002 0.0
  5.0000000E-003 -4.5000000E-002 0.0
  5.0000000E-003  1.1500000E-001 0.0
  5.0000000E-003  1.2000000E-001 0.0
  5.0000000E-003  1.2500000E-001 0.0
  5.0000000E-003  1.3000000E-001 0.0
  5.0000000E-003  1.3500000E-001 0.0
  5.0000000E-003  1.4000000E-001 0.0
  5.0000000E-003  1.4500000E-001 0.0
  5.0000000E-003  1.5000000E-001 0.0
  5.0000000E-003  1.5500000E-001 0.0
  5.0000000E-003  1.6000000E-001 0.0
  5.0000000E-003  1.6500000E-001 0.0
  5.0000000E-003  1.7000000E-001 0.0
  1.0000000E-002 -1.1000000E-001 0.0
  1.0000000E-002 -1.0500000E-001 0.0
  1.0000000E-002 -1.0000000E-001 0.0
  1.0000000E-002 -9.5000000E-002 0.0
  1.0000000E-002 -9.0000000E-002 0.0
  1.0000000E-002 -8.5000000E-002 0.0
  1.0000000E-002 -8.0000000E-002 0.0
  1.0000000E-002 -7.5000000E-002 0.0
  1.0000000E-002 -7.0000000E-002 0.0
  1.0000000E-002 -6.5000000E-002 0.0
  1.0000000E-002 -6.0000000E-002 0.0
  1.0000000E-002 -5.5000000E-002 0.0
  1.0000000E-002 -5.0000000E-002 0.0
  1.0000000E-002  1.1500000E-001 0.0
  1.0000000E-002  1.2000000E-001 0.0
  1.0000000E-002  1.2500000E-001 0.0
  1.0000000E-002  1.3000000E-001 0.0
  1.0000000E-002  1.3500000E-001 0.0
  1.0000000E-002  1.4000000E-001 0.0
  1.0000000E-002  1.4500000E-001 0.0
  1.0000000E-002  1.5000000E-001 0.0
  1.0000000E-002  1.5500000E-001 0.0
  1.0000000E-002  1.6000000E-001 0.0
  1.0000000E-002  1.6500000E-001 0.0
  1.0000000E-002  1.7000000E-001 0.0
  1.5000000E-002 -1.1000000E-001 0.0
  1.5000000E-002 -1.0500000E-001 0.0
  1.5000000E-002 -1.0000000E-001 0.0
  1.5000000E-002 -9.5000000E-002 0.0
  1.5000000E-002 -9.0000000E-002 0.0
  1.5000000E-002 -8.5000000E-002 0.0
  1.5000000E-002 -8.0000000E-002 0.0
  1.5000000E-002 -7.5000000E-002 0.0
  1.5000000E-002 -7.0000000E-002 0.0
  1.5000000E-002 -6.5000000E-002 0.0
  1.5000000E-002 -6.0000000E-002 0.0
  1.5000000E-002 -5.5000000E-002 0.0
  1.5000000E-002  1.1500000E-001 0.0
  1.5000000E-002  1.2000000E-001 0.0
  1.5000000E-002  1.2500000E-001 0.0
  1.5000000E-002  1.3000000E-001 0.0
  1.5000000E-002  1.3500000E-001 0.0
  1.5000000E-002  1.4000000E-001 0.0
  1.5000000E-002  1.4500000E-001 0.0
  1.5000000E-002  1.5000000E-001 0.0
  1.5000000E-002  1.5500000E-001 0.0
  1.5000000E-002  1.6000000E-001 0.0
  1.5000000E-002  1.6500000E-001 0.0
  1.5000000E-002  1.7000000E-001 0.0
  2.0000000E-002 -1.1000000E-001 0.0
  2.0000000E-002 -1.0500000E-001 0.0
  2.0000000E-002 -1.0000000E-001 0.0
  2.0000000E-002 -9.5000000E-002 0.0
  2.0000000E-002 -9.0000000E-002 0.0
  2.0000000E-002 -8.5000000E-002 0.0
  2.0000000E-002 -8.0000000E-002 0.0
  2.0000000E-002 -7.5000000E-002 0.0
  2.0000000E-002 -7.0000000E-002 0.0
  2.0000000E-002 -6.5000000E-002 0.0
  2.0000000E-002 -6.0000000E-002 0.0
  2.0000000E-002  1.1500000E-001 0.0
  2.0000000E-002  1.2000000E-001 0.0
  2.0000000E-002  1.2500000E-001 0.0
  2.0000000E-002  1.3000000E-001 0.0
  2.0000000E-002  1.3500000E-001 0.0
  2.0000000E-002  1.4000000E-001 0.0
  2.0000000E-002  1.4500000E-001 0.0
  2.0000000E-002  1.5000000E-001 0.0
  2.0000000E-002  1.5500000E-001 0.0
  2.0000000E-002  1.6000000E-001 0.0
  2.0000000E-002  1.6500000E-001 0.0
  2.0000000E-002  1.7000000E-001 0.0
  2.5000000E-002 -1.1000000E-001 0.0
  2.5000000E-002 -1.0500000E-001 0.0
  2.5000000E-002 -1.0000000E-001 0.0
  2.5000000E-002 -9.5000000E-002 0.0
  2.5000000E-002 -9.0000000E-002 0.0
  2.5000000E-002 -8.5000000E-002 0.0
  2.5000000E-002 -8.0000000E-002 0.0
  2.5000000E-002 -7.5000000E-002 0.0
  2.5000000E-002 -7.0000000E-002 0.0
  2.5000000E-002 -6.5000000E-002 0.0
  2.5000000E-002 -6.0000000E-002 0.0
  2.5000000E-002  1.1500000E-001 0.0
  2.5000000E-002  1.2000000E-001 0.0
  2.5000000E-002  1.2500000E-001 0.0
  2.5000000E-002  1.3000000E-001 0.0
  2.5000000E-002  1.3500000E-001 0.0
  2.5000000E-002  1.4000000E-001 0.0
  2.5000000E-002  1.4500000E-001 0.0
  2.5000000E-002  1.5000000E-001 0.0
  2.5000000E-002  1.5500000E-001 0.0
  2.5000000E-002  1.6000000E-001 0.0
  2.5000000E-002  1.6500000E-001 0.0
  2.5000000E-002  1.7000000E-001 0.0
  2.5000000E-002 -1.1500000E-001 0.0
  3.0000000E-002 -1.1500000E-001 0.0
  3.0000000E-002 -1.1000000E-001 0.0
  3.0000000E-002 -1.0500000E-001 0.0
  3.0000000E-002 -1.0000000E-001 0.0
  3.0000000E-002 -9.5000000E-002 0.0
  3.0000000E-002 -9.0000000E-002 0.0
  3.0000000E-002 -8.5000000E-002 0.0
  3.0000000E-002 -8.0000000E-002 0.0
  3.0000000E-002 -7.5000000E-002 0.0
  3.0000000E-002 -7.0000000E-002 0.0
  3.0000000E-002 -6.5000000E-002 0.0
  3.0000000E-002 -6.0000000E-002 0.0
  2.5000000E-002  1.1000000E-001 0.0
  3.0000000E-002  1.1000000E-001 0.0
  3.0000000E-002  1.1500000E-001 0.0
  3.0000000E-002  1.2000000E-001 0.0
  3.0000000E-002  1.2500000E-001 0.0
  3.0000000E-002  1.3000000E-001 0.0
  3.0000000E-002  1.3500000E-001 0.0
  3.0000000E-002  1.4000000E-001 0.0
  3.0000000E-002  1.4500000E-001 0.0
  3.0000000E-002  1.5000000E-001 0.0
  3.0000000E-002  1.5500000E-001 0.0
  3.0000000E-002  1.6000000E-001 0.0
  3.0000000E-002  1.6500000E-001 0.0
  3.0000000E-002  1.7000000E-001 0.0
  3.5000000E-002 -1.1500000E-001 0.0
  3.5000000E-002 -1.1000000E-001 0.0
  3.5000000E-002 -1.0500000E-001 0.0
  3.5000000E-002 -1.0000000E-001 0.0
  3.5000000E-002 -9.5000000E-002 0.0
  3.5000000E-002 -9.0000000E-002 0.0
  3.5000000E-002 -8.5000000E-002 0.0
  3.5000000E-002 -8.0000000E-002 0.0
  3.5000000E-002 -7.5000000E-002 0.0
  3.5000000E-002 -7.0000000E-002 0.0
  3.5000000E-002 -6.5000000E-002 0.0
  3.5000000E-002 -6.0000000E-002 0.0
  3.5000000E-002  1.1000000E-001 0.0
  3.5000000E-002  1.1500000E-001 0.0
  3.5000000E-002  1.2000000E-001 0.0
  3.5000000E-002  1.2500000E-001 0.0
  3.5000000E-002  1.3000000E-001 0.0
  3.5000000E-002  1.3500000E-001 0.0
  3.5000000E-002  1.4000000E-001 0.0
  3.5000000E-002  1.4500000E-001 0.0
  3.5000000E-002  1.5000000E-001 0.0
  3.5000000E-002  1.5500000E-001 0.0
  3.5000000E-002  1.6000000E-001 0.0
  3.5000000E-002  1.6500000E-001 0.0
  3.5000000E-002  1.7000000E-001 0.0
  4.0000000E-002 -1.1500000E-001 0.0
  4.0000000E-002 -1.1000000E-001 0.0
  4.0000000E-002 -1.0500000E-001 0.0
  4.0000000E-002 -1.0000000E-001 0.0
  4.0000000E-002 -9.5000000E-002 0.0
  4.0000000E-002 -9.0000000E-002 0.0
  4.0000000E-002 -8.5000000E-002 0.0
  4.0000000E-002 -8.0000000E-002 0.0
  4.0000000E-002 -7.5000000E-002 0.0
  4.0000000E-002 -7.0000000E-002 0.0
  4.0000000E-002 -6.5000000E-002 0.0
  4.0000000E-002 -6.0000000E-002 0.0
  4.0000000E-002  1.1000000E-001 0.0
  4.0000000E-002  1.1500000E-001 0.0
  4.0000000E-002  1.2000000E-001 0.0
  4.0000000E-002  1.2500000E-001 0.0
  4.0000000E-002  1.3000000E-001 0.0
  4.0000000E-002  1.3500000E-001 0.0
  4.0000000E-002  1.4000000E-001 0.0
  4.0000000E-002  1.4500000E-001 0.0
  4.0000000E-002  1.5000000E-001 0.0
  4.0000000E-002  1.5500000E-001 0.0
  4.0000000E-002  1.6000000E-001 0.0
  4.0000000E-002  1.6500000E-001 0.0
  4.0000000E-002  1.7000000E-001 0.0
  4.5000000E-002 -1.1000000E-001 0.0
  4.5000000E-002 -1.0500000E-001 0.0
  4.5000000E-002 -1.0000000E-001 0.0
  4.5000000E-002 -9.5000000E-002 0.0
  4.5000000E-002 -9.0000000E-002 0.0
  4.5000000E-002 -8.5000000E-002 0.0
  4.5000000E-002 -8.0000000E-002 0.0
  4.5000000E-002 -7.5000000E-002 0.0
  4.5000000E-002 -7.0000000E-002 0.0
  4.5000000E-002 -6.5000000E-002 0.0
  4.5000000E-002  1.1000000E-001 0.0
  4.5000000E-002  1.1500000E-001 0.0
  4.5000000E-002  1.2000000E-001 0.0
  4.5000000E-002  1.2500000E-001 0.0
  4.5000000E-002  1.3000000E-001 0.0
  4.5000000E-002  1.3500000E-001 0.0
  4.5000000E-002  1.4000000E-001 0.0
  4.5000000E-002  1.4500000E-001 0.0
  4.5000000E-002  1.5000000E-001 0.0
  4.5000000E-002  1.5500000E-001 0.0
  4.5000000E-002  1.6000000E-001 0.0
  4.5000000E-002  1.6500000E-001 0.0
  4.5000000E-002  1.7000000E-001 0.0
  5.0000000E-002 -1.1000000E-001 0.0
  5.0000000E-002 -1.0500000E-001 0.0
  5.0000000E-002 -1.0000000E-001 0.0
  5.0000000E-002 -9.5000000E-002 0.0
  5.0000000E-002 -9.0000000E-002 0.0
  5.0000000E-002 -8.5000000E-002 0.0
  5.0000000E-002 -8.0000000E-002 0.0
  5.0000000E-002 -7.5000000E-002 0.0
  5.0000000E-002 -7.0000000E-002 0.0
  5.0000000E-002 -6.5000000E-002 0.0
  5.0000000E-002  1.1000000E-001 0.0
  5.0000000E-002  1.1500000E-001 0.0
  5.0000000E-002  1.2000000E-001 0.0
  5.0000000E-002  1.2500000E-001 0.0
  5.0000000E-002  1.3000000E-001 0.0
  5.0000000E-002  1.3500000E-001 0.0
  5.0000000E-002  1.4000000E-001 0.0
  5.0000000E-002  1.4500000E-001 0.0
  5.0000000E-002  1.5000000E-001 0.0
  5.0000000E-002  1.5500000E-001 0.0
  5.0000000E-002  1.6000000E-001 0.0
  5.0000000E-002  1.6500000E-001 0.0
  5.0000000E-002  1.7000000E-001 0.0
  5.5000000E-002 -1.1000000E-001 0.0
  5.5000000E-002 -1.0500000E-001 0.0
  5.5000000E-002 -1.0000000E-001 0.0
  5.5000000E-002 -9.5000000E-002 0.0
  5.5000000E-002 -9.0000000E-002 0.0
  5.5000000E-002 -8.5000000E-002 0.0
  5.5000000E-002 -8.0000000E-002 0.0
  5.5000000E-002 -7.5000000E-002 0.0
  5.5000000E-002 -7.0000000E-002 0.0
  5.5000000E-002 -6.5000000E-002 0.0
  5.5000000E-002  1.1000000E-001 0.0
  5.5000000E-002  1.1500000E-001 0.0
  5.5000000E-002  1.2000000E-001 0.0
  5.5000000E-002  1.2500000E-001 0.0
  5.5000000E-002  1.3000000E-001 0.0
  5.5000000E-002  1.3500000E-001 0.0
  5.5000000E-002  1.4000000E-001 0.0
  5.5000000E-002  1.4500000E-001 0.0
  5.5000000E-002  1.5000000E-001 0.0
  5.5000000E-002  1.5500000E-001 0.0
  5.5000000E-002  1.6000000E-001 0.0
  5.5000000E-002  1.6500000E-001 0.0
  5.5000000E-002  1.7000000E-001 0.0
  6.0000000E-002 -1.1000000E-001 0.0
  6.0000000E-002 -1.0500000E-001 0.0
  6.0000000E-002 -1.0000000E-001 0.0
  6.0000000E-002 -9.5000000E-002 0.0
  6.0000000E-002 -9.0000000E-002 0.0
  6.0000000E-002 -8.5000000E-002 0.0
  6.0000000E-002 -8.0000000E-002 0.0
  6.0000000E-002 -7.5000000E-002 0.0
  6.0000000E-002 -7.0000000E-002 0.0
  6.0000000E-002 -6.5000000E-002 0.0
  6.0000000E-002  1.1000000E-001 0.0
  6.0000000E-002  1.1500000E-001 0.0
  6.0000000E-002  1.2000000E-001 0.0
  6.0000000E-002  1.2500000E-001 0.0
  6.0000000E-002  1.3000000E-001 0.0
  6.0000000E-002  1.3500000E-001 0.0
  6.0000000E-002  1.4000000E-001 0.0
  6.0000000E-002  1.4500000E-001 0.0
  6.0000000E-002  1.5000000E-001 0.0
  6.0000000E-002  1.5500000E-001 0.0
  6.0000000E-002  1.6000000E-001 0.0
  6.0000000E-002  1.6500000E-001 0.0
  6.0000000E-002  1.7000000E-001 0.0
  6.5000000E-002 -1.1000000E-001 0.0
  6.5000000E-002 -1.0500000E-001 0.0
  6.5000000E-002 -1.0000000E-001 0.0
  6.5000000E-002 -9.5000000E-002 0.0
  6.5000000E-002 -9.0000000E-002 0.0
  6.5000000E-002 -8.5000000E-002 0.0
  6.5000000E-002 -8.0000000E-002 0.0
  6.5000000E-002 -7.5000000E-002 0.0
  6.5000000E-002 -7.0000000E-002 0.0
  6.5000000E-002 -6.5000000E-002 0.0
  6.0000000E-002  1.0500000E-001 0.0
  6.5000000E-002  1.0500000E-001 0.0
  6.5000000E-002  1.1000000E-001 0.0
  6.5000000E-002  1.1500000E-001 0.0
  6.5000000E-002  1.2000000E-001 0.0
  6.5000000E-002  1.2500000E-001 0.0
  6.5000000E-002  1.3000000E-001 0.0
  6.5000000E-002  1.3500000E-001 0.0
  6.5000000E-002  1.4000000E-001 0.0
  6.5000000E-002  1.4500000E-001 0.0
  6.5000000E-002  1.5000000E-001 0.0
  6.5000000E-002  1.5500000E-001 0.0
  6.5000000E-002  1.6000000E-001 0.0
  6.5000000E-002  1.6500000E-001 0.0
  6.5000000E-002  1.7000000E-001 0.0
  7.0000000E-002 -1.1000000E-001 0.0
  7.0000000E-002 -1.0500000E-001 0.0
  7.0000000E-002 -1.0000000E-001 0.0
  7.0000000E-002 -9.5000000E-002 0.0
  7.0000000E-002 -9.0000000E-002 0.0
  7.0000000E-002 -8.5000000E-002 0.0
  7.0000000E-002 -8.0000000E-002 0.0
  7.0000000E-002 -7.5000000E-002 0.0
  7.0000000E-002 -7.0000000E-002 0.0
  7.0000000E-002 -6.5000000E-002 0.0
  7.0000000E-002  1.0500000E-001 0.0
  7.0000000E-002  1.1000000E-001 0.0
  7.0000000E-002  1.1500000E-001 0.0
  7.0000000E-002  1.2000000E-001 0.0
  7.0000000E-002  1.2500000E-001 0.0
  7.0000000E-002  1.3000000E-001 0.0
  7.0000000E-002  1.3500000E-001 0.0
  7.0000000E-002  1.4000000E-001 0.0
  7.0000000E-002  1.4500000E-001 0.0
  7.0000000E-002  1.5000000E-001 0.0
  7.0000000E-002  1.5500000E-001 0.0
  7.0000000E-002  1.6000000E-001 0.0
  7.0000000E-002  1.6500000E-001 0.0
  7.0000000E-002  1.7000000E-001 0.0
  7.5000000E-002 -1.1000000E-001 0.0
  7.5000000E-002 -1.0500000E-001 0.0
  7.5000000E-002 -1.0000000E-001 0.0
  7.5000000E-002 -9.5000000E-002 0.0
  7.5000000E-002 -9.0000000E-002 0.0
  7.5000000E-002 -8.5000000E-002 0.0
  7.5000000E-002 -8.0000000E-002 0.0
  7.5000000E-002 -7.5000000E-002 0.0
  7.5000000E-002 -7.0000000E-002 0.0
  7.5000000E-002 -6.5000000E-002 0.0
  7.5000000E-002  1.0500000E-001 0.0
  7.5000000E-002  1.1000000E-001 0.0
  7.5000000E-002  1.1500000E-001 0.0
  7.5000000E-002  1.2000000E-001 0.0
  7.5000000E-002  1.2500000E-001 0.0
  7.5000000E-002  1.3000000E-001 0.0
  7.5000000E-002  1.3500000E-001 0.0
  7.5000000E-002  1.4000000E-001 0.0
  7.5000000E-002  1.4500000E-001 0.0
  7.5000000E-002  1.5000000E-001 0.0
  7.5000000E-002  1.5500000E-001 0.0
  7.5000000E-002  1.6000000E-001 0.0
  7.5000000E-002  1.6500000E-001 0.0
  7.5000000E-002  1.7000000E-001 0.0
  8.0000000E-002 -1.1000000E-001 0.0
  8.0000000E-002 -1.0500000E-001 0.0
  8.0000000E-002 -1.0000000E-001 0.0
  8.0000000E-002 -9.5000000E-002 0.0
  8.0000000E-002 -9.0000000E-002 0.0
  8.0000000E-002 -8.5000000E-002 0.0
  8.0000000E-002 -8.0000000E-002 0.0
  8.0000000E-002 -7.5000000E-002 0.0
  8.0000000E-002 -7.0000000E-002 0.0
  8.0000000E-002 -6.5000000E-002 0.0
  8.0000000E-002  1.0500000E-001 0.0
  8.0000000E-002  1.1000000E-001 0.0
  8.0000000E-002  1.1500000E-001 0.0
  8.0000000E-002  1.2000000E-001 0.0
  8.0000000E-002  1.2500000E-001 0.0
  8.0000000E-002  1.3000000E-001 0.0
  8.0000000E-002  1.3500000E-001 0.0
  8.0000000E-002  1.4000000E-001 0.0
  8.0000000E-002  1.4500000E-001 0.0
  8.0000000E-002  1.5000000E-001 0.0
  8.0000000E-002  1.5500000E-001 0.0
  8.0000000E-002  1.6000000E-001 0.0
  8.0000000E-002  1.6500000E-001 0.0
  8.0000000E-002  1.7000000E-001 0.0
  8.5000000E-002 -1.1000000E-001 0.0
  8.5000000E-002 -1.0500000E-001 0.0
  8.5000000E-002 -1.0000000E-001 0.0
  8.5000000E-002 -9.5000000E-002 0.0
  8.5000000E-002 -9.0000000E-002 0.0
  8.5000000E-002 -8.5000000E-002 0.0
  8.5000000E-002 -8.0000000E-002 0.0
  8.5000000E-002 -7.5000000E-002 0.0
  8.5000000E-002 -7.0000000E-002 0.0
  8.5000000E-002 -6.5000000E-002 0.0
  8.5000000E-002 -6.0000000E-002 0.0
  8.0000000E-002 -6.0000000E-002 0.0
  8.5000000E-002  1.0500000E-001 0.0
  8.5000000E-002  1.1000000E-001 0.0
  8.5000000E-002  1.1500000E-001 0.0
  8.5000000E-002  1.2000000E-001 0.0
  8.5000000E-002  1.2500000E-001 0.0
  8.5000000E-002  1.3000000E-001 0.0
  8.5000000E-002  1.3500000E-001 0.0
  8.5000000E-002  1.4000000E-001 0.0
  8.5000000E-002  1.4500000E-001 0.0
  8.5000000E-002  1.5000000E-001 0.0
  8.5000000E-002  1.5500000E-001 0.0
  8.5000000E-002  1.6000000E-001 0.0
  8.5000000E-002  1.6500000E-001 0.0
  8.5000000E-002  1.7000000E-001 0.0
  9.0000000E-002 -1.1000000E-001 0.0
  9.0000000E-002 -1.0500000E-001 0.0
  9.0000000E-002 -1.0000000E-001 0.0
  9.0000000E-002 -9.5000000E-002 0.0
  9.0000000E-002 -9.0000000E-002 0.0
  9.0000000E-002 -8.5000000E-002 0.0
  9.0000000E-002 -8.0000000E-002 0.0
  9.0000000E-002 -7.5000000E-002 0.0
  9.0000000E-002 -7.0000000E-002 0.0
  9.0000000E-002 -6.5000000E-002 0.0
  9.0000000E-002 -6.0000000E-002 0.0
  9.0000000E-002  1.0500000E-001 0.0
  9.0000000E-002  1.1000000E-001 0.0
  9.0000000E-002  1.1500000E-001 0.0
  9.0000000E-002  1.2000000E-001 0.0
  9.0000000E-002  1.2500000E-001 0.0
  9.0000000E-002  1.3000000E-001 0.0
  9.0000000E-002  1.3500000E-001 0.0
  9.0000000E-002  1.4000000E-001 0.0
  9.0000000E-002  1.4500000E-001 0.0
  9.0000000E-002  1.5000000E-001 0.0
  9.0000000E-002  1.5500000E-001 0.0
  9.0000000E-002  1.6000000E-001 0.0
  9.0000000E-002  1.6500000E-001 0.0
  9.0000000E-002  1.7000000E-001 0.0
  9.5000000E-002 -1.1000000E-001 0.0
  9.5000000E-002 -1.0500000E-001 0.0
  9.5000000E-002 -1.0000000E-001 0.0
  9.5000000E-002 -9.5000000E-002 0.0
  9.5000000E-002 -9.0000000E-002 0.0
  9.5000000E-002 -8.5000000E-002 0.0
  9.5000000E-002 -8.0000000E-002 0.0
  9.5000000E-002 -7.5000000E-002 0.0
  9.5000000E-002 -7.0000000E-002 0.0
  9.5000000E-002 -6.5000000E-002 0.0
  9.5000000E-002 -6.0000000E-002 0.0
  9.0000000E-002  1.0000000E-001 0.0
  9.5000000E-002  1.0000000E-001 0.0
  9.5000000E-002  1.0500000E-001 0.0
  9.5000000E-002  1.1000000E-001 0.0
  9.5000000E-002  1.1500000E-001 0.0
  9.5000000E-002  1.2000000E-001 0.0
  9.5000000E-002  1.2500000E-001 0.0
  9.5000000E-002  1.3000000E-001 0.0
  9.5000000E-002  1.3500000E-001 0.0
  9.5000000E-002  1.4000000E-001 0.0
  9.5000000E-002  1.4500000E-001 0.0
  9.5000000E-002  1.5000000E-001 0.0
  9.5000000E-002  1.5500000E-001 0.0
  9.5000000E-002  1.6000000E-001 0.0
  9.5000000E-002  1.6500000E-001 0.0
  9.5000000E-002  1.7000000E-001 0.0
  1.0000000E-001 -1.1000000E-001 0.0
  1.0000000E-001 -1.0500000E-001 0.0
  1.0000000E-001 -1.0000000E-001 0.0
  1.0000000E-001 -9.5000000E-002 0.0
  1.0000000E-001 -9.0000000E-002 0.0
  1.0000000E-001 -8.5000000E-002 0.0
  1.0000000E-001 -8.0000000E-002 0.0
  1.0000000E-001 -7.5000000E-002 0.0
  1.0000000E-001 -7.0000000E-002 0.0
  1.0000000E-001 -6.5000000E-002 0.0
  1.0000000E-001 -6.0000000E-002 0.0
  1.0000000E-001  1.0000000E-001 0.0
  1.0000000E-001  1.0500000E-001 0.0
  1.0000000E-001  1.1000000E-001 0.0
  1.0000000E-001  1.1500000E-001 0.0
  1.0000000E-001  1.2000000E-001 0.0
  1.0000000E-001  1.2500000E-001 0.0
  1.0000000E-001  1.3000000E-001 0.0
  1.0000000E-001  1.3500000E-001 0.0
  1.0000000E-001  1.4000000E-001 0.0
  1.0000000E-001  1.4500000E-001 0.0
  1.0000000E-001  1.5000000E-001 0.0
  1.0000000E-001  1.5500000E-001 0.0
  1.0000000E-001  1.6000000E-001 0.0
  1.0000000E-001  1.6500000E-001 0.0
  1.0500000E-001 -1.1000000E-001 0.0
  1.0500000E-001 -1.0500000E-001 0.0
  1.0500000E-001 -1.0000000E-001 0.0
  1.0500000E-001 -9.5000000E-002 0.0
  1.0500000E-001 -9.0000000E-002 0.0
  1.0500000E-001 -8.5000000E-002 0.0
  1.0500000E-001 -8.0000000E-002 0.0
  1.0500000E-001 -7.5000000E-002 0.0
  1.0500000E-001 -7.0000000E-002 0.0
  1.0500000E-001 -6.5000000E-002 0.0
  1.0500000E-001 -6.0000000E-002 0.0
  1.0500000E-001 -5.5000000E-002 0.0
  1.0000000E-001 -5.5000000E-002 0.0
  1.0500000E-001  1.0000000E-001 0.0
  1.0500000E-001  1.0500000E-001 0.0
  1.0500000E-001  1.1000000E-001 0.0
  1.0500000E-001  1.1500000E-001 0.0
  1.0500000E-001  1.2000000E-001 0.0
  1.0500000E-001  1.2500000E-001 0.0
  1.0500000E-001  1.3000000E-001 0.0
  1.0500000E-001  1.3500000E-001 0.0
  1.0500000E-001  1.4000000E-001 0.0
  1.0500000E-001  1.4500000E-001 0.0
  1.0500000E-001  1.5000000E-001 0.0
  1.0500000E-001  1.5500000E-001 0.0
  1.0500000E-001  1.6000000E-001 0.0
  1.0500000E-001  1.6500000E-001 0.0
  1.1000000E-001 -1.1000000E-001 0.0
  1.1000000E-001 -1.0500000E-001 0.0
  1.1000000E-001 -1.0000000E-001 0.0
  1.1000000E-001 -9.5000000E-002 0.0
  1.1000000E-001 -9.0000000E-002 0.0
  1.1000000E-001 -8.5000000E-002 0.0
  1.1000000E-001 -8.0000000E-002 0.0
  1.1000000E-001 -7.5000000E-002 0.0
  1.1000000E-001 -7.0000000E-002 0.0
  1.1000000E-001 -6.5000000E-002 0.0
  1.1000000E-001 -6.0000000E-002 0.0
  1.1000000E-001 -5.5000000E-002 0.0
  1.1000000E-001  1.0000000E-001 0.0
  1.1000000E-001  1.0500000E-001 0.0
  1.1000000E-001  1.1000000E-001 0.0
  1.1000000E-001  1.1500000E-001 0.0
  1.1000000E-001  1.2000000E-001 0.0
  1.1000000E-001  1.2500000E-001 0.0
  1.1000000E-001  1.3000000E-001 0.0
  1.1000000E-001  1.3500000E-001 0.0
  1.1000000E-001  1.4000000E-001 0.0
  1.1000000E-001  1.4500000E-001 0.0
  1.1000000E-001  1.5000000E-001 0.0
  1.1000000E-001  1.5500000E-001 0.0
  1.1000000E-001  1.6000000E-001 0.0
  1.1000000E-001  1.6500000E-001 0.0
  1.1500000E-001 -1.1000000E-001 0.0
  1.1500000E-001 -1.0500000E-001 0.0
  1.1500000E-001 -1.0000000E-001 0.0
  1.1500000E-001 -9.5000000E-002 0.0
  1.1500000E-001 -9.0000000E-002 0.0
  1.1500000E-001 -8.5000000E-002 0.0
  1.1500000E-001 -8.0000000E-002 0.0
  1.1500000E-001 -7.5000000E-002 0.0
  1.1500000E-001 -7.0000000E-002 0.0
  1.1500000E-001 -6.5000000E-002 0.0
  1.1500000E-001 -6.0000000E-002 0.0
  1.1500000E-001 -5.5000000E-002 0.0
  1.1500000E-001 -5.0000000E-002 0.0
  1.1000000E-001 -5.0000000E-002 0.0
  1.1000000E-001  9.5000000E-002 0.0
  1.1500000E-001  9.5000000E-002 0.0
  1.1500000E-001  1.0000000E-001 0.0
  1.1500000E-001  1.0500000E-001 0.0
  1.1500000E-001  1.1000000E-001 0.0
  1.1500000E-001  1.1500000E-001 0.0
  1.1500000E-001  1.2000000E-001 0.0
  1.1500000E-001  1.2500000E-001 0.0
  1.1500000E-001  1.3000000E-001 0.0
  1.1500000E-001  1.3500000E-001 0.0
  1.1500000E-001  1.4000000E-001 0.0
  1.1500000E-001  1.4500000E-001 0.0
  1.1500000E-001  1.5000000E-001 0.0
  1.1500000E-001  1.5500000E-001 0.0
  1.1500000E-001  1.6000000E-001 0.0
  1.1500000E-001  1.6500000E-001 0.0
  1.2000000E-001 -1.1000000E-001 0.0
  1.2000000E-001 -1.0500000E-001 0.0
  1.2000000E-001 -1.0000000E-001 0.0
  1.2000000E-001 -9.5000000E-002 0.0
  1.2000000E-001 -9.0000000E-002 0.0
  1.2000000E-001 -8.5000000E-002 0.0
  1.2000000E-001 -8.0000000E-002 0.0
  1.2000000E-001 -7.5000000E-002 0.0
  1.2000000E-001 -7.0000000E-002 0.0
  1.2000000E-001 -6.5000000E-002 0.0
  1.2000000E-001 -6.0000000E-002 0.0
  1.2000000E-001 -5.5000000E-002 0.0
  1.2000000E-001 -5.0000000E-002 0.0
  1.2000000E-001 -4.5000000E-002 0.0
  1.1500000E-001 -4.5000000E-002 0.0
  1.2000000E-001  9.5000000E-002 0.0
  1.2000000E-001  1.0000000E-001 0.0
  1.2000000E-001  1.0500000E-001 0.0
  1.2000000E-001  1.1000000E-001 0.0
  1.2000000E-001  1.1500000E-001 0.0
  1.2000000E-001  1.2000000E-001 0.0
  1.2000000E-001  1.2500000E-001 0.0
  1.2000000E-001  1.3000000E-001 0.0
  1.2000000E-001  1.3500000E-001 0.0
  1.2000000E-001  1.4000000E-001 0.0
  1.2000000E-001  1.4500000E-001 0.0
  1.2000000E-001  1.5000000E-001 0.0
  1.2000000E-001  1.5500000E-001 0.0
  1.2000000E-001  1.6000000E-001 0.0
  1.2000000E-001 -1.1500000E-001 0.0
  1.2500000E-001 -1.1500000E-001 0.0
  1.2500000E-001 -1.1000000E-001 0.0
  1.2500000E-001 -1.0500000E-001 0.0
  1.2500000E-001 -1.0000000E-001 0.0
  1.2500000E-001 -9.5000000E-002 0.0
  1.2500000E-001 -9.0000000E-002 0.0
  1.2500000E-001 -8.5000000E-002 0.0
  1.2500000E-001 -8.0000000E-002 0.0
  1.2500000E-001 -7.5000000E-002 0.0
  1.2500000E-001 -7.0000000E-002 0.0
  1.2500000E-001 -6.5000000E-002 0.0
  1.2500000E-001 -6.0000000E-002 0.0
  1.2500000E-001 -5.5000000E-002 0.0
  1.2500000E-001 -5.0000000E-002 0.0
  1.2500000E-001 -4.5000000E-002 0.0
  1.2000000E-001  9.0000000E-002 0.0
  1.2500000E-001  9.0000000E-002 0.0
  1.2500000E-001  9.5000000E-002 0.0
  1.2500000E-001  1.0000000E-001 0.0
  1.2500000E-001  1.0500000E-001 0.0
  1.2500000E-001  1.1000000E-001 0.0
  1.2500000E-001  1.1500000E-001 0.0
  1.2500000E-001  1.2000000E-001 0.0
  1.2500000E-001  1.2500000E-001 0.0
  1.2500000E-001  1.3000000E-001 0.0
  1.2500000E-001  1.3500000E-001 0.0
  1.2500000E-001  1.4000000E-001 0.0
  1.2500000E-001  1.4500000E-001 0.0
  1.2500000E-001  1.5000000E-001 0.0
  1.2500000E-001  1.5500000E-001 0.0
  1.2500000E-001  1.6000000E-001 0.0
  1.3000000E-001 -1.1500000E-001 0.0
  1.3000000E-001 -1.1000000E-001 0.0
  1.3000000E-001 -1.0500000E-001 0.0
  1.3000000E-001 -1.0000000E-001 0.0
  1.3000000E-001 -9.5000000E-002 0.0
  1.3000000E-001 -9.0000000E-002 0.0
  1.3000000E-001 -8.5000000E-002 0.0
  1.3000000E-001 -8.0000000E-002 0.0
  1.3000000E-001 -7.5000000E-002 0.0
  1.3000000E-001 -7.0000000E-002 0.0
  1.3000000E-001 -6.5000000E-002 0.0
  1.3000000E-001 -6.0000000E-002 0.0
  1.3000000E-001 -5.5000000E-002 0.0
  1.3000000E-001 -5.0000000E-002 0.0
  1.3000000E-001 -4.5000000E-002 0.0
  1.3000000E-001 -4.0000000E-002 0.0
  1.2500000E-001 -4.0000000E-002 0.0
  1.2500000E-001  8.5000000E-002 0.0
  1.3000000E-001  8.5000000E-002 0.0
  1.3000000E-001  9.0000000E-002 0.0
  1.3000000E-001  9.5000000E-002 0.0
  1.3000000E-001  1.0000000E-001 0.0
  1.3000000E-001  1.0500000E-001 0.0
  1.3000000E-001  1.1000000E-001 0.0
  1.3000000E-001  1.1500000E-001 0.0
  1.3000000E-001  1.2000000E-001 0.0
  1.3000000E-001  1.2500000E-001 0.0
  1.3000000E-001  1.3000000E-001 0.0
  1.3000000E-001  1.3500000E-001 0.0
  1.3000000E-001  1.4000000E-001 0.0
  1.3000000E-001  1.4500000E-001 0.0
  1.3000000E-001  1.5000000E-001 0.0
  1.3000000E-001  1.5500000E-001 0.0
  1.3000000E-001  1.6000000E-001 0.0
  1.3500000E-001 -1.1500000E-001 0.0
  1.3500000E-001 -1.1000000E-001 0.0
  1.3500000E-001 -1.0500000E-001 0.0
  1.3500000E-001 -1.0000000E-001 0.0
  1.3500000E-001 -9.5000000E-002 0.0
  1.3500000E-001 -9.0000000E-002 0.0
  1.3500000E-001 -8.5000000E-002 0.0
  1.3500000E-001 -8.0000000E-002 0.0
  1.3500000E-001 -7.5000000E-002 0.0
  1.3500000E-001 -7.0000000E-002 0.0
  1.3500000E-001 -6.5000000E-002 0.0
  1.3500000E-001 -6.0000000E-002 0.0
  1.3500000E-001 -5.5000000E-002 0.0
  1.3500000E-001 -5.0000000E-002 0.0
  1.3500000E-001 -4.5000000E-002 0.0
  1.3500000E-001 -4.0000000E-002 0.0
  1.3500000E-001 -3.5000000E-002 0.0
  1.3000000E-001 -3.5000000E-002 0.0
  1.3500000E-001 -3.0000000E-002 0.0
  1.3000000E-001 -3.0000000E-002 0.0
  1.3000000E-001  8.0000000E-002 0.0
  1.3500000E-001  8.0000000E-002 0.0
  1.3500000E-001  8.5000000E-002 0.0
  1.3500000E-001  9.0000000E-002 0.0
  1.3500000E-001  9.5000000E-002 0.0
  1.3500000E-001  1.0000000E-001 0.0
  1.3500000E-001  1.0500000E-001 0.0
  1.3500000E-001  1.1000000E-001 0.0
  1.3500000E-001  1.1500000E-001 0.0
  1.3500000E-001  1.2000000E-001 0.0
  1.3500000E-001  1.2500000E-001 0.0
  1.3500000E-001  1.3000000E-001 0.0
  1.3500000E-001  1.3500000E-001 0.0
  1.3500000E-001  1.4000000E-001 0.0
  1.3500000E-001  1.4500000E-001 0.0
  1.3500000E-001  1.5000000E-001 0.0
  1.3500000E-001  1.5500000E-001 0.0
  1.3500000E-001  1.6000000E-001 0.0
  1.4000000E-001 -1.1500000E-001 0.0
  1.4000000E-001 -1.1000000E-001 0.0
  1.4000000E-001 -1.0500000E-001 0.0
  1.4000000E-001 -1.0000000E-001 0.0
  1.4000000E-001 -9.5000000E-002 0.0
  1.4000000E-001 -9.0000000E-002 0.0
  1.4000000E-001 -8.5000000E-002 0.0
  1.4000000E-001 -8.0000000E-002 0.0
  1.4000000E-001 -7.5000000E-002 0.0
  1.4000000E-001 -7.0000000E-002 0.0
  1.4000000E-001 -6.5000000E-002 0.0
  1.4000000E-001 -6.0000000E-002 0.0
  1.4000000E-001 -5.5000000E-002 0.0
  1.4000000E-001 -5.0000000E-002 0.0
  1.4000000E-001 -4.5000000E-002 0.0
  1.4000000E-001 -4.0000000E-002 0.0
  1.4000000E-001 -3.5000000E-002 0.0
  1.4000000E-001 -3.0000000E-002 0.0
  1.4000000E-001 -2.5000000E-002 0.0
  1.3500000E-001 -2.5000000E-002 0.0
  1.4000000E-001 -2.0000000E-002 0.0
  1.3500000E-001 -2.0000000E-002 0.0
  1.3500000E-001  7.5000000E-002 0.0
  1.4000000E-001  7.5000000E-002 0.0
  1.4000000E-001  8.0000000E-002 0.0
  1.4000000E-001  8.5000000E-002 0.0
  1.4000000E-001  9.0000000E-002 0.0
  1.4000000E-001  9.5000000E-002 0.0
  1.4000000E-001  1.0000000E-001 0.0
  1.4000000E-001  1.0500000E-001 0.0
  1.4000000E-001  1.1000000E-001 0.0
  1.4000000E-001  1.1500000E-001 0.0
  1.4000000E-001  1.2000000E-001 0.0
  1.4000000E-001  1.2500000E-001 0.0
  1.4000000E-001  1.3000000E-001 0.0
  1.4000000E-001  1.3500000E-001 0.0
  1.4000000E-001  1.4000000E-001 0.0
  1.4000000E-001  1.4500000E-001 0.0
  1.4000000E-001  1.5000000E-001 0.0
  1.4000000E-001  1.5500000E-001 0.0
  1.4000000E-001  1.6000000E-001 0.0
  1.4500000E-001 -1.1500000E-001 0.0
  1.4500000E-001 -1.1000000E-001 0.0
  1.4500000E-001 -1.0500000E-001 0.0
  1.4500000E-001 -1.0000000E-001 0.0
  1.4500000E-001 -9.5000000E-002 0.0
  1.4500000E-001 -9.0000000E-002 0.0
  1.4500000E-001 -8.5000000E-002 0.0
  1.4500000E-001 -8.0000000E-002 0.0
  1.4500000E-001 -7.5000000E-002 0.0
  1.4500000E-001 -7.0000000E-002 0.0
  1.4500000E-001 -6.5000000E-002 0.0
  1.4500000E-001 -6.0000000E-002 0.0
  1.4500000E-001 -5.5000000E-002 0.0
  1.4500000E-001 -5.0000000E-002 0.0
  1.4500000E-001 -4.5000000E-002 0.0
  1.4500000E-001 -4.0000000E-002 0.0
  1.4500000E-001 -3.5000000E-002 0.0
  1.4500000E-001 -3.0000000E-002 0.0
  1.4500000E-001 -2.5000000E-002 0.0
  1.4500000E-001 -2.0000000E-002 0.0
  1.4500000E-001 -1.5000000E-002 0.0
  1.4000000E-001 -1.5000000E-002 0.0
  1.4500000E-001 -1.0000000E-002 0.0
  1.4000000E-001 -1.0000000E-002 0.0
  1.4500000E-001 -5.0000000E-003 0.0
  1.4000000E-001 -5.0000000E-003 0.0
  1.4500000E-001  0.0000000E+000 0.0
  1.4000000E-001  0.0000000E+000 0.0
  1.4500000E-001  5.0000000E-003 0.0
  1.4000000E-001  5.0000000E-003 0.0
  1.4000000E-001  6.5000000E-002 0.0
  1.4500000E-001  6.5000000E-002 0.0
  1.4500000E-001  7.0000000E-002 0.0
  1.4000000E-001  7.0000000E-002 0.0
  1.4500000E-001  7.5000000E-002 0.0
  1.4500000E-001  8.0000000E-002 0.0
  1.4500000E-001  8.5000000E-002 0.0
  1.4500000E-001  9.0000000E-002 0.0
  1.4500000E-001  9.5000000E-002 0.0
  1.4500000E-001  1.0000000E-001 0.0
  1.4500000E-001  1.0500000E-001 0.0
  1.4500000E-001  1.1000000E-001 0.0
  1.4500000E-001  1.1500000E-001 0.0
  1.4500000E-001  1.2000000E-001 0.0
  1.4500000E-001  1.2500000E-001 0.0
  1.4500000E-001  1.3000000E-001 0.0
  1.4500000E-001  1.3500000E-001 0.0
  1.4500000E-001  1.4000000E-001 0.0
  1.4500000E-001  1.4500000E-001 0.0
  1.4500000E-001  1.5000000E-001 0.0
  1.4500000E-001  1.5500000E-001 0.0
  1.4500000E-001  1.6000000E-001 0.0
  1.4500000E-001 -1.2000000E-001 0.0
  1.5000000E-001 -1.2000000E-001 0.0
  1.5000000E-001 -1.1500000E-001 0.0
  1.5000000E-001 -1.1000000E-001 0.0
  1.5000000E-001 -1.0500000E-001 0.0
  1.5000000E-001 -1.0000000E-001 0.0
  1.5000000E-001 -9.5000000E-002 0.0
  1.5000000E-001 -9.0000000E-002 0.0
  1.5000000E-001 -8.5000000E-002 0.0
  1.5000000E-001 -8.0000000E-002 0.0
  1.5000000E-001 -7.5000000E-002 0.0
  1.5000000E-001 -7.0000000E-002 0.0
  1.5000000E-001 -6.5000000E-002 0.0
  1.5000000E-001 -6.0000000E-002 0.0
  1.5000000E-001 -5.5000000E-002 0.0
  1.5000000E-001 -5.0000000E-002 0.0
  1.5000000E-001 -4.5000000E-002 0.0
  1.5000000E-001 -4.0000000E-002 0.0
  1.5000000E-001 -3.5000000E-002 0.0
  1.5000000E-001 -3.0000000E-002 0.0
  1.5000000E-001 -2.5000000E-002 0.0
  1.5000000E-001 -2.0000000E-002 0.0
  1.5000000E-001 -1.5000000E-002 0.0
  1.5000000E-001 -1.0000000E-002 0.0
  1.5000000E-001 -5.0000000E-003 0.0
  1.5000000E-001  0.0000000E+000 0.0
  1.5000000E-001  5.0000000E-003 0.0
  1.5000000E-001  1.0000000E-002 0.0
  1.4500000E-001  1.0000000E-002 0.0
  1.5000000E-001  1.5000000E-002 0.0
  1.4500000E-001  1.5000000E-002 0.0
  1.5000000E-001  2.0000000E-002 0.0
  1.4500000E-001  2.0000000E-002 0.0
  1.5000000E-001  2.5000000E-002 0.0
  1.4500000E-001  2.5000000E-002 0.0
  1.5000000E-001  3.0000000E-002 0.0
  1.4500000E-001  3.0000000E-002 0.0
  1.5000000E-001  3.5000000E-002 0.0
  1.4500000E-001  3.5000000E-002 0.0
  1.5000000E-001  4.0000000E-002 0.0
  1.4500000E-001  4.0000000E-002 0.0
  1.5000000E-001  4.5000000E-002 0.0
  1.4500000E-001  4.5000000E-002 0.0
  1.5000000E-001  5.0000000E-002 0.0
  1.4500000E-001  5.0000000E-002 0.0
  1.5000000E-001  5.5000000E-002 0.0
  1.4500000E-001  5.5000000E-002 0.0
  1.5000000E-001  6.0000000E-002 0.0
  1.4500000E-001  6.0000000E-002 0.0
  1.5000000E-001  6.5000000E-002 0.0
  1.5000000E-001  7.0000000E-002 0.0
  1.5000000E-001  7.5000000E-002 0.0
  1.5000000E-001  8.0000000E-002 0.0
  1.5000000E-001  8.5000000E-002 0.0
  1.5000000E-001  9.0000000E-002 0.0
  1.5000000E-001  9.5000000E-002 0.0
  1.5000000E-001  1.0000000E-001 0.0
  1.5000000E-001  1.0500000E-001 0.0
  1.5000000E-001  1.1000000E-001 0.0
  1.5000000E-001  1.1500000E-001 0.0
  1.5000000E-001  1.2000000E-001 0.0
  1.5000000E-001  1.2500000E-001 0.0
  1.5000000E-001  1.3000000E-001 0.0
  1.5000000E-001  1.3500000E-001 0.0
  1.5000000E-001  1.4000000E-001 0.0
  1.5000000E-001  1.4500000E-001 0.0
  1.5000000E-001  1.5000000E-001 0.0
  1.5000000E-001  1.5500000E-001 0.0
  1.5000000E-001  1.6000000E-001 0.0
  1.5500000E-001 -1.2000000E-001 0.0
  1.5500000E-001 -1.1500000E-001 0.0
  1.5500000E-001 -1.1000000E-001 0.0
  1.5500000E-001 -1.0500000E-001 0.0
  1.5500000E-001 -1.0000000E-001 0.0
  1.5500000E-001 -9.5000000E-002 0.0
  1.5500000E-001 -9.0000000E-002 0.0
  1.5500000E-001 -8.5000000E-002 0.0
  1.5500000E-001 -8.0000000E-002 0.0
  1.5500000E-001 -7.5000000E-002 0.0
  1.5500000E-001 -7.0000000E-002 0.0
  1.5500000E-001 -6.5000000E-002 0.0
  1.5500000E-001 -6.0000000E-002 0.0
  1.5500000E-001 -5.5000000E-002 0.0
  1.5500000E-001 -5.0000000E-002 0.0
  1.5500000E-001 -4.5000000E-002 0.0
  1.5500000E-001 -4.0000000E-002 0.0
  1.5500000E-001 -3.5000000E-002 0.0
  1.5500000E-001 -3.0000000E-002 0.0
  1.5500000E-001 -2.5000000E-002 0.0
  1.5500000E-001 -2.0000000E-002 0.0
  1.5500000E-001 -1.5000000E-002 0.0
  1.5500000E-001 -1.0000000E-002 0.0
  1.5500000E-001 -5.0000000E-003 0.0
  1.5500000E-001  0.0000000E+000 0.0
  1.5500000E-001  5.0000000E-003 0.0
  1.5500000E-001  1.0000000E-002 0.0
  1.5500000E-001  1.5000000E-002 0.0
  1.5500000E-001  2.0000000E-002 0.0
  1.5500000E-001  2.5000000E-002 0.0
  1.5500000E-001  3.0000000E-002 0.0
  1.5500000E-001  3.5000000E-002 0.0
  1.5500000E-001  4.0000000E-002 0.0
  1.5500000E-001  4.5000000E-002 0.0
  1.5500000E-001  5.0000000E-002 0.0
  1.5500000E-001  5.5000000E-002 0.0
  1.5500000E-001  6.0000000E-002 0.0
  1.5500000E-001  6.5000000E-002 0.0
  1.5500000E-001  7.0000000E-002 0.0
  1.5500000E-001  7.5000000E-002 0.0
  1.5500000E-001  8.0000000E-002 0.0
  1.5500000E-001  8.5000000E-002 0.0
  1.5500000E-001  9.0000000E-002 0.0
  1.5500000E-001  9.5000000E-002 0.0
  1.5500000E-001  1.0000000E-001 0.0
  1.5500000E-001  1.0500000E-001 0.0
  1.5500000E-001  1.1000000E-001 0.0
  1.5500000E-001  1.1500000E-001 0.0
  1.5500000E-001  1.2000000E-001 0.0
  1.5500000E-001  1.2500000E-001 0.0
  1.5500000E-001  1.3000000E-001 0.0
  1.5500000E-001  1.3500000E-001 0.0
  1.5500000E-001  1.4000000E-001 0.0
  1.5500000E-001  1.4500000E-001 0.0
  1.5500000E-001  1.5000000E-001 0.0
  1.5500000E-001  1.5500000E-001 0.0
  1.5500000E-001  1.6000000E-001 0.0
  1.6000000E-001 -1.2000000E-001 0.0
  1.6000000E-001 -1.1500000E-001 0.0
  1.6000000E-001 -1.1000000E-001 0.0
  1.6000000E-001 -1.0500000E-001 0.0
  1.6000000E-001 -1.0000000E-001 0.0
  1.6000000E-001 -9.5000000E-002 0.0
  1.6000000E-001 -9.0000000E-002 0.0
  1.6000000E-001 -8.5000000E-002 0.0
  1.6000000E-001 -8.0000000E-002 0.0
  1.6000000E-001 -7.5000000E-002 0.0
  1.6000000E-001 -7.0000000E-002 0.0
  1.6000000E-001 -6.5000000E-002 0.0
  1.6000000E-001 -6.0000000E-002 0.0
  1.6000000E-001 -5.5000000E-002 0.0
  1.6000000E-001 -5.0000000E-002 0.0
  1.6000000E-001 -4.5000000E-002 0.0
  1.6000000E-001 -4.0000000E-002 0.0
  1.6000000E-001 -3.5000000E-002 0.0
  1.6000000E-001 -3.0000000E-002 0.0
  1.6000000E-001 -2.5000000E-002 0.0
  1.6000000E-001 -2.0000000E-002 0.0
  1.6000000E-001 -1.5000000E-002 0.0
  1.6000000E-001 -1.0000000E-002 0.0
  1.6000000E-001 -5.0000000E-003 0.0
  1.6000000E-001  0.0000000E+000 0.0
  1.6000000E-001  5.0000000E-003 0.0
  1.6000000E-001  1.0000000E-002 0.0
  1.6000000E-001  1.5000000E-002 0.0
  1.6000000E-001  2.0000000E-002 0.0
  1.6000000E-001  2.5000000E-002 0.0
  1.6000000E-001  3.0000000E-002 0.0
  1.6000000E-001  3.5000000E-002 0.0
  1.6000000E-001  4.0000000E-002 0.0
  1.6000000E-001  4.5000000E-002 0.0
  1.6000000E-001  5.0000000E-002 0.0
  1.6000000E-001  5.5000000E-002 0.0
  1.6000000E-001  6.0000000E-002 0.0
  1.6000000E-001  6.5000000E-002 0.0
  1.6000000E-001  7.0000000E-002 0.0
  1.6000000E-001  7.5000000E-002 0.0
  1.6000000E-001  8.0000000E-002 0.0
  1.6000000E-001  8.5000000E-002 0.0
  1.6000000E-001  9.0000000E-002 0.0
  1.6000000E-001  9.5000000E-002 0.0
  1.6000000E-001  1.0000000E-001 0.0
  1.6000000E-001  1.0500000E-001 0.0
  1.6000000E-001  1.1000000E-001 0.0
  1.6000000E-001  1.1500000E-001 0.0
  1.6000000E-001  1.2000000E-001 0.0
  1.6000000E-001  1.2500000E-001 0.0
  1.6000000E-001  1.3000000E-001 0.0
  1.6000000E-001  1.3500000E-001 0.0
  1.6000000E-001  1.4000000E-001 0.0
  1.6000000E-001  1.4500000E-001 0.0
  1.6000000E-001  1.5000000E-001 0.0
  1.6000000E-001  1.5500000E-001 0.0
  1.6000000E-001  1.6000000E-001 0.0
  1.6000000E-001  1.6500000E-001 0.0
  1.5500000E-001  1.6500000E-001 0.0
  1.6500000E-001 -1.2000000E-001 0.0
  1.6500000E-001 -1.1500000E-001 0.0
  1.6500000E-001 -1.1000000E-001 0.0
  1.6500000E-001 -1.0500000E-001 0.0
  1.6500000E-001 -1.0000000E-001 0.0
  1.6500000E-001 -9.5000000E-002 0.0
  1.6500000E-001 -9.0000000E-002 0.0
  1.6500000E-001 -8.5000000E-002 0.0
  1.6500000E-001 -8.0000000E-002 0.0
  1.6500000E-001 -7.5000000E-002 0.0
  1.6500000E-001 -7.0000000E-002 0.0
  1.6500000E-001 -6.5000000E-002 0.0
  1.6500000E-001 -6.0000000E-002 0.0
  1.6500000E-001 -5.5000000E-002 0.0
  1.6500000E-001 -5.0000000E-002 0.0
  1.6500000E-001 -4.5000000E-002 0.0
  1.6500000E-001 -4.0000000E-002 0.0
  1.6500000E-001 -3.5000000E-002 0.0
  1.6500000E-001 -3.0000000E-002 0.0
  1.6500000E-001 -2.5000000E-002 0.0
  1.6500000E-001 -2.0000000E-002 0.0
  1.6500000E-001 -1.5000000E-002 0.0
  1.6500000E-001 -1.0000000E-002 0.0
  1.6500000E-001 -5.0000000E-003 0.0
  1.6500000E-001  0.0000000E+000 0.0
  1.6500000E-001  5.0000000E-003 0.0
  1.6500000E-001  1.0000000E-002 0.0
  1.6500000E-001  1.5000000E-002 0.0
  1.6500000E-001  2.0000000E-002 0.0
  1.6500000E-001  2.5000000E-002 0.0
  1.6500000E-001  3.0000000E-002 0.0
  1.6500000E-001  3.5000000E-002 0.0
  1.6500000E-001  4.0000000E-002 0.0
  1.6500000E-001  4.5000000E-002 0.0
  1.6500000E-001  5.0000000E-002 0.0
  1.6500000E-001  5.5000000E-002 0.0
  1.6500000E-001  6.0000000E-002 0.0
  1.6500000E-001  6.5000000E-002 0.0
  1.6500000E-001  7.0000000E-002 0.0
  1.6500000E-001  7.5000000E-002 0.0
  1.6500000E-001  8.0000000E-002 0.0
  1.6500000E-001  8.5000000E-002 0.0
  1.6500000E-001  9.0000000E-002 0.0
  1.6500000E-001  9.5000000E-002 0.0
  1.6500000E-001  1.0000000E-001 0.0
  1.6500000E-001  1.0500000E-001 0.0
  1.6500000E-001  1.1000000E-001 0.0
  1.6500000E-001  1.1500000E-001 0.0
  1.6500000E-001  1.2000000E-001 0.0
  1.6500000E-001  1.2500000E-001 0.0
  1.6500000E-001  1.3000000E-001 0.0
  1.6500000E-001  1.3500000E-001 0.0
  1.6500000E-001  1.4000000E-001 0.0
  1.6500000E-001  1.4500000E-001 0.0
  1.6500000E-001  1.5000000E-001 0.0
  1.6500000E-001  1.5500000E-001 0.0
  1.6500000E-001  1.6000000E-001 0.0
  1.6500000E-001  1.6500000E-001 0.0
  1.7000000E-001 -1.2000000E-001 0.0
  1.7000000E-001 -1.1500000E-001 0.0
  1.7000000E-001 -1.1000000E-001 0.0
  1.7000000E-001 -1.0500000E-001 0.0
  1.7000000E-001 -1.0000000E-001 0.0
  1.7000000E-001 -9.5000000E-002 0.0
  1.7000000E-001 -9.0000000E-002 0.0
  1.7000000E-001 -8.5000000E-002 0.0
  1.7000000E-001 -8.0000000E-002 0.0
  1.7000000E-001 -7.5000000E-002 0.0
  1.7000000E-001 -7.0000000E-002 0.0
  1.7000000E-001 -6.5000000E-002 0.0
  1.7000000E-001 -6.0000000E-002 0.0
  1.7000000E-001 -5.5000000E-002 0.0
  1.7000000E-001 -5.0000000E-002 0.0
  1.7000000E-001 -4.5000000E-002 0.0
  1.7000000E-001 -4.0000000E-002 0.0
  1.7000000E-001 -3.5000000E-002 0.0
  1.7000000E-001 -3.0000000E-002 0.0
  1.7000000E-001 -2.5000000E-002 0.0
  1.7000000E-001 -2.0000000E-002 0.0
  1.7000000E-001 -1.5000000E-002 0.0
  1.7000000E-001 -1.0000000E-002 0.0
  1.7000000E-001 -5.0000000E-003 0.0
  1.7000000E-001  0.0000000E+000 0.0
  1.7000000E-001  5.0000000E-003 0.0
  1.7000000E-001  1.0000000E-002 0.0
  1.7000000E-001  1.5000000E-002 0.0
  1.7000000E-001  2.0000000E-002 0.0
  1.7000000E-001  2.5000000E-002 0.0
  1.7000000E-001  3.0000000E-002 0.0
  1.7000000E-001  3.5000000E-002 0.0
  1.7000000E-001  4.0000000E-002 0.0
  1.7000000E-001  4.5000000E-002 0.0
  1.7000000E-001  5.0000000E-002 0.0
  1.7000000E-001  5.5000000E-002 0.0
  1.7000000E-001  6.0000000E-002 0.0
  1.7000000E-001  6.5000000E-002 0.0
  1.7000000E-001  7.0000000E-002 0.0
  1.7000000E-001  7.5000000E-002 0.0
  1.7000000E-001  8.0000000E-002 0.0
  1.7000000E-001  8.5000000E-002 0.0
  1.7000000E-001  9.0000000E-002 0.0
  1.7000000E-001  9.5000000E-002 0.0
  1.7000000E-001  1.0000000E-001 0.0
  1.7000000E-001  1.0500000E-001 0.0
  1.7000000E-001  1.1000000E-001 0.0
  1.7000000E-001  1.1500000E-001 0.0
  1.7000000E-001  1.2000000E-001 0.0
  1.7000000E-001  1.2500000E-001 0.0
  1.7000000E-001  1.3000000E-001 0.0
  1.7000000E-001  1.3500000E-001 0.0
  1.7000000E-001  1.4000000E-001 0.0
  1.7000000E-001  1.4500000E-001 0.0
  1.7000000E-001  1.5000000E-001 0.0
  1.7000000E-001  1.5500000E-001 0.0
  1.7000000E-001  1.6000000E-001 0.0
  1.7000000E-001  1.6500000E-001 0.0
  1.7500000E-001 -1.2000000E-001 0.0
  1.7500000E-001 -1.1500000E-001 0.0
  1.7500000E-001 -1.1000000E-001 0.0
  1.7500000E-001 -1.0500000E-001 0.0
  1.7500000E-001 -1.0000000E-001 0.0
  1.7500000E-001 -9.5000000E-002 0.0
  1.7500000E-001 -9.0000000E-002 0.0
  1.7500000E-001 -8.5000000E-002 0.0
  1.7500000E-001 -8.0000000E-002 0.0
  1.7500000E-001 -7.5000000E-002 0.0
  1.7500000E-001 -7.0000000E-002 0.0
  1.7500000E-001 -6.5000000E-002 0.0
  1.7500000E-001 -6.0000000E-002 0.0
  1.7500000E-001 -5.5000000E-002 0.0
  1.7500000E-001 -5.0000000E-002 0.0
  1.7500000E-001 -4.5000000E-002 0.0
  1.7500000E-001 -4.0000000E-002 0.0
  1.7500000E-001 -3.5000000E-002 0.0
  1.7500000E-001 -3.0000000E-002 0.0
  1.7500000E-001 -2.5000000E-002 0.0
  1.7500000E-001 -2.0000000E-002 0.0
  1.7500000E-001 -1.5000000E-002 0.0
  1.7500000E-001 -1.0000000E-002 0.0
  1.7500000E-001 -5.0000000E-003 0.0
  1.7500000E-001  0.0000000E+000 0.0
  1.7500000E-001  5.0000000E-003 0.0
  1.7500000E-001  1.0000000E-002 0.0
  1.7500000E-001  1.5000000E-002 0.0
  1.7500000E-001  2.0000000E-002 0.0
  1.7500000E-001  4.0000000E-002 0.0
  1.7500000E-001  4.5000000E-002 0.0
  1.7500000E-001  5.0000000E-002 0.0
  1.7500000E-001  5.5000000E-002 0.0
  1.7500000E-001  6.0000000E-002 0.0
  1.7500000E-001  6.5000000E-002 0.0
  1.7500000E-001  7.0000000E-002 0.0
  1.7500000E-001  7.5000000E-002 0.0
  1.7500000E-001  8.0000000E-002 0.0
  1.7500000E-001  8.5000000E-002 0.0
  1.7500000E-001  9.0000000E-002 0.0
  1.7500000E-001  9.5000000E-002 0.0
  1.7500000E-001  1.0000000E-001 0.0
  1.7500000E-001  1.0500000E-001 0.0
  1.7500000E-001  1.1000000E-001 0.0
  1.7500000E-001  1.1500000E-001 0.0
  1.7500000E-001  1.2000000E-001 0.0
  1.7500000E-001  1.2500000E-001 0.0
  1.7500000E-001  1.3000000E-001 0.0
  1.7500000E-001  1.3500000E-001 0.0
  1.7500000E-001  1.4000000E-001 0.0
  1.7500000E-001  1.4500000E-001 0.0
  1.7500000E-001  1.5000000E-001 0.0
  1.7500000E-001  1.5500000E-001 0.0
  1.7500000E-001  1.6000000E-001 0.0
  1.8000000E-001 -1.2000000E-001 0.0
  1.8000000E-001 -1.1500000E-001 0.0
  1.8000000E-001 -1.1000000E-001 0.0
  1.8000000E-001 -1.0500000E-001 0.0
  1.8000000E-001 -1.0000000E-001 0.0
  1.8000000E-001 -9.5000000E-002 0.0
  1.8000000E-001 -9.0000000E-002 0.0
  1.8000000E-001 -8.5000000E-002 0.0
  1.8000000E-001 -8.0000000E-002 0.0
  1.8000000E-001 -7.5000000E-002 0.0
  1.8000000E-001 -7.0000000E-002 0.0
  1.8000000E-001 -6.5000000E-002 0.0
  1.8000000E-001 -6.0000000E-002 0.0
  1.8000000E-001 -5.5000000E-002 0.0
  1.8000000E-001 -5.0000000E-002 0.0
  1.8000000E-001 -4.5000000E-002 0.0
  1.8000000E-001 -4.0000000E-002 0.0
  1.8000000E-001 -3.5000000E-002 0.0
  1.8000000E-001 -3.0000000E-002 0.0
  1.8000000E-001 -2.5000000E-002 0.0
  1.8000000E-001 -2.0000000E-002 0.0
  1.8000000E-001 -1.5000000E-002 0.0
  1.8000000E-001 -1.0000000E-002 0.0
  1.8000000E-001 -5.0000000E-003 0.0
  1.8000000E-001  0.0000000E+000 0.0
  1.8000000E-001  5.0000000E-003 0.0
  1.8000000E-001  5.0000000E-002 0.0
  1.8000000E-001  5.5000000E-002 0.0
  1.8000000E-001  6.0000000E-002 0.0
  1.8000000E-001  6.5000000E-002 0.0
  1.8000000E-001  7.0000000E-002 0.0
  1.8000000E-001  7.5000000E-002 0.0
  1.8000000E-001  8.0000000E-002 0.0
  1.8000000E-001  8.5000000E-002 0.0
  1.8000000E-001  9.0000000E-002 0.0
  1.8000000E-001  9.5000000E-002 0.0
  1.8000000E-001  1.0000000E-001 0.0
  1.8000000E-001  1.0500000E-001 0.0
  1.8000000E-001  1.1000000E-001 0.0
  1.8000000E-001  1.1500000E-001 0.0
  1.8000000E-001  1.2000000E-001 0.0
  1.8000000E-001  1.2500000E-001 0.0
  1.8000000E-001  1.3000000E-001 0.0
  1.8000000E-001  1.3500000E-001 0.0
  1.8000000E-001  1.4000000E-001 0.0
  1.8000000E-001  1.4500000E-001 0.0
  1.8000000E-001  1.5000000E-001 0.0
  1.8000000E-001  1.5500000E-001 0.0
  1.8000000E-001  1.6000000E-001 0.0
  1.8500000E-001 -1.2000000E-001 0.0
  1.8500000E-001 -1.1500000E-001 0.0
  1.8500000E-001 -1.1000000E-001 0.0
  1.8500000E-001 -1.0500000E-001 0.0
  1.8500000E-001 -1.0000000E-001 0.0
  1.8500000E-001 -9.5000000E-002 0.0
  1.8500000E-001 -9.0000000E-002 0.0
  1.8500000E-001 -8.5000000E-002 0.0
  1.8500000E-001 -8.0000000E-002 0.0
  1.8500000E-001 -7.5000000E-002 0.0
  1.8500000E-001 -7.0000000E-002 0.0
  1.8500000E-001 -6.5000000E-002 0.0
  1.8500000E-001 -6.0000000E-002 0.0
  1.8500000E-001 -5.5000000E-002 0.0
  1.8500000E-001 -5.0000000E-002 0.0
  1.8500000E-001 -4.5000000E-002 0.0
  1.8500000E-001 -4.0000000E-002 0.0
  1.8500000E-001 -3.5000000E-002 0.0
  1.8500000E-001 -3.0000000E-002 0.0
  1.8500000E-001 -2.5000000E-002 0.0
  1.8500000E-001 -2.0000000E-002 0.0
  1.8500000E-001 -1.5000000E-002 0.0
  1.8500000E-001 -1.0000000E-002 0.0
  1.8500000E-001 -5.0000000E-003 0.0
  1.8500000E-001  0.0000000E+000 0.0
  1.8500000E-001  5.5000000E-002 0.0
  1.8500000E-001  6.0000000E-002 0.0
  1.8500000E-001  6.5000000E-002 0.0
  1.8500000E-001  7.0000000E-002 0.0
  1.8500000E-001  7.5000000E-002 0.0
  1.8500000E-001  8.0000000E-002 0.0
  1.8500000E-001  8.5000000E-002 0.0
  1.8500000E-001  9.0000000E-002 0.0
  1.8500000E-001  9.5000000E-002 0.0
  1.8500000E-001  1.0000000E-001 0.0
  1.8500000E-001  1.0500000E-001 0.0
  1.8500000E-001  1.1000000E-001 0.0
  1.8500000E-001  1.1500000E-001 0.0
  1.8500000E-001  1.2000000E-001 0.0
  1.8500000E-001  1.2500000E-001 0.0
  1.8500000E-001  1.3000000E-001 0.0
  1.8500000E-001  1.3500000E-001 0.0
  1.8500000E-001  1.4000000E-001 0.0
  1.8500000E-001  1.4500000E-001 0.0
  1.8500000E-001  1.5000000E-001 0.0
  1.8500000E-001  1.5500000E-001 0.0
  1.8500000E-001  1.6000000E-001 0.0
  1.9000000E-001 -1.2000000E-001 0.0
  1.9000000E-001 -1.1500000E-001 0.0
  1.9000000E-001 -1.1000000E-001 0.0
  1.9000000E-001 -1.0500000E-001 0.0
  1.9000000E-001 -1.0000000E-001 0.0
  1.9000000E-001 -9.5000000E-002 0.0
  1.9000000E-001 -9.0000000E-002 0.0
  1.9000000E-001 -8.5000000E-002 0.0
  1.9000000E-001 -8.0000000E-002 0.0
  1.9000000E-001 -7.5000000E-002 0.0
  1.9000000E-001 -7.0000000E-002 0.0
  1.9000000E-001 -6.5000000E-002 0.0
  1.9000000E-001 -6.0000000E-002 0.0
  1.9000000E-001 -5.5000000E-002 0.0
  1.9000000E-001 -5.0000000E-002 0.0
  1.9000000E-001 -4.5000000E-002 0.0
  1.9000000E-001 -4.0000000E-002 0.0
  1.9000000E-001 -3.5000000E-002 0.0
  1.9000000E-001 -3.0000000E-002 0.0
  1.9000000E-001 -2.5000000E-002 0.0
  1.9000000E-001 -2.0000000E-002 0.0
  1.9000000E-001 -1.5000000E-002 0.0
  1.9000000E-001 -1.0000000E-002 0.0
  1.9000000E-001 -5.0000000E-003 0.0
  1.9000000E-001  0.0000000E+000 0.0
  1.9000000E-001  6.0000000E-002 0.0
  1.9000000E-001  6.5000000E-002 0.0
  1.9000000E-001  7.0000000E-002 0.0
  1.9000000E-001  7.5000000E-002 0.0
  1.9000000E-001  8.0000000E-002 0.0
  1.9000000E-001  8.5000000E-002 0.0
  1.9000000E-001  9.0000000E-002 0.0
  1.9000000E-001  9.5000000E-002 0.0
  1.9000000E-001  1.0000000E-001 0.0
  1.9000000E-001  1.0500000E-001 0.0
  1.9000000E-001  1.1000000E-001 0.0
  1.9000000E-001  1.1500000E-001 0.0
  1.9000000E-001  1.2000000E-001 0.0
  1.9000000E-001  1.2500000E-001 0.0
  1.9000000E-001  1.3000000E-001 0.0
  1.9000000E-001  1.3500000E-001 0.0
  1.9000000E-001  1.4000000E-001 0.0
  1.9000000E-001  1.4500000E-001 0.0
  1.9000000E-001  1.5000000E-001 0.0
  1.9000000E-001  1.5500000E-001 0.0
  1.9000000E-001  1.6000000E-001 0.0
  1.9500000E-001 -1.2000000E-001 0.0
  1.9500000E-001 -1.1500000E-001 0.0
  1.9500000E-001 -1.1000000E-001 0.0
  1.9500000E-001 -1.0500000E-001 0.0
  1.9500000E-001 -1.0000000E-001 0.0
  1.9500000E-001 -9.5000000E-002 0.0
  1.9500000E-001 -9.0000000E-002 0.0
  1.9500000E-001 -8.5000000E-002 0.0
  1.9500000E-001 -8.0000000E-002 0.0
  1.9500000E-001 -7.5000000E-002 0.0
  1.9500000E-001 -7.0000000E-002 0.0
  1.9500000E-001 -6.5000000E-002 0.0
  1.9500000E-001 -6.0000000E-002 0.0
  1.9500000E-001 -5.5000000E-002 0.0
  1.9500000E-001 -5.0000000E-002 0.0
  1.9500000E-001 -4.5000000E-002 0.0
  1.9500000E-001 -4.0000000E-002 0.0
  1.9500000E-001 -3.5000000E-002 0.0
  1.9500000E-001 -3.0000000E-002 0.0
  1.9500000E-001 -2.5000000E-002 0.0
  1.9500000E-001 -2.0000000E-002 0.0
  1.9500000E-001 -1.5000000E-002 0.0
  1.9500000E-001 -1.0000000E-002 0.0
  1.9500000E-001 -5.0000000E-003 0.0
  1.9500000E-001  0.0000000E+000 0.0
  1.9500000E-001  6.5000000E-002 0.0
  1.9500000E-001  7.0000000E-002 0.0
  1.9500000E-001  7.5000000E-002 0.0
  1.9500000E-001  8.0000000E-002 0.0
  1.9500000E-001  8.5000000E-002 0.0
  1.9500000E-001  9.0000000E-002 0.0
  1.9500000E-001  9.5000000E-002 0.0
  1.9500000E-001  1.0000000E-001 0.0
  1.9500000E-001  1.0500000E-001 0.0
  1.9500000E-001  1.1000000E-001 0.0
  1.9500000E-001  1.1500000E-001 0.0
  1.9500000E-001  1.2000000E-001 0.0
  1.9500000E-001  1.2500000E-001 0.0
  1.9500000E-001  1.3000000E-001 0.0
  1.9500000E-001  1.3500000E-001 0.0
  1.9500000E-001  1.4000000E-001 0.0
  1.9500000E-001  1.4500000E-001 0.0
  1.9500000E-001  1.5000000E-001 0.0
  1.9500000E-001  1.5500000E-001 0.0
  1.9500000E-001  1.6000000E-001 0.0
  2.0000000E-001 -1.2000000E-001 0.0
  2.0000000E-001 -1.1500000E-001 0.0
  2.0000000E-001 -1.1000000E-001 0.0
  2.0000000E-001 -1.0500000E-001 0.0
  2.0000000E-001 -1.0000000E-001 0.0
  2.0000000E-001 -9.5000000E-002 0.0
  2.0000000E-001 -9.0000000E-002 0.0
  2.0000000E-001 -8.5000000E-002 0.0
  2.0000000E-001 -8.0000000E-002 0.0
  2.0000000E-001 -7.5000000E-002 0.0
  2.0000000E-001 -7.0000000E-002 0.0
  2.0000000E-001 -6.5000000E-002 0.0
  2.0000000E-001 -6.0000000E-002 0.0
  2.0000000E-001 -5.5000000E-002 0.0
  2.0000000E-001 -5.0000000E-002 0.0
  2.0000000E-001 -4.5000000E-002 0.0
  2.0000000E-001 -4.0000000E-002 0.0
  2.0000000E-001 -3.5000000E-002 0.0
  2.0000000E-001 -3.0000000E-002 0.0
  2.0000000E-001 -2.5000000E-002 0.0
  2.0000000E-001 -2.0000000E-002 0.0
  2.0000000E-001 -1.5000000E-002 0.0
  2.0000000E-001 -1.0000000E-002 0.0
  2.0000000E-001 -5.0000000E-003 0.0
  2.0000000E-001  0.0000000E+000 0.0
  2.0000000E-001  6.5000000E-002 0.0
  2.0000000E-001  7.0000000E-002 0.0
  2.0000000E-001  7.5000000E-002 0.0
  2.0000000E-001  8.0000000E-002 0.0
  2.0000000E-001  8.5000000E-002 0.0
  2.0000000E-001  9.0000000E-002 0.0
  2.0000000E-001  9.5000000E-002 0.0
  2.0000000E-001  1.0000000E-001 0.0
  2.0000000E-001  1.0500000E-001 0.0
  2.0000000E-001  1.1000000E-001 0.0
  2.0000000E-001  1.1500000E-001 0.0
  2.0000000E-001  1.2000000E-001 0.0
  2.0000000E-001  1.2500000E-001 0.0
  2.0000000E-001  1.3000000E-001 0.0
  2.0000000E-001  1.3500000E-001 0.0
  2.0000000E-001  1.4000000E-001 0.0
  2.0000000E-001  1.4500000E-001 0.0
  2.0000000E-001  1.5000000E-001 0.0
  2.0000000E-001  1.5500000E-001 0.0
  2.0000000E-001  1.6000000E-001 0.0
  2.0500000E-001 -1.2000000E-001 0.0
  2.0500000E-001 -1.1500000E-001 0.0
  2.0500000E-001 -1.1000000E-001 0.0
  2.0500000E-001 -1.0500000E-001 0.0
  2.0500000E-001 -1.0000000E-001 0.0
  2.0500000E-001 -9.5000000E-002 0.0
  2.0500000E-001 -9.0000000E-002 0.0
  2.0500000E-001 -8.5000000E-002 0.0
  2.0500000E-001 -8.0000000E-002 0.0
  2.0500000E-001 -7.5000000E-002 0.0
  2.0500000E-001 -7.0000000E-002 0.0
  2.0500000E-001 -6.5000000E-002 0.0
  2.0500000E-001 -6.0000000E-002 0.0
  2.0500000E-001 -5.5000000E-002 0.0
  2.0500000E-001 -5.0000000E-002 0.0
  2.0500000E-001 -4.5000000E-002 0.0
  2.0500000E-001 -4.0000000E-002 0.0
  2.0500000E-001 -3.5000000E-002 0.0
  2.0500000E-001 -3.0000000E-002 0.0
  2.0500000E-001 -2.5000000E-002 0.0
  2.0500000E-001 -2.0000000E-002 0.0
  2.0500000E-001 -1.5000000E-002 0.0
  2.0500000E-001 -1.0000000E-002 0.0
  2.0500000E-001 -5.0000000E-003 0.0
  2.0500000E-001  0.0000000E+000 0.0
  2.0000000E-001  6.0000000E-002 0.0
  2.0500000E-001  6.0000000E-002 0.0
  2.0500000E-001  6.5000000E-002 0.0
  2.0500000E-001  7.0000000E-002 0.0
  2.0500000E-001  7.5000000E-002 0.0
  2.0500000E-001  8.0000000E-002 0.0
  2.0500000E-001  8.5000000E-002 0.0
  2.0500000E-001  9.0000000E-002 0.0
  2.0500000E-001  9.5000000E-002 0.0
  2.0500000E-001  1.0000000E-001 0.0
  2.0500000E-001  1.0500000E-001 0.0
  2.0500000E-001  1.1000000E-001 0.0
  2.0500000E-001  1.1500000E-001 0.0
  2.0500000E-001  1.2000000E-001 0.0
  2.0500000E-001  1.2500000E-001 0.0
  2.0500000E-001  1.3000000E-001 0.0
  2.0500000E-001  1.3500000E-001 0.0
  2.0500000E-001  1.4000000E-001 0.0
  2.0500000E-001  1.4500000E-001 0.0
  2.0500000E-001  1.5000000E-001 0.0
  2.0500000E-001  1.5500000E-001 0.0
  2.0500000E-001  1.6000000E-001 0.0
  2.1000000E-001 -1.2000000E-001 0.0
  2.1000000E-001 -1.1500000E-001 0.0
  2.1000000E-001 -1.1000000E-001 0.0
  2.1000000E-001 -1.0500000E-001 0.0
  2.1000000E-001 -1.0000000E-001 0.0
  2.1000000E-001 -9.5000000E-002 0.0
  2.1000000E-001 -9.0000000E-002 0.0
  2.1000000E-001 -8.5000000E-002 0.0
  2.1000000E-001 -8.0000000E-002 0.0
  2.1000000E-001 -7.5000000E-002 0.0
  2.1000000E-001 -7.0000000E-002 0.0
  2.1000000E-001 -6.5000000E-002 0.0
  2.1000000E-001 -6.0000000E-002 0.0
  2.1000000E-001 -5.5000000E-002 0.0
  2.1000000E-001 -5.0000000E-002 0.0
  2.1000000E-001 -4.5000000E-002 0.0
  2.1000000E-001 -4.0000000E-002 0.0
  2.1000000E-001 -3.5000000E-002 0.0
  2.1000000E-001 -3.0000000E-002 0.0
  2.1000000E-001 -2.5000000E-002 0.0
  2.1000000E-001 -2.0000000E-002 0.0
  2.1000000E-001 -1.5000000E-002 0.0
  2.1000000E-001 -1.0000000E-002 0.0
  2.1000000E-001 -5.0000000E-003 0.0
  2.1000000E-001  0.0000000E+000 0.0
  2.1000000E-001  5.0000000E-003 0.0
  2.0500000E-001  5.0000000E-003 0.0
  2.1000000E-001  6.0000000E-002 0.0
  2.1000000E-001  6.5000000E-002 0.0
  2.1000000E-001  7.0000000E-002 0.0
  2.1000000E-001  7.5000000E-002 0.0
  2.1000000E-001  8.0000000E-002 0.0
  2.1000000E-001  8.5000000E-002 0.0
  2.1000000E-001  9.0000000E-002 0.0
  2.1000000E-001  9.5000000E-002 0.0
  2.1000000E-001  1.0000000E-001 0.0
  2.1000000E-001  1.0500000E-001 0.0
  2.1000000E-001  1.1000000E-001 0.0
  2.1000000E-001  1.1500000E-001 0.0
  2.1000000E-001  1.2000000E-001 0.0
  2.1000000E-001  1.2500000E-001 0.0
  2.1000000E-001  1.3000000E-001 0.0
  2.1000000E-001  1.3500000E-001 0.0
  2.1000000E-001  1.4000000E-001 0.0
  2.1000000E-001  1.4500000E-001 0.0
  2.1000000E-001  1.5000000E-001 0.0
  2.1000000E-001  1.5500000E-001 0.0
  2.1000000E-001  1.6000000E-001 0.0
  2.1500000E-001 -1.2000000E-001 0.0
  2.1500000E-001 -1.1500000E-001 0.0
  2.1500000E-001 -1.1000000E-001 0.0
  2.1500000E-001 -1.0500000E-001 0.0
  2.1500000E-001 -1.0000000E-001 0.0
  2.1500000E-001 -9.5000000E-002 0.0
  2.1500000E-001 -9.0000000E-002 0.0
  2.1500000E-001 -8.5000000E-002 0.0
  2.1500000E-001 -8.0000000E-002 0.0
  2.1500000E-001 -7.5000000E-002 0.0
  2.1500000E-001 -7.0000000E-002 0.0
  2.1500000E-001 -6.5000000E-002 0.0
  2.1500000E-001 -6.0000000E-002 0.0
  2.1500000E-001 -5.5000000E-002 0.0
  2.1500000E-001 -5.0000000E-002 0.0
  2.1500000E-001 -4.5000000E-002 0.0
  2.1500000E-001 -4.0000000E-002 0.0
  2.1500000E-001 -3.5000000E-002 0.0
  2.1500000E-001 -3.0000000E-002 0.0
  2.1500000E-001 -2.5000000E-002 0.0
  2.1500000E-001 -2.0000000E-002 0.0
  2.1500000E-001 -1.5000000E-002 0.0
  2.1500000E-001 -1.0000000E-002 0.0
  2.1500000E-001 -5.0000000E-003 0.0
  2.1500000E-001  0.0000000E+000 0.0
  2.1500000E-001  5.0000000E-003 0.0
  2.1500000E-001  1.0000000E-002 0.0
  2.1000000E-001  1.0000000E-002 0.0
  2.1500000E-001  6.0000000E-002 0.0
  2.1500000E-001  6.5000000E-002 0.0
  2.1500000E-001  7.0000000E-002 0.0
  2.1500000E-001  7.5000000E-002 0.0
  2.1500000E-001  8.0000000E-002 0.0
  2.1500000E-001  8.5000000E-002 0.0
  2.1500000E-001  9.0000000E-002 0.0
  2.1500000E-001  9.5000000E-002 0.0
  2.1500000E-001  1.0000000E-001 0.0
  2.1500000E-001  1.0500000E-001 0.0
  2.1500000E-001  1.1000000E-001 0.0
  2.1500000E-001  1.1500000E-001 0.0
  2.1500000E-001  1.2000000E-001 0.0
  2.1500000E-001  1.2500000E-001 0.0
  2.1500000E-001  1.3000000E-001 0.0
  2.1500000E-001  1.3500000E-001 0.0
  2.1500000E-001  1.4000000E-001 0.0
  2.1500000E-001  1.4500000E-001 0.0
  2.1500000E-001  1.5000000E-001 0.0
  2.1500000E-001  1.5500000E-001 0.0
  2.2000000E-001 -1.2000000E-001 0.0
  2.2000000E-001 -1.1500000E-001 0.0
  2.2000000E-001 -1.1000000E-001 0.0
  2.2000000E-001 -1.0500000E-001 0.0
  2.2000000E-001 -1.0000000E-001 0.0
  2.2000000E-001 -9.5000000E-002 0.0
  2.2000000E-001 -9.0000000E-002 0.0
  2.2000000E-001 -8.5000000E-002 0.0
  2.2000000E-001 -8.0000000E-002 0.0
  2.2000000E-001 -7.5000000E-002 0.0
  2.2000000E-001 -7.0000000E-002 0.0
  2.2000000E-001 -6.5000000E-002 0.0
  2.2000000E-001 -6.0000000E-002 0.0
  2.2000000E-001 -5.5000000E-002 0.0
  2.2000000E-001 -5.0000000E-002 0.0
  2.2000000E-001 -4.5000000E-002 0.0
  2.2000000E-001 -4.0000000E-002 0.0
  2.2000000E-001 -3.5000000E-002 0.0
  2.2000000E-001 -3.0000000E-002 0.0
  2.2000000E-001 -2.5000000E-002 0.0
  2.2000000E-001 -2.0000000E-002 0.0
  2.2000000E-001 -1.5000000E-002 0.0
  2.2000000E-001 -1.0000000E-002 0.0
  2.2000000E-001 -5.0000000E-003 0.0
  2.2000000E-001  0.0000000E+000 0.0
  2.2000000E-001  5.0000000E-003 0.0
  2.2000000E-001  1.0000000E-002 0.0
  2.2000000E-001  1.5000000E-002 0.0
  2.1500000E-001  1.5000000E-002 0.0
  2.1500000E-001  5.5000000E-002 0.0
  2.2000000E-001  5.5000000E-002 0.0
  2.2000000E-001  6.0000000E-002 0.0
  2.2000000E-001  6.5000000E-002 0.0
  2.2000000E-001  7.0000000E-002 0.0
  2.2000000E-001  7.5000000E-002 0.0
  2.2000000E-001  8.0000000E-002 0.0
  2.2000000E-001  8.5000000E-002 0.0
  2.2000000E-001  9.0000000E-002 0.0
  2.2000000E-001  9.5000000E-002 0.0
  2.2000000E-001  1.0000000E-001 0.0
  2.2000000E-001  1.0500000E-001 0.0
  2.2000000E-001  1.1000000E-001 0.0
  2.2000000E-001  1.1500000E-001 0.0
  2.2000000E-001  1.2000000E-001 0.0
  2.2000000E-001  1.2500000E-001 0.0
  2.2000000E-001  1.3000000E-001 0.0
  2.2000000E-001  1.3500000E-001 0.0
  2.2000000E-001  1.4000000E-001 0.0
  2.2000000E-001  1.4500000E-001 0.0
  2.2000000E-001  1.5000000E-001 0.0
  2.2500000E-001 -1.2000000E-001 0.0
  2.2500000E-001 -1.1500000E-001 0.0
  2.2500000E-001 -1.1000000E-001 0.0
  2.2500000E-001 -1.0500000E-001 0.0
  2.2500000E-001 -1.0000000E-001 0.0
  2.2500000E-001 -9.5000000E-002 0.0
  2.2500000E-001 -9.0000000E-002 0.0
  2.2500000E-001 -8.5000000E-002 0.0
  2.2500000E-001 -8.0000000E-002 0.0
  2.2500000E-001 -7.5000000E-002 0.0
  2.2500000E-001 -7.0000000E-002 0.0
  2.2500000E-001 -6.5000000E-002 0.0
  2.2500000E-001 -6.0000000E-002 0.0
  2.2500000E-001 -5.5000000E-002 0.0
  2.2500000E-001 -5.0000000E-002 0.0
  2.2500000E-001 -4.5000000E-002 0.0
  2.2500000E-001 -4.0000000E-002 0.0
  2.2500000E-001 -3.5000000E-002 0.0
  2.2500000E-001 -3.0000000E-002 0.0
  2.2500000E-001 -2.5000000E-002 0.0
  2.2500000E-001 -2.0000000E-002 0.0
  2.2500000E-001 -1.5000000E-002 0.0
  2.2500000E-001 -1.0000000E-002 0.0
  2.2500000E-001 -5.0000000E-003 0.0
  2.2500000E-001  0.0000000E+000 0.0
  2.2500000E-001  5.0000000E-003 0.0
  2.2500000E-001  1.0000000E-002 0.0
  2.2500000E-001  1.5000000E-002 0.0
  2.2500000E-001  2.0000000E-002 0.0
  2.2000000E-001  2.0000000E-002 0.0
  2.2500000E-001  5.5000000E-002 0.0
  2.2500000E-001  6.0000000E-002 0.0
  2.2500000E-001  6.5000000E-002 0.0
  2.2500000E-001  7.0000000E-002 0.0
  2.2500000E-001  7.5000000E-002 0.0
  2.2500000E-001  8.0000000E-002 0.0
  2.2500000E-001  8.5000000E-002 0.0
  2.2500000E-001  9.0000000E-002 0.0
  2.2500000E-001  9.5000000E-002 0.0
  2.2500000E-001  1.0000000E-001 0.0
  2.2500000E-001  1.0500000E-001 0.0
  2.2500000E-001  1.1000000E-001 0.0
  2.2500000E-001  1.1500000E-001 0.0
  2.2500000E-001  1.2000000E-001 0.0
  2.2500000E-001  1.2500000E-001 0.0
  2.2500000E-001  1.3000000E-001 0.0
  2.2500000E-001  1.3500000E-001 0.0
  2.2500000E-001  1.4000000E-001 0.0
  2.2500000E-001  1.4500000E-001 0.0
  2.2500000E-001  1.5000000E-001 0.0
  2.3000000E-001 -1.2000000E-001 0.0
  2.3000000E-001 -1.1500000E-001 0.0
  2.3000000E-001 -1.1000000E-001 0.0
  2.3000000E-001 -1.0500000E-001 0.0
  2.3000000E-001 -1.0000000E-001 0.0
  2.3000000E-001 -9.5000000E-002 0.0
  2.3000000E-001 -9.0000000E-002 0.0
  2.3000000E-001 -8.5000000E-002 0.0
  2.3000000E-001 -8.0000000E-002 0.0
  2.3000000E-001 -7.5000000E-002 0.0
  2.3000000E-001 -7.0000000E-002 0.0
  2.3000000E-001 -6.5000000E-002 0.0
  2.3000000E-001 -6.0000000E-002 0.0
  2.3000000E-001 -5.5000000E-002 0.0
  2.3000000E-001 -5.0000000E-002 0.0
  2.3000000E-001 -4.5000000E-002 0.0
  2.3000000E-001 -4.0000000E-002 0.0
  2.3000000E-001 -3.5000000E-002 0.0
  2.3000000E-001 -3.0000000E-002 0.0
  2.3000000E-001 -2.5000000E-002 0.0
  2.3000000E-001 -2.0000000E-002 0.0
  2.3000000E-001 -1.5000000E-002 0.0
  2.3000000E-001 -1.0000000E-002 0.0
  2.3000000E-001 -5.0000000E-003 0.0
  2.3000000E-001  0.0000000E+000 0.0
  2.3000000E-001  5.0000000E-003 0.0
  2.3000000E-001  1.0000000E-002 0.0
  2.3000000E-001  1.5000000E-002 0.0
  2.3000000E-001  2.0000000E-002 0.0
  2.3000000E-001  2.5000000E-002 0.0
  2.2500000E-001  2.5000000E-002 0.0
  2.2500000E-001  5.0000000E-002 0.0
  2.3000000E-001  5.0000000E-002 0.0
  2.3000000E-001  5.5000000E-002 0.0
  2.3000000E-001  6.0000000E-002 0.0
  2.3000000E-001  6.5000000E-002 0.0
  2.3000000E-001  7.0000000E-002 0.0
  2.3000000E-001  7.5000000E-002 0.0
  2.3000000E-001  8.0000000E-002 0.0
  2.3000000E-001  8.5000000E-002 0.0
  2.3000000E-001  9.0000000E-002 0.0
  2.3000000E-001  9.5000000E-002 0.0
  2.3000000E-001  1.0000000E-001 0.0
  2.3000000E-001  1.0500000E-001 0.0
  2.3000000E-001  1.1000000E-001 0.0
  2.3000000E-001  1.1500000E-001 0.0
  2.3000000E-001  1.2000000E-001 0.0
  2.3000000E-001  1.2500000E-001 0.0
  2.3000000E-001  1.3000000E-001 0.0
  2.3000000E-001  1.3500000E-001 0.0
  2.3000000E-001  1.4000000E-001 0.0
  2.3000000E-001  1.4500000E-001 0.0
  2.3500000E-001 -1.2000000E-001 0.0
  2.3500000E-001 -1.1500000E-001 0.0
  2.3500000E-001 -1.1000000E-001 0.0
  2.3500000E-001 -1.0500000E-001 0.0
  2.3500000E-001 -1.0000000E-001 0.0
  2.3500000E-001 -9.5000000E-002 0.0
  2.3500000E-001 -9.0000000E-002 0.0
  2.3500000E-001 -8.5000000E-002 0.0
  2.3500000E-001 -8.0000000E-002 0.0
  2.3500000E-001 -7.5000000E-002 0.0
  2.3500000E-001 -7.0000000E-002 0.0
  2.3500000E-001 -6.5000000E-002 0.0
  2.3500000E-001 -6.0000000E-002 0.0
  2.3500000E-001 -5.5000000E-002 0.0
  2.3500000E-001 -5.0000000E-002 0.0
  2.3500000E-001 -4.5000000E-002 0.0
  2.3500000E-001 -4.0000000E-002 0.0
  2.3500000E-001 -3.5000000E-002 0.0
  2.3500000E-001 -3.0000000E-002 0.0
  2.3500000E-001 -2.5000000E-002 0.0
  2.3500000E-001 -2.0000000E-002 0.0
  2.3500000E-001 -1.5000000E-002 0.0
  2.3500000E-001 -1.0000000E-002 0.0
  2.3500000E-001 -5.0000000E-003 0.0
  2.3500000E-001  0.0000000E+000 0.0
  2.3500000E-001  5.0000000E-003 0.0
  2.3500000E-001  1.0000000E-002 0.0
  2.3500000E-001  1.5000000E-002 0.0
  2.3500000E-001  2.0000000E-002 0.0
  2.3500000E-001  2.5000000E-002 0.0
  2.3500000E-001  3.0000000E-002 0.0
  2.3000000E-001  3.0000000E-002 0.0
  2.3500000E-001  3.5000000E-002 0.0
  2.3000000E-001  3.5000000E-002 0.0
  2.3500000E-001  4.0000000E-002 0.0
  2.3000000E-001  4.0000000E-002 0.0
  2.3500000E-001  4.5000000E-002 0.0
  2.3000000E-001  4.5000000E-002 0.0
  2.3500000E-001  5.0000000E-002 0.0
  2.3500000E-001  5.5000000E-002 0.0
  2.3500000E-001  6.0000000E-002 0.0
  2.3500000E-001  6.5000000E-002 0.0
  2.3500000E-001  7.0000000E-002 0.0
  2.3500000E-001  7.5000000E-002 0.0
  2.3500000E-001  8.0000000E-002 0.0
  2.3500000E-001  8.5000000E-002 0.0
  2.3500000E-001  9.0000000E-002 0.0
  2.3500000E-001  9.5000000E-002 0.0
  2.3500000E-001  1.0000000E-001 0.0
  2.3500000E-001  1.0500000E-001 0.0
  2.3500000E-001  1.1000000E-001 0.0
  2.3500000E-001  1.1500000E-001 0.0
  2.3500000E-001  1.2000000E-001 0.0
  2.3500000E-001  1.2500000E-001 0.0
  2.3500000E-001  1.3000000E-001 0.0
  2.3500000E-001  1.3500000E-001 0.0
  2.3500000E-001  1.4000000E-001 0.0
  2.3500000E-001  1.4500000E-001 0.0
  2.4000000E-001 -1.2000000E-001 0.0
  2.4000000E-001 -1.1500000E-001 0.0
  2.4000000E-001 -1.1000000E-001 0.0
  2.4000000E-001 -1.0500000E-001 0.0
  2.4000000E-001 -1.0000000E-001 0.0
  2.4000000E-001 -9.5000000E-002 0.0
  2.4000000E-001 -9.0000000E-002 0.0
  2.4000000E-001 -8.5000000E-002 0.0
  2.4000000E-001 -8.0000000E-002 0.0
  2.4000000E-001 -7.5000000E-002 0.0
  2.4000000E-001 -7.0000000E-002 0.0
  2.4000000E-001 -6.5000000E-002 0.0
  2.4000000E-001 -6.0000000E-002 0.0
  2.4000000E-001 -5.5000000E-002 0.0
  2.4000000E-001 -5.0000000E-002 0.0
  2.4000000E-001 -4.5000000E-002 0.0
  2.4000000E-001 -4.0000000E-002 0.0
  2.4000000E-001 -3.5000000E-002 0.0
  2.4000000E-001 -3.0000000E-002 0.0
  2.4000000E-001 -2.5000000E-002 0.0
  2.4000000E-001 -2.0000000E-002 0.0
  2.4000000E-001 -1.5000000E-002 0.0
  2.4000000E-001 -1.0000000E-002 0.0
  2.4000000E-001 -5.0000000E-003 0.0
  2.4000000E-001  0.0000000E+000 0.0
  2.4000000E-001  5.0000000E-003 0.0
  2.4000000E-001  1.0000000E-002 0.0
  2.4000000E-001  1.5000000E-002 0.0
  2.4000000E-001  2.0000000E-002 0.0
  2.4000000E-001  2.5000000E-002 0.0
  2.4000000E-001  3.0000000E-002 0.0
  2.4000000E-001  3.5000000E-002 0.0
  2.4000000E-001  4.0000000E-002 0.0
  2.4000000E-001  4.5000000E-002 0.0
  2.4000000E-001  5.0000000E-002 0.0
  2.4000000E-001  5.5000000E-002 0.0
  2.4000000E-001  6.0000000E-002 0.0
  2.4000000E-001  6.5000000E-002 0.0
  2.4000000E-001  7.0000000E-002 0.0
  2.4000000E-001  7.5000000E-002 0.0
  2.4000000E-001  8.0000000E-002 0.0
  2.4000000E-001  8.5000000E-002 0.0
  2.4000000E-001  9.0000000E-002 0.0
  2.4000000E-001  9.5000000E-002 0.0
  2.4000000E-001  1.0000000E-001 0.0
  2.4000000E-001  1.0500000E-001 0.0
  2.4000000E-001  1.1000000E-001 0.0
  2.4000000E-001  1.1500000E-001 0.0
  2.4000000E-001  1.2000000E-001 0.0
  2.4000000E-001  1.2500000E-001 0.0
  2.4000000E-001  1.3000000E-001 0.0
  2.4000000E-001  1.3500000E-001 0.0
  2.4000000E-001  1.4000000E-001 0.0
  2.4000000E-001  1.4500000E-001 0.0
  2.4000000E-001  1.5000000E-001 0.0
  2.3500000E-001  1.5000000E-001 0.0
  2.4500000E-001 -1.2000000E-001 0.0
  2.4500000E-001 -1.1500000E-001 0.0
  2.4500000E-001 -1.1000000E-001 0.0
  2.4500000E-001 -1.0500000E-001 0.0
  2.4500000E-001 -1.0000000E-001 0.0
  2.4500000E-001 -9.5000000E-002 0.0
  2.4500000E-001 -9.0000000E-002 0.0
  2.4500000E-001 -8.5000000E-002 0.0
  2.4500000E-001 -8.0000000E-002 0.0
  2.4500000E-001 -7.5000000E-002 0.0
  2.4500000E-001 -7.0000000E-002 0.0
  2.4500000E-001 -6.5000000E-002 0.0
  2.4500000E-001 -6.0000000E-002 0.0
  2.4500000E-001 -5.5000000E-002 0.0
  2.4500000E-001 -5.0000000E-002 0.0
  2.4500000E-001 -4.5000000E-002 0.0
  2.4500000E-001 -4.0000000E-002 0.0
  2.4500000E-001 -3.5000000E-002 0.0
  2.4500000E-001 -3.0000000E-002 0.0
  2.4500000E-001 -2.5000000E-002 0.0
  2.4500000E-001 -2.0000000E-002 0.0
  2.4500000E-001 -1.5000000E-002 0.0
  2.4500000E-001 -1.0000000E-002 0.0
  2.4500000E-001 -5.0000000E-003 0.0
  2.4500000E-001  0.0000000E+000 0.0
  2.4500000E-001  5.0000000E-003 0.0
  2.4500000E-001  1.0000000E-002 0.0
  2.4500000E-001  1.5000000E-002 0.0
  2.4500000E-001  2.0000000E-002 0.0
  2.4500000E-001  2.5000000E-002 0.0
  2.4500000E-001  3.0000000E-002 0.0
  2.4500000E-001  3.5000000E-002 0.0
  2.4500000E-001  4.0000000E-002 0.0
  2.4500000E-001  4.5000000E-002 0.0
  2.4500000E-001  5.0000000E-002 0.0
  2.4500000E-001  5.5000000E-002 0.0
  2.4500000E-001  6.0000000E-002 0.0
  2.4500000E-001  6.5000000E-002 0.0
  2.4500000E-001  7.0000000E-002 0.0
  2.4500000E-001  7.5000000E-002 0.0
  2.4500000E-001  8.0000000E-002 0.0
  2.4500000E-001  8.5000000E-002 0.0
  2.4500000E-001  9.0000000E-002 0.0
  2.4500000E-001  9.5000000E-002 0.0
  2.4500000E-001  1.0000000E-001 0.0
  2.4500000E-001  1.0500000E-001 0.0
  2.4500000E-001  1.1000000E-001 0.0
  2.4500000E-001  1.1500000E-001 0.0
  2.4500000E-001  1.2000000E-001 0.0
  2.4500000E-001  1.2500000E-001 0.0
  2.4500000E-001  1.3000000E-001 0.0
  2.4500000E-001  1.3500000E-001 0.0
  2.4500000E-001  1.4000000E-001 0.0
  2.4500000E-001  1.4500000E-001 0.0
  2.4500000E-001  1.5000000E-001 0.0
  2.5000000E-001 -1.2000000E-001 0.0
  2.5000000E-001 -1.1500000E-001 0.0
  2.5000000E-001 -1.1000000E-001 0.0
  2.5000000E-001 -1.0500000E-001 0.0
  2.5000000E-001 -1.0000000E-001 0.0
  2.5000000E-001 -9.5000000E-002 0.0
  2.5000000E-001 -9.0000000E-002 0.0
  2.5000000E-001 -8.5000000E-002 0.0
  2.5000000E-001 -8.0000000E-002 0.0
  2.5000000E-001 -7.5000000E-002 0.0
  2.5000000E-001 -7.0000000E-002 0.0
  2.5000000E-001 -6.5000000E-002 0.0
  2.5000000E-001 -6.0000000E-002 0.0
  2.5000000E-001 -5.5000000E-002 0.0
  2.5000000E-001 -5.0000000E-002 0.0
  2.5000000E-001 -4.5000000E-002 0.0
  2.5000000E-001 -4.0000000E-002 0.0
  2.5000000E-001 -3.5000000E-002 0.0
  2.5000000E-001 -3.0000000E-002 0.0
  2.5000000E-001 -2.5000000E-002 0.0
  2.5000000E-001 -2.0000000E-002 0.0
  2.5000000E-001 -1.5000000E-002 0.0
  2.5000000E-001 -1.0000000E-002 0.0
  2.5000000E-001 -5.0000000E-003 0.0
  2.5000000E-001  0.0000000E+000 0.0
  2.5000000E-001  5.0000000E-003 0.0
  2.5000000E-001  1.0000000E-002 0.0
  2.5000000E-001  1.5000000E-002 0.0
  2.5000000E-001  2.0000000E-002 0.0
  2.5000000E-001  2.5000000E-002 0.0
  2.5000000E-001  3.0000000E-002 0.0
  2.5000000E-001  3.5000000E-002 0.0
  2.5000000E-001  4.0000000E-002 0.0
  2.5000000E-001  4.5000000E-002 0.0
  2.5000000E-001  5.0000000E-002 0.0
  2.5000000E-001  5.5000000E-002 0.0
  2.5000000E-001  6.0000000E-002 0.0
  2.5000000E-001  6.5000000E-002 0.0
  2.5000000E-001  7.0000000E-002 0.0
  2.5000000E-001  7.5000000E-002 0.0
  2.5000000E-001  8.0000000E-002 0.0
  2.5000000E-001  8.5000000E-002 0.0
  2.5000000E-001  9.0000000E-002 0.0
  2.5000000E-001  9.5000000E-002 0.0
  2.5000000E-001  1.0000000E-001 0.0
  2.5000000E-001  1.0500000E-001 0.0
  2.5000000E-001  1.1000000E-001 0.0
  2.5000000E-001  1.1500000E-001 0.0
  2.5000000E-001  1.2000000E-001 0.0
  2.5000000E-001  1.2500000E-001 0.0
  2.5000000E-001  1.3000000E-001 0.0
  2.5000000E-001  1.3500000E-001 0.0
  2.5000000E-001  1.4000000E-001 0.0
  2.5000000E-001  1.4500000E-001 0.0
  2.5000000E-001  1.5000000E-001 0.0
  2.5500000E-001 -1.2000000E-001 0.0
  2.5500000E-001 -1.1500000E-001 0.0
  2.5500000E-001 -1.1000000E-001 0.0
  2.5500000E-001 -1.0500000E-001 0.0
  2.5500000E-001 -1.0000000E-001 0.0
  2.5500000E-001 -9.5000000E-002 0.0
  2.5500000E-001 -9.0000000E-002 0.0
  2.5500000E-001 -8.5000000E-002 0.0
  2.5500000E-001 -8.0000000E-002 0.0
  2.5500000E-001 -7.5000000E-002 0.0
  2.5500000E-001 -7.0000000E-002 0.0
  2.5500000E-001 -6.5000000E-002 0.0
  2.5500000E-001 -6.0000000E-002 0.0
  2.5500000E-001 -5.5000000E-002 0.0
  2.5500000E-001 -5.0000000E-002 0.0
  2.5500000E-001 -4.5000000E-002 0.0
  2.5500000E-001 -4.0000000E-002 0.0
  2.5500000E-001 -3.5000000E-002 0.0
  2.5500000E-001 -3.0000000E-002 0.0
  2.5500000E-001 -2.5000000E-002 0.0
  2.5500000E-001 -2.0000000E-002 0.0
  2.5500000E-001 -1.5000000E-002 0.0
  2.5500000E-001 -1.0000000E-002 0.0
  2.5500000E-001 -5.0000000E-003 0.0
  2.5500000E-001  0.0000000E+000 0.0
  2.5500000E-001  5.0000000E-003 0.0
  2.5500000E-001  1.0000000E-002 0.0
  2.5500000E-001  1.5000000E-002 0.0
  2.5500000E-001  2.0000000E-002 0.0
  2.5500000E-001  2.5000000E-002 0.0
  2.5500000E-001  3.0000000E-002 0.0
  2.5500000E-001  3.5000000E-002 0.0
  2.5500000E-001  4.0000000E-002 0.0
  2.5500000E-001  4.5000000E-002 0.0
  2.5500000E-001  5.0000000E-002 0.0
  2.5500000E-001  5.5000000E-002 0.0
  2.5500000E-001  6.0000000E-002 0.0
  2.5500000E-001  6.5000000E-002 0.0
  2.5500000E-001  7.0000000E-002 0.0
  2.5500000E-001  7.5000000E-002 0.0
  2.5500000E-001  8.0000000E-002 0.0
  2.5500000E-001  8.5000000E-002 0.0
  2.5500000E-001  9.0000000E-002 0.0
  2.5500000E-001  9.5000000E-002 0.0
  2.5500000E-001  1.0000000E-001 0.0
  2.5500000E-001  1.0500000E-001 0.0
  2.5500000E-001  1.1000000E-001 0.0
  2.5500000E-001  1.1500000E-001 0.0
  2.5500000E-001  1.2000000E-001 0.0
  2.5500000E-001  1.2500000E-001 0.0
  2.5500000E-001  1.3000000E-001 0.0
  2.5500000E-001  1.3500000E-001 0.0
  2.5500000E-001  1.4000000E-001 0.0
  2.5500000E-001  1.4500000E-001 0.0
  2.5500000E-001  1.5000000E-001 0.0
  2.6000000E-001 -1.2000000E-001 0.0
  2.6000000E-001 -1.1500000E-001 0.0
  2.6000000E-001 -1.1000000E-001 0.0
  2.6000000E-001 -1.0500000E-001 0.0
  2.6000000E-001 -1.0000000E-001 0.0
  2.6000000E-001 -9.5000000E-002 0.0
  2.6000000E-001 -9.0000000E-002 0.0
  2.6000000E-001 -8.5000000E-002 0.0
  2.6000000E-001 -8.0000000E-002 0.0
  2.6000000E-001 -7.5000000E-002 0.0
  2.6000000E-001 -7.0000000E-002 0.0
  2.6000000E-001 -6.5000000E-002 0.0
  2.6000000E-001 -6.0000000E-002 0.0
  2.6000000E-001 -5.5000000E-002 0.0
  2.6000000E-001 -5.0000000E-002 0.0
  2.6000000E-001 -4.5000000E-002 0.0
  2.6000000E-001 -4.0000000E-002 0.0
  2.6000000E-001 -3.5000000E-002 0.0
  2.6000000E-001 -3.0000000E-002 0.0
  2.6000000E-001 -2.5000000E-002 0.0
  2.6000000E-001 -2.0000000E-002 0.0
  2.6000000E-001 -1.5000000E-002 0.0
  2.6000000E-001 -1.0000000E-002 0.0
  2.6000000E-001 -5.0000000E-003 0.0
  2.6000000E-001  0.0000000E+000 0.0
  2.6000000E-001  5.0000000E-003 0.0
  2.6000000E-001  1.0000000E-002 0.0
  2.6000000E-001  1.5000000E-002 0.0
  2.6000000E-001  2.0000000E-002 0.0
  2.6000000E-001  2.5000000E-002 0.0
  2.6000000E-001  3.0000000E-002 0.0
  2.6000000E-001  3.5000000E-002 0.0
  2.6000000E-001  4.0000000E-002 0.0
  2.6000000E-001  4.5000000E-002 0.0
  2.6000000E-001  5.0000000E-002 0.0
  2.6000000E-001  5.5000000E-002 0.0
  2.6000000E-001  6.0000000E-002 0.0
  2.6000000E-001  6.5000000E-002 0.0
  2.6000000E-001  7.0000000E-002 0.0
  2.6000000E-001  7.5000000E-002 0.0
  2.6000000E-001  8.0000000E-002 0.0
  2.6000000E-001  8.5000000E-002 0.0
  2.6000000E-001  9.0000000E-002 0.0
  2.6000000E-001  9.5000000E-002 0.0
  2.6000000E-001  1.0000000E-001 0.0
  2.6000000E-001  1.0500000E-001 0.0
  2.6000000E-001  1.1000000E-001 0.0
  2.6000000E-001  1.1500000E-001 0.0
  2.6000000E-001  1.2000000E-001 0.0
  2.6000000E-001  1.2500000E-001 0.0
  2.6000000E-001  1.3000000E-001 0.0
  2.6000000E-001  1.3500000E-001 0.0
  2.6000000E-001  1.4000000E-001 0.0
  2.6000000E-001  1.4500000E-001 0.0
  2.6000000E-001  1.5000000E-001 0.0
  2.6500000E-001 -1.2000000E-001 0.0
  2.6500000E-001 -1.1500000E-001 0.0
  2.6500000E-001 -1.1000000E-001 0.0
  2.6500000E-001 -1.0500000E-001 0.0
  2.6500000E-001 -1.0000000E-001 0.0
  2.6500000E-001 -9.5000000E-002 0.0
  2.6500000E-001 -9.0000000E-002 0.0
  2.6500000E-001 -8.5000000E-002 0.0
  2.6500000E-001 -8.0000000E-002 0.0
  2.6500000E-001 -7.5000000E-002 0.0
  2.6500000E-001 -7.0000000E-002 0.0
  2.6500000E-001 -6.5000000E-002 0.0
  2.6500000E-001 -6.0000000E-002 0.0
  2.6500000E-001 -5.5000000E-002 0.0
  2.6500000E-001 -5.0000000E-002 0.0
  2.6500000E-001 -4.5000000E-002 0.0
  2.6500000E-001 -4.0000000E-002 0.0
  2.6500000E-001 -3.5000000E-002 0.0
  2.6500000E-001 -3.0000000E-002 0.0
  2.6500000E-001 -2.5000000E-002 0.0
  2.6500000E-001 -2.0000000E-002 0.0
  2.6500000E-001 -1.5000000E-002 0.0
  2.6500000E-001 -1.0000000E-002 0.0
  2.6500000E-001 -5.0000000E-003 0.0
  2.6500000E-001  0.0000000E+000 0.0
  2.6500000E-001  5.0000000E-003 0.0
  2.6500000E-001  1.0000000E-002 0.0
  2.6500000E-001  1.5000000E-002 0.0
  2.6500000E-001  2.0000000E-002 0.0
  2.6500000E-001  2.5000000E-002 0.0
  2.6500000E-001  3.0000000E-002 0.0
  2.6500000E-001  3.5000000E-002 0.0
  2.6500000E-001  4.0000000E-002 0.0
  2.6500000E-001  4.5000000E-002 0.0
  2.6500000E-001  5.0000000E-002 0.0
  2.6500000E-001  5.5000000E-002 0.0
  2.6500000E-001  6.0000000E-002 0.0
  2.6500000E-001  6.5000000E-002 0.0
  2.6500000E-001  7.0000000E-002 0.0
  2.6500000E-001  7.5000000E-002 0.0
  2.6500000E-001  8.0000000E-002 0.0
  2.6500000E-001  8.5000000E-002 0.0
  2.6500000E-001  9.0000000E-002 0.0
  2.6500000E-001  9.5000000E-002 0.0
  2.6500000E-001  1.0000000E-001 0.0
  2.6500000E-001  1.0500000E-001 0.0
  2.6500000E-001  1.1000000E-001 0.0
  2.6500000E-001  1.1500000E-001 0.0
  2.6500000E-001  1.2000000E-001 0.0
  2.6500000E-001  1.2500000E-001 0.0
  2.6500000E-001  1.3000000E-001 0.0
  2.6500000E-001  1.3500000E-001 0.0
  2.6500000E-001  1.4000000E-001 0.0
  2.6500000E-001  1.4500000E-001 0.0
  2.7000000E-001 -1.2000000E-001 0.0
  2.7000000E-001 -1.1500000E-001 0.0
  2.7000000E-001 -1.1000000E-001 0.0
  2.7000000E-001 -1.0500000E-001 0.0
  2.7000000E-001 -1.0000000E-001 0.0
  2.7000000E-001 -9.5000000E-002 0.0
  2.7000000E-001 -9.0000000E-002 0.0
  2.7000000E-001 -8.5000000E-002 0.0
  2.7000000E-001 -8.0000000E-002 0.0
  2.7000000E-001 -7.5000000E-002 0.0
  2.7000000E-001 -7.0000000E-002 0.0
  2.7000000E-001 -6.5000000E-002 0.0
  2.7000000E-001 -6.0000000E-002 0.0
  2.7000000E-001 -5.5000000E-002 0.0
  2.7000000E-001 -5.0000000E-002 0.0
  2.7000000E-001 -4.5000000E-002 0.0
  2.7000000E-001 -4.0000000E-002 0.0
  2.7000000E-001 -3.5000000E-002 0.0
  2.7000000E-001 -3.0000000E-002 0.0
  2.7000000E-001 -2.5000000E-002 0.0
  2.7000000E-001 -2.0000000E-002 0.0
  2.7000000E-001 -1.5000000E-002 0.0
  2.7000000E-001 -1.0000000E-002 0.0
  2.7000000E-001 -5.0000000E-003 0.0
  2.7000000E-001  0.0000000E+000 0.0
  2.7000000E-001  5.0000000E-003 0.0
  2.7000000E-001  1.0000000E-002 0.0
  2.7000000E-001  1.5000000E-002 0.0
  2.7000000E-001  2.0000000E-002 0.0
  2.7000000E-001  2.5000000E-002 0.0
  2.7000000E-001  3.0000000E-002 0.0
  2.7000000E-001  3.5000000E-002 0.0
  2.7000000E-001  4.0000000E-002 0.0
  2.7000000E-001  4.5000000E-002 0.0
  2.7000000E-001  5.0000000E-002 0.0
  2.7000000E-001  5.5000000E-002 0.0
  2.7000000E-001  6.0000000E-002 0.0
  2.7000000E-001  6.5000000E-002 0.0
  2.7000000E-001  7.0000000E-002 0.0
  2.7000000E-001  7.5000000E-002 0.0
  2.7000000E-001  8.0000000E-002 0.0
  2.7000000E-001  8.5000000E-002 0.0
  2.7000000E-001  9.0000000E-002 0.0
  2.7000000E-001  9.5000000E-002 0.0
  2.7000000E-001  1.0000000E-001 0.0
  2.7000000E-001  1.0500000E-001 0.0
  2.7000000E-001  1.1000000E-001 0.0
  2.7000000E-001  1.1500000E-001 0.0
  2.7000000E-001  1.2000000E-001 0.0
  2.7000000E-001  1.2500000E-001 0.0
  2.7000000E-001  1.3000000E-001 0.0
  2.7000000E-001  1.3500000E-001 0.0
  2.7000000E-001  1.4000000E-001 0.0
  2.7000000E-001  1.4500000E-001 0.0
  2.7500000E-001 -1.2000000E-001 0.0
  2.7500000E-001 -1.1500000E-001 0.0
  2.7500000E-001 -1.1000000E-001 0.0
  2.7500000E-001 -1.0500000E-001 0.0
  2.7500000E-001 -1.0000000E-001 0.0
  2.7500000E-001 -9.5000000E-002 0.0
  2.7500000E-001 -9.0000000E-002 0.0
  2.7500000E-001 -8.5000000E-002 0.0
  2.7500000E-001 -8.0000000E-002 0.0
  2.7500000E-001 -7.5000000E-002 0.0
  2.7500000E-001 -7.0000000E-002 0.0
  2.7500000E-001 -6.5000000E-002 0.0
  2.7500000E-001 -6.0000000E-002 0.0
  2.7500000E-001 -5.5000000E-002 0.0
  2.7500000E-001 -5.0000000E-002 0.0
  2.7500000E-001 -4.5000000E-002 0.0
  2.7500000E-001 -4.0000000E-002 0.0
  2.7500000E-001 -3.5000000E-002 0.0
  2.7500000E-001 -3.0000000E-002 0.0
  2.7500000E-001 -2.5000000E-002 0.0
  2.7500000E-001 -2.0000000E-002 0.0
  2.7500000E-001 -1.5000000E-002 0.0
  2.7500000E-001 -1.0000000E-002 0.0
  2.7500000E-001 -5.0000000E-003 0.0
  2.7500000E-001  0.0000000E+000 0.0
  2.7500000E-001  5.0000000E-003 0.0
  2.7500000E-001  1.0000000E-002 0.0
  2.7500000E-001  1.5000000E-002 0.0
  2.7500000E-001  2.0000000E-002 0.0
  2.7500000E-001  2.5000000E-002 0.0
  2.7500000E-001  3.0000000E-002 0.0
  2.7500000E-001  3.5000000E-002 0.0
  2.7500000E-001  4.0000000E-002 0.0
  2.7500000E-001  4.5000000E-002 0.0
  2.7500000E-001  5.0000000E-002 0.0
  2.7500000E-001  5.5000000E-002 0.0
  2.7500000E-001  6.0000000E-002 0.0
  2.7500000E-001  6.5000000E-002 0.0
  2.7500000E-001  7.0000000E-002 0.0
  2.7500000E-001  7.5000000E-002 0.0
  2.7500000E-001  8.0000000E-002 0.0
  2.7500000E-001  8.5000000E-002 0.0
  2.7500000E-001  9.0000000E-002 0.0
  2.7500000E-001  9.5000000E-002 0.0
  2.7500000E-001  1.0000000E-001 0.0
  2.7500000E-001  1.0500000E-001 0.0
  2.7500000E-001  1.1000000E-001 0.0
  2.7500000E-001  1.1500000E-001 0.0
  2.7500000E-001  1.2000000E-001 0.0
  2.7500000E-001  1.2500000E-001 0.0
  2.7500000E-001  1.3000000E-001 0.0
  2.7500000E-001  1.3500000E-001 0.0
  2.7500000E-001  1.4000000E-001 0.0
  2.7500000E-001  1.4500000E-001 0.0
  2.8000000E-001 -1.2000000E-001 0.0
  2.8000000E-001 -1.1500000E-001 0.0
  2.8000000E-001 -1.1000000E-001 0.0
  2.8000000E-001 -1.0500000E-001 0.0
  2.8000000E-001 -1.0000000E-001 0.0
  2.8000000E-001 -9.5000000E-002 0.0
  2.8000000E-001 -9.0000000E-002 0.0
  2.8000000E-001 -8.5000000E-002 0.0
  2.8000000E-001 -8.0000000E-002 0.0
  2.8000000E-001 -7.5000000E-002 0.0
  2.8000000E-001 -7.0000000E-002 0.0
  2.8000000E-001 -6.5000000E-002 0.0
  2.8000000E-001 -6.0000000E-002 0.0
  2.8000000E-001 -5.5000000E-002 0.0
  2.8000000E-001 -5.0000000E-002 0.0
  2.8000000E-001 -4.5000000E-002 0.0
  2.8000000E-001 -4.0000000E-002 0.0
  2.8000000E-001 -3.5000000E-002 0.0
  2.8000000E-001 -3.0000000E-002 0.0
  2.8000000E-001 -2.5000000E-002 0.0
  2.8000000E-001 -2.0000000E-002 0.0
  2.8000000E-001 -1.5000000E-002 0.0
  2.8000000E-001 -1.0000000E-002 0.0
  2.8000000E-001 -5.0000000E-003 0.0
  2.8000000E-001  0.0000000E+000 0.0
  2.8000000E-001  5.0000000E-003 0.0
  2.8000000E-001  1.0000000E-002 0.0
  2.8000000E-001  1.5000000E-002 0.0
  2.8000000E-001  2.0000000E-002 0.0
  2.8000000E-001  2.5000000E-002 0.0
  2.8000000E-001  3.0000000E-002 0.0
  2.8000000E-001  3.5000000E-002 0.0
  2.8000000E-001  4.0000000E-002 0.0
  2.8000000E-001  4.5000000E-002 0.0
  2.8000000E-001  5.0000000E-002 0.0
  2.8000000E-001  5.5000000E-002 0.0
  2.8000000E-001  6.0000000E-002 0.0
  2.8000000E-001  6.5000000E-002 0.0
  2.8000000E-001  7.0000000E-002 0.0
  2.8000000E-001  7.5000000E-002 0.0
  2.8000000E-001  8.0000000E-002 0.0
  2.8000000E-001  8.5000000E-002 0.0
  2.8000000E-001  9.0000000E-002 0.0
  2.8000000E-001  9.5000000E-002 0.0
  2.8000000E-001  1.0000000E-001 0.0
  2.8000000E-001  1.0500000E-001 0.0
  2.8000000E-001  1.1000000E-001 0.0
  2.8000000E-001  1.1500000E-001 0.0
  2.8000000E-001  1.2000000E-001 0.0
  2.8000000E-001  1.2500000E-001 0.0
  2.8000000E-001  1.3000000E-001 0.0
  2.8000000E-001  1.3500000E-001 0.0
  2.8000000E-001  1.4000000E-001 0.0
  2.8000000E-001  1.4500000E-001 0.0
  2.8500000E-001 -1.2000000E-001 0.0
  2.8500000E-001 -1.1500000E-001 0.0
  2.8500000E-001 -1.1000000E-001 0.0
  2.8500000E-001 -1.0500000E-001 0.0
  2.8500000E-001 -1.0000000E-001 0.0
  2.8500000E-001 -9.5000000E-002 0.0
  2.8500000E-001 -9.0000000E-002 0.0
  2.8500000E-001 -8.5000000E-002 0.0
  2.8500000E-001 -8.0000000E-002 0.0
  2.8500000E-001 -7.5000000E-002 0.0
  2.8500000E-001 -7.0000000E-002 0.0
  2.8500000E-001 -6.5000000E-002 0.0
  2.8500000E-001 -6.0000000E-002 0.0
  2.8500000E-001 -5.5000000E-002 0.0
  2.8500000E-001 -5.0000000E-002 0.0
  2.8500000E-001 -4.5000000E-002 0.0
  2.8500000E-001 -4.0000000E-002 0.0
  2.8500000E-001 -3.5000000E-002 0.0
  2.8500000E-001 -3.0000000E-002 0.0
  2.8500000E-001 -2.5000000E-002 0.0
  2.8500000E-001 -2.0000000E-002 0.0
  2.8500000E-001 -1.5000000E-002 0.0
  2.8500000E-001 -1.0000000E-002 0.0
  2.8500000E-001 -5.0000000E-003 0.0
  2.8500000E-001  0.0000000E+000 0.0
  2.8500000E-001  5.0000000E-003 0.0
  2.8500000E-001  1.0000000E-002 0.0
  2.8500000E-001  1.5000000E-002 0.0
  2.8500000E-001  2.0000000E-002 0.0
  2.8500000E-001  2.5000000E-002 0.0
  2.8500000E-001  3.0000000E-002 0.0
  2.8500000E-001  3.5000000E-002 0.0
  2.8500000E-001  4.0000000E-002 0.0
  2.8500000E-001  4.5000000E-002 0.0
  2.8500000E-001  5.0000000E-002 0.0
  2.8500000E-001  5.5000000E-002 0.0
  2.8500000E-001  6.0000000E-002 0.0
  2.8500000E-001  6.5000000E-002 0.0
  2.8500000E-001  7.0000000E-002 0.0
  2.8500000E-001  7.5000000E-002 0.0
  2.8500000E-001  8.0000000E-002 0.0
  2.8500000E-001  8.5000000E-002 0.0
  2.8500000E-001  9.0000000E-002 0.0
  2.8500000E-001  9.5000000E-002 0.0
  2.8500000E-001  1.0000000E-001 0.0
  2.8500000E-001  1.0500000E-001 0.0
  2.8500000E-001  1.1000000E-001 0.0
  2.8500000E-001  1.1500000E-001 0.0
  2.8500000E-001  1.2000000E-001 0.0
  2.8500000E-001  1.2500000E-001 0.0
  2.8500000E-001  1.3000000E-001 0.0
  2.8500000E-001  1.3500000E-001 0.0
  2.8500000E-001  1.4000000E-001 0.0
  2.8500000E-001  1.4500000E-001 0.0
  2.9000000E-001 -1.1500000E-001 0.0
  2.9000000E-001 -1.1000000E-001 0.0
  2.9000000E-001 -1.0500000E-001 0.0
  2.9000000E-001 -1.0000000E-001 0.0
  2.9000000E-001 -9.5000000E-002 0.0
  2.9000000E-001 -9.0000000E-002 0.0
  2.9000000E-001 -8.5000000E-002 0.0
  2.9000000E-001 -8.0000000E-002 0.0
  2.9000000E-001 -7.5000000E-002 0.0
  2.9000000E-001 -7.0000000E-002 0.0
  2.9000000E-001 -6.5000000E-002 0.0
  2.9000000E-001 -6.0000000E-002 0.0
  2.9000000E-001 -5.5000000E-002 0.0
  2.9000000E-001 -5.0000000E-002 0.0
  2.9000000E-001 -4.5000000E-002 0.0
  2.9000000E-001 -4.0000000E-002 0.0
  2.9000000E-001 -3.5000000E-002 0.0
  2.9000000E-001 -3.0000000E-002 0.0
  2.9000000E-001 -2.5000000E-002 0.0
  2.9000000E-001 -2.0000000E-002 0.0
  2.9000000E-001 -1.5000000E-002 0.0
  2.9000000E-001 -1.0000000E-002 0.0
  2.9000000E-001 -5.0000000E-003 0.0
  2.9000000E-001  0.0000000E+000 0.0
  2.9000000E-001  5.0000000E-003 0.0
  2.9000000E-001  1.0000000E-002 0.0
  2.9000000E-001  1.5000000E-002 0.0
  2.9000000E-001  2.0000000E-002 0.0
  2.9000000E-001  2.5000000E-002 0.0
  2.9000000E-001  3.0000000E-002 0.0
  2.9000000E-001  3.5000000E-002 0.0
  2.9000000E-001  4.0000000E-002 0.0
  2.9000000E-001  4.5000000E-002 0.0
  2.9000000E-001  5.0000000E-002 0.0
  2.9000000E-001  5.5000000E-002 0.0
  2.9000000E-001  6.0000000E-002 0.0
  2.9000000E-001  6.5000000E-002 0.0
  2.9000000E-001  7.0000000E-002 0.0
  2.9000000E-001  7.5000000E-002 0.0
  2.9000000E-001  8.0000000E-002 0.0
  2.9000000E-001  8.5000000E-002 0.0
  2.9000000E-001  9.0000000E-002 0.0
  2.9000000E-001  9.5000000E-002 0.0
  2.9000000E-001  1.0000000E-001 0.0
  2.9000000E-001  1.0500000E-001 0.0
  2.9000000E-001  1.1000000E-001 0.0
  2.9000000E-001  1.1500000E-001 0.0
  2.9000000E-001  1.2000000E-001 0.0
  2.9000000E-001  1.2500000E-001 0.0
  2.9000000E-001  1.3000000E-001 0.0
  2.9000000E-001  1.3500000E-001 0.0
  2.9000000E-001  1.4000000E-001 0.0
  2.9000000E-001  1.4500000E-001 0.0
  2.9500000E-001 -1.1500000E-001 0.0
  2.9500000E-001 -1.1000000E-001 0.0
  2.9500000E-001 -1.0500000E-001 0.0
  2.9500000E-001 -1.0000000E-001 0.0
  2.9500000E-001 -9.5000000E-002 0.0
  2.9500000E-001 -9.0000000E-002 0.0
  2.9500000E-001 -8.5000000E-002 0.0
  2.9500000E-001 -8.0000000E-002 0.0
  2.9500000E-001 -7.5000000E-002 0.0
  2.9500000E-001 -7.0000000E-002 0.0
  2.9500000E-001 -6.5000000E-002 0.0
  2.9500000E-001 -6.0000000E-002 0.0
  2.9500000E-001 -5.5000000E-002 0.0
  2.9500000E-001 -5.0000000E-002 0.0
  2.9500000E-001 -4.5000000E-002 0.0
  2.9500000E-001 -4.0000000E-002 0.0
  2.9500000E-001 -3.5000000E-002 0.0
  2.9500000E-001 -3.0000000E-002 0.0
  2.9500000E-001 -2.5000000E-002 0.0
  2.9500000E-001 -2.0000000E-002 0.0
  2.9500000E-001 -1.5000000E-002 0.0
  2.9500000E-001 -1.0000000E-002 0.0
  2.9500000E-001 -5.0000000E-003 0.0
  2.9500000E-001  0.0000000E+000 0.0
  2.9500000E-001  5.0000000E-003 0.0
  2.9500000E-001  1.0000000E-002 0.0
  2.9500000E-001  1.5000000E-002 0.0
  2.9500000E-001  2.0000000E-002 0.0
  2.9500000E-001  2.5000000E-002 0.0
  2.9500000E-001  3.0000000E-002 0.0
  2.9500000E-001  3.5000000E-002 0.0
  2.9500000E-001  4.0000000E-002 0.0
  2.9500000E-001  4.5000000E-002 0.0
  2.9500000E-001  5.0000000E-002 0.0
  2.9500000E-001  5.5000000E-002 0.0
  2.9500000E-001  6.0000000E-002 0.0
  2.9500000E-001  6.5000000E-002 0.0
  2.9500000E-001  7.0000000E-002 0.0
  2.9500000E-001  7.5000000E-002 0.0
  2.9500000E-001  8.0000000E-002 0.0
  2.9500000E-001  8.5000000E-002 0.0
  2.9500000E-001  9.0000000E-002 0.0
  2.9500000E-001  9.5000000E-002 0.0
  2.9500000E-001  1.0000000E-001 0.0
  2.9500000E-001  1.0500000E-001 0.0
  2.9500000E-001  1.1000000E-001 0.0
  2.9500000E-001  1.1500000E-001 0.0
  2.9500000E-001  1.2000000E-001 0.0
  2.9500000E-001  1.2500000E-001 0.0
  2.9500000E-001  1.3000000E-001 0.0
  2.9500000E-001  1.3500000E-001 0.0
  2.9500000E-001  1.4000000E-001 0.0
  2.9500000E-001  1.4500000E-001 0.0
  3.0000000E-001 -1.1500000E-001 0.0
  3.0000000E-001 -1.1000000E-001 0.0
  3.0000000E-001 -1.0500000E-001 0.0
  3.0000000E-001 -1.0000000E-001 0.0
  3.0000000E-001 -9.5000000E-002 0.0
  3.0000000E-001 -9.0000000E-002 0.0
  3.0000000E-001 -8.5000000E-002 0.0
  3.0000000E-001 -8.0000000E-002 0.0
  3.0000000E-001 -7.5000000E-002 0.0
  3.0000000E-001 -7.0000000E-002 0.0
  3.0000000E-001 -6.5000000E-002 0.0
  3.0000000E-001 -6.0000000E-002 0.0
  3.0000000E-001 -5.5000000E-002 0.0
  3.0000000E-001 -5.0000000E-002 0.0
  3.0000000E-001 -4.5000000E-002 0.0
  3.0000000E-001 -4.0000000E-002 0.0
  3.0000000E-001 -3.5000000E-002 0.0
  3.0000000E-001 -3.0000000E-002 0.0
  3.0000000E-001 -2.5000000E-002 0.0
  3.0000000E-001 -2.0000000E-002 0.0
  3.0000000E-001 -1.5000000E-002 0.0
  3.0000000E-001 -1.0000000E-002 0.0
  3.0000000E-001 -5.0000000E-003 0.0
  3.0000000E-001  0.0000000E+000 0.0
  3.0000000E-001  5.0000000E-003 0.0
  3.0000000E-001  1.0000000E-002 0.0
  3.0000000E-001  1.5000000E-002 0.0
  3.0000000E-001  2.0000000E-002 0.0
  3.0000000E-001  2.5000000E-002 0.0
  3.0000000E-001  3.0000000E-002 0.0
  3.0000000E-001  3.5000000E-002 0.0
  3.0000000E-001  4.0000000E-002 0.0
  3.0000000E-001  4.5000000E-002 0.0
  3.0000000E-001  5.0000000E-002 0.0
  3.0000000E-001  5.5000000E-002 0.0
  3.0000000E-001  6.0000000E-002 0.0
  3.0000000E-001  6.5000000E-002 0.0
  3.0000000E-001  7.0000000E-002 0.0
  3.0000000E-001  7.5000000E-002 0.0
  3.0000000E-001  8.0000000E-002 0.0
  3.0000000E-001  8.5000000E-002 0.0
  3.0000000E-001  9.0000000E-002 0.0
  3.0000000E-001  9.5000000E-002 0.0
  3.0000000E-001  1.0000000E-001 0.0
  3.0000000E-001  1.0500000E-001 0.0
  3.0000000E-001  1.1000000E-001 0.0
  3.0000000E-001  1.1500000E-001 0.0
  3.0000000E-001  1.2000000E-001 0.0
  3.0000000E-001  1.2500000E-001 0.0
  3.0000000E-001  1.3000000E-001 0.0
  3.0000000E-001  1.3500000E-001 0.0
  3.0000000E-001  1.4000000E-001 0.0
  3.0500000E-001 -1.1000000E-001 0.0
  3.0500000E-001 -1.0500000E-001 0.0
  3.0500000E-001 -1.0000000E-001 0.0
  3.0500000E-001 -9.5000000E-002 0.0
  3.0500000E-001 -9.0000000E-002 0.0
  3.0500000E-001 -8.5000000E-002 0.0
  3.0500000E-001 -8.0000000E-002 0.0
  3.0500000E-001 -7.5000000E-002 0.0
  3.0500000E-001 -7.0000000E-002 0.0
  3.0500000E-001 -6.5000000E-002 0.0
  3.0500000E-001 -6.0000000E-002 0.0
  3.0500000E-001 -5.5000000E-002 0.0
  3.0500000E-001 -5.0000000E-002 0.0
  3.0500000E-001 -4.5000000E-002 0.0
  3.0500000E-001 -4.0000000E-002 0.0
  3.0500000E-001 -3.5000000E-002 0.0
  3.0500000E-001 -3.0000000E-002 0.0
  3.0500000E-001 -2.5000000E-002 0.0
  3.0500000E-001 -2.0000000E-002 0.0
  3.0500000E-001 -1.5000000E-002 0.0
  3.0500000E-001 -1.0000000E-002 0.0
  3.0500000E-001 -5.0000000E-003 0.0
  3.0500000E-001  0.0000000E+000 0.0
  3.0500000E-001  5.0000000E-003 0.0
  3.0500000E-001  1.0000000E-002 0.0
  3.0500000E-001  1.5000000E-002 0.0
  3.0500000E-001  2.0000000E-002 0.0
  3.0500000E-001  2.5000000E-002 0.0
  3.0500000E-001  3.0000000E-002 0.0
  3.0500000E-001  3.5000000E-002 0.0
  3.0500000E-001  4.0000000E-002 0.0
  3.0500000E-001  4.5000000E-002 0.0
  3.0500000E-001  5.0000000E-002 0.0
  3.0500000E-001  5.5000000E-002 0.0
  3.0500000E-001  6.0000000E-002 0.0
  3.0500000E-001  6.5000000E-002 0.0
  3.0500000E-001  7.0000000E-002 0.0
  3.0500000E-001  7.5000000E-002 0.0
  3.0500000E-001  8.0000000E-002 0.0
  3.0500000E-001  8.5000000E-002 0.0
  3.0500000E-001  9.0000000E-002 0.0
  3.0500000E-001  9.5000000E-002 0.0
  3.0500000E-001  1.0000000E-001 0.0
  3.0500000E-001  1.0500000E-001 0.0
  3.0500000E-001  1.1000000E-001 0.0
  3.0500000E-001  1.1500000E-001 0.0
  3.0500000E-001  1.2000000E-001 0.0
  3.0500000E-001  1.2500000E-001 0.0
  3.0500000E-001  1.3000000E-001 0.0
  3.0500000E-001  1.3500000E-001 0.0
  3.0500000E-001  1.4000000E-001 0.0
  3.1000000E-001 -1.1000000E-001 0.0
  3.1000000E-001 -1.0500000E-001 0.0
  3.1000000E-001 -1.0000000E-001 0.0
  3.1000000E-001 -9.5000000E-002 0.0
  3.1000000E-001 -9.0000000E-002 0.0
  3.1000000E-001 -8.5000000E-002 0.0
  3.1000000E-001 -8.0000000E-002 0.0
  3.1000000E-001 -7.5000000E-002 0.0
  3.1000000E-001 -7.0000000E-002 0.0
  3.1000000E-001 -6.5000000E-002 0.0
  3.1000000E-001 -6.0000000E-002 0.0
  3.1000000E-001 -5.5000000E-002 0.0
  3.1000000E-001 -5.0000000E-002 0.0
  3.1000000E-001 -4.5000000E-002 0.0
  3.1000000E-001 -4.0000000E-002 0.0
  3.1000000E-001 -3.5000000E-002 0.0
  3.1000000E-001 -3.0000000E-002 0.0
  3.1000000E-001 -2.5000000E-002 0.0
  3.1000000E-001 -2.0000000E-002 0.0
  3.1000000E-001 -1.5000000E-002 0.0
  3.1000000E-001 -1.0000000E-002 0.0
  3.1000000E-001 -5.0000000E-003 0.0
  3.1000000E-001  0.0000000E+000 0.0
  3.1000000E-001  5.0000000E-003 0.0
  3.1000000E-001  1.0000000E-002 0.0
  3.1000000E-001  1.5000000E-002 0.0
  3.1000000E-001  2.0000000E-002 0.0
  3.1000000E-001  2.5000000E-002 0.0
  3.1000000E-001  3.0000000E-002 0.0
  3.1000000E-001  3.5000000E-002 0.0
  3.1000000E-001  4.0000000E-002 0.0
  3.1000000E-001  4.5000000E-002 0.0
  3.1000000E-001  5.0000000E-002 0.0
  3.1000000E-001  5.5000000E-002 0.0
  3.1000000E-001  6.0000000E-002 0.0
  3.1000000E-001  6.5000000E-002 0.0
  3.1000000E-001  7.0000000E-002 0.0
  3.1000000E-001  7.5000000E-002 0.0
  3.1000000E-001  8.0000000E-002 0.0
  3.1000000E-001  8.5000000E-002 0.0
  3.1000000E-001  9.0000000E-002 0.0
  3.1000000E-001  9.5000000E-002 0.0
  3.1000000E-001  1.0000000E-001 0.0
  3.1000000E-001  1.0500000E-001 0.0
  3.1000000E-001  1.1000000E-001 0.0
  3.1000000E-001  1.1500000E-001 0.0
  3.1000000E-001  1.2000000E-001 0.0
  3.1000000E-001  1.2500000E-001 0.0
  3.1000000E-001  1.3000000E-001 0.0
  3.1000000E-001  1.3500000E-001 0.0
  3.1000000E-001  1.4000000E-001 0.0
  3.1500000E-001 -1.1000000E-001 0.0
  3.1500000E-001 -1.0500000E-001 0.0
  3.1500000E-001 -1.0000000E-001 0.0
  3.1500000E-001 -9.5000000E-002 0.0
  3.1500000E-001 -9.0000000E-002 0.0
  3.1500000E-001 -8.5000000E-002 0.0
  3.1500000E-001 -8.0000000E-002 0.0
  3.1500000E-001 -7.5000000E-002 0.0
  3.1500000E-001 -7.0000000E-002 0.0
  3.1500000E-001 -6.5000000E-002 0.0
  3.1500000E-001 -6.0000000E-002 0.0
  3.1500000E-001 -5.5000000E-002 0.0
  3.1500000E-001 -5.0000000E-002 0.0
  3.1500000E-001 -4.5000000E-002 0.0
  3.1500000E-001 -4.0000000E-002 0.0
  3.1500000E-001 -3.5000000E-002 0.0
  3.1500000E-001 -3.0000000E-002 0.0
  3.1500000E-001 -2.5000000E-002 0.0
  3.1500000E-001 -2.0000000E-002 0.0
  3.1500000E-001 -1.5000000E-002 0.0
  3.1500000E-001 -1.0000000E-002 0.0
  3.1500000E-001 -5.0000000E-003 0.0
  3.1500000E-001  0.0000000E+000 0.0
  3.1500000E-001  5.0000000E-003 0.0
  3.1500000E-001  1.0000000E-002 0.0
  3.1500000E-001  1.5000000E-002 0.0
  3.1500000E-001  2.0000000E-002 0.0
  3.1500000E-001  2.5000000E-002 0.0
  3.1500000E-001  3.0000000E-002 0.0
  3.1500000E-001  3.5000000E-002 0.0
  3.1500000E-001  4.0000000E-002 0.0
  3.1500000E-001  4.5000000E-002 0.0
  3.1500000E-001  5.0000000E-002 0.0
  3.1500000E-001  5.5000000E-002 0.0
  3.1500000E-001  6.0000000E-002 0.0
  3.1500000E-001  6.5000000E-002 0.0
  3.1500000E-001  7.0000000E-002 0.0
  3.1500000E-001  7.5000000E-002 0.0
  3.1500000E-001  8.0000000E-002 0.0
  3.1500000E-001  8.5000000E-002 0.0
  3.1500000E-001  9.0000000E-002 0.0
  3.1500000E-001  9.5000000E-002 0.0
  3.1500000E-001  1.0000000E-001 0.0
  3.1500000E-001  1.0500000E-001 0.0
  3.1500000E-001  1.1000000E-001 0.0
  3.1500000E-001  1.1500000E-001 0.0
  3.1500000E-001  1.2000000E-001 0.0
  3.1500000E-001  1.2500000E-001 0.0
  3.1500000E-001  1.3000000E-001 0.0
  3.1500000E-001  1.3500000E-001 0.0
  3.1500000E-001  1.4000000E-001 0.0
  3.2000000E-001 -1.1000000E-001 0.0
  3.2000000E-001 -1.0500000E-001 0.0
  3.2000000E-001 -1.0000000E-001 0.0
  3.2000000E-001 -9.5000000E-002 0.0
  3.2000000E-001 -9.0000000E-002 0.0
  3.2000000E-001 -8.5000000E-002 0.0
  3.2000000E-001 -8.0000000E-002 0.0
  3.2000000E-001 -7.5000000E-002 0.0
  3.2000000E-001 -7.0000000E-002 0.0
  3.2000000E-001 -6.5000000E-002 0.0
  3.2000000E-001 -6.0000000E-002 0.0
  3.2000000E-001 -5.5000000E-002 0.0
  3.2000000E-001 -5.0000000E-002 0.0
  3.2000000E-001 -4.5000000E-002 0.0
  3.2000000E-001 -4.0000000E-002 0.0
  3.2000000E-001 -3.5000000E-002 0.0
  3.2000000E-001 -3.0000000E-002 0.0
  3.2000000E-001 -2.5000000E-002 0.0
  3.2000000E-001 -2.0000000E-002 0.0
  3.2000000E-001 -1.5000000E-002 0.0
  3.2000000E-001 -1.0000000E-002 0.0
  3.2000000E-001 -5.0000000E-003 0.0
  3.2000000E-001  0.0000000E+000 0.0
  3.2000000E-001  5.0000000E-003 0.0
  3.2000000E-001  1.0000000E-002 0.0
  3.2000000E-001  1.5000000E-002 0.0
  3.2000000E-001  2.0000000E-002 0.0
  3.2000000E-001  2.5000000E-002 0.0
  3.2000000E-001  3.0000000E-002 0.0
  3.2000000E-001  3.5000000E-002 0.0
  3.2000000E-001  4.0000000E-002 0.0
  3.2000000E-001  4.5000000E-002 0.0
  3.2000000E-001  5.0000000E-002 0.0
  3.2000000E-001  5.5000000E-002 0.0
  3.2000000E-001  6.0000000E-002 0.0
  3.2000000E-001  6.5000000E-002 0.0
  3.2000000E-001  7.0000000E-002 0.0
  3.2000000E-001  7.5000000E-002 0.0
  3.2000000E-001  8.0000000E-002 0.0
  3.2000000E-001  8.5000000E-002 0.0
  3.2000000E-001  9.0000000E-002 0.0
  3.2000000E-001  9.5000000E-002 0.0
  3.2000000E-001  1.0000000E-001 0.0
  3.2000000E-001  1.0500000E-001 0.0
  3.2000000E-001  1.1000000E-001 0.0
  3.2000000E-001  1.1500000E-001 0.0
  3.2000000E-001  1.2000000E-001 0.0
  3.2000000E-001  1.2500000E-001 0.0
  3.2000000E-001  1.3000000E-001 0.0
  3.2000000E-001  1.3500000E-001 0.0
  3.2500000E-001 -1.0500000E-001 0.0
  3.2500000E-001 -1.0000000E-001 0.0
  3.2500000E-001 -9.5000000E-002 0.0
  3.2500000E-001 -9.0000000E-002 0.0
  3.2500000E-001 -8.5000000E-002 0.0
  3.2500000E-001 -8.0000000E-002 0.0
  3.2500000E-001 -7.5000000E-002 0.0
  3.2500000E-001 -7.0000000E-002 0.0
  3.2500000E-001 -6.5000000E-002 0.0
  3.2500000E-001 -6.0000000E-002 0.0
  3.2500000E-001 -5.5000000E-002 0.0
  3.2500000E-001 -5.0000000E-002 0.0
  3.2500000E-001 -4.5000000E-002 0.0
  3.2500000E-001 -4.0000000E-002 0.0
  3.2500000E-001 -3.5000000E-002 0.0
  3.2500000E-001 -3.0000000E-002 0.0
  3.2500000E-001 -2.5000000E-002 0.0
  3.2500000E-001 -2.0000000E-002 0.0
  3.2500000E-001 -1.5000000E-002 0.0
  3.2500000E-001 -1.0000000E-002 0.0
  3.2500000E-001 -5.0000000E-003 0.0
  3.2500000E-001  0.0000000E+000 0.0
  3.2500000E-001  5.0000000E-003 0.0
  3.2500000E-001  1.0000000E-002 0.0
  3.2500000E-001  1.5000000E-002 0.0
  3.2500000E-001  2.0000000E-002 0.0
  3.2500000E-001  2.5000000E-002 0.0
  3.2500000E-001  3.0000000E-002 0.0
  3.2500000E-001  3.5000000E-002 0.0
  3.2500000E-001  4.0000000E-002 0.0
  3.2500000E-001  4.5000000E-002 0.0
  3.2500000E-001  5.0000000E-002 0.0
  3.2500000E-001  5.5000000E-002 0.0
  3.2500000E-001  6.0000000E-002 0.0
  3.2500000E-001  6.5000000E-002 0.0
  3.2500000E-001  7.0000000E-002 0.0
  3.2500000E-001  7.5000000E-002 0.0
  3.2500000E-001  8.0000000E-002 0.0
  3.2500000E-001  8.5000000E-002 0.0
  3.2500000E-001  1.0000000E-001 0.0
  3.2500000E-001  1.0500000E-001 0.0
  3.2500000E-001  1.1000000E-001 0.0
  3.2500000E-001  1.1500000E-001 0.0
  3.2500000E-001  1.2000000E-001 0.0
  3.2500000E-001  1.2500000E-001 0.0
  3.2500000E-001  1.3000000E-001 0.0
  3.2500000E-001  1.3500000E-001 0.0
  3.3000000E-001 -1.0500000E-001 0.0
  3.3000000E-001 -1.0000000E-001 0.0
  3.3000000E-001 -9.5000000E-002 0.0
  3.3000000E-001 -9.0000000E-002 0.0
  3.3000000E-001 -8.5000000E-002 0.0
  3.3000000E-001 -8.0000000E-002 0.0
  3.3000000E-001 -7.5000000E-002 0.0
  3.3000000E-001 -7.0000000E-002 0.0
  3.3000000E-001 -6.5000000E-002 0.0
  3.3000000E-001 -6.0000000E-002 0.0
  3.3000000E-001 -5.5000000E-002 0.0
  3.3000000E-001 -5.0000000E-002 0.0
  3.3000000E-001 -4.5000000E-002 0.0
  3.3000000E-001 -4.0000000E-002 0.0
  3.3000000E-001 -3.5000000E-002 0.0
  3.3000000E-001 -3.0000000E-002 0.0
  3.3000000E-001 -2.5000000E-002 0.0
  3.3000000E-001 -2.0000000E-002 0.0
  3.3000000E-001 -1.5000000E-002 0.0
  3.3000000E-001 -1.0000000E-002 0.0
  3.3000000E-001 -5.0000000E-003 0.0
  3.3000000E-001  0.0000000E+000 0.0
  3.3000000E-001  5.0000000E-003 0.0
  3.3000000E-001  1.0000000E-002 0.0
  3.3000000E-001  1.5000000E-002 0.0
  3.3000000E-001  2.0000000E-002 0.0
  3.3000000E-001  2.5000000E-002 0.0
  3.3000000E-001  3.0000000E-002 0.0
  3.3000000E-001  3.5000000E-002 0.0
  3.3000000E-001  4.0000000E-002 0.0
  3.3000000E-001  4.5000000E-002 0.0
  3.3000000E-001  5.0000000E-002 0.0
  3.3000000E-001  5.5000000E-002 0.0
  3.3000000E-001  6.0000000E-002 0.0
  3.3000000E-001  6.5000000E-002 0.0
  3.3000000E-001  7.0000000E-002 0.0
  3.3000000E-001  7.5000000E-002 0.0
  3.3000000E-001  8.0000000E-002 0.0
  3.3000000E-001  1.0000000E-001 0.0
  3.3000000E-001  1.0500000E-001 0.0
  3.3000000E-001  1.1000000E-001 0.0
  3.3000000E-001  1.1500000E-001 0.0
  3.3000000E-001  1.2000000E-001 0.0
  3.3000000E-001  1.2500000E-001 0.0
  3.3000000E-001  1.3000000E-001 0.0
  3.3000000E-001  1.3500000E-001 0.0
  3.3500000E-001 -1.0500000E-001 0.0
  3.3500000E-001 -1.0000000E-001 0.0
  3.3500000E-001 -9.5000000E-002 0.0
  3.3500000E-001 -9.0000000E-002 0.0
  3.3500000E-001 -8.5000000E-002 0.0
  3.3500000E-001 -8.0000000E-002 0.0
  3.3500000E-001 -7.5000000E-002 0.0
  3.3500000E-001 -7.0000000E-002 0.0
  3.3500000E-001 -6.5000000E-002 0.0
  3.3500000E-001 -6.0000000E-002 0.0
  3.3500000E-001 -5.5000000E-002 0.0
  3.3500000E-001 -5.0000000E-002 0.0
  3.3500000E-001 -4.5000000E-002 0.0
  3.3500000E-001 -4.0000000E-002 0.0
  3.3500000E-001 -3.5000000E-002 0.0
  3.3500000E-001 -3.0000000E-002 0.0
  3.3500000E-001 -2.5000000E-002 0.0
  3.3500000E-001 -2.0000000E-002 0.0
  3.3500000E-001 -1.5000000E-002 0.0
  3.3500000E-001 -1.0000000E-002 0.0
  3.3500000E-001 -5.0000000E-003 0.0
  3.3500000E-001  0.0000000E+000 0.0
  3.3500000E-001  5.0000000E-003 0.0
  3.3500000E-001  1.0000000E-002 0.0
  3.3500000E-001  1.5000000E-002 0.0
  3.3500000E-001  2.0000000E-002 0.0
  3.3500000E-001  2.5000000E-002 0.0
  3.3500000E-001  3.0000000E-002 0.0
  3.3500000E-001  3.5000000E-002 0.0
  3.3500000E-001  4.0000000E-002 0.0
  3.3500000E-001  4.5000000E-002 0.0
  3.3500000E-001  5.0000000E-002 0.0
  3.3500000E-001  5.5000000E-002 0.0
  3.3500000E-001  6.0000000E-002 0.0
  3.3500000E-001  6.5000000E-002 0.0
  3.3500000E-001  7.0000000E-002 0.0
  3.3500000E-001  7.5000000E-002 0.0
  3.3500000E-001  1.0000000E-001 0.0
  3.3500000E-001  1.0500000E-001 0.0
  3.3500000E-001  1.1000000E-001 0.0
  3.3500000E-001  1.1500000E-001 0.0
  3.3500000E-001  1.2000000E-001 0.0
  3.3500000E-001  1.2500000E-001 0.0
  3.3500000E-001  1.3000000E-001 0.0
  3.4000000E-001 -1.0000000E-001 0.0
  3.4000000E-001 -9.5000000E-002 0.0
  3.4000000E-001 -9.0000000E-002 0.0
  3.4000000E-001 -8.5000000E-002 0.0
  3.4000000E-001 -8.0000000E-002 0.0
  3.4000000E-001 -7.5000000E-002 0.0
  3.4000000E-001 -7.0000000E-002 0.0
  3.4000000E-001 -6.5000000E-002 0.0
  3.4000000E-001 -6.0000000E-002 0.0
  3.4000000E-001 -5.5000000E-002 0.0
  3.4000000E-001 -5.0000000E-002 0.0
  3.4000000E-001 -4.5000000E-002 0.0
  3.4000000E-001 -4.0000000E-002 0.0
  3.4000000E-001 -3.5000000E-002 0.0
  3.4000000E-001 -3.0000000E-002 0.0
  3.4000000E-001 -2.5000000E-002 0.0
  3.4000000E-001 -2.0000000E-002 0.0
  3.4000000E-001 -1.5000000E-002 0.0
  3.4000000E-001 -1.0000000E-002 0.0
  3.4000000E-001 -5.0000000E-003 0.0
  3.4000000E-001  0.0000000E+000 0.0
  3.4000000E-001  5.0000000E-003 0.0
  3.4000000E-001  1.0000000E-002 0.0
  3.4000000E-001  1.5000000E-002 0.0
  3.4000000E-001  2.0000000E-002 0.0
  3.4000000E-001  2.5000000E-002 0.0
  3.4000000E-001  3.0000000E-002 0.0
  3.4000000E-001  3.5000000E-002 0.0
  3.4000000E-001  4.0000000E-002 0.0
  3.4000000E-001  4.5000000E-002 0.0
  3.4000000E-001  5.0000000E-002 0.0
  3.4000000E-001  5.5000000E-002 0.0
  3.4000000E-001  6.0000000E-002 0.0
  3.4000000E-001  6.5000000E-002 0.0
  3.4000000E-001  7.0000000E-002 0.0
  3.3500000E-001  9.5000000E-002 0.0
  3.4000000E-001  9.5000000E-002 0.0
  3.4000000E-001  1.0000000E-001 0.0
  3.4000000E-001  1.0500000E-001 0.0
  3.4000000E-001  1.1000000E-001 0.0
  3.4000000E-001  1.1500000E-001 0.0
  3.4000000E-001  1.2000000E-001 0.0
  3.4000000E-001  1.2500000E-001 0.0
  3.4000000E-001  1.3000000E-001 0.0
  3.4500000E-001 -1.0000000E-001 0.0
  3.4500000E-001 -9.5000000E-002 0.0
  3.4500000E-001 -9.0000000E-002 0.0
  3.4500000E-001 -8.5000000E-002 0.0
  3.4500000E-001 -8.0000000E-002 0.0
  3.4500000E-001 -7.5000000E-002 0.0
  3.4500000E-001 -7.0000000E-002 0.0
  3.4500000E-001 -6.5000000E-002 0.0
  3.4500000E-001 -6.0000000E-002 0.0
  3.4500000E-001 -5.5000000E-002 0.0
  3.4500000E-001 -5.0000000E-002 0.0
  3.4500000E-001 -4.5000000E-002 0.0
  3.4500000E-001 -4.0000000E-002 0.0
  3.4500000E-001 -3.5000000E-002 0.0
  3.4500000E-001 -3.0000000E-002 0.0
  3.4500000E-001 -2.5000000E-002 0.0
  3.4500000E-001 -2.0000000E-002 0.0
  3.4500000E-001 -1.5000000E-002 0.0
  3.4500000E-001 -1.0000000E-002 0.0
  3.4500000E-001 -5.0000000E-003 0.0
  3.4500000E-001  0.0000000E+000 0.0
  3.4500000E-001  5.0000000E-003 0.0
  3.4500000E-001  1.0000000E-002 0.0
  3.4500000E-001  1.5000000E-002 0.0
  3.4500000E-001  2.0000000E-002 0.0
  3.4500000E-001  2.5000000E-002 0.0
  3.4500000E-001  3.0000000E-002 0.0
  3.4500000E-001  3.5000000E-002 0.0
  3.4500000E-001  4.0000000E-002 0.0
  3.4500000E-001  4.5000000E-002 0.0
  3.4500000E-001  5.0000000E-002 0.0
  3.4500000E-001  5.5000000E-002 0.0
  3.4500000E-001  6.0000000E-002 0.0
  3.4500000E-001  6.5000000E-002 0.0
  3.4500000E-001  7.0000000E-002 0.0
  3.4500000E-001  9.5000000E-002 0.0
  3.4500000E-001  1.0000000E-001 0.0
  3.4500000E-001  1.0500000E-001 0.0
  3.4500000E-001  1.1000000E-001 0.0
  3.4500000E-001  1.1500000E-001 0.0
  3.4500000E-001  1.2000000E-001 0.0
  3.4500000E-001  1.2500000E-001 0.0
  3.4500000E-001  1.3000000E-001 0.0
  3.5000000E-001 -9.5000000E-002 0.0
  3.5000000E-001 -9.0000000E-002 0.0
  3.5000000E-001 -8.5000000E-002 0.0
  3.5000000E-001 -8.0000000E-002 0.0
  3.5000000E-001 -7.5000000E-002 0.0
  3.5000000E-001 -7.0000000E-002 0.0
  3.5000000E-001 -6.5000000E-002 0.0
  3.5000000E-001 -6.0000000E-002 0.0
  3.5000000E-001 -5.5000000E-002 0.0
  3.5000000E-001 -5.0000000E-002 0.0
  3.5000000E-001 -4.5000000E-002 0.0
  3.5000000E-001 -4.0000000E-002 0.0
  3.5000000E-001 -3.5000000E-002 0.0
  3.5000000E-001 -3.0000000E-002 0.0
  3.5000000E-001 -2.5000000E-002 0.0
  3.5000000E-001 -2.0000000E-002 0.0
  3.5000000E-001 -1.5000000E-002 0.0
  3.5000000E-001 -1.0000000E-002 0.0
  3.5000000E-001 -5.0000000E-003 0.0
  3.5000000E-001  0.0000000E+000 0.0
  3.5000000E-001  5.0000000E-003 0.0
  3.5000000E-001  1.0000000E-002 0.0
  3.5000000E-001  1.5000000E-002 0.0
  3.5000000E-001  2.0000000E-002 0.0
  3.5000000E-001  2.5000000E-002 0.0
  3.5000000E-001  3.0000000E-002 0.0
  3.5000000E-001  3.5000000E-002 0.0
  3.5000000E-001  4.0000000E-002 0.0
  3.5000000E-001  4.5000000E-002 0.0
  3.5000000E-001  5.0000000E-002 0.0
  3.5000000E-001  5.5000000E-002 0.0
  3.5000000E-001  6.0000000E-002 0.0
  3.5000000E-001  6.5000000E-002 0.0
  3.5000000E-001  9.5000000E-002 0.0
  3.5000000E-001  1.0000000E-001 0.0
  3.5000000E-001  1.0500000E-001 0.0
  3.5000000E-001  1.1000000E-001 0.0
  3.5000000E-001  1.1500000E-001 0.0
  3.5000000E-001  1.2000000E-001 0.0
  3.5000000E-001  1.2500000E-001 0.0
  3.5500000E-001 -9.5000000E-002 0.0
  3.5500000E-001 -9.0000000E-002 0.0
  3.5500000E-001 -8.5000000E-002 0.0
  3.5500000E-001 -8.0000000E-002 0.0
  3.5500000E-001 -7.5000000E-002 0.0
  3.5500000E-001 -7.0000000E-002 0.0
  3.5500000E-001 -6.5000000E-002 0.0
  3.5500000E-001 -6.0000000E-002 0.0
  3.5500000E-001 -5.5000000E-002 0.0
  3.5500000E-001 -5.0000000E-002 0.0
  3.5500000E-001 -4.5000000E-002 0.0
  3.5500000E-001 -4.0000000E-002 0.0
  3.5500000E-001 -3.5000000E-002 0.0
  3.5500000E-001 -3.0000000E-002 0.0
  3.5500000E-001 -2.5000000E-002 0.0
  3.5500000E-001 -2.0000000E-002 0.0
  3.5500000E-001 -1.5000000E-002 0.0
  3.5500000E-001 -1.0000000E-002 0.0
  3.5500000E-001 -5.0000000E-003 0.0
  3.5500000E-001  0.0000000E+000 0.0
  3.5500000E-001  5.0000000E-003 0.0
  3.5500000E-001  1.0000000E-002 0.0
  3.5500000E-001  1.5000000E-002 0.0
  3.5500000E-001  2.0000000E-002 0.0
  3.5500000E-001  2.5000000E-002 0.0
  3.5500000E-001  3.0000000E-002 0.0
  3.5500000E-001  3.5000000E-002 0.0
  3.5500000E-001  4.0000000E-002 0.0
  3.5500000E-001  4.5000000E-002 0.0
  3.5500000E-001  5.0000000E-002 0.0
  3.5500000E-001  5.5000000E-002 0.0
  3.5500000E-001  6.0000000E-002 0.0
  3.5500000E-001  6.5000000E-002 0.0
  3.5000000E-001  9.0000000E-002 0.0
  3.5500000E-001  9.0000000E-002 0.0
  3.5500000E-001  9.5000000E-002 0.0
  3.5500000E-001  1.0000000E-001 0.0
  3.5500000E-001  1.0500000E-001 0.0
  3.5500000E-001  1.1000000E-001 0.0
  3.5500000E-001  1.1500000E-001 0.0
  3.5500000E-001  1.2000000E-001 0.0
  3.5500000E-001  1.2500000E-001 0.0
  3.6000000E-001 -9.5000000E-002 0.0
  3.6000000E-001 -9.0000000E-002 0.0
  3.6000000E-001 -8.5000000E-002 0.0
  3.6000000E-001 -8.0000000E-002 0.0
  3.6000000E-001 -7.5000000E-002 0.0
  3.6000000E-001 -7.0000000E-002 0.0
  3.6000000E-001 -6.5000000E-002 0.0
  3.6000000E-001 -6.0000000E-002 0.0
  3.6000000E-001 -5.5000000E-002 0.0
  3.6000000E-001 -5.0000000E-002 0.0
  3.6000000E-001 -4.5000000E-002 0.0
  3.6000000E-001 -4.0000000E-002 0.0
  3.6000000E-001 -3.5000000E-002 0.0
  3.6000000E-001 -3.0000000E-002 0.0
  3.6000000E-001 -2.5000000E-002 0.0
  3.6000000E-001 -2.0000000E-002 0.0
  3.6000000E-001 -1.5000000E-002 0.0
  3.6000000E-001 -1.0000000E-002 0.0
  3.6000000E-001 -5.0000000E-003 0.0
  3.6000000E-001  0.0000000E+000 0.0
  3.6000000E-001  5.0000000E-003 0.0
  3.6000000E-001  1.0000000E-002 0.0
  3.6000000E-001  1.5000000E-002 0.0
  3.6000000E-001  2.0000000E-002 0.0
  3.6000000E-001  2.5000000E-002 0.0
  3.6000000E-001  3.0000000E-002 0.0
  3.6000000E-001  3.5000000E-002 0.0
  3.6000000E-001  4.0000000E-002 0.0
  3.6000000E-001  4.5000000E-002 0.0
  3.6000000E-001  5.0000000E-002 0.0
  3.6000000E-001  5.5000000E-002 0.0
  3.6000000E-001  6.0000000E-002 0.0
  3.6000000E-001  9.0000000E-002 0.0
  3.6000000E-001  9.5000000E-002 0.0
  3.6000000E-001  1.0000000E-001 0.0
  3.6000000E-001  1.0500000E-001 0.0
  3.6000000E-001  1.1000000E-001 0.0
  3.6000000E-001  1.1500000E-001 0.0
  3.6000000E-001  1.2000000E-001 0.0
  3.6000000E-001  1.2500000E-001 0.0
  3.6500000E-001 -9.0000000E-002 0.0
  3.6500000E-001 -8.5000000E-002 0.0
  3.6500000E-001 -8.0000000E-002 0.0
  3.6500000E-001 -7.5000000E-002 0.0
  3.6500000E-001 -7.0000000E-002 0.0
  3.6500000E-001 -6.5000000E-002 0.0
  3.6500000E-001 -6.0000000E-002 0.0
  3.6500000E-001 -5.5000000E-002 0.0
  3.6500000E-001 -5.0000000E-002 0.0
  3.6500000E-001 -4.5000000E-002 0.0
  3.6500000E-001 -4.0000000E-002 0.0
  3.6500000E-001 -3.5000000E-002 0.0
  3.6500000E-001 -3.0000000E-002 0.0
  3.6500000E-001 -2.5000000E-002 0.0
  3.6500000E-001 -2.0000000E-002 0.0
  3.6500000E-001 -1.5000000E-002 0.0
  3.6500000E-001 -1.0000000E-002 0.0
  3.6500000E-001 -5.0000000E-003 0.0
  3.6500000E-001  0.0000000E+000 0.0
  3.6500000E-001  5.0000000E-003 0.0
  3.6500000E-001  1.0000000E-002 0.0
  3.6500000E-001  1.5000000E-002 0.0
  3.6500000E-001  2.0000000E-002 0.0
  3.6500000E-001  2.5000000E-002 0.0
  3.6500000E-001  3.0000000E-002 0.0
  3.6500000E-001  3.5000000E-002 0.0
  3.6500000E-001  4.0000000E-002 0.0
  3.6500000E-001  4.5000000E-002 0.0
  3.6500000E-001  5.0000000E-002 0.0
  3.6500000E-001  5.5000000E-002 0.0
  3.6500000E-001  6.0000000E-002 0.0
  3.6500000E-001  9.0000000E-002 0.0
  3.6500000E-001  9.5000000E-002 0.0
  3.6500000E-001  1.0000000E-001 0.0
  3.6500000E-001  1.0500000E-001 0.0
  3.6500000E-001  1.1000000E-001 0.0
  3.6500000E-001  1.1500000E-001 0.0
  3.6500000E-001  1.2000000E-001 0.0
  3.6500000E-001  1.2500000E-001 0.0
  3.7000000E-001 -9.0000000E-002 0.0
  3.7000000E-001 -8.5000000E-002 0.0
  3.7000000E-001 -8.0000000E-002 0.0
  3.7000000E-001 -7.5000000E-002 0.0
  3.7000000E-001 -7.0000000E-002 0.0
  3.7000000E-001 -6.5000000E-002 0.0
  3.7000000E-001 -6.0000000E-002 0.0
  3.7000000E-001 -5.5000000E-002 0.0
  3.7000000E-001 -5.0000000E-002 0.0
  3.7000000E-001 -4.5000000E-002 0.0
  3.7000000E-001 -4.0000000E-002 0.0
  3.7000000E-001 -3.5000000E-002 0.0
  3.7000000E-001 -3.0000000E-002 0.0
  3.7000000E-001 -2.5000000E-002 0.0
  3.7000000E-001 -2.0000000E-002 0.0
  3.7000000E-001 -1.5000000E-002 0.0
  3.7000000E-001 -1.0000000E-002 0.0
  3.7000000E-001 -5.0000000E-003 0.0
  3.7000000E-001  0.0000000E+000 0.0
  3.7000000E-001  5.0000000E-003 0.0
  3.7000000E-001  1.0000000E-002 0.0
  3.7000000E-001  1.5000000E-002 0.0
  3.7000000E-001  2.0000000E-002 0.0
  3.7000000E-001  2.5000000E-002 0.0
  3.7000000E-001  3.0000000E-002 0.0
  3.7000000E-001  3.5000000E-002 0.0
  3.7000000E-001  4.0000000E-002 0.0
  3.7000000E-001  4.5000000E-002 0.0
  3.7000000E-001  5.0000000E-002 0.0
  3.7000000E-001  5.5000000E-002 0.0
  3.7000000E-001  9.0000000E-002 0.0
  3.7000000E-001  9.5000000E-002 0.0
  3.7000000E-001  1.0000000E-001 0.0
  3.7000000E-001  1.0500000E-001 0.0
  3.7000000E-001  1.1000000E-001 0.0
  3.7000000E-001  1.1500000E-001 0.0
  3.7000000E-001  1.2000000E-001 0.0
  3.7500000E-001 -8.5000000E-002 0.0
  3.7500000E-001 -8.0000000E-002 0.0
  3.7500000E-001 -7.5000000E-002 0.0
  3.7500000E-001 -7.0000000E-002 0.0
  3.7500000E-001 -6.5000000E-002 0.0
  3.7500000E-001 -6.0000000E-002 0.0
  3.7500000E-001 -5.5000000E-002 0.0
  3.7500000E-001 -5.0000000E-002 0.0
  3.7500000E-001 -4.5000000E-002 0.0
  3.7500000E-001 -4.0000000E-002 0.0
  3.7500000E-001 -3.5000000E-002 0.0
  3.7500000E-001 -3.0000000E-002 0.0
  3.7500000E-001 -2.5000000E-002 0.0
  3.7500000E-001 -2.0000000E-002 0.0
  3.7500000E-001 -1.5000000E-002 0.0
  3.7500000E-001 -1.0000000E-002 0.0
  3.7500000E-001 -5.0000000E-003 0.0
  3.7500000E-001  0.0000000E+000 0.0
  3.7500000E-001  5.0000000E-003 0.0
  3.7500000E-001  1.0000000E-002 0.0
  3.7500000E-001  1.5000000E-002 0.0
  3.7500000E-001  2.0000000E-002 0.0
  3.7500000E-001  2.5000000E-002 0.0
  3.7500000E-001  3.0000000E-002 0.0
  3.7500000E-001  3.5000000E-002 0.0
  3.7500000E-001  4.0000000E-002 0.0
  3.7500000E-001  4.5000000E-002 0.0
  3.7500000E-001  5.0000000E-002 0.0
  3.7000000E-001  8.5000000E-002 0.0
  3.7500000E-001  8.5000000E-002 0.0
  3.7500000E-001  9.0000000E-002 0.0
  3.7500000E-001  9.5000000E-002 0.0
  3.7500000E-001  1.0000000E-001 0.0
  3.7500000E-001  1.0500000E-001 0.0
  3.7500000E-001  1.1000000E-001 0.0
  3.7500000E-001  1.1500000E-001 0.0
  3.7500000E-001  1.2000000E-001 0.0
  3.8000000E-001 -8.5000000E-002 0.0
  3.8000000E-001 -8.0000000E-002 0.0
  3.8000000E-001 -7.5000000E-002 0.0
  3.8000000E-001 -7.0000000E-002 0.0
  3.8000000E-001 -6.5000000E-002 0.0
  3.8000000E-001 -6.0000000E-002 0.0
  3.8000000E-001 -5.5000000E-002 0.0
  3.8000000E-001 -5.0000000E-002 0.0
  3.8000000E-001 -4.5000000E-002 0.0
  3.8000000E-001 -4.0000000E-002 0.0
  3.8000000E-001 -3.5000000E-002 0.0
  3.8000000E-001 -3.0000000E-002 0.0
  3.8000000E-001 -2.5000000E-002 0.0
  3.8000000E-001 -2.0000000E-002 0.0
  3.8000000E-001 -1.5000000E-002 0.0
  3.8000000E-001 -1.0000000E-002 0.0
  3.8000000E-001 -5.0000000E-003 0.0
  3.8000000E-001  0.0000000E+000 0.0
  3.8000000E-001  5.0000000E-003 0.0
  3.8000000E-001  1.0000000E-002 0.0
  3.8000000E-001  1.5000000E-002 0.0
  3.8000000E-001  2.0000000E-002 0.0
  3.8000000E-001  2.5000000E-002 0.0
  3.8000000E-001  3.0000000E-002 0.0
  3.8000000E-001  3.5000000E-002 0.0
  3.8000000E-001  4.0000000E-002 0.0
  3.8000000E-001  4.5000000E-002 0.0
  3.8000000E-001  5.0000000E-002 0.0
  3.8000000E-001  8.5000000E-002 0.0
  3.8000000E-001  9.0000000E-002 0.0
  3.8000000E-001  9.5000000E-002 0.0
  3.8000000E-001  1.0000000E-001 0.0
  3.8000000E-001  1.0500000E-001 0.0
  3.8000000E-001  1.1000000E-001 0.0
  3.8000000E-001  1.1500000E-001 0.0
  3.8000000E-001  1.2000000E-001 0.0
  3.8500000E-001 -8.5000000E-002 0.0
  3.8500000E-001 -8.0000000E-002 0.0
  3.8500000E-001 -7.5000000E-002 0.0
  3.8500000E-001 -7.0000000E-002 0.0
  3.8500000E-001 -6.5000000E-002 0.0
  3.8500000E-001 -6.0000000E-002 0.0
  3.8500000E-001 -5.5000000E-002 0.0
  3.8500000E-001 -5.0000000E-002 0.0
  3.8500000E-001 -4.5000000E-002 0.0
  3.8500000E-001 -4.0000000E-002 0.0
  3.8500000E-001 -3.5000000E-002 0.0
  3.8500000E-001 -3.0000000E-002 0.0
  3.8500000E-001 -2.5000000E-002 0.0
  3.8500000E-001 -2.0000000E-002 0.0
  3.8500000E-001 -1.5000000E-002 0.0
  3.8500000E-001 -1.0000000E-002 0.0
  3.8500000E-001 -5.0000000E-003 0.0
  3.8500000E-001  0.0000000E+000 0.0
  3.8500000E-001  5.0000000E-003 0.0
  3.8500000E-001  1.0000000E-002 0.0
  3.8500000E-001  1.5000000E-002 0.0
  3.8500000E-001  2.0000000E-002 0.0
  3.8500000E-001  2.5000000E-002 0.0
  3.8500000E-001  3.0000000E-002 0.0
  3.8500000E-001  3.5000000E-002 0.0
  3.8500000E-001  4.0000000E-002 0.0
  3.8500000E-001  4.5000000E-002 0.0
  3.8500000E-001  5.0000000E-002 0.0
  3.8500000E-001  8.5000000E-002 0.0
  3.8500000E-001  9.0000000E-002 0.0
  3.8500000E-001  9.5000000E-002 0.0
  3.8500000E-001  1.0000000E-001 0.0
  3.8500000E-001  1.0500000E-001 0.0
  3.8500000E-001  1.1000000E-001 0.0
  3.8500000E-001  1.1500000E-001 0.0
  3.9000000E-001 -8.0000000E-002 0.0
  3.9000000E-001 -7.5000000E-002 0.0
  3.9000000E-001 -7.0000000E-002 0.0
  3.9000000E-001 -6.5000000E-002 0.0
  3.9000000E-001 -6.0000000E-002 0.0
  3.9000000E-001 -5.5000000E-002 0.0
  3.9000000E-001 -5.0000000E-002 0.0
  3.9000000E-001 -4.5000000E-002 0.0
  3.9000000E-001 -4.0000000E-002 0.0
  3.9000000E-001 -3.5000000E-002 0.0
  3.9000000E-001 -3.0000000E-002 0.0
  3.9000000E-001 -2.5000000E-002 0.0
  3.9000000E-001 -2.0000000E-002 0.0
  3.9000000E-001 -1.5000000E-002 0.0
  3.9000000E-001 -1.0000000E-002 0.0
  3.9000000E-001 -5.0000000E-003 0.0
  3.9000000E-001  0.0000000E+000 0.0
  3.9000000E-001  5.0000000E-003 0.0
  3.9000000E-001  1.0000000E-002 0.0
  3.9000000E-001  1.5000000E-002 0.0
  3.9000000E-001  2.0000000E-002 0.0
  3.9000000E-001  2.5000000E-002 0.0
  3.9000000E-001  3.0000000E-002 0.0
  3.9000000E-001  3.5000000E-002 0.0
  3.9000000E-001  4.0000000E-002 0.0
  3.9000000E-001  4.5000000E-002 0.0
  3.9000000E-001  5.0000000E-002 0.0
  3.9000000E-001  8.5000000E-002 0.0
  3.9000000E-001  9.0000000E-002 0.0
  3.9000000E-001  9.5000000E-002 0.0
  3.9000000E-001  1.0000000E-001 0.0
  3.9000000E-001  1.0500000E-001 0.0
  3.9000000E-001  1.1000000E-001 0.0
  3.9000000E-001  1.1500000E-001 0.0
  3.9500000E-001 -8.0000000E-002 0.0
  3.9500000E-001 -7.5000000E-002 0.0
  3.9500000E-001 -7.0000000E-002 0.0
  3.9500000E-001 -6.5000000E-002 0.0
  3.9500000E-001 -6.0000000E-002 0.0
  3.9500000E-001 -5.5000000E-002 0.0
  3.9500000E-001 -5.0000000E-002 0.0
  3.9500000E-001 -4.5000000E-002 0.0
  3.9500000E-001 -4.0000000E-002 0.0
  3.9500000E-001 -3.5000000E-002 0.0
  3.9500000E-001 -3.0000000E-002 0.0
  3.9500000E-001 -2.5000000E-002 0.0
  3.9500000E-001 -2.0000000E-002 0.0
  3.9500000E-001 -1.5000000E-002 0.0
  3.9500000E-001 -1.0000000E-002 0.0
  3.9500000E-001 -5.0000000E-003 0.0
  3.9500000E-001  0.0000000E+000 0.0
  3.9500000E-001  5.0000000E-003 0.0
  3.9500000E-001  1.0000000E-002 0.0
  3.9500000E-001  1.5000000E-002 0.0
  3.9500000E-001  2.0000000E-002 0.0
  3.9500000E-001  2.5000000E-002 0.0
  3.9500000E-001  3.0000000E-002 0.0
  3.9500000E-001  3.5000000E-002 0.0
  3.9500000E-001  4.0000000E-002 0.0
  3.9500000E-001  4.5000000E-002 0.0
  3.9000000E-001  8.0000000E-002 0.0
  3.9500000E-001  8.0000000E-002 0.0
  3.9500000E-001  8.5000000E-002 0.0
  3.9500000E-001  9.0000000E-002 0.0
  3.9500000E-001  9.5000000E-002 0.0
  3.9500000E-001  1.0000000E-001 0.0
  3.9500000E-001  1.0500000E-001 0.0
  3.9500000E-001  1.1000000E-001 0.0
  3.9500000E-001  1.1500000E-001 0.0
  4.0000000E-001 -8.0000000E-002 0.0
  4.0000000E-001 -7.5000000E-002 0.0
  4.0000000E-001 -7.0000000E-002 0.0
  4.0000000E-001 -6.5000000E-002 0.0
  4.0000000E-001 -6.0000000E-002 0.0
  4.0000000E-001 -5.5000000E-002 0.0
  4.0000000E-001 -5.0000000E-002 0.0
  4.0000000E-001 -4.5000000E-002 0.0
  4.0000000E-001 -4.0000000E-002 0.0
  4.0000000E-001 -3.5000000E-002 0.0
  4.0000000E-001 -3.0000000E-002 0.0
  4.0000000E-001 -2.5000000E-002 0.0
  4.0000000E-001 -2.0000000E-002 0.0
  4.0000000E-001 -1.5000000E-002 0.0
  4.0000000E-001 -1.0000000E-002 0.0
  4.0000000E-001 -5.0000000E-003 0.0
  4.0000000E-001  0.0000000E+000 0.0
  4.0000000E-001  5.0000000E-003 0.0
  4.0000000E-001  1.0000000E-002 0.0
  4.0000000E-001  1.5000000E-002 0.0
  4.0000000E-001  2.0000000E-002 0.0
  4.0000000E-001  2.5000000E-002 0.0
  4.0000000E-001  3.0000000E-002 0.0
  4.0000000E-001  3.5000000E-002 0.0
  4.0000000E-001  4.0000000E-002 0.0
  4.0000000E-001  4.5000000E-002 0.0
  4.0000000E-001  8.0000000E-002 0.0
  4.0000000E-001  8.5000000E-002 0.0
  4.0000000E-001  9.0000000E-002 0.0
  4.0000000E-001  9.5000000E-002 0.0
  4.0000000E-001  1.0000000E-001 0.0
  4.0000000E-001  1.0500000E-001 0.0
  4.0000000E-001  1.1000000E-001 0.0
  4.0500000E-001 -7.5000000E-002 0.0
  4.0500000E-001 -7.0000000E-002 0.0
  4.0500000E-001 -6.5000000E-002 0.0
  4.0500000E-001 -6.0000000E-002 0.0
  4.0500000E-001 -5.5000000E-002 0.0
  4.0500000E-001 -5.0000000E-002 0.0
  4.0500000E-001 -4.5000000E-002 0.0
  4.0500000E-001 -4.0000000E-002 0.0
  4.0500000E-001 -3.5000000E-002 0.0
  4.0500000E-001 -3.0000000E-002 0.0
  4.0500000E-001 -2.5000000E-002 0.0
  4.0500000E-001 -2.0000000E-002 0.0
  4.0500000E-001 -1.5000000E-002 0.0
  4.0500000E-001 -1.0000000E-002 0.0
  4.0500000E-001 -5.0000000E-003 0.0
  4.0500000E-001  0.0000000E+000 0.0
  4.0500000E-001  5.0000000E-003 0.0
  4.0500000E-001  1.0000000E-002 0.0
  4.0500000E-001  1.5000000E-002 0.0
  4.0500000E-001  2.0000000E-002 0.0
  4.0500000E-001  2.5000000E-002 0.0
  4.0500000E-001  3.0000000E-002 0.0
  4.0500000E-001  3.5000000E-002 0.0
  4.0500000E-001  4.0000000E-002 0.0
  4.0500000E-001  4.5000000E-002 0.0
  4.0500000E-001  8.0000000E-002 0.0
  4.0500000E-001  8.5000000E-002 0.0
  4.0500000E-001  9.0000000E-002 0.0
  4.0500000E-001  9.5000000E-002 0.0
  4.0500000E-001  1.0000000E-001 0.0
  4.0500000E-001  1.0500000E-001 0.0
  4.0500000E-001  1.1000000E-001 0.0
  4.1000000E-001 -7.5000000E-002 0.0
  4.1000000E-001 -7.0000000E-002 0.0
  4.1000000E-001 -6.5000000E-002 0.0
  4.1000000E-001 -6.0000000E-002 0.0
  4.1000000E-001 -5.5000000E-002 0.0
  4.1000000E-001 -5.0000000E-002 0.0
  4.1000000E-001 -4.5000000E-002 0.0
  4.1000000E-001 -4.0000000E-002 0.0
  4.1000000E-001 -3.5000000E-002 0.0
  4.1000000E-001 -3.0000000E-002 0.0
  4.1000000E-001 -2.5000000E-002 0.0
  4.1000000E-001 -2.0000000E-002 0.0
  4.1000000E-001 -1.5000000E-002 0.0
  4.1000000E-001 -1.0000000E-002 0.0
  4.1000000E-001 -5.0000000E-003 0.0
  4.1000000E-001  0.0000000E+000 0.0
  4.1000000E-001  5.0000000E-003 0.0
  4.1000000E-001  1.0000000E-002 0.0
  4.1000000E-001  1.5000000E-002 0.0
  4.1000000E-001  2.0000000E-002 0.0
  4.1000000E-001  2.5000000E-002 0.0
  4.1000000E-001  3.0000000E-002 0.0
  4.1000000E-001  3.5000000E-002 0.0
  4.1000000E-001  4.0000000E-002 0.0
  4.0500000E-001  7.5000000E-002 0.0
  4.1000000E-001  7.5000000E-002 0.0
  4.1000000E-001  8.0000000E-002 0.0
  4.1000000E-001  8.5000000E-002 0.0
  4.1000000E-001  9.0000000E-002 0.0
  4.1000000E-001  9.5000000E-002 0.0
  4.1000000E-001  1.0000000E-001 0.0
  4.1000000E-001  1.0500000E-001 0.0
  4.1000000E-001  1.1000000E-001 0.0
  4.1500000E-001 -7.5000000E-002 0.0
  4.1500000E-001 -7.0000000E-002 0.0
  4.1500000E-001 -6.5000000E-002 0.0
  4.1500000E-001 -6.0000000E-002 0.0
  4.1500000E-001 -5.5000000E-002 0.0
  4.1500000E-001 -5.0000000E-002 0.0
  4.1500000E-001 -4.5000000E-002 0.0
  4.1500000E-001 -4.0000000E-002 0.0
  4.1500000E-001 -3.5000000E-002 0.0
  4.1500000E-001 -3.0000000E-002 0.0
  4.1500000E-001 -2.5000000E-002 0.0
  4.1500000E-001 -2.0000000E-002 0.0
  4.1500000E-001 -1.5000000E-002 0.0
  4.1500000E-001 -1.0000000E-002 0.0
  4.1500000E-001 -5.0000000E-003 0.0
  4.1500000E-001  0.0000000E+000 0.0
  4.1500000E-001  5.0000000E-003 0.0
  4.1500000E-001  1.0000000E-002 0.0
  4.1500000E-001  1.5000000E-002 0.0
  4.1500000E-001  2.0000000E-002 0.0
  4.1500000E-001  2.5000000E-002 0.0
  4.1500000E-001  3.0000000E-002 0.0
  4.1500000E-001  3.5000000E-002 0.0
  4.1500000E-001  4.0000000E-002 0.0
  4.1500000E-001  7.5000000E-002 0.0
  4.1500000E-001  8.0000000E-002 0.0
  4.1500000E-001  8.5000000E-002 0.0
  4.1500000E-001  9.0000000E-002 0.0
  4.1500000E-001  9.5000000E-002 0.0
  4.1500000E-001  1.0000000E-001 0.0
  4.1500000E-001  1.0500000E-001 0.0
  4.1500000E-001  1.1000000E-001 0.0
  4.2000000E-001 -6.5000000E-002 0.0
  4.2000000E-001 -6.0000000E-002 0.0
  4.2000000E-001 -5.5000000E-002 0.0
  4.2000000E-001 -5.0000000E-002 0.0
  4.2000000E-001 -4.5000000E-002 0.0
  4.2000000E-001 -4.0000000E-002 0.0
  4.2000000E-001 -3.5000000E-002 0.0
  4.2000000E-001 -3.0000000E-002 0.0
  4.2000000E-001 -2.5000000E-002 0.0
  4.2000000E-001 -2.0000000E-002 0.0
  4.2000000E-001 -1.5000000E-002 0.0
  4.2000000E-001 -1.0000000E-002 0.0
  4.2000000E-001 -5.0000000E-003 0.0
  4.2000000E-001  0.0000000E+000 0.0
  4.2000000E-001  5.0000000E-003 0.0
  4.2000000E-001  1.0000000E-002 0.0
  4.2000000E-001  1.5000000E-002 0.0
  4.2000000E-001  2.0000000E-002 0.0
  4.2000000E-001  2.5000000E-002 0.0
  4.2000000E-001  3.0000000E-002 0.0
  4.2000000E-001  3.5000000E-002 0.0
  4.1500000E-001  7.0000000E-002 0.0
  4.2000000E-001  7.0000000E-002 0.0
  4.2000000E-001  7.5000000E-002 0.0
  4.2000000E-001  8.0000000E-002 0.0
  4.2000000E-001  8.5000000E-002 0.0
  4.2000000E-001  9.0000000E-002 0.0
  4.2000000E-001  9.5000000E-002 0.0
  4.2000000E-001  1.0000000E-001 0.0
  4.2000000E-001  1.0500000E-001 0.0
  4.2500000E-001 -6.5000000E-002 0.0
  4.2500000E-001 -6.0000000E-002 0.0
  4.2500000E-001 -5.5000000E-002 0.0
  4.2500000E-001 -5.0000000E-002 0.0
  4.2500000E-001 -4.5000000E-002 0.0
  4.2500000E-001 -4.0000000E-002 0.0
  4.2500000E-001 -3.5000000E-002 0.0
  4.2500000E-001 -3.0000000E-002 0.0
  4.2500000E-001 -2.5000000E-002 0.0
  4.2500000E-001 -2.0000000E-002 0.0
  4.2500000E-001 -1.5000000E-002 0.0
  4.2500000E-001 -1.0000000E-002 0.0
  4.2500000E-001 -5.0000000E-003 0.0
  4.2500000E-001  0.0000000E+000 0.0
  4.2500000E-001  5.0000000E-003 0.0
  4.2500000E-001  1.0000000E-002 0.0
  4.2500000E-001  1.5000000E-002 0.0
  4.2500000E-001  2.0000000E-002 0.0
  4.2500000E-001  2.5000000E-002 0.0
  4.2500000E-001  3.0000000E-002 0.0
  4.2500000E-001  3.5000000E-002 0.0
  4.2000000E-001  6.5000000E-002 0.0
  4.2500000E-001  6.5000000E-002 0.0
  4.2500000E-001  7.0000000E-002 0.0
  4.2500000E-001  7.5000000E-002 0.0
  4.2500000E-001  8.0000000E-002 0.0
  4.2500000E-001  8.5000000E-002 0.0
  4.2500000E-001  9.0000000E-002 0.0
  4.2500000E-001  9.5000000E-002 0.0
  4.2500000E-001  1.0000000E-001 0.0
  4.2500000E-001  1.0500000E-001 0.0
  4.3000000E-001 -6.0000000E-002 0.0
  4.3000000E-001 -5.5000000E-002 0.0
  4.3000000E-001 -5.0000000E-002 0.0
  4.3000000E-001 -4.5000000E-002 0.0
  4.3000000E-001 -4.0000000E-002 0.0
  4.3000000E-001 -3.5000000E-002 0.0
  4.3000000E-001 -3.0000000E-002 0.0
  4.3000000E-001 -2.5000000E-002 0.0
  4.3000000E-001 -2.0000000E-002 0.0
  4.3000000E-001 -1.5000000E-002 0.0
  4.3000000E-001 -1.0000000E-002 0.0
  4.3000000E-001 -5.0000000E-003 0.0
  4.3000000E-001  0.0000000E+000 0.0
  4.3000000E-001  5.0000000E-003 0.0
  4.3000000E-001  1.0000000E-002 0.0
  4.3000000E-001  1.5000000E-002 0.0
  4.3000000E-001  2.0000000E-002 0.0
  4.3000000E-001  2.5000000E-002 0.0
  4.3000000E-001  3.0000000E-002 0.0
  4.3000000E-001  3.5000000E-002 0.0
  4.2500000E-001  6.0000000E-002 0.0
  4.3000000E-001  6.0000000E-002 0.0
  4.3000000E-001  6.5000000E-002 0.0
  4.3000000E-001  7.0000000E-002 0.0
  4.3000000E-001  7.5000000E-002 0.0
  4.3000000E-001  8.0000000E-002 0.0
  4.3000000E-001  8.5000000E-002 0.0
  4.3000000E-001  9.0000000E-002 0.0
  4.3000000E-001  9.5000000E-002 0.0
  4.3000000E-001  1.0000000E-001 0.0
  4.3000000E-001  1.0500000E-001 0.0
  4.3500000E-001 -6.0000000E-002 0.0
  4.3500000E-001 -5.5000000E-002 0.0
  4.3500000E-001 -5.0000000E-002 0.0
  4.3500000E-001 -4.5000000E-002 0.0
  4.3500000E-001 -4.0000000E-002 0.0
  4.3500000E-001 -3.5000000E-002 0.0
  4.3500000E-001 -3.0000000E-002 0.0
  4.3500000E-001 -2.5000000E-002 0.0
  4.3500000E-001 -2.0000000E-002 0.0
  4.3500000E-001 -1.5000000E-002 0.0
  4.3500000E-001 -1.0000000E-002 0.0
  4.3500000E-001 -5.0000000E-003 0.0
  4.3500000E-001  0.0000000E+000 0.0
  4.3500000E-001  5.0000000E-003 0.0
  4.3500000E-001  1.0000000E-002 0.0
  4.3500000E-001  1.5000000E-002 0.0
  4.3500000E-001  2.0000000E-002 0.0
  4.3500000E-001  2.5000000E-002 0.0
  4.3500000E-001  3.0000000E-002 0.0
  4.3500000E-001  3.5000000E-002 0.0
  4.3000000E-001  5.5000000E-002 0.0
  4.3500000E-001  5.5000000E-002 0.0
  4.3500000E-001  6.0000000E-002 0.0
  4.3500000E-001  6.5000000E-002 0.0
  4.3500000E-001  7.0000000E-002 0.0
  4.3500000E-001  7.5000000E-002 0.0
  4.3500000E-001  8.0000000E-002 0.0
  4.3500000E-001  8.5000000E-002 0.0
  4.3500000E-001  9.0000000E-002 0.0
  4.3500000E-001  9.5000000E-002 0.0
  4.3500000E-001  1.0000000E-001 0.0
  4.4000000E-001 -5.5000000E-002 0.0
  4.4000000E-001 -5.0000000E-002 0.0
  4.4000000E-001 -4.5000000E-002 0.0
  4.4000000E-001 -4.0000000E-002 0.0
  4.4000000E-001 -3.5000000E-002 0.0
  4.4000000E-001 -3.0000000E-002 0.0
  4.4000000E-001 -2.5000000E-002 0.0
  4.4000000E-001 -2.0000000E-002 0.0
  4.4000000E-001 -1.5000000E-002 0.0
  4.4000000E-001 -1.0000000E-002 0.0
  4.4000000E-001 -5.0000000E-003 0.0
  4.4000000E-001  0.0000000E+000 0.0
  4.4000000E-001  5.0000000E-003 0.0
  4.4000000E-001  1.0000000E-002 0.0
  4.4000000E-001  1.5000000E-002 0.0
  4.4000000E-001  2.0000000E-002 0.0
  4.4000000E-001  2.5000000E-002 0.0
  4.4000000E-001  3.0000000E-002 0.0
  4.4000000E-001  3.5000000E-002 0.0
  4.4000000E-001  4.0000000E-002 0.0
  4.3500000E-001  4.0000000E-002 0.0
  4.4000000E-001  4.5000000E-002 0.0
  4.3500000E-001  4.5000000E-002 0.0
  4.4000000E-001  5.0000000E-002 0.0
  4.3500000E-001  5.0000000E-002 0.0
  4.4000000E-001  5.5000000E-002 0.0
  4.4000000E-001  6.0000000E-002 0.0
  4.4000000E-001  6.5000000E-002 0.0
  4.4000000E-001  7.0000000E-002 0.0
  4.4000000E-001  7.5000000E-002 0.0
  4.4000000E-001  8.0000000E-002 0.0
  4.4000000E-001  8.5000000E-002 0.0
  4.4000000E-001  9.0000000E-002 0.0
  4.4000000E-001  9.5000000E-002 0.0
  4.4500000E-001 -5.5000000E-002 0.0
  4.4500000E-001 -5.0000000E-002 0.0
  4.4500000E-001 -4.5000000E-002 0.0
  4.4500000E-001 -4.0000000E-002 0.0
  4.4500000E-001 -3.5000000E-002 0.0
  4.4500000E-001 -3.0000000E-002 0.0
  4.4500000E-001 -2.5000000E-002 0.0
  4.4500000E-001 -2.0000000E-002 0.0
  4.4500000E-001 -1.5000000E-002 0.0
  4.4500000E-001 -1.0000000E-002 0.0
  4.4500000E-001 -5.0000000E-003 0.0
  4.4500000E-001  0.0000000E+000 0.0
  4.4500000E-001  5.0000000E-003 0.0
  4.4500000E-001  1.0000000E-002 0.0
  4.4500000E-001  1.5000000E-002 0.0
  4.4500000E-001  2.0000000E-002 0.0
  4.4500000E-001  2.5000000E-002 0.0
  4.4500000E-001  3.0000000E-002 0.0
  4.4500000E-001  3.5000000E-002 0.0
  4.4500000E-001  4.0000000E-002 0.0
  4.4500000E-001  4.5000000E-002 0.0
  4.4500000E-001  5.0000000E-002 0.0
  4.4500000E-001  5.5000000E-002 0.0
  4.4500000E-001  6.0000000E-002 0.0
  4.4500000E-001  6.5000000E-002 0.0
  4.4500000E-001  7.0000000E-002 0.0
  4.4500000E-001  7.5000000E-002 0.0
  4.4500000E-001  8.0000000E-002 0.0
  4.4500000E-001  8.5000000E-002 0.0
  4.4500000E-001  9.0000000E-002 0.0
  4.5000000E-001 -5.0000000E-002 0.0
  4.5000000E-001 -4.5000000E-002 0.0
  4.5000000E-001 -4.0000000E-002 0.0
  4.5000000E-001 -3.5000000E-002 0.0
  4.5000000E-001 -3.0000000E-002 0.0
  4.5000000E-001 -2.5000000E-002 0.0
  4.5000000E-001 -2.0000000E-002 0.0
  4.5000000E-001 -1.5000000E-002 0.0
  4.5000000E-001 -1.0000000E-002 0.0
  4.5000000E-001 -5.0000000E-003 0.0
  4.5000000E-001  0.0000000E+000 0.0
  4.5000000E-001  5.0000000E-003 0.0
  4.5000000E-001  1.0000000E-002 0.0
  4.5000000E-001  1.5000000E-002 0.0
  4.5000000E-001  2.0000000E-002 0.0
  4.5000000E-001  2.5000000E-002 0.0
  4.5000000E-001  3.0000000E-002 0.0
  4.5000000E-001  3.5000000E-002 0.0
  4.5000000E-001  4.0000000E-002 0.0
  4.5000000E-001  4.5000000E-002 0.0
  4.5000000E-001  5.0000000E-002 0.0
  4.5000000E-001  5.5000000E-002 0.0
  4.5000000E-001  6.0000000E-002 0.0
  4.5000000E-001  6.5000000E-002 0.0
  4.5000000E-001  7.0000000E-002 0.0
  4.5000000E-001  7.5000000E-002 0.0
  4.5000000E-001  8.0000000E-002 0.0
  4.5000000E-001  8.5000000E-002 0.0
  4.5500000E-001 -5.0000000E-002 0.0
  4.5500000E-001 -4.5000000E-002 0.0
  4.5500000E-001 -4.0000000E-002 0.0
  4.5500000E-001 -3.5000000E-002 0.0
  4.5500000E-001 -3.0000000E-002 0.0
  4.5500000E-001 -2.5000000E-002 0.0
  4.5500000E-001 -2.0000000E-002 0.0
  4.5500000E-001 -1.5000000E-002 0.0
  4.5500000E-001 -1.0000000E-002 0.0
  4.5500000E-001 -5.0000000E-003 0.0
  4.5500000E-001  0.0000000E+000 0.0
  4.5500000E-001  5.0000000E-003 0.0
  4.5500000E-001  1.0000000E-002 0.0
  4.5500000E-001  1.5000000E-002 0.0
  4.5500000E-001  2.0000000E-002 0.0
  4.5500000E-001  2.5000000E-002 0.0
  4.5500000E-001  3.0000000E-002 0.0
  4.5500000E-001  3.5000000E-002 0.0
  4.5500000E-001  4.0000000E-002 0.0
  4.5500000E-001  4.5000000E-002 0.0
  4.5500000E-001  5.0000000E-002 0.0
  4.5500000E-001  5.5000000E-002 0.0
  4.5500000E-001  6.0000000E-002 0.0
  4.5500000E-001  6.5000000E-002 0.0
  4.5500000E-001  7.0000000E-002 0.0
  4.5500000E-001  7.5000000E-002 0.0
  4.6000000E-001 -5.0000000E-002 0.0
  4.6000000E-001 -4.5000000E-002 0.0
  4.6000000E-001 -4.0000000E-002 0.0
  4.6000000E-001 -3.5000000E-002 0.0
  4.6000000E-001 -3.0000000E-002 0.0
  4.6000000E-001 -2.5000000E-002 0.0
  4.6000000E-001 -2.0000000E-002 0.0
  4.6000000E-001 -1.5000000E-002 0.0
  4.6000000E-001 -1.0000000E-002 0.0
  4.6000000E-001 -5.0000000E-003 0.0
  4.6000000E-001  0.0000000E+000 0.0
  4.6000000E-001  5.0000000E-003 0.0
  4.6000000E-001  1.0000000E-002 0.0
  4.6000000E-001  1.5000000E-002 0.0
  4.6000000E-001  2.0000000E-002 0.0
  4.6000000E-001  2.5000000E-002 0.0
  4.6000000E-001  3.0000000E-002 0.0
  4.6000000E-001  3.5000000E-002 0.0
  4.6000000E-001  4.0000000E-002 0.0
  4.6000000E-001  4.5000000E-002 0.0
  4.6000000E-001  5.0000000E-002 0.0
  4.6000000E-001  5.5000000E-002 0.0
  4.6000000E-001  6.0000000E-002 0.0
  4.6000000E-001  6.5000000E-002 0.0
  4.6500000E-001 -4.5000000E-002 0.0
  4.6500000E-001 -4.0000000E-002 0.0
  4.6500000E-001 -3.5000000E-002 0.0
  4.6500000E-001 -3.0000000E-002 0.0
  4.6500000E-001 -2.5000000E-002 0.0
  4.6500000E-001 -2.0000000E-002 0.0
  4.6500000E-001 -1.5000000E-002 0.0
  4.6500000E-001 -1.0000000E-002 0.0
  4.6500000E-001 -5.0000000E-003 0.0
  4.6500000E-001  0.0000000E+000 0.0
  4.6500000E-001  5.0000000E-003 0.0
  4.6500000E-001  1.0000000E-002 0.0
  4.6500000E-001  1.5000000E-002 0.0
  4.6500000E-001  2.0000000E-002 0.0
  4.6500000E-001  2.5000000E-002 0.0
  4.6500000E-001  3.0000000E-002 0.0
  4.6500000E-001  3.5000000E-002 0.0
  4.6500000E-001  4.0000000E-002 0.0
  4.6500000E-001  4.5000000E-002 0.0
  4.6500000E-001  5.0000000E-002 0.0
  4.6500000E-001  5.5000000E-002 0.0
  4.7000000E-001 -4.5000000E-002 0.0
  4.7000000E-001 -4.0000000E-002 0.0
  4.7000000E-001 -3.5000000E-002 0.0
  4.7000000E-001 -3.0000000E-002 0.0
  4.7000000E-001 -2.5000000E-002 0.0
  4.7000000E-001 -2.0000000E-002 0.0
  4.7000000E-001 -1.5000000E-002 0.0
  4.7000000E-001 -1.0000000E-002 0.0
  4.7000000E-001 -5.0000000E-003 0.0
  4.7000000E-001  0.0000000E+000 0.0
  4.7000000E-001  5.0000000E-003 0.0
  4.7000000E-001  1.0000000E-002 0.0
  4.7000000E-001  1.5000000E-002 0.0
  4.7000000E-001  2.0000000E-002 0.0
  4.7000000E-001  2.5000000E-002 0.0
  4.7000000E-001  3.0000000E-002 0.0
  4.7000000E-001  3.5000000E-002 0.0
  4.7000000E-001  4.0000000E-002 0.0
  4.7500000E-001 -4.5000000E-002 0.0
  4.7500000E-001 -4.0000000E-002 0.0
  4.7500000E-001 -3.5000000E-002 0.0
  4.7500000E-001 -3.0000000E-002 0.0
  4.7500000E-001 -2.5000000E-002 0.0
  4.7500000E-001 -2.0000000E-002 0.0
  4.7500000E-001 -1.5000000E-002 0.0
  4.7500000E-001 -1.0000000E-002 0.0
  4.7500000E-001 -5.0000000E-003 0.0
  4.7500000E-001  0.0000000E+000 0.0
  4.7500000E-001  5.0000000E-003 0.0
  4.7500000E-001  1.0000000E-002 0.0
  4.7500000E-001  1.5000000E-002 0.0
  4.7500000E-001  2.0000000E-002 0.0
  4.7500000E-001  2.5000000E-002 0.0
  4.7500000E-001  3.0000000E-002 0.0
  4.8000000E-001 -4.0000000E-002 0.0
  4.8000000E-001 -3.5000000E-002 0.0
  4.8000000E-001 -3.0000000E-002 0.0
  4.8000000E-001 -2.5000000E-002 0.0
  4.8000000E-001 -2.0000000E-002 0.0
  4.8000000E-001 -1.5000000E-002 0.0
  4.8000000E-001 -1.0000000E-002 0.0
  4.8000000E-001 -5.0000000E-003 0.0
  4.8000000E-001  0.0000000E+000 0.0
  4.8000000E-001  5.0000000E-003 0.0
  4.8000000E-001  1.0000000E-002 0.0
  4.8500000E-001 -3.5000000E-002 0.0
  4.8500000E-001 -3.0000000E-002 0.0
  4.8500000E-001 -2.5000000E-002 0.0
  4.8500000E-001 -2.0000000E-002 0.0

CELLS 9646 45782
4 1 2 3 0 
4 2 4 5 3 
4 4 6 7 5 
4 6 8 9 7 
4 8 10 11 9 
4 13 14 15 12 
4 14 16 17 15 
4 16 18 19 17 
4 18 20 21 19 
4 20 22 23 21 
4 22 24 25 23 
4 24 26 27 25 
4 26 28 29 27 
4 28 30 31 29 
4 30 32 33 31 
4 32 34 35 33 
4 34 36 1 35 
4 36 37 2 1 
4 37 38 4 2 
4 38 39 6 4 
4 39 40 8 6 
4 40 41 10 8 
4 41 42 43 10 
4 42 44 45 43 
4 44 46 47 45 
4 48 49 14 13 
4 49 50 16 14 
4 50 51 18 16 
4 51 52 20 18 
4 52 53 22 20 
4 53 54 24 22 
4 54 55 26 24 
4 55 56 28 26 
4 56 57 30 28 
4 57 58 32 30 
4 58 59 34 32 
4 59 60 36 34 
4 60 61 37 36 
4 61 62 38 37 
4 62 63 39 38 
4 63 64 40 39 
4 64 65 41 40 
4 65 66 42 41 
4 66 67 44 42 
4 67 68 46 44 
4 68 69 70 46 
4 69 71 72 70 
4 74 75 48 73 
4 75 76 49 48 
4 76 77 50 49 
4 77 78 51 50 
4 78 79 52 51 
4 79 80 53 52 
4 80 81 54 53 
4 81 82 55 54 
4 82 83 56 55 
4 83 84 57 56 
4 84 85 58 57 
4 85 86 59 58 
4 86 87 60 59 
4 87 88 61 60 
4 88 89 62 61 
4 89 90 63 62 
4 90 91 64 63 
4 91 92 65 64 
4 92 93 66 65 
4 93 94 67 66 
4 94 95 68 67 
4 95 96 69 68 
4 96 97 71 69 
4 97 98 99 71 
4 100 101 75 74 
4 101 102 76 75 
4 102 103 77 76 
4 103 104 78 77 
4 104 105 79 78 
4 105 106 80 79 
4 106 107 81 80 
4 107 108 82 81 
4 108 109 83 82 
4 109 110 84 83 
4 110 111 85 84 
4 111 112 86 85 
4 112 113 87 86 
4 113 114 88 87 
4 114 115 89 88 
4 115 116 90 89 
4 116 117 91 90 
4 117 118 92 91 
4 118 119 93 92 
4 119 120 94 93 
4 120 121 95 94 
4 121 122 96 95 
4 122 123 97 96 
4 123 124 98 97 
4 125 126 101 100 
4 126 127 102 101 
4 127 128 103 102 
4 128 129 104 103 
4 129 130 105 104 
4 130 131 106 105 
4 131 132 107 106 
4 132 133 108 107 
4 133 134 109 108 
4 134 135 110 109 
4 135 136 111 110 
4 136 137 112 111 
4 137 138 113 112 
4 138 139 114 113 
4 139 140 115 114 
4 140 141 116 115 
4 141 142 117 116 
4 142 143 118 117 
4 143 144 119 118 
4 144 145 120 119 
4 145 146 121 120 
4 146 147 122 121 
4 147 148 123 122 
4 148 149 124 123 
4 149 150 151 124 
4 150 152 153 151 
4 155 156 125 154 
4 156 157 126 125 
4 157 158 127 126 
4 158 159 128 127 
4 159 160 129 128 
4 160 161 130 129 
4 161 162 131 130 
4 162 163 132 131 
4 163 164 133 132 
4 164 165 134 133 
4 165 166 135 134 
4 166 167 136 135 
4 167 168 137 136 
4 168 169 138 137 
4 169 170 139 138 
4 170 171 140 139 
4 171 172 141 140 
4 172 173 142 141 
4 173 174 143 142 
4 174 175 144 143 
4 175 176 145 144 
4 176 177 146 145 
4 177 178 147 146 
4 178 179 148 147 
4 179 180 149 148 
4 180 181 150 149 
4 181 182 152 150 
4 182 183 184 152 
4 183 185 186 184 
4 187 188 156 155 
4 188 189 157 156 
4 189 190 158 157 
4 190 191 159 158 
4 191 192 160 159 
4 192 193 161 160 
4 193 194 162 161 
4 194 195 163 162 
4 195 196 164 163 
4 196 197 165 164 
4 197 198 166 165 
4 198 199 167 166 
4 199 200 168 167 
4 200 201 169 168 
4 201 202 170 169 
4 202 203 171 170 
4 203 204 172 171 
4 204 205 173 172 
4 205 206 174 173 
4 206 207 175 174 
4 207 208 176 175 
4 208 209 177 176 
4 209 210 178 177 
4 210 211 179 178 
4 211 212 180 179 
4 212 213 181 180 
4 213 214 182 181 
4 214 215 183 182 
4 215 216 185 183 
4 216 217 218 185 
4 217 219 220 218 
4 222 223 187 221 
4 223 224 188 187 
4 224 225 189 188 
4 225 226 190 189 
4 226 227 191 190 
4 227 228 192 191 
4 228 229 193 192 
4 229 230 194 193 
4 230 231 195 194 
4 231 232 196 195 
4 232 233 197 196 
4 233 234 198 197 
4 234 235 199 198 
4 235 236 200 199 
4 236 237 201 200 
4 237 238 202 201 
4 238 239 203 202 
4 239 240 204 203 
4 240 241 205 204 
4 241 242 206 205 
4 242 243 207 206 
4 243 244 208 207 
4 244 245 209 208 
4 245 246 210 209 
4 246 247 211 210 
4 247 248 212 211 
4 248 249 213 212 
4 249 250 214 213 
4 250 251 215 214 
4 251 252 216 215 
4 252 253 217 216 
4 253 254 219 217 
4 254 255 256 219 
4 255 257 258 256 
4 259 260 223 222 
4 260 261 224 223 
4 261 262 225 224 
4 262 263 226 225 
4 263 264 227 226 
4 264 265 228 227 
4 265 266 229 228 
4 266 267 230 229 
4 267 268 231 230 
4 268 269 232 231 
4 269 270 233 232 
4 270 271 234 233 
4 271 272 235 234 
4 272 273 236 235 
4 273 274 237 236 
4 274 275 238 237 
4 275 276 239 238 
4 276 277 240 239 
4 277 278 241 240 
4 278 279 242 241 
4 279 280 243 242 
4 280 281 244 243 
4 281 282 245 244 
4 282 283 246 245 
4 283 284 247 246 
4 284 285 248 247 
4 285 286 249 248 
4 286 287 250 249 
4 287 288 251 250 
4 288 289 252 251 
4 289 290 253 252 
4 290 291 254 253 
4 291 292 255 254 
4 292 293 257 255 
4 293 294 295 257 
4 294 296 297 295 
4 298 299 261 260 
4 299 300 262 261 
4 300 301 263 262 
4 301 302 264 263 
4 302 303 265 264 
4 303 304 266 265 
4 304 305 267 266 
4 305 306 268 267 
4 306 307 269 268 
4 307 308 270 269 
4 308 309 271 270 
4 309 310 272 271 
4 310 311 273 272 
4 311 312 274 273 
4 312 313 275 274 
4 313 314 276 275 
4 314 315 277 276 
4 315 316 278 277 
4 316 317 279 278 
4 317 318 280 279 
4 318 319 281 280 
4 319 320 282 281 
4 320 321 283 282 
4 321 322 284 283 
4 322 323 285 284 
4 323 324 286 285 
4 324 325 287 286 
4 325 326 288 287 
4 326 327 289 288 
4 327 328 290 289 
4 328 329 291 290 
4 329 330 292 291 
4 330 331 293 292 
4 331 332 294 293 
4 332 333 296 294 
4 333 334 335 296 
4 336 337 300 299 
4 337 338 301 300 
4 338 339 302 301 
4 339 340 303 302 
4 340 341 304 303 
4 341 342 305 304 
4 342 343 306 305 
4 343 344 307 306 
4 344 345 308 307 
4 345 346 309 308 
4 346 347 310 309 
4 347 348 311 310 
4 348 349 312 311 
4 349 350 313 312 
4 350 351 314 313 
4 351 352 315 314 
4 352 353 316 315 
4 353 354 317 316 
4 354 355 318 317 
4 355 356 319 318 
4 356 357 320 319 
4 357 358 321 320 
4 358 359 322 321 
4 359 360 323 322 
4 360 361 324 323 
4 361 362 325 324 
4 362 363 326 325 
4 363 364 327 326 
4 364 365 328 327 
4 365 366 329 328 
4 366 367 330 329 
4 367 368 331 330 
4 368 369 332 331 
4 369 370 333 332 
4 370 371 334 333 
4 371 372 373 334 
4 374 375 338 337 
4 375 376 339 338 
4 376 377 340 339 
4 377 378 341 340 
4 378 379 342 341 
4 379 380 343 342 
4 380 381 344 343 
4 381 382 345 344 
4 382 383 346 345 
4 383 384 347 346 
4 384 385 348 347 
4 385 386 349 348 
4 386 387 350 349 
4 387 388 351 350 
4 388 389 352 351 
4 389 390 353 352 
4 390 391 354 353 
4 391 392 355 354 
4 392 393 356 355 
4 393 394 357 356 
4 394 395 358 357 
4 395 396 359 358 
4 396 397 360 359 
4 397 398 361 360 
4 398 399 362 361 
4 399 400 363 362 
4 400 401 364 363 
4 401 402 365 364 
4 402 403 366 365 
4 403 404 367 366 
4 404 405 368 367 
4 405 406 369 368 
4 406 407 370 369 
4 407 408 371 370 
4 408 409 372 371 
4 409 410 411 372 
4 412 413 375 374 
4 413 414 376 375 
4 414 415 377 376 
4 415 416 378 377 
4 416 417 379 378 
4 417 418 380 379 
4 418 419 381 380 
4 419 420 382 381 
4 420 421 383 382 
4 421 422 384 383 
4 422 423 385 384 
4 423 424 386 385 
4 424 425 387 386 
4 425 426 388 387 
4 426 427 389 388 
4 427 428 390 389 
4 428 429 391 390 
4 429 430 392 391 
4 430 431 393 392 
4 431 432 394 393 
4 432 433 395 394 
4 433 434 396 395 
4 434 435 397 396 
4 435 436 398 397 
4 436 437 399 398 
4 437 438 400 399 
4 438 439 401 400 
4 439 440 402 401 
4 440 441 403 402 
4 441 442 404 403 
4 442 443 405 404 
4 443 444 406 405 
4 444 445 407 406 
4 445 446 408 407 
4 446 447 409 408 
4 447 448 410 409 
4 449 450 413 412 
4 450 451 414 413 
4 451 452 415 414 
4 452 453 416 415 
4 453 454 417 416 
4 454 455 418 417 
4 455 456 419 418 
4 456 457 420 419 
4 457 458 421 420 
4 458 459 422 421 
4 459 460 423 422 
4 460 461 424 423 
4 461 462 425 424 
4 462 463 426 425 
4 463 464 427 426 
4 464 465 428 427 
4 465 466 429 428 
4 466 467 430 429 
4 467 468 431 430 
4 468 469 432 431 
4 469 470 433 432 
4 470 471 434 433 
4 471 472 435 434 
4 472 473 436 435 
4 473 474 437 436 
4 474 475 438 437 
4 475 476 439 438 
4 476 477 440 439 
4 477 478 441 440 
4 478 479 442 441 
4 479 480 443 442 
4 480 481 444 443 
4 481 482 445 444 
4 482 483 446 445 
4 483 484 447 446 
4 484 485 448 447 
4 485 486 487 448 
4 489 490 491 488 
4 490 492 493 491 
4 492 494 495 493 
4 494 496 497 495 
4 499 500 501 498 
4 500 502 503 501 
4 502 504 449 503 
4 504 505 450 449 
4 505 506 451 450 
4 506 507 452 451 
4 507 508 453 452 
4 508 509 454 453 
4 509 510 455 454 
4 510 511 456 455 
4 511 512 457 456 
4 512 513 458 457 
4 513 514 459 458 
4 514 515 460 459 
4 515 516 461 460 
4 516 517 462 461 
4 517 518 463 462 
4 518 519 464 463 
4 519 520 465 464 
4 521 522 470 469 
4 522 523 471 470 
4 523 524 472 471 
4 524 525 473 472 
4 525 526 474 473 
4 526 527 475 474 
4 527 528 476 475 
4 528 529 477 476 
4 529 530 478 477 
4 530 531 479 478 
4 531 532 480 479 
4 532 533 481 480 
4 533 534 482 481 
4 534 535 483 482 
4 535 536 484 483 
4 536 537 485 484 
4 537 538 486 485 
4 540 541 489 539 
4 541 542 490 489 
4 542 543 492 490 
4 543 544 494 492 
4 544 545 496 494 
4 545 546 547 496 
4 546 548 549 547 
4 548 550 551 549 
4 553 554 555 552 
4 554 556 499 555 
4 556 557 500 499 
4 557 558 502 500 
4 558 559 504 502 
4 559 560 505 504 
4 560 561 506 505 
4 561 562 507 506 
4 562 563 508 507 
4 563 564 509 508 
4 564 565 510 509 
4 565 566 511 510 
4 566 567 512 511 
4 567 568 513 512 
4 568 569 514 513 
4 569 570 515 514 
4 570 571 516 515 
4 571 572 517 516 
4 572 573 518 517 
4 573 574 519 518 
4 574 575 520 519 
4 576 577 524 523 
4 577 578 525 524 
4 578 579 526 525 
4 579 580 527 526 
4 580 581 528 527 
4 581 582 529 528 
4 582 583 530 529 
4 583 584 531 530 
4 584 585 532 531 
4 585 586 533 532 
4 586 587 534 533 
4 587 588 535 534 
4 588 589 536 535 
4 589 590 537 536 
4 590 591 538 537 
4 591 592 593 538 
4 594 595 541 540 
4 595 596 542 541 
4 596 597 543 542 
4 597 598 544 543 
4 598 599 545 544 
4 599 600 546 545 
4 600 601 548 546 
4 601 602 550 548 
4 602 603 604 550 
4 603 605 606 604 
4 605 607 608 606 
4 607 609 610 608 
4 612 613 614 611 
4 613 615 553 614 
4 615 616 554 553 
4 616 617 556 554 
4 617 618 557 556 
4 618 619 558 557 
4 619 620 559 558 
4 620 621 560 559 
4 621 622 561 560 
4 622 623 562 561 
4 623 624 563 562 
4 624 625 564 563 
4 625 626 565 564 
4 626 627 566 565 
4 627 628 567 566 
4 628 629 568 567 
4 629 630 569 568 
4 630 631 570 569 
4 631 632 571 570 
4 632 633 572 571 
4 633 634 573 572 
4 634 635 574 573 
4 635 636 575 574 
4 637 638 580 579 
4 638 639 581 580 
4 639 640 582 581 
4 640 641 583 582 
4 641 642 584 583 
4 642 643 585 584 
4 643 644 586 585 
4 644 645 587 586 
4 645 646 588 587 
4 646 647 589 588 
4 647 648 590 589 
4 648 649 591 590 
4 649 650 592 591 
4 650 651 652 592 
4 654 655 594 653 
4 655 656 595 594 
4 656 657 596 595 
4 657 658 597 596 
4 658 659 598 597 
4 659 660 599 598 
4 660 661 600 599 
4 661 662 601 600 
4 662 663 602 601 
4 663 664 603 602 
4 664 665 605 603 
4 665 666 607 605 
4 666 667 609 607 
4 667 668 669 609 
4 668 670 671 669 
4 670 672 673 671 
4 672 674 675 673 
4 674 676 677 675 
4 676 678 679 677 
4 678 680 681 679 
4 680 682 683 681 
4 682 684 685 683 
4 684 686 687 685 
4 686 688 689 687 
4 688 690 691 689 
4 690 692 693 691 
4 692 694 695 693 
4 694 696 697 695 
4 696 698 699 697 
4 698 700 612 699 
4 700 701 613 612 
4 701 702 615 613 
4 702 703 616 615 
4 703 704 617 616 
4 704 705 618 617 
4 705 706 619 618 
4 706 707 620 619 
4 707 708 621 620 
4 708 709 622 621 
4 709 710 623 622 
4 710 711 624 623 
4 711 712 625 624 
4 712 713 626 625 
4 713 714 627 626 
4 714 715 628 627 
4 715 716 629 628 
4 716 717 630 629 
4 717 718 631 630 
4 718 719 632 631 
4 719 720 633 632 
4 720 721 634 633 
4 721 722 635 634 
4 722 723 636 635 
4 724 725 640 639 
4 725 726 641 640 
4 726 727 642 641 
4 727 728 643 642 
4 728 729 644 643 
4 729 730 645 644 
4 730 731 646 645 
4 731 732 647 646 
4 732 733 648 647 
4 733 734 649 648 
4 734 735 650 649 
4 735 736 651 650 
4 737 738 655 654 
4 738 739 656 655 
4 739 740 657 656 
4 740 741 658 657 
4 741 742 659 658 
4 742 743 660 659 
4 743 744 661 660 
4 744 745 662 661 
4 745 746 663 662 
4 746 747 664 663 
4 747 748 665 664 
4 748 749 666 665 
4 749 750 667 666 
4 750 751 668 667 
4 751 752 670 668 
4 752 753 672 670 
4 753 754 674 672 
4 754 755 676 674 
4 755 756 678 676 
4 756 757 680 678 
4 757 758 682 680 
4 758 759 684 682 
4 759 760 686 684 
4 760 761 688 686 
4 761 762 690 688 
4 762 763 692 690 
4 763 764 694 692 
4 764 765 696 694 
4 765 766 698 696 
4 766 767 700 698 
4 767 768 701 700 
4 768 769 702 701 
4 769 770 703 702 
4 770 771 704 703 
4 771 772 705 704 
4 772 773 706 705 
4 773 774 707 706 
4 774 775 708 707 
4 775 776 709 708 
4 776 777 710 709 
4 777 778 711 710 
4 778 779 712 711 
4 779 780 713 712 
4 780 781 714 713 
4 781 782 715 714 
4 782 783 716 715 
4 783 784 717 716 
4 784 785 718 717 
4 785 786 719 718 
4 786 787 720 719 
4 787 788 721 720 
4 788 789 722 721 
4 789 790 723 722 
4 790 791 792 723 
4 793 794 726 725 
4 794 795 727 726 
4 795 796 728 727 
4 796 797 729 728 
4 797 798 730 729 
4 798 799 731 730 
4 799 800 732 731 
4 800 801 733 732 
4 801 802 734 733 
4 802 803 735 734 
4 803 804 736 735 
4 804 805 806 736 
4 805 807 808 806 
4 807 809 810 808 
4 809 811 812 810 
4 811 813 814 812 
4 813 815 816 814 
4 815 817 818 816 
4 817 819 820 818 
4 819 821 822 820 
4 821 823 824 822 
4 823 825 826 824 
4 827 828 738 737 
4 828 829 739 738 
4 829 830 740 739 
4 830 831 741 740 
4 831 832 742 741 
4 832 833 743 742 
4 833 834 744 743 
4 834 835 745 744 
4 835 836 746 745 
4 836 837 747 746 
4 837 838 748 747 
4 838 839 749 748 
4 839 840 750 749 
4 840 841 751 750 
4 841 842 752 751 
4 842 843 753 752 
4 843 844 754 753 
4 844 845 755 754 
4 845 846 756 755 
4 846 847 757 756 
4 847 848 758 757 
4 848 849 759 758 
4 849 850 760 759 
4 850 851 761 760 
4 851 852 762 761 
4 852 853 763 762 
4 853 854 764 763 
4 854 855 765 764 
4 855 856 766 765 
4 856 857 767 766 
4 857 858 768 767 
4 858 859 769 768 
4 859 860 770 769 
4 860 861 771 770 
4 861 862 772 771 
4 862 863 773 772 
4 863 864 774 773 
4 864 865 775 774 
4 865 866 776 775 
4 866 867 777 776 
4 867 868 778 777 
4 868 869 779 778 
4 869 870 780 779 
4 870 871 781 780 
4 871 872 782 781 
4 872 873 783 782 
4 873 874 784 783 
4 874 875 785 784 
4 875 876 786 785 
4 876 877 787 786 
4 877 878 788 787 
4 878 879 789 788 
4 879 880 790 789 
4 880 881 791 790 
4 881 882 883 791 
4 884 885 795 794 
4 885 886 796 795 
4 886 887 797 796 
4 887 888 798 797 
4 888 889 799 798 
4 889 890 800 799 
4 890 891 801 800 
4 891 892 802 801 
4 892 893 803 802 
4 893 894 804 803 
4 894 895 805 804 
4 895 896 807 805 
4 896 897 809 807 
4 897 898 811 809 
4 898 899 813 811 
4 899 900 815 813 
4 900 901 817 815 
4 901 902 819 817 
4 902 903 821 819 
4 903 904 823 821 
4 904 905 825 823 
4 905 906 907 825 
4 906 908 909 907 
4 908 910 911 909 
4 912 913 828 827 
4 913 914 829 828 
4 914 915 830 829 
4 915 916 831 830 
4 916 917 832 831 
4 917 918 833 832 
4 918 919 834 833 
4 919 920 835 834 
4 920 921 836 835 
4 921 922 837 836 
4 922 923 838 837 
4 923 924 839 838 
4 924 925 840 839 
4 925 926 841 840 
4 926 927 842 841 
4 927 928 843 842 
4 928 929 844 843 
4 929 930 845 844 
4 930 931 846 845 
4 931 932 847 846 
4 932 933 848 847 
4 933 934 849 848 
4 934 935 850 849 
4 935 936 851 850 
4 936 937 852 851 
4 937 938 853 852 
4 938 939 854 853 
4 939 940 855 854 
4 940 941 856 855 
4 941 942 857 856 
4 942 943 858 857 
4 943 944 859 858 
4 944 945 860 859 
4 945 946 861 860 
4 946 947 862 861 
4 947 948 863 862 
4 948 949 864 863 
4 949 950 865 864 
4 950 951 866 865 
4 951 952 867 866 
4 952 953 868 867 
4 953 954 869 868 
4 954 955 870 869 
4 955 956 871 870 
4 956 957 872 871 
4 957 958 873 872 
4 958 959 874 873 
4 959 960 875 874 
4 960 961 876 875 
4 961 962 877 876 
4 962 963 878 877 
4 963 964 879 878 
4 964 965 880 879 
4 965 966 881 880 
4 966 967 882 881 
4 968 969 885 884 
4 969 970 886 885 
4 970 971 887 886 
4 971 972 888 887 
4 972 973 889 888 
4 973 974 890 889 
4 974 975 891 890 
4 975 976 892 891 
4 976 977 893 892 
4 977 978 894 893 
4 978 979 895 894 
4 979 980 896 895 
4 980 981 897 896 
4 981 982 898 897 
4 982 983 899 898 
4 983 984 900 899 
4 984 985 901 900 
4 985 986 902 901 
4 986 987 903 902 
4 987 988 904 903 
4 988 989 905 904 
4 989 990 906 905 
4 990 991 908 906 
4 991 992 910 908 
4 992 993 994 910 
4 995 996 913 912 
4 996 997 914 913 
4 997 998 915 914 
4 998 999 916 915 
4 999 1000 917 916 
4 1000 1001 918 917 
4 1001 1002 919 918 
4 1002 1003 920 919 
4 1003 1004 921 920 
4 1004 1005 922 921 
4 1005 1006 923 922 
4 1006 1007 924 923 
4 1007 1008 925 924 
4 1008 1009 926 925 
4 1009 1010 927 926 
4 1010 1011 928 927 
4 1011 1012 929 928 
4 1012 1013 930 929 
4 1013 1014 931 930 
4 1014 1015 932 931 
4 1015 1016 933 932 
4 1016 1017 934 933 
4 1017 1018 935 934 
4 1018 1019 936 935 
4 1019 1020 937 936 
4 1020 1021 938 937 
4 1021 1022 939 938 
4 1022 1023 940 939 
4 1023 1024 941 940 
4 1024 1025 942 941 
4 1025 1026 943 942 
4 1026 1027 944 943 
4 1027 1028 945 944 
4 1028 1029 946 945 
4 1029 1030 947 946 
4 1030 1031 948 947 
4 1031 1032 949 948 
4 1032 1033 950 949 
4 1033 1034 951 950 
4 1034 1035 952 951 
4 1035 1036 953 952 
4 1036 1037 954 953 
4 1037 1038 955 954 
4 1038 1039 956 955 
4 1039 1040 957 956 
4 1040 1041 958 957 
4 1041 1042 959 958 
4 1042 1043 960 959 
4 1043 1044 961 960 
4 1044 1045 962 961 
4 1045 1046 963 962 
4 1046 1047 964 963 
4 1047 1048 965 964 
4 1048 1049 966 965 
4 1049 1050 967 966 
4 1050 1051 1052 967 
4 1053 1054 970 969 
4 1054 1055 971 970 
4 1055 1056 972 971 
4 1056 1057 973 972 
4 1057 1058 974 973 
4 1058 1059 975 974 
4 1059 1060 976 975 
4 1060 1061 977 976 
4 1061 1062 978 977 
4 1062 1063 979 978 
4 1063 1064 980 979 
4 1064 1065 981 980 
4 1065 1066 982 981 
4 1066 1067 983 982 
4 1067 1068 984 983 
4 1068 1069 985 984 
4 1069 1070 986 985 
4 1070 1071 987 986 
4 1071 1072 988 987 
4 1072 1073 989 988 
4 1073 1074 990 989 
4 1074 1075 991 990 
4 1075 1076 992 991 
4 1076 1077 993 992 
4 1078 1079 996 995 
4 1079 1080 997 996 
4 1080 1081 998 997 
4 1081 1082 999 998 
4 1082 1083 1000 999 
4 1083 1084 1001 1000 
4 1084 1085 1002 1001 
4 1085 1086 1003 1002 
4 1086 1087 1004 1003 
4 1087 1088 1005 1004 
4 1088 1089 1006 1005 
4 1089 1090 1007 1006 
4 1090 1091 1008 1007 
4 1091 1092 1009 1008 
4 1092 1093 1010 1009 
4 1093 1094 1011 1010 
4 1094 1095 1012 1011 
4 1095 1096 1013 1012 
4 1096 1097 1014 1013 
4 1097 1098 1015 1014 
4 1098 1099 1016 1015 
4 1099 1100 1017 1016 
4 1100 1101 1018 1017 
4 1101 1102 1019 1018 
4 1102 1103 1020 1019 
4 1103 1104 1021 1020 
4 1104 1105 1022 1021 
4 1105 1106 1023 1022 
4 1106 1107 1024 1023 
4 1107 1108 1025 1024 
4 1108 1109 1026 1025 
4 1109 1110 1027 1026 
4 1110 1111 1028 1027 
4 1111 1112 1029 1028 
4 1112 1113 1030 1029 
4 1113 1114 1031 1030 
4 1114 1115 1032 1031 
4 1115 1116 1033 1032 
4 1116 1117 1034 1033 
4 1117 1118 1035 1034 
4 1118 1119 1036 1035 
4 1119 1120 1037 1036 
4 1120 1121 1038 1037 
4 1121 1122 1039 1038 
4 1122 1123 1040 1039 
4 1123 1124 1041 1040 
4 1124 1125 1042 1041 
4 1125 1126 1043 1042 
4 1126 1127 1044 1043 
4 1127 1128 1045 1044 
4 1128 1129 1046 1045 
4 1129 1130 1047 1046 
4 1130 1131 1048 1047 
4 1131 1132 1049 1048 
4 1132 1133 1050 1049 
4 1133 1134 1051 1050 
4 1135 1136 1054 1053 
4 1136 1137 1055 1054 
4 1137 1138 1056 1055 
4 1138 1139 1057 1056 
4 1139 1140 1058 1057 
4 1140 1141 1059 1058 
4 1141 1142 1060 1059 
4 1142 1143 1061 1060 
4 1143 1144 1062 1061 
4 1144 1145 1063 1062 
4 1145 1146 1064 1063 
4 1146 1147 1065 1064 
4 1147 1148 1066 1065 
4 1148 1149 1067 1066 
4 1149 1150 1068 1067 
4 1150 1151 1069 1068 
4 1151 1152 1070 1069 
4 1152 1153 1071 1070 
4 1153 1154 1072 1071 
4 1154 1155 1073 1072 
4 1155 1156 1074 1073 
4 1156 1157 1075 1074 
4 1157 1158 1076 1075 
4 1158 1159 1077 1076 
4 1160 1161 1080 1079 
4 1161 1162 1081 1080 
4 1162 1163 1082 1081 
4 1163 1164 1083 1082 
4 1164 1165 1084 1083 
4 1165 1166 1085 1084 
4 1166 1167 1086 1085 
4 1167 1168 1087 1086 
4 1168 1169 1088 1087 
4 1169 1170 1089 1088 
4 1170 1171 1090 1089 
4 1171 1172 1091 1090 
4 1172 1173 1092 1091 
4 1173 1174 1093 1092 
4 1174 1175 1094 1093 
4 1175 1176 1095 1094 
4 1176 1177 1096 1095 
4 1177 1178 1097 1096 
4 1178 1179 1098 1097 
4 1179 1180 1099 1098 
4 1180 1181 1100 1099 
4 1181 1182 1101 1100 
4 1182 1183 1102 1101 
4 1183 1184 1103 1102 
4 1184 1185 1104 1103 
4 1185 1186 1105 1104 
4 1186 1187 1106 1105 
4 1187 1188 1107 1106 
4 1188 1189 1108 1107 
4 1189 1190 1109 1108 
4 1190 1191 1110 1109 
4 1191 1192 1111 1110 
4 1192 1193 1112 1111 
4 1193 1194 1113 1112 
4 1194 1195 1114 1113 
4 1195 1196 1115 1114 
4 1196 1197 1116 1115 
4 1197 1198 1117 1116 
4 1198 1199 1118 1117 
4 1199 1200 1119 1118 
4 1200 1201 1120 1119 
4 1201 1202 1121 1120 
4 1202 1203 1122 1121 
4 1203 1204 1123 1122 
4 1204 1205 1124 1123 
4 1205 1206 1125 1124 
4 1206 1207 1126 1125 
4 1207 1208 1127 1126 
4 1208 1209 1128 1127 
4 1209 1210 1129 1128 
4 1210 1211 1130 1129 
4 1211 1212 1131 1130 
4 1212 1213 1132 1131 
4 1213 1214 1133 1132 
4 1214 1215 1134 1133 
4 1216 1217 1137 1136 
4 1217 1218 1138 1137 
4 1218 1219 1139 1138 
4 1219 1220 1140 1139 
4 1220 1221 1141 1140 
4 1221 1222 1142 1141 
4 1222 1223 1143 1142 
4 1223 1224 1144 1143 
4 1224 1225 1145 1144 
4 1225 1226 1146 1145 
4 1226 1227 1147 1146 
4 1227 1228 1148 1147 
4 1228 1229 1149 1148 
4 1229 1230 1150 1149 
4 1230 1231 1151 1150 
4 1231 1232 1152 1151 
4 1232 1233 1153 1152 
4 1233 1234 1154 1153 
4 1234 1235 1155 1154 
4 1235 1236 1156 1155 
4 1236 1237 1157 1156 
4 1237 1238 1158 1157 
4 1238 1239 1159 1158 
4 1240 1241 1161 1160 
4 1241 1242 1162 1161 
4 1242 1243 1163 1162 
4 1243 1244 1164 1163 
4 1244 1245 1165 1164 
4 1245 1246 1166 1165 
4 1246 1247 1167 1166 
4 1247 1248 1168 1167 
4 1248 1249 1169 1168 
4 1249 1250 1170 1169 
4 1250 1251 1171 1170 
4 1251 1252 1172 1171 
4 1252 1253 1173 1172 
4 1253 1254 1174 1173 
4 1254 1255 1175 1174 
4 1255 1256 1176 1175 
4 1256 1257 1177 1176 
4 1257 1258 1178 1177 
4 1258 1259 1179 1178 
4 1260 1261 1186 1185 
4 1261 1262 1187 1186 
4 1262 1263 1188 1187 
4 1263 1264 1189 1188 
4 1264 1265 1190 1189 
4 1265 1266 1191 1190 
4 1266 1267 1192 1191 
4 1267 1268 1193 1192 
4 1268 1269 1194 1193 
4 1269 1270 1195 1194 
4 1270 1271 1196 1195 
4 1271 1272 1197 1196 
4 1272 1273 1198 1197 
4 1273 1274 1199 1198 
4 1274 1275 1200 1199 
4 1275 1276 1201 1200 
4 1276 1277 1202 1201 
4 1277 1278 1203 1202 
4 1278 1279 1204 1203 
4 1279 1280 1205 1204 
4 1280 1281 1206 1205 
4 1281 1282 1207 1206 
4 1282 1283 1208 1207 
4 1283 1284 1209 1208 
4 1284 1285 1210 1209 
4 1285 1286 1211 1210 
4 1286 1287 1212 1211 
4 1287 1288 1213 1212 
4 1288 1289 1214 1213 
4 1289 1290 1215 1214 
4 1291 1292 1218 1217 
4 1292 1293 1219 1218 
4 1293 1294 1220 1219 
4 1294 1295 1221 1220 
4 1295 1296 1222 1221 
4 1296 1297 1223 1222 
4 1297 1298 1224 1223 
4 1298 1299 1225 1224 
4 1299 1300 1226 1225 
4 1300 1301 1227 1226 
4 1301 1302 1228 1227 
4 1302 1303 1229 1228 
4 1303 1304 1230 1229 
4 1304 1305 1231 1230 
4 1305 1306 1232 1231 
4 1306 1307 1233 1232 
4 1307 1308 1234 1233 
4 1308 1309 1235 1234 
4 1309 1310 1236 1235 
4 1310 1311 1237 1236 
4 1311 1312 1238 1237 
4 1312 1313 1239 1238 
4 1314 1315 1241 1240 
4 1315 1316 1242 1241 
4 1316 1317 1243 1242 
4 1317 1318 1244 1243 
4 1318 1319 1245 1244 
4 1319 1320 1246 1245 
4 1320 1321 1247 1246 
4 1321 1322 1248 1247 
4 1322 1323 1249 1248 
4 1323 1324 1250 1249 
4 1324 1325 1251 1250 
4 1325 1326 1252 1251 
4 1326 1327 1253 1252 
4 1327 1328 1254 1253 
4 1328 1329 1255 1254 
4 1329 1330 1256 1255 
4 1330 1331 1257 1256 
4 1331 1332 1258 1257 
4 1332 1333 1259 1258 
4 1334 1335 1264 1263 
4 1335 1336 1265 1264 
4 1336 1337 1266 1265 
4 1337 1338 1267 1266 
4 1338 1339 1268 1267 
4 1339 1340 1269 1268 
4 1340 1341 1270 1269 
4 1341 1342 1271 1270 
4 1342 1343 1272 1271 
4 1343 1344 1273 1272 
4 1344 1345 1274 1273 
4 1345 1346 1275 1274 
4 1346 1347 1276 1275 
4 1347 1348 1277 1276 
4 1348 1349 1278 1277 
4 1349 1350 1279 1278 
4 1350 1351 1280 1279 
4 1351 1352 1281 1280 
4 1352 1353 1282 1281 
4 1353 1354 1283 1282 
4 1354 1355 1284 1283 
4 1355 1356 1285 1284 
4 1356 1357 1286 1285 
4 1357 1358 1287 1286 
4 1358 1359 1288 1287 
4 1359 1360 1289 1288 
4 1361 1362 1292 1291 
4 1362 1363 1293 1292 
4 1363 1364 1294 1293 
4 1364 1365 1295 1294 
4 1365 1366 1296 1295 
4 1366 1367 1297 1296 
4 1367 1368 1298 1297 
4 1368 1369 1299 1298 
4 1369 1370 1300 1299 
4 1370 1371 1301 1300 
4 1371 1372 1302 1301 
4 1372 1373 1303 1302 
4 1373 1374 1304 1303 
4 1374 1375 1305 1304 
4 1375 1376 1306 1305 
4 1376 1377 1307 1306 
4 1377 1378 1308 1307 
4 1378 1379 1309 1308 
4 1379 1380 1310 1309 
4 1380 1381 1311 1310 
4 1381 1382 1312 1311 
4 1382 1383 1313 1312 
4 1384 1385 1316 1315 
4 1385 1386 1317 1316 
4 1386 1387 1318 1317 
4 1387 1388 1319 1318 
4 1388 1389 1320 1319 
4 1389 1390 1321 1320 
4 1390 1391 1322 1321 
4 1391 1392 1323 1322 
4 1392 1393 1324 1323 
4 1393 1394 1325 1324 
4 1394 1395 1326 1325 
4 1395 1396 1327 1326 
4 1396 1397 1328 1327 
4 1397 1398 1329 1328 
4 1398 1399 1330 1329 
4 1399 1400 1331 1330 
4 1400 1401 1332 1331 
4 1401 1402 1333 1332 
4 1403 1404 1337 1336 
4 1404 1405 1338 1337 
4 1405 1406 1339 1338 
4 1406 1407 1340 1339 
4 1407 1408 1341 1340 
4 1408 1409 1342 1341 
4 1409 1410 1343 1342 
4 1410 1411 1344 1343 
4 1411 1412 1345 1344 
4 1412 1413 1346 1345 
4 1413 1414 1347 1346 
4 1414 1415 1348 1347 
4 1415 1416 1349 1348 
4 1416 1417 1350 1349 
4 1417 1418 1351 1350 
4 1418 1419 1352 1351 
4 1419 1420 1353 1352 
4 1420 1421 1354 1353 
4 1421 1422 1355 1354 
4 1422 1423 1356 1355 
4 1423 1424 1357 1356 
4 1424 1425 1358 1357 
4 1425 1426 1359 1358 
4 1426 1427 1360 1359 
4 1428 1429 1363 1362 
4 1429 1430 1364 1363 
4 1430 1431 1365 1364 
4 1431 1432 1366 1365 
4 1432 1433 1367 1366 
4 1433 1434 1368 1367 
4 1434 1435 1369 1368 
4 1435 1436 1370 1369 
4 1436 1437 1371 1370 
4 1437 1438 1372 1371 
4 1438 1439 1373 1372 
4 1439 1440 1374 1373 
4 1440 1441 1375 1374 
4 1441 1442 1376 1375 
4 1442 1443 1377 1376 
4 1443 1444 1378 1377 
4 1444 1445 1379 1378 
4 1445 1446 1380 1379 
4 1447 1448 1386 1385 
4 1448 1449 1387 1386 
4 1449 1450 1388 1387 
4 1450 1451 1389 1388 
4 1451 1452 1390 1389 
4 1452 1453 1391 1390 
4 1453 1454 1392 1391 
4 1454 1455 1393 1392 
4 1455 1456 1394 1393 
4 1456 1457 1395 1394 
4 1457 1458 1396 1395 
4 1458 1459 1397 1396 
4 1459 1460 1398 1397 
4 1460 1461 1399 1398 
4 1461 1462 1400 1399 
4 1462 1463 1401 1400 
4 1463 1464 1402 1401 
4 1465 1466 1406 1405 
4 1466 1467 1407 1406 
4 1467 1468 1408 1407 
4 1468 1469 1409 1408 
4 1469 1470 1410 1409 
4 1470 1471 1411 1410 
4 1471 1472 1412 1411 
4 1472 1473 1413 1412 
4 1473 1474 1414 1413 
4 1474 1475 1415 1414 
4 1475 1476 1416 1415 
4 1476 1477 1417 1416 
4 1477 1478 1418 1417 
4 1478 1479 1419 1418 
4 1479 1480 1420 1419 
4 1480 1481 1421 1420 
4 1481 1482 1422 1421 
4 1482 1483 1423 1422 
4 1483 1484 1424 1423 
4 1484 1485 1425 1424 
4 1485 1486 1426 1425 
4 1486 1487 1427 1426 
4 1488 1489 1429 1428 
4 1489 1490 1430 1429 
4 1490 1491 1431 1430 
4 1491 1492 1432 1431 
4 1492 1493 1433 1432 
4 1493 1494 1434 1433 
4 1494 1495 1435 1434 
4 1495 1496 1436 1435 
4 1496 1497 1437 1436 
4 1497 1498 1438 1437 
4 1498 1499 1439 1438 
4 1499 1500 1440 1439 
4 1500 1501 1441 1440 
4 1501 1502 1442 1441 
4 1502 1503 1443 1442 
4 1503 1504 1444 1443 
4 1505 1506 1450 1449 
4 1506 1507 1451 1450 
4 1507 1508 1452 1451 
4 1508 1509 1453 1452 
4 1509 1510 1454 1453 
4 1510 1511 1455 1454 
4 1511 1512 1456 1455 
4 1512 1513 1457 1456 
4 1513 1514 1458 1457 
4 1514 1515 1459 1458 
4 1515 1516 1460 1459 
4 1516 1517 1461 1460 
4 1517 1518 1462 1461 
4 1518 1519 1463 1462 
4 1519 1520 1464 1463 
4 1521 1522 1468 1467 
4 1522 1523 1469 1468 
4 1523 1524 1470 1469 
4 1524 1525 1471 1470 
4 1525 1526 1472 1471 
4 1526 1527 1473 1472 
4 1527 1528 1474 1473 
4 1528 1529 1475 1474 
4 1529 1530 1476 1475 
4 1530 1531 1477 1476 
4 1531 1532 1478 1477 
4 1532 1533 1479 1478 
4 1533 1534 1480 1479 
4 1534 1535 1481 1480 
4 1535 1536 1482 1481 
4 1536 1537 1483 1482 
4 1537 1538 1484 1483 
4 1538 1539 1485 1484 
4 1539 1540 1486 1485 
4 1540 1541 1487 1486 
4 1542 1543 1490 1489 
4 1543 1544 1491 1490 
4 1544 1545 1492 1491 
4 1545 1546 1493 1492 
4 1546 1547 1494 1493 
4 1547 1548 1495 1494 
4 1548 1549 1496 1495 
4 1549 1550 1497 1496 
4 1550 1551 1498 1497 
4 1551 1552 1499 1498 
4 1552 1553 1500 1499 
4 1553 1554 1501 1500 
4 1554 1555 1502 1501 
4 1555 1556 1503 1502 
4 1557 1558 1506 1505 
4 1558 1559 1507 1506 
4 1559 1560 1508 1507 
4 1560 1561 1509 1508 
4 1561 1562 1510 1509 
4 1562 1563 1511 1510 
4 1563 1564 1512 1511 
4 1564 1565 1513 1512 
4 1565 1566 1514 1513 
4 1566 1567 1515 1514 
4 1567 1568 1516 1515 
4 1568 1569 1517 1516 
4 1569 1570 1518 1517 
4 1570 1571 1519 1518 
4 1571 1572 1520 1519 
4 1573 1574 1524 1523 
4 1574 1575 1525 1524 
4 1575 1576 1526 1525 
4 1576 1577 1527 1526 
4 1577 1578 1528 1527 
4 1578 1579 1529 1528 
4 1579 1580 1530 1529 
4 1580 1581 1531 1530 
4 1581 1582 1532 1531 
4 1582 1583 1533 1532 
4 1583 1584 1534 1533 
4 1584 1585 1535 1534 
4 1585 1586 1536 1535 
4 1586 1587 1537 1536 
4 1587 1588 1538 1537 
4 1588 1589 1539 1538 
4 1589 1590 1540 1539 
4 1590 1591 1541 1540 
4 1592 1593 1544 1543 
4 1593 1594 1545 1544 
4 1594 1595 1546 1545 
4 1595 1596 1547 1546 
4 1596 1597 1548 1547 
4 1597 1598 1549 1548 
4 1598 1599 1550 1549 
4 1599 1600 1551 1550 
4 1600 1601 1552 1551 
4 1601 1602 1553 1552 
4 1602 1603 1554 1553 
4 1603 1604 1555 1554 
4 1604 1605 1556 1555 
4 1606 1607 1558 1557 
4 1607 1608 1559 1558 
4 1608 1609 1560 1559 
4 1609 1610 1561 1560 
4 1610 1611 1562 1561 
4 1611 1612 1563 1562 
4 1612 1613 1564 1563 
4 1613 1614 1565 1564 
4 1614 1615 1566 1565 
4 1615 1616 1567 1566 
4 1616 1617 1568 1567 
4 1617 1618 1569 1568 
4 1618 1619 1570 1569 
4 1619 1620 1571 1570 
4 1620 1621 1572 1571 
4 1622 1623 1575 1574 
4 1623 1624 1576 1575 
4 1624 1625 1577 1576 
4 1625 1626 1578 1577 
4 1626 1627 1579 1578 
4 1627 1628 1580 1579 
4 1628 1629 1581 1580 
4 1629 1630 1582 1581 
4 1630 1631 1583 1582 
4 1631 1632 1584 1583 
4 1632 1633 1585 1584 
4 1633 1634 1586 1585 
4 1634 1635 1587 1586 
4 1635 1636 1588 1587 
4 1636 1637 1589 1588 
4 1637 1638 1590 1589 
4 1638 1639 1591 1590 
4 1640 1641 1593 1592 
4 1641 1642 1594 1593 
4 1642 1643 1595 1594 
4 1643 1644 1596 1595 
4 1644 1645 1597 1596 
4 1645 1646 1598 1597 
4 1646 1647 1599 1598 
4 1647 1648 1600 1599 
4 1648 1649 1601 1600 
4 1649 1650 1602 1601 
4 1650 1651 1603 1602 
4 1651 1652 1604 1603 
4 1653 1654 1608 1607 
4 1654 1655 1609 1608 
4 1655 1656 1610 1609 
4 1656 1657 1611 1610 
4 1657 1658 1612 1611 
4 1658 1659 1613 1612 
4 1659 1660 1614 1613 
4 1660 1661 1615 1614 
4 1661 1662 1616 1615 
4 1662 1663 1617 1616 
4 1663 1664 1618 1617 
4 1664 1665 1619 1618 
4 1665 1666 1620 1619 
4 1666 1667 1621 1620 
4 1668 1669 1625 1624 
4 1669 1670 1626 1625 
4 1670 1671 1627 1626 
4 1671 1672 1628 1627 
4 1672 1673 1629 1628 
4 1673 1674 1630 1629 
4 1674 1675 1631 1630 
4 1675 1676 1632 1631 
4 1676 1677 1633 1632 
4 1677 1678 1634 1633 
4 1678 1679 1635 1634 
4 1679 1680 1636 1635 
4 1680 1681 1637 1636 
4 1681 1682 1638 1637 
4 1682 1683 1639 1638 
4 1684 1685 1641 1640 
4 1685 1686 1642 1641 
4 1686 1687 1643 1642 
4 1687 1688 1644 1643 
4 1688 1689 1645 1644 
4 1689 1690 1646 1645 
4 1690 1691 1647 1646 
4 1691 1692 1648 1647 
4 1692 1693 1649 1648 
4 1693 1694 1650 1649 
4 1694 1695 1651 1650 
4 1695 1696 1652 1651 
4 1697 1698 1654 1653 
4 1698 1699 1655 1654 
4 1699 1700 1656 1655 
4 1700 1701 1657 1656 
4 1701 1702 1658 1657 
4 1702 1703 1659 1658 
4 1703 1704 1660 1659 
4 1704 1705 1661 1660 
4 1705 1706 1662 1661 
4 1706 1707 1663 1662 
4 1707 1708 1664 1663 
4 1708 1709 1665 1664 
4 1709 1710 1666 1665 
4 1710 1711 1667 1666 
4 1712 1713 1671 1670 
4 1713 1714 1672 1671 
4 1714 1715 1673 1672 
4 1715 1716 1674 1673 
4 1716 1717 1675 1674 
4 1717 1718 1676 1675 
4 1718 1719 1677 1676 
4 1719 1720 1678 1677 
4 1720 1721 1679 1678 
4 1721 1722 1680 1679 
4 1722 1723 1681 1680 
4 1723 1724 1682 1681 
4 1725 1726 1685 1684 
4 1726 1727 1686 1685 
4 1727 1728 1687 1686 
4 1728 1729 1688 1687 
4 1729 1730 1689 1688 
4 1730 1731 1690 1689 
4 1731 1732 1691 1690 
4 1732 1733 1692 1691 
4 1733 1734 1693 1692 
4 1734 1735 1694 1693 
4 1735 1736 1695 1694 
4 1736 1737 1696 1695 
4 1737 1738 1739 1696 
4 1740 1741 1698 1697 
4 1741 1742 1699 1698 
4 1742 1743 1700 1699 
4 1743 1744 1701 1700 
4 1744 1745 1702 1701 
4 1745 1746 1703 1702 
4 1746 1747 1704 1703 
4 1747 1748 1705 1704 
4 1748 1749 1706 1705 
4 1749 1750 1707 1706 
4 1750 1751 1708 1707 
4 1751 1752 1709 1708 
4 1752 1753 1710 1709 
4 1753 1754 1711 1710 
4 1754 1755 1756 1711 
4 1757 1758 1714 1713 
4 1758 1759 1715 1714 
4 1759 1760 1716 1715 
4 1760 1761 1717 1716 
4 1761 1762 1718 1717 
4 1762 1763 1719 1718 
4 1763 1764 1720 1719 
4 1764 1765 1721 1720 
4 1765 1766 1722 1721 
4 1766 1767 1723 1722 
4 1767 1768 1724 1723 
4 1770 1771 1725 1769 
4 1771 1772 1726 1725 
4 1772 1773 1727 1726 
4 1773 1774 1728 1727 
4 1774 1775 1729 1728 
4 1775 1776 1730 1729 
4 1776 1777 1731 1730 
4 1777 1778 1732 1731 
4 1778 1779 1733 1732 
4 1779 1780 1734 1733 
4 1780 1781 1735 1734 
4 1781 1782 1736 1735 
4 1782 1783 1737 1736 
4 1783 1784 1738 1737 
4 1785 1786 1741 1740 
4 1786 1787 1742 1741 
4 1787 1788 1743 1742 
4 1788 1789 1744 1743 
4 1789 1790 1745 1744 
4 1790 1791 1746 1745 
4 1791 1792 1747 1746 
4 1792 1793 1748 1747 
4 1793 1794 1749 1748 
4 1794 1795 1750 1749 
4 1795 1796 1751 1750 
4 1796 1797 1752 1751 
4 1797 1798 1753 1752 
4 1798 1799 1754 1753 
4 1799 1800 1755 1754 
4 1801 1802 1760 1759 
4 1802 1803 1761 1760 
4 1803 1804 1762 1761 
4 1804 1805 1763 1762 
4 1805 1806 1764 1763 
4 1806 1807 1765 1764 
4 1807 1808 1766 1765 
4 1808 1809 1767 1766 
4 1809 1810 1768 1767 
4 1812 1813 1814 1811 
4 1813 1815 1770 1814 
4 1815 1816 1771 1770 
4 1816 1817 1772 1771 
4 1817 1818 1773 1772 
4 1818 1819 1774 1773 
4 1819 1820 1775 1774 
4 1820 1821 1776 1775 
4 1821 1822 1777 1776 
4 1822 1823 1778 1777 
4 1823 1824 1779 1778 
4 1824 1825 1780 1779 
4 1825 1826 1781 1780 
4 1826 1827 1782 1781 
4 1827 1828 1783 1782 
4 1828 1829 1784 1783 
4 1829 1830 1831 1784 
4 1832 1833 1786 1785 
4 1833 1834 1787 1786 
4 1834 1835 1788 1787 
4 1835 1836 1789 1788 
4 1836 1837 1790 1789 
4 1837 1838 1791 1790 
4 1838 1839 1792 1791 
4 1839 1840 1793 1792 
4 1840 1841 1794 1793 
4 1841 1842 1795 1794 
4 1842 1843 1796 1795 
4 1843 1844 1797 1796 
4 1844 1845 1798 1797 
4 1845 1846 1799 1798 
4 1846 1847 1800 1799 
4 1848 1849 1805 1804 
4 1849 1850 1806 1805 
4 1850 1851 1807 1806 
4 1851 1852 1808 1807 
4 1852 1853 1809 1808 
4 1855 1856 1857 1854 
4 1856 1858 1859 1857 
4 1858 1860 1861 1859 
4 1860 1862 1863 1861 
4 1862 1864 1865 1863 
4 1864 1866 1867 1865 
4 1866 1868 1869 1867 
4 1868 1870 1871 1869 
4 1870 1872 1873 1871 
4 1872 1874 1875 1873 
4 1874 1876 1812 1875 
4 1876 1877 1813 1812 
4 1877 1878 1815 1813 
4 1878 1879 1816 1815 
4 1879 1880 1817 1816 
4 1880 1881 1818 1817 
4 1881 1882 1819 1818 
4 1882 1883 1820 1819 
4 1883 1884 1821 1820 
4 1884 1885 1822 1821 
4 1885 1886 1823 1822 
4 1886 1887 1824 1823 
4 1887 1888 1825 1824 
4 1888 1889 1826 1825 
4 1889 1890 1827 1826 
4 1890 1891 1828 1827 
4 1891 1892 1829 1828 
4 1892 1893 1830 1829 
4 1893 1894 1895 1830 
4 1896 1897 1834 1833 
4 1897 1898 1835 1834 
4 1898 1899 1836 1835 
4 1899 1900 1837 1836 
4 1900 1901 1838 1837 
4 1901 1902 1839 1838 
4 1902 1903 1840 1839 
4 1903 1904 1841 1840 
4 1904 1905 1842 1841 
4 1905 1906 1843 1842 
4 1906 1907 1844 1843 
4 1907 1908 1845 1844 
4 1908 1909 1846 1845 
4 1909 1910 1847 1846 
4 1910 1911 1912 1847 
4 1914 1915 1916 1913 
4 1915 1917 1918 1916 
4 1917 1919 1855 1918 
4 1919 1920 1856 1855 
4 1920 1921 1858 1856 
4 1921 1922 1860 1858 
4 1922 1923 1862 1860 
4 1923 1924 1864 1862 
4 1924 1925 1866 1864 
4 1925 1926 1868 1866 
4 1926 1927 1870 1868 
4 1927 1928 1872 1870 
4 1928 1929 1874 1872 
4 1929 1930 1876 1874 
4 1930 1931 1877 1876 
4 1931 1932 1878 1877 
4 1932 1933 1879 1878 
4 1933 1934 1880 1879 
4 1934 1935 1881 1880 
4 1935 1936 1882 1881 
4 1936 1937 1883 1882 
4 1937 1938 1884 1883 
4 1938 1939 1885 1884 
4 1939 1940 1886 1885 
4 1940 1941 1887 1886 
4 1941 1942 1888 1887 
4 1942 1943 1889 1888 
4 1943 1944 1890 1889 
4 1944 1945 1891 1890 
4 1945 1946 1892 1891 
4 1946 1947 1893 1892 
4 1947 1948 1894 1893 
4 1948 1949 1950 1894 
4 1951 1952 1897 1896 
4 1952 1953 1898 1897 
4 1953 1954 1899 1898 
4 1954 1955 1900 1899 
4 1955 1956 1901 1900 
4 1956 1957 1902 1901 
4 1957 1958 1903 1902 
4 1958 1959 1904 1903 
4 1959 1960 1905 1904 
4 1960 1961 1906 1905 
4 1961 1962 1907 1906 
4 1962 1963 1908 1907 
4 1963 1964 1909 1908 
4 1964 1965 1910 1909 
4 1965 1966 1911 1910 
4 1968 1969 1970 1967 
4 1969 1971 1914 1970 
4 1971 1972 1915 1914 
4 1972 1973 1917 1915 
4 1973 1974 1919 1917 
4 1974 1975 1920 1919 
4 1975 1976 1921 1920 
4 1976 1977 1922 1921 
4 1977 1978 1923 1922 
4 1978 1979 1924 1923 
4 1979 1980 1925 1924 
4 1980 1981 1926 1925 
4 1981 1982 1927 1926 
4 1982 1983 1928 1927 
4 1983 1984 1929 1928 
4 1984 1985 1930 1929 
4 1985 1986 1931 1930 
4 1986 1987 1932 1931 
4 1987 1988 1933 1932 
4 1988 1989 1934 1933 
4 1989 1990 1935 1934 
4 1990 1991 1936 1935 
4 1991 1992 1937 1936 
4 1992 1993 1938 1937 
4 1993 1994 1939 1938 
4 1994 1995 1940 1939 
4 1995 1996 1941 1940 
4 1996 1997 1942 1941 
4 1997 1998 1943 1942 
4 1998 1999 1944 1943 
4 1999 2000 1945 1944 
4 2000 2001 1946 1945 
4 2001 2002 1947 1946 
4 2002 2003 1948 1947 
4 2003 2004 1949 1948 
4 2005 2006 1952 1951 
4 2006 2007 1953 1952 
4 2007 2008 1954 1953 
4 2008 2009 1955 1954 
4 2009 2010 1956 1955 
4 2010 2011 1957 1956 
4 2011 2012 1958 1957 
4 2012 2013 1959 1958 
4 2013 2014 1960 1959 
4 2014 2015 1961 1960 
4 2015 2016 1962 1961 
4 2016 2017 1963 1962 
4 2017 2018 1964 1963 
4 2018 2019 1965 1964 
4 2019 2020 1966 1965 
4 2020 2021 2022 1966 
4 2024 2025 2026 2023 
4 2025 2027 2028 2026 
4 2027 2029 1968 2028 
4 2029 2030 1969 1968 
4 2030 2031 1971 1969 
4 2031 2032 1972 1971 
4 2032 2033 1973 1972 
4 2033 2034 1974 1973 
4 2034 2035 1975 1974 
4 2035 2036 1976 1975 
4 2036 2037 1977 1976 
4 2037 2038 1978 1977 
4 2038 2039 1979 1978 
4 2039 2040 1980 1979 
4 2040 2041 1981 1980 
4 2041 2042 1982 1981 
4 2042 2043 1983 1982 
4 2043 2044 1984 1983 
4 2044 2045 1985 1984 
4 2045 2046 1986 1985 
4 2046 2047 1987 1986 
4 2047 2048 1988 1987 
4 2048 2049 1989 1988 
4 2049 2050 1990 1989 
4 2050 2051 1991 1990 
4 2051 2052 1992 1991 
4 2052 2053 1993 1992 
4 2053 2054 1994 1993 
4 2054 2055 1995 1994 
4 2055 2056 1996 1995 
4 2056 2057 1997 1996 
4 2057 2058 1998 1997 
4 2058 2059 1999 1998 
4 2059 2060 2000 1999 
4 2060 2061 2001 2000 
4 2061 2062 2002 2001 
4 2062 2063 2003 2002 
4 2063 2064 2004 2003 
4 2064 2065 2066 2004 
4 2067 2068 2006 2005 
4 2068 2069 2007 2006 
4 2069 2070 2008 2007 
4 2070 2071 2009 2008 
4 2071 2072 2010 2009 
4 2072 2073 2011 2010 
4 2073 2074 2012 2011 
4 2074 2075 2013 2012 
4 2075 2076 2014 2013 
4 2076 2077 2015 2014 
4 2077 2078 2016 2015 
4 2078 2079 2017 2016 
4 2079 2080 2018 2017 
4 2080 2081 2019 2018 
4 2081 2082 2020 2019 
4 2082 2083 2021 2020 
4 2085 2086 2087 2084 
4 2086 2088 2089 2087 
4 2088 2090 2024 2089 
4 2090 2091 2025 2024 
4 2091 2092 2027 2025 
4 2092 2093 2029 2027 
4 2093 2094 2030 2029 
4 2094 2095 2031 2030 
4 2095 2096 2032 2031 
4 2096 2097 2033 2032 
4 2097 2098 2034 2033 
4 2098 2099 2035 2034 
4 2099 2100 2036 2035 
4 2100 2101 2037 2036 
4 2101 2102 2038 2037 
4 2102 2103 2039 2038 
4 2103 2104 2040 2039 
4 2104 2105 2041 2040 
4 2105 2106 2042 2041 
4 2106 2107 2043 2042 
4 2107 2108 2044 2043 
4 2108 2109 2045 2044 
4 2109 2110 2046 2045 
4 2110 2111 2047 2046 
4 2111 2112 2048 2047 
4 2112 2113 2049 2048 
4 2113 2114 2050 2049 
4 2114 2115 2051 2050 
4 2115 2116 2052 2051 
4 2116 2117 2053 2052 
4 2117 2118 2054 2053 
4 2118 2119 2055 2054 
4 2119 2120 2056 2055 
4 2120 2121 2057 2056 
4 2121 2122 2058 2057 
4 2122 2123 2059 2058 
4 2123 2124 2060 2059 
4 2124 2125 2061 2060 
4 2125 2126 2062 2061 
4 2126 2127 2063 2062 
4 2127 2128 2064 2063 
4 2128 2129 2065 2064 
4 2130 2131 2069 2068 
4 2131 2132 2070 2069 
4 2132 2133 2071 2070 
4 2133 2134 2072 2071 
4 2134 2135 2073 2072 
4 2135 2136 2074 2073 
4 2136 2137 2075 2074 
4 2137 2138 2076 2075 
4 2138 2139 2077 2076 
4 2139 2140 2078 2077 
4 2140 2141 2079 2078 
4 2141 2142 2080 2079 
4 2142 2143 2081 2080 
4 2143 2144 2082 2081 
4 2144 2145 2083 2082 
4 2147 2148 2149 2146 
4 2148 2150 2151 2149 
4 2150 2152 2153 2151 
4 2152 2154 2155 2153 
4 2154 2156 2157 2155 
4 2156 2158 2085 2157 
4 2158 2159 2086 2085 
4 2159 2160 2088 2086 
4 2160 2161 2090 2088 
4 2161 2162 2091 2090 
4 2162 2163 2092 2091 
4 2163 2164 2093 2092 
4 2164 2165 2094 2093 
4 2165 2166 2095 2094 
4 2166 2167 2096 2095 
4 2167 2168 2097 2096 
4 2168 2169 2098 2097 
4 2169 2170 2099 2098 
4 2170 2171 2100 2099 
4 2171 2172 2101 2100 
4 2172 2173 2102 2101 
4 2173 2174 2103 2102 
4 2174 2175 2104 2103 
4 2175 2176 2105 2104 
4 2176 2177 2106 2105 
4 2177 2178 2107 2106 
4 2178 2179 2108 2107 
4 2179 2180 2109 2108 
4 2180 2181 2110 2109 
4 2181 2182 2111 2110 
4 2182 2183 2112 2111 
4 2183 2184 2113 2112 
4 2184 2185 2114 2113 
4 2185 2186 2115 2114 
4 2186 2187 2116 2115 
4 2187 2188 2117 2116 
4 2188 2189 2118 2117 
4 2189 2190 2119 2118 
4 2190 2191 2120 2119 
4 2191 2192 2121 2120 
4 2192 2193 2122 2121 
4 2193 2194 2123 2122 
4 2194 2195 2124 2123 
4 2195 2196 2125 2124 
4 2196 2197 2126 2125 
4 2197 2198 2127 2126 
4 2198 2199 2128 2127 
4 2199 2200 2129 2128 
4 2200 2201 2202 2129 
4 2203 2204 2131 2130 
4 2204 2205 2132 2131 
4 2205 2206 2133 2132 
4 2206 2207 2134 2133 
4 2207 2208 2135 2134 
4 2208 2209 2136 2135 
4 2209 2210 2137 2136 
4 2210 2211 2138 2137 
4 2211 2212 2139 2138 
4 2212 2213 2140 2139 
4 2213 2214 2141 2140 
4 2214 2215 2142 2141 
4 2215 2216 2143 2142 
4 2216 2217 2144 2143 
4 2217 2218 2145 2144 
4 2218 2219 2220 2145 
4 2222 2223 2224 2221 
4 2223 2225 2226 2224 
4 2225 2227 2228 2226 
4 2227 2229 2147 2228 
4 2229 2230 2148 2147 
4 2230 2231 2150 2148 
4 2231 2232 2152 2150 
4 2232 2233 2154 2152 
4 2233 2234 2156 2154 
4 2234 2235 2158 2156 
4 2235 2236 2159 2158 
4 2236 2237 2160 2159 
4 2237 2238 2161 2160 
4 2238 2239 2162 2161 
4 2239 2240 2163 2162 
4 2240 2241 2164 2163 
4 2241 2242 2165 2164 
4 2242 2243 2166 2165 
4 2243 2244 2167 2166 
4 2244 2245 2168 2167 
4 2245 2246 2169 2168 
4 2246 2247 2170 2169 
4 2247 2248 2171 2170 
4 2248 2249 2172 2171 
4 2249 2250 2173 2172 
4 2250 2251 2174 2173 
4 2251 2252 2175 2174 
4 2252 2253 2176 2175 
4 2253 2254 2177 2176 
4 2254 2255 2178 2177 
4 2255 2256 2179 2178 
4 2256 2257 2180 2179 
4 2257 2258 2181 2180 
4 2258 2259 2182 2181 
4 2259 2260 2183 2182 
4 2260 2261 2184 2183 
4 2261 2262 2185 2184 
4 2262 2263 2186 2185 
4 2263 2264 2187 2186 
4 2264 2265 2188 2187 
4 2265 2266 2189 2188 
4 2266 2267 2190 2189 
4 2267 2268 2191 2190 
4 2268 2269 2192 2191 
4 2269 2270 2193 2192 
4 2270 2271 2194 2193 
4 2271 2272 2195 2194 
4 2272 2273 2196 2195 
4 2273 2274 2197 2196 
4 2274 2275 2198 2197 
4 2275 2276 2199 2198 
4 2276 2277 2200 2199 
4 2277 2278 2201 2200 
4 2279 2280 2205 2204 
4 2280 2281 2206 2205 
4 2281 2282 2207 2206 
4 2282 2283 2208 2207 
4 2283 2284 2209 2208 
4 2284 2285 2210 2209 
4 2285 2286 2211 2210 
4 2286 2287 2212 2211 
4 2287 2288 2213 2212 
4 2288 2289 2214 2213 
4 2289 2290 2215 2214 
4 2290 2291 2216 2215 
4 2291 2292 2217 2216 
4 2292 2293 2218 2217 
4 2293 2294 2219 2218 
4 2294 2295 2296 2219 
4 2298 2299 2300 2297 
4 2299 2301 2302 2300 
4 2301 2303 2222 2302 
4 2303 2304 2223 2222 
4 2304 2305 2225 2223 
4 2305 2306 2227 2225 
4 2306 2307 2229 2227 
4 2307 2308 2230 2229 
4 2308 2309 2231 2230 
4 2309 2310 2232 2231 
4 2310 2311 2233 2232 
4 2311 2312 2234 2233 
4 2312 2313 2235 2234 
4 2313 2314 2236 2235 
4 2314 2315 2237 2236 
4 2315 2316 2238 2237 
4 2316 2317 2239 2238 
4 2317 2318 2240 2239 
4 2318 2319 2241 2240 
4 2319 2320 2242 2241 
4 2320 2321 2243 2242 
4 2321 2322 2244 2243 
4 2322 2323 2245 2244 
4 2323 2324 2246 2245 
4 2324 2325 2247 2246 
4 2325 2326 2248 2247 
4 2326 2327 2249 2248 
4 2327 2328 2250 2249 
4 2328 2329 2251 2250 
4 2329 2330 2252 2251 
4 2330 2331 2253 2252 
4 2331 2332 2254 2253 
4 2332 2333 2255 2254 
4 2333 2334 2256 2255 
4 2334 2335 2257 2256 
4 2335 2336 2258 2257 
4 2336 2337 2259 2258 
4 2337 2338 2260 2259 
4 2338 2339 2261 2260 
4 2339 2340 2262 2261 
4 2340 2341 2263 2262 
4 2341 2342 2264 2263 
4 2342 2343 2265 2264 
4 2343 2344 2266 2265 
4 2344 2345 2267 2266 
4 2345 2346 2268 2267 
4 2346 2347 2269 2268 
4 2347 2348 2270 2269 
4 2348 2349 2271 2270 
4 2349 2350 2272 2271 
4 2350 2351 2273 2272 
4 2351 2352 2274 2273 
4 2352 2353 2275 2274 
4 2353 2354 2276 2275 
4 2354 2355 2277 2276 
4 2355 2356 2278 2277 
4 2357 2358 2280 2279 
4 2358 2359 2281 2280 
4 2359 2360 2282 2281 
4 2360 2361 2283 2282 
4 2361 2362 2284 2283 
4 2362 2363 2285 2284 
4 2363 2364 2286 2285 
4 2364 2365 2287 2286 
4 2365 2366 2288 2287 
4 2366 2367 2289 2288 
4 2367 2368 2290 2289 
4 2368 2369 2291 2290 
4 2369 2370 2292 2291 
4 2370 2371 2293 2292 
4 2371 2372 2294 2293 
4 2372 2373 2295 2294 
4 2373 2374 2375 2295 
4 2374 2376 2377 2375 
4 2376 2378 2379 2377 
4 2378 2380 2381 2379 
4 2380 2382 2383 2381 
4 2382 2384 2385 2383 
4 2384 2386 2387 2385 
4 2386 2388 2389 2387 
4 2388 2390 2298 2389 
4 2390 2391 2299 2298 
4 2391 2392 2301 2299 
4 2392 2393 2303 2301 
4 2393 2394 2304 2303 
4 2394 2395 2305 2304 
4 2395 2396 2306 2305 
4 2396 2397 2307 2306 
4 2397 2398 2308 2307 
4 2398 2399 2309 2308 
4 2399 2400 2310 2309 
4 2400 2401 2311 2310 
4 2401 2402 2312 2311 
4 2402 2403 2313 2312 
4 2403 2404 2314 2313 
4 2404 2405 2315 2314 
4 2405 2406 2316 2315 
4 2406 2407 2317 2316 
4 2407 2408 2318 2317 
4 2408 2409 2319 2318 
4 2409 2410 2320 2319 
4 2410 2411 2321 2320 
4 2411 2412 2322 2321 
4 2412 2413 2323 2322 
4 2413 2414 2324 2323 
4 2414 2415 2325 2324 
4 2415 2416 2326 2325 
4 2416 2417 2327 2326 
4 2417 2418 2328 2327 
4 2418 2419 2329 2328 
4 2419 2420 2330 2329 
4 2420 2421 2331 2330 
4 2421 2422 2332 2331 
4 2422 2423 2333 2332 
4 2423 2424 2334 2333 
4 2424 2425 2335 2334 
4 2425 2426 2336 2335 
4 2426 2427 2337 2336 
4 2427 2428 2338 2337 
4 2428 2429 2339 2338 
4 2429 2430 2340 2339 
4 2430 2431 2341 2340 
4 2431 2432 2342 2341 
4 2432 2433 2343 2342 
4 2433 2434 2344 2343 
4 2434 2435 2345 2344 
4 2435 2436 2346 2345 
4 2436 2437 2347 2346 
4 2437 2438 2348 2347 
4 2438 2439 2349 2348 
4 2439 2440 2350 2349 
4 2440 2441 2351 2350 
4 2441 2442 2352 2351 
4 2442 2443 2353 2352 
4 2443 2444 2354 2353 
4 2444 2445 2355 2354 
4 2445 2446 2356 2355 
4 2447 2448 2359 2358 
4 2448 2449 2360 2359 
4 2449 2450 2361 2360 
4 2450 2451 2362 2361 
4 2451 2452 2363 2362 
4 2452 2453 2364 2363 
4 2453 2454 2365 2364 
4 2454 2455 2366 2365 
4 2455 2456 2367 2366 
4 2456 2457 2368 2367 
4 2457 2458 2369 2368 
4 2458 2459 2370 2369 
4 2459 2460 2371 2370 
4 2460 2461 2372 2371 
4 2461 2462 2373 2372 
4 2462 2463 2374 2373 
4 2463 2464 2376 2374 
4 2464 2465 2378 2376 
4 2465 2466 2380 2378 
4 2466 2467 2382 2380 
4 2467 2468 2384 2382 
4 2468 2469 2386 2384 
4 2469 2470 2388 2386 
4 2470 2471 2390 2388 
4 2471 2472 2391 2390 
4 2472 2473 2392 2391 
4 2473 2474 2393 2392 
4 2474 2475 2394 2393 
4 2475 2476 2395 2394 
4 2476 2477 2396 2395 
4 2477 2478 2397 2396 
4 2478 2479 2398 2397 
4 2479 2480 2399 2398 
4 2480 2481 2400 2399 
4 2481 2482 2401 2400 
4 2482 2483 2402 2401 
4 2483 2484 2403 2402 
4 2484 2485 2404 2403 
4 2485 2486 2405 2404 
4 2486 2487 2406 2405 
4 2487 2488 2407 2406 
4 2488 2489 2408 2407 
4 2489 2490 2409 2408 
4 2490 2491 2410 2409 
4 2491 2492 2411 2410 
4 2492 2493 2412 2411 
4 2493 2494 2413 2412 
4 2494 2495 2414 2413 
4 2495 2496 2415 2414 
4 2496 2497 2416 2415 
4 2497 2498 2417 2416 
4 2498 2499 2418 2417 
4 2499 2500 2419 2418 
4 2500 2501 2420 2419 
4 2501 2502 2421 2420 
4 2502 2503 2422 2421 
4 2503 2504 2423 2422 
4 2504 2505 2424 2423 
4 2505 2506 2425 2424 
4 2506 2507 2426 2425 
4 2507 2508 2427 2426 
4 2508 2509 2428 2427 
4 2509 2510 2429 2428 
4 2510 2511 2430 2429 
4 2511 2512 2431 2430 
4 2512 2513 2432 2431 
4 2513 2514 2433 2432 
4 2514 2515 2434 2433 
4 2515 2516 2435 2434 
4 2516 2517 2436 2435 
4 2517 2518 2437 2436 
4 2518 2519 2438 2437 
4 2519 2520 2439 2438 
4 2520 2521 2440 2439 
4 2521 2522 2441 2440 
4 2522 2523 2442 2441 
4 2523 2524 2443 2442 
4 2524 2525 2444 2443 
4 2525 2526 2445 2444 
4 2526 2527 2446 2445 
4 2527 2528 2529 2446 
4 2530 2531 2448 2447 
4 2531 2532 2449 2448 
4 2532 2533 2450 2449 
4 2533 2534 2451 2450 
4 2534 2535 2452 2451 
4 2535 2536 2453 2452 
4 2536 2537 2454 2453 
4 2537 2538 2455 2454 
4 2538 2539 2456 2455 
4 2539 2540 2457 2456 
4 2540 2541 2458 2457 
4 2541 2542 2459 2458 
4 2542 2543 2460 2459 
4 2543 2544 2461 2460 
4 2544 2545 2462 2461 
4 2545 2546 2463 2462 
4 2546 2547 2464 2463 
4 2547 2548 2465 2464 
4 2548 2549 2466 2465 
4 2549 2550 2467 2466 
4 2550 2551 2468 2467 
4 2551 2552 2469 2468 
4 2552 2553 2470 2469 
4 2553 2554 2471 2470 
4 2554 2555 2472 2471 
4 2555 2556 2473 2472 
4 2556 2557 2474 2473 
4 2557 2558 2475 2474 
4 2558 2559 2476 2475 
4 2559 2560 2477 2476 
4 2560 2561 2478 2477 
4 2561 2562 2479 2478 
4 2562 2563 2480 2479 
4 2563 2564 2481 2480 
4 2564 2565 2482 2481 
4 2565 2566 2483 2482 
4 2566 2567 2484 2483 
4 2567 2568 2485 2484 
4 2568 2569 2486 2485 
4 2569 2570 2487 2486 
4 2570 2571 2488 2487 
4 2571 2572 2489 2488 
4 2572 2573 2490 2489 
4 2573 2574 2491 2490 
4 2574 2575 2492 2491 
4 2575 2576 2493 2492 
4 2576 2577 2494 2493 
4 2577 2578 2495 2494 
4 2578 2579 2496 2495 
4 2579 2580 2497 2496 
4 2580 2581 2498 2497 
4 2581 2582 2499 2498 
4 2582 2583 2500 2499 
4 2583 2584 2501 2500 
4 2584 2585 2502 2501 
4 2585 2586 2503 2502 
4 2586 2587 2504 2503 
4 2587 2588 2505 2504 
4 2588 2589 2506 2505 
4 2589 2590 2507 2506 
4 2590 2591 2508 2507 
4 2591 2592 2509 2508 
4 2592 2593 2510 2509 
4 2593 2594 2511 2510 
4 2594 2595 2512 2511 
4 2595 2596 2513 2512 
4 2596 2597 2514 2513 
4 2597 2598 2515 2514 
4 2598 2599 2516 2515 
4 2599 2600 2517 2516 
4 2600 2601 2518 2517 
4 2601 2602 2519 2518 
4 2602 2603 2520 2519 
4 2603 2604 2521 2520 
4 2604 2605 2522 2521 
4 2605 2606 2523 2522 
4 2606 2607 2524 2523 
4 2607 2608 2525 2524 
4 2608 2609 2526 2525 
4 2609 2610 2527 2526 
4 2610 2611 2528 2527 
4 2612 2613 2532 2531 
4 2613 2614 2533 2532 
4 2614 2615 2534 2533 
4 2615 2616 2535 2534 
4 2616 2617 2536 2535 
4 2617 2618 2537 2536 
4 2618 2619 2538 2537 
4 2619 2620 2539 2538 
4 2620 2621 2540 2539 
4 2621 2622 2541 2540 
4 2622 2623 2542 2541 
4 2623 2624 2543 2542 
4 2624 2625 2544 2543 
4 2625 2626 2545 2544 
4 2626 2627 2546 2545 
4 2627 2628 2547 2546 
4 2628 2629 2548 2547 
4 2629 2630 2549 2548 
4 2630 2631 2550 2549 
4 2631 2632 2551 2550 
4 2632 2633 2552 2551 
4 2633 2634 2553 2552 
4 2634 2635 2554 2553 
4 2635 2636 2555 2554 
4 2636 2637 2556 2555 
4 2637 2638 2557 2556 
4 2638 2639 2558 2557 
4 2639 2640 2559 2558 
4 2640 2641 2560 2559 
4 2641 2642 2561 2560 
4 2642 2643 2562 2561 
4 2643 2644 2563 2562 
4 2644 2645 2564 2563 
4 2645 2646 2565 2564 
4 2646 2647 2566 2565 
4 2647 2648 2567 2566 
4 2648 2649 2568 2567 
4 2649 2650 2569 2568 
4 2650 2651 2570 2569 
4 2651 2652 2571 2570 
4 2652 2653 2572 2571 
4 2653 2654 2573 2572 
4 2654 2655 2574 2573 
4 2655 2656 2575 2574 
4 2656 2657 2576 2575 
4 2657 2658 2577 2576 
4 2658 2659 2578 2577 
4 2659 2660 2579 2578 
4 2660 2661 2580 2579 
4 2661 2662 2581 2580 
4 2662 2663 2582 2581 
4 2663 2664 2583 2582 
4 2664 2665 2584 2583 
4 2665 2666 2585 2584 
4 2666 2667 2586 2585 
4 2667 2668 2587 2586 
4 2668 2669 2588 2587 
4 2669 2670 2589 2588 
4 2670 2671 2590 2589 
4 2671 2672 2591 2590 
4 2672 2673 2592 2591 
4 2673 2674 2593 2592 
4 2674 2675 2594 2593 
4 2675 2676 2595 2594 
4 2676 2677 2596 2595 
4 2677 2678 2597 2596 
4 2678 2679 2598 2597 
4 2679 2680 2599 2598 
4 2680 2681 2600 2599 
4 2681 2682 2601 2600 
4 2682 2683 2602 2601 
4 2683 2684 2603 2602 
4 2684 2685 2604 2603 
4 2685 2686 2605 2604 
4 2686 2687 2606 2605 
4 2687 2688 2607 2606 
4 2688 2689 2608 2607 
4 2689 2690 2609 2608 
4 2690 2691 2610 2609 
4 2692 2693 2613 2612 
4 2693 2694 2614 2613 
4 2694 2695 2615 2614 
4 2695 2696 2616 2615 
4 2696 2697 2617 2616 
4 2697 2698 2618 2617 
4 2698 2699 2619 2618 
4 2699 2700 2620 2619 
4 2700 2701 2621 2620 
4 2701 2702 2622 2621 
4 2702 2703 2623 2622 
4 2703 2704 2624 2623 
4 2704 2705 2625 2624 
4 2705 2706 2626 2625 
4 2706 2707 2627 2626 
4 2707 2708 2628 2627 
4 2708 2709 2629 2628 
4 2709 2710 2630 2629 
4 2710 2711 2631 2630 
4 2711 2712 2632 2631 
4 2712 2713 2633 2632 
4 2713 2714 2634 2633 
4 2714 2715 2635 2634 
4 2715 2716 2636 2635 
4 2716 2717 2637 2636 
4 2717 2718 2638 2637 
4 2718 2719 2639 2638 
4 2719 2720 2640 2639 
4 2720 2721 2641 2640 
4 2721 2722 2642 2641 
4 2722 2723 2643 2642 
4 2723 2724 2644 2643 
4 2724 2725 2645 2644 
4 2725 2726 2646 2645 
4 2726 2727 2647 2646 
4 2727 2728 2648 2647 
4 2728 2729 2649 2648 
4 2729 2730 2650 2649 
4 2730 2731 2651 2650 
4 2731 2732 2652 2651 
4 2732 2733 2653 2652 
4 2733 2734 2654 2653 
4 2734 2735 2655 2654 
4 2735 2736 2656 2655 
4 2736 2737 2657 2656 
4 2737 2738 2658 2657 
4 2738 2739 2659 2658 
4 2739 2740 2660 2659 
4 2740 2741 2661 2660 
4 2741 2742 2662 2661 
4 2742 2743 2663 2662 
4 2743 2744 2664 2663 
4 2744 2745 2665 2664 
4 2745 2746 2666 2665 
4 2746 2747 2667 2666 
4 2747 2748 2668 2667 
4 2748 2749 2669 2668 
4 2749 2750 2670 2669 
4 2750 2751 2671 2670 
4 2751 2752 2672 2671 
4 2752 2753 2673 2672 
4 2753 2754 2674 2673 
4 2754 2755 2675 2674 
4 2755 2756 2676 2675 
4 2756 2757 2677 2676 
4 2757 2758 2678 2677 
4 2758 2759 2679 2678 
4 2759 2760 2680 2679 
4 2760 2761 2681 2680 
4 2761 2762 2682 2681 
4 2762 2763 2683 2682 
4 2763 2764 2684 2683 
4 2764 2765 2685 2684 
4 2765 2766 2686 2685 
4 2766 2767 2687 2686 
4 2767 2768 2688 2687 
4 2768 2769 2689 2688 
4 2769 2770 2690 2689 
4 2770 2771 2691 2690 
4 2772 2773 2694 2693 
4 2773 2774 2695 2694 
4 2774 2775 2696 2695 
4 2775 2776 2697 2696 
4 2776 2777 2698 2697 
4 2777 2778 2699 2698 
4 2778 2779 2700 2699 
4 2779 2780 2701 2700 
4 2780 2781 2702 2701 
4 2781 2782 2703 2702 
4 2782 2783 2704 2703 
4 2783 2784 2705 2704 
4 2784 2785 2706 2705 
4 2785 2786 2707 2706 
4 2786 2787 2708 2707 
4 2787 2788 2709 2708 
4 2788 2789 2710 2709 
4 2789 2790 2711 2710 
4 2790 2791 2712 2711 
4 2791 2792 2713 2712 
4 2792 2793 2714 2713 
4 2793 2794 2715 2714 
4 2794 2795 2716 2715 
4 2795 2796 2717 2716 
4 2796 2797 2718 2717 
4 2797 2798 2719 2718 
4 2798 2799 2720 2719 
4 2799 2800 2721 2720 
4 2800 2801 2722 2721 
4 2801 2802 2723 2722 
4 2802 2803 2724 2723 
4 2803 2804 2725 2724 
4 2804 2805 2726 2725 
4 2805 2806 2727 2726 
4 2806 2807 2728 2727 
4 2807 2808 2729 2728 
4 2808 2809 2730 2729 
4 2809 2810 2731 2730 
4 2810 2811 2732 2731 
4 2811 2812 2733 2732 
4 2812 2813 2734 2733 
4 2813 2814 2735 2734 
4 2814 2815 2736 2735 
4 2815 2816 2737 2736 
4 2816 2817 2738 2737 
4 2817 2818 2739 2738 
4 2818 2819 2740 2739 
4 2819 2820 2741 2740 
4 2820 2821 2742 2741 
4 2821 2822 2743 2742 
4 2822 2823 2744 2743 
4 2823 2824 2745 2744 
4 2824 2825 2746 2745 
4 2825 2826 2747 2746 
4 2826 2827 2748 2747 
4 2827 2828 2749 2748 
4 2828 2829 2750 2749 
4 2829 2830 2751 2750 
4 2830 2831 2752 2751 
4 2831 2832 2753 2752 
4 2832 2833 2754 2753 
4 2833 2834 2755 2754 
4 2834 2835 2756 2755 
4 2835 2836 2757 2756 
4 2836 2837 2758 2757 
4 2837 2838 2759 2758 
4 2838 2839 2760 2759 
4 2839 2840 2761 2760 
4 2840 2841 2762 2761 
4 2841 2842 2763 2762 
4 2842 2843 2764 2763 
4 2843 2844 2765 2764 
4 2844 2845 2766 2765 
4 2845 2846 2767 2766 
4 2846 2847 2768 2767 
4 2847 2848 2769 2768 
4 2848 2849 2770 2769 
4 2850 2851 2773 2772 
4 2851 2852 2774 2773 
4 2852 2853 2775 2774 
4 2853 2854 2776 2775 
4 2854 2855 2777 2776 
4 2855 2856 2778 2777 
4 2856 2857 2779 2778 
4 2857 2858 2780 2779 
4 2858 2859 2781 2780 
4 2859 2860 2782 2781 
4 2860 2861 2783 2782 
4 2861 2862 2784 2783 
4 2862 2863 2785 2784 
4 2863 2864 2786 2785 
4 2864 2865 2787 2786 
4 2865 2866 2788 2787 
4 2866 2867 2789 2788 
4 2867 2868 2790 2789 
4 2868 2869 2791 2790 
4 2869 2870 2792 2791 
4 2870 2871 2793 2792 
4 2871 2872 2794 2793 
4 2872 2873 2795 2794 
4 2873 2874 2796 2795 
4 2874 2875 2797 2796 
4 2875 2876 2798 2797 
4 2876 2877 2799 2798 
4 2877 2878 2800 2799 
4 2878 2879 2801 2800 
4 2879 2880 2802 2801 
4 2880 2881 2803 2802 
4 2881 2882 2804 2803 
4 2882 2883 2805 2804 
4 2883 2884 2806 2805 
4 2884 2885 2807 2806 
4 2885 2886 2808 2807 
4 2886 2887 2809 2808 
4 2887 2888 2810 2809 
4 2888 2889 2811 2810 
4 2889 2890 2812 2811 
4 2890 2891 2813 2812 
4 2891 2892 2814 2813 
4 2892 2893 2815 2814 
4 2893 2894 2816 2815 
4 2894 2895 2817 2816 
4 2895 2896 2818 2817 
4 2896 2897 2819 2818 
4 2897 2898 2820 2819 
4 2898 2899 2821 2820 
4 2899 2900 2822 2821 
4 2900 2901 2823 2822 
4 2901 2902 2824 2823 
4 2902 2903 2825 2824 
4 2903 2904 2826 2825 
4 2904 2905 2827 2826 
4 2905 2906 2828 2827 
4 2906 2907 2829 2828 
4 2907 2908 2830 2829 
4 2908 2909 2831 2830 
4 2909 2910 2832 2831 
4 2910 2911 2833 2832 
4 2911 2912 2834 2833 
4 2912 2913 2835 2834 
4 2913 2914 2836 2835 
4 2914 2915 2837 2836 
4 2915 2916 2838 2837 
4 2916 2917 2839 2838 
4 2917 2918 2840 2839 
4 2918 2919 2841 2840 
4 2919 2920 2842 2841 
4 2920 2921 2843 2842 
4 2921 2922 2844 2843 
4 2922 2923 2845 2844 
4 2923 2924 2846 2845 
4 2924 2925 2847 2846 
4 2925 2926 2848 2847 
4 2927 2928 2851 2850 
4 2928 2929 2852 2851 
4 2929 2930 2853 2852 
4 2930 2931 2854 2853 
4 2931 2932 2855 2854 
4 2932 2933 2856 2855 
4 2933 2934 2857 2856 
4 2934 2935 2858 2857 
4 2935 2936 2859 2858 
4 2936 2937 2860 2859 
4 2937 2938 2861 2860 
4 2938 2939 2862 2861 
4 2939 2940 2863 2862 
4 2940 2941 2864 2863 
4 2941 2942 2865 2864 
4 2942 2943 2866 2865 
4 2943 2944 2867 2866 
4 2944 2945 2868 2867 
4 2945 2946 2869 2868 
4 2946 2947 2870 2869 
4 2947 2948 2871 2870 
4 2948 2949 2872 2871 
4 2949 2950 2873 2872 
4 2950 2951 2874 2873 
4 2951 2952 2875 2874 
4 2952 2953 2876 2875 
4 2953 2954 2877 2876 
4 2954 2955 2878 2877 
4 2955 2956 2879 2878 
4 2956 2957 2880 2879 
4 2957 2958 2881 2880 
4 2958 2959 2882 2881 
4 2959 2960 2883 2882 
4 2960 2961 2884 2883 
4 2961 2962 2885 2884 
4 2962 2963 2886 2885 
4 2963 2964 2887 2886 
4 2964 2965 2888 2887 
4 2965 2966 2889 2888 
4 2966 2967 2890 2889 
4 2967 2968 2891 2890 
4 2968 2969 2892 2891 
4 2969 2970 2893 2892 
4 2970 2971 2894 2893 
4 2971 2972 2895 2894 
4 2972 2973 2896 2895 
4 2973 2974 2897 2896 
4 2974 2975 2898 2897 
4 2975 2976 2899 2898 
4 2976 2977 2900 2899 
4 2977 2978 2901 2900 
4 2978 2979 2902 2901 
4 2979 2980 2903 2902 
4 2980 2981 2904 2903 
4 2981 2982 2905 2904 
4 2982 2983 2906 2905 
4 2983 2984 2907 2906 
4 2984 2985 2908 2907 
4 2985 2986 2909 2908 
4 2986 2987 2910 2909 
4 2987 2988 2911 2910 
4 2988 2989 2912 2911 
4 2989 2990 2913 2912 
4 2990 2991 2914 2913 
4 2991 2992 2915 2914 
4 2992 2993 2916 2915 
4 2993 2994 2917 2916 
4 2994 2995 2918 2917 
4 2995 2996 2919 2918 
4 2996 2997 2920 2919 
4 2997 2998 2921 2920 
4 2998 2999 2922 2921 
4 2999 3000 2923 2922 
4 3000 3001 2924 2923 
4 3001 3002 2925 2924 
4 3002 3003 2926 2925 
4 3004 3005 2928 2927 
4 3005 3006 2929 2928 
4 3006 3007 2930 2929 
4 3007 3008 2931 2930 
4 3008 3009 2932 2931 
4 3009 3010 2933 2932 
4 3010 3011 2934 2933 
4 3011 3012 2935 2934 
4 3012 3013 2936 2935 
4 3013 3014 2937 2936 
4 3014 3015 2938 2937 
4 3015 3016 2939 2938 
4 3016 3017 2940 2939 
4 3017 3018 2941 2940 
4 3018 3019 2942 2941 
4 3019 3020 2943 2942 
4 3020 3021 2944 2943 
4 3021 3022 2945 2944 
4 3022 3023 2946 2945 
4 3023 3024 2947 2946 
4 3024 3025 2948 2947 
4 3025 3026 2949 2948 
4 3026 3027 2950 2949 
4 3027 3028 2951 2950 
4 3028 3029 2952 2951 
4 3029 3030 2953 2952 
4 3030 3031 2954 2953 
4 3031 3032 2955 2954 
4 3032 3033 2956 2955 
4 3033 3034 2957 2956 
4 3034 3035 2958 2957 
4 3035 3036 2959 2958 
4 3036 3037 2960 2959 
4 3037 3038 2961 2960 
4 3038 3039 2962 2961 
4 3039 3040 2963 2962 
4 3040 3041 2964 2963 
4 3041 3042 2965 2964 
4 3042 3043 2966 2965 
4 3043 3044 2967 2966 
4 3044 3045 2968 2967 
4 3045 3046 2969 2968 
4 3046 3047 2970 2969 
4 3047 3048 2971 2970 
4 3048 3049 2972 2971 
4 3049 3050 2973 2972 
4 3050 3051 2974 2973 
4 3051 3052 2975 2974 
4 3052 3053 2976 2975 
4 3053 3054 2977 2976 
4 3054 3055 2978 2977 
4 3055 3056 2979 2978 
4 3057 3058 2983 2982 
4 3058 3059 2984 2983 
4 3059 3060 2985 2984 
4 3060 3061 2986 2985 
4 3061 3062 2987 2986 
4 3062 3063 2988 2987 
4 3063 3064 2989 2988 
4 3064 3065 2990 2989 
4 3065 3066 2991 2990 
4 3066 3067 2992 2991 
4 3067 3068 2993 2992 
4 3068 3069 2994 2993 
4 3069 3070 2995 2994 
4 3070 3071 2996 2995 
4 3071 3072 2997 2996 
4 3072 3073 2998 2997 
4 3073 3074 2999 2998 
4 3074 3075 3000 2999 
4 3075 3076 3001 3000 
4 3076 3077 3002 3001 
4 3077 3078 3003 3002 
4 3079 3080 3005 3004 
4 3080 3081 3006 3005 
4 3081 3082 3007 3006 
4 3082 3083 3008 3007 
4 3083 3084 3009 3008 
4 3084 3085 3010 3009 
4 3085 3086 3011 3010 
4 3086 3087 3012 3011 
4 3087 3088 3013 3012 
4 3088 3089 3014 3013 
4 3089 3090 3015 3014 
4 3090 3091 3016 3015 
4 3091 3092 3017 3016 
4 3092 3093 3018 3017 
4 3093 3094 3019 3018 
4 3094 3095 3020 3019 
4 3095 3096 3021 3020 
4 3096 3097 3022 3021 
4 3097 3098 3023 3022 
4 3098 3099 3024 3023 
4 3099 3100 3025 3024 
4 3100 3101 3026 3025 
4 3101 3102 3027 3026 
4 3102 3103 3028 3027 
4 3103 3104 3029 3028 
4 3104 3105 3030 3029 
4 3105 3106 3031 3030 
4 3106 3107 3032 3031 
4 3107 3108 3033 3032 
4 3108 3109 3034 3033 
4 3109 3110 3035 3034 
4 3110 3111 3036 3035 
4 3111 3112 3037 3036 
4 3112 3113 3038 3037 
4 3113 3114 3039 3038 
4 3114 3115 3040 3039 
4 3115 3116 3041 3040 
4 3116 3117 3042 3041 
4 3117 3118 3043 3042 
4 3118 3119 3044 3043 
4 3119 3120 3045 3044 
4 3120 3121 3046 3045 
4 3121 3122 3047 3046 
4 3122 3123 3048 3047 
4 3123 3124 3049 3048 
4 3124 3125 3050 3049 
4 3125 3126 3051 3050 
4 3126 3127 3052 3051 
4 3127 3128 3053 3052 
4 3128 3129 3054 3053 
4 3129 3130 3055 3054 
4 3131 3132 3060 3059 
4 3132 3133 3061 3060 
4 3133 3134 3062 3061 
4 3134 3135 3063 3062 
4 3135 3136 3064 3063 
4 3136 3137 3065 3064 
4 3137 3138 3066 3065 
4 3138 3139 3067 3066 
4 3139 3140 3068 3067 
4 3140 3141 3069 3068 
4 3141 3142 3070 3069 
4 3142 3143 3071 3070 
4 3143 3144 3072 3071 
4 3144 3145 3073 3072 
4 3145 3146 3074 3073 
4 3146 3147 3075 3074 
4 3147 3148 3076 3075 
4 3148 3149 3077 3076 
4 3149 3150 3078 3077 
4 3151 3152 3080 3079 
4 3152 3153 3081 3080 
4 3153 3154 3082 3081 
4 3154 3155 3083 3082 
4 3155 3156 3084 3083 
4 3156 3157 3085 3084 
4 3157 3158 3086 3085 
4 3158 3159 3087 3086 
4 3159 3160 3088 3087 
4 3160 3161 3089 3088 
4 3161 3162 3090 3089 
4 3162 3163 3091 3090 
4 3163 3164 3092 3091 
4 3164 3165 3093 3092 
4 3165 3166 3094 3093 
4 3166 3167 3095 3094 
4 3167 3168 3096 3095 
4 3168 3169 3097 3096 
4 3169 3170 3098 3097 
4 3170 3171 3099 3098 
4 3171 3172 3100 3099 
4 3172 3173 3101 3100 
4 3173 3174 3102 3101 
4 3174 3175 3103 3102 
4 3175 3176 3104 3103 
4 3176 3177 3105 3104 
4 3177 3178 3106 3105 
4 3178 3179 3107 3106 
4 3179 3180 3108 3107 
4 3180 3181 3109 3108 
4 3181 3182 3110 3109 
4 3182 3183 3111 3110 
4 3183 3184 3112 3111 
4 3184 3185 3113 3112 
4 3185 3186 3114 3113 
4 3186 3187 3115 3114 
4 3187 3188 3116 3115 
4 3188 3189 3117 3116 
4 3189 3190 3118 3117 
4 3190 3191 3119 3118 
4 3191 3192 3120 3119 
4 3192 3193 3121 3120 
4 3193 3194 3122 3121 
4 3194 3195 3123 3122 
4 3195 3196 3124 3123 
4 3196 3197 3125 3124 
4 3197 3198 3126 3125 
4 3198 3199 3127 3126 
4 3199 3200 3128 3127 
4 3200 3201 3129 3128 
4 3202 3203 3133 3132 
4 3203 3204 3134 3133 
4 3204 3205 3135 3134 
4 3205 3206 3136 3135 
4 3206 3207 3137 3136 
4 3207 3208 3138 3137 
4 3208 3209 3139 3138 
4 3209 3210 3140 3139 
4 3210 3211 3141 3140 
4 3211 3212 3142 3141 
4 3212 3213 3143 3142 
4 3213 3214 3144 3143 
4 3214 3215 3145 3144 
4 3215 3216 3146 3145 
4 3216 3217 3147 3146 
4 3217 3218 3148 3147 
4 3218 3219 3149 3148 
4 3220 3221 3153 3152 
4 3221 3222 3154 3153 
4 3222 3223 3155 3154 
4 3223 3224 3156 3155 
4 3224 3225 3157 3156 
4 3225 3226 3158 3157 
4 3226 3227 3159 3158 
4 3227 3228 3160 3159 
4 3228 3229 3161 3160 
4 3229 3230 3162 3161 
4 3230 3231 3163 3162 
4 3231 3232 3164 3163 
4 3232 3233 3165 3164 
4 3233 3234 3166 3165 
4 3234 3235 3167 3166 
4 3235 3236 3168 3167 
4 3236 3237 3169 3168 
4 3237 3238 3170 3169 
4 3238 3239 3171 3170 
4 3239 3240 3172 3171 
4 3240 3241 3173 3172 
4 3241 3242 3174 3173 
4 3242 3243 3175 3174 
4 3243 3244 3176 3175 
4 3244 3245 3177 3176 
4 3245 3246 3178 3177 
4 3246 3247 3179 3178 
4 3247 3248 3180 3179 
4 3248 3249 3181 3180 
4 3249 3250 3182 3181 
4 3250 3251 3183 3182 
4 3251 3252 3184 3183 
4 3252 3253 3185 3184 
4 3253 3254 3186 3185 
4 3254 3255 3187 3186 
4 3255 3256 3188 3187 
4 3256 3257 3189 3188 
4 3257 3258 3190 3189 
4 3258 3259 3191 3190 
4 3259 3260 3192 3191 
4 3260 3261 3193 3192 
4 3261 3262 3194 3193 
4 3262 3263 3195 3194 
4 3263 3264 3196 3195 
4 3264 3265 3197 3196 
4 3265 3266 3198 3197 
4 3266 3267 3199 3198 
4 3267 3268 3200 3199 
4 3269 3270 3205 3204 
4 3270 3271 3206 3205 
4 3271 3272 3207 3206 
4 3272 3273 3208 3207 
4 3273 3274 3209 3208 
4 3274 3275 3210 3209 
4 3275 3276 3211 3210 
4 3276 3277 3212 3211 
4 3277 3278 3213 3212 
4 3278 3279 3214 3213 
4 3279 3280 3215 3214 
4 3280 3281 3216 3215 
4 3281 3282 3217 3216 
4 3282 3283 3218 3217 
4 3283 3284 3219 3218 
4 3285 3286 3221 3220 
4 3286 3287 3222 3221 
4 3287 3288 3223 3222 
4 3288 3289 3224 3223 
4 3289 3290 3225 3224 
4 3290 3291 3226 3225 
4 3291 3292 3227 3226 
4 3292 3293 3228 3227 
4 3293 3294 3229 3228 
4 3294 3295 3230 3229 
4 3295 3296 3231 3230 
4 3296 3297 3232 3231 
4 3297 3298 3233 3232 
4 3298 3299 3234 3233 
4 3299 3300 3235 3234 
4 3300 3301 3236 3235 
4 3301 3302 3237 3236 
4 3302 3303 3238 3237 
4 3303 3304 3239 3238 
4 3304 3305 3240 3239 
4 3305 3306 3241 3240 
4 3306 3307 3242 3241 
4 3307 3308 3243 3242 
4 3308 3309 3244 3243 
4 3309 3310 3245 3244 
4 3310 3311 3246 3245 
4 3311 3312 3247 3246 
4 3312 3313 3248 3247 
4 3313 3314 3249 3248 
4 3314 3315 3250 3249 
4 3315 3316 3251 3250 
4 3316 3317 3252 3251 
4 3317 3318 3253 3252 
4 3318 3319 3254 3253 
4 3319 3320 3255 3254 
4 3320 3321 3256 3255 
4 3321 3322 3257 3256 
4 3322 3323 3258 3257 
4 3323 3324 3259 3258 
4 3324 3325 3260 3259 
4 3325 3326 3261 3260 
4 3326 3327 3262 3261 
4 3327 3328 3263 3262 
4 3328 3329 3264 3263 
4 3329 3330 3265 3264 
4 3330 3331 3266 3265 
4 3331 3332 3267 3266 
4 3333 3334 3272 3271 
4 3334 3335 3273 3272 
4 3335 3336 3274 3273 
4 3336 3337 3275 3274 
4 3337 3338 3276 3275 
4 3338 3339 3277 3276 
4 3339 3340 3278 3277 
4 3340 3341 3279 3278 
4 3341 3342 3280 3279 
4 3342 3343 3281 3280 
4 3343 3344 3282 3281 
4 3344 3345 3283 3282 
4 3345 3346 3284 3283 
4 3347 3348 3286 3285 
4 3348 3349 3287 3286 
4 3349 3350 3288 3287 
4 3350 3351 3289 3288 
4 3351 3352 3290 3289 
4 3352 3353 3291 3290 
4 3353 3354 3292 3291 
4 3354 3355 3293 3292 
4 3355 3356 3294 3293 
4 3356 3357 3295 3294 
4 3357 3358 3296 3295 
4 3358 3359 3297 3296 
4 3359 3360 3298 3297 
4 3360 3361 3299 3298 
4 3361 3362 3300 3299 
4 3362 3363 3301 3300 
4 3363 3364 3302 3301 
4 3364 3365 3303 3302 
4 3365 3366 3304 3303 
4 3366 3367 3305 3304 
4 3367 3368 3306 3305 
4 3368 3369 3307 3306 
4 3369 3370 3308 3307 
4 3370 3371 3309 3308 
4 3371 3372 3310 3309 
4 3372 3373 3311 3310 
4 3373 3374 3312 3311 
4 3374 3375 3313 3312 
4 3375 3376 3314 3313 
4 3376 3377 3315 3314 
4 3377 3378 3316 3315 
4 3378 3379 3317 3316 
4 3379 3380 3318 3317 
4 3380 3381 3319 3318 
4 3381 3382 3320 3319 
4 3382 3383 3321 3320 
4 3383 3384 3322 3321 
4 3384 3385 3323 3322 
4 3385 3386 3324 3323 
4 3386 3387 3325 3324 
4 3387 3388 3326 3325 
4 3388 3389 3327 3326 
4 3389 3390 3328 3327 
4 3390 3391 3329 3328 
4 3391 3392 3330 3329 
4 3392 3393 3331 3330 
4 3394 3395 3335 3334 
4 3395 3396 3336 3335 
4 3396 3397 3337 3336 
4 3397 3398 3338 3337 
4 3398 3399 3339 3338 
4 3399 3400 3340 3339 
4 3400 3401 3341 3340 
4 3401 3402 3342 3341 
4 3402 3403 3343 3342 
4 3403 3404 3344 3343 
4 3404 3405 3345 3344 
4 3405 3406 3346 3345 
4 3406 3407 3408 3346 
4 3409 3410 3348 3347 
4 3410 3411 3349 3348 
4 3411 3412 3350 3349 
4 3412 3413 3351 3350 
4 3413 3414 3352 3351 
4 3414 3415 3353 3352 
4 3415 3416 3354 3353 
4 3416 3417 3355 3354 
4 3417 3418 3356 3355 
4 3418 3419 3357 3356 
4 3419 3420 3358 3357 
4 3420 3421 3359 3358 
4 3421 3422 3360 3359 
4 3422 3423 3361 3360 
4 3423 3424 3362 3361 
4 3424 3425 3363 3362 
4 3425 3426 3364 3363 
4 3426 3427 3365 3364 
4 3427 3428 3366 3365 
4 3428 3429 3367 3366 
4 3429 3430 3368 3367 
4 3430 3431 3369 3368 
4 3431 3432 3370 3369 
4 3432 3433 3371 3370 
4 3433 3434 3372 3371 
4 3434 3435 3373 3372 
4 3435 3436 3374 3373 
4 3436 3437 3375 3374 
4 3437 3438 3376 3375 
4 3438 3439 3377 3376 
4 3439 3440 3378 3377 
4 3440 3441 3379 3378 
4 3441 3442 3380 3379 
4 3442 3443 3381 3380 
4 3443 3444 3382 3381 
4 3444 3445 3383 3382 
4 3445 3446 3384 3383 
4 3446 3447 3385 3384 
4 3447 3448 3386 3385 
4 3448 3449 3387 3386 
4 3449 3450 3388 3387 
4 3450 3451 3389 3388 
4 3451 3452 3390 3389 
4 3452 3453 3391 3390 
4 3453 3454 3392 3391 
4 3454 3455 3393 3392 
4 3456 3457 3395 3394 
4 3457 3458 3396 3395 
4 3458 3459 3397 3396 
4 3459 3460 3398 3397 
4 3460 3461 3399 3398 
4 3461 3462 3400 3399 
4 3462 3463 3401 3400 
4 3463 3464 3402 3401 
4 3464 3465 3403 3402 
4 3465 3466 3404 3403 
4 3466 3467 3405 3404 
4 3467 3468 3406 3405 
4 3468 3469 3407 3406 
4 3471 3472 3473 3470 
4 3472 3474 3409 3473 
4 3474 3475 3410 3409 
4 3475 3476 3411 3410 
4 3476 3477 3412 3411 
4 3477 3478 3413 3412 
4 3478 3479 3414 3413 
4 3479 3480 3415 3414 
4 3480 3481 3416 3415 
4 3481 3482 3417 3416 
4 3482 3483 3418 3417 
4 3483 3484 3419 3418 
4 3484 3485 3420 3419 
4 3485 3486 3421 3420 
4 3486 3487 3422 3421 
4 3487 3488 3423 3422 
4 3488 3489 3424 3423 
4 3489 3490 3425 3424 
4 3490 3491 3426 3425 
4 3491 3492 3427 3426 
4 3492 3493 3428 3427 
4 3493 3494 3429 3428 
4 3494 3495 3430 3429 
4 3495 3496 3431 3430 
4 3496 3497 3432 3431 
4 3497 3498 3433 3432 
4 3498 3499 3434 3433 
4 3499 3500 3435 3434 
4 3500 3501 3436 3435 
4 3501 3502 3437 3436 
4 3502 3503 3438 3437 
4 3503 3504 3439 3438 
4 3504 3505 3440 3439 
4 3505 3506 3441 3440 
4 3506 3507 3442 3441 
4 3507 3508 3443 3442 
4 3508 3509 3444 3443 
4 3509 3510 3445 3444 
4 3510 3511 3446 3445 
4 3511 3512 3447 3446 
4 3512 3513 3448 3447 
4 3513 3514 3449 3448 
4 3514 3515 3450 3449 
4 3515 3516 3451 3450 
4 3516 3517 3452 3451 
4 3517 3518 3453 3452 
4 3518 3519 3454 3453 
4 3520 3521 3457 3456 
4 3521 3522 3458 3457 
4 3522 3523 3459 3458 
4 3523 3524 3460 3459 
4 3524 3525 3461 3460 
4 3525 3526 3462 3461 
4 3526 3527 3463 3462 
4 3527 3528 3464 3463 
4 3528 3529 3465 3464 
4 3529 3530 3466 3465 
4 3530 3531 3467 3466 
4 3531 3532 3468 3467 
4 3532 3533 3469 3468 
4 3535 3536 3471 3534 
4 3536 3537 3472 3471 
4 3537 3538 3474 3472 
4 3538 3539 3475 3474 
4 3539 3540 3476 3475 
4 3540 3541 3477 3476 
4 3541 3542 3478 3477 
4 3542 3543 3479 3478 
4 3543 3544 3480 3479 
4 3544 3545 3481 3480 
4 3545 3546 3482 3481 
4 3546 3547 3483 3482 
4 3547 3548 3484 3483 
4 3548 3549 3485 3484 
4 3549 3550 3486 3485 
4 3550 3551 3487 3486 
4 3551 3552 3488 3487 
4 3552 3553 3489 3488 
4 3553 3554 3490 3489 
4 3554 3555 3491 3490 
4 3555 3556 3492 3491 
4 3556 3557 3493 3492 
4 3557 3558 3494 3493 
4 3558 3559 3495 3494 
4 3559 3560 3496 3495 
4 3560 3561 3497 3496 
4 3561 3562 3498 3497 
4 3562 3563 3499 3498 
4 3563 3564 3500 3499 
4 3564 3565 3501 3500 
4 3565 3566 3502 3501 
4 3566 3567 3503 3502 
4 3567 3568 3504 3503 
4 3568 3569 3505 3504 
4 3569 3570 3506 3505 
4 3570 3571 3507 3506 
4 3571 3572 3508 3507 
4 3572 3573 3509 3508 
4 3573 3574 3510 3509 
4 3574 3575 3511 3510 
4 3575 3576 3512 3511 
4 3576 3577 3513 3512 
4 3577 3578 3514 3513 
4 3578 3579 3515 3514 
4 3579 3580 3516 3515 
4 3580 3581 3517 3516 
4 3581 3582 3518 3517 
4 3582 3583 3519 3518 
4 3584 3585 3521 3520 
4 3585 3586 3522 3521 
4 3586 3587 3523 3522 
4 3587 3588 3524 3523 
4 3588 3589 3525 3524 
4 3589 3590 3526 3525 
4 3590 3591 3527 3526 
4 3591 3592 3528 3527 
4 3592 3593 3529 3528 
4 3593 3594 3530 3529 
4 3594 3595 3531 3530 
4 3595 3596 3532 3531 
4 3596 3597 3533 3532 
4 3598 3599 3536 3535 
4 3599 3600 3537 3536 
4 3600 3601 3538 3537 
4 3601 3602 3539 3538 
4 3602 3603 3540 3539 
4 3603 3604 3541 3540 
4 3604 3605 3542 3541 
4 3605 3606 3543 3542 
4 3606 3607 3544 3543 
4 3607 3608 3545 3544 
4 3608 3609 3546 3545 
4 3609 3610 3547 3546 
4 3610 3611 3548 3547 
4 3611 3612 3549 3548 
4 3612 3613 3550 3549 
4 3613 3614 3551 3550 
4 3614 3615 3552 3551 
4 3615 3616 3553 3552 
4 3616 3617 3554 3553 
4 3617 3618 3555 3554 
4 3618 3619 3556 3555 
4 3619 3620 3557 3556 
4 3620 3621 3558 3557 
4 3621 3622 3559 3558 
4 3622 3623 3560 3559 
4 3623 3624 3561 3560 
4 3624 3625 3562 3561 
4 3625 3626 3563 3562 
4 3626 3627 3564 3563 
4 3627 3628 3565 3564 
4 3628 3629 3566 3565 
4 3629 3630 3567 3566 
4 3630 3631 3568 3567 
4 3631 3632 3569 3568 
4 3632 3633 3570 3569 
4 3633 3634 3571 3570 
4 3634 3635 3572 3571 
4 3635 3636 3573 3572 
4 3636 3637 3574 3573 
4 3637 3638 3575 3574 
4 3638 3639 3576 3575 
4 3639 3640 3577 3576 
4 3640 3641 3578 3577 
4 3641 3642 3579 3578 
4 3642 3643 3580 3579 
4 3643 3644 3581 3580 
4 3644 3645 3582 3581 
4 3645 3646 3583 3582 
4 3648 3649 3584 3647 
4 3649 3650 3585 3584 
4 3650 3651 3586 3585 
4 3651 3652 3587 3586 
4 3652 3653 3588 3587 
4 3653 3654 3589 3588 
4 3654 3655 3590 3589 
4 3655 3656 3591 3590 
4 3656 3657 3592 3591 
4 3657 3658 3593 3592 
4 3658 3659 3594 3593 
4 3659 3660 3595 3594 
4 3660 3661 3596 3595 
4 3662 3663 3599 3598 
4 3663 3664 3600 3599 
4 3664 3665 3601 3600 
4 3665 3666 3602 3601 
4 3666 3667 3603 3602 
4 3667 3668 3604 3603 
4 3668 3669 3605 3604 
4 3669 3670 3606 3605 
4 3670 3671 3607 3606 
4 3671 3672 3608 3607 
4 3672 3673 3609 3608 
4 3673 3674 3610 3609 
4 3674 3675 3611 3610 
4 3675 3676 3612 3611 
4 3676 3677 3613 3612 
4 3677 3678 3614 3613 
4 3678 3679 3615 3614 
4 3679 3680 3616 3615 
4 3680 3681 3617 3616 
4 3681 3682 3618 3617 
4 3682 3683 3619 3618 
4 3683 3684 3620 3619 
4 3684 3685 3621 3620 
4 3685 3686 3622 3621 
4 3686 3687 3623 3622 
4 3687 3688 3624 3623 
4 3688 3689 3625 3624 
4 3689 3690 3626 3625 
4 3690 3691 3627 3626 
4 3691 3692 3628 3627 
4 3692 3693 3629 3628 
4 3693 3694 3630 3629 
4 3694 3695 3631 3630 
4 3695 3696 3632 3631 
4 3696 3697 3633 3632 
4 3697 3698 3634 3633 
4 3698 3699 3635 3634 
4 3699 3700 3636 3635 
4 3700 3701 3637 3636 
4 3701 3702 3638 3637 
4 3702 3703 3639 3638 
4 3703 3704 3640 3639 
4 3704 3705 3641 3640 
4 3705 3706 3642 3641 
4 3706 3707 3643 3642 
4 3707 3708 3644 3643 
4 3708 3709 3645 3644 
4 3709 3710 3646 3645 
4 3712 3713 3648 3711 
4 3713 3714 3649 3648 
4 3714 3715 3650 3649 
4 3715 3716 3651 3650 
4 3716 3717 3652 3651 
4 3717 3718 3653 3652 
4 3718 3719 3654 3653 
4 3719 3720 3655 3654 
4 3720 3721 3656 3655 
4 3721 3722 3657 3656 
4 3722 3723 3658 3657 
4 3723 3724 3659 3658 
4 3724 3725 3660 3659 
4 3725 3726 3661 3660 
4 3727 3728 3663 3662 
4 3728 3729 3664 3663 
4 3729 3730 3665 3664 
4 3730 3731 3666 3665 
4 3731 3732 3667 3666 
4 3732 3733 3668 3667 
4 3733 3734 3669 3668 
4 3734 3735 3670 3669 
4 3735 3736 3671 3670 
4 3736 3737 3672 3671 
4 3737 3738 3673 3672 
4 3738 3739 3674 3673 
4 3739 3740 3675 3674 
4 3740 3741 3676 3675 
4 3741 3742 3677 3676 
4 3742 3743 3678 3677 
4 3743 3744 3679 3678 
4 3744 3745 3680 3679 
4 3745 3746 3681 3680 
4 3746 3747 3682 3681 
4 3747 3748 3683 3682 
4 3748 3749 3684 3683 
4 3749 3750 3685 3684 
4 3750 3751 3686 3685 
4 3751 3752 3687 3686 
4 3752 3753 3688 3687 
4 3753 3754 3689 3688 
4 3754 3755 3690 3689 
4 3755 3756 3691 3690 
4 3756 3757 3692 3691 
4 3757 3758 3693 3692 
4 3758 3759 3694 3693 
4 3759 3760 3695 3694 
4 3760 3761 3696 3695 
4 3761 3762 3697 3696 
4 3762 3763 3698 3697 
4 3763 3764 3699 3698 
4 3764 3765 3700 3699 
4 3765 3766 3701 3700 
4 3766 3767 3702 3701 
4 3767 3768 3703 3702 
4 3768 3769 3704 3703 
4 3769 3770 3705 3704 
4 3770 3771 3706 3705 
4 3771 3772 3707 3706 
4 3772 3773 3708 3707 
4 3773 3774 3709 3708 
4 3774 3775 3710 3709 
4 3777 3778 3712 3776 
4 3778 3779 3713 3712 
4 3779 3780 3714 3713 
4 3780 3781 3715 3714 
4 3781 3782 3716 3715 
4 3782 3783 3717 3716 
4 3783 3784 3718 3717 
4 3784 3785 3719 3718 
4 3785 3786 3720 3719 
4 3786 3787 3721 3720 
4 3787 3788 3722 3721 
4 3788 3789 3723 3722 
4 3789 3790 3724 3723 
4 3790 3791 3725 3724 
4 3791 3792 3726 3725 
4 3793 3794 3728 3727 
4 3794 3795 3729 3728 
4 3795 3796 3730 3729 
4 3796 3797 3731 3730 
4 3797 3798 3732 3731 
4 3798 3799 3733 3732 
4 3799 3800 3734 3733 
4 3800 3801 3735 3734 
4 3801 3802 3736 3735 
4 3802 3803 3737 3736 
4 3803 3804 3738 3737 
4 3804 3805 3739 3738 
4 3805 3806 3740 3739 
4 3806 3807 3741 3740 
4 3807 3808 3742 3741 
4 3808 3809 3743 3742 
4 3809 3810 3744 3743 
4 3810 3811 3745 3744 
4 3811 3812 3746 3745 
4 3812 3813 3747 3746 
4 3813 3814 3748 3747 
4 3814 3815 3749 3748 
4 3815 3816 3750 3749 
4 3816 3817 3751 3750 
4 3817 3818 3752 3751 
4 3818 3819 3753 3752 
4 3819 3820 3754 3753 
4 3820 3821 3755 3754 
4 3821 3822 3756 3755 
4 3822 3823 3757 3756 
4 3823 3824 3758 3757 
4 3824 3825 3759 3758 
4 3825 3826 3760 3759 
4 3826 3827 3761 3760 
4 3827 3828 3762 3761 
4 3828 3829 3763 3762 
4 3829 3830 3764 3763 
4 3830 3831 3765 3764 
4 3831 3832 3766 3765 
4 3833 3834 3770 3769 
4 3834 3835 3771 3770 
4 3835 3836 3772 3771 
4 3836 3837 3773 3772 
4 3837 3838 3774 3773 
4 3838 3839 3775 3774 
4 3840 3841 3778 3777 
4 3841 3842 3779 3778 
4 3842 3843 3780 3779 
4 3843 3844 3781 3780 
4 3844 3845 3782 3781 
4 3845 3846 3783 3782 
4 3846 3847 3784 3783 
4 3847 3848 3785 3784 
4 3848 3849 3786 3785 
4 3849 3850 3787 3786 
4 3850 3851 3788 3787 
4 3851 3852 3789 3788 
4 3852 3853 3790 3789 
4 3853 3854 3791 3790 
4 3854 3855 3792 3791 
4 3856 3857 3794 3793 
4 3857 3858 3795 3794 
4 3858 3859 3796 3795 
4 3859 3860 3797 3796 
4 3860 3861 3798 3797 
4 3861 3862 3799 3798 
4 3862 3863 3800 3799 
4 3863 3864 3801 3800 
4 3864 3865 3802 3801 
4 3865 3866 3803 3802 
4 3866 3867 3804 3803 
4 3867 3868 3805 3804 
4 3868 3869 3806 3805 
4 3869 3870 3807 3806 
4 3870 3871 3808 3807 
4 3871 3872 3809 3808 
4 3872 3873 3810 3809 
4 3873 3874 3811 3810 
4 3874 3875 3812 3811 
4 3875 3876 3813 3812 
4 3876 3877 3814 3813 
4 3877 3878 3815 3814 
4 3878 3879 3816 3815 
4 3879 3880 3817 3816 
4 3880 3881 3818 3817 
4 3881 3882 3819 3818 
4 3882 3883 3820 3819 
4 3883 3884 3821 3820 
4 3884 3885 3822 3821 
4 3885 3886 3823 3822 
4 3886 3887 3824 3823 
4 3887 3888 3825 3824 
4 3889 3890 3834 3833 
4 3890 3891 3835 3834 
4 3891 3892 3836 3835 
4 3892 3893 3837 3836 
4 3893 3894 3838 3837 
4 3895 3896 3841 3840 
4 3896 3897 3842 3841 
4 3897 3898 3843 3842 
4 3898 3899 3844 3843 
4 3899 3900 3845 3844 
4 3900 3901 3846 3845 
4 3901 3902 3847 3846 
4 3902 3903 3848 3847 
4 3903 3904 3849 3848 
4 3904 3905 3850 3849 
4 3905 3906 3851 3850 
4 3906 3907 3852 3851 
4 3907 3908 3853 3852 
4 3908 3909 3854 3853 
4 3909 3910 3855 3854 
4 3911 3912 3858 3857 
4 3912 3913 3859 3858 
4 3913 3914 3860 3859 
4 3914 3915 3861 3860 
4 3915 3916 3862 3861 
4 3916 3917 3863 3862 
4 3917 3918 3864 3863 
4 3918 3919 3865 3864 
4 3919 3920 3866 3865 
4 3920 3921 3867 3866 
4 3921 3922 3868 3867 
4 3922 3923 3869 3868 
4 3923 3924 3870 3869 
4 3924 3925 3871 3870 
4 3925 3926 3872 3871 
4 3926 3927 3873 3872 
4 3927 3928 3874 3873 
4 3928 3929 3875 3874 
4 3929 3930 3876 3875 
4 3930 3931 3877 3876 
4 3931 3932 3878 3877 
4 3932 3933 3879 3878 
4 3933 3934 3880 3879 
4 3934 3935 3881 3880 
4 3935 3936 3882 3881 
4 3936 3937 3883 3882 
4 3937 3938 3884 3883 
4 3938 3939 3885 3884 
4 3939 3940 3886 3885 
4 3942 3943 3889 3941 
4 3943 3944 3890 3889 
4 3944 3945 3891 3890 
4 3945 3946 3892 3891 
4 3946 3947 3893 3892 
4 3947 3948 3894 3893 
4 3950 3951 3895 3949 
4 3951 3952 3896 3895 
4 3952 3953 3897 3896 
4 3953 3954 3898 3897 
4 3954 3955 3899 3898 
4 3955 3956 3900 3899 
4 3956 3957 3901 3900 
4 3957 3958 3902 3901 
4 3958 3959 3903 3902 
4 3959 3960 3904 3903 
4 3960 3961 3905 3904 
4 3961 3962 3906 3905 
4 3962 3963 3907 3906 
4 3963 3964 3908 3907 
4 3964 3965 3909 3908 
4 3965 3966 3910 3909 
4 3967 3968 3912 3911 
4 3968 3969 3913 3912 
4 3969 3970 3914 3913 
4 3970 3971 3915 3914 
4 3971 3972 3916 3915 
4 3972 3973 3917 3916 
4 3973 3974 3918 3917 
4 3974 3975 3919 3918 
4 3975 3976 3920 3919 
4 3976 3977 3921 3920 
4 3977 3978 3922 3921 
4 3978 3979 3923 3922 
4 3979 3980 3924 3923 
4 3980 3981 3925 3924 
4 3981 3982 3926 3925 
4 3982 3983 3927 3926 
4 3983 3984 3928 3927 
4 3984 3985 3929 3928 
4 3985 3986 3930 3929 
4 3986 3987 3931 3930 
4 3987 3988 3932 3931 
4 3988 3989 3933 3932 
4 3989 3990 3934 3933 
4 3990 3991 3935 3934 
4 3991 3992 3936 3935 
4 3992 3993 3937 3936 
4 3993 3994 3938 3937 
4 3995 3996 3943 3942 
4 3996 3997 3944 3943 
4 3997 3998 3945 3944 
4 3998 3999 3946 3945 
4 3999 4000 3947 3946 
4 4002 4003 3950 4001 
4 4003 4004 3951 3950 
4 4004 4005 3952 3951 
4 4005 4006 3953 3952 
4 4006 4007 3954 3953 
4 4007 4008 3955 3954 
4 4008 4009 3956 3955 
4 4009 4010 3957 3956 
4 4010 4011 3958 3957 
4 4011 4012 3959 3958 
4 4012 4013 3960 3959 
4 4013 4014 3961 3960 
4 4014 4015 3962 3961 
4 4015 4016 3963 3962 
4 4016 4017 3964 3963 
4 4017 4018 3965 3964 
4 4019 4020 3969 3968 
4 4020 4021 3970 3969 
4 4021 4022 3971 3970 
4 4022 4023 3972 3971 
4 4023 4024 3973 3972 
4 4024 4025 3974 3973 
4 4025 4026 3975 3974 
4 4026 4027 3976 3975 
4 4027 4028 3977 3976 
4 4028 4029 3978 3977 
4 4029 4030 3979 3978 
4 4030 4031 3980 3979 
4 4031 4032 3981 3980 
4 4032 4033 3982 3981 
4 4033 4034 3983 3982 
4 4034 4035 3984 3983 
4 4035 4036 3985 3984 
4 4036 4037 3986 3985 
4 4037 4038 3987 3986 
4 4038 4039 3988 3987 
4 4039 4040 3989 3988 
4 4040 4041 3990 3989 
4 4041 4042 3991 3990 
4 4042 4043 3992 3991 
4 4043 4044 3993 3992 
4 4045 4046 3997 3996 
4 4046 4047 3998 3997 
4 4049 4050 4002 4048 
4 4050 4051 4003 4002 
4 4051 4052 4004 4003 
4 4052 4053 4005 4004 
4 4053 4054 4006 4005 
4 4054 4055 4007 4006 
4 4055 4056 4008 4007 
4 4056 4057 4009 4008 
4 4057 4058 4010 4009 
4 4058 4059 4011 4010 
4 4059 4060 4012 4011 
4 4060 4061 4013 4012 
4 4061 4062 4014 4013 
4 4062 4063 4015 4014 
4 4063 4064 4016 4015 
4 4064 4065 4017 4016 
4 4066 4067 4021 4020 
4 4067 4068 4022 4021 
4 4068 4069 4023 4022 
4 4069 4070 4024 4023 
4 4070 4071 4025 4024 
4 4071 4072 4026 4025 
4 4072 4073 4027 4026 
4 4073 4074 4028 4027 
4 4074 4075 4029 4028 
4 4075 4076 4030 4029 
4 4076 4077 4031 4030 
4 4077 4078 4032 4031 
4 4078 4079 4033 4032 
4 4079 4080 4034 4033 
4 4080 4081 4035 4034 
4 4081 4082 4036 4035 
4 4082 4083 4037 4036 
4 4083 4084 4038 4037 
4 4084 4085 4039 4038 
4 4085 4086 4040 4039 
4 4086 4087 4041 4040 
4 4087 4088 4042 4041 
4 4088 4089 4043 4042 
4 4089 4090 4044 4043 
4 4092 4093 4049 4091 
4 4093 4094 4050 4049 
4 4094 4095 4051 4050 
4 4095 4096 4052 4051 
4 4096 4097 4053 4052 
4 4097 4098 4054 4053 
4 4098 4099 4055 4054 
4 4099 4100 4056 4055 
4 4100 4101 4057 4056 
4 4101 4102 4058 4057 
4 4102 4103 4059 4058 
4 4103 4104 4060 4059 
4 4104 4105 4061 4060 
4 4105 4106 4062 4061 
4 4106 4107 4063 4062 
4 4107 4108 4064 4063 
4 4108 4109 4065 4064 
4 4110 4111 4067 4066 
4 4111 4112 4068 4067 
4 4112 4113 4069 4068 
4 4113 4114 4070 4069 
4 4114 4115 4071 4070 
4 4115 4116 4072 4071 
4 4116 4117 4073 4072 
4 4117 4118 4074 4073 
4 4118 4119 4075 4074 
4 4119 4120 4076 4075 
4 4120 4121 4077 4076 
4 4121 4122 4078 4077 
4 4122 4123 4079 4078 
4 4123 4124 4080 4079 
4 4124 4125 4081 4080 
4 4125 4126 4082 4081 
4 4126 4127 4083 4082 
4 4127 4128 4084 4083 
4 4128 4129 4085 4084 
4 4129 4130 4086 4085 
4 4130 4131 4087 4086 
4 4131 4132 4088 4087 
4 4132 4133 4089 4088 
4 4135 4136 4092 4134 
4 4136 4137 4093 4092 
4 4137 4138 4094 4093 
4 4138 4139 4095 4094 
4 4139 4140 4096 4095 
4 4140 4141 4097 4096 
4 4141 4142 4098 4097 
4 4142 4143 4099 4098 
4 4143 4144 4100 4099 
4 4144 4145 4101 4100 
4 4145 4146 4102 4101 
4 4146 4147 4103 4102 
4 4147 4148 4104 4103 
4 4148 4149 4105 4104 
4 4149 4150 4106 4105 
4 4150 4151 4107 4106 
4 4151 4152 4108 4107 
4 4152 4153 4109 4108 
4 4154 4155 4113 4112 
4 4155 4156 4114 4113 
4 4156 4157 4115 4114 
4 4157 4158 4116 4115 
4 4158 4159 4117 4116 
4 4159 4160 4118 4117 
4 4160 4161 4119 4118 
4 4161 4162 4120 4119 
4 4162 4163 4121 4120 
4 4163 4164 4122 4121 
4 4164 4165 4123 4122 
4 4165 4166 4124 4123 
4 4166 4167 4125 4124 
4 4167 4168 4126 4125 
4 4168 4169 4127 4126 
4 4169 4170 4128 4127 
4 4170 4171 4129 4128 
4 4171 4172 4130 4129 
4 4172 4173 4131 4130 
4 4173 4174 4132 4131 
4 4174 4175 4133 4132 
4 4177 4178 4179 4176 
4 4178 4180 4135 4179 
4 4180 4181 4136 4135 
4 4181 4182 4137 4136 
4 4182 4183 4138 4137 
4 4183 4184 4139 4138 
4 4184 4185 4140 4139 
4 4185 4186 4141 4140 
4 4186 4187 4142 4141 
4 4187 4188 4143 4142 
4 4188 4189 4144 4143 
4 4189 4190 4145 4144 
4 4190 4191 4146 4145 
4 4191 4192 4147 4146 
4 4192 4193 4148 4147 
4 4193 4194 4149 4148 
4 4194 4195 4150 4149 
4 4195 4196 4151 4150 
4 4196 4197 4152 4151 
4 4198 4199 4155 4154 
4 4199 4200 4156 4155 
4 4200 4201 4157 4156 
4 4201 4202 4158 4157 
4 4202 4203 4159 4158 
4 4203 4204 4160 4159 
4 4204 4205 4161 4160 
4 4205 4206 4162 4161 
4 4206 4207 4163 4162 
4 4207 4208 4164 4163 
4 4208 4209 4165 4164 
4 4209 4210 4166 4165 
4 4210 4211 4167 4166 
4 4211 4212 4168 4167 
4 4212 4213 4169 4168 
4 4213 4214 4170 4169 
4 4214 4215 4171 4170 
4 4215 4216 4172 4171 
4 4216 4217 4173 4172 
4 4217 4218 4174 4173 
4 4218 4219 4175 4174 
4 4221 4222 4177 4220 
4 4222 4223 4178 4177 
4 4223 4224 4180 4178 
4 4224 4225 4181 4180 
4 4225 4226 4182 4181 
4 4226 4227 4183 4182 
4 4227 4228 4184 4183 
4 4228 4229 4185 4184 
4 4229 4230 4186 4185 
4 4230 4231 4187 4186 
4 4231 4232 4188 4187 
4 4232 4233 4189 4188 
4 4233 4234 4190 4189 
4 4234 4235 4191 4190 
4 4235 4236 4192 4191 
4 4236 4237 4193 4192 
4 4237 4238 4194 4193 
4 4238 4239 4195 4194 
4 4239 4240 4196 4195 
4 4240 4241 4197 4196 
4 4242 4243 4201 4200 
4 4243 4244 4202 4201 
4 4244 4245 4203 4202 
4 4245 4246 4204 4203 
4 4246 4247 4205 4204 
4 4247 4248 4206 4205 
4 4248 4249 4207 4206 
4 4249 4250 4208 4207 
4 4250 4251 4209 4208 
4 4251 4252 4210 4209 
4 4252 4253 4211 4210 
4 4253 4254 4212 4211 
4 4254 4255 4213 4212 
4 4255 4256 4214 4213 
4 4256 4257 4215 4214 
4 4257 4258 4216 4215 
4 4258 4259 4217 4216 
4 4259 4260 4218 4217 
4 4260 4261 4219 4218 
4 4263 4264 4265 4262 
4 4264 4266 4221 4265 
4 4266 4267 4222 4221 
4 4267 4268 4223 4222 
4 4268 4269 4224 4223 
4 4269 4270 4225 4224 
4 4270 4271 4226 4225 
4 4271 4272 4227 4226 
4 4272 4273 4228 4227 
4 4273 4274 4229 4228 
4 4274 4275 4230 4229 
4 4275 4276 4231 4230 
4 4276 4277 4232 4231 
4 4277 4278 4233 4232 
4 4278 4279 4234 4233 
4 4279 4280 4235 4234 
4 4280 4281 4236 4235 
4 4281 4282 4237 4236 
4 4282 4283 4238 4237 
4 4283 4284 4239 4238 
4 4284 4285 4240 4239 
4 4285 4286 4241 4240 
4 4287 4288 4244 4243 
4 4288 4289 4245 4244 
4 4289 4290 4246 4245 
4 4290 4291 4247 4246 
4 4291 4292 4248 4247 
4 4292 4293 4249 4248 
4 4293 4294 4250 4249 
4 4294 4295 4251 4250 
4 4295 4296 4252 4251 
4 4296 4297 4253 4252 
4 4297 4298 4254 4253 
4 4298 4299 4255 4254 
4 4299 4300 4256 4255 
4 4300 4301 4257 4256 
4 4301 4302 4258 4257 
4 4302 4303 4259 4258 
4 4303 4304 4260 4259 
4 4304 4305 4261 4260 
4 4305 4306 4307 4261 
4 4309 4310 4263 4308 
4 4310 4311 4264 4263 
4 4311 4312 4266 4264 
4 4312 4313 4267 4266 
4 4313 4314 4268 4267 
4 4314 4315 4269 4268 
4 4315 4316 4270 4269 
4 4316 4317 4271 4270 
4 4317 4318 4272 4271 
4 4318 4319 4273 4272 
4 4319 4320 4274 4273 
4 4320 4321 4275 4274 
4 4321 4322 4276 4275 
4 4322 4323 4277 4276 
4 4323 4324 4278 4277 
4 4324 4325 4279 4278 
4 4325 4326 4280 4279 
4 4326 4327 4281 4280 
4 4327 4328 4282 4281 
4 4328 4329 4283 4282 
4 4329 4330 4284 4283 
4 4330 4331 4285 4284 
4 4331 4332 4286 4285 
4 4333 4334 4289 4288 
4 4334 4335 4290 4289 
4 4335 4336 4291 4290 
4 4336 4337 4292 4291 
4 4337 4338 4293 4292 
4 4338 4339 4294 4293 
4 4339 4340 4295 4294 
4 4340 4341 4296 4295 
4 4341 4342 4297 4296 
4 4342 4343 4298 4297 
4 4343 4344 4299 4298 
4 4344 4345 4300 4299 
4 4345 4346 4301 4300 
4 4346 4347 4302 4301 
4 4347 4348 4303 4302 
4 4348 4349 4304 4303 
4 4349 4350 4305 4304 
4 4350 4351 4306 4305 
4 4351 4352 4353 4306 
4 4352 4354 4355 4353 
4 4354 4356 4357 4355 
4 4356 4358 4359 4357 
4 4361 4362 4363 4360 
4 4362 4364 4309 4363 
4 4364 4365 4310 4309 
4 4365 4366 4311 4310 
4 4366 4367 4312 4311 
4 4367 4368 4313 4312 
4 4368 4369 4314 4313 
4 4369 4370 4315 4314 
4 4370 4371 4316 4315 
4 4371 4372 4317 4316 
4 4372 4373 4318 4317 
4 4373 4374 4319 4318 
4 4374 4375 4320 4319 
4 4375 4376 4321 4320 
4 4376 4377 4322 4321 
4 4377 4378 4323 4322 
4 4378 4379 4324 4323 
4 4379 4380 4325 4324 
4 4380 4381 4326 4325 
4 4381 4382 4327 4326 
4 4382 4383 4328 4327 
4 4383 4384 4329 4328 
4 4384 4385 4330 4329 
4 4385 4386 4331 4330 
4 4386 4387 4332 4331 
4 4388 4389 4335 4334 
4 4389 4390 4336 4335 
4 4390 4391 4337 4336 
4 4391 4392 4338 4337 
4 4392 4393 4339 4338 
4 4393 4394 4340 4339 
4 4394 4395 4341 4340 
4 4395 4396 4342 4341 
4 4396 4397 4343 4342 
4 4397 4398 4344 4343 
4 4398 4399 4345 4344 
4 4399 4400 4346 4345 
4 4400 4401 4347 4346 
4 4401 4402 4348 4347 
4 4402 4403 4349 4348 
4 4403 4404 4350 4349 
4 4404 4405 4351 4350 
4 4405 4406 4352 4351 
4 4406 4407 4354 4352 
4 4407 4408 4356 4354 
4 4408 4409 4358 4356 
4 4409 4410 4411 4358 
4 4410 4412 4413 4411 
4 4412 4414 4415 4413 
4 4414 4416 4417 4415 
4 4416 4418 4419 4417 
4 4418 4420 4421 4419 
4 4423 4424 4361 4422 
4 4424 4425 4362 4361 
4 4425 4426 4364 4362 
4 4426 4427 4365 4364 
4 4427 4428 4366 4365 
4 4428 4429 4367 4366 
4 4429 4430 4368 4367 
4 4430 4431 4369 4368 
4 4431 4432 4370 4369 
4 4432 4433 4371 4370 
4 4433 4434 4372 4371 
4 4434 4435 4373 4372 
4 4435 4436 4374 4373 
4 4436 4437 4375 4374 
4 4437 4438 4376 4375 
4 4438 4439 4377 4376 
4 4439 4440 4378 4377 
4 4440 4441 4379 4378 
4 4441 4442 4380 4379 
4 4442 4443 4381 4380 
4 4443 4444 4382 4381 
4 4444 4445 4383 4382 
4 4445 4446 4384 4383 
4 4446 4447 4385 4384 
4 4447 4448 4386 4385 
4 4448 4449 4387 4386 
4 4450 4451 4389 4388 
4 4451 4452 4390 4389 
4 4452 4453 4391 4390 
4 4453 4454 4392 4391 
4 4454 4455 4393 4392 
4 4455 4456 4394 4393 
4 4456 4457 4395 4394 
4 4457 4458 4396 4395 
4 4458 4459 4397 4396 
4 4459 4460 4398 4397 
4 4460 4461 4399 4398 
4 4461 4462 4400 4399 
4 4462 4463 4401 4400 
4 4463 4464 4402 4401 
4 4464 4465 4403 4402 
4 4465 4466 4404 4403 
4 4466 4467 4405 4404 
4 4467 4468 4406 4405 
4 4468 4469 4407 4406 
4 4469 4470 4408 4407 
4 4470 4471 4409 4408 
4 4471 4472 4410 4409 
4 4472 4473 4412 4410 
4 4473 4474 4414 4412 
4 4474 4475 4416 4414 
4 4475 4476 4418 4416 
4 4476 4477 4420 4418 
4 4477 4478 4479 4420 
4 4481 4482 4483 4480 
4 4482 4484 4423 4483 
4 4484 4485 4424 4423 
4 4485 4486 4425 4424 
4 4486 4487 4426 4425 
4 4487 4488 4427 4426 
4 4488 4489 4428 4427 
4 4489 4490 4429 4428 
4 4490 4491 4430 4429 
4 4491 4492 4431 4430 
4 4492 4493 4432 4431 
4 4493 4494 4433 4432 
4 4494 4495 4434 4433 
4 4495 4496 4435 4434 
4 4496 4497 4436 4435 
4 4497 4498 4437 4436 
4 4498 4499 4438 4437 
4 4499 4500 4439 4438 
4 4500 4501 4440 4439 
4 4501 4502 4441 4440 
4 4502 4503 4442 4441 
4 4503 4504 4443 4442 
4 4504 4505 4444 4443 
4 4505 4506 4445 4444 
4 4506 4507 4446 4445 
4 4507 4508 4447 4446 
4 4508 4509 4448 4447 
4 4510 4511 4452 4451 
4 4511 4512 4453 4452 
4 4512 4513 4454 4453 
4 4513 4514 4455 4454 
4 4514 4515 4456 4455 
4 4515 4516 4457 4456 
4 4516 4517 4458 4457 
4 4517 4518 4459 4458 
4 4518 4519 4460 4459 
4 4519 4520 4461 4460 
4 4520 4521 4462 4461 
4 4521 4522 4463 4462 
4 4522 4523 4464 4463 
4 4523 4524 4465 4464 
4 4524 4525 4466 4465 
4 4525 4526 4467 4466 
4 4526 4527 4468 4467 
4 4527 4528 4469 4468 
4 4528 4529 4470 4469 
4 4529 4530 4471 4470 
4 4530 4531 4472 4471 
4 4531 4532 4473 4472 
4 4532 4533 4474 4473 
4 4533 4534 4475 4474 
4 4534 4535 4476 4475 
4 4535 4536 4477 4476 
4 4536 4537 4478 4477 
4 4537 4538 4539 4478 
4 4538 4540 4541 4539 
4 4540 4542 4543 4541 
4 4542 4544 4545 4543 
4 4544 4546 4547 4545 
4 4546 4548 4549 4547 
4 4548 4550 4551 4549 
4 4550 4552 4481 4551 
4 4552 4553 4482 4481 
4 4553 4554 4484 4482 
4 4554 4555 4485 4484 
4 4555 4556 4486 4485 
4 4556 4557 4487 4486 
4 4557 4558 4488 4487 
4 4558 4559 4489 4488 
4 4559 4560 4490 4489 
4 4560 4561 4491 4490 
4 4561 4562 4492 4491 
4 4562 4563 4493 4492 
4 4563 4564 4494 4493 
4 4564 4565 4495 4494 
4 4565 4566 4496 4495 
4 4566 4567 4497 4496 
4 4567 4568 4498 4497 
4 4568 4569 4499 4498 
4 4569 4570 4500 4499 
4 4570 4571 4501 4500 
4 4571 4572 4502 4501 
4 4572 4573 4503 4502 
4 4573 4574 4504 4503 
4 4574 4575 4505 4504 
4 4575 4576 4506 4505 
4 4576 4577 4507 4506 
4 4577 4578 4508 4507 
4 4578 4579 4509 4508 
4 4580 4581 4512 4511 
4 4581 4582 4513 4512 
4 4582 4583 4514 4513 
4 4583 4584 4515 4514 
4 4584 4585 4516 4515 
4 4585 4586 4517 4516 
4 4586 4587 4518 4517 
4 4587 4588 4519 4518 
4 4588 4589 4520 4519 
4 4589 4590 4521 4520 
4 4590 4591 4522 4521 
4 4591 4592 4523 4522 
4 4592 4593 4524 4523 
4 4593 4594 4525 4524 
4 4594 4595 4526 4525 
4 4595 4596 4527 4526 
4 4596 4597 4528 4527 
4 4597 4598 4529 4528 
4 4598 4599 4530 4529 
4 4599 4600 4531 4530 
4 4600 4601 4532 4531 
4 4601 4602 4533 4532 
4 4602 4603 4534 4533 
4 4603 4604 4535 4534 
4 4604 4605 4536 4535 
4 4605 4606 4537 4536 
4 4606 4607 4538 4537 
4 4607 4608 4540 4538 
4 4608 4609 4542 4540 
4 4609 4610 4544 4542 
4 4610 4611 4546 4544 
4 4611 4612 4548 4546 
4 4612 4613 4550 4548 
4 4613 4614 4552 4550 
4 4614 4615 4553 4552 
4 4615 4616 4554 4553 
4 4616 4617 4555 4554 
4 4617 4618 4556 4555 
4 4618 4619 4557 4556 
4 4619 4620 4558 4557 
4 4620 4621 4559 4558 
4 4621 4622 4560 4559 
4 4622 4623 4561 4560 
4 4623 4624 4562 4561 
4 4624 4625 4563 4562 
4 4625 4626 4564 4563 
4 4626 4627 4565 4564 
4 4627 4628 4566 4565 
4 4628 4629 4567 4566 
4 4629 4630 4568 4567 
4 4630 4631 4569 4568 
4 4631 4632 4570 4569 
4 4632 4633 4571 4570 
4 4633 4634 4572 4571 
4 4634 4635 4573 4572 
4 4635 4636 4574 4573 
4 4636 4637 4575 4574 
4 4637 4638 4576 4575 
4 4638 4639 4577 4576 
4 4639 4640 4578 4577 
4 4640 4641 4579 4578 
4 4642 4643 4582 4581 
4 4643 4644 4583 4582 
4 4644 4645 4584 4583 
4 4645 4646 4585 4584 
4 4646 4647 4586 4585 
4 4647 4648 4587 4586 
4 4648 4649 4588 4587 
4 4649 4650 4589 4588 
4 4650 4651 4590 4589 
4 4651 4652 4591 4590 
4 4652 4653 4592 4591 
4 4653 4654 4593 4592 
4 4654 4655 4594 4593 
4 4655 4656 4595 4594 
4 4656 4657 4596 4595 
4 4657 4658 4597 4596 
4 4658 4659 4598 4597 
4 4659 4660 4599 4598 
4 4660 4661 4600 4599 
4 4661 4662 4601 4600 
4 4662 4663 4602 4601 
4 4663 4664 4603 4602 
4 4664 4665 4604 4603 
4 4665 4666 4605 4604 
4 4666 4667 4606 4605 
4 4667 4668 4607 4606 
4 4668 4669 4608 4607 
4 4669 4670 4609 4608 
4 4670 4671 4610 4609 
4 4671 4672 4611 4610 
4 4672 4673 4612 4611 
4 4673 4674 4613 4612 
4 4674 4675 4614 4613 
4 4675 4676 4615 4614 
4 4676 4677 4616 4615 
4 4677 4678 4617 4616 
4 4678 4679 4618 4617 
4 4679 4680 4619 4618 
4 4680 4681 4620 4619 
4 4681 4682 4621 4620 
4 4682 4683 4622 4621 
4 4683 4684 4623 4622 
4 4684 4685 4624 4623 
4 4685 4686 4625 4624 
4 4686 4687 4626 4625 
4 4687 4688 4627 4626 
4 4688 4689 4628 4627 
4 4689 4690 4629 4628 
4 4690 4691 4630 4629 
4 4691 4692 4631 4630 
4 4692 4693 4632 4631 
4 4693 4694 4633 4632 
4 4694 4695 4634 4633 
4 4695 4696 4635 4634 
4 4696 4697 4636 4635 
4 4697 4698 4637 4636 
4 4698 4699 4638 4637 
4 4699 4700 4639 4638 
4 4700 4701 4640 4639 
4 4702 4703 4644 4643 
4 4703 4704 4645 4644 
4 4704 4705 4646 4645 
4 4705 4706 4647 4646 
4 4706 4707 4648 4647 
4 4707 4708 4649 4648 
4 4708 4709 4650 4649 
4 4709 4710 4651 4650 
4 4710 4711 4652 4651 
4 4711 4712 4653 4652 
4 4712 4713 4654 4653 
4 4713 4714 4655 4654 
4 4714 4715 4656 4655 
4 4715 4716 4657 4656 
4 4716 4717 4658 4657 
4 4717 4718 4659 4658 
4 4718 4719 4660 4659 
4 4719 4720 4661 4660 
4 4720 4721 4662 4661 
4 4721 4722 4663 4662 
4 4722 4723 4664 4663 
4 4723 4724 4665 4664 
4 4724 4725 4666 4665 
4 4725 4726 4667 4666 
4 4726 4727 4668 4667 
4 4727 4728 4669 4668 
4 4728 4729 4670 4669 
4 4729 4730 4671 4670 
4 4730 4731 4672 4671 
4 4731 4732 4673 4672 
4 4732 4733 4674 4673 
4 4733 4734 4675 4674 
4 4734 4735 4676 4675 
4 4735 4736 4677 4676 
4 4736 4737 4678 4677 
4 4737 4738 4679 4678 
4 4738 4739 4680 4679 
4 4739 4740 4681 4680 
4 4740 4741 4682 4681 
4 4741 4742 4683 4682 
4 4742 4743 4684 4683 
4 4743 4744 4685 4684 
4 4744 4745 4686 4685 
4 4745 4746 4687 4686 
4 4746 4747 4688 4687 
4 4747 4748 4689 4688 
4 4748 4749 4690 4689 
4 4749 4750 4691 4690 
4 4750 4751 4692 4691 
4 4751 4752 4693 4692 
4 4752 4753 4694 4693 
4 4753 4754 4695 4694 
4 4754 4755 4696 4695 
4 4755 4756 4697 4696 
4 4756 4757 4698 4697 
4 4757 4758 4699 4698 
4 4758 4759 4700 4699 
4 4759 4760 4701 4700 
4 4761 4762 4704 4703 
4 4762 4763 4705 4704 
4 4763 4764 4706 4705 
4 4764 4765 4707 4706 
4 4765 4766 4708 4707 
4 4766 4767 4709 4708 
4 4767 4768 4710 4709 
4 4768 4769 4711 4710 
4 4769 4770 4712 4711 
4 4770 4771 4713 4712 
4 4771 4772 4714 4713 
4 4772 4773 4715 4714 
4 4773 4774 4716 4715 
4 4774 4775 4717 4716 
4 4775 4776 4718 4717 
4 4776 4777 4719 4718 
4 4777 4778 4720 4719 
4 4778 4779 4721 4720 
4 4779 4780 4722 4721 
4 4780 4781 4723 4722 
4 4781 4782 4724 4723 
4 4782 4783 4725 4724 
4 4783 4784 4726 4725 
4 4784 4785 4727 4726 
4 4785 4786 4728 4727 
4 4786 4787 4729 4728 
4 4787 4788 4730 4729 
4 4788 4789 4731 4730 
4 4789 4790 4732 4731 
4 4790 4791 4733 4732 
4 4791 4792 4734 4733 
4 4792 4793 4735 4734 
4 4793 4794 4736 4735 
4 4794 4795 4737 4736 
4 4795 4796 4738 4737 
4 4796 4797 4739 4738 
4 4797 4798 4740 4739 
4 4798 4799 4741 4740 
4 4799 4800 4742 4741 
4 4800 4801 4743 4742 
4 4801 4802 4744 4743 
4 4802 4803 4745 4744 
4 4803 4804 4746 4745 
4 4804 4805 4747 4746 
4 4805 4806 4748 4747 
4 4806 4807 4749 4748 
4 4807 4808 4750 4749 
4 4808 4809 4751 4750 
4 4809 4810 4752 4751 
4 4810 4811 4753 4752 
4 4811 4812 4754 4753 
4 4812 4813 4755 4754 
4 4813 4814 4756 4755 
4 4814 4815 4757 4756 
4 4815 4816 4758 4757 
4 4816 4817 4759 4758 
4 4817 4818 4760 4759 
4 4819 4820 4762 4761 
4 4820 4821 4763 4762 
4 4821 4822 4764 4763 
4 4822 4823 4765 4764 
4 4823 4824 4766 4765 
4 4824 4825 4767 4766 
4 4825 4826 4768 4767 
4 4826 4827 4769 4768 
4 4827 4828 4770 4769 
4 4828 4829 4771 4770 
4 4829 4830 4772 4771 
4 4830 4831 4773 4772 
4 4831 4832 4774 4773 
4 4832 4833 4775 4774 
4 4833 4834 4776 4775 
4 4834 4835 4777 4776 
4 4835 4836 4778 4777 
4 4836 4837 4779 4778 
4 4837 4838 4780 4779 
4 4838 4839 4781 4780 
4 4839 4840 4782 4781 
4 4840 4841 4783 4782 
4 4841 4842 4784 4783 
4 4842 4843 4785 4784 
4 4843 4844 4786 4785 
4 4844 4845 4787 4786 
4 4845 4846 4788 4787 
4 4846 4847 4789 4788 
4 4847 4848 4790 4789 
4 4848 4849 4791 4790 
4 4849 4850 4792 4791 
4 4850 4851 4793 4792 
4 4851 4852 4794 4793 
4 4852 4853 4795 4794 
4 4853 4854 4796 4795 
4 4854 4855 4797 4796 
4 4855 4856 4798 4797 
4 4856 4857 4799 4798 
4 4857 4858 4800 4799 
4 4858 4859 4801 4800 
4 4859 4860 4802 4801 
4 4860 4861 4803 4802 
4 4861 4862 4804 4803 
4 4862 4863 4805 4804 
4 4864 4865 4809 4808 
4 4865 4866 4810 4809 
4 4866 4867 4811 4810 
4 4867 4868 4812 4811 
4 4868 4869 4813 4812 
4 4869 4870 4814 4813 
4 4870 4871 4815 4814 
4 4871 4872 4816 4815 
4 4872 4873 4817 4816 
4 4873 4874 4818 4817 
4 4875 4876 4820 4819 
4 4876 4877 4821 4820 
4 4877 4878 4822 4821 
4 4878 4879 4823 4822 
4 4879 4880 4824 4823 
4 4880 4881 4825 4824 
4 4881 4882 4826 4825 
4 4882 4883 4827 4826 
4 4883 4884 4828 4827 
4 4884 4885 4829 4828 
4 4885 4886 4830 4829 
4 4886 4887 4831 4830 
4 4887 4888 4832 4831 
4 4888 4889 4833 4832 
4 4889 4890 4834 4833 
4 4890 4891 4835 4834 
4 4891 4892 4836 4835 
4 4892 4893 4837 4836 
4 4893 4894 4838 4837 
4 4894 4895 4839 4838 
4 4895 4896 4840 4839 
4 4896 4897 4841 4840 
4 4897 4898 4842 4841 
4 4898 4899 4843 4842 
4 4899 4900 4844 4843 
4 4900 4901 4845 4844 
4 4901 4902 4846 4845 
4 4902 4903 4847 4846 
4 4903 4904 4848 4847 
4 4904 4905 4849 4848 
4 4905 4906 4850 4849 
4 4906 4907 4851 4850 
4 4907 4908 4852 4851 
4 4908 4909 4853 4852 
4 4909 4910 4854 4853 
4 4910 4911 4855 4854 
4 4911 4912 4856 4855 
4 4912 4913 4857 4856 
4 4913 4914 4858 4857 
4 4914 4915 4859 4858 
4 4915 4916 4860 4859 
4 4916 4917 4861 4860 
4 4917 4918 4862 4861 
4 4918 4919 4863 4862 
4 4920 4921 4865 4864 
4 4921 4922 4866 4865 
4 4922 4923 4867 4866 
4 4923 4924 4868 4867 
4 4924 4925 4869 4868 
4 4925 4926 4870 4869 
4 4926 4927 4871 4870 
4 4927 4928 4872 4871 
4 4928 4929 4873 4872 
4 4929 4930 4874 4873 
4 4932 4933 4875 4931 
4 4933 4934 4876 4875 
4 4934 4935 4877 4876 
4 4935 4936 4878 4877 
4 4936 4937 4879 4878 
4 4937 4938 4880 4879 
4 4938 4939 4881 4880 
4 4939 4940 4882 4881 
4 4940 4941 4883 4882 
4 4941 4942 4884 4883 
4 4942 4943 4885 4884 
4 4943 4944 4886 4885 
4 4944 4945 4887 4886 
4 4945 4946 4888 4887 
4 4946 4947 4889 4888 
4 4947 4948 4890 4889 
4 4948 4949 4891 4890 
4 4949 4950 4892 4891 
4 4950 4951 4893 4892 
4 4951 4952 4894 4893 
4 4952 4953 4895 4894 
4 4953 4954 4896 4895 
4 4954 4955 4897 4896 
4 4955 4956 4898 4897 
4 4956 4957 4899 4898 
4 4957 4958 4900 4899 
4 4958 4959 4901 4900 
4 4959 4960 4902 4901 
4 4960 4961 4903 4902 
4 4961 4962 4904 4903 
4 4962 4963 4905 4904 
4 4963 4964 4906 4905 
4 4964 4965 4907 4906 
4 4965 4966 4908 4907 
4 4966 4967 4909 4908 
4 4967 4968 4910 4909 
4 4968 4969 4911 4910 
4 4969 4970 4912 4911 
4 4970 4971 4913 4912 
4 4971 4972 4914 4913 
4 4972 4973 4915 4914 
4 4973 4974 4916 4915 
4 4974 4975 4917 4916 
4 4975 4976 4918 4917 
4 4977 4978 4921 4920 
4 4978 4979 4922 4921 
4 4979 4980 4923 4922 
4 4980 4981 4924 4923 
4 4981 4982 4925 4924 
4 4982 4983 4926 4925 
4 4983 4984 4927 4926 
4 4984 4985 4928 4927 
4 4985 4986 4929 4928 
4 4986 4987 4930 4929 
4 4988 4989 4933 4932 
4 4989 4990 4934 4933 
4 4990 4991 4935 4934 
4 4991 4992 4936 4935 
4 4992 4993 4937 4936 
4 4993 4994 4938 4937 
4 4994 4995 4939 4938 
4 4995 4996 4940 4939 
4 4996 4997 4941 4940 
4 4997 4998 4942 4941 
4 4998 4999 4943 4942 
4 4999 5000 4944 4943 
4 5000 5001 4945 4944 
4 5001 5002 4946 4945 
4 5002 5003 4947 4946 
4 5003 5004 4948 4947 
4 5004 5005 4949 4948 
4 5005 5006 4950 4949 
4 5006 5007 4951 4950 
4 5007 5008 4952 4951 
4 5008 5009 4953 4952 
4 5009 5010 4954 4953 
4 5010 5011 4955 4954 
4 5011 5012 4956 4955 
4 5012 5013 4957 4956 
4 5013 5014 4958 4957 
4 5014 5015 4959 4958 
4 5015 5016 4960 4959 
4 5016 5017 4961 4960 
4 5017 5018 4962 4961 
4 5018 5019 4963 4962 
4 5019 5020 4964 4963 
4 5020 5021 4965 4964 
4 5021 5022 4966 4965 
4 5022 5023 4967 4966 
4 5023 5024 4968 4967 
4 5024 5025 4969 4968 
4 5025 5026 4970 4969 
4 5026 5027 4971 4970 
4 5027 5028 4972 4971 
4 5028 5029 4973 4972 
4 5029 5030 4974 4973 
4 5030 5031 4975 4974 
4 5032 5033 4978 4977 
4 5033 5034 4979 4978 
4 5034 5035 4980 4979 
4 5035 5036 4981 4980 
4 5036 5037 4982 4981 
4 5037 5038 4983 4982 
4 5038 5039 4984 4983 
4 5039 5040 4985 4984 
4 5040 5041 4986 4985 
4 5041 5042 4987 4986 
4 5043 5044 4989 4988 
4 5044 5045 4990 4989 
4 5045 5046 4991 4990 
4 5046 5047 4992 4991 
4 5047 5048 4993 4992 
4 5048 5049 4994 4993 
4 5049 5050 4995 4994 
4 5050 5051 4996 4995 
4 5051 5052 4997 4996 
4 5052 5053 4998 4997 
4 5053 5054 4999 4998 
4 5054 5055 5000 4999 
4 5055 5056 5001 5000 
4 5056 5057 5002 5001 
4 5057 5058 5003 5002 
4 5058 5059 5004 5003 
4 5059 5060 5005 5004 
4 5060 5061 5006 5005 
4 5061 5062 5007 5006 
4 5062 5063 5008 5007 
4 5063 5064 5009 5008 
4 5064 5065 5010 5009 
4 5065 5066 5011 5010 
4 5066 5067 5012 5011 
4 5067 5068 5013 5012 
4 5068 5069 5014 5013 
4 5069 5070 5015 5014 
4 5070 5071 5016 5015 
4 5071 5072 5017 5016 
4 5072 5073 5018 5017 
4 5073 5074 5019 5018 
4 5074 5075 5020 5019 
4 5075 5076 5021 5020 
4 5076 5077 5022 5021 
4 5077 5078 5023 5022 
4 5078 5079 5024 5023 
4 5079 5080 5025 5024 
4 5080 5081 5026 5025 
4 5081 5082 5027 5026 
4 5082 5083 5028 5027 
4 5083 5084 5029 5028 
4 5084 5085 5030 5029 
4 5086 5087 5033 5032 
4 5087 5088 5034 5033 
4 5088 5089 5035 5034 
4 5089 5090 5036 5035 
4 5090 5091 5037 5036 
4 5091 5092 5038 5037 
4 5092 5093 5039 5038 
4 5093 5094 5040 5039 
4 5094 5095 5041 5040 
4 5095 5096 5042 5041 
4 5097 5098 5044 5043 
4 5098 5099 5045 5044 
4 5099 5100 5046 5045 
4 5100 5101 5047 5046 
4 5101 5102 5048 5047 
4 5102 5103 5049 5048 
4 5103 5104 5050 5049 
4 5104 5105 5051 5050 
4 5105 5106 5052 5051 
4 5106 5107 5053 5052 
4 5107 5108 5054 5053 
4 5108 5109 5055 5054 
4 5109 5110 5056 5055 
4 5110 5111 5057 5056 
4 5111 5112 5058 5057 
4 5112 5113 5059 5058 
4 5113 5114 5060 5059 
4 5114 5115 5061 5060 
4 5115 5116 5062 5061 
4 5116 5117 5063 5062 
4 5117 5118 5064 5063 
4 5118 5119 5065 5064 
4 5119 5120 5066 5065 
4 5120 5121 5067 5066 
4 5121 5122 5068 5067 
4 5122 5123 5069 5068 
4 5123 5124 5070 5069 
4 5124 5125 5071 5070 
4 5125 5126 5072 5071 
4 5126 5127 5073 5072 
4 5127 5128 5074 5073 
4 5128 5129 5075 5074 
4 5129 5130 5076 5075 
4 5130 5131 5077 5076 
4 5131 5132 5078 5077 
4 5132 5133 5079 5078 
4 5133 5134 5080 5079 
4 5134 5135 5081 5080 
4 5135 5136 5082 5081 
4 5136 5137 5083 5082 
4 5138 5139 5087 5086 
4 5139 5140 5088 5087 
4 5140 5141 5089 5088 
4 5141 5142 5090 5089 
4 5142 5143 5091 5090 
4 5143 5144 5092 5091 
4 5144 5145 5093 5092 
4 5145 5146 5094 5093 
4 5146 5147 5095 5094 
4 5147 5148 5096 5095 
4 5149 5150 5098 5097 
4 5150 5151 5099 5098 
4 5151 5152 5100 5099 
4 5152 5153 5101 5100 
4 5153 5154 5102 5101 
4 5154 5155 5103 5102 
4 5155 5156 5104 5103 
4 5156 5157 5105 5104 
4 5157 5158 5106 5105 
4 5158 5159 5107 5106 
4 5159 5160 5108 5107 
4 5160 5161 5109 5108 
4 5161 5162 5110 5109 
4 5162 5163 5111 5110 
4 5163 5164 5112 5111 
4 5164 5165 5113 5112 
4 5165 5166 5114 5113 
4 5166 5167 5115 5114 
4 5167 5168 5116 5115 
4 5168 5169 5117 5116 
4 5169 5170 5118 5117 
4 5171 5172 5126 5125 
4 5172 5173 5127 5126 
4 5173 5174 5128 5127 
4 5174 5175 5129 5128 
4 5175 5176 5130 5129 
4 5176 5177 5131 5130 
4 5177 5178 5132 5131 
4 5178 5179 5133 5132 
4 5179 5180 5134 5133 
4 5180 5181 5135 5134 
4 5181 5182 5136 5135 
4 5184 5185 5138 5183 
4 5185 5186 5139 5138 
4 5186 5187 5140 5139 
4 5187 5188 5141 5140 
4 5188 5189 5142 5141 
4 5189 5190 5143 5142 
4 5190 5191 5144 5143 
4 5191 5192 5145 5144 
4 5192 5193 5146 5145 
4 5193 5194 5147 5146 
4 5194 5195 5148 5147 
4 5196 5197 5150 5149 
4 5197 5198 5151 5150 
4 5198 5199 5152 5151 
4 5199 5200 5153 5152 
4 5200 5201 5154 5153 
4 5201 5202 5155 5154 
4 5202 5203 5156 5155 
4 5203 5204 5157 5156 
4 5204 5205 5158 5157 
4 5205 5206 5159 5158 
4 5206 5207 5160 5159 
4 5207 5208 5161 5160 
4 5208 5209 5162 5161 
4 5209 5210 5163 5162 
4 5210 5211 5164 5163 
4 5211 5212 5165 5164 
4 5212 5213 5166 5165 
4 5213 5214 5167 5166 
4 5214 5215 5168 5167 
4 5215 5216 5169 5168 
4 5217 5218 5185 5184 
4 5218 5219 5186 5185 
4 5219 5220 5187 5186 
4 5220 5221 5188 5187 
4 5221 5222 5189 5188 
4 5222 5223 5190 5189 
4 5223 5224 5191 5190 
4 5224 5225 5192 5191 
4 5225 5226 5193 5192 
4 5226 5227 5194 5193 
4 5227 5228 5195 5194 
4 5229 5230 5197 5196 
4 5230 5231 5198 5197 
4 5231 5232 5199 5198 
4 5232 5233 5200 5199 
4 5233 5234 5201 5200 
4 5234 5235 5202 5201 
4 5235 5236 5203 5202 
4 5236 5237 5204 5203 
4 5237 5238 5205 5204 
4 5238 5239 5206 5205 
4 5239 5240 5207 5206 
4 5240 5241 5208 5207 
4 5241 5242 5209 5208 
4 5242 5243 5210 5209 
4 5243 5244 5211 5210 
4 5244 5245 5212 5211 
4 5245 5246 5213 5212 
4 5246 5247 5214 5213 
4 5248 5249 5218 5217 
4 5249 5250 5219 5218 
4 5250 5251 5220 5219 
4 5251 5252 5221 5220 
4 5252 5253 5222 5221 
4 5253 5254 5223 5222 
4 5254 5255 5224 5223 
4 5255 5256 5225 5224 
4 5256 5257 5226 5225 
4 5257 5258 5227 5226 
4 5258 5259 5228 5227 
4 5260 5261 5230 5229 
4 5261 5262 5231 5230 
4 5262 5263 5232 5231 
4 5263 5264 5233 5232 
4 5264 5265 5234 5233 
4 5265 5266 5235 5234 
4 5266 5267 5236 5235 
4 5267 5268 5237 5236 
4 5268 5269 5238 5237 
4 5269 5270 5239 5238 
4 5270 5271 5240 5239 
4 5271 5272 5241 5240 
4 5272 5273 5242 5241 
4 5273 5274 5243 5242 
4 5274 5275 5244 5243 
4 5275 5276 5245 5244 
4 5276 5277 5246 5245 
4 5278 5279 5249 5248 
4 5279 5280 5250 5249 
4 5280 5281 5251 5250 
4 5281 5282 5252 5251 
4 5282 5283 5253 5252 
4 5283 5284 5254 5253 
4 5284 5285 5255 5254 
4 5285 5286 5256 5255 
4 5286 5287 5257 5256 
4 5287 5288 5258 5257 
4 5288 5289 5259 5258 
4 5290 5291 5262 5261 
4 5291 5292 5263 5262 
4 5292 5293 5264 5263 
4 5293 5294 5265 5264 
4 5294 5295 5266 5265 
4 5295 5296 5267 5266 
4 5296 5297 5268 5267 
4 5297 5298 5269 5268 
4 5298 5299 5270 5269 
4 5299 5300 5271 5270 
4 5300 5301 5272 5271 
4 5301 5302 5273 5272 
4 5302 5303 5274 5273 
4 5303 5304 5275 5274 
4 5304 5305 5276 5275 
4 5307 5308 5278 5306 
4 5308 5309 5279 5278 
4 5309 5310 5280 5279 
4 5310 5311 5281 5280 
4 5311 5312 5282 5281 
4 5312 5313 5283 5282 
4 5313 5314 5284 5283 
4 5314 5315 5285 5284 
4 5315 5316 5286 5285 
4 5316 5317 5287 5286 
4 5317 5318 5288 5287 
4 5318 5319 5289 5288 
4 5320 5321 5291 5290 
4 5321 5322 5292 5291 
4 5322 5323 5293 5292 
4 5323 5324 5294 5293 
4 5324 5325 5295 5294 
4 5325 5326 5296 5295 
4 5326 5327 5297 5296 
4 5327 5328 5298 5297 
4 5328 5329 5299 5298 
4 5329 5330 5300 5299 
4 5330 5331 5301 5300 
4 5331 5332 5302 5301 
4 5332 5333 5303 5302 
4 5334 5335 5308 5307 
4 5335 5336 5309 5308 
4 5336 5337 5310 5309 
4 5337 5338 5311 5310 
4 5338 5339 5312 5311 
4 5339 5340 5313 5312 
4 5340 5341 5314 5313 
4 5341 5342 5315 5314 
4 5342 5343 5316 5315 
4 5343 5344 5317 5316 
4 5344 5345 5318 5317 
4 5346 5347 5321 5320 
4 5347 5348 5322 5321 
4 5348 5349 5323 5322 
4 5349 5350 5324 5323 
4 5350 5351 5325 5324 
4 5351 5352 5326 5325 
4 5352 5353 5327 5326 
4 5353 5354 5328 5327 
4 5354 5355 5329 5328 
4 5355 5356 5330 5329 
4 5356 5357 5331 5330 
4 5357 5358 5332 5331 
4 5359 5360 5335 5334 
4 5360 5361 5336 5335 
4 5361 5362 5337 5336 
4 5362 5363 5338 5337 
4 5363 5364 5339 5338 
4 5364 5365 5340 5339 
4 5365 5366 5341 5340 
4 5366 5367 5342 5341 
4 5367 5368 5343 5342 
4 5368 5369 5344 5343 
4 5369 5370 5345 5344 
4 5371 5372 5347 5346 
4 5372 5373 5348 5347 
4 5373 5374 5349 5348 
4 5374 5375 5350 5349 
4 5375 5376 5351 5350 
4 5376 5377 5352 5351 
4 5377 5378 5353 5352 
4 5378 5379 5354 5353 
4 5379 5380 5355 5354 
4 5380 5381 5356 5355 
4 5381 5382 5357 5356 
4 5383 5384 5360 5359 
4 5384 5385 5361 5360 
4 5385 5386 5362 5361 
4 5386 5387 5363 5362 
4 5387 5388 5364 5363 
4 5388 5389 5365 5364 
4 5389 5390 5366 5365 
4 5390 5391 5367 5366 
4 5391 5392 5368 5367 
4 5392 5393 5369 5368 
4 5393 5394 5370 5369 
4 5395 5396 5372 5371 
4 5396 5397 5373 5372 
4 5397 5398 5374 5373 
4 5398 5399 5375 5374 
4 5399 5400 5376 5375 
4 5400 5401 5377 5376 
4 5401 5402 5378 5377 
4 5402 5403 5379 5378 
4 5403 5404 5380 5379 
4 5404 5405 5381 5380 
4 5406 5407 5384 5383 
4 5407 5408 5385 5384 
4 5408 5409 5386 5385 
4 5409 5410 5387 5386 
4 5410 5411 5388 5387 
4 5411 5412 5389 5388 
4 5412 5413 5390 5389 
4 5413 5414 5391 5390 
4 5414 5415 5392 5391 
4 5415 5416 5393 5392 
4 5416 5417 5394 5393 
4 5418 5419 5396 5395 
4 5419 5420 5397 5396 
4 5420 5421 5398 5397 
4 5421 5422 5399 5398 
4 5422 5423 5400 5399 
4 5423 5424 5401 5400 
4 5424 5425 5402 5401 
4 5425 5426 5403 5402 
4 5426 5427 5404 5403 
4 5427 5428 5405 5404 
4 5429 5430 5407 5406 
4 5430 5431 5408 5407 
4 5431 5432 5409 5408 
4 5432 5433 5410 5409 
4 5433 5434 5411 5410 
4 5434 5435 5412 5411 
4 5435 5436 5413 5412 
4 5436 5437 5414 5413 
4 5437 5438 5415 5414 
4 5438 5439 5416 5415 
4 5439 5440 5417 5416 
4 5442 5443 5418 5441 
4 5443 5444 5419 5418 
4 5444 5445 5420 5419 
4 5445 5446 5421 5420 
4 5446 5447 5422 5421 
4 5447 5448 5423 5422 
4 5448 5449 5424 5423 
4 5449 5450 5425 5424 
4 5450 5451 5426 5425 
4 5451 5452 5427 5426 
4 5452 5453 5428 5427 
4 5455 5456 5429 5454 
4 5456 5457 5430 5429 
4 5457 5458 5431 5430 
4 5458 5459 5432 5431 
4 5459 5460 5433 5432 
4 5460 5461 5434 5433 
4 5461 5462 5435 5434 
4 5462 5463 5436 5435 
4 5463 5464 5437 5436 
4 5464 5465 5438 5437 
4 5465 5466 5439 5438 
4 5466 5467 5440 5439 
4 5468 5469 5443 5442 
4 5469 5470 5444 5443 
4 5470 5471 5445 5444 
4 5471 5472 5446 5445 
4 5472 5473 5447 5446 
4 5473 5474 5448 5447 
4 5474 5475 5449 5448 
4 5475 5476 5450 5449 
4 5476 5477 5451 5450 
4 5477 5478 5452 5451 
4 5478 5479 5453 5452 
4 5480 5481 5456 5455 
4 5481 5482 5457 5456 
4 5482 5483 5458 5457 
4 5483 5484 5459 5458 
4 5484 5485 5460 5459 
4 5485 5486 5461 5460 
4 5486 5487 5462 5461 
4 5487 5488 5463 5462 
4 5488 5489 5464 5463 
4 5489 5490 5465 5464 
4 5490 5491 5466 5465 
4 5491 5492 5467 5466 
4 5493 5494 5469 5468 
4 5494 5495 5470 5469 
4 5495 5496 5471 5470 
4 5496 5497 5472 5471 
4 5497 5498 5473 5472 
4 5498 5499 5474 5473 
4 5499 5500 5475 5474 
4 5500 5501 5476 5475 
4 5501 5502 5477 5476 
4 5502 5503 5478 5477 
4 5503 5504 5479 5478 
4 5505 5506 5481 5480 
4 5506 5507 5482 5481 
4 5507 5508 5483 5482 
4 5508 5509 5484 5483 
4 5509 5510 5485 5484 
4 5510 5511 5486 5485 
4 5511 5512 5487 5486 
4 5512 5513 5488 5487 
4 5513 5514 5489 5488 
4 5514 5515 5490 5489 
4 5515 5516 5491 5490 
4 5516 5517 5492 5491 
4 5518 5519 5495 5494 
4 5519 5520 5496 5495 
4 5520 5521 5497 5496 
4 5521 5522 5498 5497 
4 5522 5523 5499 5498 
4 5523 5524 5500 5499 
4 5524 5525 5501 5500 
4 5525 5526 5502 5501 
4 5526 5527 5503 5502 
4 5528 5529 5506 5505 
4 5529 5530 5507 5506 
4 5530 5531 5508 5507 
4 5531 5532 5509 5508 
4 5532 5533 5510 5509 
4 5533 5534 5511 5510 
4 5534 5535 5512 5511 
4 5535 5536 5513 5512 
4 5536 5537 5514 5513 
4 5537 5538 5515 5514 
4 5538 5539 5516 5515 
4 5539 5540 5517 5516 
4 5541 5542 5519 5518 
4 5542 5543 5520 5519 
4 5543 5544 5521 5520 
4 5544 5545 5522 5521 
4 5545 5546 5523 5522 
4 5546 5547 5524 5523 
4 5547 5548 5525 5524 
4 5548 5549 5526 5525 
4 5549 5550 5527 5526 
4 5551 5552 5529 5528 
4 5552 5553 5530 5529 
4 5553 5554 5531 5530 
4 5554 5555 5532 5531 
4 5555 5556 5533 5532 
4 5556 5557 5534 5533 
4 5557 5558 5535 5534 
4 5558 5559 5536 5535 
4 5559 5560 5537 5536 
4 5560 5561 5538 5537 
4 5561 5562 5539 5538 
4 5562 5563 5540 5539 
4 5564 5565 5542 5541 
4 5565 5566 5543 5542 
4 5566 5567 5544 5543 
4 5567 5568 5545 5544 
4 5568 5569 5546 5545 
4 5569 5570 5547 5546 
4 5570 5571 5548 5547 
4 5571 5572 5549 5548 
4 5572 5573 5550 5549 
4 5574 5575 5552 5551 
4 5575 5576 5553 5552 
4 5576 5577 5554 5553 
4 5577 5578 5555 5554 
4 5578 5579 5556 5555 
4 5579 5580 5557 5556 
4 5580 5581 5558 5557 
4 5581 5582 5559 5558 
4 5582 5583 5560 5559 
4 5583 5584 5561 5560 
4 5584 5585 5562 5561 
4 5585 5586 5563 5562 
4 5587 5588 5565 5564 
4 5588 5589 5566 5565 
4 5589 5590 5567 5566 
4 5590 5591 5568 5567 
4 5591 5592 5569 5568 
4 5592 5593 5570 5569 
4 5593 5594 5571 5570 
4 5594 5595 5572 5571 
4 5595 5596 5573 5572 
4 5597 5598 5575 5574 
4 5598 5599 5576 5575 
4 5599 5600 5577 5576 
4 5600 5601 5578 5577 
4 5601 5602 5579 5578 
4 5602 5603 5580 5579 
4 5603 5604 5581 5580 
4 5604 5605 5582 5581 
4 5605 5606 5583 5582 
4 5606 5607 5584 5583 
4 5607 5608 5585 5584 
4 5608 5609 5586 5585 
4 5610 5611 5588 5587 
4 5611 5612 5589 5588 
4 5612 5613 5590 5589 
4 5613 5614 5591 5590 
4 5614 5615 5592 5591 
4 5615 5616 5593 5592 
4 5616 5617 5594 5593 
4 5617 5618 5595 5594 
4 5618 5619 5596 5595 
4 5621 5622 5597 5620 
4 5622 5623 5598 5597 
4 5623 5624 5599 5598 
4 5624 5625 5600 5599 
4 5625 5626 5601 5600 
4 5626 5627 5602 5601 
4 5627 5628 5603 5602 
4 5628 5629 5604 5603 
4 5629 5630 5605 5604 
4 5630 5631 5606 5605 
4 5631 5632 5607 5606 
4 5632 5633 5608 5607 
4 5633 5634 5609 5608 
4 5635 5636 5611 5610 
4 5636 5637 5612 5611 
4 5637 5638 5613 5612 
4 5638 5639 5614 5613 
4 5639 5640 5615 5614 
4 5640 5641 5616 5615 
4 5641 5642 5617 5616 
4 5642 5643 5618 5617 
4 5643 5644 5619 5618 
4 5645 5646 5622 5621 
4 5646 5647 5623 5622 
4 5647 5648 5624 5623 
4 5648 5649 5625 5624 
4 5649 5650 5626 5625 
4 5650 5651 5627 5626 
4 5651 5652 5628 5627 
4 5652 5653 5629 5628 
4 5653 5654 5630 5629 
4 5654 5655 5631 5630 
4 5655 5656 5632 5631 
4 5656 5657 5633 5632 
4 5657 5658 5634 5633 
4 5659 5660 5636 5635 
4 5660 5661 5637 5636 
4 5661 5662 5638 5637 
4 5662 5663 5639 5638 
4 5663 5664 5640 5639 
4 5664 5665 5641 5640 
4 5665 5666 5642 5641 
4 5666 5667 5643 5642 
4 5667 5668 5644 5643 
4 5669 5670 5646 5645 
4 5670 5671 5647 5646 
4 5671 5672 5648 5647 
4 5672 5673 5649 5648 
4 5673 5674 5650 5649 
4 5674 5675 5651 5650 
4 5675 5676 5652 5651 
4 5676 5677 5653 5652 
4 5677 5678 5654 5653 
4 5678 5679 5655 5654 
4 5679 5680 5656 5655 
4 5680 5681 5657 5656 
4 5681 5682 5658 5657 
4 5683 5684 5660 5659 
4 5684 5685 5661 5660 
4 5685 5686 5662 5661 
4 5686 5687 5663 5662 
4 5687 5688 5664 5663 
4 5688 5689 5665 5664 
4 5689 5690 5666 5665 
4 5690 5691 5667 5666 
4 5691 5692 5668 5667 
4 5693 5694 5670 5669 
4 5694 5695 5671 5670 
4 5695 5696 5672 5671 
4 5696 5697 5673 5672 
4 5697 5698 5674 5673 
4 5698 5699 5675 5674 
4 5699 5700 5676 5675 
4 5700 5701 5677 5676 
4 5701 5702 5678 5677 
4 5702 5703 5679 5678 
4 5703 5704 5680 5679 
4 5704 5705 5681 5680 
4 5705 5706 5682 5681 
4 5707 5708 5684 5683 
4 5708 5709 5685 5684 
4 5709 5710 5686 5685 
4 5710 5711 5687 5686 
4 5711 5712 5688 5687 
4 5712 5713 5689 5688 
4 5713 5714 5690 5689 
4 5714 5715 5691 5690 
4 5715 5716 5692 5691 
4 5716 5717 5718 5692 
4 5719 5720 5694 5693 
4 5720 5721 5695 5694 
4 5721 5722 5696 5695 
4 5722 5723 5697 5696 
4 5723 5724 5698 5697 
4 5724 5725 5699 5698 
4 5725 5726 5700 5699 
4 5726 5727 5701 5700 
4 5727 5728 5702 5701 
4 5728 5729 5703 5702 
4 5729 5730 5704 5703 
4 5730 5731 5705 5704 
4 5731 5732 5706 5705 
4 5733 5734 5708 5707 
4 5734 5735 5709 5708 
4 5735 5736 5710 5709 
4 5736 5737 5711 5710 
4 5737 5738 5712 5711 
4 5738 5739 5713 5712 
4 5739 5740 5714 5713 
4 5740 5741 5715 5714 
4 5741 5742 5716 5715 
4 5742 5743 5717 5716 
4 5744 5745 5720 5719 
4 5745 5746 5721 5720 
4 5746 5747 5722 5721 
4 5747 5748 5723 5722 
4 5748 5749 5724 5723 
4 5749 5750 5725 5724 
4 5750 5751 5726 5725 
4 5751 5752 5727 5726 
4 5752 5753 5728 5727 
4 5753 5754 5729 5728 
4 5754 5755 5730 5729 
4 5755 5756 5731 5730 
4 5756 5757 5732 5731 
4 5758 5759 5734 5733 
4 5759 5760 5735 5734 
4 5760 5761 5736 5735 
4 5761 5762 5737 5736 
4 5762 5763 5738 5737 
4 5763 5764 5739 5738 
4 5764 5765 5740 5739 
4 5765 5766 5741 5740 
4 5766 5767 5742 5741 
4 5767 5768 5743 5742 
4 5770 5771 5744 5769 
4 5771 5772 5745 5744 
4 5772 5773 5746 5745 
4 5773 5774 5747 5746 
4 5774 5775 5748 5747 
4 5775 5776 5749 5748 
4 5776 5777 5750 5749 
4 5777 5778 5751 5750 
4 5778 5779 5752 5751 
4 5779 5780 5753 5752 
4 5780 5781 5754 5753 
4 5781 5782 5755 5754 
4 5782 5783 5756 5755 
4 5783 5784 5757 5756 
4 5785 5786 5759 5758 
4 5786 5787 5760 5759 
4 5787 5788 5761 5760 
4 5788 5789 5762 5761 
4 5789 5790 5763 5762 
4 5790 5791 5764 5763 
4 5791 5792 5765 5764 
4 5792 5793 5766 5765 
4 5793 5794 5767 5766 
4 5794 5795 5768 5767 
4 5796 5797 5771 5770 
4 5797 5798 5772 5771 
4 5798 5799 5773 5772 
4 5799 5800 5774 5773 
4 5800 5801 5775 5774 
4 5801 5802 5776 5775 
4 5802 5803 5777 5776 
4 5803 5804 5778 5777 
4 5804 5805 5779 5778 
4 5805 5806 5780 5779 
4 5806 5807 5781 5780 
4 5807 5808 5782 5781 
4 5808 5809 5783 5782 
4 5810 5811 5786 5785 
4 5811 5812 5787 5786 
4 5812 5813 5788 5787 
4 5813 5814 5789 5788 
4 5814 5815 5790 5789 
4 5815 5816 5791 5790 
4 5816 5817 5792 5791 
4 5817 5818 5793 5792 
4 5818 5819 5794 5793 
4 5819 5820 5795 5794 
4 5820 5821 5822 5795 
4 5823 5824 5797 5796 
4 5824 5825 5798 5797 
4 5825 5826 5799 5798 
4 5826 5827 5800 5799 
4 5827 5828 5801 5800 
4 5828 5829 5802 5801 
4 5829 5830 5803 5802 
4 5830 5831 5804 5803 
4 5831 5832 5805 5804 
4 5832 5833 5806 5805 
4 5833 5834 5807 5806 
4 5834 5835 5808 5807 
4 5835 5836 5809 5808 
4 5837 5838 5811 5810 
4 5838 5839 5812 5811 
4 5839 5840 5813 5812 
4 5840 5841 5814 5813 
4 5841 5842 5815 5814 
4 5842 5843 5816 5815 
4 5843 5844 5817 5816 
4 5844 5845 5818 5817 
4 5845 5846 5819 5818 
4 5846 5847 5820 5819 
4 5847 5848 5821 5820 
4 5849 5850 5824 5823 
4 5850 5851 5825 5824 
4 5851 5852 5826 5825 
4 5852 5853 5827 5826 
4 5853 5854 5828 5827 
4 5854 5855 5829 5828 
4 5855 5856 5830 5829 
4 5856 5857 5831 5830 
4 5857 5858 5832 5831 
4 5858 5859 5833 5832 
4 5859 5860 5834 5833 
4 5860 5861 5835 5834 
4 5861 5862 5836 5835 
4 5863 5864 5838 5837 
4 5864 5865 5839 5838 
4 5865 5866 5840 5839 
4 5866 5867 5841 5840 
4 5867 5868 5842 5841 
4 5868 5869 5843 5842 
4 5869 5870 5844 5843 
4 5870 5871 5845 5844 
4 5871 5872 5846 5845 
4 5872 5873 5847 5846 
4 5873 5874 5848 5847 
4 5874 5875 5876 5848 
4 5878 5879 5849 5877 
4 5879 5880 5850 5849 
4 5880 5881 5851 5850 
4 5881 5882 5852 5851 
4 5882 5883 5853 5852 
4 5883 5884 5854 5853 
4 5884 5885 5855 5854 
4 5885 5886 5856 5855 
4 5886 5887 5857 5856 
4 5887 5888 5858 5857 
4 5888 5889 5859 5858 
4 5889 5890 5860 5859 
4 5890 5891 5861 5860 
4 5891 5892 5862 5861 
4 5893 5894 5864 5863 
4 5894 5895 5865 5864 
4 5895 5896 5866 5865 
4 5896 5897 5867 5866 
4 5897 5898 5868 5867 
4 5898 5899 5869 5868 
4 5899 5900 5870 5869 
4 5900 5901 5871 5870 
4 5901 5902 5872 5871 
4 5902 5903 5873 5872 
4 5903 5904 5874 5873 
4 5904 5905 5875 5874 
4 5905 5906 5907 5875 
4 5908 5909 5879 5878 
4 5909 5910 5880 5879 
4 5910 5911 5881 5880 
4 5911 5912 5882 5881 
4 5912 5913 5883 5882 
4 5913 5914 5884 5883 
4 5914 5915 5885 5884 
4 5915 5916 5886 5885 
4 5916 5917 5887 5886 
4 5917 5918 5888 5887 
4 5918 5919 5889 5888 
4 5919 5920 5890 5889 
4 5920 5921 5891 5890 
4 5923 5924 5893 5922 
4 5924 5925 5894 5893 
4 5925 5926 5895 5894 
4 5926 5927 5896 5895 
4 5927 5928 5897 5896 
4 5928 5929 5898 5897 
4 5929 5930 5899 5898 
4 5930 5931 5900 5899 
4 5931 5932 5901 5900 
4 5932 5933 5902 5901 
4 5933 5934 5903 5902 
4 5934 5935 5904 5903 
4 5935 5936 5905 5904 
4 5936 5937 5906 5905 
4 5939 5940 5908 5938 
4 5940 5941 5909 5908 
4 5941 5942 5910 5909 
4 5942 5943 5911 5910 
4 5943 5944 5912 5911 
4 5944 5945 5913 5912 
4 5945 5946 5914 5913 
4 5946 5947 5915 5914 
4 5947 5948 5916 5915 
4 5948 5949 5917 5916 
4 5949 5950 5918 5917 
4 5950 5951 5919 5918 
4 5951 5952 5920 5919 
4 5952 5953 5921 5920 
4 5954 5955 5924 5923 
4 5955 5956 5925 5924 
4 5956 5957 5926 5925 
4 5957 5958 5927 5926 
4 5958 5959 5928 5927 
4 5959 5960 5929 5928 
4 5960 5961 5930 5929 
4 5961 5962 5931 5930 
4 5962 5963 5932 5931 
4 5963 5964 5933 5932 
4 5964 5965 5934 5933 
4 5965 5966 5935 5934 
4 5966 5967 5936 5935 
4 5967 5968 5937 5936 
4 5968 5969 5970 5937 
4 5972 5973 5939 5971 
4 5973 5974 5940 5939 
4 5974 5975 5941 5940 
4 5975 5976 5942 5941 
4 5976 5977 5943 5942 
4 5977 5978 5944 5943 
4 5978 5979 5945 5944 
4 5979 5980 5946 5945 
4 5980 5981 5947 5946 
4 5981 5982 5948 5947 
4 5982 5983 5949 5948 
4 5983 5984 5950 5949 
4 5984 5985 5951 5950 
4 5985 5986 5952 5951 
4 5986 5987 5953 5952 
4 5988 5989 5955 5954 
4 5989 5990 5956 5955 
4 5990 5991 5957 5956 
4 5991 5992 5958 5957 
4 5992 5993 5959 5958 
4 5993 5994 5960 5959 
4 5994 5995 5961 5960 
4 5995 5996 5962 5961 
4 5996 5997 5963 5962 
4 5997 5998 5964 5963 
4 5998 5999 5965 5964 
4 5999 6000 5966 5965 
4 6000 6001 5967 5966 
4 6001 6002 5968 5967 
4 6002 6003 5969 5968 
4 6003 6004 6005 5969 
4 6004 6006 6007 6005 
4 6009 6010 5972 6008 
4 6010 6011 5973 5972 
4 6011 6012 5974 5973 
4 6012 6013 5975 5974 
4 6013 6014 5976 5975 
4 6014 6015 5977 5976 
4 6015 6016 5978 5977 
4 6016 6017 5979 5978 
4 6017 6018 5980 5979 
4 6018 6019 5981 5980 
4 6019 6020 5982 5981 
4 6020 6021 5983 5982 
4 6021 6022 5984 5983 
4 6022 6023 5985 5984 
4 6023 6024 5986 5985 
4 6024 6025 5987 5986 
4 6026 6027 5989 5988 
4 6027 6028 5990 5989 
4 6028 6029 5991 5990 
4 6029 6030 5992 5991 
4 6030 6031 5993 5992 
4 6031 6032 5994 5993 
4 6032 6033 5995 5994 
4 6033 6034 5996 5995 
4 6034 6035 5997 5996 
4 6035 6036 5998 5997 
4 6036 6037 5999 5998 
4 6037 6038 6000 5999 
4 6038 6039 6001 6000 
4 6039 6040 6002 6001 
4 6040 6041 6003 6002 
4 6041 6042 6004 6003 
4 6042 6043 6006 6004 
4 6043 6044 6045 6006 
4 6044 6046 6047 6045 
4 6049 6050 6009 6048 
4 6050 6051 6010 6009 
4 6051 6052 6011 6010 
4 6052 6053 6012 6011 
4 6053 6054 6013 6012 
4 6054 6055 6014 6013 
4 6055 6056 6015 6014 
4 6056 6057 6016 6015 
4 6057 6058 6017 6016 
4 6058 6059 6018 6017 
4 6059 6060 6019 6018 
4 6060 6061 6020 6019 
4 6061 6062 6021 6020 
4 6062 6063 6022 6021 
4 6063 6064 6023 6022 
4 6064 6065 6024 6023 
4 6065 6066 6025 6024 
4 6067 6068 6027 6026 
4 6068 6069 6028 6027 
4 6069 6070 6029 6028 
4 6070 6071 6030 6029 
4 6071 6072 6031 6030 
4 6072 6073 6032 6031 
4 6073 6074 6033 6032 
4 6074 6075 6034 6033 
4 6075 6076 6035 6034 
4 6076 6077 6036 6035 
4 6077 6078 6037 6036 
4 6078 6079 6038 6037 
4 6079 6080 6039 6038 
4 6080 6081 6040 6039 
4 6081 6082 6041 6040 
4 6082 6083 6042 6041 
4 6083 6084 6043 6042 
4 6084 6085 6044 6043 
4 6085 6086 6046 6044 
4 6086 6087 6088 6046 
4 6087 6089 6090 6088 
4 6089 6091 6092 6090 
4 6091 6093 6094 6092 
4 6093 6095 6096 6094 
4 6098 6099 6100 6097 
4 6099 6101 6049 6100 
4 6101 6102 6050 6049 
4 6102 6103 6051 6050 
4 6103 6104 6052 6051 
4 6104 6105 6053 6052 
4 6105 6106 6054 6053 
4 6106 6107 6055 6054 
4 6107 6108 6056 6055 
4 6108 6109 6057 6056 
4 6109 6110 6058 6057 
4 6110 6111 6059 6058 
4 6111 6112 6060 6059 
4 6112 6113 6061 6060 
4 6113 6114 6062 6061 
4 6114 6115 6063 6062 
4 6115 6116 6064 6063 
4 6116 6117 6065 6064 
4 6117 6118 6066 6065 
4 6120 6121 6067 6119 
4 6121 6122 6068 6067 
4 6122 6123 6069 6068 
4 6123 6124 6070 6069 
4 6124 6125 6071 6070 
4 6125 6126 6072 6071 
4 6126 6127 6073 6072 
4 6127 6128 6074 6073 
4 6128 6129 6075 6074 
4 6129 6130 6076 6075 
4 6130 6131 6077 6076 
4 6131 6132 6078 6077 
4 6132 6133 6079 6078 
4 6133 6134 6080 6079 
4 6134 6135 6081 6080 
4 6135 6136 6082 6081 
4 6136 6137 6083 6082 
4 6137 6138 6084 6083 
4 6138 6139 6085 6084 
4 6139 6140 6086 6085 
4 6140 6141 6087 6086 
4 6141 6142 6089 6087 
4 6142 6143 6091 6089 
4 6143 6144 6093 6091 
4 6144 6145 6095 6093 
4 6145 6146 6147 6095 
4 6146 6148 6149 6147 
4 6148 6150 6151 6149 
4 6150 6152 6153 6151 
4 6152 6154 6155 6153 
4 6154 6156 6157 6155 
4 6156 6158 6159 6157 
4 6158 6160 6161 6159 
4 6160 6162 6163 6161 
4 6162 6164 6165 6163 
4 6164 6166 6167 6165 
4 6166 6168 6098 6167 
4 6168 6169 6099 6098 
4 6169 6170 6101 6099 
4 6170 6171 6102 6101 
4 6171 6172 6103 6102 
4 6172 6173 6104 6103 
4 6173 6174 6105 6104 
4 6174 6175 6106 6105 
4 6175 6176 6107 6106 
4 6176 6177 6108 6107 
4 6177 6178 6109 6108 
4 6178 6179 6110 6109 
4 6179 6180 6111 6110 
4 6180 6181 6112 6111 
4 6181 6182 6113 6112 
4 6182 6183 6114 6113 
4 6183 6184 6115 6114 
4 6184 6185 6116 6115 
4 6185 6186 6117 6116 
4 6186 6187 6118 6117 
4 6188 6189 6121 6120 
4 6189 6190 6122 6121 
4 6190 6191 6123 6122 
4 6191 6192 6124 6123 
4 6192 6193 6125 6124 
4 6193 6194 6126 6125 
4 6194 6195 6127 6126 
4 6195 6196 6128 6127 
4 6196 6197 6129 6128 
4 6197 6198 6130 6129 
4 6198 6199 6131 6130 
4 6199 6200 6132 6131 
4 6200 6201 6133 6132 
4 6201 6202 6134 6133 
4 6202 6203 6135 6134 
4 6203 6204 6136 6135 
4 6204 6205 6137 6136 
4 6205 6206 6138 6137 
4 6206 6207 6139 6138 
4 6207 6208 6140 6139 
4 6208 6209 6141 6140 
4 6209 6210 6142 6141 
4 6210 6211 6143 6142 
4 6211 6212 6144 6143 
4 6212 6213 6145 6144 
4 6213 6214 6146 6145 
4 6214 6215 6148 6146 
4 6215 6216 6150 6148 
4 6216 6217 6152 6150 
4 6217 6218 6154 6152 
4 6218 6219 6156 6154 
4 6219 6220 6158 6156 
4 6220 6221 6160 6158 
4 6221 6222 6162 6160 
4 6222 6223 6164 6162 
4 6223 6224 6166 6164 
4 6224 6225 6168 6166 
4 6225 6226 6169 6168 
4 6226 6227 6170 6169 
4 6227 6228 6171 6170 
4 6228 6229 6172 6171 
4 6229 6230 6173 6172 
4 6230 6231 6174 6173 
4 6231 6232 6175 6174 
4 6232 6233 6176 6175 
4 6233 6234 6177 6176 
4 6234 6235 6178 6177 
4 6235 6236 6179 6178 
4 6236 6237 6180 6179 
4 6237 6238 6181 6180 
4 6238 6239 6182 6181 
4 6239 6240 6183 6182 
4 6240 6241 6184 6183 
4 6241 6242 6185 6184 
4 6242 6243 6186 6185 
4 6243 6244 6187 6186 
4 6245 6246 6189 6188 
4 6246 6247 6190 6189 
4 6247 6248 6191 6190 
4 6248 6249 6192 6191 
4 6249 6250 6193 6192 
4 6250 6251 6194 6193 
4 6251 6252 6195 6194 
4 6252 6253 6196 6195 
4 6253 6254 6197 6196 
4 6254 6255 6198 6197 
4 6255 6256 6199 6198 
4 6256 6257 6200 6199 
4 6257 6258 6201 6200 
4 6258 6259 6202 6201 
4 6259 6260 6203 6202 
4 6260 6261 6204 6203 
4 6261 6262 6205 6204 
4 6262 6263 6206 6205 
4 6263 6264 6207 6206 
4 6264 6265 6208 6207 
4 6265 6266 6209 6208 
4 6266 6267 6210 6209 
4 6267 6268 6211 6210 
4 6268 6269 6212 6211 
4 6269 6270 6213 6212 
4 6270 6271 6214 6213 
4 6271 6272 6215 6214 
4 6272 6273 6216 6215 
4 6273 6274 6217 6216 
4 6274 6275 6218 6217 
4 6275 6276 6219 6218 
4 6276 6277 6220 6219 
4 6277 6278 6221 6220 
4 6278 6279 6222 6221 
4 6279 6280 6223 6222 
4 6280 6281 6224 6223 
4 6281 6282 6225 6224 
4 6282 6283 6226 6225 
4 6283 6284 6227 6226 
4 6284 6285 6228 6227 
4 6285 6286 6229 6228 
4 6286 6287 6230 6229 
4 6287 6288 6231 6230 
4 6288 6289 6232 6231 
4 6289 6290 6233 6232 
4 6290 6291 6234 6233 
4 6291 6292 6235 6234 
4 6292 6293 6236 6235 
4 6293 6294 6237 6236 
4 6294 6295 6238 6237 
4 6295 6296 6239 6238 
4 6296 6297 6240 6239 
4 6297 6298 6241 6240 
4 6298 6299 6242 6241 
4 6299 6300 6243 6242 
4 6300 6301 6244 6243 
4 6301 6302 6303 6244 
4 6304 6305 6246 6245 
4 6305 6306 6247 6246 
4 6306 6307 6248 6247 
4 6307 6308 6249 6248 
4 6308 6309 6250 6249 
4 6309 6310 6251 6250 
4 6310 6311 6252 6251 
4 6311 6312 6253 6252 
4 6312 6313 6254 6253 
4 6313 6314 6255 6254 
4 6314 6315 6256 6255 
4 6315 6316 6257 6256 
4 6316 6317 6258 6257 
4 6317 6318 6259 6258 
4 6318 6319 6260 6259 
4 6319 6320 6261 6260 
4 6320 6321 6262 6261 
4 6321 6322 6263 6262 
4 6322 6323 6264 6263 
4 6323 6324 6265 6264 
4 6324 6325 6266 6265 
4 6325 6326 6267 6266 
4 6326 6327 6268 6267 
4 6327 6328 6269 6268 
4 6328 6329 6270 6269 
4 6329 6330 6271 6270 
4 6330 6331 6272 6271 
4 6331 6332 6273 6272 
4 6332 6333 6274 6273 
4 6333 6334 6275 6274 
4 6334 6335 6276 6275 
4 6335 6336 6277 6276 
4 6336 6337 6278 6277 
4 6337 6338 6279 6278 
4 6338 6339 6280 6279 
4 6339 6340 6281 6280 
4 6340 6341 6282 6281 
4 6341 6342 6283 6282 
4 6342 6343 6284 6283 
4 6343 6344 6285 6284 
4 6344 6345 6286 6285 
4 6345 6346 6287 6286 
4 6346 6347 6288 6287 
4 6347 6348 6289 6288 
4 6348 6349 6290 6289 
4 6349 6350 6291 6290 
4 6350 6351 6292 6291 
4 6351 6352 6293 6292 
4 6352 6353 6294 6293 
4 6353 6354 6295 6294 
4 6354 6355 6296 6295 
4 6355 6356 6297 6296 
4 6356 6357 6298 6297 
4 6357 6358 6299 6298 
4 6358 6359 6300 6299 
4 6359 6360 6301 6300 
4 6360 6361 6302 6301 
4 6362 6363 6305 6304 
4 6363 6364 6306 6305 
4 6364 6365 6307 6306 
4 6365 6366 6308 6307 
4 6366 6367 6309 6308 
4 6367 6368 6310 6309 
4 6368 6369 6311 6310 
4 6369 6370 6312 6311 
4 6370 6371 6313 6312 
4 6371 6372 6314 6313 
4 6372 6373 6315 6314 
4 6373 6374 6316 6315 
4 6374 6375 6317 6316 
4 6375 6376 6318 6317 
4 6376 6377 6319 6318 
4 6377 6378 6320 6319 
4 6378 6379 6321 6320 
4 6379 6380 6322 6321 
4 6380 6381 6323 6322 
4 6381 6382 6324 6323 
4 6382 6383 6325 6324 
4 6383 6384 6326 6325 
4 6384 6385 6327 6326 
4 6385 6386 6328 6327 
4 6386 6387 6329 6328 
4 6387 6388 6330 6329 
4 6388 6389 6331 6330 
4 6389 6390 6332 6331 
4 6390 6391 6333 6332 
4 6391 6392 6334 6333 
4 6392 6393 6335 6334 
4 6393 6394 6336 6335 
4 6394 6395 6337 6336 
4 6395 6396 6338 6337 
4 6396 6397 6339 6338 
4 6397 6398 6340 6339 
4 6398 6399 6341 6340 
4 6399 6400 6342 6341 
4 6400 6401 6343 6342 
4 6401 6402 6344 6343 
4 6402 6403 6345 6344 
4 6403 6404 6346 6345 
4 6404 6405 6347 6346 
4 6405 6406 6348 6347 
4 6406 6407 6349 6348 
4 6407 6408 6350 6349 
4 6408 6409 6351 6350 
4 6409 6410 6352 6351 
4 6410 6411 6353 6352 
4 6411 6412 6354 6353 
4 6412 6413 6355 6354 
4 6413 6414 6356 6355 
4 6414 6415 6357 6356 
4 6415 6416 6358 6357 
4 6416 6417 6359 6358 
4 6417 6418 6360 6359 
4 6418 6419 6361 6360 
4 6420 6421 6363 6362 
4 6421 6422 6364 6363 
4 6422 6423 6365 6364 
4 6423 6424 6366 6365 
4 6424 6425 6367 6366 
4 6425 6426 6368 6367 
4 6426 6427 6369 6368 
4 6427 6428 6370 6369 
4 6428 6429 6371 6370 
4 6429 6430 6372 6371 
4 6430 6431 6373 6372 
4 6431 6432 6374 6373 
4 6432 6433 6375 6374 
4 6433 6434 6376 6375 
4 6434 6435 6377 6376 
4 6435 6436 6378 6377 
4 6436 6437 6379 6378 
4 6437 6438 6380 6379 
4 6438 6439 6381 6380 
4 6439 6440 6382 6381 
4 6440 6441 6383 6382 
4 6441 6442 6384 6383 
4 6442 6443 6385 6384 
4 6443 6444 6386 6385 
4 6444 6445 6387 6386 
4 6445 6446 6388 6387 
4 6446 6447 6389 6388 
4 6447 6448 6390 6389 
4 6449 6450 6395 6394 
4 6450 6451 6396 6395 
4 6451 6452 6397 6396 
4 6452 6453 6398 6397 
4 6453 6454 6399 6398 
4 6454 6455 6400 6399 
4 6455 6456 6401 6400 
4 6456 6457 6402 6401 
4 6457 6458 6403 6402 
4 6458 6459 6404 6403 
4 6459 6460 6405 6404 
4 6460 6461 6406 6405 
4 6461 6462 6407 6406 
4 6462 6463 6408 6407 
4 6463 6464 6409 6408 
4 6464 6465 6410 6409 
4 6465 6466 6411 6410 
4 6466 6467 6412 6411 
4 6467 6468 6413 6412 
4 6468 6469 6414 6413 
4 6469 6470 6415 6414 
4 6470 6471 6416 6415 
4 6471 6472 6417 6416 
4 6472 6473 6418 6417 
4 6474 6475 6421 6420 
4 6475 6476 6422 6421 
4 6476 6477 6423 6422 
4 6477 6478 6424 6423 
4 6478 6479 6425 6424 
4 6479 6480 6426 6425 
4 6480 6481 6427 6426 
4 6481 6482 6428 6427 
4 6482 6483 6429 6428 
4 6483 6484 6430 6429 
4 6484 6485 6431 6430 
4 6485 6486 6432 6431 
4 6486 6487 6433 6432 
4 6487 6488 6434 6433 
4 6488 6489 6435 6434 
4 6489 6490 6436 6435 
4 6490 6491 6437 6436 
4 6491 6492 6438 6437 
4 6492 6493 6439 6438 
4 6493 6494 6440 6439 
4 6494 6495 6441 6440 
4 6495 6496 6442 6441 
4 6496 6497 6443 6442 
4 6497 6498 6444 6443 
4 6498 6499 6445 6444 
4 6500 6501 6452 6451 
4 6501 6502 6453 6452 
4 6502 6503 6454 6453 
4 6503 6504 6455 6454 
4 6504 6505 6456 6455 
4 6505 6506 6457 6456 
4 6506 6507 6458 6457 
4 6507 6508 6459 6458 
4 6508 6509 6460 6459 
4 6509 6510 6461 6460 
4 6510 6511 6462 6461 
4 6511 6512 6463 6462 
4 6512 6513 6464 6463 
4 6513 6514 6465 6464 
4 6514 6515 6466 6465 
4 6515 6516 6467 6466 
4 6516 6517 6468 6467 
4 6517 6518 6469 6468 
4 6518 6519 6470 6469 
4 6519 6520 6471 6470 
4 6520 6521 6472 6471 
4 6521 6522 6473 6472 
4 6523 6524 6475 6474 
4 6524 6525 6476 6475 
4 6525 6526 6477 6476 
4 6526 6527 6478 6477 
4 6527 6528 6479 6478 
4 6528 6529 6480 6479 
4 6529 6530 6481 6480 
4 6530 6531 6482 6481 
4 6531 6532 6483 6482 
4 6532 6533 6484 6483 
4 6533 6534 6485 6484 
4 6534 6535 6486 6485 
4 6535 6536 6487 6486 
4 6536 6537 6488 6487 
4 6537 6538 6489 6488 
4 6538 6539 6490 6489 
4 6539 6540 6491 6490 
4 6540 6541 6492 6491 
4 6541 6542 6493 6492 
4 6542 6543 6494 6493 
4 6543 6544 6495 6494 
4 6544 6545 6496 6495 
4 6545 6546 6497 6496 
4 6546 6547 6498 6497 
4 6548 6549 6502 6501 
4 6549 6550 6503 6502 
4 6550 6551 6504 6503 
4 6551 6552 6505 6504 
4 6552 6553 6506 6505 
4 6553 6554 6507 6506 
4 6554 6555 6508 6507 
4 6555 6556 6509 6508 
4 6556 6557 6510 6509 
4 6557 6558 6511 6510 
4 6558 6559 6512 6511 
4 6559 6560 6513 6512 
4 6560 6561 6514 6513 
4 6561 6562 6515 6514 
4 6562 6563 6516 6515 
4 6563 6564 6517 6516 
4 6564 6565 6518 6517 
4 6565 6566 6519 6518 
4 6566 6567 6520 6519 
4 6567 6568 6521 6520 
4 6568 6569 6522 6521 
4 6570 6571 6524 6523 
4 6571 6572 6525 6524 
4 6572 6573 6526 6525 
4 6573 6574 6527 6526 
4 6574 6575 6528 6527 
4 6575 6576 6529 6528 
4 6576 6577 6530 6529 
4 6577 6578 6531 6530 
4 6578 6579 6532 6531 
4 6579 6580 6533 6532 
4 6580 6581 6534 6533 
4 6581 6582 6535 6534 
4 6582 6583 6536 6535 
4 6583 6584 6537 6536 
4 6584 6585 6538 6537 
4 6585 6586 6539 6538 
4 6586 6587 6540 6539 
4 6587 6588 6541 6540 
4 6588 6589 6542 6541 
4 6589 6590 6543 6542 
4 6590 6591 6544 6543 
4 6591 6592 6545 6544 
4 6592 6593 6546 6545 
4 6593 6594 6547 6546 
4 6595 6596 6550 6549 
4 6596 6597 6551 6550 
4 6597 6598 6552 6551 
4 6598 6599 6553 6552 
4 6599 6600 6554 6553 
4 6600 6601 6555 6554 
4 6601 6602 6556 6555 
4 6602 6603 6557 6556 
4 6603 6604 6558 6557 
4 6604 6605 6559 6558 
4 6605 6606 6560 6559 
4 6606 6607 6561 6560 
4 6607 6608 6562 6561 
4 6608 6609 6563 6562 
4 6609 6610 6564 6563 
4 6610 6611 6565 6564 
4 6611 6612 6566 6565 
4 6612 6613 6567 6566 
4 6613 6614 6568 6567 
4 6614 6615 6569 6568 
4 6616 6617 6571 6570 
4 6617 6618 6572 6571 
4 6618 6619 6573 6572 
4 6619 6620 6574 6573 
4 6620 6621 6575 6574 
4 6621 6622 6576 6575 
4 6622 6623 6577 6576 
4 6623 6624 6578 6577 
4 6624 6625 6579 6578 
4 6625 6626 6580 6579 
4 6626 6627 6581 6580 
4 6627 6628 6582 6581 
4 6628 6629 6583 6582 
4 6629 6630 6584 6583 
4 6630 6631 6585 6584 
4 6631 6632 6586 6585 
4 6632 6633 6587 6586 
4 6633 6634 6588 6587 
4 6634 6635 6589 6588 
4 6635 6636 6590 6589 
4 6636 6637 6591 6590 
4 6637 6638 6592 6591 
4 6638 6639 6593 6592 
4 6639 6640 6594 6593 
4 6641 6642 6597 6596 
4 6642 6643 6598 6597 
4 6643 6644 6599 6598 
4 6644 6645 6600 6599 
4 6645 6646 6601 6600 
4 6646 6647 6602 6601 
4 6647 6648 6603 6602 
4 6648 6649 6604 6603 
4 6649 6650 6605 6604 
4 6650 6651 6606 6605 
4 6651 6652 6607 6606 
4 6652 6653 6608 6607 
4 6653 6654 6609 6608 
4 6654 6655 6610 6609 
4 6655 6656 6611 6610 
4 6656 6657 6612 6611 
4 6657 6658 6613 6612 
4 6658 6659 6614 6613 
4 6659 6660 6615 6614 
4 6661 6662 6617 6616 
4 6662 6663 6618 6617 
4 6663 6664 6619 6618 
4 6664 6665 6620 6619 
4 6665 6666 6621 6620 
4 6666 6667 6622 6621 
4 6667 6668 6623 6622 
4 6668 6669 6624 6623 
4 6669 6670 6625 6624 
4 6670 6671 6626 6625 
4 6671 6672 6627 6626 
4 6672 6673 6628 6627 
4 6673 6674 6629 6628 
4 6674 6675 6630 6629 
4 6675 6676 6631 6630 
4 6676 6677 6632 6631 
4 6677 6678 6633 6632 
4 6678 6679 6634 6633 
4 6679 6680 6635 6634 
4 6680 6681 6636 6635 
4 6681 6682 6637 6636 
4 6682 6683 6638 6637 
4 6683 6684 6639 6638 
4 6684 6685 6640 6639 
4 6686 6687 6642 6641 
4 6687 6688 6643 6642 
4 6688 6689 6644 6643 
4 6689 6690 6645 6644 
4 6690 6691 6646 6645 
4 6691 6692 6647 6646 
4 6692 6693 6648 6647 
4 6693 6694 6649 6648 
4 6694 6695 6650 6649 
4 6695 6696 6651 6650 
4 6696 6697 6652 6651 
4 6697 6698 6653 6652 
4 6698 6699 6654 6653 
4 6699 6700 6655 6654 
4 6700 6701 6656 6655 
4 6701 6702 6657 6656 
4 6702 6703 6658 6657 
4 6703 6704 6659 6658 
4 6704 6705 6660 6659 
4 6706 6707 6662 6661 
4 6707 6708 6663 6662 
4 6708 6709 6664 6663 
4 6709 6710 6665 6664 
4 6710 6711 6666 6665 
4 6711 6712 6667 6666 
4 6712 6713 6668 6667 
4 6713 6714 6669 6668 
4 6714 6715 6670 6669 
4 6715 6716 6671 6670 
4 6716 6717 6672 6671 
4 6717 6718 6673 6672 
4 6718 6719 6674 6673 
4 6719 6720 6675 6674 
4 6720 6721 6676 6675 
4 6721 6722 6677 6676 
4 6722 6723 6678 6677 
4 6723 6724 6679 6678 
4 6724 6725 6680 6679 
4 6725 6726 6681 6680 
4 6726 6727 6682 6681 
4 6727 6728 6683 6682 
4 6728 6729 6684 6683 
4 6729 6730 6685 6684 
4 6732 6733 6686 6731 
4 6733 6734 6687 6686 
4 6734 6735 6688 6687 
4 6735 6736 6689 6688 
4 6736 6737 6690 6689 
4 6737 6738 6691 6690 
4 6738 6739 6692 6691 
4 6739 6740 6693 6692 
4 6740 6741 6694 6693 
4 6741 6742 6695 6694 
4 6742 6743 6696 6695 
4 6743 6744 6697 6696 
4 6744 6745 6698 6697 
4 6745 6746 6699 6698 
4 6746 6747 6700 6699 
4 6747 6748 6701 6700 
4 6748 6749 6702 6701 
4 6749 6750 6703 6702 
4 6750 6751 6704 6703 
4 6751 6752 6705 6704 
4 6753 6754 6707 6706 
4 6754 6755 6708 6707 
4 6755 6756 6709 6708 
4 6756 6757 6710 6709 
4 6757 6758 6711 6710 
4 6758 6759 6712 6711 
4 6759 6760 6713 6712 
4 6760 6761 6714 6713 
4 6761 6762 6715 6714 
4 6762 6763 6716 6715 
4 6763 6764 6717 6716 
4 6764 6765 6718 6717 
4 6765 6766 6719 6718 
4 6766 6767 6720 6719 
4 6767 6768 6721 6720 
4 6768 6769 6722 6721 
4 6769 6770 6723 6722 
4 6770 6771 6724 6723 
4 6771 6772 6725 6724 
4 6772 6773 6726 6725 
4 6773 6774 6727 6726 
4 6774 6775 6728 6727 
4 6775 6776 6729 6728 
4 6776 6777 6730 6729 
4 6777 6778 6779 6730 
4 6780 6781 6733 6732 
4 6781 6782 6734 6733 
4 6782 6783 6735 6734 
4 6783 6784 6736 6735 
4 6784 6785 6737 6736 
4 6785 6786 6738 6737 
4 6786 6787 6739 6738 
4 6787 6788 6740 6739 
4 6788 6789 6741 6740 
4 6789 6790 6742 6741 
4 6790 6791 6743 6742 
4 6791 6792 6744 6743 
4 6792 6793 6745 6744 
4 6793 6794 6746 6745 
4 6794 6795 6747 6746 
4 6795 6796 6748 6747 
4 6796 6797 6749 6748 
4 6797 6798 6750 6749 
4 6798 6799 6751 6750 
4 6799 6800 6752 6751 
4 6801 6802 6754 6753 
4 6802 6803 6755 6754 
4 6803 6804 6756 6755 
4 6804 6805 6757 6756 
4 6805 6806 6758 6757 
4 6806 6807 6759 6758 
4 6807 6808 6760 6759 
4 6808 6809 6761 6760 
4 6809 6810 6762 6761 
4 6810 6811 6763 6762 
4 6811 6812 6764 6763 
4 6812 6813 6765 6764 
4 6813 6814 6766 6765 
4 6814 6815 6767 6766 
4 6815 6816 6768 6767 
4 6816 6817 6769 6768 
4 6817 6818 6770 6769 
4 6818 6819 6771 6770 
4 6819 6820 6772 6771 
4 6820 6821 6773 6772 
4 6821 6822 6774 6773 
4 6822 6823 6775 6774 
4 6823 6824 6776 6775 
4 6824 6825 6777 6776 
4 6825 6826 6778 6777 
4 6826 6827 6828 6778 
4 6829 6830 6781 6780 
4 6830 6831 6782 6781 
4 6831 6832 6783 6782 
4 6832 6833 6784 6783 
4 6833 6834 6785 6784 
4 6834 6835 6786 6785 
4 6835 6836 6787 6786 
4 6836 6837 6788 6787 
4 6837 6838 6789 6788 
4 6838 6839 6790 6789 
4 6839 6840 6791 6790 
4 6840 6841 6792 6791 
4 6841 6842 6793 6792 
4 6842 6843 6794 6793 
4 6843 6844 6795 6794 
4 6844 6845 6796 6795 
4 6845 6846 6797 6796 
4 6846 6847 6798 6797 
4 6847 6848 6799 6798 
4 6849 6850 6802 6801 
4 6850 6851 6803 6802 
4 6851 6852 6804 6803 
4 6852 6853 6805 6804 
4 6853 6854 6806 6805 
4 6854 6855 6807 6806 
4 6855 6856 6808 6807 
4 6856 6857 6809 6808 
4 6857 6858 6810 6809 
4 6858 6859 6811 6810 
4 6859 6860 6812 6811 
4 6860 6861 6813 6812 
4 6861 6862 6814 6813 
4 6862 6863 6815 6814 
4 6863 6864 6816 6815 
4 6864 6865 6817 6816 
4 6865 6866 6818 6817 
4 6866 6867 6819 6818 
4 6867 6868 6820 6819 
4 6868 6869 6821 6820 
4 6869 6870 6822 6821 
4 6870 6871 6823 6822 
4 6871 6872 6824 6823 
4 6872 6873 6825 6824 
4 6873 6874 6826 6825 
4 6874 6875 6827 6826 
4 6875 6876 6877 6827 
4 6879 6880 6829 6878 
4 6880 6881 6830 6829 
4 6881 6882 6831 6830 
4 6882 6883 6832 6831 
4 6883 6884 6833 6832 
4 6884 6885 6834 6833 
4 6885 6886 6835 6834 
4 6886 6887 6836 6835 
4 6887 6888 6837 6836 
4 6888 6889 6838 6837 
4 6889 6890 6839 6838 
4 6890 6891 6840 6839 
4 6891 6892 6841 6840 
4 6892 6893 6842 6841 
4 6893 6894 6843 6842 
4 6894 6895 6844 6843 
4 6895 6896 6845 6844 
4 6896 6897 6846 6845 
4 6897 6898 6847 6846 
4 6899 6900 6850 6849 
4 6900 6901 6851 6850 
4 6901 6902 6852 6851 
4 6902 6903 6853 6852 
4 6903 6904 6854 6853 
4 6904 6905 6855 6854 
4 6905 6906 6856 6855 
4 6906 6907 6857 6856 
4 6907 6908 6858 6857 
4 6908 6909 6859 6858 
4 6909 6910 6860 6859 
4 6910 6911 6861 6860 
4 6911 6912 6862 6861 
4 6912 6913 6863 6862 
4 6913 6914 6864 6863 
4 6914 6915 6865 6864 
4 6915 6916 6866 6865 
4 6916 6917 6867 6866 
4 6917 6918 6868 6867 
4 6918 6919 6869 6868 
4 6919 6920 6870 6869 
4 6920 6921 6871 6870 
4 6921 6922 6872 6871 
4 6922 6923 6873 6872 
4 6923 6924 6874 6873 
4 6924 6925 6875 6874 
4 6925 6926 6876 6875 
4 6926 6927 6928 6876 
4 6929 6930 6880 6879 
4 6930 6931 6881 6880 
4 6931 6932 6882 6881 
4 6932 6933 6883 6882 
4 6933 6934 6884 6883 
4 6934 6935 6885 6884 
4 6935 6936 6886 6885 
4 6936 6937 6887 6886 
4 6937 6938 6888 6887 
4 6938 6939 6889 6888 
4 6939 6940 6890 6889 
4 6940 6941 6891 6890 
4 6941 6942 6892 6891 
4 6942 6943 6893 6892 
4 6943 6944 6894 6893 
4 6944 6945 6895 6894 
4 6945 6946 6896 6895 
4 6946 6947 6897 6896 
4 6947 6948 6898 6897 
4 6949 6950 6900 6899 
4 6950 6951 6901 6900 
4 6951 6952 6902 6901 
4 6952 6953 6903 6902 
4 6953 6954 6904 6903 
4 6954 6955 6905 6904 
4 6955 6956 6906 6905 
4 6956 6957 6907 6906 
4 6957 6958 6908 6907 
4 6958 6959 6909 6908 
4 6959 6960 6910 6909 
4 6960 6961 6911 6910 
4 6961 6962 6912 6911 
4 6962 6963 6913 6912 
4 6963 6964 6914 6913 
4 6964 6965 6915 6914 
4 6965 6966 6916 6915 
4 6966 6967 6917 6916 
4 6967 6968 6918 6917 
4 6968 6969 6919 6918 
4 6969 6970 6920 6919 
4 6970 6971 6921 6920 
4 6971 6972 6922 6921 
4 6972 6973 6923 6922 
4 6973 6974 6924 6923 
4 6974 6975 6925 6924 
4 6975 6976 6926 6925 
4 6976 6977 6927 6926 
4 6977 6978 6979 6927 
4 6981 6982 6929 6980 
4 6982 6983 6930 6929 
4 6983 6984 6931 6930 
4 6984 6985 6932 6931 
4 6985 6986 6933 6932 
4 6986 6987 6934 6933 
4 6987 6988 6935 6934 
4 6988 6989 6936 6935 
4 6989 6990 6937 6936 
4 6990 6991 6938 6937 
4 6991 6992 6939 6938 
4 6992 6993 6940 6939 
4 6993 6994 6941 6940 
4 6994 6995 6942 6941 
4 6995 6996 6943 6942 
4 6996 6997 6944 6943 
4 6997 6998 6945 6944 
4 6998 6999 6946 6945 
4 6999 7000 6947 6946 
4 7001 7002 6950 6949 
4 7002 7003 6951 6950 
4 7003 7004 6952 6951 
4 7004 7005 6953 6952 
4 7005 7006 6954 6953 
4 7006 7007 6955 6954 
4 7007 7008 6956 6955 
4 7008 7009 6957 6956 
4 7009 7010 6958 6957 
4 7010 7011 6959 6958 
4 7011 7012 6960 6959 
4 7012 7013 6961 6960 
4 7013 7014 6962 6961 
4 7014 7015 6963 6962 
4 7015 7016 6964 6963 
4 7016 7017 6965 6964 
4 7017 7018 6966 6965 
4 7018 7019 6967 6966 
4 7019 7020 6968 6967 
4 7020 7021 6969 6968 
4 7021 7022 6970 6969 
4 7022 7023 6971 6970 
4 7023 7024 6972 6971 
4 7024 7025 6973 6972 
4 7025 7026 6974 6973 
4 7026 7027 6975 6974 
4 7027 7028 6976 6975 
4 7028 7029 6977 6976 
4 7029 7030 6978 6977 
4 7030 7031 7032 6978 
4 7031 7033 7034 7032 
4 7033 7035 7036 7034 
4 7035 7037 7038 7036 
4 7037 7039 6981 7038 
4 7039 7040 6982 6981 
4 7040 7041 6983 6982 
4 7041 7042 6984 6983 
4 7042 7043 6985 6984 
4 7043 7044 6986 6985 
4 7044 7045 6987 6986 
4 7045 7046 6988 6987 
4 7046 7047 6989 6988 
4 7047 7048 6990 6989 
4 7048 7049 6991 6990 
4 7049 7050 6992 6991 
4 7050 7051 6993 6992 
4 7051 7052 6994 6993 
4 7052 7053 6995 6994 
4 7053 7054 6996 6995 
4 7054 7055 6997 6996 
4 7055 7056 6998 6997 
4 7056 7057 6999 6998 
4 7057 7058 7000 6999 
4 7059 7060 7002 7001 
4 7060 7061 7003 7002 
4 7061 7062 7004 7003 
4 7062 7063 7005 7004 
4 7063 7064 7006 7005 
4 7064 7065 7007 7006 
4 7065 7066 7008 7007 
4 7066 7067 7009 7008 
4 7067 7068 7010 7009 
4 7068 7069 7011 7010 
4 7069 7070 7012 7011 
4 7070 7071 7013 7012 
4 7071 7072 7014 7013 
4 7072 7073 7015 7014 
4 7073 7074 7016 7015 
4 7074 7075 7017 7016 
4 7075 7076 7018 7017 
4 7076 7077 7019 7018 
4 7077 7078 7020 7019 
4 7078 7079 7021 7020 
4 7079 7080 7022 7021 
4 7080 7081 7023 7022 
4 7081 7082 7024 7023 
4 7082 7083 7025 7024 
4 7083 7084 7026 7025 
4 7084 7085 7027 7026 
4 7085 7086 7028 7027 
4 7086 7087 7029 7028 
4 7087 7088 7030 7029 
4 7088 7089 7031 7030 
4 7089 7090 7033 7031 
4 7090 7091 7035 7033 
4 7091 7092 7037 7035 
4 7092 7093 7039 7037 
4 7093 7094 7040 7039 
4 7094 7095 7041 7040 
4 7095 7096 7042 7041 
4 7096 7097 7043 7042 
4 7097 7098 7044 7043 
4 7098 7099 7045 7044 
4 7099 7100 7046 7045 
4 7100 7101 7047 7046 
4 7101 7102 7048 7047 
4 7102 7103 7049 7048 
4 7103 7104 7050 7049 
4 7104 7105 7051 7050 
4 7105 7106 7052 7051 
4 7106 7107 7053 7052 
4 7107 7108 7054 7053 
4 7108 7109 7055 7054 
4 7109 7110 7056 7055 
4 7110 7111 7057 7056 
4 7111 7112 7058 7057 
4 7112 7113 7114 7058 
4 7115 7116 7060 7059 
4 7116 7117 7061 7060 
4 7117 7118 7062 7061 
4 7118 7119 7063 7062 
4 7119 7120 7064 7063 
4 7120 7121 7065 7064 
4 7121 7122 7066 7065 
4 7122 7123 7067 7066 
4 7123 7124 7068 7067 
4 7124 7125 7069 7068 
4 7125 7126 7070 7069 
4 7126 7127 7071 7070 
4 7127 7128 7072 7071 
4 7128 7129 7073 7072 
4 7129 7130 7074 7073 
4 7130 7131 7075 7074 
4 7131 7132 7076 7075 
4 7132 7133 7077 7076 
4 7133 7134 7078 7077 
4 7134 7135 7079 7078 
4 7135 7136 7080 7079 
4 7136 7137 7081 7080 
4 7137 7138 7082 7081 
4 7138 7139 7083 7082 
4 7139 7140 7084 7083 
4 7140 7141 7085 7084 
4 7141 7142 7086 7085 
4 7142 7143 7087 7086 
4 7143 7144 7088 7087 
4 7144 7145 7089 7088 
4 7145 7146 7090 7089 
4 7146 7147 7091 7090 
4 7147 7148 7092 7091 
4 7148 7149 7093 7092 
4 7149 7150 7094 7093 
4 7150 7151 7095 7094 
4 7151 7152 7096 7095 
4 7152 7153 7097 7096 
4 7153 7154 7098 7097 
4 7154 7155 7099 7098 
4 7155 7156 7100 7099 
4 7156 7157 7101 7100 
4 7157 7158 7102 7101 
4 7158 7159 7103 7102 
4 7159 7160 7104 7103 
4 7160 7161 7105 7104 
4 7161 7162 7106 7105 
4 7162 7163 7107 7106 
4 7163 7164 7108 7107 
4 7164 7165 7109 7108 
4 7165 7166 7110 7109 
4 7166 7167 7111 7110 
4 7167 7168 7112 7111 
4 7168 7169 7113 7112 
4 7170 7171 7116 7115 
4 7171 7172 7117 7116 
4 7172 7173 7118 7117 
4 7173 7174 7119 7118 
4 7174 7175 7120 7119 
4 7175 7176 7121 7120 
4 7176 7177 7122 7121 
4 7177 7178 7123 7122 
4 7178 7179 7124 7123 
4 7179 7180 7125 7124 
4 7180 7181 7126 7125 
4 7181 7182 7127 7126 
4 7182 7183 7128 7127 
4 7183 7184 7129 7128 
4 7184 7185 7130 7129 
4 7185 7186 7131 7130 
4 7186 7187 7132 7131 
4 7187 7188 7133 7132 
4 7188 7189 7134 7133 
4 7189 7190 7135 7134 
4 7190 7191 7136 7135 
4 7191 7192 7137 7136 
4 7192 7193 7138 7137 
4 7193 7194 7139 7138 
4 7194 7195 7140 7139 
4 7195 7196 7141 7140 
4 7196 7197 7142 7141 
4 7197 7198 7143 7142 
4 7198 7199 7144 7143 
4 7199 7200 7145 7144 
4 7200 7201 7146 7145 
4 7201 7202 7147 7146 
4 7202 7203 7148 7147 
4 7203 7204 7149 7148 
4 7204 7205 7150 7149 
4 7205 7206 7151 7150 
4 7206 7207 7152 7151 
4 7207 7208 7153 7152 
4 7208 7209 7154 7153 
4 7209 7210 7155 7154 
4 7210 7211 7156 7155 
4 7211 7212 7157 7156 
4 7212 7213 7158 7157 
4 7213 7214 7159 7158 
4 7214 7215 7160 7159 
4 7215 7216 7161 7160 
4 7216 7217 7162 7161 
4 7217 7218 7163 7162 
4 7218 7219 7164 7163 
4 7219 7220 7165 7164 
4 7220 7221 7166 7165 
4 7221 7222 7167 7166 
4 7222 7223 7168 7167 
4 7223 7224 7169 7168 
4 7225 7226 7171 7170 
4 7226 7227 7172 7171 
4 7227 7228 7173 7172 
4 7228 7229 7174 7173 
4 7229 7230 7175 7174 
4 7230 7231 7176 7175 
4 7231 7232 7177 7176 
4 7232 7233 7178 7177 
4 7233 7234 7179 7178 
4 7234 7235 7180 7179 
4 7235 7236 7181 7180 
4 7236 7237 7182 7181 
4 7237 7238 7183 7182 
4 7238 7239 7184 7183 
4 7239 7240 7185 7184 
4 7240 7241 7186 7185 
4 7241 7242 7187 7186 
4 7242 7243 7188 7187 
4 7243 7244 7189 7188 
4 7244 7245 7190 7189 
4 7245 7246 7191 7190 
4 7246 7247 7192 7191 
4 7247 7248 7193 7192 
4 7248 7249 7194 7193 
4 7249 7250 7195 7194 
4 7250 7251 7196 7195 
4 7251 7252 7197 7196 
4 7252 7253 7198 7197 
4 7253 7254 7199 7198 
4 7254 7255 7200 7199 
4 7255 7256 7201 7200 
4 7256 7257 7202 7201 
4 7257 7258 7203 7202 
4 7258 7259 7204 7203 
4 7259 7260 7205 7204 
4 7260 7261 7206 7205 
4 7261 7262 7207 7206 
4 7262 7263 7208 7207 
4 7263 7264 7209 7208 
4 7264 7265 7210 7209 
4 7265 7266 7211 7210 
4 7266 7267 7212 7211 
4 7267 7268 7213 7212 
4 7268 7269 7214 7213 
4 7269 7270 7215 7214 
4 7270 7271 7216 7215 
4 7271 7272 7217 7216 
4 7272 7273 7218 7217 
4 7273 7274 7219 7218 
4 7274 7275 7220 7219 
4 7275 7276 7221 7220 
4 7276 7277 7222 7221 
4 7277 7278 7223 7222 
4 7278 7279 7224 7223 
4 7280 7281 7226 7225 
4 7281 7282 7227 7226 
4 7282 7283 7228 7227 
4 7283 7284 7229 7228 
4 7284 7285 7230 7229 
4 7285 7286 7231 7230 
4 7286 7287 7232 7231 
4 7287 7288 7233 7232 
4 7288 7289 7234 7233 
4 7289 7290 7235 7234 
4 7290 7291 7236 7235 
4 7291 7292 7237 7236 
4 7292 7293 7238 7237 
4 7293 7294 7239 7238 
4 7294 7295 7240 7239 
4 7295 7296 7241 7240 
4 7296 7297 7242 7241 
4 7297 7298 7243 7242 
4 7298 7299 7244 7243 
4 7299 7300 7245 7244 
4 7300 7301 7246 7245 
4 7301 7302 7247 7246 
4 7302 7303 7248 7247 
4 7303 7304 7249 7248 
4 7304 7305 7250 7249 
4 7305 7306 7251 7250 
4 7306 7307 7252 7251 
4 7307 7308 7253 7252 
4 7308 7309 7254 7253 
4 7309 7310 7255 7254 
4 7310 7311 7256 7255 
4 7311 7312 7257 7256 
4 7312 7313 7258 7257 
4 7313 7314 7259 7258 
4 7314 7315 7260 7259 
4 7315 7316 7261 7260 
4 7316 7317 7262 7261 
4 7317 7318 7263 7262 
4 7318 7319 7264 7263 
4 7319 7320 7265 7264 
4 7320 7321 7266 7265 
4 7321 7322 7267 7266 
4 7322 7323 7268 7267 
4 7323 7324 7269 7268 
4 7324 7325 7270 7269 
4 7325 7326 7271 7270 
4 7326 7327 7272 7271 
4 7327 7328 7273 7272 
4 7328 7329 7274 7273 
4 7329 7330 7275 7274 
4 7330 7331 7276 7275 
4 7331 7332 7277 7276 
4 7332 7333 7278 7277 
4 7333 7334 7279 7278 
4 7335 7336 7281 7280 
4 7336 7337 7282 7281 
4 7337 7338 7283 7282 
4 7338 7339 7284 7283 
4 7339 7340 7285 7284 
4 7340 7341 7286 7285 
4 7341 7342 7287 7286 
4 7342 7343 7288 7287 
4 7343 7344 7289 7288 
4 7344 7345 7290 7289 
4 7345 7346 7291 7290 
4 7346 7347 7292 7291 
4 7347 7348 7293 7292 
4 7348 7349 7294 7293 
4 7349 7350 7295 7294 
4 7350 7351 7296 7295 
4 7351 7352 7297 7296 
4 7352 7353 7298 7297 
4 7353 7354 7299 7298 
4 7354 7355 7300 7299 
4 7355 7356 7301 7300 
4 7356 7357 7302 7301 
4 7357 7358 7303 7302 
4 7358 7359 7304 7303 
4 7359 7360 7305 7304 
4 7360 7361 7306 7305 
4 7361 7362 7307 7306 
4 7362 7363 7308 7307 
4 7363 7364 7309 7308 
4 7364 7365 7310 7309 
4 7365 7366 7311 7310 
4 7366 7367 7312 7311 
4 7367 7368 7313 7312 
4 7368 7369 7314 7313 
4 7369 7370 7315 7314 
4 7370 7371 7316 7315 
4 7371 7372 7317 7316 
4 7372 7373 7318 7317 
4 7373 7374 7319 7318 
4 7374 7375 7320 7319 
4 7375 7376 7321 7320 
4 7376 7377 7322 7321 
4 7377 7378 7323 7322 
4 7378 7379 7324 7323 
4 7379 7380 7325 7324 
4 7380 7381 7326 7325 
4 7381 7382 7327 7326 
4 7382 7383 7328 7327 
4 7383 7384 7329 7328 
4 7384 7385 7330 7329 
4 7385 7386 7331 7330 
4 7386 7387 7332 7331 
4 7387 7388 7333 7332 
4 7389 7390 7336 7335 
4 7390 7391 7337 7336 
4 7391 7392 7338 7337 
4 7392 7393 7339 7338 
4 7393 7394 7340 7339 
4 7394 7395 7341 7340 
4 7395 7396 7342 7341 
4 7396 7397 7343 7342 
4 7397 7398 7344 7343 
4 7398 7399 7345 7344 
4 7399 7400 7346 7345 
4 7400 7401 7347 7346 
4 7401 7402 7348 7347 
4 7402 7403 7349 7348 
4 7403 7404 7350 7349 
4 7404 7405 7351 7350 
4 7405 7406 7352 7351 
4 7406 7407 7353 7352 
4 7407 7408 7354 7353 
4 7408 7409 7355 7354 
4 7409 7410 7356 7355 
4 7410 7411 7357 7356 
4 7411 7412 7358 7357 
4 7412 7413 7359 7358 
4 7413 7414 7360 7359 
4 7414 7415 7361 7360 
4 7415 7416 7362 7361 
4 7416 7417 7363 7362 
4 7417 7418 7364 7363 
4 7418 7419 7365 7364 
4 7419 7420 7366 7365 
4 7420 7421 7367 7366 
4 7421 7422 7368 7367 
4 7422 7423 7369 7368 
4 7423 7424 7370 7369 
4 7424 7425 7371 7370 
4 7425 7426 7372 7371 
4 7426 7427 7373 7372 
4 7427 7428 7374 7373 
4 7428 7429 7375 7374 
4 7429 7430 7376 7375 
4 7430 7431 7377 7376 
4 7431 7432 7378 7377 
4 7432 7433 7379 7378 
4 7433 7434 7380 7379 
4 7434 7435 7381 7380 
4 7435 7436 7382 7381 
4 7436 7437 7383 7382 
4 7437 7438 7384 7383 
4 7438 7439 7385 7384 
4 7439 7440 7386 7385 
4 7440 7441 7387 7386 
4 7441 7442 7388 7387 
4 7443 7444 7390 7389 
4 7444 7445 7391 7390 
4 7445 7446 7392 7391 
4 7446 7447 7393 7392 
4 7447 7448 7394 7393 
4 7448 7449 7395 7394 
4 7449 7450 7396 7395 
4 7450 7451 7397 7396 
4 7451 7452 7398 7397 
4 7452 7453 7399 7398 
4 7453 7454 7400 7399 
4 7454 7455 7401 7400 
4 7455 7456 7402 7401 
4 7456 7457 7403 7402 
4 7457 7458 7404 7403 
4 7458 7459 7405 7404 
4 7459 7460 7406 7405 
4 7460 7461 7407 7406 
4 7461 7462 7408 7407 
4 7462 7463 7409 7408 
4 7463 7464 7410 7409 
4 7464 7465 7411 7410 
4 7465 7466 7412 7411 
4 7466 7467 7413 7412 
4 7467 7468 7414 7413 
4 7468 7469 7415 7414 
4 7469 7470 7416 7415 
4 7470 7471 7417 7416 
4 7471 7472 7418 7417 
4 7472 7473 7419 7418 
4 7473 7474 7420 7419 
4 7474 7475 7421 7420 
4 7475 7476 7422 7421 
4 7476 7477 7423 7422 
4 7477 7478 7424 7423 
4 7478 7479 7425 7424 
4 7479 7480 7426 7425 
4 7480 7481 7427 7426 
4 7481 7482 7428 7427 
4 7482 7483 7429 7428 
4 7483 7484 7430 7429 
4 7484 7485 7431 7430 
4 7485 7486 7432 7431 
4 7486 7487 7433 7432 
4 7487 7488 7434 7433 
4 7488 7489 7435 7434 
4 7489 7490 7436 7435 
4 7490 7491 7437 7436 
4 7491 7492 7438 7437 
4 7492 7493 7439 7438 
4 7493 7494 7440 7439 
4 7494 7495 7441 7440 
4 7495 7496 7442 7441 
4 7497 7498 7444 7443 
4 7498 7499 7445 7444 
4 7499 7500 7446 7445 
4 7500 7501 7447 7446 
4 7501 7502 7448 7447 
4 7502 7503 7449 7448 
4 7503 7504 7450 7449 
4 7504 7505 7451 7450 
4 7505 7506 7452 7451 
4 7506 7507 7453 7452 
4 7507 7508 7454 7453 
4 7508 7509 7455 7454 
4 7509 7510 7456 7455 
4 7510 7511 7457 7456 
4 7511 7512 7458 7457 
4 7512 7513 7459 7458 
4 7513 7514 7460 7459 
4 7514 7515 7461 7460 
4 7515 7516 7462 7461 
4 7516 7517 7463 7462 
4 7517 7518 7464 7463 
4 7518 7519 7465 7464 
4 7519 7520 7466 7465 
4 7520 7521 7467 7466 
4 7521 7522 7468 7467 
4 7522 7523 7469 7468 
4 7523 7524 7470 7469 
4 7524 7525 7471 7470 
4 7525 7526 7472 7471 
4 7526 7527 7473 7472 
4 7527 7528 7474 7473 
4 7528 7529 7475 7474 
4 7529 7530 7476 7475 
4 7530 7531 7477 7476 
4 7531 7532 7478 7477 
4 7532 7533 7479 7478 
4 7533 7534 7480 7479 
4 7534 7535 7481 7480 
4 7535 7536 7482 7481 
4 7536 7537 7483 7482 
4 7537 7538 7484 7483 
4 7538 7539 7485 7484 
4 7539 7540 7486 7485 
4 7540 7541 7487 7486 
4 7541 7542 7488 7487 
4 7542 7543 7489 7488 
4 7543 7544 7490 7489 
4 7544 7545 7491 7490 
4 7545 7546 7492 7491 
4 7546 7547 7493 7492 
4 7547 7548 7494 7493 
4 7548 7549 7495 7494 
4 7549 7550 7496 7495 
4 7551 7552 7498 7497 
4 7552 7553 7499 7498 
4 7553 7554 7500 7499 
4 7554 7555 7501 7500 
4 7555 7556 7502 7501 
4 7556 7557 7503 7502 
4 7557 7558 7504 7503 
4 7558 7559 7505 7504 
4 7559 7560 7506 7505 
4 7560 7561 7507 7506 
4 7561 7562 7508 7507 
4 7562 7563 7509 7508 
4 7563 7564 7510 7509 
4 7564 7565 7511 7510 
4 7565 7566 7512 7511 
4 7566 7567 7513 7512 
4 7567 7568 7514 7513 
4 7568 7569 7515 7514 
4 7569 7570 7516 7515 
4 7570 7571 7517 7516 
4 7571 7572 7518 7517 
4 7572 7573 7519 7518 
4 7573 7574 7520 7519 
4 7574 7575 7521 7520 
4 7575 7576 7522 7521 
4 7576 7577 7523 7522 
4 7577 7578 7524 7523 
4 7578 7579 7525 7524 
4 7579 7580 7526 7525 
4 7580 7581 7527 7526 
4 7581 7582 7528 7527 
4 7582 7583 7529 7528 
4 7583 7584 7530 7529 
4 7584 7585 7531 7530 
4 7585 7586 7532 7531 
4 7586 7587 7533 7532 
4 7587 7588 7534 7533 
4 7588 7589 7535 7534 
4 7589 7590 7536 7535 
4 7590 7591 7537 7536 
4 7591 7592 7538 7537 
4 7592 7593 7539 7538 
4 7593 7594 7540 7539 
4 7594 7595 7541 7540 
4 7595 7596 7542 7541 
4 7596 7597 7543 7542 
4 7597 7598 7544 7543 
4 7598 7599 7545 7544 
4 7599 7600 7546 7545 
4 7600 7601 7547 7546 
4 7601 7602 7548 7547 
4 7602 7603 7549 7548 
4 7603 7604 7550 7549 
4 7605 7606 7553 7552 
4 7606 7607 7554 7553 
4 7607 7608 7555 7554 
4 7608 7609 7556 7555 
4 7609 7610 7557 7556 
4 7610 7611 7558 7557 
4 7611 7612 7559 7558 
4 7612 7613 7560 7559 
4 7613 7614 7561 7560 
4 7614 7615 7562 7561 
4 7615 7616 7563 7562 
4 7616 7617 7564 7563 
4 7617 7618 7565 7564 
4 7618 7619 7566 7565 
4 7619 7620 7567 7566 
4 7620 7621 7568 7567 
4 7621 7622 7569 7568 
4 7622 7623 7570 7569 
4 7623 7624 7571 7570 
4 7624 7625 7572 7571 
4 7625 7626 7573 7572 
4 7626 7627 7574 7573 
4 7627 7628 7575 7574 
4 7628 7629 7576 7575 
4 7629 7630 7577 7576 
4 7630 7631 7578 7577 
4 7631 7632 7579 7578 
4 7632 7633 7580 7579 
4 7633 7634 7581 7580 
4 7634 7635 7582 7581 
4 7635 7636 7583 7582 
4 7636 7637 7584 7583 
4 7637 7638 7585 7584 
4 7638 7639 7586 7585 
4 7639 7640 7587 7586 
4 7640 7641 7588 7587 
4 7641 7642 7589 7588 
4 7642 7643 7590 7589 
4 7643 7644 7591 7590 
4 7644 7645 7592 7591 
4 7645 7646 7593 7592 
4 7646 7647 7594 7593 
4 7647 7648 7595 7594 
4 7648 7649 7596 7595 
4 7649 7650 7597 7596 
4 7650 7651 7598 7597 
4 7651 7652 7599 7598 
4 7652 7653 7600 7599 
4 7653 7654 7601 7600 
4 7654 7655 7602 7601 
4 7655 7656 7603 7602 
4 7656 7657 7604 7603 
4 7658 7659 7606 7605 
4 7659 7660 7607 7606 
4 7660 7661 7608 7607 
4 7661 7662 7609 7608 
4 7662 7663 7610 7609 
4 7663 7664 7611 7610 
4 7664 7665 7612 7611 
4 7665 7666 7613 7612 
4 7666 7667 7614 7613 
4 7667 7668 7615 7614 
4 7668 7669 7616 7615 
4 7669 7670 7617 7616 
4 7670 7671 7618 7617 
4 7671 7672 7619 7618 
4 7672 7673 7620 7619 
4 7673 7674 7621 7620 
4 7674 7675 7622 7621 
4 7675 7676 7623 7622 
4 7676 7677 7624 7623 
4 7677 7678 7625 7624 
4 7678 7679 7626 7625 
4 7679 7680 7627 7626 
4 7680 7681 7628 7627 
4 7681 7682 7629 7628 
4 7682 7683 7630 7629 
4 7683 7684 7631 7630 
4 7684 7685 7632 7631 
4 7685 7686 7633 7632 
4 7686 7687 7634 7633 
4 7687 7688 7635 7634 
4 7688 7689 7636 7635 
4 7689 7690 7637 7636 
4 7690 7691 7638 7637 
4 7691 7692 7639 7638 
4 7692 7693 7640 7639 
4 7693 7694 7641 7640 
4 7694 7695 7642 7641 
4 7695 7696 7643 7642 
4 7696 7697 7644 7643 
4 7697 7698 7645 7644 
4 7698 7699 7646 7645 
4 7699 7700 7647 7646 
4 7700 7701 7648 7647 
4 7701 7702 7649 7648 
4 7702 7703 7650 7649 
4 7703 7704 7651 7650 
4 7704 7705 7652 7651 
4 7705 7706 7653 7652 
4 7706 7707 7654 7653 
4 7707 7708 7655 7654 
4 7708 7709 7656 7655 
4 7709 7710 7657 7656 
4 7711 7712 7659 7658 
4 7712 7713 7660 7659 
4 7713 7714 7661 7660 
4 7714 7715 7662 7661 
4 7715 7716 7663 7662 
4 7716 7717 7664 7663 
4 7717 7718 7665 7664 
4 7718 7719 7666 7665 
4 7719 7720 7667 7666 
4 7720 7721 7668 7667 
4 7721 7722 7669 7668 
4 7722 7723 7670 7669 
4 7723 7724 7671 7670 
4 7724 7725 7672 7671 
4 7725 7726 7673 7672 
4 7726 7727 7674 7673 
4 7727 7728 7675 7674 
4 7728 7729 7676 7675 
4 7729 7730 7677 7676 
4 7730 7731 7678 7677 
4 7731 7732 7679 7678 
4 7732 7733 7680 7679 
4 7733 7734 7681 7680 
4 7734 7735 7682 7681 
4 7735 7736 7683 7682 
4 7736 7737 7684 7683 
4 7737 7738 7685 7684 
4 7738 7739 7686 7685 
4 7739 7740 7687 7686 
4 7740 7741 7688 7687 
4 7741 7742 7689 7688 
4 7742 7743 7690 7689 
4 7743 7744 7691 7690 
4 7744 7745 7692 7691 
4 7745 7746 7693 7692 
4 7746 7747 7694 7693 
4 7747 7748 7695 7694 
4 7748 7749 7696 7695 
4 7749 7750 7697 7696 
4 7750 7751 7698 7697 
4 7751 7752 7699 7698 
4 7752 7753 7700 7699 
4 7753 7754 7701 7700 
4 7754 7755 7702 7701 
4 7755 7756 7703 7702 
4 7756 7757 7704 7703 
4 7757 7758 7705 7704 
4 7758 7759 7706 7705 
4 7759 7760 7707 7706 
4 7760 7761 7708 7707 
4 7761 7762 7709 7708 
4 7763 7764 7713 7712 
4 7764 7765 7714 7713 
4 7765 7766 7715 7714 
4 7766 7767 7716 7715 
4 7767 7768 7717 7716 
4 7768 7769 7718 7717 
4 7769 7770 7719 7718 
4 7770 7771 7720 7719 
4 7771 7772 7721 7720 
4 7772 7773 7722 7721 
4 7773 7774 7723 7722 
4 7774 7775 7724 7723 
4 7775 7776 7725 7724 
4 7776 7777 7726 7725 
4 7777 7778 7727 7726 
4 7778 7779 7728 7727 
4 7779 7780 7729 7728 
4 7780 7781 7730 7729 
4 7781 7782 7731 7730 
4 7782 7783 7732 7731 
4 7783 7784 7733 7732 
4 7784 7785 7734 7733 
4 7785 7786 7735 7734 
4 7786 7787 7736 7735 
4 7787 7788 7737 7736 
4 7788 7789 7738 7737 
4 7789 7790 7739 7738 
4 7790 7791 7740 7739 
4 7791 7792 7741 7740 
4 7792 7793 7742 7741 
4 7793 7794 7743 7742 
4 7794 7795 7744 7743 
4 7795 7796 7745 7744 
4 7796 7797 7746 7745 
4 7797 7798 7747 7746 
4 7798 7799 7748 7747 
4 7799 7800 7749 7748 
4 7800 7801 7750 7749 
4 7801 7802 7751 7750 
4 7802 7803 7752 7751 
4 7803 7804 7753 7752 
4 7804 7805 7754 7753 
4 7805 7806 7755 7754 
4 7806 7807 7756 7755 
4 7807 7808 7757 7756 
4 7808 7809 7758 7757 
4 7809 7810 7759 7758 
4 7810 7811 7760 7759 
4 7811 7812 7761 7760 
4 7812 7813 7762 7761 
4 7814 7815 7764 7763 
4 7815 7816 7765 7764 
4 7816 7817 7766 7765 
4 7817 7818 7767 7766 
4 7818 7819 7768 7767 
4 7819 7820 7769 7768 
4 7820 7821 7770 7769 
4 7821 7822 7771 7770 
4 7822 7823 7772 7771 
4 7823 7824 7773 7772 
4 7824 7825 7774 7773 
4 7825 7826 7775 7774 
4 7826 7827 7776 7775 
4 7827 7828 7777 7776 
4 7828 7829 7778 7777 
4 7829 7830 7779 7778 
4 7830 7831 7780 7779 
4 7831 7832 7781 7780 
4 7832 7833 7782 7781 
4 7833 7834 7783 7782 
4 7834 7835 7784 7783 
4 7835 7836 7785 7784 
4 7836 7837 7786 7785 
4 7837 7838 7787 7786 
4 7838 7839 7788 7787 
4 7839 7840 7789 7788 
4 7840 7841 7790 7789 
4 7841 7842 7791 7790 
4 7842 7843 7792 7791 
4 7843 7844 7793 7792 
4 7844 7845 7794 7793 
4 7845 7846 7795 7794 
4 7846 7847 7796 7795 
4 7847 7848 7797 7796 
4 7848 7849 7798 7797 
4 7849 7850 7799 7798 
4 7850 7851 7800 7799 
4 7851 7852 7801 7800 
4 7852 7853 7802 7801 
4 7853 7854 7803 7802 
4 7854 7855 7804 7803 
4 7855 7856 7805 7804 
4 7856 7857 7806 7805 
4 7857 7858 7807 7806 
4 7858 7859 7808 7807 
4 7859 7860 7809 7808 
4 7860 7861 7810 7809 
4 7861 7862 7811 7810 
4 7862 7863 7812 7811 
4 7863 7864 7813 7812 
4 7865 7866 7815 7814 
4 7866 7867 7816 7815 
4 7867 7868 7817 7816 
4 7868 7869 7818 7817 
4 7869 7870 7819 7818 
4 7870 7871 7820 7819 
4 7871 7872 7821 7820 
4 7872 7873 7822 7821 
4 7873 7874 7823 7822 
4 7874 7875 7824 7823 
4 7875 7876 7825 7824 
4 7876 7877 7826 7825 
4 7877 7878 7827 7826 
4 7878 7879 7828 7827 
4 7879 7880 7829 7828 
4 7880 7881 7830 7829 
4 7881 7882 7831 7830 
4 7882 7883 7832 7831 
4 7883 7884 7833 7832 
4 7884 7885 7834 7833 
4 7885 7886 7835 7834 
4 7886 7887 7836 7835 
4 7887 7888 7837 7836 
4 7888 7889 7838 7837 
4 7889 7890 7839 7838 
4 7890 7891 7840 7839 
4 7891 7892 7841 7840 
4 7892 7893 7842 7841 
4 7893 7894 7843 7842 
4 7894 7895 7844 7843 
4 7895 7896 7845 7844 
4 7896 7897 7846 7845 
4 7897 7898 7847 7846 
4 7898 7899 7848 7847 
4 7899 7900 7849 7848 
4 7900 7901 7850 7849 
4 7901 7902 7851 7850 
4 7902 7903 7852 7851 
4 7903 7904 7853 7852 
4 7904 7905 7854 7853 
4 7905 7906 7855 7854 
4 7906 7907 7856 7855 
4 7907 7908 7857 7856 
4 7908 7909 7858 7857 
4 7909 7910 7859 7858 
4 7910 7911 7860 7859 
4 7911 7912 7861 7860 
4 7912 7913 7862 7861 
4 7913 7914 7863 7862 
4 7914 7915 7864 7863 
4 7916 7917 7866 7865 
4 7917 7918 7867 7866 
4 7918 7919 7868 7867 
4 7919 7920 7869 7868 
4 7920 7921 7870 7869 
4 7921 7922 7871 7870 
4 7922 7923 7872 7871 
4 7923 7924 7873 7872 
4 7924 7925 7874 7873 
4 7925 7926 7875 7874 
4 7926 7927 7876 7875 
4 7927 7928 7877 7876 
4 7928 7929 7878 7877 
4 7929 7930 7879 7878 
4 7930 7931 7880 7879 
4 7931 7932 7881 7880 
4 7932 7933 7882 7881 
4 7933 7934 7883 7882 
4 7934 7935 7884 7883 
4 7935 7936 7885 7884 
4 7936 7937 7886 7885 
4 7937 7938 7887 7886 
4 7938 7939 7888 7887 
4 7939 7940 7889 7888 
4 7940 7941 7890 7889 
4 7941 7942 7891 7890 
4 7942 7943 7892 7891 
4 7943 7944 7893 7892 
4 7944 7945 7894 7893 
4 7945 7946 7895 7894 
4 7946 7947 7896 7895 
4 7947 7948 7897 7896 
4 7948 7949 7898 7897 
4 7949 7950 7899 7898 
4 7950 7951 7900 7899 
4 7951 7952 7901 7900 
4 7952 7953 7902 7901 
4 7953 7954 7903 7902 
4 7954 7955 7904 7903 
4 7955 7956 7905 7904 
4 7956 7957 7906 7905 
4 7957 7958 7907 7906 
4 7958 7959 7908 7907 
4 7959 7960 7909 7908 
4 7960 7961 7910 7909 
4 7961 7962 7911 7910 
4 7962 7963 7912 7911 
4 7963 7964 7913 7912 
4 7964 7965 7914 7913 
4 7966 7967 7918 7917 
4 7967 7968 7919 7918 
4 7968 7969 7920 7919 
4 7969 7970 7921 7920 
4 7970 7971 7922 7921 
4 7971 7972 7923 7922 
4 7972 7973 7924 7923 
4 7973 7974 7925 7924 
4 7974 7975 7926 7925 
4 7975 7976 7927 7926 
4 7976 7977 7928 7927 
4 7977 7978 7929 7928 
4 7978 7979 7930 7929 
4 7979 7980 7931 7930 
4 7980 7981 7932 7931 
4 7981 7982 7933 7932 
4 7982 7983 7934 7933 
4 7983 7984 7935 7934 
4 7984 7985 7936 7935 
4 7985 7986 7937 7936 
4 7986 7987 7938 7937 
4 7987 7988 7939 7938 
4 7988 7989 7940 7939 
4 7989 7990 7941 7940 
4 7990 7991 7942 7941 
4 7991 7992 7943 7942 
4 7992 7993 7944 7943 
4 7993 7994 7945 7944 
4 7994 7995 7946 7945 
4 7995 7996 7947 7946 
4 7996 7997 7948 7947 
4 7997 7998 7949 7948 
4 7998 7999 7950 7949 
4 7999 8000 7951 7950 
4 8000 8001 7952 7951 
4 8001 8002 7953 7952 
4 8002 8003 7954 7953 
4 8003 8004 7955 7954 
4 8005 8006 7959 7958 
4 8006 8007 7960 7959 
4 8007 8008 7961 7960 
4 8008 8009 7962 7961 
4 8009 8010 7963 7962 
4 8010 8011 7964 7963 
4 8011 8012 7965 7964 
4 8013 8014 7967 7966 
4 8014 8015 7968 7967 
4 8015 8016 7969 7968 
4 8016 8017 7970 7969 
4 8017 8018 7971 7970 
4 8018 8019 7972 7971 
4 8019 8020 7973 7972 
4 8020 8021 7974 7973 
4 8021 8022 7975 7974 
4 8022 8023 7976 7975 
4 8023 8024 7977 7976 
4 8024 8025 7978 7977 
4 8025 8026 7979 7978 
4 8026 8027 7980 7979 
4 8027 8028 7981 7980 
4 8028 8029 7982 7981 
4 8029 8030 7983 7982 
4 8030 8031 7984 7983 
4 8031 8032 7985 7984 
4 8032 8033 7986 7985 
4 8033 8034 7987 7986 
4 8034 8035 7988 7987 
4 8035 8036 7989 7988 
4 8036 8037 7990 7989 
4 8037 8038 7991 7990 
4 8038 8039 7992 7991 
4 8039 8040 7993 7992 
4 8040 8041 7994 7993 
4 8041 8042 7995 7994 
4 8042 8043 7996 7995 
4 8043 8044 7997 7996 
4 8044 8045 7998 7997 
4 8045 8046 7999 7998 
4 8046 8047 8000 7999 
4 8047 8048 8001 8000 
4 8048 8049 8002 8001 
4 8049 8050 8003 8002 
4 8051 8052 8006 8005 
4 8052 8053 8007 8006 
4 8053 8054 8008 8007 
4 8054 8055 8009 8008 
4 8055 8056 8010 8009 
4 8056 8057 8011 8010 
4 8057 8058 8012 8011 
4 8059 8060 8014 8013 
4 8060 8061 8015 8014 
4 8061 8062 8016 8015 
4 8062 8063 8017 8016 
4 8063 8064 8018 8017 
4 8064 8065 8019 8018 
4 8065 8066 8020 8019 
4 8066 8067 8021 8020 
4 8067 8068 8022 8021 
4 8068 8069 8023 8022 
4 8069 8070 8024 8023 
4 8070 8071 8025 8024 
4 8071 8072 8026 8025 
4 8072 8073 8027 8026 
4 8073 8074 8028 8027 
4 8074 8075 8029 8028 
4 8075 8076 8030 8029 
4 8076 8077 8031 8030 
4 8077 8078 8032 8031 
4 8078 8079 8033 8032 
4 8079 8080 8034 8033 
4 8080 8081 8035 8034 
4 8081 8082 8036 8035 
4 8082 8083 8037 8036 
4 8083 8084 8038 8037 
4 8084 8085 8039 8038 
4 8085 8086 8040 8039 
4 8086 8087 8041 8040 
4 8087 8088 8042 8041 
4 8088 8089 8043 8042 
4 8089 8090 8044 8043 
4 8090 8091 8045 8044 
4 8091 8092 8046 8045 
4 8092 8093 8047 8046 
4 8093 8094 8048 8047 
4 8094 8095 8049 8048 
4 8096 8097 8052 8051 
4 8097 8098 8053 8052 
4 8098 8099 8054 8053 
4 8099 8100 8055 8054 
4 8100 8101 8056 8055 
4 8101 8102 8057 8056 
4 8103 8104 8061 8060 
4 8104 8105 8062 8061 
4 8105 8106 8063 8062 
4 8106 8107 8064 8063 
4 8107 8108 8065 8064 
4 8108 8109 8066 8065 
4 8109 8110 8067 8066 
4 8110 8111 8068 8067 
4 8111 8112 8069 8068 
4 8112 8113 8070 8069 
4 8113 8114 8071 8070 
4 8114 8115 8072 8071 
4 8115 8116 8073 8072 
4 8116 8117 8074 8073 
4 8117 8118 8075 8074 
4 8118 8119 8076 8075 
4 8119 8120 8077 8076 
4 8120 8121 8078 8077 
4 8121 8122 8079 8078 
4 8122 8123 8080 8079 
4 8123 8124 8081 8080 
4 8124 8125 8082 8081 
4 8125 8126 8083 8082 
4 8126 8127 8084 8083 
4 8127 8128 8085 8084 
4 8128 8129 8086 8085 
4 8129 8130 8087 8086 
4 8130 8131 8088 8087 
4 8131 8132 8089 8088 
4 8132 8133 8090 8089 
4 8133 8134 8091 8090 
4 8134 8135 8092 8091 
4 8135 8136 8093 8092 
4 8136 8137 8094 8093 
4 8139 8140 8096 8138 
4 8140 8141 8097 8096 
4 8141 8142 8098 8097 
4 8142 8143 8099 8098 
4 8143 8144 8100 8099 
4 8144 8145 8101 8100 
4 8145 8146 8102 8101 
4 8147 8148 8104 8103 
4 8148 8149 8105 8104 
4 8149 8150 8106 8105 
4 8150 8151 8107 8106 
4 8151 8152 8108 8107 
4 8152 8153 8109 8108 
4 8153 8154 8110 8109 
4 8154 8155 8111 8110 
4 8155 8156 8112 8111 
4 8156 8157 8113 8112 
4 8157 8158 8114 8113 
4 8158 8159 8115 8114 
4 8159 8160 8116 8115 
4 8160 8161 8117 8116 
4 8161 8162 8118 8117 
4 8162 8163 8119 8118 
4 8163 8164 8120 8119 
4 8164 8165 8121 8120 
4 8165 8166 8122 8121 
4 8166 8167 8123 8122 
4 8167 8168 8124 8123 
4 8168 8169 8125 8124 
4 8169 8170 8126 8125 
4 8170 8171 8127 8126 
4 8171 8172 8128 8127 
4 8172 8173 8129 8128 
4 8173 8174 8130 8129 
4 8174 8175 8131 8130 
4 8175 8176 8132 8131 
4 8176 8177 8133 8132 
4 8177 8178 8134 8133 
4 8178 8179 8135 8134 
4 8179 8180 8136 8135 
4 8180 8181 8137 8136 
4 8182 8183 8140 8139 
4 8183 8184 8141 8140 
4 8184 8185 8142 8141 
4 8185 8186 8143 8142 
4 8186 8187 8144 8143 
4 8187 8188 8145 8144 
4 8188 8189 8146 8145 
4 8190 8191 8149 8148 
4 8191 8192 8150 8149 
4 8192 8193 8151 8150 
4 8193 8194 8152 8151 
4 8194 8195 8153 8152 
4 8195 8196 8154 8153 
4 8196 8197 8155 8154 
4 8197 8198 8156 8155 
4 8198 8199 8157 8156 
4 8199 8200 8158 8157 
4 8200 8201 8159 8158 
4 8201 8202 8160 8159 
4 8202 8203 8161 8160 
4 8203 8204 8162 8161 
4 8204 8205 8163 8162 
4 8205 8206 8164 8163 
4 8206 8207 8165 8164 
4 8207 8208 8166 8165 
4 8208 8209 8167 8166 
4 8209 8210 8168 8167 
4 8210 8211 8169 8168 
4 8211 8212 8170 8169 
4 8212 8213 8171 8170 
4 8213 8214 8172 8171 
4 8214 8215 8173 8172 
4 8215 8216 8174 8173 
4 8216 8217 8175 8174 
4 8217 8218 8176 8175 
4 8218 8219 8177 8176 
4 8219 8220 8178 8177 
4 8220 8221 8179 8178 
4 8221 8222 8180 8179 
4 8223 8224 8183 8182 
4 8224 8225 8184 8183 
4 8225 8226 8185 8184 
4 8226 8227 8186 8185 
4 8227 8228 8187 8186 
4 8228 8229 8188 8187 
4 8230 8231 8191 8190 
4 8231 8232 8192 8191 
4 8232 8233 8193 8192 
4 8233 8234 8194 8193 
4 8234 8235 8195 8194 
4 8235 8236 8196 8195 
4 8236 8237 8197 8196 
4 8237 8238 8198 8197 
4 8238 8239 8199 8198 
4 8239 8240 8200 8199 
4 8240 8241 8201 8200 
4 8241 8242 8202 8201 
4 8242 8243 8203 8202 
4 8243 8244 8204 8203 
4 8244 8245 8205 8204 
4 8245 8246 8206 8205 
4 8246 8247 8207 8206 
4 8247 8248 8208 8207 
4 8248 8249 8209 8208 
4 8249 8250 8210 8209 
4 8250 8251 8211 8210 
4 8251 8252 8212 8211 
4 8252 8253 8213 8212 
4 8253 8254 8214 8213 
4 8254 8255 8215 8214 
4 8255 8256 8216 8215 
4 8256 8257 8217 8216 
4 8257 8258 8218 8217 
4 8258 8259 8219 8218 
4 8259 8260 8220 8219 
4 8260 8261 8221 8220 
4 8261 8262 8222 8221 
4 8264 8265 8223 8263 
4 8265 8266 8224 8223 
4 8266 8267 8225 8224 
4 8267 8268 8226 8225 
4 8268 8269 8227 8226 
4 8269 8270 8228 8227 
4 8270 8271 8229 8228 
4 8272 8273 8231 8230 
4 8273 8274 8232 8231 
4 8274 8275 8233 8232 
4 8275 8276 8234 8233 
4 8276 8277 8235 8234 
4 8277 8278 8236 8235 
4 8278 8279 8237 8236 
4 8279 8280 8238 8237 
4 8280 8281 8239 8238 
4 8281 8282 8240 8239 
4 8282 8283 8241 8240 
4 8283 8284 8242 8241 
4 8284 8285 8243 8242 
4 8285 8286 8244 8243 
4 8286 8287 8245 8244 
4 8287 8288 8246 8245 
4 8288 8289 8247 8246 
4 8289 8290 8248 8247 
4 8290 8291 8249 8248 
4 8291 8292 8250 8249 
4 8292 8293 8251 8250 
4 8293 8294 8252 8251 
4 8294 8295 8253 8252 
4 8295 8296 8254 8253 
4 8296 8297 8255 8254 
4 8297 8298 8256 8255 
4 8298 8299 8257 8256 
4 8299 8300 8258 8257 
4 8300 8301 8259 8258 
4 8301 8302 8260 8259 
4 8302 8303 8261 8260 
4 8304 8305 8265 8264 
4 8305 8306 8266 8265 
4 8306 8307 8267 8266 
4 8307 8308 8268 8267 
4 8308 8309 8269 8268 
4 8309 8310 8270 8269 
4 8310 8311 8271 8270 
4 8312 8313 8274 8273 
4 8313 8314 8275 8274 
4 8314 8315 8276 8275 
4 8315 8316 8277 8276 
4 8316 8317 8278 8277 
4 8317 8318 8279 8278 
4 8318 8319 8280 8279 
4 8319 8320 8281 8280 
4 8320 8321 8282 8281 
4 8321 8322 8283 8282 
4 8322 8323 8284 8283 
4 8323 8324 8285 8284 
4 8324 8325 8286 8285 
4 8325 8326 8287 8286 
4 8326 8327 8288 8287 
4 8327 8328 8289 8288 
4 8328 8329 8290 8289 
4 8329 8330 8291 8290 
4 8330 8331 8292 8291 
4 8331 8332 8293 8292 
4 8332 8333 8294 8293 
4 8333 8334 8295 8294 
4 8334 8335 8296 8295 
4 8335 8336 8297 8296 
4 8336 8337 8298 8297 
4 8337 8338 8299 8298 
4 8338 8339 8300 8299 
4 8339 8340 8301 8300 
4 8340 8341 8302 8301 
4 8341 8342 8303 8302 
4 8343 8344 8305 8304 
4 8344 8345 8306 8305 
4 8345 8346 8307 8306 
4 8346 8347 8308 8307 
4 8347 8348 8309 8308 
4 8348 8349 8310 8309 
4 8349 8350 8311 8310 
4 8351 8352 8313 8312 
4 8352 8353 8314 8313 
4 8353 8354 8315 8314 
4 8354 8355 8316 8315 
4 8355 8356 8317 8316 
4 8356 8357 8318 8317 
4 8357 8358 8319 8318 
4 8358 8359 8320 8319 
4 8359 8360 8321 8320 
4 8360 8361 8322 8321 
4 8361 8362 8323 8322 
4 8362 8363 8324 8323 
4 8363 8364 8325 8324 
4 8364 8365 8326 8325 
4 8365 8366 8327 8326 
4 8366 8367 8328 8327 
4 8367 8368 8329 8328 
4 8368 8369 8330 8329 
4 8369 8370 8331 8330 
4 8370 8371 8332 8331 
4 8371 8372 8333 8332 
4 8372 8373 8334 8333 
4 8373 8374 8335 8334 
4 8374 8375 8336 8335 
4 8375 8376 8337 8336 
4 8376 8377 8338 8337 
4 8377 8378 8339 8338 
4 8378 8379 8340 8339 
4 8379 8380 8341 8340 
4 8381 8382 8344 8343 
4 8382 8383 8345 8344 
4 8383 8384 8346 8345 
4 8384 8385 8347 8346 
4 8385 8386 8348 8347 
4 8386 8387 8349 8348 
4 8388 8389 8353 8352 
4 8389 8390 8354 8353 
4 8390 8391 8355 8354 
4 8391 8392 8356 8355 
4 8392 8393 8357 8356 
4 8393 8394 8358 8357 
4 8394 8395 8359 8358 
4 8395 8396 8360 8359 
4 8396 8397 8361 8360 
4 8397 8398 8362 8361 
4 8398 8399 8363 8362 
4 8399 8400 8364 8363 
4 8400 8401 8365 8364 
4 8401 8402 8366 8365 
4 8402 8403 8367 8366 
4 8403 8404 8368 8367 
4 8404 8405 8369 8368 
4 8405 8406 8370 8369 
4 8406 8407 8371 8370 
4 8407 8408 8372 8371 
4 8408 8409 8373 8372 
4 8409 8410 8374 8373 
4 8410 8411 8375 8374 
4 8411 8412 8376 8375 
4 8412 8413 8377 8376 
4 8413 8414 8378 8377 
4 8414 8415 8379 8378 
4 8417 8418 8381 8416 
4 8418 8419 8382 8381 
4 8419 8420 8383 8382 
4 8420 8421 8384 8383 
4 8421 8422 8385 8384 
4 8422 8423 8386 8385 
4 8423 8424 8387 8386 
4 8425 8426 8389 8388 
4 8426 8427 8390 8389 
4 8427 8428 8391 8390 
4 8428 8429 8392 8391 
4 8429 8430 8393 8392 
4 8430 8431 8394 8393 
4 8431 8432 8395 8394 
4 8432 8433 8396 8395 
4 8433 8434 8397 8396 
4 8434 8435 8398 8397 
4 8435 8436 8399 8398 
4 8436 8437 8400 8399 
4 8437 8438 8401 8400 
4 8438 8439 8402 8401 
4 8439 8440 8403 8402 
4 8440 8441 8404 8403 
4 8441 8442 8405 8404 
4 8442 8443 8406 8405 
4 8443 8444 8407 8406 
4 8444 8445 8408 8407 
4 8445 8446 8409 8408 
4 8446 8447 8410 8409 
4 8447 8448 8411 8410 
4 8448 8449 8412 8411 
4 8449 8450 8413 8412 
4 8450 8451 8414 8413 
4 8451 8452 8415 8414 
4 8453 8454 8418 8417 
4 8454 8455 8419 8418 
4 8455 8456 8420 8419 
4 8456 8457 8421 8420 
4 8457 8458 8422 8421 
4 8458 8459 8423 8422 
4 8459 8460 8424 8423 
4 8461 8462 8426 8425 
4 8462 8463 8427 8426 
4 8463 8464 8428 8427 
4 8464 8465 8429 8428 
4 8465 8466 8430 8429 
4 8466 8467 8431 8430 
4 8467 8468 8432 8431 
4 8468 8469 8433 8432 
4 8469 8470 8434 8433 
4 8470 8471 8435 8434 
4 8471 8472 8436 8435 
4 8472 8473 8437 8436 
4 8473 8474 8438 8437 
4 8474 8475 8439 8438 
4 8475 8476 8440 8439 
4 8476 8477 8441 8440 
4 8477 8478 8442 8441 
4 8478 8479 8443 8442 
4 8479 8480 8444 8443 
4 8480 8481 8445 8444 
4 8481 8482 8446 8445 
4 8482 8483 8447 8446 
4 8483 8484 8448 8447 
4 8484 8485 8449 8448 
4 8485 8486 8450 8449 
4 8486 8487 8451 8450 
4 8487 8488 8452 8451 
4 8489 8490 8454 8453 
4 8490 8491 8455 8454 
4 8491 8492 8456 8455 
4 8492 8493 8457 8456 
4 8493 8494 8458 8457 
4 8494 8495 8459 8458 
4 8496 8497 8463 8462 
4 8497 8498 8464 8463 
4 8498 8499 8465 8464 
4 8499 8500 8466 8465 
4 8500 8501 8467 8466 
4 8501 8502 8468 8467 
4 8502 8503 8469 8468 
4 8503 8504 8470 8469 
4 8504 8505 8471 8470 
4 8505 8506 8472 8471 
4 8506 8507 8473 8472 
4 8507 8508 8474 8473 
4 8508 8509 8475 8474 
4 8509 8510 8476 8475 
4 8510 8511 8477 8476 
4 8511 8512 8478 8477 
4 8512 8513 8479 8478 
4 8513 8514 8480 8479 
4 8514 8515 8481 8480 
4 8515 8516 8482 8481 
4 8516 8517 8483 8482 
4 8517 8518 8484 8483 
4 8518 8519 8485 8484 
4 8519 8520 8486 8485 
4 8520 8521 8487 8486 
4 8521 8522 8488 8487 
4 8523 8524 8490 8489 
4 8524 8525 8491 8490 
4 8525 8526 8492 8491 
4 8526 8527 8493 8492 
4 8527 8528 8494 8493 
4 8528 8529 8495 8494 
4 8530 8531 8497 8496 
4 8531 8532 8498 8497 
4 8532 8533 8499 8498 
4 8533 8534 8500 8499 
4 8534 8535 8501 8500 
4 8535 8536 8502 8501 
4 8536 8537 8503 8502 
4 8537 8538 8504 8503 
4 8538 8539 8505 8504 
4 8539 8540 8506 8505 
4 8540 8541 8507 8506 
4 8541 8542 8508 8507 
4 8542 8543 8509 8508 
4 8543 8544 8510 8509 
4 8544 8545 8511 8510 
4 8545 8546 8512 8511 
4 8546 8547 8513 8512 
4 8547 8548 8514 8513 
4 8548 8549 8515 8514 
4 8549 8550 8516 8515 
4 8550 8551 8517 8516 
4 8551 8552 8518 8517 
4 8552 8553 8519 8518 
4 8553 8554 8520 8519 
4 8554 8555 8521 8520 
4 8557 8558 8523 8556 
4 8558 8559 8524 8523 
4 8559 8560 8525 8524 
4 8560 8561 8526 8525 
4 8561 8562 8527 8526 
4 8562 8563 8528 8527 
4 8563 8564 8529 8528 
4 8565 8566 8531 8530 
4 8566 8567 8532 8531 
4 8567 8568 8533 8532 
4 8568 8569 8534 8533 
4 8569 8570 8535 8534 
4 8570 8571 8536 8535 
4 8571 8572 8537 8536 
4 8572 8573 8538 8537 
4 8573 8574 8539 8538 
4 8574 8575 8540 8539 
4 8575 8576 8541 8540 
4 8576 8577 8542 8541 
4 8577 8578 8543 8542 
4 8578 8579 8544 8543 
4 8579 8580 8545 8544 
4 8580 8581 8546 8545 
4 8581 8582 8547 8546 
4 8582 8583 8548 8547 
4 8583 8584 8549 8548 
4 8584 8585 8550 8549 
4 8585 8586 8551 8550 
4 8586 8587 8552 8551 
4 8587 8588 8553 8552 
4 8588 8589 8554 8553 
4 8589 8590 8555 8554 
4 8591 8592 8558 8557 
4 8592 8593 8559 8558 
4 8593 8594 8560 8559 
4 8594 8595 8561 8560 
4 8595 8596 8562 8561 
4 8596 8597 8563 8562 
4 8598 8599 8567 8566 
4 8599 8600 8568 8567 
4 8600 8601 8569 8568 
4 8601 8602 8570 8569 
4 8602 8603 8571 8570 
4 8603 8604 8572 8571 
4 8604 8605 8573 8572 
4 8605 8606 8574 8573 
4 8606 8607 8575 8574 
4 8607 8608 8576 8575 
4 8608 8609 8577 8576 
4 8609 8610 8578 8577 
4 8610 8611 8579 8578 
4 8611 8612 8580 8579 
4 8612 8613 8581 8580 
4 8613 8614 8582 8581 
4 8614 8615 8583 8582 
4 8615 8616 8584 8583 
4 8616 8617 8585 8584 
4 8617 8618 8586 8585 
4 8618 8619 8587 8586 
4 8619 8620 8588 8587 
4 8620 8621 8589 8588 
4 8621 8622 8590 8589 
4 8623 8624 8592 8591 
4 8624 8625 8593 8592 
4 8625 8626 8594 8593 
4 8626 8627 8595 8594 
4 8627 8628 8596 8595 
4 8628 8629 8597 8596 
4 8630 8631 8599 8598 
4 8631 8632 8600 8599 
4 8632 8633 8601 8600 
4 8633 8634 8602 8601 
4 8634 8635 8603 8602 
4 8635 8636 8604 8603 
4 8636 8637 8605 8604 
4 8637 8638 8606 8605 
4 8638 8639 8607 8606 
4 8639 8640 8608 8607 
4 8640 8641 8609 8608 
4 8641 8642 8610 8609 
4 8642 8643 8611 8610 
4 8643 8644 8612 8611 
4 8644 8645 8613 8612 
4 8645 8646 8614 8613 
4 8646 8647 8615 8614 
4 8647 8648 8616 8615 
4 8648 8649 8617 8616 
4 8649 8650 8618 8617 
4 8650 8651 8619 8618 
4 8651 8652 8620 8619 
4 8652 8653 8621 8620 
4 8655 8656 8623 8654 
4 8656 8657 8624 8623 
4 8657 8658 8625 8624 
4 8658 8659 8626 8625 
4 8659 8660 8627 8626 
4 8660 8661 8628 8627 
4 8661 8662 8629 8628 
4 8663 8664 8631 8630 
4 8664 8665 8632 8631 
4 8665 8666 8633 8632 
4 8666 8667 8634 8633 
4 8667 8668 8635 8634 
4 8668 8669 8636 8635 
4 8669 8670 8637 8636 
4 8670 8671 8638 8637 
4 8671 8672 8639 8638 
4 8672 8673 8640 8639 
4 8673 8674 8641 8640 
4 8674 8675 8642 8641 
4 8675 8676 8643 8642 
4 8676 8677 8644 8643 
4 8677 8678 8645 8644 
4 8678 8679 8646 8645 
4 8679 8680 8647 8646 
4 8680 8681 8648 8647 
4 8681 8682 8649 8648 
4 8682 8683 8650 8649 
4 8683 8684 8651 8650 
4 8684 8685 8652 8651 
4 8685 8686 8653 8652 
4 8687 8688 8656 8655 
4 8688 8689 8657 8656 
4 8689 8690 8658 8657 
4 8690 8691 8659 8658 
4 8691 8692 8660 8659 
4 8692 8693 8661 8660 
4 8693 8694 8662 8661 
4 8695 8696 8666 8665 
4 8696 8697 8667 8666 
4 8697 8698 8668 8667 
4 8698 8699 8669 8668 
4 8699 8700 8670 8669 
4 8700 8701 8671 8670 
4 8701 8702 8672 8671 
4 8702 8703 8673 8672 
4 8703 8704 8674 8673 
4 8704 8705 8675 8674 
4 8705 8706 8676 8675 
4 8706 8707 8677 8676 
4 8707 8708 8678 8677 
4 8708 8709 8679 8678 
4 8709 8710 8680 8679 
4 8710 8711 8681 8680 
4 8711 8712 8682 8681 
4 8712 8713 8683 8682 
4 8713 8714 8684 8683 
4 8714 8715 8685 8684 
4 8717 8718 8687 8716 
4 8718 8719 8688 8687 
4 8719 8720 8689 8688 
4 8720 8721 8690 8689 
4 8721 8722 8691 8690 
4 8722 8723 8692 8691 
4 8723 8724 8693 8692 
4 8725 8726 8696 8695 
4 8726 8727 8697 8696 
4 8727 8728 8698 8697 
4 8728 8729 8699 8698 
4 8729 8730 8700 8699 
4 8730 8731 8701 8700 
4 8731 8732 8702 8701 
4 8732 8733 8703 8702 
4 8733 8734 8704 8703 
4 8734 8735 8705 8704 
4 8735 8736 8706 8705 
4 8736 8737 8707 8706 
4 8737 8738 8708 8707 
4 8738 8739 8709 8708 
4 8739 8740 8710 8709 
4 8740 8741 8711 8710 
4 8741 8742 8712 8711 
4 8742 8743 8713 8712 
4 8743 8744 8714 8713 
4 8744 8745 8715 8714 
4 8747 8748 8717 8746 
4 8748 8749 8718 8717 
4 8749 8750 8719 8718 
4 8750 8751 8720 8719 
4 8751 8752 8721 8720 
4 8752 8753 8722 8721 
4 8753 8754 8723 8722 
4 8754 8755 8724 8723 
4 8756 8757 8727 8726 
4 8757 8758 8728 8727 
4 8758 8759 8729 8728 
4 8759 8760 8730 8729 
4 8760 8761 8731 8730 
4 8761 8762 8732 8731 
4 8762 8763 8733 8732 
4 8763 8764 8734 8733 
4 8764 8765 8735 8734 
4 8765 8766 8736 8735 
4 8766 8767 8737 8736 
4 8767 8768 8738 8737 
4 8768 8769 8739 8738 
4 8769 8770 8740 8739 
4 8770 8771 8741 8740 
4 8771 8772 8742 8741 
4 8772 8773 8743 8742 
4 8773 8774 8744 8743 
4 8774 8775 8745 8744 
4 8777 8778 8747 8776 
4 8778 8779 8748 8747 
4 8779 8780 8749 8748 
4 8780 8781 8750 8749 
4 8781 8782 8751 8750 
4 8782 8783 8752 8751 
4 8783 8784 8753 8752 
4 8784 8785 8754 8753 
4 8785 8786 8755 8754 
4 8787 8788 8757 8756 
4 8788 8789 8758 8757 
4 8789 8790 8759 8758 
4 8790 8791 8760 8759 
4 8791 8792 8761 8760 
4 8792 8793 8762 8761 
4 8793 8794 8763 8762 
4 8794 8795 8764 8763 
4 8795 8796 8765 8764 
4 8796 8797 8766 8765 
4 8797 8798 8767 8766 
4 8798 8799 8768 8767 
4 8799 8800 8769 8768 
4 8800 8801 8770 8769 
4 8801 8802 8771 8770 
4 8802 8803 8772 8771 
4 8803 8804 8773 8772 
4 8804 8805 8774 8773 
4 8805 8806 8775 8774 
4 8808 8809 8777 8807 
4 8809 8810 8778 8777 
4 8810 8811 8779 8778 
4 8811 8812 8780 8779 
4 8812 8813 8781 8780 
4 8813 8814 8782 8781 
4 8814 8815 8783 8782 
4 8815 8816 8784 8783 
4 8816 8817 8785 8784 
4 8818 8819 8789 8788 
4 8819 8820 8790 8789 
4 8820 8821 8791 8790 
4 8821 8822 8792 8791 
4 8822 8823 8793 8792 
4 8823 8824 8794 8793 
4 8824 8825 8795 8794 
4 8825 8826 8796 8795 
4 8826 8827 8797 8796 
4 8827 8828 8798 8797 
4 8828 8829 8799 8798 
4 8829 8830 8800 8799 
4 8830 8831 8801 8800 
4 8831 8832 8802 8801 
4 8832 8833 8803 8802 
4 8833 8834 8804 8803 
4 8834 8835 8805 8804 
4 8835 8836 8806 8805 
4 8836 8837 8838 8806 
4 8837 8839 8840 8838 
4 8839 8841 8842 8840 
4 8841 8843 8808 8842 
4 8843 8844 8809 8808 
4 8844 8845 8810 8809 
4 8845 8846 8811 8810 
4 8846 8847 8812 8811 
4 8847 8848 8813 8812 
4 8848 8849 8814 8813 
4 8849 8850 8815 8814 
4 8850 8851 8816 8815 
4 8852 8853 8819 8818 
4 8853 8854 8820 8819 
4 8854 8855 8821 8820 
4 8855 8856 8822 8821 
4 8856 8857 8823 8822 
4 8857 8858 8824 8823 
4 8858 8859 8825 8824 
4 8859 8860 8826 8825 
4 8860 8861 8827 8826 
4 8861 8862 8828 8827 
4 8862 8863 8829 8828 
4 8863 8864 8830 8829 
4 8864 8865 8831 8830 
4 8865 8866 8832 8831 
4 8866 8867 8833 8832 
4 8867 8868 8834 8833 
4 8868 8869 8835 8834 
4 8869 8870 8836 8835 
4 8870 8871 8837 8836 
4 8871 8872 8839 8837 
4 8872 8873 8841 8839 
4 8873 8874 8843 8841 
4 8874 8875 8844 8843 
4 8875 8876 8845 8844 
4 8876 8877 8846 8845 
4 8877 8878 8847 8846 
4 8878 8879 8848 8847 
4 8879 8880 8849 8848 
4 8880 8881 8850 8849 
4 8882 8883 8854 8853 
4 8883 8884 8855 8854 
4 8884 8885 8856 8855 
4 8885 8886 8857 8856 
4 8886 8887 8858 8857 
4 8887 8888 8859 8858 
4 8888 8889 8860 8859 
4 8889 8890 8861 8860 
4 8890 8891 8862 8861 
4 8891 8892 8863 8862 
4 8892 8893 8864 8863 
4 8893 8894 8865 8864 
4 8894 8895 8866 8865 
4 8895 8896 8867 8866 
4 8896 8897 8868 8867 
4 8897 8898 8869 8868 
4 8898 8899 8870 8869 
4 8899 8900 8871 8870 
4 8900 8901 8872 8871 
4 8901 8902 8873 8872 
4 8902 8903 8874 8873 
4 8903 8904 8875 8874 
4 8904 8905 8876 8875 
4 8905 8906 8877 8876 
4 8906 8907 8878 8877 
4 8907 8908 8879 8878 
4 8908 8909 8880 8879 
4 8910 8911 8883 8882 
4 8911 8912 8884 8883 
4 8912 8913 8885 8884 
4 8913 8914 8886 8885 
4 8914 8915 8887 8886 
4 8915 8916 8888 8887 
4 8916 8917 8889 8888 
4 8917 8918 8890 8889 
4 8918 8919 8891 8890 
4 8919 8920 8892 8891 
4 8920 8921 8893 8892 
4 8921 8922 8894 8893 
4 8922 8923 8895 8894 
4 8923 8924 8896 8895 
4 8924 8925 8897 8896 
4 8925 8926 8898 8897 
4 8926 8927 8899 8898 
4 8927 8928 8900 8899 
4 8928 8929 8901 8900 
4 8929 8930 8902 8901 
4 8930 8931 8903 8902 
4 8931 8932 8904 8903 
4 8932 8933 8905 8904 
4 8933 8934 8906 8905 
4 8934 8935 8907 8906 
4 8936 8937 8911 8910 
4 8937 8938 8912 8911 
4 8938 8939 8913 8912 
4 8939 8940 8914 8913 
4 8940 8941 8915 8914 
4 8941 8942 8916 8915 
4 8942 8943 8917 8916 
4 8943 8944 8918 8917 
4 8944 8945 8919 8918 
4 8945 8946 8920 8919 
4 8946 8947 8921 8920 
4 8947 8948 8922 8921 
4 8948 8949 8923 8922 
4 8949 8950 8924 8923 
4 8950 8951 8925 8924 
4 8951 8952 8926 8925 
4 8952 8953 8927 8926 
4 8953 8954 8928 8927 
4 8954 8955 8929 8928 
4 8955 8956 8930 8929 
4 8956 8957 8931 8930 
4 8957 8958 8932 8931 
4 8958 8959 8933 8932 
4 8960 8961 8938 8937 
4 8961 8962 8939 8938 
4 8962 8963 8940 8939 
4 8963 8964 8941 8940 
4 8964 8965 8942 8941 
4 8965 8966 8943 8942 
4 8966 8967 8944 8943 
4 8967 8968 8945 8944 
4 8968 8969 8946 8945 
4 8969 8970 8947 8946 
4 8970 8971 8948 8947 
4 8971 8972 8949 8948 
4 8972 8973 8950 8949 
4 8973 8974 8951 8950 
4 8974 8975 8952 8951 
4 8975 8976 8953 8952 
4 8976 8977 8954 8953 
4 8977 8978 8955 8954 
4 8978 8979 8956 8955 
4 8979 8980 8957 8956 
4 8981 8982 8961 8960 
4 8982 8983 8962 8961 
4 8983 8984 8963 8962 
4 8984 8985 8964 8963 
4 8985 8986 8965 8964 
4 8986 8987 8966 8965 
4 8987 8988 8967 8966 
4 8988 8989 8968 8967 
4 8989 8990 8969 8968 
4 8990 8991 8970 8969 
4 8991 8992 8971 8970 
4 8992 8993 8972 8971 
4 8993 8994 8973 8972 
4 8994 8995 8974 8973 
4 8995 8996 8975 8974 
4 8996 8997 8976 8975 
4 8997 8998 8977 8976 
4 8999 9000 8982 8981 
4 9000 9001 8983 8982 
4 9001 9002 8984 8983 
4 9002 9003 8985 8984 
4 9003 9004 8986 8985 
4 9004 9005 8987 8986 
4 9005 9006 8988 8987 
4 9006 9007 8989 8988 
4 9007 9008 8990 8989 
4 9008 9009 8991 8990 
4 9009 9010 8992 8991 
4 9010 9011 8993 8992 
4 9011 9012 8994 8993 
4 9012 9013 8995 8994 
4 9013 9014 8996 8995 
4 9015 9016 9001 9000 
4 9016 9017 9002 9001 
4 9017 9018 9003 9002 
4 9018 9019 9004 9003 
4 9019 9020 9005 9004 
4 9020 9021 9006 9005 
4 9021 9022 9007 9006 
4 9022 9023 9008 9007 
4 9023 9024 9009 9008 
4 9024 9025 9010 9009 
4 9026 9027 9017 9016 
4 9027 9028 9018 9017 
4 9028 9029 9019 9018 
2 0 3 
2 0 1 
2 1 35 
2 3 5 
2 5 7 
2 7 9 
2 9 11 
2 10 11 
2 10 43 
2 12 13 
2 12 15 
2 13 48 
2 15 17 
2 17 19 
2 19 21 
2 21 23 
2 23 25 
2 25 27 
2 27 29 
2 29 31 
2 31 33 
2 33 35 
2 43 45 
2 45 47 
2 46 47 
2 46 70 
2 48 73 
2 70 72 
2 71 72 
2 71 99 
2 73 74 
2 74 100 
2 98 99 
2 98 124 
2 100 125 
2 124 151 
2 125 154 
2 151 153 
2 152 153 
2 152 184 
2 154 155 
2 155 187 
2 184 186 
2 185 186 
2 185 218 
2 187 221 
2 218 220 
2 219 220 
2 219 256 
2 221 222 
2 222 259 
2 256 258 
2 257 258 
2 257 295 
2 259 260 
2 260 298 
2 295 297 
2 296 297 
2 296 335 
2 298 299 
2 299 336 
2 334 335 
2 334 373 
2 336 337 
2 337 374 
2 372 373 
2 372 411 
2 374 412 
2 410 411 
2 410 448 
2 412 449 
2 448 487 
2 449 503 
2 465 466 
2 465 520 
2 466 467 
2 467 468 
2 468 469 
2 469 521 
2 486 487 
2 486 538 
2 488 489 
2 488 491 
2 489 539 
2 491 493 
2 493 495 
2 495 497 
2 496 497 
2 496 547 
2 498 499 
2 498 501 
2 499 555 
2 501 503 
2 520 575 
2 521 522 
2 522 523 
2 523 576 
2 538 593 
2 539 540 
2 540 594 
2 547 549 
2 549 551 
2 550 551 
2 550 604 
2 552 553 
2 552 555 
2 553 614 
2 575 636 
2 576 577 
2 577 578 
2 578 579 
2 579 637 
2 592 593 
2 592 652 
2 594 653 
2 604 606 
2 606 608 
2 608 610 
2 609 610 
2 609 669 
2 611 612 
2 611 614 
2 612 699 
2 636 723 
2 637 638 
2 638 639 
2 639 724 
2 651 652 
2 651 736 
2 653 654 
2 654 737 
2 669 671 
2 671 673 
2 673 675 
2 675 677 
2 677 679 
2 679 681 
2 681 683 
2 683 685 
2 685 687 
2 687 689 
2 689 691 
2 691 693 
2 693 695 
2 695 697 
2 697 699 
2 723 792 
2 724 725 
2 725 793 
2 736 806 
2 737 827 
2 791 883 
2 791 792 
2 793 794 
2 794 884 
2 806 808 
2 808 810 
2 810 812 
2 812 814 
2 814 816 
2 816 818 
2 818 820 
2 820 822 
2 822 824 
2 824 826 
2 825 826 
2 825 907 
2 827 912 
2 882 967 
2 882 883 
2 884 968 
2 907 909 
2 909 911 
2 910 911 
2 910 994 
2 912 995 
2 967 1052 
2 968 969 
2 969 1053 
2 993 994 
2 993 1077 
2 995 1078 
2 1051 1134 
2 1051 1052 
2 1053 1135 
2 1077 1159 
2 1078 1079 
2 1079 1160 
2 1134 1215 
2 1135 1136 
2 1136 1216 
2 1159 1239 
2 1160 1240 
2 1179 1259 
2 1179 1180 
2 1180 1181 
2 1181 1182 
2 1182 1183 
2 1183 1184 
2 1184 1185 
2 1185 1260 
2 1215 1290 
2 1216 1217 
2 1217 1291 
2 1239 1313 
2 1240 1314 
2 1259 1333 
2 1260 1261 
2 1261 1262 
2 1262 1263 
2 1263 1334 
2 1289 1360 
2 1289 1290 
2 1291 1361 
2 1313 1383 
2 1314 1315 
2 1315 1384 
2 1333 1402 
2 1334 1335 
2 1335 1336 
2 1336 1403 
2 1360 1427 
2 1361 1362 
2 1362 1428 
2 1380 1381 
2 1380 1446 
2 1381 1382 
2 1382 1383 
2 1384 1385 
2 1385 1447 
2 1402 1464 
2 1403 1404 
2 1404 1405 
2 1405 1465 
2 1427 1487 
2 1428 1488 
2 1444 1445 
2 1444 1504 
2 1445 1446 
2 1447 1448 
2 1448 1449 
2 1449 1505 
2 1464 1520 
2 1465 1466 
2 1466 1467 
2 1467 1521 
2 1487 1541 
2 1488 1489 
2 1489 1542 
2 1503 1504 
2 1503 1556 
2 1505 1557 
2 1520 1572 
2 1521 1522 
2 1522 1523 
2 1523 1573 
2 1541 1591 
2 1542 1543 
2 1543 1592 
2 1556 1605 
2 1557 1606 
2 1572 1621 
2 1573 1574 
2 1574 1622 
2 1591 1639 
2 1592 1640 
2 1604 1605 
2 1604 1652 
2 1606 1607 
2 1607 1653 
2 1621 1667 
2 1622 1623 
2 1623 1624 
2 1624 1668 
2 1639 1683 
2 1640 1684 
2 1652 1696 
2 1653 1697 
2 1667 1711 
2 1668 1669 
2 1669 1670 
2 1670 1712 
2 1682 1724 
2 1682 1683 
2 1684 1725 
2 1696 1739 
2 1697 1740 
2 1711 1756 
2 1712 1713 
2 1713 1757 
2 1724 1768 
2 1725 1769 
2 1738 1739 
2 1738 1784 
2 1740 1785 
2 1755 1800 
2 1755 1756 
2 1757 1758 
2 1758 1759 
2 1759 1801 
2 1768 1810 
2 1769 1770 
2 1770 1814 
2 1784 1831 
2 1785 1832 
2 1800 1847 
2 1801 1802 
2 1802 1803 
2 1803 1804 
2 1804 1848 
2 1809 1853 
2 1809 1810 
2 1811 1814 
2 1811 1812 
2 1812 1875 
2 1830 1831 
2 1830 1895 
2 1832 1833 
2 1833 1896 
2 1847 1912 
2 1848 1849 
2 1849 1850 
2 1850 1851 
2 1851 1852 
2 1852 1853 
2 1854 1857 
2 1854 1855 
2 1855 1918 
2 1857 1859 
2 1859 1861 
2 1861 1863 
2 1863 1865 
2 1865 1867 
2 1867 1869 
2 1869 1871 
2 1871 1873 
2 1873 1875 
2 1894 1895 
2 1894 1950 
2 1896 1951 
2 1911 1966 
2 1911 1912 
2 1913 1916 
2 1913 1914 
2 1914 1970 
2 1916 1918 
2 1949 1950 
2 1949 2004 
2 1951 2005 
2 1966 2022 
2 1967 1970 
2 1967 1968 
2 1968 2028 
2 2004 2066 
2 2005 2067 
2 2021 2083 
2 2021 2022 
2 2023 2026 
2 2023 2024 
2 2024 2089 
2 2026 2028 
2 2065 2066 
2 2065 2129 
2 2067 2068 
2 2068 2130 
2 2083 2145 
2 2084 2087 
2 2084 2085 
2 2085 2157 
2 2087 2089 
2 2129 2202 
2 2130 2203 
2 2145 2220 
2 2146 2149 
2 2146 2147 
2 2147 2228 
2 2149 2151 
2 2151 2153 
2 2153 2155 
2 2155 2157 
2 2201 2202 
2 2201 2278 
2 2203 2204 
2 2204 2279 
2 2219 2296 
2 2219 2220 
2 2221 2224 
2 2221 2222 
2 2222 2302 
2 2224 2226 
2 2226 2228 
2 2278 2356 
2 2279 2357 
2 2295 2375 
2 2295 2296 
2 2297 2300 
2 2297 2298 
2 2298 2389 
2 2300 2302 
2 2356 2446 
2 2357 2358 
2 2358 2447 
2 2375 2377 
2 2377 2379 
2 2379 2381 
2 2381 2383 
2 2383 2385 
2 2385 2387 
2 2387 2389 
2 2446 2529 
2 2447 2530 
2 2528 2529 
2 2528 2611 
2 2530 2531 
2 2531 2612 
2 2610 2611 
2 2610 2691 
2 2612 2692 
2 2691 2771 
2 2692 2693 
2 2693 2772 
2 2770 2771 
2 2770 2849 
2 2772 2850 
2 2848 2849 
2 2848 2926 
2 2850 2927 
2 2926 3003 
2 2927 3004 
2 2979 2980 
2 2979 3056 
2 2980 2981 
2 2981 2982 
2 2982 3057 
2 3003 3078 
2 3004 3079 
2 3055 3130 
2 3055 3056 
2 3057 3058 
2 3058 3059 
2 3059 3131 
2 3078 3150 
2 3079 3151 
2 3129 3201 
2 3129 3130 
2 3131 3132 
2 3132 3202 
2 3149 3150 
2 3149 3219 
2 3151 3152 
2 3152 3220 
2 3200 3268 
2 3200 3201 
2 3202 3203 
2 3203 3204 
2 3204 3269 
2 3219 3284 
2 3220 3285 
2 3267 3332 
2 3267 3268 
2 3269 3270 
2 3270 3271 
2 3271 3333 
2 3284 3346 
2 3285 3347 
2 3331 3393 
2 3331 3332 
2 3333 3334 
2 3334 3394 
2 3346 3408 
2 3347 3409 
2 3393 3455 
2 3394 3456 
2 3407 3408 
2 3407 3469 
2 3409 3473 
2 3454 3519 
2 3454 3455 
2 3456 3520 
2 3469 3533 
2 3470 3471 
2 3470 3473 
2 3471 3534 
2 3519 3583 
2 3520 3584 
2 3533 3597 
2 3534 3535 
2 3535 3598 
2 3583 3646 
2 3584 3647 
2 3596 3597 
2 3596 3661 
2 3598 3662 
2 3646 3710 
2 3647 3648 
2 3648 3711 
2 3661 3726 
2 3662 3727 
2 3710 3775 
2 3711 3712 
2 3712 3776 
2 3726 3792 
2 3727 3793 
2 3766 3832 
2 3766 3767 
2 3767 3768 
2 3768 3769 
2 3769 3833 
2 3775 3839 
2 3776 3777 
2 3777 3840 
2 3792 3855 
2 3793 3856 
2 3825 3888 
2 3825 3826 
2 3826 3827 
2 3827 3828 
2 3828 3829 
2 3829 3830 
2 3830 3831 
2 3831 3832 
2 3833 3889 
2 3838 3894 
2 3838 3839 
2 3840 3895 
2 3855 3910 
2 3856 3857 
2 3857 3911 
2 3886 3940 
2 3886 3887 
2 3887 3888 
2 3889 3941 
2 3894 3948 
2 3895 3949 
2 3910 3966 
2 3911 3967 
2 3938 3994 
2 3938 3939 
2 3939 3940 
2 3941 3942 
2 3942 3995 
2 3947 4000 
2 3947 3948 
2 3949 3950 
2 3950 4001 
2 3965 3966 
2 3965 4018 
2 3967 3968 
2 3968 4019 
2 3993 4044 
2 3993 3994 
2 3995 3996 
2 3996 4045 
2 3998 4047 
2 3998 3999 
2 3999 4000 
2 4001 4002 
2 4002 4048 
2 4017 4018 
2 4017 4065 
2 4019 4020 
2 4020 4066 
2 4044 4090 
2 4045 4046 
2 4046 4047 
2 4048 4049 
2 4049 4091 
2 4065 4109 
2 4066 4110 
2 4089 4133 
2 4089 4090 
2 4091 4092 
2 4092 4134 
2 4109 4153 
2 4110 4111 
2 4111 4112 
2 4112 4154 
2 4133 4175 
2 4134 4135 
2 4135 4179 
2 4152 4153 
2 4152 4197 
2 4154 4198 
2 4175 4219 
2 4176 4179 
2 4176 4177 
2 4177 4220 
2 4197 4241 
2 4198 4199 
2 4199 4200 
2 4200 4242 
2 4219 4261 
2 4220 4221 
2 4221 4265 
2 4241 4286 
2 4242 4243 
2 4243 4287 
2 4261 4307 
2 4262 4265 
2 4262 4263 
2 4263 4308 
2 4286 4332 
2 4287 4288 
2 4288 4333 
2 4306 4353 
2 4306 4307 
2 4308 4309 
2 4309 4363 
2 4332 4387 
2 4333 4334 
2 4334 4388 
2 4353 4355 
2 4355 4357 
2 4357 4359 
2 4358 4411 
2 4358 4359 
2 4360 4363 
2 4360 4361 
2 4361 4422 
2 4387 4449 
2 4388 4450 
2 4411 4413 
2 4413 4415 
2 4415 4417 
2 4417 4419 
2 4419 4421 
2 4420 4479 
2 4420 4421 
2 4422 4423 
2 4423 4483 
2 4448 4449 
2 4448 4509 
2 4450 4451 
2 4451 4510 
2 4478 4539 
2 4478 4479 
2 4480 4483 
2 4480 4481 
2 4481 4551 
2 4509 4579 
2 4510 4511 
2 4511 4580 
2 4539 4541 
2 4541 4543 
2 4543 4545 
2 4545 4547 
2 4547 4549 
2 4549 4551 
2 4579 4641 
2 4580 4581 
2 4581 4642 
2 4640 4641 
2 4640 4701 
2 4642 4643 
2 4643 4702 
2 4701 4760 
2 4702 4703 
2 4703 4761 
2 4760 4818 
2 4761 4819 
2 4805 4806 
2 4805 4863 
2 4806 4807 
2 4807 4808 
2 4808 4864 
2 4818 4874 
2 4819 4875 
2 4863 4919 
2 4864 4920 
2 4874 4930 
2 4875 4931 
2 4918 4976 
2 4918 4919 
2 4920 4977 
2 4930 4987 
2 4931 4932 
2 4932 4988 
2 4975 5031 
2 4975 4976 
2 4977 5032 
2 4987 5042 
2 4988 5043 
2 5030 5085 
2 5030 5031 
2 5032 5086 
2 5042 5096 
2 5043 5097 
2 5083 5137 
2 5083 5084 
2 5084 5085 
2 5086 5138 
2 5096 5148 
2 5097 5149 
2 5118 5170 
2 5118 5119 
2 5119 5120 
2 5120 5121 
2 5121 5122 
2 5122 5123 
2 5123 5124 
2 5124 5125 
2 5125 5171 
2 5136 5182 
2 5136 5137 
2 5138 5183 
2 5148 5195 
2 5149 5196 
2 5169 5216 
2 5169 5170 
2 5171 5172 
2 5172 5173 
2 5173 5174 
2 5174 5175 
2 5175 5176 
2 5176 5177 
2 5177 5178 
2 5178 5179 
2 5179 5180 
2 5180 5181 
2 5181 5182 
2 5183 5184 
2 5184 5217 
2 5195 5228 
2 5196 5229 
2 5214 5247 
2 5214 5215 
2 5215 5216 
2 5217 5248 
2 5228 5259 
2 5229 5260 
2 5246 5277 
2 5246 5247 
2 5248 5278 
2 5259 5289 
2 5260 5261 
2 5261 5290 
2 5276 5305 
2 5276 5277 
2 5278 5306 
2 5289 5319 
2 5290 5320 
2 5303 5333 
2 5303 5304 
2 5304 5305 
2 5306 5307 
2 5307 5334 
2 5318 5319 
2 5318 5345 
2 5320 5346 
2 5332 5358 
2 5332 5333 
2 5334 5359 
2 5345 5370 
2 5346 5371 
2 5357 5382 
2 5357 5358 
2 5359 5383 
2 5370 5394 
2 5371 5395 
2 5381 5405 
2 5381 5382 
2 5383 5406 
2 5394 5417 
2 5395 5418 
2 5405 5428 
2 5406 5429 
2 5417 5440 
2 5418 5441 
2 5428 5453 
2 5429 5454 
2 5440 5467 
2 5441 5442 
2 5442 5468 
2 5453 5479 
2 5454 5455 
2 5455 5480 
2 5467 5492 
2 5468 5493 
2 5479 5504 
2 5480 5505 
2 5492 5517 
2 5493 5494 
2 5494 5518 
2 5503 5527 
2 5503 5504 
2 5505 5528 
2 5517 5540 
2 5518 5541 
2 5527 5550 
2 5528 5551 
2 5540 5563 
2 5541 5564 
2 5550 5573 
2 5551 5574 
2 5563 5586 
2 5564 5587 
2 5573 5596 
2 5574 5597 
2 5586 5609 
2 5587 5610 
2 5596 5619 
2 5597 5620 
2 5609 5634 
2 5610 5635 
2 5619 5644 
2 5620 5621 
2 5621 5645 
2 5634 5658 
2 5635 5659 
2 5644 5668 
2 5645 5669 
2 5658 5682 
2 5659 5683 
2 5668 5692 
2 5669 5693 
2 5682 5706 
2 5683 5707 
2 5692 5718 
2 5693 5719 
2 5706 5732 
2 5707 5733 
2 5717 5743 
2 5717 5718 
2 5719 5744 
2 5732 5757 
2 5733 5758 
2 5743 5768 
2 5744 5769 
2 5757 5784 
2 5758 5785 
2 5768 5795 
2 5769 5770 
2 5770 5796 
2 5783 5784 
2 5783 5809 
2 5785 5810 
2 5795 5822 
2 5796 5823 
2 5809 5836 
2 5810 5837 
2 5821 5848 
2 5821 5822 
2 5823 5849 
2 5836 5862 
2 5837 5863 
2 5848 5876 
2 5849 5877 
2 5862 5892 
2 5863 5893 
2 5875 5907 
2 5875 5876 
2 5877 5878 
2 5878 5908 
2 5891 5892 
2 5891 5921 
2 5893 5922 
2 5906 5937 
2 5906 5907 
2 5908 5938 
2 5921 5953 
2 5922 5923 
2 5923 5954 
2 5937 5970 
2 5938 5939 
2 5939 5971 
2 5953 5987 
2 5954 5988 
2 5969 6005 
2 5969 5970 
2 5971 5972 
2 5972 6008 
2 5987 6025 
2 5988 6026 
2 6005 6007 
2 6006 6045 
2 6006 6007 
2 6008 6009 
2 6009 6048 
2 6025 6066 
2 6026 6067 
2 6045 6047 
2 6046 6088 
2 6046 6047 
2 6048 6049 
2 6049 6100 
2 6066 6118 
2 6067 6119 
2 6088 6090 
2 6090 6092 
2 6092 6094 
2 6094 6096 
2 6095 6147 
2 6095 6096 
2 6097 6100 
2 6097 6098 
2 6098 6167 
2 6118 6187 
2 6119 6120 
2 6120 6188 
2 6147 6149 
2 6149 6151 
2 6151 6153 
2 6153 6155 
2 6155 6157 
2 6157 6159 
2 6159 6161 
2 6161 6163 
2 6163 6165 
2 6165 6167 
2 6187 6244 
2 6188 6245 
2 6244 6303 
2 6245 6304 
2 6302 6303 
2 6302 6361 
2 6304 6362 
2 6361 6419 
2 6362 6420 
2 6390 6391 
2 6390 6448 
2 6391 6392 
2 6392 6393 
2 6393 6394 
2 6394 6449 
2 6418 6419 
2 6418 6473 
2 6420 6474 
2 6445 6499 
2 6445 6446 
2 6446 6447 
2 6447 6448 
2 6449 6450 
2 6450 6451 
2 6451 6500 
2 6473 6522 
2 6474 6523 
2 6498 6547 
2 6498 6499 
2 6500 6501 
2 6501 6548 
2 6522 6569 
2 6523 6570 
2 6547 6594 
2 6548 6549 
2 6549 6595 
2 6569 6615 
2 6570 6616 
2 6594 6640 
2 6595 6596 
2 6596 6641 
2 6615 6660 
2 6616 6661 
2 6640 6685 
2 6641 6686 
2 6660 6705 
2 6661 6706 
2 6685 6730 
2 6686 6731 
2 6705 6752 
2 6706 6753 
2 6730 6779 
2 6731 6732 
2 6732 6780 
2 6752 6800 
2 6753 6801 
2 6778 6828 
2 6778 6779 
2 6780 6829 
2 6799 6800 
2 6799 6848 
2 6801 6849 
2 6827 6877 
2 6827 6828 
2 6829 6878 
2 6847 6848 
2 6847 6898 
2 6849 6899 
2 6876 6928 
2 6876 6877 
2 6878 6879 
2 6879 6929 
2 6898 6948 
2 6899 6949 
2 6927 6979 
2 6927 6928 
2 6929 6980 
2 6947 6948 
2 6947 7000 
2 6949 7001 
2 6978 7032 
2 6978 6979 
2 6980 6981 
2 6981 7038 
2 7000 7058 
2 7001 7059 
2 7032 7034 
2 7034 7036 
2 7036 7038 
2 7058 7114 
2 7059 7115 
2 7113 7114 
2 7113 7169 
2 7115 7170 
2 7169 7224 
2 7170 7225 
2 7224 7279 
2 7225 7280 
2 7279 7334 
2 7280 7335 
2 7333 7334 
2 7333 7388 
2 7335 7389 
2 7388 7442 
2 7389 7443 
2 7442 7496 
2 7443 7497 
2 7496 7550 
2 7497 7551 
2 7550 7604 
2 7551 7552 
2 7552 7605 
2 7604 7657 
2 7605 7658 
2 7657 7710 
2 7658 7711 
2 7709 7710 
2 7709 7762 
2 7711 7712 
2 7712 7763 
2 7762 7813 
2 7763 7814 
2 7813 7864 
2 7814 7865 
2 7864 7915 
2 7865 7916 
2 7914 7915 
2 7914 7965 
2 7916 7917 
2 7917 7966 
2 7955 7956 
2 7955 8004 
2 7956 7957 
2 7957 7958 
2 7958 8005 
2 7965 8012 
2 7966 8013 
2 8003 8050 
2 8003 8004 
2 8005 8051 
2 8012 8058 
2 8013 8059 
2 8049 8095 
2 8049 8050 
2 8051 8096 
2 8057 8058 
2 8057 8102 
2 8059 8060 
2 8060 8103 
2 8094 8137 
2 8094 8095 
2 8096 8138 
2 8102 8146 
2 8103 8147 
2 8137 8181 
2 8138 8139 
2 8139 8182 
2 8146 8189 
2 8147 8148 
2 8148 8190 
2 8180 8222 
2 8180 8181 
2 8182 8223 
2 8188 8189 
2 8188 8229 
2 8190 8230 
2 8222 8262 
2 8223 8263 
2 8229 8271 
2 8230 8272 
2 8261 8303 
2 8261 8262 
2 8263 8264 
2 8264 8304 
2 8271 8311 
2 8272 8273 
2 8273 8312 
2 8303 8342 
2 8304 8343 
2 8311 8350 
2 8312 8351 
2 8341 8380 
2 8341 8342 
2 8343 8381 
2 8349 8350 
2 8349 8387 
2 8351 8352 
2 8352 8388 
2 8379 8415 
2 8379 8380 
2 8381 8416 
2 8387 8424 
2 8388 8425 
2 8415 8452 
2 8416 8417 
2 8417 8453 
2 8424 8460 
2 8425 8461 
2 8452 8488 
2 8453 8489 
2 8459 8460 
2 8459 8495 
2 8461 8462 
2 8462 8496 
2 8488 8522 
2 8489 8523 
2 8495 8529 
2 8496 8530 
2 8521 8555 
2 8521 8522 
2 8523 8556 
2 8529 8564 
2 8530 8565 
2 8555 8590 
2 8556 8557 
2 8557 8591 
2 8563 8564 
2 8563 8597 
2 8565 8566 
2 8566 8598 
2 8590 8622 
2 8591 8623 
2 8597 8629 
2 8598 8630 
2 8621 8653 
2 8621 8622 
2 8623 8654 
2 8629 8662 
2 8630 8663 
2 8653 8686 
2 8654 8655 
2 8655 8687 
2 8662 8694 
2 8663 8664 
2 8664 8665 
2 8665 8695 
2 8685 8715 
2 8685 8686 
2 8687 8716 
2 8693 8694 
2 8693 8724 
2 8695 8725 
2 8715 8745 
2 8716 8717 
2 8717 8746 
2 8724 8755 
2 8725 8726 
2 8726 8756 
2 8745 8775 
2 8746 8747 
2 8747 8776 
2 8755 8786 
2 8756 8787 
2 8775 8806 
2 8776 8777 
2 8777 8807 
2 8785 8786 
2 8785 8817 
2 8787 8788 
2 8788 8818 
2 8806 8838 
2 8807 8808 
2 8808 8842 
2 8816 8817 
2 8816 8851 
2 8818 8852 
2 8838 8840 
2 8840 8842 
2 8850 8851 
2 8850 8881 
2 8852 8853 
2 8853 8882 
2 8880 8881 
2 8880 8909 
2 8882 8910 
2 8907 8908 
2 8907 8935 
2 8908 8909 
2 8910 8936 
2 8933 8934 
2 8933 8959 
2 8934 8935 
2 8936 8937 
2 8937 8960 
2 8957 8958 
2 8957 8980 
2 8958 8959 
2 8960 8981 
2 8977 8978 
2 8977 8998 
2 8978 8979 
2 8979 8980 
2 8981 8999 
2 8996 8997 
2 8996 9014 
2 8997 8998 
2 8999 9000 
2 9000 9015 
2 9010 9011 
2 9010 9025 
2 9011 9012 
2 9012 9013 
2 9013 9014 
2 9015 9016 
2 9016 9026 
2 9019 9020 
2 9019 9029 
2 9020 9021 
2 9021 9022 
2 9022 9023 
2 9023 9024 
2 9024 9025 
2 9026 9027 
2 9027 9028 
2 9028 9029 

CELL_TYPES 9646
9
9
9
9
9
9
9
9
9
9
9
9
9
9
9
9
9
9
9
9
9
9
9
9
9
9
9
9
9
9
9
9
9
9
9
9
9
9
9
9
9
9
9
9
9
9
9
9
9
9
9
9
9
9
9
9
9
9
9
9
9
9
9
9
9
9
9
9
9
9
9
9
9
9
9
9
9
9
9
9
9
9
9
9
9
9
9
9
9
9
9
9
9
9
9
9
9
9
9
9
9
9
9
9
9
9
9
9
9
9
9
9
9
9
9
9
9
9
9
9
9
9
9
9
9
9
9
9
9
9
9
9
9
9
9
9
9
9
9
9
9
9
9
9
9
9
9
9
9
9
9
9
9
9
9
9
9
9
9
9
9
9
9
9
9
9
9
9
9
9
9
9
9
9
9
9
9
9
9
9
9
9
9
9
9
9
9
9
9
9
9
9
9
9
9
9
9
9
9
9
9
9
9
9
9
9
9
9
9
9
9
9
9
9
9
9
9
9
9
9
9
9
9
9
9
9
9
9
9
9
9
9
9
9
9
9
9
9
9
9
9
9
9
9
9
9
9
9
9
9
9
9
9
9
9
9
9
9
9
9
9
9
9
9
9
9
9
9
9
9
9
9
9
9
9
9
9
9
9
9
9
9
9
9
9
9
9
9
9
9
9
9
9
9
9
9
9
9
9
9
9
9
9
9
9
9
9
9
9
9
9
9
9
9
9
9
9
9
9
9
9
9
9
9
9
9
9
9
9
9
9
9
9
9
9
9
9
9
9
9
9
9
9
9
9
9
9
9
9
9
9
9
9
9
9
9
9
9
9
9
9
9
9
9
9
9
9
9
9
9
9
9
9
9
9
9
9
9
9
9
9
9
9
9
9
9
9
9
9
9
9
9
9
9
9
9
9
9
9
9
9
9
9
9
9
9
9
9
9
9
9
9
9
9
9
9
9
9
9
9
9
9
9
9
9
9
9
9
9
9
9
9
9
9
9
9
9
9
9
9
9
9
9
9
9
9
9
9
9
9
9
9
9
9
9
9
9
9
9
9
9
9
9
9
9
9
9
9
9
9
9
9
9
9
9
9
9
9
9
9
9
9
9
9
9
9
9
9
9
9
9
9
9
9
9
9
9
9
9
9
9
9
9
9
9
9
9
9
9
9
9
9
9
9
9
9
9
9
9
9
9
9
9
9
9
9
9
9
9
9
9
9
9
9
9
9
9
9
9
9
9
9
9
9
9
9
9
9
9
9
9
9
9
9
9
9
9
9
9
9
9
9
9
9
9
9
9
9
9
9
9
9
9
9
9
9
9
9
9
9
9
9
9
9
9
9
9
9
9
9
9
9
9
9
9
9
9
9
9
9
9
9
9
9
9
9
9
9
9
9
9
9
9
9
9
9
9
9
9
9
9
9
9
9
9
9
9
9
9
9
9
9
9
9
9
9
9
9
9
9
9
9
9
9
9
9
9
9
9
9
9
9
9
9
9
9
9
9
9
9
9
9
9
9
9
9
9
9
9
9
9
9
9
9
9
9
9
9
9
9
9
9
9
9
9
9
9
9
9
9
9
9
9
9
9
9
9
9
9
9
9
9
9
9
9
9
9
9
9
9
9
9
9
9
9
9
9
9
9
9
9
9
9
9
9
9
9
9
9
9
9
9
9
9
9
9
9
9
9
9
9
9
9
9
9
9
9
9
9
9
9
9
9
9
9
9
9
9
9
9
9
9
9
9
9
9
9
9
9
9
9
9
9
9
9
9
9
9
9
9
9
9
9
9
9
9
9
9
9
9
9
9
9
9
9
9
9
9
9
9
9
9
9
9
9
9
9
9
9
9
9
9
9
9
9
9
9
9
9
9
9
9
9
9
9
9
9
9
9
9
9
9
9
9
9
9
9
9
9
9
9
9
9
9
9
9
9
9
9
9
9
9
9
9
9
9
9
9
9
9
9
9
9
9
9
9
9
9
9
9
9
9
9
9
9
9
9
9
9
9
9
9
9
9
9
9
9
9
9
9
9
9
9
9
9
9
9
9
9
9
9
9
9
9
9
9
9
9
9
9
9
9
9
9
9
9
9
9
9
9
9
9
9
9
9
9
9
9
9
9
9
9
9
9
9
9
9
9
9
9
9
9
9
9
9
9
9
9
9
9
9
9
9
9
9
9
9
9
9
9
9
9
9
9
9
9
9
9
9
9
9
9
9
9
9
9
9
9
9
9
9
9
9
9
9
9
9
9
9
9
9
9
9
9
9
9
9
9
9
9
9
9
9
9
9
9
9
9
9
9
9
9
9
9
9
9
9
9
9
9
9
9
9
9
9
9
9
9
9
9
9
9
9
9
9
9
9
9
9
9
9
9
9
9
9
9
9
9
9
9
9
9
9
9
9
9
9
9
9
9
9
9
9
9
9
9
9
9
9
9
9
9
9
9
9
9
9
9
9
9
9
9
9
9
9
9
9
9
9
9
9
9
9
9
9
9
9
9
9
9
9
9
9
9
9
9
9
9
9
9
9
9
9
9
9
9
9
9
9
9
9
9
9
9
9
9
9
9
9
9
9
9
9
9
9
9
9
9
9
9
9
9
9
9
9
9
9
9
9
9
9
9
9
9
9
9
9
9
9
9
9
9
9
9
9
9
9
9
9
9
9
9
9
9
9
9
9
9
9
9
9
9
9
9
9
9
9
9
9
9
9
9
9
9
9
9
9
9
9
9
9
9
9
9
9
9
9
9
9
9
9
9
9
9
9
9
9
9
9
9
9
9
9
9
9
9
9
9
9
9
9
9
9
9
9
9
9
9
9
9
9
9
9
9
9
9
9
9
9
9
9
9
9
9
9
9
9
9
9
9
9
9
9
9
9
9
9
9
9
9
9
9
9
9
9
9
9
9
9
9
9
9
9
9
9
9
9
9
9
9
9
9
9
9
9
9
9
9
9
9
9
9
9
9
9
9
9
9
9
9
9
9
9
9
9
9
9
9
9
9
9
9
9
9
9
9
9
9
9
9
9
9
9
9
9
9
9
9
9
9
9
9
9
9
9
9
9
9
9
9
9
9
9
9
9
9
9
9
9
9
9
9
9
9
9
9
9
9
9
9
9
9
9
9
9
9
9
9
9
9
9
9
9
9
9
9
9
9
9
9
9
9
9
9
9
9
9
9
9
9
9
9
9
9
9
9
9
9
9
9
9
9
9
9
9
9
9
9
9
9
9
9
9
9
9
9
9
9
9
9
9
9
9
9
9
9
9
9
9
9
9
9
9
9
9
9
9
9
9
9
9
9
9
9
9
9
9
9
9
9
9
9
9
9
9
9
9
9
9
9
9
9
9
9
9
9
9
9
9
9
9
9
9
9
9
9
9
9
9
9
9
9
9
9
9
9
9
9
9
9
9
9
9
9
9
9
9
9
9
9
9
9
9
9
9
9
9
9
9
9
9
9
9
9
9
9
9
9
9
9
9
9
9
9
9
9
9
9
9
9
9
9
9
9
9
9
9
9
9
9
9
9
9
9
9
9
9
9
9
9
9
9
9
9
9
9
9
9
9
9
9
9
9
9
9
9
9
9
9
9
9
9
9
9
9
9
9
9
9
9
9
9
9
9
9
9
9
9
9
9
9
9
9
9
9
9
9
9
9
9
9
9
9
9
9
9
9
9
9
9
9
9
9
9
9
9
9
9
9
9
9
9
9
9
9
9
9
9
9
9
9
9
9
9
9
9
9
9
9
9
9
9
9
9
9
9
9
9
9
9
9
9
9
9
9
9
9
9
9
9
9
9
9
9
9
9
9
9
9
9
9
9
9
9
9
9
9
9
9
9
9
9
9
9
9
9
9
9
9
9
9
9
9
9
9
9
9
9
9
9
9
9
9
9
9
9
9
9
9
9
9
9
9
9
9
9
9
9
9
9
9
9
9
9
9
9
9
9
9
9
9
9
9
9
9
9
9
9
9
9
9
9
9
9
9
9
9
9
9
9
9
9
9
9
9
9
9
9
9
9
9
9
9
9
9
9
9
9
9
9
9
9
9
9
9
9
9
9
9
9
9
9
9
9
9
9
9
9
9
9
9
9
9
9
9
9
9
9
9
9
9
9
9
9
9
9
9
9
9
9
9
9
9
9
9
9
9
9
9
9
9
9
9
9
9
9
9
9
9
9
9
9
9
9
9
9
9
9
9
9
9
9
9
9
9
9
9
9
9
9
9
9
9
9
9
9
9
9
9
9
9
9
9
9
9
9
9
9
9
9
9
9
9
9
9
9
9
9
9
9
9
9
9
9
9
9
9
9
9
9
9
9
9
9
9
9
9
9
9
9
9
9
9
9
9
9
9
9
9
9
9
9
9
9
9
9
9
9
9
9
9
9
9
9
9
9
9
9
9
9
9
9
9
9
9
9
9
9
9
9
9
9
9
9
9
9
9
9
9
9
9
9
9
9
9
9
9
9
9
9
9
9
9
9
9
9
9
9
9
9
9
9
9
9
9
9
9
9
9
9
9
9
9
9
9
9
9
9
9
9
9
9
9
9
9
9
9
9
9
9
9
9
9
9
9
9
9
9
9
9
9
9
9
9
9
9
9
9
9
9
9
9
9
9
9
9
9
9
9
9
9
9
9
9
9
9
9
9
9
9
9
9
9
9
9
9
9
9
9
9
9
9
9
9
9
9
9
9
9
9
9
9
9
9
9
9
9
9
9
9
9
9
9
9
9
9
9
9
9
9
9
9
9
9
9
9
9
9
9
9
9
9
9
9
9
9
9
9
9
9
9
9
9
9
9
9
9
9
9
9
9
9
9
9
9
9
9
9
9
9
9
9
9
9
9
9
9
9
9
9
9
9
9
9
9
9
9
9
9
9
9
9
9
9
9
9
9
9
9
9
9
9
9
9
9
9
9
9
9
9
9
9
9
9
9
9
9
9
9
9
9
9
9
9
9
9
9
9
9
9
9
9
9
9
9
9
9
9
9
9
9
9
9
9
9
9
9
9
9
9
9
9
9
9
9
9
9
9
9
9
9
9
9
9
9
9
9
9
9
9
9
9
9
9
9
9
9
9
9
9
9
9
9
9
9
9
9
9
9
9
9
9
9
9
9
9
9
9
9
9
9
9
9
9
9
9
9
9
9
9
9
9
9
9
9
9
9
9
9
9
9
9
9
9
9
9
9
9
9
9
9
9
9
9
9
9
9
9
9
9
9
9
9
9
9
9
9
9
9
9
9
9
9
9
9
9
9
9
9
9
9
9
9
9
9
9
9
9
9
9
9
9
9
9
9
9
9
9
9
9
9
9
9
9
9
9
9
9
9
9
9
9
9
9
9
9
9
9
9
9
9
9
9
9
9
9
9
9
9
9
9
9
9
9
9
9
9
9
9
9
9
9
9
9
9
9
9
9
9
9
9
9
9
9
9
9
9
9
9
9
9
9
9
9
9
9
9
9
9
9
9
9
9
9
9
9
9
9
9
9
9
9
9
9
9
9
9
9
9
9
9
9
9
9
9
9
9
9
9
9
9
9
9
9
9
9
9
9
9
9
9
9
9
9
9
9
9
9
9
9
9
9
9
9
9
9
9
9
9
9
9
9
9
9
9
9
9
9
9
9
9
9
9
9
9
9
9
9
9
9
9
9
9
9
9
9
9
9
9
9
9
9
9
9
9
9
9
9
9
9
9
9
9
9
9
9
9
9
9
9
9
9
9
9
9
9
9
9
9
9
9
9
9
9
9
9
9
9
9
9
9
9
9
9
9
9
9
9
9
9
9
9
9
9
9
9
9
9
9
9
9
9
9
9
9
9
9
9
9
9
9
9
9
9
9
9
9
9
9
9
9
9
9
9
9
9
9
9
9
9
9
9
9
9
9
9
9
9
9
9
9
9
9
9
9
9
9
9
9
9
9
9
9
9
9
9
9
9
9
9
9
9
9
9
9
9
9
9
9
9
9
9
9
9
9
9
9
9
9
9
9
9
9
9
9
9
9
9
9
9
9
9
9
9
9
9
9
9
9
9
9
9
9
9
9
9
9
9
9
9
9
9
9
9
9
9
9
9
9
9
9
9
9
9
9
9
9
9
9
9
9
9
9
9
9
9
9
9
9
9
9
9
9
9
9
9
9
9
9
9
9
9
9
9
9
9
9
9
9
9
9
9
9
9
9
9
9
9
9
9
9
9
9
9
9
9
9
9
9
9
9
9
9
9
9
9
9
9
9
9
9
9
9
9
9
9
9
9
9
9
9
9
9
9
9
9
9
9
9
9
9
9
9
9
9
9
9
9
9
9
9
9
9
9
9
9
9
9
9
9
9
9
9
9
9
9
9
9
9
9
9
9
9
9
9
9
9
9
9
9
9
9
9
9
9
9
9
9
9
9
9
9
9
9
9
9
9
9
9
9
9
9
9
9
9
9
9
9
9
9
9
9
9
9
9
9
9
9
9
9
9
9
9
9
9
9
9
9
9
9
9
9
9
9
9
9
9
9
9
9
9
9
9
9
9
9
9
9
9
9
9
9
9
9
9
9
9
9
9
9
9
9
9
9
9
9
9
9
9
9
9
9
9
9
9
9
9
9
9
9
9
9
9
9
9
9
9
9
9
9
9
9
9
9
9
9
9
9
9
9
9
9
9
9
9
9
9
9
9
9
9
9
9
9
9
9
9
9
9
9
9
9
9
9
9
9
9
9
9
9
9
9
9
9
9
9
9
9
9
9
9
9
9
9
9
9
9
9
9
9
9
9
9
9
9
9
9
9
9
9
9
9
9
9
9
9
9
9
9
9
9
9
9
9
9
9
9
9
9
9
9
9
9
9
9
9
9
9
9
9
9
9
9
9
9
9
9
9
9
9
9
9
9
9
9
9
9
9
9
9
9
9
9
9
9
9
9
9
9
9
9
9
9
9
9
9
9
9
9
9
9
9
9
9
9
9
9
9
9
9
9
9
9
9
9
9
9
9
9
9
9
9
9
9
9
9
9
9
9
9
9
9
9
9
9
9
9
9
9
9
9
9
9
9
9
9
9
9
9
9
9
9
9
9
9
9
9
9
9
9
9
9
9
9
9
9
9
9
9
9
9
9
9
9
9
9
9
9
9
9
9
9
9
9
9
9
9
9
9
9
9
9
9
9
9
9
9
9
9
9
9
9
9
9
9
9
9
9
9
9
9
9
9
9
9
9
9
9
9
9
9
9
9
9
9
9
9
9
9
9
9
9
9
9
9
9
9
9
9
9
9
9
9
9
9
9
9
9
9
9
9
9
9
9
9
9
9
9
9
9
9
9
9
9
9
9
9
9
9
9
9
9
9
9
9
9
9
9
9
9
9
9
9
9
9
9
9
9
9
9
9
9
9
9
9
9
9
9
9
9
9
9
9
9
9
9
9
9
9
9
9
9
9
9
9
9
9
9
9
9
9
9
9
9
9
9
9
9
9
9
9
9
9
9
9
9
9
9
9
9
9
9
9
9
9
9
9
9
9
9
9
9
9
9
9
9
9
9
9
9
9
9
9
9
9
9
9
9
9
9
9
9
9
9
9
9
9
9
9
9
9
9
9
9
9
9
9
9
9
9
9
9
9
9
9
9
9
9
9
9
9
9
9
9
9
9
9
9
9
9
9
9
9
9
9
9
9
9
9
9
9
9
9
9
9
9
9
9
9
9
9
9
9
9
9
9
9
9
9
9
9
9
9
9
9
9
9
9
9
9
9
9
9
9
9
9
9
9
9
9
9
9
9
9
9
9
9
9
9
9
9
9
9
9
9
9
9
9
9
9
9
9
9
9
9
9
9
9
9
9
9
9
9
9
9
9
9
9
9
9
9
9
9
9
9
9
9
9
9
9
9
9
9
9
9
9
9
9
9
9
9
9
9
9
9
9
9
9
9
9
9
9
9
9
9
9
9
9
9
9
9
9
9
9
9
9
9
9
9
9
9
9
9
9
9
9
9
9
9
9
9
9
9
9
9
9
9
9
9
9
9
9
9
9
9
9
9
9
9
9
9
9
9
9
9
9
9
9
9
9
9
9
9
9
9
9
9
9
9
9
9
9
9
9
9
9
9
9
9
9
9
9
9
9
9
9
9
9
9
9
9
9
9
9
9
9
9
9
9
9
9
9
9
9
9
9
9
9
9
9
9
9
9
9
9
9
9
9
9
9
9
9
9
9
9
9
9
9
9
9
9
9
9
9
9
9
9
9
9
9
9
9
9
9
9
9
9
9
9
9
9
9
9
9
9
9
9
9
9
9
9
9
9
9
9
9
9
9
9
9
9
9
9
9
9
9
9
9
9
9
9
9
9
9
9
9
9
9
9
9
9
9
9
9
9
9
9
9
9
9
9
9
9
9
9
9
9
9
9
9
9
9
9
9
9
9
9
9
9
9
9
9
9
9
9
9
9
9
9
9
9
9
9
9
9
9
9
9
9
9
9
9
9
9
9
9
9
9
9
9
9
9
9
9
9
9
9
9
9
9
9
9
9
9
9
9
9
9
9
9
9
9
9
9
9
9
9
9
9
9
9
9
9
9
9
9
9
9
9
9
9
9
9
9
9
9
9
9
9
9
9
9
9
9
9
9
9
9
9
9
9
9
9
9
9
9
9
9
9
9
9
9
9
9
9
9
9
9
9
9
9
9
9
9
9
9
9
9
9
9
9
9
9
9
9
9
9
9
9
9
9
9
9
9
9
9
9
9
9
9
9
9
9
9
9
9
9
9
9
9
9
9
9
9
9
9
9
9
9
9
9
9
9
9
9
9
9
9
9
9
9
9
9
9
9
9
9
9
9
9
9
9
9
9
9
9
9
9
9
9
9
9
9
9
9
9
9
9
9
9
9
9
9
9
9
9
9
9
9
9
9
9
9
9
9
9
9
9
9
9
9
9
9
9
9
9
9
9
9
9
9
9
9
9
9
9
9
9
9
9
9
9
9
9
9
9
9
9
9
9
9
9
9
9
9
9
9
9
9
9
9
9
9
9
9
9
9
9
9
9
9
9
9
9
9
9
9
9
9
9
9
9
9
9
9
9
9
9
9
9
9
9
9
9
9
9
9
9
9
9
9
9
9
9
9
9
9
9
9
9
9
9
9
9
9
9
9
9
9
9
9
9
9
9
9
9
9
9
9
9
9
9
9
9
9
9
9
9
9
9
9
9
9
9
9
9
9
9
9
9
9
9
9
9
9
9
9
9
9
9
9
9
9
9
9
9
9
9
9
9
9
9
9
9
9
9
9
9
9
9
9
9
9
9
9
9
9
9
9
9
9
9
9
9
9
9
9
9
9
9
9
9
9
9
9
9
9
9
9
9
9
9
9
9
9
9
9
9
9
9
9
9
9
9
9
9
9
9
9
9
9
9
9
9
9
9
9
9
9
9
9
9
9
9
9
9
9
9
9
9
9
9
9
9
9
9
9
9
9
9
9
9
9
9
9
9
9
9
9
9
9
9
9
9
9
9
9
9
9
9
9
9
9
9
9
9
9
9
9
9
9
9
9
9
9
9
9
9
9
9
9
9
9
9
9
9
9
9
9
9
9
9
9
9
9
9
9
9
9
9
9
9
9
9
9
9
9
9
9
9
9
9
9
9
9
9
9
9
9
9
9
9
9
9
9
9
9
9
9
9
9
9
9
9
9
9
9
9
9
9
9
9
9
9
9
9
9
9
9
9
9
9
9
9
9
9
9
9
9
9
9
9
9
9
9
9
9
9
9
9
9
9
9
9
9
9
9
9
9
9
9
9
9
9
9
9
9
9
9
9
9
9
9
9
9
9
9
9
9
9
9
9
9
9
9
9
9
9
9
9
9
9
9
9
9
9
9
9
9
9
9
9
9
9
9
9
9
9
9
9
9
9
9
9
9
9
9
9
9
9
9
9
9
9
9
9
9
9
9
9
9
9
9
9
9
9
9
9
9
9
9
9
9
9
9
9
9
9
9
9
9
9
9
9
9
9
9
9
9
9
9
9
9
9
9
9
9
9
9
9
9
9
9
9
9
9
9
9
9
9
9
9
9
9
9
9
9
9
9
9
9
9
9
9
9
9
9
9
9
9
9
9
9
9
9
9
9
9
9
9
9
9
9
9
9
9
9
9
9
9
9
9
9
9
9
9
9
9
9
9
9
9
9
9
9
9
9
9
9
9
9
9
9
9
9
9
9
9
9
9
9
9
9
9
9
9
9
9
9
9
9
9
9
9
9
9
9
9
9
9
9
9
9
9
9
9
9
9
9
9
9
9
9
9
9
9
9
9
9
9
9
9
9
9
9
9
9
9
9
9
9
9
9
9
9
9
9
9
9
9
9
9
9
9
9
9
9
9
9
9
9
9
9
9
9
9
9
9
9
9
9
9
9
9
9
9
9
9
9
9
9
9
9
9
9
9
9
9
9
9
9
9
9
9
9
9
9
9
9
9
9
9
9
9
9
9
9
9
9
9
9
9
9
9
9
9
9
9
9
9
9
9
9
9
9
9
9
9
9
9
9
9
9
9
9
9
9
9
9
9
9
9
9
9
9
9
9
9
9
9
9
9
9
9
9
9
9
9
9
9
9
9
9
9
9
9
9
9
9
9
9
9
9
9
9
9
9
9
9
9
9
9
9
9
9
9
9
9
9
9
9
9
9
9
9
9
9
9
9
9
9
9
9
9
9
9
9
9
9
9
9
9
9
9
9
9
9
9
9
9
9
9
9
9
9
9
9
9
9
9
9
9
9
9
9
9
9
9
9
9
9
9
9
9
9
9
9
9
9
9
9
9
9
9
9
9
9
9
9
9
9
9
9
9
9
9
9
9
9
9
9
9
9
9
9
9
9
9
9
9
9
9
9
9
9
9
9
9
9
9
9
9
9
9
9
9
9
9
9
9
9
9
9
9
9
9
9
9
9
9
9
9
9
9
9
9
9
9
9
9
9
9
9
9
9
9
9
9
9
9
9
9
9
9
9
9
9
9
9
9
9
9
9
9
9
9
9
9
9
9
9
9
9
9
9
9
9
9
9
9
9
9
9
9
9
9
9
9
9
9
9
9
9
9
9
9
9
9
9
9
9
9
9
9
9
9
9
9
9
9
9
9
9
9
9
9
9
9
9
9
9
9
9
9
9
9
9
9
9
9
9
9
9
9
9
9
9
9
9
9
9
9
9
9
9
9
9
9
9
9
9
9
9
9
9
9
9
9
9
9
9
9
9
9
9
9
9
9
9
9
9
9
9
9
9
9
9
9
9
9
9
9
9
9
9
9
9
9
9
9
9
9
9
9
9
9
9
9
9
9
9
9
9
9
9
9
9
9
9
9
9
9
9
9
9
9
9
9
9
9
9
9
9
9
9
9
9
9
9
9
9
9
9
9
9
9
9
9
9
9
9
9
9
9
9
9
9
9
9
9
9
9
9
9
9
9
9
9
9
9
9
9
9
9
9
9
9
9
9
9
9
9
9
9
9
9
9
9
9
9
9
9
9
9
9
9
9
9
9
9
9
9
9
9
9
9
9
9
9
9
9
9
9
9
9
9
9
9
9
9
9
9
9
9
9
9
9
9
9
9
9
9
9
9
9
9
9
9
9
9
9
9
9
9
9
9
9
9
9
9
9
9
9
9
9
9
9
9
9
9
9
9
9
9
9
9
9
9
9
9
9
9
9
9
9
9
9
9
9
9
9
9
9
9
9
9
9
9
9
9
9
9
9
9
9
9
9
9
9
9
9
9
9
9
9
9
9
9
9
9
9
9
9
9
9
9
9
9
9
9
9
9
9
9
9
9
9
9
9
9
9
9
9
9
9
9
9
9
9
9
9
9
9
9
9
9
9
9
9
9
9
9
9
9
9
9
9
9
9
9
9
9
9
9
9
9
9
9
9
9
9
9
9
9
9
9
9
9
9
9
9
9
9
9
9
9
9
9
9
9
9
9
9
9
9
9
9
9
9
9
9
9
9
9
9
9
9
9
9
9
9
9
9
9
9
9
9
9
9
9
9
9
9
9
9
9
9
9
9
9
9
9
9
9
9
9
9
9
9
9
9
9
9
9
9
9
9
9
9
9
9
9
9
9
9
9
9
9
9
9
9
9
9
9
9
9
9
9
9
9
9
9
9
9
9
9
9
9
9
9
9
9
9
9
9
9
9
9
9
9
9
9
9
9
9
9
9
9
9
9
9
9
9
9
9
9
9
9
9
9
9
9
9
9
9
9
9
9
9
9
9
9
9
9
9
9
9
9
9
9
9
9
9
9
9
9
9
9
9
9
9
9
9
9
9
9
9
9
9
9
9
9
9
9
9
9
9
9
9
9
9
9
9
9
9
9
9
9
9
9
9
9
9
9
9
9
9
9
9
9
9
9
9
9
9
9
9
9
9
9
9
9
9
9
9
9
9
9
9
9
9
9
9
9
9
9
9
9
9
9
9
9
9
9
9
9
9
9
9
9
9
9
9
9
9
9
9
9
9
9
9
9
9
9
9
9
9
9
9
9
9
9
9
9
9
9
9
9
9
9
9
9
9
9
9
9
9
9
9
9
9
9
9
9
9
9
9
9
9
9
9
9
9
9
9
9
9
9
9
9
9
9
9
9
9
9
9
9
9
9
9
9
9
9
9
9
9
9
9
9
9
9
9
9
9
9
9
9
9
9
9
9
9
9
9
9
9
9
9
9
9
9
9
9
9
9
9
9
9
9
9
9
9
9
9
9
9
9
9
9
9
9
9
9
9
9
9
9
9
9
9
9
9
9
9
9
9
9
9
9
9
9
9
9
9
9
9
9
9
9
9
9
9
9
9
9
9
9
9
9
9
9
9
9
9
9
9
9
9
9
9
9
9
9
9
9
9
9
9
9
9
9
9
9
9
9
9
9
9
9
9
9
9
9
9
9
9
9
9
9
9
9
9
9
9
9
9
9
9
9
9
9
9
9
9
9
9
9
9
9
9
9
9
9
9
9
9
9
9
9
9
9
9
9
9
9
9
9
9
9
9
9
9
9
9
9
9
9
9
9
9
9
9
9
9
9
9
9
9
9
9
9
9
9
9
9
9
9
9
9
9
9
9
9
9
9
9
9
9
9
9
9
9
9
9
9
9
9
9
9
9
9
9
9
9
9
9
9
9
9
9
9
9
9
9
9
9
9
9
9
9
9
9
9
9
9
9
9
9
9
9
9
9
9
9
9
9
9
9
9
9
9
9
9
9
9
9
9
9
9
9
9
9
9
9
9
9
9
9
9
9
9
9
9
9
9
9
9
9
9
9
9
9
9
9
9
9
9
9
9
9
9
9
9
9
9
9
9
9
9
9
9
9
9
9
9
9
9
9
9
9
9
9
9
9
9
9
9
9
9
9
9
9
9
9
9
9
9
9
9
9
9
9
9
9
9
9
9
9
9
9
9
9
9
9
9
9
9
9
9
9
9
9
9
9
9
9
9
9
9
9
9
9
9
9
9
9
9
9
9
9
9
9
9
9
9
9
9
9
9
9
9
9
9
9
9
9
9
9
9
9
9
9
9
9
9
9
9
9
9
9
9
9
9
9
9
9
9
9
9
9
9
9
9
9
9
9
9
9
9
9
9
9
9
9
9
9
9
9
9
9
9
9
9
9
9
9
9
9
9
9
9
9
9
9
9
9
9
9
9
9
9
9
9
9
9
9
9
9
9
9
9
9
9
9
9
9
9
9
9
9
9
9
9
9
9
9
9
9
9
9
9
9
9
9
9
9
9
9
9
9
9
9
9
9
9
9
9
9
9
9
9
9
9
9
9
9
9
9
9
9
9
9
9
9
9
9
9
9
9
9
9
9
9
9
9
9
9
9
9
9
9
9
9
9
9
9
9
9
9
9
9
9
9
9
9
9
9
9
9
9
9
9
9
9
9
9
9
9
9
9
9
9
9
9
9
9
9
9
9
9
9
9
9
9
9
9
9
9
9
9
9
9
9
9
9
9
9
9
9
9
9
9
9
9
9
9
9
9
9
9
9
9
9
9
9
9
9
9
9
9
9
9
9
9
9
9
9
9
9
9
9
9
9
9
9
9
9
9
9
9
9
9
9
9
9
9
9
9
9
9
9
9
9
9
9
9
9
9
9
9
9
9
9
9
9
9
9
9
9
9
9
9
9
9
9
9
9
9
9
9
9
9
9
9
9
9
9
9
9
9
9
9
9
9
9
9
9
9
9
9
9
9
9
9
9
9
9
9
9
9
9
9
9
9
9
9
9
9
9
9
9
9
9
9
9
9
9
9
9
9
9
9
9
9
9
9
9
9
9
9
9
9
9
9
9
9
9
9
9
9
9
9
9
9
9
9
9
9
9
9
9
9
9
9
9
9
9
9
9
9
9
9
9
9
9
9
9
9
9
9
9
9
9
9
9
9
9
9
9
9
9
9
9
9
9
9
9
9
9
9
9
9
9
9
9
9
9
9
9
9
9
9
9
9
9
9
9
9
9
9
9
9
9
9
9
9
9
9
9
9
9
9
9
9
9
9
9
9
9
9
9
9
9
9
9
9
9
9
9
9
9
9
9
9
9
9
9
9
9
9
9
9
9
9
9
9
9
9
9
9
9
9
9
9
9
9
9
9
9
9
9
9
9
9
9
9
9
9
9
9
9
9
9
9
9
9
9
9
9
9
9
9
9
9
9
9
9
9
9
9
9
9
9
9
9
9
9
9
9
9
9
9
9
9
9
9
9
9
9
9
9
9
9
9
9
9
9
9
9
9
9
9
9
9
9
9
9
9
9
9
9
9
9
9
9
9
9
9
9
9
9
9
9
9
9
9
9
9
9
9
9
9
9
9
9
9
9
9
9
9
9
9
9
9
9
9
9
9
9
9
9
9
9
9
9
9
9
9
9
9
9
9
9
9
9
9
9
9
9
9
9
9
9
9
9
9
9
9
9
9
9
9
9
9
9
9
9
9
9
9
9
9
9
9
9
9
9
9
9
9
9
9
9
9
9
9
9
9
9
9
9
9
9
9
9
9
9
9
9
9
9
9
9
9
9
9
9
9
9
9
9
9
9
9
9
9
9
9
9
9
9
9
9
9
9
9
9
9
9
9
9
9
9
9
9
9
9
9
9
9
9
9
9
9
9
9
9
9
9
9
9
9
9
9
9
9
9
9
9
9
9
9
9
9
9
9
9
9
9
9
9
9
9
9
9
9
9
9
9
9
9
9
9
9
9
9
9
9
9
9
9
9
9
9
9
9
9
9
9
9
9
9
9
9
9
9
9
9
9
9
9
9
9
9
9
9
9
9
9
9
9
9
9
9
9
9
9
9
9
9
9
9
9
9
9
9
9
9
9
9
9
9
9
9
9
9
9
9
9
9
9
9
9
9
9
9
9
9
9
9
9
9
9
9
9
9
9
9
9
9
9
9
9
9
9
9
9
9
9
9
9
9
9
9
9
9
9
9
9
9
9
9
9
9
9
9
9
9
9
9
9
9
9
9
9
9
9
9
9
9
9
9
9
9
9
9
9
9
9
9
9
9
9
9
9
9
9
9
9
9
9
9
9
9
9
9
9
9
9
9
9
9
9
9
9
9
9
9
9
9
9
9
9
9
9
9
9
9
9
9
9
9
9
9
9
9
9
9
9
9
9
9
9
9
9
9
9
9
9
9
9
9
9
9
9
9
9
9
9
9
9
9
9
9
9
9
9
9
9
9
9
9
9
9
9
9
9
9
9
9
9
9
9
9
9
9
9
9
9
9
9
9
9
9
9
9
9
9
9
9
9
9
9
9
9
9
9
9
9
9
9
9
9
9
9
9
9
9
9
9
9
9
9
9
9
9
9
9
9
9
9
9
9
9
9
9
9
9
9
9
9
9
9
9
9
9
9
9
9
9
9
9
9
9
9
9
9
9
9
9
9
9
9
9
9
9
9
9
9
9
9
9
9
9
9
9
9
9
9
9
9
9
9
9
9
9
9
9
9
9
9
9
9
9
9
9
9
9
9
9
9
9
9
9
9
9
9
9
9
9
9
9
9
9
9
9
9
9
9
9
9
9
9
9
9
9
9
9
9
9
9
9
9
9
9
9
9
9
9
9
9
9
9
9
9
9
9
9
9
9
9
9
9
9
9
9
9
9
9
9
9
9
9
9
9
9
9
9
9
9
9
9
9
9
9
9
9
9
9
9
9
9
9
9
9
9
9
9
9
9
9
9
9
9
9
9
9
9
9
9
9
9
9
9
9
9
9
9
9
9
9
9
9
9
9
9
9
9
9
9
9
9
9
9
9
9
9
9
9
9
9
9
9
9
9
9
9
9
9
9
9
9
9
9
9
9
9
9
9
9
9
9
9
9
9
9
9
9
9
9
9
9
9
9
9
9
9
9
9
9
9
9
9
9
9
9
9
9
9
9
9
9
9
9
9
9
9
9
9
9
9
9
9
9
9
9
9
9
9
9
9
9
9
9
9
9
9
9
9
9
9
9
9
9
9
9
9
9
9
9
9
9
9
9
9
9
9
9
9
9
9
9
9
9
9
9
9
9
9
9
9
9
9
9
9
9
9
9
9
9
9
9
9
9
9
9
9
9
9
9
9
9
9
9
9
9
9
9
9
9
9
9
9
9
9
9
9
9
9
9
9
9
9
9
9
9
9
9
9
9
9
9
9
9
9
9
9
9
9
9
9
9
9
9
9
9
9
9
9
9
9
9
9
9
9
9
9
9
9
9
9
9
9
9
9
9
9
9
9
9
9
9
9
9
9
9
9
9
9
9
9
9
9
9
9
9
9
9
9
9
9
9
9
9
9
9
9
9
9
9
9
9
9
9
9
9
9
9
9
9
9
9
9
9
9
9
9
9
9
9
9
9
9
9
9
9
9
9
9
9
9
9
9
9
9
9
9
9
9
9
9
9
9
9
9
9
9
9
9
9
9
9
9
9
9
9
9
9
9
9
9
9
9
9
9
9
9
9
9
9
9
9
9
9
9
9
9
9
9
9
9
9
9
9
9
9
9
9
9
9
9
9
9
9
9
9
9
9
9
9
9
9
9
9
9
9
9
9
9
9
9
9
9
9
9
9
9
9
9
9
9
9
9
9
9
9
9
9
9
9
9
9
9
9
9
9
9
9
9
9
9
9
9
9
9
9
9
9
9
9
9
9
9
9
9
9
9
9
9
9
9
9
9
9
9
9
9
9
9
9
9
9
9
9
9
9
9
9
9
9
9
9
9
9
9
9
9
9
9
9
9
9
9
9
9
9
9
9
9
9
9
9
9
9
9
9
9
9
9
9
9
9
9
9
9
9
9
9
9
9
9
9
9
9
9
9
9
9
9
9
9
9
9
9
9
9
9
9
9
9
9
9
9
9
9
9
9
9
9
9
9
9
9
9
9
9
9
9
9
9
9
9
9
9
9
9
9
9
9
9
9
9
9
9
9
9
9
9
9
9
9
9
9
9
9
9
9
9
9
9
9
9
9
9
9
9
9
9
9
9
9
9
9
9
9
9
9
9
9
9
9
9
9
9
9
9
9
9
9
9
9
9
9
9
9
9
9
9
9
9
9
9
9
9
9
9
9
9
9
9
9
9
9
9
9
9
9
9
9
9
9
9
9
9
9
9
9
9
9
9
9
9
9
9
9
9
9
9
9
9
9
9
9
9
9
9
9
9
9
9
9
9
9
9
9
9
9
9
9
9
9
9
9
9
9
9
9
9
9
9
9
9
9
9
9
9
9
9
9
9
9
9
9
9
9
9
9
9
9
9
9
9
9
9
9
9
9
9
9
9
9
9
9
9
9
9
9
9
9
9
9
9
9
9
9
9
9
9
9
9
9
9
9
9
9
9
9
9
9
9
9
9
9
9
9
9
9
9
9
9
9
9
9
9
9
9
9
9
9
9
9
9
9
9
9
9
9
9
9
9
9
9
9
9
9
9
9
9
9
9
9
9
9
9
9
9
9
9
9
9
9
9
9
9
9
9
9
9
9
9
9
9
9
9
9
9
9
9
9
9
9
9
9
9
9
9
9
9
9
9
9
9
9
9
9
9
9
9
9
9
9
9
9
9
9
9
9
9
9
9
9
9
9
9
9
9
9
9
9
9
9
9
9
9
9
9
9
9
9
9
9
9
9
9
9
9
9
9
9
9
9
9
9
9
9
9
9
9
9
9
9
9
9
9
9
9
9
9
9
9
9
9
9
9
9
9
9
9
9
9
9
9
9
9
9
9
9
9
9
9
9
9
9
9
9
9
9
9
9
9
9
9
9
9
9
9
9
9
9
9
9
9
9
9
9
9
9
9
9
9
9
9
9
9
9
9
9
9
9
9
9
9
9
9
9
9
9
9
9
9
9
9
9
9
9
9
9
9
9
9
9
9
9
9
9
9
9
9
9
9
9
9
9
9
9
9
9
9
9
9
9
9
9
9
9
9
9
9
9
9
9
9
9
9
9
9
9
9
9
9
9
9
9
9
9
9
9
9
9
9
9
9
9
9
9
9
9
9
9
9
9
9
9
9
9
9
9
9
9
9
9
9
9
9
9
9
9
9
9
9
9
9
9
9
9
9
9
9
9
9
9
9
9
9
9
9
9
9
9
9
9
9
9
9
9
9
9
9
9
9
9
9
9
9
9
9
9
9
9
9
9
9
9
9
9
9
9
9
9
9
9
9
9
9
9
9
9
9
9
9
9
9
9
9
9
9
9
9
9
9
9
9
9
9
9
9
9
9
9
9
9
9
9
9
9
9
9
9
9
9
9
9
9
9
9
9
9
9
9
9
9
9
9
9
9
9
9
9
9
9
9
9
9
9
9
9
9
9
9
9
9
9
9
9
9
9
9
9
9
9
9
9
9
9
9
9
9
9
9
9
9
9
9
9
9
9
9
9
9
9
9
9
9
9
9
9
9
9
9
9
9
9
9
9
9
9
9
9
9
9
9
9
9
9
9
9
9
9
9
9
9
9
9
9
9
9
9
9
9
9
9
9
9
9
9
9
9
9
9
9
9
9
9
9
9
9
9
9
9
9
9
9
9
9
9
9
9
9
9
9
9
9
9
9
9
9
9
9
9
9
9
3
3
3
3
3
3
3
3
3
3
3
3
3
3
3
3
3
3
3
3
3
3
3
3
3
3
3
3
3
3
3
3
3
3
3
3
3
3
3
3
3
3
3
3
3
3
3
3
3
3
3
3
3
3
3
3
3
3
3
3
3
3
3
3
3
3
3
3
3
3
3
3
3
3
3
3
3
3
3
3
3
3
3
3
3
3
3
3
3
3
3
3
3
3
3
3
3
3
3
3
3
3
3
3
3
3
3
3
3
3
3
3
3
3
3
3
3
3
3
3
3
3
3
3
3
3
3
3
3
3
3
3
3
3
3
3
3
3
3
3
3
3
3
3
3
3
3
3
3
3
3
3
3
3
3
3
3
3
3
3
3
3
3
3
3
3
3
3
3
3
3
3
3
3
3
3
3
3
3
3
3
3
3
3
3
3
3
3
3
3
3
3
3
3
3
3
3
3
3
3
3
3
3
3
3
3
3
3
3
3
3
3
3
3
3
3
3
3
3
3
3
3
3
3
3
3
3
3
3
3
3
3
3
3
3
3
3
3
3
3
3
3
3
3
3
3
3
3
3
3
3
3
3
3
3
3
3
3
3
3
3
3
3
3
3
3
3
3
3
3
3
3
3
3
3
3
3
3
3
3
3
3
3
3
3
3
3
3
3
3
3
3
3
3
3
3
3
3
3
3
3
3
3
3
3
3
3
3
3
3
3
3
3
3
3
3
3
3
3
3
3
3
3
3
3
3
3
3
3
3
3
3
3
3
3
3
3
3
3
3
3
3
3
3
3
3
3
3
3
3
3
3
3
3
3
3
3
3
3
3
3
3
3
3
3
3
3
3
3
3
3
3
3
3
3
3
3
3
3
3
3
3
3
3
3
3
3
3
3
3
3
3
3
3
3
3
3
3
3
3
3
3
3
3
3
3
3
3
3
3
3
3
3
3
3
3
3
3
3
3
3
3
3
3
3
3
3
3
3
3
3
3
3
3
3
3
3
3
3
3
3
3
3
3
3
3
3
3
3
3
3
3
3
3
3
3
3
3
3
3
3
3
3
3
3
3
3
3
3
3
3
3
3
3
3
3
3
3
3
3
3
3
3
3
3
3
3
3
3
3
3
3
3
3
3
3
3
3
3
3
3
3
3
3
3
3
3
3
3
3
3
3
3
3
3
3
3
3
3
3
3
3
3
3
3
3
3
3
3
3
3
3
3
3
3
3
3
3
3
3
3
3
3
3
3
3
3
3
3
3
3
3
3
3
3
3
3
3
3
3
3
3
3
3
3
3
3
3
3
3
3
3
3
3
3
3
3
3
3
3
3
3
3
3
3
3
3
3
3
3
3
3
3
3
3
3
3
3
3
3
3
3
3
3
3
3
3
3
3
3
3
3
3
3
3
3
3
3
3
3
3
3
3
3
3
3
3
3
3
3
3
3
3
3
3
3
3
3
3
3
3
3
3
3
3
3
3
3
3
3
3
3
3
3
3
3
3
3
3
3
3
3
3
3
3
3
3
3
3
3
3
3
3
3
3
3
3
3
3
3
3
3
3
3
3
3
3
3
3
3
3
3
3
3
3
3
3
3
3
3
3
3
3
3
3
3
3
3
3
3
3
3
3
3
3
3
3
3
3
3
3
3
3
3
3
3
3
3
3
3
3
3
3
3
3
3
3
3
3
3
3
3
3
3
3
3
3
3
3
3
3
3
3
3
3
3
3
3
3
3
3
3
3
3
3
3
3
3
3
3
3
3
3
3
3
3
3
3
3
3
3
3
3
3
3
3
3
3
3
3
3
3
3
3
3
3
3
3
3
3
3
3
3
3
3
3
3
3
3
3
3
3
3
3
3
3
3
3
3
3
3
3
3
3
3
3
3
3
3
3
3
3
3
3
3
3
3
3
3
3
3
3
3
3
3
3
3
3
3
3
3
3
3
3
3
3
3
3
3
3
3
3
3
3
3
3
3
3
3
3
3
3
3
3
3
3
3
3
3
3
3
3
3
3
3
3
3
3
3
3
3
3
3
3
3
3
3
3
3
3
3
3
3
3
3
3
3
3
3
3
3
3
3
3
3
3
3
3
3
3
3
3
3
3
3
3
3
3
3
3
3
3
3
3
3
3
3
3
3
3
3
3
3
3
3
3
3
3
3
3
3
3
3
3
3
3
3
3
3
3
3
3
3
3
3
3
3
3
3
3
3
3
3
3
3
3
3
3
3
3
3
3
3
3
3
3
3
3
3
3
3
3
3
3
3
3
3
3
3
3
3
3
3
3
3
3
3
3
3
3
3
3
3
3
3
3
3
3
3
3
3
3
3
3
3
3
3
3
3
3
3
3
3
3
3
3
3
3
3
3
3
3
3
3
3
3
3
3
3
3
3
3
3
3
3
3
3
3
3
3
3
3
3
3
3
3
3
3
3
3
3
3
3
3
3
3
3
3
3
3
3
3
3
3
3
3
3
3
3
3
3
3
3
3
3
3
3
3
3
3
3
3
3
3
3
3
3
3
3
3
3
3
3
3
3
3
3
3
3
3
3
3
3
3
3
3
3
3
3
3
3
3
3
3
3
3
3
3
3
3
3
3
3
3
3
3
3
3
3
3
3
3
3
3
3
3
3
3
3
3
3
3
3
3
3
3
3
3
3
3
3
3
3
3
3
3
3
3
3
3
3
3
3
3
3
3
3
3
3
3
3
3
3
3
3
3
3
3
3
3
3
3
3
3
3
3
3
3
3
3
3
3
3
3
3
3
3
3
3
3
3
3
3
3

 CELL_DATA        9646
SCALARS material int32
LOOKUP_TABLE default
           1
           1
           1
           1
           1
           1
           1
           1
           1
           1
           1
           1
           1
           1
           1
           1
           1
           1
           1
           1
           1
           1
           1
           1
           1
           1
           1
           1
           1
           1
           1
           1
           1
           1
           1
           1
           1
           1
           1
           1
           1
           1
           1
           1
           1
           1
           1
           1
           1
           1
           1
           1
           1
           1
           1
           1
           1
           1
           1
           1
           1
           1
           1
           1
           1
           1
           1
           1
           1
           1
           1
           1
           1
           1
           1
           1
           1
           1
           1
           1
           1
           1
           1
           1
           1
           1
           1
           1
           1
           1
           1
           1
           1
           1
           1
           1
           1
           1
           1
           1
           1
           1
           1
           1
           1
           1
           1
           1
           1
           1
           1
           1
           1
           1
           1
           1
           1
           1
           1
           1
           1
           1
           1
           1
           1
           1
           1
           1
           1
           1
           1
           1
           1
           1
           1
           1
           1
           1
           1
           1
           1
           1
           1
           1
           1
           1
           1
           1
           1
           1
           1
           1
           1
           1
           1
           1
           1
           1
           1
           1
           1
           1
           1
           1
           1
           1
           1
           1
           1
           1
           1
           1
           1
           1
           1
           1
           1
           1
           1
           1
           1
           1
           1
           1
           1
           1
           1
           1
           1
           1
           1
           1
           1
           1
           1
           1
           1
           1
           1
           1
           1
           1
           1
           1
           1
           1
           1
           1
           1
           1
           1
           1
           1
           1
           1
           1
           1
           1
           1
           1
           1
           1
           1
           1
           1
           1
           1
           1
           1
           1
           1
           1
           1
           1
           1
           1
           1
           1
           1
           1
           1
           1
           1
           1
           1
           1
           1
           1
           1
           1
           1
           1
           1
           1
           1
           1
           1
           1
           1
           1
           1
           1
           1
           1
           1
           1
           1
           1
           1
           1
           1
           1
           1
           1
           1
           1
           1
           1
           1
           1
           1
           1
           1
           1
           1
           1
           1
           1
           1
           1
           1
           1
           1
           1
           1
           1
           1
           1
           1
           1
           1
           1
           1
           1
           1
           1
           1
           1
           1
           1
           1
           1
           1
           1
           1
           1
           1
           1
           1
           1
           1
           1
           1
           1
           1
           1
           1
           1
           1
           1
           1
           1
           1
           1
           1
           1
           1
           1
           1
           1
           1
           1
           1
           1
           1
           1
           1
           1
           1
           1
           1
           1
           1
           1
           1
           1
           1
           1
           1
           1
           1
           1
           1
           1
           1
           1
           1
           1
           1
           1
           1
           1
           1
           1
           1
           1
           1
           1
           1
           1
           1
           1
           1
           1
           1
           1
           1
           1
           1
           1
           1
           1
           1
           1
           1
           1
           1
           1
           1
           1
           1
           1
           1
           1
           1
           1
           1
           1
           1
           1
           1
           1
           1
           1
           1
           1
           1
           1
           1
           1
           1
           1
           1
           1
           1
           1
           1
           1
           1
           1
           1
           1
           1
           1
           1
           1
           1
           1
           1
           1
           1
           1
           1
           1
           1
           1
           1
           1
           1
           1
           1
           1
           1
           1
           1
           1
           1
           1
           1
           1
           1
           1
           1
           1
           1
           1
           1
           1
           1
           1
           1
           1
           1
           1
           1
           1
           1
           1
           1
           1
           1
           1
           1
           1
           1
           1
           1
           1
           1
           1
           1
           1
           1
           1
           1
           1
           1
           1
           1
           1
           1
           1
           1
           1
           1
           1
           1
           1
           1
           1
           1
           1
           1
           1
           1
           1
           1
           1
           1
           1
           1
           1
           1
           1
           1
           1
           1
           1
           1
           1
           1
           1
           1
           1
           1
           1
           1
           1
           1
           1
           1
           1
           1
           1
           1
           1
           1
           1
           1
           1
           1
           1
           1
           1
           1
           1
           1
           1
           1
           1
           1
           1
           1
           1
           1
           1
           1
           1
           1
           1
           1
           1
           1
           1
           1
           1
           1
           1
           1
           1
           1
           1
           1
           1
           1
           1
           1
           1
           1
           1
           1
           1
           1
           1
           1
           1
           1
           1
           1
           1
           1
           1
           1
           1
           1
           1
           1
           1
           1
           1
           1
           1
           1
           1
           1
           1
           1
           1
           1
           1
           1
           1
           1
           1
           1
           1
           1
           1
           1
           1
           1
           1
           1
           1
           1
           1
           1
           1
           1
           1
           1
           1
           1
           1
           1
           1
           1
           1
           1
           1
           1
           1
           1
           1
           1
           1
           1
           1
           1
           1
           1
           1
           1
           1
           1
           1
           1
           1
           1
           1
           1
           1
           1
           1
           1
           1
           1
           1
           1
           1
           1
           1
           1
           1
           1
           1
           1
           1
           1
           1
           1
           1
           1
           1
           1
           1
           1
           1
           1
           1
           1
           1
           1
           1
           1
           1
           1
           1
           1
           1
           1
           1
           1
           1
           1
           1
           1
           1
           1
           1
           1
           1
           1
           1
           1
           1
           1
           1
           1
           1
           1
           1
           1
           1
           1
           1
           1
           1
           1
           1
           1
           1
           1
           1
           1
           1
           1
           1
           1
           1
           1
           1
           1
           1
           1
           1
           1
           1
           1
           1
           1
           1
           1
           1
           1
           1
           1
           1
           1
           1
           1
           1
           1
           1
           1
           1
           1
           1
           1
           1
           1
           1
           1
           1
           1
           1
           1
           1
           1
           1
           1
           1
           1
           1
           1
           1
           1
           1
           1
           1
           1
           1
           1
           1
           1
           1
           1
           1
           1
           1
           1
           1
           1
           1
           1
           1
           1
           1
           1
           1
           1
           1
           1
           1
           1
           1
           1
           1
           1
           1
           1
           1
           1
           1
           1
           1
           1
           1
           1
           1
           1
           1
           1
           1
           1
           1
           1
           1
           1
           1
           1
           1
           1
           1
           1
           1
           1
           1
           1
           1
           1
           1
           1
           1
           1
           1
           1
           1
           1
           1
           1
           1
           1
           1
           1
           1
           1
           1
           1
           1
           1
           1
           1
           1
           1
           1
           1
           1
           1
           1
           1
           1
           1
           1
           1
           1
           1
           1
           1
           1
           1
           1
           1
           1
           1
           1
           1
           1
           1
           1
           1
           1
           1
           1
           1
           1
           1
           1
           1
           1
           1
           1
           1
           1
           1
           1
           1
           1
           1
           1
           1
           1
           1
           1
           1
           1
           1
           1
           1
           1
           1
           1
           1
           1
           1
           1
           1
           1
           1
           1
           1
           1
           1
           1
           1
           1
           1
           1
           1
           1
           1
           1
           1
           1
           1
           1
           1
           1
           1
           1
           1
           1
           1
           1
           1
           1
           1
           1
           1
           1
           1
           1
           1
           1
           1
           1
           1
           1
           1
           1
           1
           1
           1
           1
           1
           1
           1
           1
           1
           1
           1
           1
           1
           1
           1
           1
           1
           1
           1
           1
           1
           1
           1
           1
           1
           1
           1
           1
           1
           1
           1
           1
           1
           1
           1
           1
           1
           1
           1
           1
           1
           1
           1
           1
           1
           1
           1
           1
           1
           1
           1
           1
           1
           1
           1
           1
           1
           1
           1
           1
           1
           1
           1
           1
           1
           1
           1
           1
           1
           1
           1
           1
           1
           1
           1
           1
           1
           1
           1
           1
           1
           1
           1
           1
           1
           1
           1
           1
           1
           1
           1
           1
           1
           1
           1
           1
           1
           1
           1
           1
           1
           1
           1
           1
           1
           1
           1
           1
           1
           1
           1
           1
           1
           1
           1
           1
           1
           1
           1
           1
           1
           1
           1
           1
           1
           1
           1
           1
           1
           1
           1
           1
           1
           1
           1
           1
           1
           1
           1
           1
           1
           1
           1
           1
           1
           1
           1
           1
           1
           1
           1
           1
           1
           1
           1
           1
           1
           1
           1
           1
           1
           1
           1
           1
           1
           1
           1
           1
           1
           1
           1
           1
           1
           1
           1
           1
           1
           1
           1
           1
           1
           1
           1
           1
           1
           1
           1
           1
           1
           1
           1
           1
           1
           1
           1
           1
           1
           1
           1
           1
           1
           1
           1
           1
           1
           1
           1
           1
           1
           1
           1
           1
           1
           1
           1
           1
           1
           1
           1
           1
           1
           1
           1
           1
           1
           1
           1
           1
           1
           1
           1
           1
           1
           1
           1
           1
           1
           1
           1
           1
           1
           1
           1
           1
           1
           1
           1
           1
           1
           1
           1
           1
           1
           1
           1
           1
           1
           1
           1
           1
           1
           1
           1
           1
           1
           1
           1
           1
           1
           1
           1
           1
           1
           1
           1
           1
           1
           1
           1
           1
           1
           1
           1
           1
           1
           1
           1
           1
           1
           1
           1
           1
           1
           1
           1
           1
           1
           1
           1
           1
           1
           1
           1
           1
           1
           1
           1
           1
           1
           1
           1
           1
           1
           1
           1
           1
           1
           1
           1
           1
           1
           1
           1
           1
           1
           1
           1
           1
           1
           1
           1
           1
           1
           1
           1
           1
           1
           1
           1
           1
           1
           1
           1
           1
           1
           1
           1
           1
           1
           1
           1
           1
           1
           1
           1
           1
           1
           1
           1
           1
           1
           1
           1
           1
           1
           1
           1
           1
           1
           1
           1
           1
           1
           1
           1
           1
           1
           1
           1
           1
           1
           1
           1
           1
           1
           1
           1
           1
           1
           1
           1
           1
           1
           1
           1
           1
           1
           1
           1
           1
           1
           1
           1
           1
           1
           1
           1
           1
           1
           1
           1
           1
           1
           1
           1
           1
           1
           1
           1
           1
           1
           1
           1
           1
           1
           1
           1
           1
           1
           1
           1
           1
           1
           1
           1
           1
           1
           1
           1
           1
           1
           1
           1
           1
           1
           1
           1
           1
           1
           1
           1
           1
           1
           1
           1
           1
           1
           1
           1
           1
           1
           1
           1
           1
           1
           1
           1
           1
           1
           1
           1
           1
           1
           1
           1
           1
           1
           1
           1
           1
           1
           1
           1
           1
           1
           1
           1
           1
           1
           1
           1
           1
           1
           1
           1
           1
           1
           1
           1
           1
           1
           1
           1
           1
           1
           1
           1
           1
           1
           1
           1
           1
           1
           1
           1
           1
           1
           1
           1
           1
           1
           1
           1
           1
           1
           1
           1
           1
           1
           1
           1
           1
           1
           1
           1
           1
           1
           1
           1
           1
           1
           1
           1
           1
           1
           1
           1
           1
           1
           1
           1
           1
           1
           1
           1
           1
           1
           1
           1
           1
           1
           1
           1
           1
           1
           1
           1
           1
           1
           1
           1
           1
           1
           1
           1
           1
           1
           1
           1
           1
           1
           1
           1
           1
           1
           1
           1
           1
           1
           1
           1
           1
           1
           1
           1
           1
           1
           1
           1
           1
           1
           1
           1
           1
           1
           1
           1
           1
           1
           1
           1
           1
           1
           1
           1
           1
           1
           1
           1
           1
           1
           1
           1
           1
           1
           1
           1
           1
           1
           1
           1
           1
           1
           1
           1
           1
           1
           1
           1
           1
           1
           1
           1
           1
           1
           1
           1
           1
           1
           1
           1
           1
           1
           1
           1
           1
           1
           1
           1
           1
           1
           1
           1
           1
           1
           1
           1
           1
           1
           1
           1
           1
           1
           1
           1
           1
           1
           1
           1
           1
           1
           1
           1
           1
           1
           1
           1
           1
           1
           1
           1
           1
           1
           1
           1
           1
           1
           1
           1
           1
           1
           1
           1
           1
           1
           1
           1
           1
           1
           1
           1
           1
           1
           1
           1
           1
           1
           1
           1
           1
           1
           1
           1
           1
           1
           1
           1
           1
           1
           1
           1
           1
           1
           1
           1
           1
           1
           1
           1
           1
           1
           1
           1
           1
           1
           1
           1
           1
           1
           1
           1
           1
           1
           1
           1
           1
           1
           1
           1
           1
           1
           1
           1
           1
           1
           1
           1
           1
           1
           1
           1
           1
           1
           1
           1
           1
           1
           1
           1
           1
           1
           1
           1
           1
           1
           1
           1
           1
           1
           1
           1
           1
           1
           1
           1
           1
           1
           1
           1
           1
           1
           1
           1
           1
           1
           1
           1
           1
           1
           1
           1
           1
           1
           1
           1
           1
           1
           1
           1
           1
           1
           1
           1
           1
           1
           1
           1
           1
           1
           1
           1
           1
           1
           1
           1
           1
           1
           1
           1
           1
           1
           1
           1
           1
           1
           1
           1
           1
           1
           1
           1
           1
           1
           1
           1
           1
           1
           1
           1
           1
           1
           1
           1
           1
           1
           1
           1
           1
           1
           1
           1
           1
           1
           1
           1
           1
           1
           1
           1
           1
           1
           1
           1
           1
           1
           1
           1
           1
           1
           1
           1
           1
           1
           1
           1
           1
           1
           1
           1
           1
           1
           1
           1
           1
           1
           1
           1
           1
           1
           1
           1
           1
           1
           1
           1
           1
           1
           1
           1
           1
           1
           1
           1
           1
           1
           1
           1
           1
           1
           1
           1
           1
           1
           1
           1
           1
           1
           1
           1
           1
           1
           1
           1
           1
           1
           1
           1
           1
           1
           1
           1
           1
           1
           1
           1
           1
           1
           1
           1
           1
           1
           1
           1
           1
           1
           1
           1
           1
           1
           1
           1
           1
           1
           1
           1
           1
           1
           1
           1
           1
           1
           1
           1
           1
           1
           1
           1
           1
           1
           1
           1
           1
           1
           1
           1
           1
           1
           1
           1
           1
           1
           1
           1
           1
           1
           1
           1
           1
           1
           1
           1
           1
           1
           1
           1
           1
           1
           1
           1
           1
           1
           1
           1
           1
           1
           1
           1
           1
           1
           1
           1
           1
           1
           1
           1
           1
           1
           1
           1
           1
           1
           1
           1
           1
           1
           1
           1
           1
           1
           1
           1
           1
           1
           1
           1
           1
           1
           1
           1
           1
           1
           1
           1
           1
           1
           1
           1
           1
           1
           1
           1
           1
           1
           1
           1
           1
           1
           1
           1
           1
           1
           1
           1
           1
           1
           1
           1
           1
           1
           1
           1
           1
           1
           1
           1
           1
           1
           1
           1
           1
           1
           1
           1
           1
           1
           1
           1
           1
           1
           1
           1
           1
           1
           1
           1
           1
           1
           1
           1
           1
           1
           1
           1
           1
           1
           1
           1
           1
           1
           1
           1
           1
           1
           1
           1
           1
           1
           1
           1
           1
           1
           1
           1
           1
           1
           1
           1
           1
           1
           1
           1
           1
           1
           1
           1
           1
           1
           1
           1
           1
           1
           1
           1
           1
           1
           1
           1
           1
           1
           1
           1
           1
           1
           1
           1
           1
           1
           1
           1
           1
           1
           1
           1
           1
           1
           1
           1
           1
           1
           1
           1
           1
           1
           1
           1
           1
           1
           1
           1
           1
           1
           1
           1
           1
           1
           1
           1
           1
           1
           1
           1
           1
           1
           1
           1
           1
           1
           1
           1
           1
           1
           1
           1
           1
           1
           1
           1
           1
           1
           1
           1
           1
           1
           1
           1
           1
           1
           1
           1
           1
           1
           1
           1
           1
           1
           1
           1
           1
           1
           1
           1
           1
           1
           1
           1
           1
           1
           1
           1
           1
           1
           1
           1
           1
           1
           1
           1
           1
           1
           1
           1
           1
           1
           1
           1
           1
           1
           1
           1
           1
           1
           1
           1
           1
           1
           1
           1
           1
           1
           1
           1
           1
           1
           1
           1
           1
           1
           1
           1
           1
           1
           1
           1
           1
           1
           1
           1
           1
           1
           1
           1
           1
           1
           1
           1
           1
           1
           1
           1
           1
           1
           1
           1
           1
           1
           1
           1
           1
           1
           1
           1
           1
           1
           1
           1
           1
           1
           1
           1
           1
           1
           1
           1
           1
           1
           1
           1
           1
           1
           1
           1
           1
           1
           1
           1
           1
           1
           1
           1
           1
           1
           1
           1
           1
           1
           1
           1
           1
           1
           1
           1
           1
           1
           1
           1
           1
           1
           1
           1
           1
           1
           1
           1
           1
           1
           1
           1
           1
           1
           1
           1
           1
           1
           1
           1
           1
           1
           1
           1
           1
           1
           1
           1
           1
           1
           1
           1
           1
           1
           1
           1
           1
           1
           1
           1
           1
           1
           1
           1
           1
           1
           1
           1
           1
           1
           1
           1
           1
           1
           1
           1
           1
           1
           1
           1
           1
           1
           1
           1
           1
           1
           1
           1
           1
           1
           1
           1
           1
           1
           1
           1
           1
           1
           1
           1
           1
           1
           1
           1
           1
           1
           1
           1
           1
           1
           1
           1
           1
           1
           1
           1
           1
           1
           1
           1
           1
           1
           1
           1
           1
           1
           1
           1
           1
           1
           1
           1
           1
           1
           1
           1
           1
           1
           1
           1
           1
           1
           1
           1
           1
           1
           1
           1
           1
           1
           1
           1
           1
           1
           1
           1
           1
           1
           1
           1
           1
           1
           1
           1
           1
           1
           1
           1
           1
           1
           1
           1
           1
           1
           1
           1
           1
           1
           1
           1
           1
           1
           1
           1
           1
           1
           1
           1
           1
           1
           1
           1
           1
           1
           1
           1
           1
           1
           1
           1
           1
           1
           1
           1
           1
           1
           1
           1
           1
           1
           1
           1
           1
           1
           1
           1
           1
           1
           1
           1
           1
           1
           1
           1
           1
           1
           1
           1
           1
           1
           1
           1
           1
           1
           1
           1
           1
           1
           1
           1
           1
           1
           1
           1
           1
           1
           1
           1
           1
           1
           1
           1
           1
           1
           1
           1
           1
           1
           1
           1
           1
           1
           1
           1
           1
           1
           1
           1
           1
           1
           1
           1
           1
           1
           1
           1
           1
           1
           1
           1
           1
           1
           1
           1
           1
           1
           1
           1
           1
           1
           1
           1
           1
           1
           1
           1
           1
           1
           1
           1
           1
           1
           1
           1
           1
           1
           1
           1
           1
           1
           1
           1
           1
           1
           1
           1
           1
           1
           1
           1
           1
           1
           1
           1
           1
           1
           1
           1
           1
           1
           1
           1
           1
           1
           1
           1
           1
           1
           1
           1
           1
           1
           1
           1
           1
           1
           1
           1
           1
           1
           1
           1
           1
           1
           1
           1
           1
           1
           1
           1
           1
           1
           1
           1
           1
           1
           1
           1
           1
           1
           1
           1
           1
           1
           1
           1
           1
           1
           1
           1
           1
           1
           1
           1
           1
           1
           1
           1
           1
           1
           1
           1
           1
           1
           1
           1
           1
           1
           1
           1
           1
           1
           1
           1
           1
           1
           1
           1
           1
           1
           1
           1
           1
           1
           1
           1
           1
           1
           1
           1
           1
           1
           1
           1
           1
           1
           1
           1
           1
           1
           1
           1
           1
           1
           1
           1
           1
           1
           1
           1
           1
           1
           1
           1
           1
           1
           1
           1
           1
           1
           1
           1
           1
           1
           1
           1
           1
           1
           1
           1
           1
           1
           1
           1
           1
           1
           1
           1
           1
           1
           1
           1
           1
           1
           1
           1
           1
           1
           1
           1
           1
           1
           1
           1
           1
           1
           1
           1
           1
           1
           1
           1
           1
           1
           1
           1
           1
           1
           1
           1
           1
           1
           1
           1
           1
           1
           1
           1
           1
           1
           1
           1
           1
           1
           1
           1
           1
           1
           1
           1
           1
           1
           1
           1
           1
           1
           1
           1
           1
           1
           1
           1
           1
           1
           1
           1
           1
           1
           1
           1
           1
           1
           1
           1
           1
           1
           1
           1
           1
           1
           1
           1
           1
           1
           1
           1
           1
           1
           1
           1
           1
           1
           1
           1
           1
           1
           1
           1
           1
           1
           1
           1
           1
           1
           1
           1
           1
           1
           1
           1
           1
           1
           1
           1
           1
           1
           1
           1
           1
           1
           1
           1
           1
           1
           1
           1
           1
           1
           1
           1
           1
           1
           1
           1
           1
           1
           1
           1
           1
           1
           1
           1
           1
           1
           1
           1
           1
           1
           1
           1
           1
           1
           1
           1
           1
           1
           1
           1
           1
           1
           1
           1
           1
           1
           1
           1
           1
           1
           1
           1
           1
           1
           1
           1
           1
           1
           1
           1
           1
           1
           1
           1
           1
           1
           1
           1
           1
           1
           1
           1
           1
           1
           1
           1
           1
           1
           1
           1
           1
           1
           1
           1
           1
           1
           1
           1
           1
           1
           1
           1
           1
           1
           1
           1
           1
           1
           1
           1
           1
           1
           1
           1
           1
           1
           1
           1
           1
           1
           1
           1
           1
           1
           1
           1
           1
           1
           1
           1
           1
           1
           1
           1
           1
           1
           1
           1
           1
           1
           1
           1
           1
           1
           1
           1
           1
           1
           1
           1
           1
           1
           1
           1
           1
           1
           1
           1
           1
           1
           1
           1
           1
           1
           1
           1
           1
           1
           1
           1
           1
           1
           1
           1
           1
           1
           1
           1
           1
           1
           1
           1
           1
           1
           1
           1
           1
           1
           1
           1
           1
           1
           1
           1
           1
           1
           1
           1
           1
           1
           1
           1
           1
           1
           1
           1
           1
           1
           1
           1
           1
           1
           1
           1
           1
           1
           1
           1
           1
           1
           1
           1
           1
           1
           1
           1
           1
           1
           1
           1
           1
           1
           1
           1
           1
           1
           1
           1
           1
           1
           1
           1
           1
           1
           1
           1
           1
           1
           1
           1
           1
           1
           1
           1
           1
           1
           1
           1
           1
           1
           1
           1
           1
           1
           1
           1
           1
           1
           1
           1
           1
           1
           1
           1
           1
           1
           1
           1
           1
           1
           1
           1
           1
           1
           1
           1
           1
           1
           1
           1
           1
           1
           1
           1
           1
           1
           1
           1
           1
           1
           1
           1
           1
           1
           1
           1
           1
           1
           1
           1
           1
           1
           1
           1
           1
           1
           1
           1
           1
           1
           1
           1
           1
           1
           1
           1
           1
           1
           1
           1
           1
           1
           1
           1
           1
           1
           1
           1
           1
           1
           1
           1
           1
           1
           1
           1
           1
           1
           1
           1
           1
           1
           1
           1
           1
           1
           1
           1
           1
           1
           1
           1
           1
           1
           1
           1
           1
           1
           1
           1
           1
           1
           1
           1
           1
           1
           1
           1
           1
           1
           1
           1
           1
           1
           1
           1
           1
           1
           1
           1
           1
           1
           1
           1
           1
           1
           1
           1
           1
           1
           1
           1
           1
           1
           1
           1
           1
           1
           1
           1
           1
           1
           1
           1
           1
           1
           1
           1
           1
           1
           1
           1
           1
           1
           1
           1
           1
           1
           1
           1
           1
           1
           1
           1
           1
           1
           1
           1
           1
           1
           1
           1
           1
           1
           1
           1
           1
           1
           1
           1
           1
           1
           1
           1
           1
           1
           1
           1
           1
           1
           1
           1
           1
           1
           1
           1
           1
           1
           1
           1
           1
           1
           1
           1
           1
           1
           1
           1
           1
           1
           1
           1
           1
           1
           1
           1
           1
           1
           1
           1
           1
           1
           1
           1
           1
           1
           1
           1
           1
           1
           1
           1
           1
           1
           1
           1
           1
           1
           1
           1
           1
           1
           1
           1
           1
           1
           1
           1
           1
           1
           1
           1
           1
           1
           1
           1
           1
           1
           1
           1
           1
           1
           1
           1
           1
           1
           1
           1
           1
           1
           1
           1
           1
           1
           1
           1
           1
           1
           1
           1
           1
           1
           1
           1
           1
           1
           1
           1
           1
           1
           1
           1
           1
           1
           1
           1
           1
           1
           1
           1
           1
           1
           1
           1
           1
           1
           1
           1
           1
           1
           1
           1
           1
           1
           1
           1
           1
           1
           1
           1
           1
           1
           1
           1
           1
           1
           1
           1
           1
           1
           1
           1
           1
           1
           1
           1
           1
           1
           1
           1
           1
           1
           1
           1
           1
           1
           1
           1
           1
           1
           1
           1
           1
           1
           1
           1
           1
           1
           1
           1
           1
           1
           1
           1
           1
           1
           1
           1
           1
           1
           1
           1
           1
           1
           1
           1
           1
           1
           1
           1
           1
           1
           1
           1
           1
           1
           1
           1
           1
           1
           1
           1
           1
           1
           1
           1
           1
           1
           1
           1
           1
           1
           1
           1
           1
           1
           1
           1
           1
           1
           1
           1
           1
           1
           1
           1
           1
           1
           1
           1
           1
           1
           1
           1
           1
           1
           1
           1
           1
           1
           1
           1
           1
           1
           1
           1
           1
           1
           1
           1
           1
           1
           1
           1
           1
           1
           1
           1
           1
           1
           1
           1
           1
           1
           1
           1
           1
           1
           1
           1
           1
           1
           1
           1
           1
           1
           1
           1
           1
           1
           1
           1
           1
           1
           1
           1
           1
           1
           1
           1
           1
           1
           1
           1
           1
           1
           1
           1
           1
           1
           1
           1
           1
           1
           1
           1
           1
           1
           1
           1
           1
           1
           1
           1
           1
           1
           1
           1
           1
           1
           1
           1
           1
           1
           1
           1
           1
           1
           1
           1
           1
           1
           1
           1
           1
           1
           1
           1
           1
           1
           1
           1
           1
           1
           1
           1
           1
           1
           1
           1
           1
           1
           1
           1
           1
           1
           1
           1
           1
           1
           1
           1
           1
           1
           1
           1
           1
           1
           1
           1
           1
           1
           1
           1
           1
           1
           1
           1
           1
           1
           1
           1
           1
           1
           1
           1
           1
           1
           1
           1
           1
           1
           1
           1
           1
           1
           1
           1
           1
           1
           1
           1
           1
           1
           1
           1
           1
           1
           1
           1
           1
           1
           1
           1
           1
           1
           1
           1
           1
           1
           1
           1
           1
           1
           1
           1
           1
           1
           1
           1
           1
           1
           1
           1
           1
           1
           1
           1
           1
           1
           1
           1
           1
           1
           1
           1
           1
           1
           1
           1
           1
           1
           1
           1
           1
           1
           1
           1
           1
           1
           1
           1
           1
           1
           1
           1
           1
           1
           1
           1
           1
           1
           1
           1
           1
           1
           1
           1
           1
           1
           1
           1
           1
           1
           1
           1
           1
           1
           1
           1
           1
           1
           1
           1
           1
           1
           1
           1
           1
           1
           1
           1
           1
           1
           1
           1
           1
           1
           1
           1
           1
           1
           1
           1
           1
           1
           1
           1
           1
           1
           1
           1
           1
           1
           1
           1
           1
           1
           1
           1
           1
           1
           1
           1
           1
           1
           1
           1
           1
           1
           1
           1
           1
           1
           1
           1
           1
           1
           1
           1
           1
           1
           1
           1
           1
           1
           1
           1
           1
           1
           1
           1
           1
           1
           1
           1
           1
           1
           1
           1
           1
           1
           1
           1
           1
           1
           1
           1
           1
           1
           1
           1
           1
           1
           1
           1
           1
           1
           1
           1
           1
           1
           1
           1
           1
           1
           1
           1
           1
           1
           1
           1
           1
           1
           1
           1
           1
           1
           1
           1
           1
           1
           1
           1
           1
           1
           1
           1
           1
           1
           1
           1
           1
           1
           1
           1
           1
           1
           1
           1
           1
           1
           1
           1
           1
           1
           1
           1
           1
           1
           1
           1
           1
           1
           1
           1
           1
           1
           1
           1
           1
           1
           1
           1
           1
           1
           1
           1
           1
           1
           1
           1
           1
           1
           1
           1
           1
           1
           1
           1
           1
           1
           1
           1
           1
           1
           1
           1
           1
           1
           1
           1
           1
           1
           1
           1
           1
           1
           1
           1
           1
           1
           1
           1
           1
           1
           1
           1
           1
           1
           1
           1
           1
           1
           1
           1
           1
           1
           1
           1
           1
           1
           1
           1
           1
           1
           1
           1
           1
           1
           1
           1
           1
           1
           1
           1
           1
           1
           1
           1
           1
           1
           1
           1
           1
           1
           1
           1
           1
           1
           1
           1
           1
           1
           1
           1
           1
           1
           1
           1
           1
           1
           1
           1
           1
           1
           1
           1
           1
           1
           1
           1
           1
           1
           1
           1
           1
           1
           1
           1
           1
           1
           1
           1
           1
           1
           1
           1
           1
           1
           1
           1
           1
           1
           1
           1
           1
           1
           1
           1
           1
           1
           1
           1
           1
           1
           1
           1
           1
           1
           1
           1
           1
           1
           1
           1
           1
           1
           1
           1
           1
           1
           1
           1
           1
           1
           1
           1
           1
           1
           1
           1
           1
           1
           1
           1
           1
           1
           1
           1
           1
           1
           1
           1
           1
           1
           1
           1
           1
           1
           1
           1
           1
           1
           1
           1
           1
           1
           1
           1
           1
           1
           1
           1
           1
           1
           1
           1
           1
           1
           1
           1
           1
           1
           1
           1
           1
           1
           1
           1
           1
           1
           1
           1
           1
           1
           1
           1
           1
           1
           1
           1
           1
           1
           1
           1
           1
           1
           1
           1
           1
           1
           1
           1
           1
           1
           1
           1
           1
           1
           1
           1
           1
           1
           1
           1
           1
           1
           1
           1
           1
           1
           1
           1
           1
           1
           1
           1
           1
           1
           1
           1
           1
           1
           1
           1
           1
           1
           1
           1
           1
           1
           1
           1
           1
           1
           1
           1
           1
           1
           1
           1
           1
           1
           1
           1
           1
           1
           1
           1
           1
           1
           1
           1
           1
           1
           1
           1
           1
           1
           1
           1
           1
           1
           1
           1
           1
           1
           1
           1
           1
           1
           1
           1
           1
           1
           1
           1
           1
           1
           1
           1
           1
           1
           1
           1
           1
           1
           1
           1
           1
           1
           1
           1
           1
           1
           1
           1
           1
           1
           1
           1
           1
           1
           1
           1
           1
           1
           1
           1
           1
           1
           1
           1
           1
           1
           1
           1
           1
           1
           1
           1
           1
           1
           1
           1
           1
           1
           1
           1
           1
           1
           1
           1
           1
           1
           1
           1
           1
           1
           1
           1
           1
           1
           1
           1
           1
           1
           1
           1
           1
           1
           1
           1
           1
           1
           1
           1
           1
           1
           1
           1
           1
           1
           1
           1
           1
           1
           1
           1
           1
           1
           1
           1
           1
           1
           1
           1
           1
           1
           1
           1
           1
           1
           1
           1
           1
           1
           1
           1
           1
           1
           1
           1
           1
           1
           1
           1
           1
           1
           1
           1
           1
           1
           1
           1
           1
           1
           1
           1
           1
           1
           1
           1
           1
           1
           1
           1
           1
           1
           1
           1
           1
           1
           1
           1
           1
           1
           1
           1
           1
           1
           1
           1
           1
           1
           1
           1
           1
           1
           1
           1
           1
           1
           1
           1
           1
           1
           1
           1
           1
           1
           1
           1
           1
           1
           1
           1
           1
           1
           1
           1
           1
           1
           1
           1
           1
           1
           1
           1
           1
           1
           1
           1
           1
           1
           1
           1
           1
           1
           1
           1
           1
           1
           1
           1
           1
           1
           1
           1
           1
           1
           1
           1
           1
           1
           1
           1
           1
           1
           1
           1
           1
           1
           1
           1
           1
           1
           1
           1
           1
           1
           1
           1
           1
           1
           1
           1
           1
           1
           1
           1
           1
           1
           1
           1
           1
           1
           1
           1
           1
           1
           1
           1
           1
           1
           1
           1
           1
           1
           1
           1
           1
           1
           1
           1
           1
           1
           1
           1
           1
           1
           1
           1
           1
           1
           1
           1
           1
           1
           1
           1
           1
           1
           1
           1
           1
           1
           1
           1
           1
           1
           1
           1
           1
           1
           1
           1
           1
           1
           1
           1
           1
           1
           1
           1
           1
           1
           1
           1
           1
           1
           1
           1
           1
           1
           1
           1
           1
           1
           1
           1
           1
           1
           1
           1
           1
           1
           1
           1
           1
           1
           1
           1
           1
           1
           1
           1
           1
           1
           1
           1
           1
           1
           1
           1
           1
           1
           1
           1
           1
           1
           1
           1
           1
           1
           1
           1
           1
           1
           1
           1
           1
           1
           1
           1
           1
           1
           1
           1
           1
           1
           1
           1
           1
           1
           1
           1
           1
           1
           1
           1
           1
           1
           1
           1
           1
           1
           1
           1
           1
           1
           1
           1
           1
           1
           1
           1
           1
           1
           1
           1
           1
           1
           1
           1
           1
           1
           1
           1
           1
           1
           1
           1
           1
           1
           1
           1
           1
           1
           1
           1
           1
           1
           1
           1
           1
           1
           1
           1
           1
           1
           1
           1
           1
           1
           1
           1
           1
           1
           1
           1
           1
           1
           1
           1
           1
           1
           1
           1
           1
           1
           1
           1
           1
           1
           1
           1
           1
           1
           1
           1
           1
           1
           1
           1
           1
           1
           1
           1
           1
           1
           1
           1
           1
           1
           1
           1
           1
           1
           1
           1
           1
           1
           1
           1
           1
           1
           1
           1
           1
           1
           1
           1
           1
           1
           1
           1
           1
           1
           1
           1
           1
           1
           1
           1
           1
           1
           1
           1
           1
           1
           1
           1
           1
           1
           1
           1
           1
           1
           1
           1
           1
           1
           1
           1
           1
           1
           1
           1
           1
           1
           1
           1
           1
           1
           1
           1
           1
           1
           1
           1
           1
           1
           1
           1
           1
           1
           1
           1
           1
           1
           1
           1
           1
           1
           1
           1
           1
           1
           1
           1
           1
           1
           1
           1
           1
           1
           1
           1
           1
           1
           1
           1
           1
           1
           1
           1
           1
           1
           1
           1
           1
           1
           1
           1
           1
           1
           1
           1
           1
           1
           1
           1
           1
           1
           1
           1
           1
           1
           1
           1
           1
           1
           1
           1
           1
           1
           1
           1
           1
           1
           1
           1
           1
           1
           1
           1
           1
           1
           1
           1
           1
           1
           1
           1
           1
           1
           1
           1
           1
           1
           1
           1
           1
           1
           1
           1
           1
           1
           1
           1
           1
           1
           1
           1
           1
           1
           1
           1
           1
           1
           1
           1
           1
           1
           1
           1
           1
           1
           1
           1
           1
           1
           1
           1
           1
           1
           1
           1
           1
           1
           1
           1
           1
           1
           1
           1
           1
           1
           1
           1
           1
           1
           1
           1
           1
           1
           1
           1
           1
           1
           1
           1
           1
           1
           1
           1
           1
           1
           1
           1
           1
           1
           1
           1
           1
           1
           1
           1
           1
           1
           1
           1
           1
           1
           1
           1
           1
           1
           1
           1
           1
           1
           1
           1
           1
           1
           1
           1
           1
           1
           1
           1
           1
           1
           1
           1
           1
           1
           1
           1
           1
           1
           1
           1
           1
           1
           1
           1
           1
           1
           1
           1
           1
           1
           1
           1
           1
           1
           1
           1
           1
           1
           1
           1
           1
           1
           1
           1
           1
           1
           1
           1
           1
           1
           1
           1
           1
           1
           1
           1
           1
           1
           1
           1
           1
           1
           1
           1
           1
           1
           1
           1
           1
           1
           1
           1
           1
           1
           1
           1
           1
           1
           1
           1
           1
           1
           1
           1
           1
           1
           1
           1
           1
           1
           1
           1
           1
           1
           1
           1
           1
           1
           1
           1
           1
           1
           1
           1
           1
           1
           1
           1
           1
           1
           1
           1
           1
           1
           1
           1
           1
           1
           1
           1
           1
           1
           1
           1
           1
           1
           1
           1
           1
           1
           1
           1
           1
           1
           1
           1
           1
           1
           1
           1
           1
           1
           1
           1
           1
           1
           1
           1
           1
           1
           1
           1
           1
           1
           1
           1
           1
           1
           1
           1
           1
           1
           1
           1
           1
           1
           1
           1
           1
           1
           1
           1
           1
           1
           1
           1
           1
           1
           1
           1
           1
           1
           1
           1
           1
           1
           1
           1
           1
           1
           1
           1
           1
           1
           1
           1
           1
           1
           1
           1
           1
           1
           1
           1
           1
           1
           1
           1
           1
           1
           1
           1
           1
           1
           1
           1
           1
           1
           1
           1
           1
           1
           1
           1
           1
           1
           1
           1
           1
           1
           1
           1
           1
           1
           1
           1
           1
           1
           1
           1
           1
           1
           1
           1
           1
           1
           1
           1
           1
           1
           1
           1
           1
           1
           1
           1
           1
           1
           1
           1
           1
           1
           1
           1
           1
           1
           1
           1
           1
           1
           1
           1
           1
           1
           1
           1
           1
           1
           1
           1
           1
           1
           1
           1
           1
           1
           1
           1
           1
           1
           1
           1
           1
           1
           1
           1
           1
           1
           1
           1
           1
           1
           1
           1
           1
           1
           1
           1
           1
           1
           1
           1
           1
           1
           1
           1
           1
           1
           1
           1
           1
           1
           1
           1
           1
           1
           1
           1
           1
           1
           1
           1
           1
           1
           1
           1
           1
           1
           1
           1
           1
           1
           1
           1
           1
           1
           1
           1
           1
           1
           1
           1
           1
           1
           1
           1
           1
           1
           1
           1
           1
           1
           1
           1
           1
           1
           1
           1
           1
           1
           1
           1
           1
           1
           1
           1
           1
           1
           1
           1
           1
           1
           1
           1
           1
           1
           1
           1
           1
           1
           1
           1
           1
           1
           1
           1
           1
           1
           1
           1
           1
           1
           1
           1
           1
           1
           1
           1
           1
           1
           1
           1
           1
           1
           1
           1
           1
           1
           1
           1
           1
           1
           1
           1
           1
           1
           1
           1
           1
           1
           1
           1
           1
           1
           1
           1
           1
           1
           1
           1
           1
           1
           1
           1
           1
           1
           1
           1
           1
           1
           1
           1
           1
           1
           1
           1
           1
           1
           1
           1
           1
           1
           1
           1
           1
           1
           1
           1
           1
           1
           1
           1
           1
           1
           1
           1
           1
           1
           1
           1
           1
           1
           1
           1
           1
           1
           1
           1
           1
           1
           1
           1
           1
           1
           1
           1
           1
           1
           1
           1
           1
           1
           1
           1
           1
           1
           1
           1
           1
           1
           1
           1
           1
           1
           1
           1
           1
           1
           1
           1
           1
           1
           1
           1
           1
           1
           1
           1
           1
           1
           1
           1
           1
           1
           1
           1
           1
           1
           1
           1
           1
           1
           1
           1
           1
           1
           1
           1
           1
           1
           1
           1
           1
           1
           1
           1
           1
           1
           1
           1
           1
           1
           1
           1
           1
           1
           1
           1
           1
           1
           1
           1
           1
           1
           1
           1
           1
           1
           1
           1
           1
           1
           1
           1
           1
           1
           1
           1
           1
           1
           1
           1
           1
           1
           1
           1
           1
           1
           1
           1
           1
           1
           1
           1
           1
           1
           1
           1
           1
           1
           1
           1
           1
           1
           1
           1
           1
           1
           1
           1
           1
           1
           1
           1
           1
           1
           1
           1
           1
           1
           1
           1
           1
           1
           1
           1
           1
           1
           1
           1
           1
           1
           1
           1
           1
           1
           1
           1
           1
           1
           1
           1
           1
           1
           1
           1
           1
           1
           1
           1
           1
           1
           1
           1
           1
           1
           1
           1
           1
           1
           1
           1
           1
           1
           1
           1
           1
           1
           1
           1
           1
           1
           1
           1
           1
           1
           1
           1
           1
           1
           1
           1
           1
           1
           1
           1
           1
           1
           1
           1
           1
           1
           1
           1
           1
           1
           1
           1
           1
           1
           1
           1
           1
           1
           1
           1
           1
           1
           1
           1
           1
           1
           1
           1
           1
           1
           1
           1
           1
           1
           1
           1
           1
           1
           1
           1
           1
           1
           1
           1
           1
           1
           1
           1
           1
           1
           1
           1
           1
           1
           1
           1
           1
           1
           1
           1
           1
           1
           1
           1
           1
           1
           1
           1
           1
           1
           1
           1
           1
           1
           1
           1
           1
           1
           1
           1
           1
           1
           1
           1
           1
           1
           1
           1
           1
           1
           1
           1
           1
           1
           1
           1
           1
           1
           1
           1
           1
           1
           1
           1
           1
           1
           1
           1
           1
           1
           1
           1
           1
           1
           1
           1
           1
           1
           1
           1
           1
           1
           1
           1
           1
           1
           1
           1
           1
           1
           1
           1
           1
           1
           1
           1
           1
           1
           1
           1
           1
           1
           1
           1
           1
           1
           1
           1
           1
           1
           1
           1
           1
           1
           1
           1
           1
           1
           1
           1
           1
           1
           1
           1
           1
           1
           1
           1
           1
           1
           1
           1
           1
           1
           1
           1
           1
           1
           1
           1
           1
           1
           1
           1
           1
           1
           1
           1
           1
           1
           1
           1
           1
           1
           1
           1
           1
           1
           1
           1
           1
           1
           1
           1
           1
           1
           1
           1
           1
           1
           1
           1
           1
           1
           1
           1
           1
           1
           1
           1
           1
           1
           1
           1
           1
           1
           1
           1
           1
           1
           1
           1
           1
           1
           1
           1
           1
           1
           1
           1
           1
           1
           1
           1
           1
           1
           1
           1
           1
           1
           1
           1
           1
           1
           1
           1
           1
           1
           1
           1
           1
           1
           1
           1
           1
           1
           1
           1
           1
           1
           1
           1
           1
           1
           1
           1
           1
           1
           1
           1
           1
           1
           1
           1
           1
           1
           1
           1
           1
           1
           1
           1
           1
           1
           1
           1
           1
           1
           1
           1
           1
           1
           1
           1
           1
           1
           1
           1
           1
           1
           1
           1
           1
           1
           1
           1
           1
           1
           1
           1
           1
           1
           1
           1
           1
           1
           1
           1
           1
           1
           1
           1
           1
           1
           1
           1
           1
           1
           1
           1
           1
           1
           1
           1
           1
           1
           1
           1
           1
           1
           1
           1
           1
           1
           1
           1
           1
           1
           1
           1
           1
           1
           1
           1
           1
           1
           1
           1
           1
           1
           1
           1
           1
           1
           1
           1
           1
           1
           1
           1
           1
           1
           1
           1
           1
           1
           1
           1
           1
           1
           1
           1
           1
           1
           1
           1
           1
           1
           1
           1
           1
           1
           1
           1
           1
           1
           1
           1
           1
           1
           1
           1
           1
           1
           1
           1
           1
           1
           1
           1
           1
           1
           1
           1
           1
           1
           1
           1
           1
           1
           1
           1
           1
           1
           1
           1
           1
           1
           1
           1
           1
           1
           1
           1
           1
           1
           1
           1
           1
           1
           1
           1
           1
           1
           1
           1
           1
           1
           1
           1
           1
           1
           1
           1
           1
           1
           1
           1
           1
           1
           1
           1
           1
           1
           1
           1
           1
           1
           1
           1
           1
           1
           1
           1
           1
           1
           1
           1
           1
           1
           1
           1
           1
           1
           1
           1
           1
           1
           1
           1
           1
           1
           1
           1
           1
           1
           1
           1
           1
           1
           1
           1
           1
           1
           1
           1
           1
           1
           1
           1
           1
           1
           1
           1
           1
           1
           1
           1
           1
           1
           1
           1
           1
           1
           1
           1
           1
           1
           1
           1
           1
           1
           1
           1
           1
           1
           1
           1
           1
           1
           1
           1
           1
           1
           1
           1
           1
           1
           1
           1
           1
           1
           1
           1
           1
           1
           1
           1
           1
           1
           1
           1
           1
           1
           1
           1
           1
           1
           1
           1
           1
           1
           1
           1
           1
           1
           1
           1
           1
           1
           1
           1
           1
           1
           1
           1
           1
           1
           1
           1
           1
           1
           1
           1
           1
           1
           1
           1
           1
           1
           1
           1
           1
           1
           1
           1
           1
           1
           1
           1
           1
           1
           1
           1
           1
           1
           1
           1
           1
           1
           1
           1
           1
           1
           1
           1
           1
           1
           1
           1
           1
           1
           1
           1
           1
           1
           1
           1
           1
           1
           1
           1
           1
           1
           1
           1
           1
           1
           1
           1
           1
           1
           1
           1
           1
           1
           1
           1
           1
           1
           1
           1
           1
           1
           1
           1
           1
           1
           1
           1
           1
           1
           1
           1
           1
           1
           1
           1
           1
           1
           1
           1
           1
           1
           1
           1
           1
           1
           1
           1
           1
           1
           1
           1
           1
           1
           1
           1
           1
           1
           1
           1
           1
           1
           1
           1
           1
           1
           1
           1
           1
           1
           1
           1
           1
           1
           1
           1
           1
           1
           1
           1
           1
           1
           1
           1
           1
           1
           1
           1
           1
           1
           1
           1
           1
           1
           1
           1
           1
           1
           1
           1
           1
           1
           1
           1
           1
           1
           1
           1
           1
           1
           1
           1
           1
           1
           1
           1
           1
           1
           1
           1
           1
           1
           1
           1
           1
           1
           1
           1
           1
           1
           1
           1
           1
           1
           1
           1
           1
           1
           1
           1
           1
           1
           1
           1
           1
           1
           1
           1
           1
           1
           1
           1
           1
           1
           1
           1
           1
           1
           1
           1
           1
           1
           1
           1
           1
           1
           1
           1
           1
           1
           1
           1
           1
           1
           1
           1
           1
           1
           1
           1
           1
           1
           1
           1
           1
           1
           1
           1
           1
           1
           1
           1
           1
           1
           1
           1
           1
           1
           1
           1
           1
           1
           1
           1
           1
           1
           1
           1
           1
           1
           1
           1
           1
           1
           1
           1
           1
           1
           1
           1
           1
           1
           1
           1
           1
           1
           1
           1
           1
           1
           1
           1
           1
           1
           1
           1
           1
           1
           1
           1
           1
           1
           1
           1
           1
           1
           1
           1
           1
           1
           1
           1
           1
           1
           1
           1
           1
           1
           1
           1
           1
           1
           1
           1
           1
           1
           1
           1
           1
           1
           1
           1
           1
           1
           1
           1
           1
           1
           1
           1
           1
           1
           1
           1
           1
           1
           1
           1
           1
           1
           1
           1
           1
           1
           1
           1
           1
           1
           1
           1
           1
           1
           1
           1
           1
           1
           1
           1
           1
           1
           1
           1
           1
           1
           1
           1
           1
           1
           1
           1
           1
           1
           1
           1
           1
           1
           1
           1
           1
           1
           1
           1
           1
           1
           1
           1
           1
           1
           1
           1
           1
           1
           1
           1
           1
           1
           1
           1
           1
           1
           1
           1
           1
           1
           1
           1
           1
           1
           1
           1
           1
           1
           1
           1
           1
           1
           1
           1
           1
           1
           1
           1
           1
           1
           1
           1
           1
           1
           1
           1
           1
           1
           1
           1
           1
           1
           1
           1
           1
           1
           1
           1
           1
           1
           1
           1
           1
           1
           1
           1
           1
           1
           1
           1
           1
           1
           1
           1
           1
           1
           1
           1
           1
           1
           1
           1
           1
           1
           1
           1
           1
           1
           1
           1
           1
           1
           1
           1
           1
           1
           1
           1
           1
           1
           1
           1
           1
           1
           1
           1
           1
           1
           1
           1
           1
           1
           1
           1
           1
           1
           1
           1
           1
           1
           1
           1
           1
           1
           1
           1
           1
           1
           1
           1
           1
           1
           1
           1
           1
           1
           1
           1
           1
           1
           1
           1
           1
           1
           1
           1
           1
           1
           1
           1
           1
           1
           1
           1
           1
           1
           1
           1
           1
           1
           1
           1
           1
           1
           1
           1
           1
           1
           1
           1
           1
           1
           1
           1
           1
           1
           1
           1
           1
           1
           1
           1
           1
           1
           1
           1
           1
           1
           1
           1
           1
           1
           1
           1
           1
           1
           1
           1
           1
           1
           1
           1
           1
           1
           1
           1
           1
           1
           1
           1
           1
           1
           1
           1
           1
           1
           1
           1
           1
           1
           1
           1
           1
           1
           1
           1
           1
           1
           1
           1
           1
           1
           1
           1
           1
           1
           1
           1
           1
           1
           1
           1
           1
           1
           1
           1
           1
           1
           1
           1
           1
           1
           1
           1
           1
           1
           1
           1
           1
           1
           1
           1
           1
           1
           1
           1
           1
           1
           1
           1
           1
           1
           1
           1
           1
           1
           1
           1
           1
           1
           1
           1
           1
           1
           1
           1
           1
           1
           1
           1
           1
           1
           1
           1
           1
           1
           1
           1
           1
           1
           1
           1
           1
           1
           1
           1
           1
           1
           1
           1
           1
           1
           1
           1
           1
           1
           1
           1
           1
           1
           1
           1
           1
           1
           1
           1
           1
           1
           1
           1
           1
           1
           1
           1
           1
           1
           1
           1
           1
           1
           1
           1
           1
           1
           1
           1
           1
           1
           1
           1
           1
           1
           1
           1
           1
           1
           1
           1
           1
           1
           1
           1
           1
           1
           1
           1
           1
           1
           1
           1
           1
           1
           1
           1
           1
           1
           1
           1
           1
           1
           1
           1
           1
           1
           1
           1
           1
           1
           1
           1
           1
           1
           1
           1
           1
           1
           1
           1
           1
           1
           1
           1
           1
           1
           1
           1
           1
           1
           1
           1
           1
           1
           1
           1
           1
           1
           1
           1
           1
           1
           1
           1
           1
           1
           1
           1
           1
           1
           1
           1
           1
           1
           1
           1
           1
           1
           1
           1
           1
           1
           1
           1
           1
           1
           1
           1
           1
           1
           1
           1
           1
           1
           1
           1
           1
           1
           1
           1
           1
           1
           1
           1
           1
           1
           1
           1
           1
           1
           1
           1
           1
           1
           1
           1
           1
           1
           1
           1
           1
           1
           1
           1
           1
           1
           1
           1
           1
           1
           1
           1
           1
           1
           1
           1
           1
           1
           1
           1
           1
           1
           1
           1
           1
           1
           1
           1
           1
           1
           1
           1
           1
           1
           1
           1
           1
           1
           1
           1
           1
           1
           1
           1
           1
           1
           1
           1
           1
           1
           1
           1
           1
           1
           1
           1
           1
           1
           1
           1
           1
           1
           1
           1
           1
           1
           1
           1
           1
           1
           1
           1
           1
           1
           1
           1
           1
           1
           1
           1
           1
           1
           1
           1
           1
           1
           1
           1
           1
           1
           1
           1
           1
           1
           1
           1
           1
           1
           1
           1
           1
           1
           1
           1
           1
           1
           1
           1
           1
           1
           1
           1
           1
           1
           1
           1
           1
           1
           1
           1
           1
           1
           1
           1
           1
           1
           1
           1
           1
           1
           1
           1
           1
           1
           1
           1
           1
           1
           1
           1
           1
           1
           1
           1
           1
           1
           1
           1
           1
           1
           1
           1
           1
           1
           1
           1
           1
           1
           1
           1
           1
           1
           1
           1
           1
           1
           1
           1
           1
           1
           1
           1
           1
           1
           1
           1
           1
           1
           1
           1
           1
           1
           1
           1
           1
           1
           1
           1
           1
           1
           1
           1
           1
           1
           1
           1
           1
           1
           1
           1
           1
           1
           1
           1
           1
           1
           1
           1
           1
           1
           1
           1
           1
           1
           1
           1
           1
           1
           1
           1
           1
           1
           1
           1
           1
           1
           1
           1
           1
           1
           1
           1
           1
           1
           1
           1
           1
           1
           1
           1
           1
           1
           1
           1
           1
           1
           1
           1
           1
           1
           1
           1
           1
           1
           1
           1
           1
           1
           1
           1
           1
           1
           1
           1
           1
           1
           1
           1
           1
           1
           1
           1
           1
           1
           1
           1
           1
           1
           1
           1
           1
           1
           1
           1
           1
           1
           1
           1
           1
           1
           1
           1
           1
           1
           1
           1
           1
           1
           1
           1
           1
           1
           1
           1
           1
           1
           1
           1
           1
           1
           1
           1
           1
           1
           1
           1
           1
           1
           1
           1
           1
           1
           1
           1
           1
           1
           1
           1
           1
           1
           1
           1
           1
           1
           1
           1
           1
           1
           1
           1
           1
           1
           1
           1
           1
           1
           1
           1
           1
           1
           1
           1
           1
           1
           1
           1
           1
           1
           1
           1
           1
           1
           1
           1
           1
           1
           1
           1
           1
           1
           1
           1
           1
           1
           1
           1
           1
           1
           1
           1
           1
           1
           1
           1
           1
           1
           1
           1
           1
           1
           1
           1
           1
           1
           1
           1
           1
           1
           1
           1
           1
           1
           1
           1
           1
           1
           1
           1
           1
           1
           1
           1
           1
           1
           1
           1
           1
           1
           1
           1
           1
           1
           1
           1
           1
           1
           1
           1
           1
           1
           1
           1
           1
           1
           1
           1
           1
           1
           1
           1
           1
           1
           1
           1
           1
           1
           1
           1
           1
           1
           1
           1
           1
           1
           1
           1
           1
           1
           1
           1
           1
           1
           1
           1
           1
           1
           1
           1
           1
           1
           1
           1
           1
           1
           1
           1
           1
           1
           1
           1
           1
           1
           1
           1
           1
           1
           1
           1
           1
           1
           1
           1
           1
           1
           1
           1
           1
           1
           1
           1
           1
           1
           1
           1
           1
           1
           1
           1
           1
           1
           1
           1
           1
           1
           1
           1
           1
           1
           1
           1
           1
           1
           1
           1
           1
           1
           1
           1
           1
           1
           1
           1
           1
           1
           1
           1
           1
           1
           1
           1
           1
           1
           1
           1
           1
           1
           1
           1
           1
           1
           1
           1
           1
           1
           1
           1
           1
           1
           1
           1
           1
           1
           1
           1
           1
           1
           1
           1
           1
           1
           1
           1
           1
           1
           1
           1
           1
           1
           1
           1
           1
           1
           1
           1
           1
           1
           1
           1
           1
           1
           1
           1
           1
           1
           1
           1
           1
           1
           1
           1
           1
           1
           1
           1
           1
           1
           1
           1
           1
           1
           1
           1
           1
           1
           1
           1
           1
           1
           1
           1
           1
           1
           1
           1
           1
           1
           1
           1
           1
           1
           1
           1
           1
           1
           1
           1
           1
           1
           1
           1
           1
           1
           1
           1
           1
           1
           1
           1
           1
           1
           1
           1
           1
           1
           1
           1
           1
           1
           1
           1
           1
           1
           1
           1
           1
           1
           1
           1
           1
           1
           1
           1
           1
           1
           1
           1
           1
           1
           1
           1
           1
           1
           1
           1
           1
           1
           1
           1
           1
           1
           1
           1
           1
           1
           1
           1
           1
           1
           1
           1
           1
           1
           1
           1
           1
           1
           1
           1
           1
           1
           1
           1
           1
           1
           1
           1
           1
           1
           1
           1
           1
           1
           1
           1
           1
           1
           1
           1
           1
           1
           1
           1
           1
           1
           1
           1
           1
           1
           1
           1
           1
           1
           1
           1
           1
           1
           1
           1
           1
           1
           1
           1
           1
           1
           1
           1
           1
           1
           1
           1
           1
           1
           1
           1
           1
           1
           1
           1
           1
           1
           1
           1
           1
           1
           1
           1
           1
           1
           1
           1
           1
           1
           1
           1
           1
           1
           1
           1
           1
           1
           1
           1
           1
           1
           1
           1
           1
           1
           1
           1
           1
           1
           1
           1
           1
           1
           1
           1
           1
           1
           1
           1
           1
           1
           1
           1
           1
           1
           1
           1
           1
           1
           1
           1
           1
           1
           1
           1
           1
           1
           1
           1
           1
           1
           1
           1
           1
           1
           1
           1
           1
           1
           1
           1
           1
           1
           1
           1
           1
           1
           1
           1
           1
           1
           1
           1
           1
           1
           1
           1
           1
           1
           1
           1
           1
           1
           1
           1
           1
           1
           1
           1
           1
           1
           1
           1
           1
           1
           1
           1
           1
           1
           1
           1
           1
           1
           1
           1
           1
           1
           1
           1
           1
           1
           1
           1
           1
           1
           1
           1
           1
           1
           1
           1
           1
           1
           1
           1
           1
           1
           1
           1
           1
           1
           1
           1
           1
           1
           1
           1
           1
           1
           1
           1
           1
           1
           1
           1
           1
           1
           1
           1
           1
           1
           1
           1
           1
           1
           1
           1
           1
           1
           1
           1
           1
           1
           1
           1
           1
           1
           1
           1
           1
           1
           1
           1
           1
           1
           1
           1
           1
           1
           1
           1
           1
           1
           1
           1
           1
           1
           1
           1
           1
           1
           1
           1
           1
           1
           1
           1
           1
           1
           1
           1
           1
           1
           1
           1
           1
           1
           1
           1
           1
           1
           1
           1
           1
           1
           1
           1
           1
           1
           1
           1
           1
           1
           1
           1
           1
           1
           1
           1
           1
           1
           1
           1
           1
           1
           1
           1
           1
           1
           1
           1
           1
           1
           1
           1
           1
           1
           1
           1
           1
           1
           1
           1
           1
           1
           1
           1
           1
           1
           1
           1
           1
           1
           1
           1
           1
           1
           1
           1
           1
           1
           1
           1
           1
           1
           1
           1
           1
           1
           1
           1
           1
           1
           1
           1
           1
           1
           1
           1
           1
           1
           1
           1
           1
           1
           1
           1
           1
           1
           1
           1
           1
           1
           1
           1
           1
           1
           1
           1
           1
           1
           1
           1
           1
           1
           1
           1
           1
           1
           1
           1
           1
           1
           1
           1
           1
           1
           1
           1
           1
           1
           1
           1
           1
           1
           1
           1
           1
           1
           1
           1
           1
           1
           1
           1
           1
           1
           1
           1
           1
           1
           1
           1
           1
           1
           1
           1
           1
           1
           1
           1
           1
           1
           1
           1
           1
           1
           1
           1
           1
           1
           1
           1
           1
           1
           1
           1
           1
           1
           1
           1
           1
           1
           1
           1
           1
           1
           1
           1
           1
         100
         100
         100
         100
         100
         100
         100
         100
         100
         100
         100
         100
         100
         100
         100
         100
         100
         100
         100
         100
         100
         100
         100
         100
         100
         100
         100
         100
         100
         100
         100
         100
         100
         100
         100
         100
         100
         100
         100
         100
         100
         100
         100
         100
         100
         100
         100
         100
         100
         100
         100
         100
         100
         100
         100
         100
         100
         100
         100
         100
         100
         100
         100
         100
         100
         100
         100
         100
         100
         100
         100
         100
         100
         100
         100
         100
         100
         100
         100
         100
         100
         100
         102
         100
         100
         100
         100
         100
         100
         100
         100
         100
         100
         100
         100
         100
         100
         100
         100
         100
         100
         100
         100
         100
         100
         100
         100
         100
         104
         100
         100
         100
         100
         100
         100
         100
         100
         100
         100
         100
         100
         100
         100
         100
         100
         101
         100
         100
         100
         100
         100
         100
         100
         100
         100
         100
         100
         100
         100
         100
         100
         100
         100
         100
         100
         100
         100
         100
         100
         100
         100
         100
         100
         100
         100
         100
         100
         100
         100
         100
         100
         100
         100
         100
         100
         100
         100
         100
         100
         100
         100
         100
         100
         100
         100
         100
         100
         100
         100
         100
         100
         100
         100
         100
         100
         100
         100
         100
         100
         100
         100
         100
         100
         100
         100
         100
         100
         100
         100
         100
         100
         100
         100
         100
         100
         102
         100
         100
         100
         100
         100
         100
         100
         100
         100
         100
         100
         100
         100
         100
         100
         100
         100
         100
         100
         100
         100
         100
         100
         100
         100
         100
         100
         100
         100
         100
         100
         100
         100
         100
         100
         100
         100
         100
         100
         100
         100
         100
         100
         100
         100
         100
         100
         100
         100
         100
         100
         100
         100
         100
         100
         100
         100
         100
         100
         104
         100
         100
         100
         100
         100
         100
         100
         100
         100
         100
         100
         100
         100
         100
         100
         100
         100
         100
         100
         100
         100
         100
         100
         100
         100
         100
         100
         100
         100
         100
         100
         100
         100
         100
         100
         100
         100
         100
         100
         100
         100
         100
         100
         100
         100
         100
         100
         100
         100
         100
         100
         100
         100
         100
         100
         100
         100
         100
         100
         100
         100
         100
         100
         100
         100
         100
         100
         100
         100
         100
         100
         100
         100
         100
         100
         100
         100
         100
         100
         100
         100
         100
         100
         100
         100
         100
         100
         100
         100
         100
         100
         100
         100
         100
         100
         100
         100
         100
         100
         100
         100
         100
         100
         100
         100
         100
         100
         100
         100
         100
         100
         100
         100
         100
         100
         100
         100
         100
         100
         100
         100
         100
         100
         100
         100
         100
         100
         100
         100
         100
         100
         100
         100
         100
         100
         100
         100
         100
         100
         100
         100
         100
         100
         100
         100
         100
         100
         100
         100
         100
         100
         100
         100
         100
         100
         100
         100
         100
         100
         100
         100
         100
         100
         100
         100
         100
         100
         100
         100
         100
         100
         100
         100
         100
         100
         100
         100
         100
         100
         100
         100
         100
         100
         100
         100
         100
         100
         100
         100
         100
         100
         100
         100
         100
         100
         100
         100
         100
         100
         100
         100
         100
         100
         100
         100
         100
         100
         100
         100
         100
         100
         100
         100
         100
         100
         100
         100
         100
         100
         100
         100
         100
         100
         100
         100
         100
         100
         100
         100
         100
         100
         100
         100
         100
         100
         100
         100
         100
         100
         100
         100
         100
         100
         100
         100
         100
         100
         100
         100
         100
         100
         100
         100
         100
         100
         100
         100
         100
         100
         100
         100
         100
         100
         100
         100
         100
         100
         100
         100
         100
         100
         100
         100
         100
         100
         100
         100
         100
         100
         100
         100
         100
         100
         100
         100
         100
         100
         100
         100
         100
         100
         100
         100
         100
         100
         100
         100
         100
         100
         100
         100
         100
         100
         100
         100
         100
         100
         100
         100
         100
         100
         100
         100
         100
         100
         100
         100
         100
         100
         100
         100
         100
         100
         100
         100
         100
         100
         100
         100
         100
         100
         100
         100
         100
         100
         100
         100
         100
         100
         100
         100
         100
         100
         100
         100
         100
         100
         100
         100
         100
         100
         100
         100
         100
         100
         100
         100
         100
         100
         100
         100
         100
         100
         100
         100
         100
         100
         100
         100
         100
         100
         100
         100
         100
         100
         100
         100
         100
         100
         100
         100
         100
         100
         100
         100
         100
         100
         100
         100
         100
         100
         100
         100
         100
         100
         100
         100
         100
         100
         100
         100
         100
         100
         100
         100
         100
         100
         100
         100
         100
         100
         100
         100
         100
         100
         100
         100
         100
         100
         100
         100
         100
         100
         100
         100
         100
         100
         100
         100
         100
         100
         100
         100
         100
         100
         100
         100
         100
         100
         100
         100
         100
         100
         100
         100
         100
         100
         100
         100
         100
         100
         100
         100
         100
         100
         100
         100
         100
         100
         100
         100
         100
         100
         100
         100
         100
         100
         100
         100
         100
         100
         100
         100
         100
         100
         100
         100
         100
         100
         100
         100
         100
         100
         100
         100
         100
         100
         100
         100
         100
         100
         100
         100
         100
         100
         100
         100
         100
         100
         100
         100
         100
         100
         100
         100
         100
         100
         100
         100
         100
         100
         100
         100
         100
         100
         100
         100
         100
         100
         100
         100
         100
         100
         100
         100
         101
         100
         100
         100
         100
         100
         100
         100
         100
         100
         100
         100
         100
         100
         100
         100
         100
         100
         100
         100
         100
         101
         100
         100
         100
         100
         100
         100
         100
         100
         100
         100
         100
         100
         103
         100
         100
         100
         101
         100
         100
         100
         100
         100
         101
         100
         100
         100
         100
         100
         100
         100
         100
         100
         100
         100
         100
         100
         100
         100
         100
         100
         100
         100
         103
         100
         100
         100
         100
         100
         100
         100
         100
         100
         100
         103
         100
         100
         100
         100
         100
         100
         100
         100
         100
         100
         100
         100
         100
         100
         100
         100
         100
         100
         100
         100
         100
         100
         100
         100
         100
         100
         100
         100
         100
         100
         100
         103
         100
         100
         100
         100
         100
         100
         100
         100
         100
         100
         100
         100
         100
         100
         100
         100
         103
         100
         100
         100
         100
         100
         100
         100
         100
         100
         100
         100
         100
         100
         100
         100
         100
         100
         100
         100
         100
         100
         100
         100
         100
         100
         100
         100
         100
         100
         100
         100
         100
         100
         100
         100
         103
         100
         100
         100
         100
         100
         100
         100
         100
         100
         100
         100
         100
         103
         100
         100
         100
         100
         100
         100
         100
         100
         100
         100
         100
         100
         100
         100
         100
         100
         100
         100
         100
         100
         100
         100
         100
         100
         100
         100
         100
         100
         100
         100
         100
         100
         100
         100
         103
         100
         100
         100
         100
         100
         100
         103
         100
         100
         100
         100
         100
         100
         100
         100
         100
         100
         100
         100
         100
         100
         100
         103
         100
         100
         100
         100
         100
         100
         100
         103
         100
         100
         100
         100
         100
         100
         100
         100
         100
         100
         100
         100
         100
         100
         100
         100
         100
         100
         100
         100
         100
         100
         100
         100
         100
         100
         103
         100
         100
         100
         100
         100
         100
         100
         100
         100
         100
         100
         100
         100
         100
         100
         100
         100
         100
         100
         100
         103
         100
         100
         100
         100
         100
         100
         100
         100
         100
         100
         100
         100
         100
         100
         100
         100
         100
         100
         100
         100
         100
         100
         100
         100
         100
         100
         100
         100
         100
         100
         100
         100
         100
         103
         100
         100
         100
         100
         100
         100
         100
         100
         100
         100
         100
         100
         100
         100
         100
         100
         100
         100
         100
         103
         100
         100
         100
         100
         100
         100
         100
         100
         100
         100
         100
         100
         100
         100
         100
         100
         100
         100
         100
         100
         100
         100
         100
         100
         100
         100
         100
         100
         100
         100
         100
         100
         100
         100
         100
         100
         100
         100
         100
         100
         100
         103
         100
         100
         100
         100
         100
         100
         100
         100
         100
         100
         100
         100
         103
         100
         100
         100
         100
         100
         100
         100
         100
         100
         100
         100
         100
         100
         100
         100
         100
         100
         100
         100
         100
         100
         100
         100
         100
         103
         100
         100
         100
         100
         100
         100
         100
         100
         100
         100
         100
POINT_DATA 9030
VECTORS Displacement double
 -1.7148796E-008 -3.7550458E-008 0.0
 -1.7111431E-008 -3.7214255E-008 0.0
 -1.7800982E-008 -3.6972936E-008 0.0
 -1.7713204E-008 -3.7564420E-008 0.0
 -1.8521417E-008 -3.6757661E-008 0.0
 -1.8433478E-008 -3.7427955E-008 0.0
 -1.9205338E-008 -3.6554415E-008 0.0
 -1.9116835E-008 -3.7249070E-008 0.0
 -1.9850442E-008 -3.6338402E-008 0.0
 -1.9761771E-008 -3.7111207E-008 0.0
 -2.0519960E-008 -3.6099694E-008 0.0
 -2.0558738E-008 -3.7123488E-008 0.0
 -3.6384730E-009 -3.9066113E-008 0.0
 -3.6375492E-009 -3.7924776E-008 0.0
 -4.7846973E-009 -3.7922513E-008 0.0
 -4.7853320E-009 -3.9065443E-008 0.0
 -5.9573704E-009 -3.7905285E-008 0.0
 -5.9499287E-009 -3.9057640E-008 0.0
 -7.1453322E-009 -3.7873029E-008 0.0
 -7.1299303E-009 -3.9030553E-008 0.0
 -8.3413667E-009 -3.7822989E-008 0.0
 -8.3165697E-009 -3.8979370E-008 0.0
 -9.5378089E-009 -3.7752207E-008 0.0
 -9.5024650E-009 -3.8900474E-008 0.0
 -1.0727059E-008 -3.7658028E-008 0.0
 -1.0680059E-008 -3.8790746E-008 0.0
 -1.1901173E-008 -3.7538081E-008 0.0
 -1.1841479E-008 -3.8647206E-008 0.0
 -1.3051703E-008 -3.7390251E-008 0.0
 -1.2978418E-008 -3.8466865E-008 0.0
 -1.4169837E-008 -3.7212786E-008 0.0
 -1.4081880E-008 -3.8246152E-008 0.0
 -1.5245039E-008 -3.7005228E-008 0.0
 -1.5143834E-008 -3.7979631E-008 0.0
 -1.6269139E-008 -3.6773279E-008 0.0
 -1.6146959E-008 -3.7649906E-008 0.0
 -1.7173182E-008 -3.6566029E-008 0.0
 -1.7929045E-008 -3.6332245E-008 0.0
 -1.8647749E-008 -3.6092977E-008 0.0
 -1.9333897E-008 -3.5855806E-008 0.0
 -1.9983787E-008 -3.5610295E-008 0.0
 -2.0584778E-008 -3.5368849E-008 0.0
 -2.1024727E-008 -3.5155461E-008 0.0
 -2.0906385E-008 -3.5697497E-008 0.0
 -2.1364736E-008 -3.4911730E-008 0.0
 -2.1273068E-008 -3.5474048E-008 0.0
 -2.1744634E-008 -3.4686233E-008 0.0
 -2.1803147E-008 -3.5465001E-008 0.0
 -3.6218519E-009 -3.6810854E-008 0.0
 -4.7824168E-009 -3.6803246E-008 0.0
 -5.9620951E-009 -3.6786264E-008 0.0
 -7.1571051E-009 -3.6757909E-008 0.0
 -8.3604044E-009 -3.6716540E-008 0.0
 -9.5648706E-009 -3.6660339E-008 0.0
 -1.0762902E-008 -3.6587473E-008 0.0
 -1.1946403E-008 -3.6496403E-008 0.0
 -1.3106568E-008 -3.6386168E-008 0.0
 -1.4233239E-008 -3.6257068E-008 0.0
 -1.5314249E-008 -3.6112133E-008 0.0
 -1.6324817E-008 -3.5961605E-008 0.0
 -1.7237269E-008 -3.5799414E-008 0.0
 -1.8048833E-008 -3.5617768E-008 0.0
 -1.8790885E-008 -3.5408466E-008 0.0
 -1.9483479E-008 -3.5184082E-008 0.0
 -2.0121566E-008 -3.4956233E-008 0.0
 -2.0677246E-008 -3.4737503E-008 0.0
 -2.1121099E-008 -3.4518170E-008 0.0
 -2.1474882E-008 -3.4294063E-008 0.0
 -2.1764277E-008 -3.4090120E-008 0.0
 -2.1948948E-008 -3.3940031E-008 0.0
 -2.1894264E-008 -3.4410172E-008 0.0
 -2.2194209E-008 -3.3838106E-008 0.0
 -2.2257383E-008 -3.4371423E-008 0.0
 -2.4659610E-009 -3.6818208E-008 0.0
 -2.4629117E-009 -3.5689494E-008 0.0
 -3.6019416E-009 -3.5697185E-008 0.0
 -4.7711117E-009 -3.5699031E-008 0.0
 -5.9588441E-009 -3.5689655E-008 0.0
 -7.1599659E-009 -3.5671526E-008 0.0
 -8.3691311E-009 -3.5644621E-008 0.0
 -9.5796774E-009 -3.5607979E-008 0.0
 -1.0784177E-008 -3.5560531E-008 0.0
 -1.1974409E-008 -3.5501433E-008 0.0
 -1.3141098E-008 -3.5430345E-008 0.0
 -1.4273312E-008 -3.5347771E-008 0.0
 -1.5356361E-008 -3.5255492E-008 0.0
 -1.6372473E-008 -3.5152503E-008 0.0
 -1.7306246E-008 -3.5034250E-008 0.0
 -1.8154951E-008 -3.4891795E-008 0.0
 -1.8928370E-008 -3.4723026E-008 0.0
 -1.9633232E-008 -3.4533241E-008 0.0
 -2.0263869E-008 -3.4332748E-008 0.0
 -2.0804534E-008 -3.4127203E-008 0.0
 -2.1242557E-008 -3.3917110E-008 0.0
 -2.1579881E-008 -3.3704058E-008 0.0
 -2.1819141E-008 -3.3498683E-008 0.0
 -2.1977056E-008 -3.3303708E-008 0.0
 -2.2103265E-008 -3.3158701E-008 0.0
 -2.2516365E-008 -3.3213807E-008 0.0
 -2.2566916E-008 -3.3764777E-008 0.0
 -2.4300784E-009 -3.4585717E-008 0.0
 -3.5704431E-009 -3.4602352E-008 0.0
 -4.7501938E-009 -3.4605838E-008 0.0
 -5.9441683E-009 -3.4605824E-008 0.0
 -7.1504069E-009 -3.4601897E-008 0.0
 -8.3642298E-009 -3.4593393E-008 0.0
 -9.5794662E-009 -3.4579638E-008 0.0
 -1.0788811E-008 -3.4560072E-008 0.0
 -1.1984092E-008 -3.4534262E-008 0.0
 -1.3156070E-008 -3.4501849E-008 0.0
 -1.4293822E-008 -3.4462425E-008 0.0
 -1.5384539E-008 -3.4414616E-008 0.0
 -1.6414565E-008 -3.4355199E-008 0.0
 -1.7372768E-008 -3.4278283E-008 0.0
 -1.8253746E-008 -3.4178004E-008 0.0
 -1.9056714E-008 -3.4051666E-008 0.0
 -1.9779771E-008 -3.3901910E-008 0.0
 -2.0415782E-008 -3.3733927E-008 0.0
 -2.0953890E-008 -3.3552350E-008 0.0
 -2.1385148E-008 -3.3359385E-008 0.0
 -2.1706430E-008 -3.3156394E-008 0.0
 -2.1922046E-008 -3.2941693E-008 0.0
 -2.2044117E-008 -3.2709789E-008 0.0
 -2.2112506E-008 -3.2435425E-008 0.0
 -2.2114212E-008 -3.2112805E-008 0.0
 -2.3545487E-009 -3.3495014E-008 0.0
 -3.5365963E-009 -3.3502020E-008 0.0
 -4.7185335E-009 -3.3511511E-008 0.0
 -5.9161168E-009 -3.3524544E-008 0.0
 -7.1259952E-009 -3.3537958E-008 0.0
 -8.3436343E-009 -3.3550352E-008 0.0
 -9.5626420E-009 -3.3561274E-008 0.0
 -1.0775790E-008 -3.3570674E-008 0.0
 -1.1975243E-008 -3.3578431E-008 0.0
 -1.3152381E-008 -3.3583982E-008 0.0
 -1.4297485E-008 -3.3585877E-008 0.0
 -1.5399732E-008 -3.3581327E-008 0.0
 -1.6447977E-008 -3.3565782E-008 0.0
 -1.7432133E-008 -3.3533465E-008 0.0
 -1.8344139E-008 -3.3478856E-008 0.0
 -1.9177189E-008 -3.3398839E-008 0.0
 -1.9923626E-008 -3.3293546E-008 0.0
 -2.0573768E-008 -3.3165662E-008 0.0
 -2.1117147E-008 -3.3018624E-008 0.0
 -2.1545506E-008 -3.2855434E-008 0.0
 -2.1855856E-008 -3.2677794E-008 0.0
 -2.2051781E-008 -3.2486005E-008 0.0
 -2.2145191E-008 -3.2278244E-008 0.0
 -2.2143985E-008 -3.2066275E-008 0.0
 -2.1950281E-008 -3.1894679E-008 0.0
 -2.1364749E-008 -3.1717645E-008 0.0
 -2.1215522E-008 -3.1528263E-008 0.0
 -2.0745811E-008 -3.1405677E-008 0.0
 -2.0873381E-008 -3.1472622E-008 0.0
 -1.1212024E-009 -3.3506677E-008 0.0
 -1.1208637E-009 -3.2326623E-008 0.0
 -2.3029198E-009 -3.2347601E-008 0.0
 -3.4874634E-009 -3.2375387E-008 0.0
 -4.6726529E-009 -3.2405355E-008 0.0
 -5.8720432E-009 -3.2436862E-008 0.0
 -7.0852235E-009 -3.2469969E-008 0.0
 -8.3064316E-009 -3.2504207E-008 0.0
 -9.5286877E-009 -3.2540077E-008 0.0
 -1.0744839E-008 -3.2578369E-008 0.0
 -1.1947767E-008 -3.2619422E-008 0.0
 -1.3130050E-008 -3.2662603E-008 0.0
 -1.4283583E-008 -3.2705950E-008 0.0
 -1.5399433E-008 -3.2745914E-008 0.0
 -1.6468005E-008 -3.2777402E-008 0.0
 -1.7479356E-008 -3.2794334E-008 0.0
 -1.8423224E-008 -3.2790884E-008 0.0
 -1.9288573E-008 -3.2762898E-008 0.0
 -2.0063096E-008 -3.2708879E-008 0.0
 -2.0733580E-008 -3.2629999E-008 0.0
 -2.1287550E-008 -3.2529410E-008 0.0
 -2.1715693E-008 -3.2411341E-008 0.0
 -2.2013849E-008 -3.2280720E-008 0.0
 -2.2183629E-008 -3.2143591E-008 0.0
 -2.2228400E-008 -3.2010926E-008 0.0
 -2.2133019E-008 -3.1903394E-008 0.0
 -2.1842928E-008 -3.1826807E-008 0.0
 -2.1343679E-008 -3.1732912E-008 0.0
 -2.0697184E-008 -3.1625995E-008 0.0
 -1.9875728E-008 -3.1505255E-008 0.0
 -1.9792511E-008 -3.0997217E-008 0.0
 -1.9072810E-008 -3.1325954E-008 0.0
 -1.9157404E-008 -3.0953566E-008 0.0
 -1.0787789E-009 -3.1183250E-008 0.0
 -2.2523518E-009 -3.1203460E-008 0.0
 -3.4239001E-009 -3.1239901E-008 0.0
 -4.6083084E-009 -3.1286782E-008 0.0
 -5.8104183E-009 -3.1337375E-008 0.0
 -7.0278697E-009 -3.1389684E-008 0.0
 -8.2531013E-009 -3.1444516E-008 0.0
 -9.4781478E-009 -3.1503963E-008 0.0
 -1.0696242E-008 -3.1570039E-008 0.0
 -1.1901488E-008 -3.1643686E-008 0.0
 -1.3088112E-008 -3.1724398E-008 0.0
 -1.4249874E-008 -3.1810061E-008 0.0
 -1.5379680E-008 -3.1896881E-008 0.0
 -1.6469271E-008 -3.1979475E-008 0.0
 -1.7508816E-008 -3.2051342E-008 0.0
 -1.8486336E-008 -3.2105844E-008 0.0
 -1.9387243E-008 -3.2137552E-008 0.0
 -2.0194579E-008 -3.2143537E-008 0.0
 -2.0890488E-008 -3.2124089E-008 0.0
 -2.1458710E-008 -3.2082589E-008 0.0
 -2.1887072E-008 -3.2024903E-008 0.0
 -2.2168894E-008 -3.1958976E-008 0.0
 -2.2302261E-008 -3.1895405E-008 0.0
 -2.2285272E-008 -3.1848011E-008 0.0
 -2.2108733E-008 -3.1828663E-008 0.0
 -2.1761817E-008 -3.1834654E-008 0.0
 -2.1248629E-008 -3.1853828E-008 0.0
 -2.0591192E-008 -3.1869911E-008 0.0
 -1.9830137E-008 -3.1861186E-008 0.0
 -1.9014348E-008 -3.1840590E-008 0.0
 -1.8125855E-008 -3.1811300E-008 0.0
 -1.8096669E-008 -3.1103841E-008 0.0
 -1.7268256E-008 -3.1749748E-008 0.0
 -1.7309290E-008 -3.1076958E-008 0.0
  1.0995831E-010 -3.1182531E-008 0.0
  1.0335899E-010 -3.0013959E-008 0.0
 -1.0494072E-009 -3.0022287E-008 0.0
 -2.1949956E-009 -3.0049299E-008 0.0
 -3.3478053E-009 -3.0096132E-008 0.0
 -4.5260197E-009 -3.0156222E-008 0.0
 -5.7320028E-009 -3.0221738E-008 0.0
 -6.9559732E-009 -3.0289090E-008 0.0
 -8.1858069E-009 -3.0360661E-008 0.0
 -9.4125889E-009 -3.0440829E-008 0.0
 -1.0630748E-008 -3.0532821E-008 0.0
 -1.1836249E-008 -3.0637961E-008 0.0
 -1.3025293E-008 -3.0755857E-008 0.0
 -1.4193641E-008 -3.0884520E-008 0.0
 -1.5336125E-008 -3.1020339E-008 0.0
 -1.6446031E-008 -3.1158019E-008 0.0
 -1.7514115E-008 -3.1290746E-008 0.0
 -1.8527314E-008 -3.1410878E-008 0.0
 -1.9467741E-008 -3.1511371E-008 0.0
 -2.0313116E-008 -3.1587740E-008 0.0
 -2.1039391E-008 -3.1639553E-008 0.0
 -2.1624858E-008 -3.1670649E-008 0.0
 -2.2053443E-008 -3.1687996E-008 0.0
 -2.2315522E-008 -3.1700782E-008 0.0
 -2.2406778E-008 -3.1720270E-008 0.0
 -2.2326481E-008 -3.1758665E-008 0.0
 -2.2077313E-008 -3.1824721E-008 0.0
 -2.1667536E-008 -3.1919168E-008 0.0
 -2.1114741E-008 -3.2032463E-008 0.0
 -2.0447458E-008 -3.2148464E-008 0.0
 -1.9698259E-008 -3.2254149E-008 0.0
 -1.8893804E-008 -3.2341248E-008 0.0
 -1.8058130E-008 -3.2399918E-008 0.0
 -1.7220535E-008 -3.2437402E-008 0.0
 -1.6383059E-008 -3.2459921E-008 0.0
 -1.6388152E-008 -3.1685246E-008 0.0
 -1.5576117E-008 -3.2469748E-008 0.0
 -1.5583177E-008 -3.1675859E-008 0.0
  9.8914019E-011 -2.8873371E-008 0.0
 -1.0263112E-009 -2.8872915E-008 0.0
 -2.1334766E-009 -2.8893859E-008 0.0
 -3.2563659E-009 -2.8941991E-008 0.0
 -4.4263391E-009 -2.9010454E-008 0.0
 -5.6407617E-009 -2.9083487E-008 0.0
 -6.8744303E-009 -2.9157688E-008 0.0
 -8.1082108E-009 -2.9240272E-008 0.0
 -9.3341538E-009 -2.9337962E-008 0.0
 -1.0549358E-008 -2.9453965E-008 0.0
 -1.1752106E-008 -2.9589225E-008 0.0
 -1.2940622E-008 -2.9743271E-008 0.0
 -1.4112606E-008 -2.9914491E-008 0.0
 -1.5264874E-008 -3.0100018E-008 0.0
 -1.6392681E-008 -3.0295364E-008 0.0
 -1.7488309E-008 -3.0494022E-008 0.0
 -1.8538719E-008 -3.0687512E-008 0.0
 -1.9523149E-008 -3.0866838E-008 0.0
 -2.0412719E-008 -3.1025351E-008 0.0
 -2.1174680E-008 -3.1162033E-008 0.0
 -2.1780125E-008 -3.1281460E-008 0.0
 -2.2209393E-008 -3.1390997E-008 0.0
 -2.2451155E-008 -3.1498034E-008 0.0
 -2.2499725E-008 -3.1610938E-008 0.0
 -2.2356458E-008 -3.1739882E-008 0.0
 -2.2033133E-008 -3.1893985E-008 0.0
 -2.1553180E-008 -3.2075925E-008 0.0
 -2.0949321E-008 -3.2278532E-008 0.0
 -2.0257224E-008 -3.2486927E-008 0.0
 -1.9508041E-008 -3.2683794E-008 0.0
 -1.8725273E-008 -3.2854584E-008 0.0
 -1.7925809E-008 -3.2991990E-008 0.0
 -1.7122893E-008 -3.3095496E-008 0.0
 -1.6326977E-008 -3.3168595E-008 0.0
 -1.5551325E-008 -3.3217820E-008 0.0
 -1.4806047E-008 -3.3250342E-008 0.0
 -1.4820671E-008 -3.2493106E-008 0.0
 -1.4078874E-008 -3.3275985E-008 0.0
 -1.4069293E-008 -3.2496406E-008 0.0
 -1.0233729E-009 -2.7754730E-008 0.0
 -2.0800316E-009 -2.7740190E-008 0.0
 -3.1445827E-009 -2.7776335E-008 0.0
 -4.3106997E-009 -2.7843326E-008 0.0
 -5.5458714E-009 -2.7908191E-008 0.0
 -6.7902456E-009 -2.7978452E-008 0.0
 -8.0237891E-009 -2.8068300E-008 0.0
 -9.2444928E-009 -2.8182393E-008 0.0
 -1.0452907E-008 -2.8321570E-008 0.0
 -1.1649481E-008 -2.8485490E-008 0.0
 -1.2834048E-008 -2.8673494E-008 0.0
 -1.4005873E-008 -2.8884694E-008 0.0
 -1.5163613E-008 -2.9117690E-008 0.0
 -1.6304845E-008 -2.9369942E-008 0.0
 -1.7424612E-008 -2.9636729E-008 0.0
 -1.8512137E-008 -2.9909930E-008 0.0
 -1.9545194E-008 -3.0178180E-008 0.0
 -2.0486670E-008 -3.0431873E-008 0.0
 -2.1289930E-008 -3.0669022E-008 0.0
 -2.1916022E-008 -3.0897614E-008 0.0
 -2.2345630E-008 -3.1124704E-008 0.0
 -2.2569853E-008 -3.1350901E-008 0.0
 -2.2580297E-008 -3.1575539E-008 0.0
 -2.2375468E-008 -3.1805219E-008 0.0
 -2.1973672E-008 -3.2051797E-008 0.0
 -2.1413896E-008 -3.2322192E-008 0.0
 -2.0747129E-008 -3.2611982E-008 0.0
 -2.0021787E-008 -3.2904409E-008 0.0
 -1.9271212E-008 -3.3177711E-008 0.0
 -1.8511870E-008 -3.3414509E-008 0.0
 -1.7750093E-008 -3.3606728E-008 0.0
 -1.6989846E-008 -3.3754963E-008 0.0
 -1.6236525E-008 -3.3864609E-008 0.0
 -1.5497754E-008 -3.3942901E-008 0.0
 -1.4777581E-008 -3.3998763E-008 0.0
 -1.4073298E-008 -3.4037699E-008 0.0
 -1.3379961E-008 -3.4064013E-008 0.0
 -1.3362484E-008 -3.3288489E-008 0.0
 -2.0751740E-009 -2.6632220E-008 0.0
 -3.0011960E-009 -2.6599362E-008 0.0
 -4.1926444E-009 -2.6623520E-008 0.0
 -5.4603898E-009 -2.6659866E-008 0.0
 -6.7067482E-009 -2.6727056E-008 0.0
 -7.9328425E-009 -2.6829092E-008 0.0
 -9.1433960E-009 -2.6963139E-008 0.0
 -1.0341698E-008 -2.7126438E-008 0.0
 -1.1529370E-008 -2.7317387E-008 0.0
 -1.2707073E-008 -2.7535464E-008 0.0
 -1.3875005E-008 -2.7780942E-008 0.0
 -1.5033196E-008 -2.8054544E-008 0.0
 -1.6181425E-008 -2.8356885E-008 0.0
 -1.7318390E-008 -2.8687353E-008 0.0
 -1.8438664E-008 -2.9041580E-008 0.0
 -1.9524207E-008 -2.9407926E-008 0.0
 -2.0528193E-008 -2.9769419E-008 0.0
 -2.1378582E-008 -3.0125368E-008 0.0
 -2.2017331E-008 -3.0491202E-008 0.0
 -2.2440012E-008 -3.0880004E-008 0.0
 -2.2655442E-008 -3.1270917E-008 0.0
 -2.2642738E-008 -3.1639512E-008 0.0
 -2.2383019E-008 -3.1987598E-008 0.0
 -2.1898097E-008 -3.2332449E-008 0.0
 -2.1244898E-008 -3.2691545E-008 0.0
 -2.0502230E-008 -3.3064776E-008 0.0
 -1.9739747E-008 -3.3432371E-008 0.0
 -1.8993156E-008 -3.3765762E-008 0.0
 -1.8265747E-008 -3.4045081E-008 0.0
 -1.7548013E-008 -3.4266538E-008 0.0
 -1.6833610E-008 -3.4437075E-008 0.0
 -1.6123387E-008 -3.4566495E-008 0.0
 -1.5421991E-008 -3.4663823E-008 0.0
 -1.4733150E-008 -3.4736012E-008 0.0
 -1.4056716E-008 -3.4787528E-008 0.0
 -1.3390456E-008 -3.4819432E-008 0.0
 -1.2725354E-008 -3.4833362E-008 0.0
 -1.2705050E-008 -3.4083781E-008 0.0
 -2.6967718E-009 -2.5155931E-008 0.0
 -4.0937058E-009 -2.5241585E-008 0.0
 -5.3792848E-009 -2.5290097E-008 0.0
 -6.6169990E-009 -2.5382739E-008 0.0
 -7.8301815E-009 -2.5513423E-008 0.0
 -9.0284074E-009 -2.5675297E-008 0.0
 -1.0215675E-008 -2.5864642E-008 0.0
 -1.1393722E-008 -2.6080154E-008 0.0
 -1.2563310E-008 -2.6322216E-008 0.0
 -1.3724942E-008 -2.6592543E-008 0.0
 -1.4879318E-008 -2.6894082E-008 0.0
 -1.6027672E-008 -2.7230980E-008 0.0
 -1.7171735E-008 -2.7608296E-008 0.0
 -1.8313017E-008 -2.8030682E-008 0.0
 -1.9446351E-008 -2.8495798E-008 0.0
 -2.0532360E-008 -2.8982966E-008 0.0
 -2.1440526E-008 -2.9467743E-008 0.0
 -2.2053091E-008 -3.0016672E-008 0.0
 -2.2441593E-008 -3.0644516E-008 0.0
 -2.2669825E-008 -3.1285325E-008 0.0
 -2.2677619E-008 -3.1856017E-008 0.0
 -2.2378423E-008 -3.2345804E-008 0.0
 -2.1809558E-008 -3.2799520E-008 0.0
 -2.1045832E-008 -3.3239097E-008 0.0
 -2.0207241E-008 -3.3684383E-008 0.0
 -1.9408898E-008 -3.4112979E-008 0.0
 -1.8684728E-008 -3.4479600E-008 0.0
 -1.8005995E-008 -3.4765444E-008 0.0
 -1.7338958E-008 -3.4982149E-008 0.0
 -1.6669678E-008 -3.5148962E-008 0.0
 -1.5998953E-008 -3.5280248E-008 0.0
 -1.5332598E-008 -3.5384682E-008 0.0
 -1.4675631E-008 -3.5467202E-008 0.0
 -1.4030097E-008 -3.5529902E-008 0.0
 -1.3393656E-008 -3.5572746E-008 0.0
 -1.2760007E-008 -3.5592280E-008 0.0
 -1.2072032E-008 -3.5575723E-008 0.0
 -1.2060202E-008 -3.4853179E-008 0.0
 -2.4787505E-009 -2.3612499E-008 0.0
 -3.9908903E-009 -2.3664132E-008 0.0
 -5.2768374E-009 -2.3792781E-008 0.0
 -6.5045470E-009 -2.3949549E-008 0.0
 -7.7075427E-009 -2.4127160E-008 0.0
 -8.8964790E-009 -2.4323849E-008 0.0
 -1.0075406E-008 -2.4539557E-008 0.0
 -1.1245915E-008 -2.4775247E-008 0.0
 -1.2408686E-008 -2.5032822E-008 0.0
 -1.3564211E-008 -2.5315215E-008 0.0
 -1.4713316E-008 -2.5626705E-008 0.0
 -1.5857625E-008 -2.5973470E-008 0.0
 -1.7000279E-008 -2.6364593E-008 0.0
 -1.8146199E-008 -2.6813356E-008 0.0
 -1.9304979E-008 -2.7339704E-008 0.0
 -2.0474156E-008 -2.7952655E-008 0.0
 -2.1510685E-008 -2.8625005E-008 0.0
 -2.1970133E-008 -2.9366676E-008 0.0
 -2.2214315E-008 -3.0409793E-008 0.0
 -2.2552991E-008 -3.1460688E-008 0.0
 -2.2680238E-008 -3.2283340E-008 0.0
 -2.2333973E-008 -3.3007053E-008 0.0
 -2.1742217E-008 -3.3571490E-008 0.0
 -2.0829696E-008 -3.4039795E-008 0.0
 -1.9845503E-008 -3.4540542E-008 0.0
 -1.9033120E-008 -3.5004431E-008 0.0
 -1.8375081E-008 -3.5345267E-008 0.0
 -1.7764911E-008 -3.5576950E-008 0.0
 -1.7147242E-008 -3.5746385E-008 0.0
 -1.6514240E-008 -3.5883446E-008 0.0
 -1.5874027E-008 -3.6000701E-008 0.0
 -1.5236233E-008 -3.6102577E-008 0.0
 -1.4607775E-008 -3.6190220E-008 0.0
 -1.3991685E-008 -3.6263447E-008 0.0
 -1.3386931E-008 -3.6321273E-008 0.0
 -1.2784095E-008 -3.6364047E-008 0.0
 -1.2172459E-008 -3.6383881E-008 0.0
 -2.4070969E-009 -2.1674592E-008 0.0
 -3.8379323E-009 -2.1969544E-008 0.0
 -5.1273461E-009 -2.2228717E-008 0.0
 -6.3575811E-009 -2.2464178E-008 0.0
 -7.5601741E-009 -2.2692970E-008 0.0
 -8.7471532E-009 -2.2923827E-008 0.0
 -9.9234102E-009 -2.3161860E-008 0.0
 -1.1091027E-008 -2.3410693E-008 0.0
 -1.2250954E-008 -2.3673483E-008 0.0
 -1.3403853E-008 -2.3953509E-008 0.0
 -1.4550652E-008 -2.4254650E-008 0.0
 -1.5693123E-008 -2.4581977E-008 0.0
 -1.6834521E-008 -2.4942671E-008 0.0
 -1.7981762E-008 -2.5348077E-008 0.0
 -1.9144258E-008 -2.5817624E-008 0.0
 -2.0364906E-008 -2.6405023E-008 0.0
 -2.1615976E-008 -2.7157770E-008 0.0
 -2.1496894E-008 -2.8836225E-008 0.0
 -2.1791869E-008 -3.0151800E-008 0.0
 -2.2075782E-008 -3.1496673E-008 0.0
 -2.2565542E-008 -3.3264626E-008 0.0
 -2.2216603E-008 -3.4262696E-008 0.0
 -2.1868301E-008 -3.4762484E-008 0.0
 -2.0575456E-008 -3.5206942E-008 0.0
 -1.9379957E-008 -3.5780780E-008 0.0
 -1.8663206E-008 -3.6166685E-008 0.0
 -1.8131800E-008 -3.6343709E-008 0.0
 -1.7585673E-008 -3.6441535E-008 0.0
 -1.6995666E-008 -3.6528651E-008 0.0
 -1.6379552E-008 -3.6619981E-008 0.0
 -1.5755685E-008 -3.6714591E-008 0.0
 -1.5137066E-008 -3.6808376E-008 0.0
 -1.4531254E-008 -3.6897461E-008 0.0
 -1.3941351E-008 -3.6978842E-008 0.0
 -1.3366459E-008 -3.7049918E-008 0.0
 -1.2802038E-008 -3.7104517E-008 0.0
 -1.2253106E-008 -3.7128626E-008 0.0
 -1.1629947E-008 -3.7092127E-008 0.0
 -1.1613002E-008 -3.6419097E-008 0.0
 -5.2448590E-039  4.3821036E-034 0.0
 -5.5131900E-010 -1.0040551E-009 0.0
  3.4220306E-012 -9.7173958E-010 0.0
 -3.7086754E-039 -3.7086754E-039 0.0
  2.6001243E-010 -1.0407289E-009 0.0
  1.9109770E-010 -5.3082889E-010 0.0
  4.9071249E-010 -1.1901364E-009 0.0
  4.4662759E-010 -7.2728901E-010 0.0
  8.2364804E-010 -1.3215313E-009 0.0
  8.6202178E-010 -7.3829434E-010 0.0
  1.3620252E-009 -2.0941809E-008 0.0
  1.3003781E-009 -1.9199874E-008 0.0
  4.9455241E-011 -1.9504532E-008 0.0
 -6.1592745E-011 -2.0938621E-008 0.0
 -1.1020710E-009 -1.9817585E-008 0.0
 -1.2393807E-009 -2.1191269E-008 0.0
 -2.3161888E-009 -2.0086023E-008 0.0
 -3.6474270E-009 -2.0389028E-008 0.0
 -4.9403015E-009 -2.0694730E-008 0.0
 -6.1814043E-009 -2.0976927E-008 0.0
 -7.3922540E-009 -2.1241076E-008 0.0
 -8.5847229E-009 -2.1495678E-008 0.0
 -9.7648014E-009 -2.1747092E-008 0.0
 -1.0935487E-008 -2.1999803E-008 0.0
 -1.2098461E-008 -2.2257066E-008 0.0
 -1.3255033E-008 -2.2521324E-008 0.0
 -1.4406854E-008 -2.2794402E-008 0.0
 -1.5556670E-008 -2.3077411E-008 0.0
 -1.6709771E-008 -2.3370142E-008 0.0
 -1.7875926E-008 -2.3668876E-008 0.0
 -1.9082530E-008 -2.3958805E-008 0.0
 -2.0372483E-008 -2.4175870E-008 0.0
 -2.2245352E-008 -2.4051728E-008 0.0
 -2.2824024E-008 -3.5375747E-008 0.0
 -2.1807409E-008 -3.5414748E-008 0.0
 -2.2406190E-008 -3.6641529E-008 0.0
 -2.0103987E-008 -3.7330002E-008 0.0
 -1.8928917E-008 -3.7625019E-008 0.0
 -1.8474292E-008 -3.7487978E-008 0.0
 -1.8037930E-008 -3.7333260E-008 0.0
 -1.7494519E-008 -3.7273054E-008 0.0
 -1.6892126E-008 -3.7281680E-008 0.0
 -1.6268081E-008 -3.7331882E-008 0.0
 -1.5645149E-008 -3.7405610E-008 0.0
 -1.5036200E-008 -3.7490611E-008 0.0
 -1.4447098E-008 -3.7578882E-008 0.0
 -1.3879548E-008 -3.7665539E-008 0.0
 -1.3333066E-008 -3.7746936E-008 0.0
 -1.2807677E-008 -3.7819400E-008 0.0
 -1.2295909E-008 -3.7885499E-008 0.0
 -1.1806639E-008 -3.7940399E-008 0.0
 -1.2904715E-009 -1.0427030E-009 0.0
 -1.2403897E-009 -1.7556866E-009 0.0
 -6.3317910E-010 -1.7642357E-009 0.0
 -1.4846089E-010 -1.7257931E-009 0.0
  2.0205079E-010 -1.7132888E-009 0.0
  4.9605468E-010 -1.7621668E-009 0.0
  8.1197791E-010 -1.8446215E-009 0.0
  1.1345229E-009 -1.9288952E-009 0.0
  1.0981850E-009 -1.4889023E-009 0.0
  1.5092705E-009 -2.0360968E-009 0.0
  1.4834473E-009 -1.5474377E-009 0.0
  1.9792070E-009 -2.1388099E-009 0.0
  1.9876988E-009 -1.5358825E-009 0.0
  3.6910541E-009 -1.8788831E-008 0.0
  3.5981404E-009 -1.6966204E-008 0.0
  2.4472767E-009 -1.7360057E-008 0.0
  2.2952953E-009 -1.8796614E-008 0.0
  1.3643457E-009 -1.7692031E-008 0.0
  1.9500619E-010 -1.8024367E-008 0.0
 -9.8911876E-010 -1.8344016E-008 0.0
 -2.2076170E-009 -1.8640581E-008 0.0
 -3.4751182E-009 -1.8930323E-008 0.0
 -4.7480253E-009 -1.9228528E-008 0.0
 -5.9944903E-009 -1.9519664E-008 0.0
 -7.2152114E-009 -1.9795860E-008 0.0
 -8.4174435E-009 -2.0058747E-008 0.0
 -9.6065530E-009 -2.0311961E-008 0.0
 -1.0786065E-008 -2.0558673E-008 0.0
 -1.1958512E-008 -2.0800971E-008 0.0
 -1.3126288E-008 -2.1039638E-008 0.0
 -1.4292509E-008 -2.1273824E-008 0.0
 -1.5462238E-008 -2.1500271E-008 0.0
 -1.6644527E-008 -2.1711616E-008 0.0
 -1.7858351E-008 -2.1892622E-008 0.0
 -1.9141129E-008 -2.2013228E-008 0.0
 -2.0621916E-008 -2.2016345E-008 0.0
 -2.2433631E-008 -2.1987159E-008 0.0
 -2.3878538E-008 -4.3662908E-008 0.0
 -2.0106969E-008 -4.1552424E-008 0.0
 -1.9119471E-008 -3.9323439E-008 0.0
 -1.8540409E-008 -3.8336782E-008 0.0
 -1.8071562E-008 -3.8089362E-008 0.0
 -1.7467675E-008 -3.7988343E-008 0.0
 -1.6821666E-008 -3.7968904E-008 0.0
 -1.6171145E-008 -3.7999714E-008 0.0
 -1.5538024E-008 -3.8061310E-008 0.0
 -1.4932366E-008 -3.8139425E-008 0.0
 -1.4355781E-008 -3.8225016E-008 0.0
 -1.3807197E-008 -3.8313375E-008 0.0
 -1.3286082E-008 -3.8401573E-008 0.0
 -1.2791861E-008 -3.8486722E-008 0.0
 -1.2325024E-008 -3.8560092E-008 0.0
 -1.1903578E-008 -3.8604848E-008 0.0
 -1.1514235E-008 -3.8618527E-008 0.0
 -1.1462565E-008 -3.8005054E-008 0.0
 -1.1312937E-009 -2.3908971E-009 0.0
 -6.8460998E-010 -2.3724162E-009 0.0
 -2.5838610E-010 -2.3361902E-009 0.0
  1.0763955E-010 -2.3116215E-009 0.0
  4.4175536E-010 -2.3203511E-009 0.0
  7.7802387E-010 -2.3647587E-009 0.0
  1.1378750E-009 -2.4447161E-009 0.0
  1.5449310E-009 -2.5566639E-009 0.0
  2.0137695E-009 -2.6957064E-009 0.0
  2.5121046E-009 -2.8443667E-009 0.0
  2.4486340E-009 -2.3086356E-009 0.0
  3.0376378E-009 -3.0201324E-009 0.0
  2.9747464E-009 -2.4358814E-009 0.0
  3.6202063E-009 -3.2191929E-009 0.0
  3.5510763E-009 -2.5145285E-009 0.0
  4.3024487E-009 -3.4535952E-009 0.0
  4.3184913E-009 -2.4832312E-009 0.0
  5.7992456E-009 -1.6436988E-008 0.0
  5.6812056E-009 -1.4418564E-008 0.0
  4.6259556E-009 -1.5024217E-008 0.0
  4.4074269E-009 -1.6426486E-008 0.0
  3.6762052E-009 -1.5479299E-008 0.0
  2.5974108E-009 -1.5890587E-008 0.0
  1.4827684E-009 -1.6275040E-008 0.0
  3.3314693E-010 -1.6617691E-008 0.0
 -8.5344094E-010 -1.6938676E-008 0.0
 -2.0707906E-009 -1.7240332E-008 0.0
 -3.3152344E-009 -1.7531598E-008 0.0
 -4.5686929E-009 -1.7818646E-008 0.0
 -5.8131848E-009 -1.8100033E-008 0.0
 -7.0413992E-009 -1.8370305E-008 0.0
 -8.2544887E-009 -1.8627238E-008 0.0
 -9.4557857E-009 -1.8871273E-008 0.0
 -1.0648584E-008 -1.9103396E-008 0.0
 -1.1836046E-008 -1.9323964E-008 0.0
 -1.3021740E-008 -1.9532023E-008 0.0
 -1.4210546E-008 -1.9724672E-008 0.0
 -1.5410070E-008 -1.9896207E-008 0.0
 -1.6633363E-008 -2.0036873E-008 0.0
 -1.7903129E-008 -2.0131867E-008 0.0
 -1.9264572E-008 -2.0162625E-008 0.0
 -2.0773592E-008 -2.0140410E-008 0.0
 -2.2471414E-008 -2.0120087E-008 0.0
 -1.8552550E-008 -3.8579510E-008 0.0
 -1.8119122E-008 -3.8637657E-008 0.0
 -1.7451424E-008 -3.8599728E-008 0.0
 -1.6760507E-008 -3.8594169E-008 0.0
 -1.6075434E-008 -3.8621628E-008 0.0
 -1.5427659E-008 -3.8677475E-008 0.0
 -1.4824125E-008 -3.8748577E-008 0.0
 -1.4258250E-008 -3.8827716E-008 0.0
 -1.3725518E-008 -3.8913358E-008 0.0
 -1.3225659E-008 -3.9003829E-008 0.0
 -1.2760586E-008 -3.9095811E-008 0.0
 -1.2336840E-008 -3.9183969E-008 0.0
 -1.1960970E-008 -3.9263847E-008 0.0
 -1.1629371E-008 -3.9320563E-008 0.0
 -1.1121707E-008 -3.9259416E-008 0.0
 -1.1092447E-008 -3.8675280E-008 0.0
 -1.4364868E-009 -2.4174885E-009 0.0
 -1.4251376E-009 -2.8021062E-009 0.0
 -1.0675746E-009 -2.8361163E-009 0.0
 -7.0774677E-010 -2.8536211E-009 0.0
 -3.4132205E-010 -2.8405905E-009 0.0
  1.2379969E-011 -2.8222933E-009 0.0
  3.6327187E-010 -2.8240593E-009 0.0
  7.2973933E-010 -2.8605889E-009 0.0
  1.1273491E-009 -2.9374771E-009 0.0
  1.5685483E-009 -3.0542370E-009 0.0
  2.0546601E-009 -3.2030654E-009 0.0
  2.5768182E-009 -3.3835005E-009 0.0
  3.1345136E-009 -3.5992911E-009 0.0
  3.7408593E-009 -3.8595954E-009 0.0
  4.3993278E-009 -4.1605454E-009 0.0
  5.0071408E-009 -4.4789148E-009 0.0
  4.8444440E-009 -3.9214246E-009 0.0
  5.5520139E-009 -4.8630987E-009 0.0
  5.3822007E-009 -4.3660783E-009 0.0
  6.0677292E-009 -5.2767492E-009 0.0
  5.8846985E-009 -4.8249931E-009 0.0
  6.5411467E-009 -5.7151861E-009 0.0
  6.3465368E-009 -5.3121004E-009 0.0
  6.9622673E-009 -6.1773469E-009 0.0
  6.7564558E-009 -5.8294382E-009 0.0
  7.3220299E-009 -6.6620627E-009 0.0
  7.1059504E-009 -6.3760466E-009 0.0
  7.6136601E-009 -7.1678323E-009 0.0
  7.3881876E-009 -6.9499169E-009 0.0
  7.8320914E-009 -7.6933292E-009 0.0
  7.5977914E-009 -7.5492438E-009 0.0
  7.9729752E-009 -8.2377645E-009 0.0
  7.7300212E-009 -8.1729471E-009 0.0
  8.0316977E-009 -8.8008901E-009 0.0
  7.7800560E-009 -8.8205910E-009 0.0
  8.0031527E-009 -9.3827331E-009 0.0
  7.7428514E-009 -9.4919510E-009 0.0
  7.8825620E-009 -9.9834332E-009 0.0
  7.6137650E-009 -1.0186757E-008 0.0
  7.6669547E-009 -1.0603447E-008 0.0
  7.3899660E-009 -1.0905213E-008 0.0
  7.3575079E-009 -1.1244065E-008 0.0
  7.0713612E-009 -1.1650583E-008 0.0
  6.9575120E-009 -1.1906306E-008 0.0
  6.6664787E-009 -1.2434842E-008 0.0
  6.4850458E-009 -1.2579373E-008 0.0
  6.1667600E-009 -1.3310176E-008 0.0
  5.8028255E-009 -1.3133999E-008 0.0
  4.8310313E-009 -1.3678843E-008 0.0
  3.8148941E-009 -1.4165394E-008 0.0
  2.7494817E-009 -1.4577108E-008 0.0
  1.6313631E-009 -1.4948623E-008 0.0
  4.7655755E-010 -1.5288849E-008 0.0
 -7.1005586E-010 -1.5601973E-008 0.0
 -1.9245553E-009 -1.5896257E-008 0.0
 -3.1593227E-009 -1.6177703E-008 0.0
 -4.4033842E-009 -1.6450582E-008 0.0
 -5.6456571E-009 -1.6715085E-008 0.0
 -6.8795094E-009 -1.6968976E-008 0.0
 -8.1032224E-009 -1.7209870E-008 0.0
 -9.3181533E-009 -1.7436437E-008 0.0
 -1.0526979E-008 -1.7647879E-008 0.0
 -1.1733145E-008 -1.7843071E-008 0.0
 -1.2941105E-008 -1.8019876E-008 0.0
 -1.4157065E-008 -1.8174601E-008 0.0
 -1.5390262E-008 -1.8301570E-008 0.0
 -1.6654766E-008 -1.8393161E-008 0.0
 -1.7972255E-008 -1.8441202E-008 0.0
 -1.9369885E-008 -1.8444477E-008 0.0
 -2.0869077E-008 -1.8414549E-008 0.0
 -2.2444738E-008 -1.8383836E-008 0.0
 -1.7438079E-008 -3.9214863E-008 0.0
 -1.6703748E-008 -3.9193533E-008 0.0
 -1.5970371E-008 -3.9210124E-008 0.0
 -1.5310550E-008 -3.9256332E-008 0.0
 -1.4713321E-008 -3.9311887E-008 0.0
 -1.4156177E-008 -3.9378890E-008 0.0
 -1.3635988E-008 -3.9457586E-008 0.0
 -1.3153619E-008 -3.9545371E-008 0.0
 -1.2711828E-008 -3.9641050E-008 0.0
 -1.2315507E-008 -3.9745786E-008 0.0
 -1.1969878E-008 -3.9866622E-008 0.0
 -1.1661792E-008 -4.0028413E-008 0.0
 -1.1402928E-008 -4.0250143E-008 0.0
 -1.3320324E-009 -3.2028245E-009 0.0
 -1.0104492E-009 -3.2410682E-009 0.0
 -7.1551823E-010 -3.2594166E-009 0.0
 -4.0860976E-010 -3.2581296E-009 0.0
 -7.9730605E-011 -3.2504503E-009 0.0
  2.7818856E-010 -3.2588297E-009 0.0
  6.7222716E-010 -3.3010025E-009 0.0
  1.1068554E-009 -3.3854163E-009 0.0
  1.5835227E-009 -3.5120541E-009 0.0
  2.1001779E-009 -3.6774208E-009 0.0
  2.6528047E-009 -3.8784715E-009 0.0
  3.2406487E-009 -4.1149568E-009 0.0
  3.8646614E-009 -4.3825975E-009 0.0
  4.5052480E-009 -4.6685958E-009 0.0
  5.1235906E-009 -4.9760334E-009 0.0
  5.6988498E-009 -5.3090212E-009 0.0
  6.2296820E-009 -5.6738914E-009 0.0
  6.7152006E-009 -6.0625706E-009 0.0
  7.1460406E-009 -6.4712611E-009 0.0
  7.5136915E-009 -6.8971568E-009 0.0
  7.8117122E-009 -7.3378190E-009 0.0
  8.0358596E-009 -7.7914981E-009 0.0
  8.1826526E-009 -8.2575989E-009 0.0
  8.2478015E-009 -8.7363960E-009 0.0
  8.2257706E-009 -9.2282803E-009 0.0
  8.1107000E-009 -9.7328648E-009 0.0
  7.8980875E-009 -1.0248247E-008 0.0
  7.5851411E-009 -1.0769427E-008 0.0
  7.1700888E-009 -1.1284460E-008 0.0
  6.6222637E-009 -1.1760231E-008 0.0
  5.8950695E-009 -1.2199276E-008 0.0
  4.9869876E-009 -1.2610639E-008 0.0
  3.9708360E-009 -1.3012153E-008 0.0
  2.8973129E-009 -1.3384443E-008 0.0
  1.7777744E-009 -1.3724152E-008 0.0
  6.1999872E-010 -1.4037704E-008 0.0
 -5.6834239E-010 -1.4329721E-008 0.0
 -1.7812418E-009 -1.4604556E-008 0.0
 -3.0119329E-009 -1.4866660E-008 0.0
 -4.2523343E-009 -1.5118685E-008 0.0
 -5.4948551E-009 -1.5361121E-008 0.0
 -6.7342200E-009 -1.5592668E-008 0.0
 -7.9681990E-009 -1.5811355E-008 0.0
 -9.1971119E-009 -1.6015265E-008 0.0
 -1.0423054E-008 -1.6202624E-008 0.0
 -1.1649452E-008 -1.6371467E-008 0.0
 -1.2881123E-008 -1.6519239E-008 0.0
 -1.4124745E-008 -1.6642570E-008 0.0
 -1.5389572E-008 -1.6737394E-008 0.0
 -1.6688190E-008 -1.6799788E-008 0.0
 -1.8035919E-008 -1.6828503E-008 0.0
 -1.9446932E-008 -1.6828459E-008 0.0
 -2.0923014E-008 -1.6815295E-008 0.0
 -2.2430517E-008 -1.6810908E-008 0.0
 -2.3915510E-008 -1.6812872E-008 0.0
 -2.3934668E-008 -1.8362155E-008 0.0
 -1.6682769E-008 -3.9822279E-008 0.0
 -1.5850741E-008 -3.9780055E-008 0.0
 -1.5194896E-008 -3.9783340E-008 0.0
 -1.4601909E-008 -3.9815772E-008 0.0
 -1.4049962E-008 -3.9871492E-008 0.0
 -1.3540603E-008 -3.9939761E-008 0.0
 -1.3072121E-008 -4.0019646E-008 0.0
 -1.2647530E-008 -4.0110804E-008 0.0
 -1.2270332E-008 -4.0214390E-008 0.0
 -1.1941819E-008 -4.0335019E-008 0.0
 -1.1666026E-008 -4.0471015E-008 0.0
 -1.1508747E-008 -4.0599352E-008 0.0
 -1.1629135E-008 -4.0729115E-008 0.0
 -1.1742547E-008 -4.0742298E-008 0.0
 -1.1851080E-008 -4.0933410E-008 0.0
 -1.1925474E-008 -4.1031144E-008 0.0
 -1.2056724E-008 -4.1097886E-008 0.0
 -1.2116960E-008 -4.1224137E-008 0.0
 -1.2261756E-008 -4.1222040E-008 0.0
 -1.2305161E-008 -4.1362359E-008 0.0
 -1.2462089E-008 -4.1312177E-008 0.0
 -1.2492035E-008 -4.1458500E-008 0.0
 -1.2654012E-008 -4.1374714E-008 0.0
 -1.2672968E-008 -4.1521338E-008 0.0
 -1.2833352E-008 -4.1415460E-008 0.0
 -1.2843902E-008 -4.1558202E-008 0.0
 -1.2997311E-008 -4.1439753E-008 0.0
 -1.3001903E-008 -4.1576050E-008 0.0
 -1.3144986E-008 -4.1452357E-008 0.0
 -1.3145848E-008 -4.1581497E-008 0.0
 -1.3277839E-008 -4.1456974E-008 0.0
 -1.3276636E-008 -4.1580859E-008 0.0
 -1.3399953E-008 -4.1456199E-008 0.0
 -1.3400572E-008 -4.1580549E-008 0.0
 -1.1931363E-009 -3.5201240E-009 0.0
 -9.5112342E-010 -3.5678340E-009 0.0
 -7.2443661E-010 -3.5887262E-009 0.0
 -4.7471708E-010 -3.5928767E-009 0.0
 -1.7375563E-010 -3.5943627E-009 0.0
  1.8956174E-010 -3.6160567E-009 0.0
  6.1158148E-010 -3.6757130E-009 0.0
  1.0836238E-009 -3.7798492E-009 0.0
  1.5979066E-009 -3.9265843E-009 0.0
  2.1485337E-009 -4.1108344E-009 0.0
  2.7310523E-009 -4.3274870E-009 0.0
  3.3419982E-009 -4.5711322E-009 0.0
  3.9744309E-009 -4.8344645E-009 0.0
  4.6130067E-009 -5.1113365E-009 0.0
  5.2355672E-009 -5.3996460E-009 0.0
  5.8249895E-009 -5.7039441E-009 0.0
  6.3722349E-009 -6.0267793E-009 0.0
  6.8701459E-009 -6.3684805E-009 0.0
  7.3102521E-009 -6.7260667E-009 0.0
  7.6835952E-009 -7.0959511E-009 0.0
  7.9842667E-009 -7.4740958E-009 0.0
  8.2099003E-009 -7.8576833E-009 0.0
  8.3590997E-009 -8.2461121E-009 0.0
  8.4281880E-009 -8.6405797E-009 0.0
  8.4104315E-009 -9.0420476E-009 0.0
  8.2974882E-009 -9.4498058E-009 0.0
  8.0812558E-009 -9.8600713E-009 0.0
  7.7547799E-009 -1.0265249E-008 0.0
  7.3069610E-009 -1.0652564E-008 0.0
  6.7202838E-009 -1.1014002E-008 0.0
  5.9789880E-009 -1.1349361E-008 0.0
  5.0919952E-009 -1.1672138E-008 0.0
  4.0964637E-009 -1.1987407E-008 0.0
  3.0280861E-009 -1.2292782E-008 0.0
  1.9091061E-009 -1.2582606E-008 0.0
  7.5127603E-010 -1.2855782E-008 0.0
 -4.3713060E-010 -1.3113978E-008 0.0
 -1.6491204E-009 -1.3359398E-008 0.0
 -2.8781628E-009 -1.3594116E-008 0.0
 -4.1178302E-009 -1.3819438E-008 0.0
 -5.3623763E-009 -1.4035367E-008 0.0
 -6.6076467E-009 -1.4240757E-008 0.0
 -7.8515593E-009 -1.4433782E-008 0.0
 -9.0940664E-009 -1.4612377E-008 0.0
 -1.0336852E-008 -1.4774423E-008 0.0
 -1.1583096E-008 -1.4917715E-008 0.0
 -1.2837444E-008 -1.5039878E-008 0.0
 -1.4106164E-008 -1.5138445E-008 0.0
 -1.5397311E-008 -1.5211284E-008 0.0
 -1.6720419E-008 -1.5257655E-008 0.0
 -1.8084963E-008 -1.5279856E-008 0.0
 -1.9496373E-008 -1.5285156E-008 0.0
 -2.0948695E-008 -1.5285557E-008 0.0
 -2.2421196E-008 -1.5290754E-008 0.0
 -2.3886033E-008 -1.5302490E-008 0.0
 -2.5350936E-008 -1.5319592E-008 0.0
 -2.5357386E-008 -1.6799157E-008 0.0
 -1.5650429E-008 -4.0144004E-008 0.0
 -1.5077531E-008 -4.0210774E-008 0.0
 -1.4480613E-008 -4.0256780E-008 0.0
 -1.3941213E-008 -4.0301481E-008 0.0
 -1.3440829E-008 -4.0356619E-008 0.0
 -1.2984199E-008 -4.0424437E-008 0.0
 -1.2575555E-008 -4.0501870E-008 0.0
 -1.2217912E-008 -4.0586767E-008 0.0
 -1.1916827E-008 -4.0674681E-008 0.0
 -1.1691520E-008 -4.0753733E-008 0.0
 -1.1591597E-008 -4.0814911E-008 0.0
 -1.1649579E-008 -4.0884976E-008 0.0
 -1.1814787E-008 -4.0974824E-008 0.0
 -1.2020667E-008 -4.1077408E-008 0.0
 -1.2232473E-008 -4.1164987E-008 0.0
 -1.2441952E-008 -4.1232413E-008 0.0
 -1.2642074E-008 -4.1280512E-008 0.0
 -1.2827899E-008 -4.1312329E-008 0.0
 -1.2996386E-008 -4.1331506E-008 0.0
 -1.3146849E-008 -4.1341552E-008 0.0
 -1.3280994E-008 -4.1345533E-008 0.0
 -1.3401409E-008 -4.1346461E-008 0.0
 -1.3509080E-008 -4.1346391E-008 0.0
 -1.3507237E-008 -4.1450339E-008 0.0
 -1.3608223E-008 -4.1345228E-008 0.0
 -1.3607094E-008 -4.1445907E-008 0.0
 -1.3704342E-008 -4.1344032E-008 0.0
 -1.3705627E-008 -4.1444984E-008 0.0
 -1.0298892E-009 -3.7276174E-009 0.0
 -8.8133979E-010 -3.7837311E-009 0.0
 -7.3531107E-010 -3.8196770E-009 0.0
 -5.5306342E-010 -3.8309911E-009 0.0
 -2.7755289E-010 -3.8429190E-009 0.0
  9.9926570E-011 -3.8886672E-009 0.0
  5.5626281E-010 -3.9833848E-009 0.0
  1.0673804E-009 -4.1238155E-009 0.0
  1.6185868E-009 -4.3022068E-009 0.0
  2.2010945E-009 -4.5109248E-009 0.0
  2.8089696E-009 -4.7430878E-009 0.0
  3.4366427E-009 -4.9920861E-009 0.0
  4.0763591E-009 -5.2516528E-009 0.0
  4.7162383E-009 -5.5169667E-009 0.0
  5.3417454E-009 -5.7868445E-009 0.0
  5.9394378E-009 -6.0631154E-009 0.0
  6.4984523E-009 -6.3489703E-009 0.0
  7.0085540E-009 -6.6464468E-009 0.0
  7.4579322E-009 -6.9555515E-009 0.0
  7.8350430E-009 -7.2726044E-009 0.0
  8.1334272E-009 -7.5914946E-009 0.0
  8.3546246E-009 -7.9067969E-009 0.0
  8.5019259E-009 -8.2183326E-009 0.0
  8.5725643E-009 -8.5284908E-009 0.0
  8.5575543E-009 -8.8396331E-009 0.0
  8.4447449E-009 -9.1512582E-009 0.0
  8.2216477E-009 -9.4599995E-009 0.0
  7.8777292E-009 -9.7588220E-009 0.0
  7.4049827E-009 -1.0041576E-008 0.0
  6.7954613E-009 -1.0305694E-008 0.0
  6.0465386E-009 -1.0555192E-008 0.0
  5.1693939E-009 -1.0796630E-008 0.0
  4.1885010E-009 -1.1035357E-008 0.0
  3.1308714E-009 -1.1271468E-008 0.0
  2.0175391E-009 -1.1502743E-008 0.0
  8.6281131E-010 -1.1727027E-008 0.0
 -3.2352419E-010 -1.1943558E-008 0.0
 -1.5339180E-009 -1.2152482E-008 0.0
 -2.7619558E-009 -1.2354117E-008 0.0
 -4.0020016E-009 -1.2548427E-008 0.0
 -5.2493403E-009 -1.2734728E-008 0.0
 -6.5005555E-009 -1.2911651E-008 0.0
 -7.7538198E-009 -1.3077346E-008 0.0
 -9.0089511E-009 -1.3229732E-008 0.0
 -1.0267307E-008 -1.3366676E-008 0.0
 -1.1531646E-008 -1.3486102E-008 0.0
 -1.2806032E-008 -1.3586101E-008 0.0
 -1.4095753E-008 -1.3665169E-008 0.0
 -1.5407065E-008 -1.3722695E-008 0.0
 -1.6746473E-008 -1.3759739E-008 0.0
 -1.8119107E-008 -1.3779921E-008 0.0
 -1.9525927E-008 -1.3789723E-008 0.0
 -2.0961032E-008 -1.3796794E-008 0.0
 -2.2411334E-008 -1.3806391E-008 0.0
 -2.3863573E-008 -1.3816751E-008 0.0
 -2.5302542E-008 -1.3823998E-008 0.0
 -1.5637665E-008 -4.0679233E-008 0.0
 -1.4923533E-008 -4.0632037E-008 0.0
 -1.4360837E-008 -4.0641586E-008 0.0
 -1.3830651E-008 -4.0665821E-008 0.0
 -1.3335945E-008 -4.0710281E-008 0.0
 -1.2892148E-008 -4.0764248E-008 0.0
 -1.2501511E-008 -4.0822844E-008 0.0
 -1.2167757E-008 -4.0882279E-008 0.0
 -1.1900477E-008 -4.0936669E-008 0.0
 -1.1718811E-008 -4.0978733E-008 0.0
 -1.1645815E-008 -4.1009078E-008 0.0
 -1.1689745E-008 -4.1037539E-008 0.0
 -1.1826176E-008 -4.1075991E-008 0.0
 -1.2015741E-008 -4.1121744E-008 0.0
 -1.2226905E-008 -4.1166631E-008 0.0
 -1.2440423E-008 -4.1202407E-008 0.0
 -1.2645598E-008 -4.1226926E-008 0.0
 -1.2835413E-008 -4.1241091E-008 0.0
 -1.3006047E-008 -4.1247301E-008 0.0
 -1.3156673E-008 -4.1248443E-008 0.0
 -1.3288992E-008 -4.1247316E-008 0.0
 -1.3406018E-008 -4.1246087E-008 0.0
 -1.3511269E-008 -4.1245548E-008 0.0
 -1.3608956E-008 -4.1245629E-008 0.0
 -1.3702900E-008 -4.1246317E-008 0.0
 -1.3796550E-008 -4.1247476E-008 0.0
 -1.3797314E-008 -4.1342863E-008 0.0
 -8.8182184E-010 -3.7926976E-009 0.0
 -7.8051671E-010 -3.8745938E-009 0.0
 -7.5230116E-010 -3.9310967E-009 0.0
 -6.6253805E-010 -3.9406422E-009 0.0
 -3.9305204E-010 -3.9711181E-009 0.0
  2.2549677E-011 -4.0742248E-009 0.0
  5.2091383E-010 -4.2346431E-009 0.0
  1.0699566E-009 -4.4326078E-009 0.0
  1.6534641E-009 -4.6554992E-009 0.0
  2.2620401E-009 -4.8953597E-009 0.0
  2.8889446E-009 -5.1460135E-009 0.0
  3.5280946E-009 -5.4019266E-009 0.0
  4.1724504E-009 -5.6582864E-009 0.0
  4.8131331E-009 -5.9118817E-009 0.0
  5.4398576E-009 -6.1618217E-009 0.0
  6.0421883E-009 -6.4096117E-009 0.0
  6.6099062E-009 -6.6582268E-009 0.0
  7.1317310E-009 -6.9113048E-009 0.0
  7.5926088E-009 -7.1722917E-009 0.0
  7.9730751E-009 -7.4402677E-009 0.0
  8.2623104E-009 -7.7039472E-009 0.0
  8.4700113E-009 -7.9544536E-009 0.0
  8.6105866E-009 -8.1903727E-009 0.0
  8.6808331E-009 -8.4180368E-009 0.0
  8.6675586E-009 -8.6384708E-009 0.0
  8.5552096E-009 -8.8537678E-009 0.0
  8.3256247E-009 -9.0622944E-009 0.0
  7.9654827E-009 -9.2604279E-009 0.0
  7.4742566E-009 -9.4448577E-009 0.0
  6.8511517E-009 -9.6195614E-009 0.0
  6.0967476E-009 -9.7880458E-009 0.0
  5.2234355E-009 -9.9537728E-009 0.0
  4.2521601E-009 -1.0120346E-008 0.0
  3.2047772E-009 -1.0289856E-008 0.0
  2.0996355E-009 -1.0461664E-008 0.0
  9.5075856E-010 -1.0633971E-008 0.0
 -2.3143075E-010 -1.0805129E-008 0.0
 -1.4390210E-009 -1.0973911E-008 0.0
 -2.6656574E-009 -1.1139296E-008 0.0
 -3.9060976E-009 -1.1300191E-008 0.0
 -5.1561590E-009 -1.1455228E-008 0.0
 -6.4128481E-009 -1.1602715E-008 0.0
 -7.6744998E-009 -1.1740707E-008 0.0
 -8.9408213E-009 -1.1867152E-008 0.0
 -1.0212833E-008 -1.1980043E-008 0.0
 -1.1492750E-008 -1.2077573E-008 0.0
 -1.2783832E-008 -1.2158323E-008 0.0
 -1.4090147E-008 -1.2221528E-008 0.0
 -1.5416150E-008 -1.2267472E-008 0.0
 -1.6765897E-008 -1.2297934E-008 0.0
 -1.8141801E-008 -1.2316486E-008 0.0
 -1.9543169E-008 -1.2328181E-008 0.0
 -2.0965294E-008 -1.2338346E-008 0.0
 -2.2400554E-008 -1.2350529E-008 0.0
 -2.3840159E-008 -1.2366061E-008 0.0
 -2.5272087E-008 -1.2383864E-008 0.0
 -2.6695226E-008 -1.2396571E-008 0.0
 -2.6694589E-008 -1.3817903E-008 0.0
 -1.4714566E-008 -4.0880294E-008 0.0
 -1.4248569E-008 -4.0937802E-008 0.0
 -1.3710119E-008 -4.0971814E-008 0.0
 -1.3223903E-008 -4.1009771E-008 0.0
 -1.2796783E-008 -4.1048629E-008 0.0
 -1.2426716E-008 -4.1086103E-008 0.0
 -1.2117443E-008 -4.1122072E-008 0.0
 -1.1881084E-008 -4.1152407E-008 0.0
 -1.1732133E-008 -4.1172355E-008 0.0
 -1.1681653E-008 -4.1181424E-008 0.0
 -1.1728784E-008 -4.1184984E-008 0.0
 -1.1856470E-008 -4.1188928E-008 0.0
 -1.2037852E-008 -4.1195368E-008 0.0
 -1.2246449E-008 -4.1201570E-008 0.0
 -1.2461827E-008 -4.1204094E-008 0.0
 -1.2669792E-008 -4.1200950E-008 0.0
 -1.2861216E-008 -4.1192554E-008 0.0
 -1.3031084E-008 -4.1180939E-008 0.0
 -1.3178275E-008 -4.1168890E-008 0.0
 -1.3305028E-008 -4.1159001E-008 0.0
 -1.3415811E-008 -4.1152753E-008 0.0
 -1.3515852E-008 -4.1150119E-008 0.0
 -1.3609843E-008 -4.1149949E-008 0.0
 -1.3701189E-008 -4.1150941E-008 0.0
 -1.3792703E-008 -4.1152545E-008 0.0
 -8.7684982E-010 -3.8869919E-009 0.0
 -6.0378095E-010 -3.8416828E-009 0.0
 -8.3074247E-010 -3.8502955E-009 0.0
 -8.2456989E-010 -3.8227094E-009 0.0
 -4.8395258E-010 -3.9606816E-009 0.0
 -1.0906719E-011 -4.1946369E-009 0.0
  5.2599841E-010 -4.4616778E-009 0.0
  1.1034107E-009 -4.7371437E-009 0.0
  1.7097675E-009 -5.0139143E-009 0.0
  2.3359194E-009 -5.2892454E-009 0.0
  2.9744027E-009 -5.5603285E-009 0.0
  3.6190638E-009 -5.8239451E-009 0.0
  4.2640185E-009 -6.0772590E-009 0.0
  4.9027340E-009 -6.3185204E-009 0.0
  5.5278624E-009 -6.5475188E-009 0.0
  6.1314833E-009 -6.7656221E-009 0.0
  6.7049630E-009 -6.9755667E-009 0.0
  7.2376833E-009 -7.1813109E-009 0.0
  7.7144943E-009 -7.3883749E-009 0.0
  8.1069562E-009 -7.6048843E-009 0.0
  8.3767239E-009 -7.8242165E-009 0.0
  8.5543514E-009 -8.0122346E-009 0.0
  8.6876335E-009 -8.1815770E-009 0.0
  8.7545514E-009 -8.3333024E-009 0.0
  8.7374627E-009 -8.4631100E-009 0.0
  8.6280124E-009 -8.5716542E-009 0.0
  8.3977305E-009 -8.6767130E-009 0.0
  8.0173950E-009 -8.7668801E-009 0.0
  7.5158246E-009 -8.8493393E-009 0.0
  6.8885749E-009 -8.9364249E-009 0.0
  6.1285924E-009 -9.0269180E-009 0.0
  5.2550027E-009 -9.1183643E-009 0.0
  4.2903817E-009 -9.2162575E-009 0.0
  3.2521811E-009 -9.3231862E-009 0.0
  2.1558372E-009 -9.4381285E-009 0.0
  1.0144273E-009 -9.5594249E-009 0.0
 -1.6197978E-010 -9.6851005E-009 0.0
 -1.3655368E-009 -9.8130982E-009 0.0
 -2.5899708E-009 -9.9415110E-009 0.0
 -3.8302497E-009 -1.0068477E-008 0.0
 -5.0824391E-009 -1.0192088E-008 0.0
 -6.3437287E-009 -1.0310367E-008 0.0
 -7.6124894E-009 -1.0421286E-008 0.0
 -8.8882674E-009 -1.0522843E-008 0.0
 -1.0171708E-008 -1.0613190E-008 0.0
 -1.1464422E-008 -1.0690788E-008 0.0
 -1.2768796E-008 -1.0754597E-008 0.0
 -1.4087704E-008 -1.0804304E-008 0.0
 -1.5424059E-008 -1.0840568E-008 0.0
 -1.6780161E-008 -1.0865227E-008 0.0
 -1.8156873E-008 -1.0881289E-008 0.0
 -1.9552893E-008 -1.0892576E-008 0.0
 -2.0964610E-008 -1.0902964E-008 0.0
 -2.2387024E-008 -1.0915730E-008 0.0
 -2.3815261E-008 -1.0932382E-008 0.0
 -2.5245737E-008 -1.0949364E-008 0.0
 -2.6676223E-008 -1.0960965E-008 0.0
 -1.4692420E-008 -4.1285768E-008 0.0
 -1.4129439E-008 -4.1236073E-008 0.0
 -1.3578543E-008 -4.1247799E-008 0.0
 -1.3104598E-008 -4.1269978E-008 0.0
 -1.2701145E-008 -4.1284268E-008 0.0
 -1.2349043E-008 -4.1300018E-008 0.0
 -1.2059828E-008 -4.1318746E-008 0.0
 -1.1848857E-008 -4.1334181E-008 0.0
 -1.1727582E-008 -4.1340645E-008 0.0
 -1.1700370E-008 -4.1335579E-008 0.0
 -1.1761337E-008 -4.1320589E-008 0.0
 -1.1894522E-008 -4.1299575E-008 0.0
 -1.2077874E-008 -4.1275539E-008 0.0
 -1.2288601E-008 -4.1249453E-008 0.0
 -1.2506865E-008 -4.1220907E-008 0.0
 -1.2717194E-008 -4.1189744E-008 0.0
 -1.2908625E-008 -4.1157005E-008 0.0
 -1.3074850E-008 -4.1125177E-008 0.0
 -1.3214513E-008 -4.1097569E-008 0.0
 -1.3331046E-008 -4.1077085E-008 0.0
 -1.3431278E-008 -4.1064920E-008 0.0
 -1.3522802E-008 -4.1059903E-008 0.0
 -1.3611320E-008 -4.1059309E-008 0.0
 -1.3699411E-008 -4.1060398E-008 0.0
 -1.3787334E-008 -4.1062229E-008 0.0
 -1.9359376E-010 -3.1744488E-009 0.0
 -1.0958624E-009 -3.1118116E-009 0.0
 -9.0577114E-010 -3.4153321E-009 0.0
 -4.6501278E-010 -3.8802586E-009 0.0
  3.9977765E-011 -4.3284232E-009 0.0
  5.8683584E-010 -4.7263347E-009 0.0
  1.1736554E-009 -5.0833421E-009 0.0
  1.7905471E-009 -5.4129428E-009 0.0
  2.4248698E-009 -5.7219429E-009 0.0
  3.0669650E-009 -6.0115415E-009 0.0
  3.7106792E-009 -6.2810909E-009 0.0
  4.3513308E-009 -6.5298863E-009 0.0
  4.9842534E-009 -6.7577112E-009 0.0
  5.6042679E-009 -6.9650701E-009 0.0
  6.2055459E-009 -7.1532830E-009 0.0
  6.7812529E-009 -7.3244389E-009 0.0
  7.3225181E-009 -7.4813559E-009 0.0
  7.8154252E-009 -7.6277115E-009 0.0
  8.2360790E-009 -7.7692579E-009 0.0
  8.4929009E-009 -7.9143459E-009 0.0
  8.6164749E-009 -8.1012495E-009 0.0
  8.7403239E-009 -8.2268711E-009 0.0
  8.7949822E-009 -8.3066656E-009 0.0
  8.7670978E-009 -8.3471568E-009 0.0
  8.6437888E-009 -8.3465095E-009 0.0
  8.4348738E-009 -8.2916939E-009 0.0
  8.0201792E-009 -8.2580510E-009 0.0
  7.5302984E-009 -8.2359402E-009 0.0
  6.9112829E-009 -8.2403051E-009 0.0
  6.1374000E-009 -8.2471619E-009 0.0
  5.2645933E-009 -8.2643141E-009 0.0
  4.3067565E-009 -8.3005608E-009 0.0
  3.2762634E-009 -8.3507256E-009 0.0
  2.1887590E-009 -8.4135914E-009 0.0
  1.0555916E-009 -8.4878010E-009 0.0
 -1.1409043E-010 -8.5706417E-009 0.0
 -1.3126622E-009 -8.6596702E-009 0.0
 -2.5340988E-009 -8.7524808E-009 0.0
 -3.7735080E-009 -8.8466776E-009 0.0
 -5.0270109E-009 -8.9400108E-009 0.0
 -6.2918216E-009 -9.0303418E-009 0.0
 -7.5662521E-009 -9.1156133E-009 0.0
 -8.8496429E-009 -9.1938943E-009 0.0
 -1.0142243E-008 -9.2634794E-009 0.0
 -1.1445053E-008 -9.3230353E-009 0.0
 -1.2759625E-008 -9.3717647E-009 0.0
 -1.4087784E-008 -9.4095634E-009 0.0
 -1.5431245E-008 -9.4371485E-009 0.0
 -1.6791110E-008 -9.4561015E-009 0.0
 -1.8167358E-008 -9.4687532E-009 0.0
 -1.9558479E-008 -9.4778579E-009 0.0
 -2.0961547E-008 -9.4861403E-009 0.0
 -2.2372814E-008 -9.4958247E-009 0.0
 -2.3790603E-008 -9.5088882E-009 0.0
 -2.5219993E-008 -9.5247148E-009 0.0
 -2.6657809E-008 -9.5364047E-009 0.0
 -1.4082613E-008 -4.1582689E-008 0.0
 -1.3431184E-008 -4.1511050E-008 0.0
 -1.2992511E-008 -4.1478756E-008 0.0
 -1.2606040E-008 -4.1464850E-008 0.0
 -1.2262474E-008 -4.1469153E-008 0.0
 -1.1987131E-008 -4.1479193E-008 0.0
 -1.1796675E-008 -4.1488061E-008 0.0
 -1.1702048E-008 -4.1487414E-008 0.0
 -1.1702355E-008 -4.1471760E-008 0.0
 -1.1786365E-008 -4.1440866E-008 0.0
 -1.1936170E-008 -4.1398332E-008 0.0
 -1.2130968E-008 -4.1348563E-008 0.0
 -1.2350021E-008 -4.1294758E-008 0.0
 -1.2574529E-008 -4.1238661E-008 0.0
 -1.2788523E-008 -4.1181472E-008 0.0
 -1.2979530E-008 -4.1125084E-008 0.0
 -1.3139648E-008 -4.1072840E-008 0.0
 -1.3267160E-008 -4.1029230E-008 0.0
 -1.3367495E-008 -4.0998218E-008 0.0
 -1.3451464E-008 -4.0980901E-008 0.0
 -1.3530752E-008 -4.0974718E-008 0.0
 -1.3612607E-008 -4.0974363E-008 0.0
 -1.3697583E-008 -4.0975702E-008 0.0
 -1.3782333E-008 -4.0977179E-008 0.0
 -3.7086754E-039 -3.7086754E-039 0.0
 -9.9845077E-010 -1.8150829E-009 0.0
 -6.8830865E-010 -3.0866328E-009 0.0
 -2.6885175E-010 -3.9723747E-009 0.0
  1.8112147E-010 -4.6153830E-009 0.0
  6.9436966E-010 -5.1096171E-009 0.0
  1.2733675E-009 -5.5225635E-009 0.0
  1.8922393E-009 -5.8903901E-009 0.0
  2.5268174E-009 -6.2235171E-009 0.0
  3.1651302E-009 -6.5243255E-009 0.0
  3.8018167E-009 -6.7943729E-009 0.0
  4.4334504E-009 -7.0350725E-009 0.0
  5.0568038E-009 -7.2476201E-009 0.0
  5.6683201E-009 -7.4331836E-009 0.0
  6.2638768E-009 -7.5930850E-009 0.0
  6.8384052E-009 -7.7288829E-009 0.0
  7.3848736E-009 -7.8422893E-009 0.0
  7.8922988E-009 -7.9349311E-009 0.0
  8.3386231E-009 -8.0066742E-009 0.0
  8.6830777E-009 -8.0710377E-009 0.0
  8.4638601E-009 -7.7614349E-009 0.0
  7.9922891E-009 -7.7420455E-009 0.0
  7.4980590E-009 -7.6414651E-009 0.0
  6.9143036E-009 -7.4821391E-009 0.0
  6.1185734E-009 -7.4041425E-009 0.0
  5.2616589E-009 -7.3692062E-009 0.0
  4.3045984E-009 -7.3535852E-009 0.0
  3.2813718E-009 -7.3535266E-009 0.0
  2.2029474E-009 -7.3727415E-009 0.0
  1.0775392E-009 -7.4057580E-009 0.0
 -8.5029145E-011 -7.4502877E-009 0.0
 -1.2780669E-009 -7.5041496E-009 0.0
 -2.4960424E-009 -7.5643542E-009 0.0
 -3.7340162E-009 -7.6282663E-009 0.0
 -4.9880485E-009 -7.6935415E-009 0.0
 -6.2552857E-009 -7.7580147E-009 0.0
 -7.5339430E-009 -7.8196973E-009 0.0
 -8.8231649E-009 -7.8767402E-009 0.0
 -1.0122814E-008 -7.9275411E-009 0.0
 -1.1433306E-008 -7.9709037E-009 0.0
 -1.2755444E-008 -8.0061650E-009 0.0
 -1.4090192E-008 -8.0332845E-009 0.0
 -1.5438365E-008 -8.0528811E-009 0.0
 -1.6800273E-008 -8.0661927E-009 0.0
 -1.8175393E-008 -8.0749229E-009 0.0
 -1.9562181E-008 -8.0809637E-009 0.0
 -2.0958153E-008 -8.0860167E-009 0.0
 -2.2360666E-008 -8.0911909E-009 0.0
 -2.3767442E-008 -8.0963950E-009 0.0
 -2.5190723E-008 -8.1022961E-009 0.0
 -2.6658650E-008 -8.0967482E-009 0.0
 -1.3186763E-008 -4.1519687E-008 0.0
 -1.2883101E-008 -4.1582778E-008 0.0
 -1.2497212E-008 -4.1595720E-008 0.0
 -1.2160752E-008 -4.1600318E-008 0.0
 -1.1890556E-008 -4.1610597E-008 0.0
 -1.1717509E-008 -4.1620603E-008 0.0
 -1.1653151E-008 -4.1616516E-008 0.0
 -1.1688959E-008 -4.1589858E-008 0.0
 -1.1805642E-008 -4.1541177E-008 0.0
 -1.1981357E-008 -4.1476397E-008 0.0
 -1.2195284E-008 -4.1402408E-008 0.0
 -1.2428381E-008 -4.1324192E-008 0.0
 -1.2663087E-008 -4.1244560E-008 0.0
 -1.2883286E-008 -4.1165202E-008 0.0
 -1.3074783E-008 -4.1088170E-008 0.0
 -1.3227047E-008 -4.1017493E-008 0.0
 -1.3337066E-008 -4.0959553E-008 0.0
 -1.3413237E-008 -4.0920251E-008 0.0
 -1.3473764E-008 -4.0900648E-008 0.0
 -1.3536817E-008 -4.0895029E-008 0.0
 -1.3612777E-008 -4.0895581E-008 0.0
 -1.3696350E-008 -4.0895471E-008 0.0
 -1.3779410E-008 -4.0895786E-008 0.0
 -4.0953895E-034 -5.2448590E-039 0.0
 -5.4486112E-010 -2.3299340E-009 0.0
 -2.5699895E-010 -3.6134313E-009 0.0
  2.5478378E-011 -4.5293760E-009 0.0
  3.4232706E-010 -5.1814772E-009 0.0
  8.0540757E-010 -5.6712062E-009 0.0
  1.3847005E-009 -6.0970263E-009 0.0
  2.0054443E-009 -6.4807198E-009 0.0
  2.6347040E-009 -6.8207021E-009 0.0
  3.2636319E-009 -7.1192913E-009 0.0
  3.8889088E-009 -7.3805266E-009 0.0
  4.5082001E-009 -7.6074667E-009 0.0
  5.1193487E-009 -7.8022200E-009 0.0
  5.7200528E-009 -7.9663279E-009 0.0
  6.3077176E-009 -8.1011806E-009 0.0
  6.8791551E-009 -8.2083817E-009 0.0
  7.4299502E-009 -8.2902174E-009 0.0
  7.9531979E-009 -8.3505925E-009 0.0
  8.4390107E-009 -8.4000845E-009 0.0
  8.8976233E-009 -8.4694243E-009 0.0
  6.9421660E-009 -6.5283288E-009 0.0
  6.0795163E-009 -6.5187225E-009 0.0
  5.2560975E-009 -6.4115217E-009 0.0
  4.2859295E-009 -6.3503305E-009 0.0
  3.2775865E-009 -6.3193677E-009 0.0
  2.2026959E-009 -6.3039657E-009 0.0
  1.0845623E-009 -6.3017007E-009 0.0
 -7.0614403E-011 -6.3147508E-009 0.0
 -1.2584611E-009 -6.3384273E-009 0.0
 -2.4729248E-009 -6.3700369E-009 0.0
 -3.7092469E-009 -6.4071881E-009 0.0
 -4.9632660E-009 -6.4473657E-009 0.0
 -6.2319203E-009 -6.4886991E-009 0.0
 -7.5134745E-009 -6.5293669E-009 0.0
 -8.8069513E-009 -6.5675504E-009 0.0
 -1.0111835E-008 -6.6017051E-009 0.0
 -1.1427989E-008 -6.6307274E-009 0.0
 -1.2755560E-008 -6.6540371E-009 0.0
 -1.4094820E-008 -6.6715977E-009 0.0
 -1.5445929E-008 -6.6838913E-009 0.0
 -1.6808673E-008 -6.6918427E-009 0.0
 -1.8182243E-008 -6.6966744E-009 0.0
 -1.9565113E-008 -6.6996973E-009 0.0
 -2.0955163E-008 -6.7020753E-009 0.0
 -2.2349814E-008 -6.7047283E-009 0.0
 -2.3747662E-008 -6.7088388E-009 0.0
 -2.5137679E-008 -6.7225540E-009 0.0
 -1.3167199E-008 -4.1764044E-008 0.0
 -1.2736834E-008 -4.1711828E-008 0.0
 -1.2383502E-008 -4.1705073E-008 0.0
 -1.2037664E-008 -4.1706361E-008 0.0
 -1.1758999E-008 -4.1725937E-008 0.0
 -1.1604155E-008 -4.1743080E-008 0.0
 -1.1581043E-008 -4.1733264E-008 0.0
 -1.1665093E-008 -4.1688180E-008 0.0
 -1.1824502E-008 -4.1613611E-008 0.0
 -1.2032895E-008 -4.1521980E-008 0.0
 -1.2270800E-008 -4.1423393E-008 0.0
 -1.2521853E-008 -4.1323737E-008 0.0
 -1.2770240E-008 -4.1225478E-008 0.0
 -1.2999691E-008 -4.1129736E-008 0.0
 -1.3194033E-008 -4.1038047E-008 0.0
 -1.3338279E-008 -4.0953807E-008 0.0
 -1.3424188E-008 -4.0885704E-008 0.0
 -1.3464366E-008 -4.0844649E-008 0.0
 -1.3492801E-008 -4.0829158E-008 0.0
 -1.3538013E-008 -4.0826796E-008 0.0
 -1.3614277E-008 -4.0819021E-008 0.0
 -1.3696303E-008 -4.0815213E-008 0.0
 -1.3778735E-008 -4.0814482E-008 0.0
 -8.5198912E-010 -4.9292465E-009 0.0
  1.6258353E-011 -4.9935779E-009 0.0
  2.4191434E-010 -5.5388122E-009 0.0
  3.9359915E-010 -6.0000042E-009 0.0
  8.7891118E-010 -6.4254130E-009 0.0
  1.4918089E-009 -6.8412769E-009 0.0
  2.1150483E-009 -7.2117329E-009 0.0
  2.7359834E-009 -7.5316313E-009 0.0
  3.3537216E-009 -7.8090553E-009 0.0
  3.9663797E-009 -8.0493035E-009 0.0
  4.5725026E-009 -8.2555682E-009 0.0
  5.1707743E-009 -8.4297200E-009 0.0
  5.7600607E-009 -8.5730561E-009 0.0
  6.3393869E-009 -8.6868768E-009 0.0
  6.9079255E-009 -8.7731430E-009 0.0
  7.4649885E-009 -8.8355045E-009 0.0
  8.0105310E-009 -8.8814524E-009 0.0
  8.5499454E-009 -8.9261169E-009 0.0
  9.1029709E-009 -8.9902374E-009 0.0
  5.2761094E-009 -5.3224019E-009 0.0
  4.2566738E-009 -5.3164965E-009 0.0
  3.2729401E-009 -5.2387415E-009 0.0
  2.1902741E-009 -5.1931590E-009 0.0
  1.0845572E-009 -5.1693776E-009 0.0
 -6.7191652E-011 -5.1573828E-009 0.0
 -1.2499084E-009 -5.1552365E-009 0.0
 -2.4610609E-009 -5.1637805E-009 0.0
 -3.6964848E-009 -5.1780326E-009 0.0
 -4.9500936E-009 -5.1964471E-009 0.0
 -6.2192110E-009 -5.2179313E-009 0.0
 -7.5025562E-009 -5.2405911E-009 0.0
 -8.7990422E-009 -5.2625532E-009 0.0
 -1.0107746E-008 -5.2823094E-009 0.0
 -1.1427978E-008 -5.2988619E-009 0.0
 -1.2759314E-008 -5.3117214E-009 0.0
 -1.4101487E-008 -5.3208561E-009 0.0
 -1.5454187E-008 -5.3266338E-009 0.0
 -1.6816855E-008 -5.3297408E-009 0.0
 -1.8188494E-008 -5.3310785E-009 0.0
 -1.9567592E-008 -5.3316416E-009 0.0
 -2.0952063E-008 -5.3324408E-009 0.0
 -2.2339315E-008 -5.3346179E-009 0.0
 -2.3724536E-008 -5.3405492E-009 0.0
 -2.5099297E-008 -5.3512578E-009 0.0
 -1.2563794E-008 -4.1756880E-008 0.0
 -1.2276355E-008 -4.1793975E-008 0.0
 -1.1882603E-008 -4.1812717E-008 0.0
 -1.1577447E-008 -4.1852447E-008 0.0
 -1.1451689E-008 -4.1873500E-008 0.0
 -1.1493345E-008 -4.1843705E-008 0.0
 -1.1643430E-008 -4.1758303E-008 0.0
 -1.1852353E-008 -4.1642751E-008 0.0
 -1.2095409E-008 -4.1517376E-008 0.0
 -1.2357879E-008 -4.1393774E-008 0.0
 -1.2627993E-008 -4.1276766E-008 0.0
 -1.2892699E-008 -4.1166571E-008 0.0
 -1.3134824E-008 -4.1061691E-008 0.0
 -1.3334555E-008 -4.0963862E-008 0.0
 -1.3473314E-008 -4.0877332E-008 0.0
 -1.3529537E-008 -4.0807998E-008 0.0
 -1.3509066E-008 -4.0776798E-008 0.0
 -1.3495560E-008 -4.0787178E-008 0.0
 -1.3536796E-008 -4.0786760E-008 0.0
 -1.5291045E-010 -6.2606406E-009 0.0
  4.8228430E-010 -6.3072839E-009 0.0
  2.7149254E-010 -7.0262547E-009 0.0
  9.1631523E-010 -7.4352495E-009 0.0
  1.5710874E-009 -7.7928505E-009 0.0
  2.1962413E-009 -8.0932058E-009 0.0
  2.8142597E-009 -8.3586269E-009 0.0
  3.4248998E-009 -8.5941341E-009 0.0
  4.0280514E-009 -8.8012983E-009 0.0
  4.6231854E-009 -8.9804464E-009 0.0
  5.2101473E-009 -9.1316903E-009 0.0
  5.7891870E-009 -9.2552678E-009 0.0
  6.3612157E-009 -9.3519509E-009 0.0
  6.9281998E-009 -9.4236758E-009 0.0
  7.4938725E-009 -9.4746741E-009 0.0
  8.0653689E-009 -9.5131912E-009 0.0
  8.6558317E-009 -9.5524531E-009 0.0
  9.2867849E-009 -9.6091245E-009 0.0
  3.2875577E-009 -4.0680508E-009 0.0
  2.1691256E-009 -4.0638408E-009 0.0
  1.0826853E-009 -4.0048409E-009 0.0
 -7.3429005E-011 -3.9687137E-009 0.0
 -1.2454484E-009 -3.9510610E-009 0.0
 -2.4575539E-009 -3.9409205E-009 0.0
 -3.6931942E-009 -3.9354416E-009 0.0
 -4.9455539E-009 -3.9362967E-009 0.0
 -6.2143394E-009 -3.9418106E-009 0.0
 -7.4987464E-009 -3.9497961E-009 0.0
 -8.7974630E-009 -3.9582693E-009 0.0
 -1.0109019E-008 -3.9658864E-009 0.0
 -1.1432180E-008 -3.9718397E-009 0.0
 -1.2766029E-008 -3.9757566E-009 0.0
 -1.4109892E-008 -3.9776520E-009 0.0
 -1.5463156E-008 -3.9778118E-009 0.0
 -1.6825028E-008 -3.9767414E-009 0.0
 -1.8194377E-008 -3.9751297E-009 0.0
 -1.9569639E-008 -3.9737953E-009 0.0
 -2.0948723E-008 -3.9736439E-009 0.0
 -2.2328577E-008 -3.9757524E-009 0.0
 -2.3704571E-008 -3.9810062E-009 0.0
 -2.5070300E-008 -3.9897258E-009 0.0
 -1.2550563E-008 -4.1998425E-008 0.0
 -1.2178828E-008 -4.1964198E-008 0.0
 -1.1690332E-008 -4.1990131E-008 0.0
 -1.1323173E-008 -4.2033687E-008 0.0
 -1.1266324E-008 -4.2046108E-008 0.0
 -1.1420147E-008 -4.1937329E-008 0.0
 -1.1645051E-008 -4.1774053E-008 0.0
 -1.1900727E-008 -4.1600732E-008 0.0
 -1.2173028E-008 -4.1437192E-008 0.0
 -1.2455578E-008 -4.1290959E-008 0.0
 -1.2742474E-008 -4.1163081E-008 0.0
 -1.3024787E-008 -4.1050376E-008 0.0
 -1.3285876E-008 -4.0946187E-008 0.0
 -1.3494995E-008 -4.0846559E-008 0.0
 -1.3625234E-008 -4.0768182E-008 0.0
 -1.3652355E-008 -4.0732529E-008 0.0
 -1.3513141E-008 -4.0760625E-008 0.0
 -2.1087039E-010 -8.8906422E-009 0.0
  8.6617521E-010 -8.8001040E-009 0.0
  1.5674168E-009 -8.9224893E-009 0.0
  2.2242691E-009 -9.0964131E-009 0.0
  2.8548458E-009 -9.2813256E-009 0.0
  3.4689275E-009 -9.4612061E-009 0.0
  4.0692996E-009 -9.6275256E-009 0.0
  4.6581409E-009 -9.7757529E-009 0.0
  5.2371651E-009 -9.9032581E-009 0.0
  5.8084388E-009 -1.0008660E-008 0.0
  6.3749817E-009 -1.0091729E-008 0.0
  6.9415836E-009 -1.0153692E-008 0.0
  7.5161143E-009 -1.0197883E-008 0.0
  8.1111937E-009 -1.0230844E-008 0.0
  8.7454314E-009 -1.0263150E-008 0.0
  9.4420578E-009 -1.0309035E-008 0.0
  1.0951036E-009 -2.7764559E-009 0.0
 -9.0365857E-011 -2.7723136E-009 0.0
 -1.2400430E-009 -2.7197596E-009 0.0
 -2.4607966E-009 -2.6930133E-009 0.0
 -3.6959184E-009 -2.6750201E-009 0.0
 -4.9461039E-009 -2.6636604E-009 0.0
 -6.2142435E-009 -2.6576644E-009 0.0
 -7.4997131E-009 -2.6540483E-009 0.0
 -8.8003093E-009 -2.6515478E-009 0.0
 -1.0114199E-008 -2.6492647E-009 0.0
 -1.1439563E-008 -2.6464226E-009 0.0
 -1.2774986E-008 -2.6429171E-009 0.0
 -1.4119610E-008 -2.6388435E-009 0.0
 -1.5472669E-008 -2.6343816E-009 0.0
 -1.6833219E-008 -2.6298750E-009 0.0
 -1.8200010E-008 -2.6258411E-009 0.0
 -1.9571419E-008 -2.6229515E-009 0.0
 -2.0945359E-008 -2.6219773E-009 0.0
 -2.2319055E-008 -2.6235513E-009 0.0
 -2.3688554E-008 -2.6278379E-009 0.0
 -2.5048473E-008 -2.6344165E-009 0.0
 -1.2181198E-008 -4.2366735E-008 0.0
 -1.1438442E-008 -4.2325775E-008 0.0
 -1.0955717E-008 -4.2430032E-008 0.0
 -1.1137254E-008 -4.2234513E-008 0.0
 -1.1407806E-008 -4.1949902E-008 0.0
 -1.1690918E-008 -4.1680207E-008 0.0
 -1.1976460E-008 -4.1446279E-008 0.0
 -1.2265732E-008 -4.1250295E-008 0.0
 -1.2560096E-008 -4.1089484E-008 0.0
 -1.2858790E-008 -4.0959625E-008 0.0
 -1.3157418E-008 -4.0855032E-008 0.0
 -1.3444730E-008 -4.0766636E-008 0.0
 -1.3686219E-008 -4.0676026E-008 0.0
 -1.3801039E-008 -4.0576594E-008 0.0
 -1.3852097E-008 -4.0484215E-008 0.0
 -3.5447648E-010 -1.0132908E-008 0.0
  6.6148302E-010 -1.0098694E-008 0.0
  1.4807597E-009 -1.0083210E-008 0.0
  2.1928786E-009 -1.0151836E-008 0.0
  2.8552436E-009 -1.0262026E-008 0.0
  3.4836976E-009 -1.0386603E-008 0.0
  4.0891426E-009 -1.0511706E-008 0.0
  4.6773436E-009 -1.0629263E-008 0.0
  5.2526305E-009 -1.0734349E-008 0.0
  5.8191724E-009 -1.0824015E-008 0.0
  6.3821048E-009 -1.0896856E-008 0.0
  6.9486802E-009 -1.0952926E-008 0.0
  7.5297083E-009 -1.0993857E-008 0.0
  8.1419947E-009 -1.1022919E-008 0.0
  8.8096829E-009 -1.1047243E-008 0.0
  9.5612895E-009 -1.1079235E-008 0.0
 -1.2264375E-009 -1.4268399E-009 0.0
 -2.4632631E-009 -1.4177905E-009 0.0
 -3.7013641E-009 -1.3963068E-009 0.0
 -4.9470938E-009 -1.3794907E-009 0.0
 -6.2171524E-009 -1.3640696E-009 0.0
 -7.5033635E-009 -1.3503488E-009 0.0
 -8.8056380E-009 -1.3397250E-009 0.0
 -1.0122089E-008 -1.3294808E-009 0.0
 -1.1449146E-008 -1.3195352E-009 0.0
 -1.2785382E-008 -1.3102618E-009 0.0
 -1.4130085E-008 -1.3016211E-009 0.0
 -1.5482429E-008 -1.2936304E-009 0.0
 -1.6841356E-008 -1.2864694E-009 0.0
 -1.8205513E-008 -1.2805008E-009 0.0
 -1.9573220E-008 -1.2762287E-009 0.0
 -2.0942480E-008 -1.2742594E-009 0.0
 -2.2311077E-008 -1.2751058E-009 0.0
 -2.3676285E-008 -1.2784976E-009 0.0
 -2.5033225E-008 -1.2831097E-009 0.0
 -1.0730464E-008 -4.3584095E-008 0.0
 -1.0802918E-008 -4.2846138E-008 0.0
 -1.1159412E-008 -4.2205452E-008 0.0
 -1.1480087E-008 -4.1745161E-008 0.0
 -1.1780343E-008 -4.1400313E-008 0.0
 -1.2072881E-008 -4.1134750E-008 0.0
 -1.2366047E-008 -4.0927660E-008 0.0
 -1.2664396E-008 -4.0766758E-008 0.0
 -1.2969739E-008 -4.0644227E-008 0.0
 -1.3281560E-008 -4.0554278E-008 0.0
 -1.3595010E-008 -4.0490830E-008 0.0
 -1.3895676E-008 -4.0443158E-008 0.0
 -1.4047643E-008 -4.0390467E-008 0.0
 -1.3846310E-008 -4.0437549E-008 0.0
 -3.4688690E-010 -1.1159234E-008 0.0
  5.1109707E-010 -1.1180435E-008 0.0
  1.3568690E-009 -1.1175676E-008 0.0
  2.1291673E-009 -1.1203548E-008 0.0
  2.8252905E-009 -1.1263733E-008 0.0
  3.4745413E-009 -1.1344442E-008 0.0
  4.0907466E-009 -1.1434472E-008 0.0
  4.6832169E-009 -1.1525467E-008 0.0
  5.2586720E-009 -1.1611566E-008 0.0
  5.8233096E-009 -1.1688833E-008 0.0
  6.3841292E-009 -1.1754874E-008 0.0
  6.9501993E-009 -1.1808599E-008 0.0
  7.5342504E-009 -1.1849953E-008 0.0
  8.1543006E-009 -1.1879529E-008 0.0
  8.8406265E-009 -1.1896657E-008 0.0
  9.6350548E-009 -1.1912770E-008 0.0
 -2.4533055E-009 -1.2932553E-010 0.0
 -3.7126959E-009 -1.2448596E-010 0.0
 -4.9476704E-009 -8.3911498E-011 0.0
 -6.2237213E-009 -5.5881013E-011 0.0
 -7.5059197E-009 -3.7202593E-011 0.0
 -8.8123764E-009 -2.0089291E-011 0.0
 -1.0131774E-008 -3.1929959E-012 0.0
 -1.1459775E-008  1.1661958E-011 0.0
 -1.2796247E-008  2.4723876E-011 0.0
 -1.4140639E-008  3.6357034E-011 0.0
 -1.5492037E-008  4.6732791E-011 0.0
 -1.6849282E-008  5.5728593E-011 0.0
 -1.8210959E-008  6.3124788E-011 0.0
 -1.9575363E-008  6.8597654E-011 0.0
 -2.0940551E-008  7.1795380E-011 0.0
 -2.2304639E-008  7.2257531E-011 0.0
 -2.3666818E-008  6.9810646E-011 0.0
 -2.5024632E-008  6.6595595E-011 0.0
 -9.9597291E-009 -4.2982786E-008 0.0
 -1.0887727E-008 -4.2223210E-008 0.0
 -1.1268238E-008 -4.1618320E-008 0.0
 -1.1584192E-008 -4.1193099E-008 0.0
 -1.1877945E-008 -4.0879292E-008 0.0
 -1.2166970E-008 -4.0639885E-008 0.0
 -1.2459299E-008 -4.0454485E-008 0.0
 -1.2759424E-008 -4.0311408E-008 0.0
 -1.3070151E-008 -4.0203574E-008 0.0
 -1.3393659E-008 -4.0126222E-008 0.0
 -1.3733246E-008 -4.0074414E-008 0.0
 -1.4093828E-008 -4.0036195E-008 0.0
 -1.4522397E-008 -3.9905576E-008 0.0
  3.3259729E-010 -1.2264964E-008 0.0
  1.2589574E-009 -1.2227668E-008 0.0
  2.0559346E-009 -1.2232331E-008 0.0
  2.7811413E-009 -1.2262241E-008 0.0
  3.4508203E-009 -1.2312999E-008 0.0
  4.0803426E-009 -1.2377266E-008 0.0
  4.6801346E-009 -1.2448187E-008 0.0
  5.2585711E-009 -1.2520161E-008 0.0
  5.8233634E-009 -1.2588952E-008 0.0
  6.3829000E-009 -1.2651553E-008 0.0
  6.9474845E-009 -1.2705984E-008 0.0
  7.5305718E-009 -1.2751025E-008 0.0
  8.1511092E-009 -1.2785725E-008 0.0
  8.8328716E-009 -1.2808196E-008 0.0
  9.6447748E-009 -1.2801214E-008 0.0
 -4.9382171E-009  1.2478176E-009 0.0
 -6.2365141E-009  1.2509039E-009 0.0
 -7.5049537E-009  1.2907457E-009 0.0
 -8.8202322E-009  1.3136425E-009 0.0
 -1.0141557E-008  1.3327589E-009 0.0
 -1.1469842E-008  1.3492821E-009 0.0
 -1.2806432E-008  1.3636863E-009 0.0
 -1.4150589E-008  1.3768784E-009 0.0
 -1.5501013E-008  1.3885342E-009 0.0
 -1.6856749E-008  1.3985136E-009 0.0
 -1.8216322E-008  1.4067517E-009 0.0
 -1.9577958E-008  1.4130575E-009 0.0
 -2.0939916E-008  1.4172509E-009 0.0
 -2.2300270E-008  1.4196037E-009 0.0
 -2.3659203E-008  1.4203421E-009 0.0
 -2.5024053E-008  1.4226097E-009 0.0
 -9.4750903E-009 -4.0453062E-008 0.0
 -1.0748286E-008 -4.0599649E-008 0.0
 -1.1268092E-008 -4.0500510E-008 0.0
 -1.1622508E-008 -4.0314523E-008 0.0
 -1.1931671E-008 -4.0132443E-008 0.0
 -1.2229387E-008 -3.9973178E-008 0.0
 -1.2528746E-008 -3.9839453E-008 0.0
 -1.2836458E-008 -3.9729818E-008 0.0
 -1.3157311E-008 -3.9641721E-008 0.0
 -1.3496868E-008 -3.9571598E-008 0.0
 -1.3865636E-008 -3.9513420E-008 0.0
 -1.4293925E-008 -3.9452591E-008 0.0
 -1.4927684E-008 -3.9384948E-008 0.0
  2.5446196E-010 -1.3257884E-008 0.0
  1.1709983E-009 -1.3238482E-008 0.0
  1.9910247E-009 -1.3229070E-008 0.0
  2.7353679E-009 -1.3243036E-008 0.0
  3.4227111E-009 -1.3276262E-008 0.0
  4.0652491E-009 -1.3324408E-008 0.0
  4.6734731E-009 -1.3382436E-008 0.0
  5.2562883E-009 -1.3445646E-008 0.0
  5.8222304E-009 -1.3509993E-008 0.0
  6.3804951E-009 -1.3572177E-008 0.0
  6.9419454E-009 -1.3629526E-008 0.0
  7.5203260E-009 -1.3679730E-008 0.0
  8.1330270E-009 -1.3720452E-008 0.0
  8.8062458E-009 -1.3750040E-008 0.0
  9.5490852E-009 -1.3763870E-008 0.0
 -7.4957567E-009  2.6591599E-009 0.0
 -8.8244259E-009  2.6641317E-009 0.0
 -1.0149238E-008  2.6788360E-009 0.0
 -1.1477061E-008  2.6928055E-009 0.0
 -1.2815378E-008  2.7074157E-009 0.0
 -1.4159381E-008  2.7213009E-009 0.0
 -1.5508740E-008  2.7331634E-009 0.0
 -1.6863462E-008  2.7432231E-009 0.0
 -1.8221485E-008  2.7517916E-009 0.0
 -1.9580826E-008  2.7583243E-009 0.0
 -2.0940080E-008  2.7626187E-009 0.0
 -2.2297929E-008  2.7646866E-009 0.0
 -2.3649665E-008  2.7634099E-009 0.0
 -9.3626116E-009 -3.8926265E-008 0.0
 -1.0404878E-008 -3.9084979E-008 0.0
 -1.1096389E-008 -3.9239553E-008 0.0
 -1.1548112E-008 -3.9274738E-008 0.0
 -1.1910890E-008 -3.9242071E-008 0.0
 -1.2240888E-008 -3.9181879E-008 0.0
 -1.2562774E-008 -3.9113637E-008 0.0
 -1.2889240E-008 -3.9045860E-008 0.0
 -1.3229205E-008 -3.8981079E-008 0.0
 -1.3592479E-008 -3.8917584E-008 0.0
 -1.3995677E-008 -3.8848968E-008 0.0
 -1.4477485E-008 -3.8764745E-008 0.0
 -1.5100671E-008 -3.8676133E-008 0.0
 -1.5834616E-008 -3.8621469E-008 0.0
 -1.5855621E-008 -3.9399448E-008 0.0
  2.2294586E-010 -1.4202146E-008 0.0
  1.1157899E-009 -1.4192784E-008 0.0
  1.9404643E-009 -1.4187840E-008 0.0
  2.6982212E-009 -1.4197267E-008 0.0
  3.3986903E-009 -1.4223202E-008 0.0
  4.0524339E-009 -1.4263588E-008 0.0
  4.6686426E-009 -1.4315355E-008 0.0
  5.2559258E-009 -1.4374855E-008 0.0
  5.8229300E-009 -1.4438464E-008 0.0
  6.3790445E-009 -1.4502789E-008 0.0
  6.9351162E-009 -1.4564591E-008 0.0
  7.5040628E-009 -1.4620329E-008 0.0
  8.1019934E-009 -1.4665105E-008 0.0
  8.7455939E-009 -1.4688261E-008 0.0
  9.4519997E-009 -1.4670166E-008 0.0
  1.0264412E-008 -1.4634718E-008 0.0
  1.0272035E-008 -1.3792163E-008 0.0
 -8.8188997E-009  4.0196458E-009 0.0
 -1.0156500E-008  4.0217460E-009 0.0
 -1.1480622E-008  4.0425840E-009 0.0
 -1.2823614E-008  4.0571142E-009 0.0
 -1.4166172E-008  4.0705039E-009 0.0
 -1.5514435E-008  4.0811387E-009 0.0
 -1.6869475E-008  4.0912806E-009 0.0
 -1.8226223E-008  4.0996303E-009 0.0
 -1.9583516E-008  4.1055905E-009 0.0
 -2.0940543E-008  4.1092515E-009 0.0
 -2.2295600E-008  4.1105394E-009 0.0
 -2.3646553E-008  4.1103612E-009 0.0
 -8.3085571E-009 -3.8871011E-008 0.0
 -8.4053374E-009 -3.7504055E-008 0.0
 -9.2869836E-009 -3.7694683E-008 0.0
 -1.0148382E-008 -3.7895940E-008 0.0
 -1.0854976E-008 -3.8091273E-008 0.0
 -1.1392431E-008 -3.8231688E-008 0.0
 -1.1822469E-008 -3.8303396E-008 0.0
 -1.2200973E-008 -3.8326445E-008 0.0
 -1.2559010E-008 -3.8319269E-008 0.0
 -1.2915172E-008 -3.8293337E-008 0.0
 -1.3282904E-008 -3.8254175E-008 0.0
 -1.3675715E-008 -3.8202779E-008 0.0
 -1.4112410E-008 -3.8137375E-008 0.0
 -1.4619902E-008 -3.8060298E-008 0.0
 -1.5217819E-008 -3.7988969E-008 0.0
 -1.5899125E-008 -3.7946822E-008 0.0
  2.1423683E-010 -1.5106256E-008 0.0
  1.0885868E-009 -1.5105348E-008 0.0
  1.9120110E-009 -1.5108375E-008 0.0
  2.6757381E-009 -1.5121154E-008 0.0
  3.3851341E-009 -1.5146593E-008 0.0
  4.0476049E-009 -1.5185576E-008 0.0
  4.6704481E-009 -1.5236453E-008 0.0
  5.2613008E-009 -1.5296465E-008 0.0
  5.8283834E-009 -1.5362426E-008 0.0
  6.3807759E-009 -1.5430981E-008 0.0
  6.9287396E-009 -1.5498541E-008 0.0
  7.4840322E-009 -1.5560907E-008 0.0
  8.0593692E-009 -1.5612341E-008 0.0
  8.6679659E-009 -1.5645098E-008 0.0
  9.3211338E-009 -1.5650841E-008 0.0
  1.0137001E-008 -1.5588550E-008 0.0
 -1.1477631E-008  5.4089427E-009 0.0
 -1.2829340E-008  5.4087749E-009 0.0
 -1.4172188E-008  5.4196205E-009 0.0
 -1.5518258E-008  5.4362311E-009 0.0
 -1.6874578E-008  5.4448155E-009 0.0
 -1.8229927E-008  5.4512267E-009 0.0
 -1.9585610E-008  5.4556495E-009 0.0
 -2.0940987E-008  5.4583914E-009 0.0
 -2.2294625E-008  5.4595759E-009 0.0
 -2.3646239E-008  5.4600689E-009 0.0
 -7.1030578E-009 -3.7174231E-008 0.0
 -7.1721026E-009 -3.6068716E-008 0.0
 -7.8066276E-009 -3.6333625E-008 0.0
 -7.9113452E-009 -3.7185627E-008 0.0
 -8.4224562E-009 -3.6512147E-008 0.0
 -9.1799665E-009 -3.6687822E-008 0.0
 -9.9496563E-009 -3.6888267E-008 0.0
 -1.0634278E-008 -3.7087867E-008 0.0
 -1.1209655E-008 -3.7257712E-008 0.0
 -1.1694876E-008 -3.7380914E-008 0.0
 -1.2123230E-008 -3.7457461E-008 0.0
 -1.2523211E-008 -3.7496270E-008 0.0
 -1.2915322E-008 -3.7505989E-008 0.0
 -1.3315612E-008 -3.7492509E-008 0.0
 -1.3739143E-008 -3.7459234E-008 0.0
 -1.4202258E-008 -3.7409318E-008 0.0
 -1.4720698E-008 -3.7349558E-008 0.0
 -1.5302767E-008 -3.7291338E-008 0.0
 -1.5942510E-008 -3.7247056E-008 0.0
 -1.6613301E-008 -3.7224157E-008 0.0
 -1.6627139E-008 -3.7943322E-008 0.0
  2.1303214E-010 -1.5985350E-008 0.0
  1.0844031E-009 -1.5987349E-008 0.0
  1.9058239E-009 -1.5996283E-008 0.0
  2.6707106E-009 -1.6013036E-008 0.0
  3.3860260E-009 -1.6041729E-008 0.0
  4.0550249E-009 -1.6083580E-008 0.0
  4.6827597E-009 -1.6137442E-008 0.0
  5.2756815E-009 -1.6201075E-008 0.0
  5.8412709E-009 -1.6271682E-008 0.0
  6.3879476E-009 -1.6346037E-008 0.0
  6.9251291E-009 -1.6420435E-008 0.0
  7.4631813E-009 -1.6490482E-008 0.0
  8.0133327E-009 -1.6551184E-008 0.0
  8.5869663E-009 -1.6598138E-008 0.0
  9.2035105E-009 -1.6632305E-008 0.0
  9.8315902E-009 -1.6638177E-008 0.0
 -1.5517463E-008  6.8035912E-009 0.0
 -1.6877428E-008  6.8026024E-009 0.0
 -1.8232061E-008  6.8055894E-009 0.0
 -1.9586970E-008  6.8087399E-009 0.0
 -2.0941481E-008  6.8104654E-009 0.0
 -2.2294169E-008  6.8106603E-009 0.0
 -2.4605286E-009 -3.4019764E-008 0.0
 -2.4774504E-009 -3.3390668E-008 0.0
 -2.9428926E-009 -3.3502767E-008 0.0
 -2.9818958E-009 -3.4013120E-008 0.0
 -3.3673435E-009 -3.3617709E-008 0.0
 -3.4117574E-009 -3.4078505E-008 0.0
 -3.7776204E-009 -3.3740493E-008 0.0
 -3.8299435E-009 -3.4184476E-008 0.0
 -4.1867266E-009 -3.3877325E-008 0.0
 -4.2458919E-009 -3.4316938E-008 0.0
 -4.5975873E-009 -3.4029320E-008 0.0
 -4.6634288E-009 -3.4470066E-008 0.0
 -5.0110742E-009 -3.4197113E-008 0.0
 -5.0837686E-009 -3.4642276E-008 0.0
 -5.4270352E-009 -3.4382065E-008 0.0
 -5.5071997E-009 -3.4834556E-008 0.0
 -5.8442164E-009 -3.4586654E-008 0.0
 -5.9334532E-009 -3.5050950E-008 0.0
 -6.2616478E-009 -3.4813824E-008 0.0
 -6.3592001E-009 -3.5300830E-008 0.0
 -6.6721482E-009 -3.5061206E-008 0.0
 -6.7903375E-009 -3.5614273E-008 0.0
 -7.1454693E-009 -3.5266127E-008 0.0
 -7.7477998E-009 -3.5469221E-008 0.0
 -8.3921528E-009 -3.5654826E-008 0.0
 -9.0836975E-009 -3.5823791E-008 0.0
 -9.7876852E-009 -3.6004655E-008 0.0
 -1.0446761E-008 -3.6190816E-008 0.0
 -1.1034962E-008 -3.6361871E-008 0.0
 -1.1555271E-008 -3.6502350E-008 0.0
 -1.2025078E-008 -3.6606043E-008 0.0
 -1.2464982E-008 -3.6673997E-008 0.0
 -1.2893527E-008 -3.6710486E-008 0.0
 -1.3326621E-008 -3.6720104E-008 0.0
 -1.3778614E-008 -3.6707208E-008 0.0
 -1.4262624E-008 -3.6676885E-008 0.0
 -1.4788988E-008 -3.6636168E-008 0.0
 -1.5361956E-008 -3.6594232E-008 0.0
 -1.5976046E-008 -3.6560871E-008 0.0
 -1.6613350E-008 -3.6542763E-008 0.0
 -1.7254214E-008 -3.6536667E-008 0.0
 -1.7264073E-008 -3.7215256E-008 0.0
  1.1087897E-009 -1.6835357E-008 0.0
  1.9175217E-009 -1.6849764E-008 0.0
  2.6836537E-009 -1.6870984E-008 0.0
  3.4038037E-009 -1.6905339E-008 0.0
  4.0776039E-009 -1.6952718E-008 0.0
  4.7084195E-009 -1.7011876E-008 0.0
  5.3016488E-009 -1.7081000E-008 0.0
  5.8639000E-009 -1.7157640E-008 0.0
  6.4027592E-009 -1.7238760E-008 0.0
  6.9266307E-009 -1.7320675E-008 0.0
  7.4446465E-009 -1.7398856E-008 0.0
  7.9665744E-009 -1.7467661E-008 0.0
  8.5034657E-009 -1.7519941E-008 0.0
  9.0621346E-009 -1.7540160E-008 0.0
  9.6154682E-009 -1.7512592E-008 0.0
  1.0276152E-008 -1.7426603E-008 0.0
  1.0294282E-008 -1.6703424E-008 0.0
 -1.1808443E-009 -3.3131109E-008 0.0
 -1.2024442E-009 -3.2505413E-008 0.0
 -1.6476530E-009 -3.2620180E-008 0.0
 -1.6883268E-009 -3.3128465E-008 0.0
 -2.0448306E-009 -3.2743294E-008 0.0
 -2.0968974E-009 -3.3217473E-008 0.0
 -2.4485084E-009 -3.2855160E-008 0.0
 -2.8846895E-009 -3.2983207E-008 0.0
 -3.3083651E-009 -3.3118843E-008 0.0
 -3.7191138E-009 -3.3256508E-008 0.0
 -4.1260240E-009 -3.3398947E-008 0.0
 -4.5336076E-009 -3.3549412E-008 0.0
 -4.9434269E-009 -3.3709560E-008 0.0
 -5.3559731E-009 -3.3880011E-008 0.0
 -5.7718949E-009 -3.4059873E-008 0.0
 -6.1930649E-009 -3.4244583E-008 0.0
 -6.6376431E-009 -3.4417964E-008 0.0
 -7.1379166E-009 -3.4577968E-008 0.0
 -7.7116563E-009 -3.4728534E-008 0.0
 -8.3390214E-009 -3.4882203E-008 0.0
 -8.9953405E-009 -3.5039576E-008 0.0
 -9.6554971E-009 -3.5203357E-008 0.0
 -1.0290181E-008 -3.5371318E-008 0.0
 -1.0879547E-008 -3.5531862E-008 0.0
 -1.1420185E-008 -3.5672731E-008 0.0
 -1.1920392E-008 -3.5786239E-008 0.0
 -1.2393775E-008 -3.5869779E-008 0.0
 -1.2854987E-008 -3.5924278E-008 0.0
 -1.3317860E-008 -3.5952579E-008 0.0
 -1.3794823E-008 -3.5958636E-008 0.0
 -1.4296385E-008 -3.5947543E-008 0.0
 -1.4829919E-008 -3.5925752E-008 0.0
 -1.5397819E-008 -3.5900795E-008 0.0
 -1.5995741E-008 -3.5879966E-008 0.0
 -1.6613588E-008 -3.5867657E-008 0.0
 -1.7239353E-008 -3.5864690E-008 0.0
 -1.7882452E-008 -3.5872625E-008 0.0
 -1.7887151E-008 -3.6528413E-008 0.0
  1.1489098E-009 -1.7646356E-008 0.0
  1.9452061E-009 -1.7665388E-008 0.0
  2.7152808E-009 -1.7694277E-008 0.0
  3.4398986E-009 -1.7735950E-008 0.0
  4.1169725E-009 -1.7789570E-008 0.0
  4.7492441E-009 -1.7854694E-008 0.0
  5.3410360E-009 -1.7929909E-008 0.0
  5.8981021E-009 -1.8012990E-008 0.0
  6.4271812E-009 -1.8101165E-008 0.0
  6.9356108E-009 -1.8190944E-008 0.0
  7.4310899E-009 -1.8277798E-008 0.0
  7.9214934E-009 -1.8355559E-008 0.0
  8.4140846E-009 -1.8414898E-008 0.0
  8.9113937E-009 -1.8444861E-008 0.0
  9.4313246E-009 -1.8447769E-008 0.0
  9.9719858E-009 -1.8437152E-008 0.0
 -3.2120542E-010 -3.2356063E-008 0.0
 -3.5449874E-010 -3.1676762E-008 0.0
 -7.8331185E-010 -3.1827007E-008 0.0
 -8.3941398E-010 -3.2357174E-008 0.0
 -1.1778257E-009 -3.1953598E-008 0.0
 -1.5923261E-009 -3.2084301E-008 0.0
 -2.0000730E-009 -3.2215664E-008 0.0
 -2.4084363E-009 -3.2343627E-008 0.0
 -2.8266026E-009 -3.2473157E-008 0.0
 -3.2450043E-009 -3.2610330E-008 0.0
 -3.6568922E-009 -3.2751155E-008 0.0
 -4.0650295E-009 -3.2894116E-008 0.0
 -4.4730895E-009 -3.3040103E-008 0.0
 -4.8834718E-009 -3.3189901E-008 0.0
 -5.2980929E-009 -3.3343032E-008 0.0
 -5.7197615E-009 -3.3497038E-008 0.0
 -6.1557685E-009 -3.3646285E-008 0.0
 -6.6197317E-009 -3.3786193E-008 0.0
 -7.1280873E-009 -3.3915892E-008 0.0
 -7.6878089E-009 -3.4042693E-008 0.0
 -8.2894175E-009 -3.4173291E-008 0.0
 -8.9154333E-009 -3.4311790E-008 0.0
 -9.5453164E-009 -3.4458085E-008 0.0
 -1.0159733E-008 -3.4608178E-008 0.0
 -1.0745064E-008 -3.4754445E-008 0.0
 -1.1296544E-008 -3.4887944E-008 0.0
 -1.1817609E-008 -3.5001600E-008 0.0
 -1.2316816E-008 -3.5091533E-008 0.0
 -1.2804925E-008 -3.5156847E-008 0.0
 -1.3292956E-008 -3.5198888E-008 0.0
 -1.3791040E-008 -3.5220643E-008 0.0
 -1.4307513E-008 -3.5226414E-008 0.0
 -1.4847931E-008 -3.5221552E-008 0.0
 -1.5413997E-008 -3.5211891E-008 0.0
 -1.6003107E-008 -3.5202579E-008 0.0
 -1.6609087E-008 -3.5196687E-008 0.0
 -1.7226068E-008 -3.5193549E-008 0.0
 -1.7846188E-008 -3.5192663E-008 0.0
  1.1828220E-009 -1.8430055E-008 0.0
  1.9884329E-009 -1.8451744E-008 0.0
  2.7659242E-009 -1.8487491E-008 0.0
  3.4938207E-009 -1.8533244E-008 0.0
  4.1735849E-009 -1.8591353E-008 0.0
  4.8061341E-009 -1.8661728E-008 0.0
  5.3948936E-009 -1.8742370E-008 0.0
  5.9451343E-009 -1.8831289E-008 0.0
  6.4628241E-009 -1.8926025E-008 0.0
  6.9543237E-009 -1.9023516E-008 0.0
  7.4259398E-009 -1.9119846E-008 0.0
  7.8834299E-009 -1.9209647E-008 0.0
  8.3312469E-009 -1.9285587E-008 0.0
  8.7759902E-009 -1.9338608E-008 0.0
  9.2277054E-009 -1.9349867E-008 0.0
  9.7210969E-009 -1.9281205E-008 0.0
  1.0383603E-008 -1.9196465E-008 0.0
  1.0388439E-008 -1.8494334E-008 0.0
  7.7544416E-010 -3.1328883E-008 0.0
  7.4814112E-010 -3.0690355E-008 0.0
  3.4910538E-010 -3.0846051E-008 0.0
  2.9568460E-010 -3.1323572E-008 0.0
  1.4449910E-011 -3.1003673E-008 0.0
 -5.1938036E-011 -3.1441336E-008 0.0
 -3.3011187E-010 -3.1137049E-008 0.0
 -7.3146478E-010 -3.1280091E-008 0.0
 -1.1349294E-009 -3.1423467E-008 0.0
 -1.5400973E-009 -3.1559477E-008 0.0
 -1.9478179E-009 -3.1694315E-008 0.0
 -2.3572238E-009 -3.1827479E-008 0.0
 -2.7700334E-009 -3.1961041E-008 0.0
 -3.1838417E-009 -3.2096839E-008 0.0
 -3.5959695E-009 -3.2234738E-008 0.0
 -4.0065206E-009 -3.2373307E-008 0.0
 -4.4176812E-009 -3.2511889E-008 0.0
 -4.8320118E-009 -3.2650061E-008 0.0
 -5.2524150E-009 -3.2786720E-008 0.0
 -5.6832441E-009 -3.2919585E-008 0.0
 -6.1314112E-009 -3.3045976E-008 0.0
 -6.6063175E-009 -3.3164287E-008 0.0
 -7.1165927E-009 -3.3276440E-008 0.0
 -7.6649452E-009 -3.3387213E-008 0.0
 -8.2455643E-009 -3.3502120E-008 0.0
 -8.8463016E-009 -3.3624271E-008 0.0
 -9.4524941E-009 -3.3753662E-008 0.0
 -1.0050286E-008 -3.3887007E-008 0.0
 -1.0629658E-008 -3.4018575E-008 0.0
 -1.1186141E-008 -3.4141730E-008 0.0
 -1.1720787E-008 -3.4250621E-008 0.0
 -1.2238802E-008 -3.4341320E-008 0.0
 -1.2747739E-008 -3.4412137E-008 0.0
 -1.3255920E-008 -3.4463410E-008 0.0
 -1.3771248E-008 -3.4497129E-008 0.0
 -1.4300260E-008 -3.4516561E-008 0.0
 -1.4847311E-008 -3.4525820E-008 0.0
 -1.5413970E-008 -3.4529263E-008 0.0
 -1.5998876E-008 -3.4530687E-008 0.0
 -1.6598516E-008 -3.4532526E-008 0.0
 -1.7208107E-008 -3.4536481E-008 0.0
 -1.7818637E-008 -3.4544072E-008 0.0
 -1.8438549E-008 -3.4556040E-008 0.0
 -1.8441209E-008 -3.5183838E-008 0.0
  1.1807195E-009 -1.9240330E-008 0.0
  2.0436385E-009 -1.9230440E-008 0.0
  2.8295932E-009 -1.9251462E-008 0.0
  3.5640177E-009 -1.9294370E-008 0.0
  4.2474424E-009 -1.9355539E-008 0.0
  4.8790645E-009 -1.9429077E-008 0.0
  5.4635677E-009 -1.9513398E-008 0.0
  6.0056058E-009 -1.9606631E-008 0.0
  6.5106687E-009 -1.9706474E-008 0.0
  6.9845101E-009 -1.9810516E-008 0.0
  7.4324622E-009 -1.9916010E-008 0.0
  7.8588556E-009 -2.0019684E-008 0.0
  8.2670918E-009 -2.0117619E-008 0.0
  8.6595736E-009 -2.0203941E-008 0.0
  9.0424068E-009 -2.0268858E-008 0.0
  9.4263889E-009 -2.0294903E-008 0.0
  1.0115417E-008 -2.0157578E-008 0.0
  1.8066299E-009 -3.0335920E-008 0.0
  1.7786418E-009 -2.9700541E-008 0.0
  1.4020138E-009 -2.9872950E-008 0.0
  1.3439535E-009 -3.0327963E-008 0.0
  1.0947873E-009 -3.0041612E-008 0.0
  1.0249170E-009 -3.0450319E-008 0.0
  7.7920293E-010 -3.0185238E-008 0.0
  4.1604074E-010 -3.0342930E-008 0.0
  6.0589688E-011 -3.0496213E-008 0.0
 -3.0055604E-010 -3.0637062E-008 0.0
 -6.8511302E-010 -3.0771575E-008 0.0
 -1.0840652E-009 -3.0908733E-008 0.0
 -1.4874057E-009 -3.1045544E-008 0.0
 -1.8935035E-009 -3.1180304E-008 0.0
 -2.3022809E-009 -3.1313827E-008 0.0
 -2.7133994E-009 -3.1446721E-008 0.0
 -3.1259408E-009 -3.1579636E-008 0.0
 -3.5389341E-009 -3.1712329E-008 0.0
 -3.9525476E-009 -3.1843963E-008 0.0
 -4.3682184E-009 -3.1973555E-008 0.0
 -4.7883035E-009 -3.2100165E-008 0.0
 -5.2159809E-009 -3.2222638E-008 0.0
 -5.6555622E-009 -3.2339613E-008 0.0
 -6.1126821E-009 -3.2450012E-008 0.0
 -6.5935401E-009 -3.2554067E-008 0.0
 -7.1029096E-009 -3.2653925E-008 0.0
 -7.6416778E-009 -3.2753373E-008 0.0
 -8.2056471E-009 -3.2856275E-008 0.0
 -8.7864638E-009 -3.2965066E-008 0.0
 -9.3737673E-009 -3.3079797E-008 0.0
 -9.9576067E-009 -3.3198116E-008 0.0
 -1.0530449E-008 -3.3315838E-008 0.0
 -1.1088394E-008 -3.3427985E-008 0.0
 -1.1631357E-008 -3.3529910E-008 0.0
 -1.2162417E-008 -3.3618137E-008 0.0
 -1.2686721E-008 -3.3690786E-008 0.0
 -1.3210343E-008 -3.3747606E-008 0.0
 -1.3739275E-008 -3.3789780E-008 0.0
 -1.4278592E-008 -3.3819613E-008 0.0
 -1.4831800E-008 -3.3840110E-008 0.0
 -1.5400416E-008 -3.3854477E-008 0.0
 -1.5983910E-008 -3.3865563E-008 0.0
 -1.6579978E-008 -3.3875527E-008 0.0
 -1.7184542E-008 -3.3885562E-008 0.0
 -1.7794054E-008 -3.3894134E-008 0.0
 -1.8401673E-008 -3.3899353E-008 0.0
  2.1294040E-009 -1.9930100E-008 0.0
  2.9036788E-009 -1.9969387E-008 0.0
  3.6525990E-009 -2.0018679E-008 0.0
  4.3369858E-009 -2.0078908E-008 0.0
  4.9675756E-009 -2.0152411E-008 0.0
  5.5469293E-009 -2.0238297E-008 0.0
  6.0794190E-009 -2.0333501E-008 0.0
  6.5707881E-009 -2.0435957E-008 0.0
  7.0266402E-009 -2.0543899E-008 0.0
  7.4519965E-009 -2.0655840E-008 0.0
  7.8507740E-009 -2.0770677E-008 0.0
  8.2253821E-009 -2.0887788E-008 0.0
  8.5773747E-009 -2.1007799E-008 0.0
  8.9068285E-009 -2.1134790E-008 0.0
  9.2369263E-009 -2.1283832E-008 0.0
  9.4644095E-009 -2.1424852E-008 0.0
  3.5077497E-009 -2.8860169E-008 0.0
  3.4891462E-009 -2.8338293E-008 0.0
  3.1548772E-009 -2.8468809E-008 0.0
  3.1104524E-009 -2.8851489E-008 0.0
  2.8710755E-009 -2.8600416E-008 0.0
  2.8209119E-009 -2.8925486E-008 0.0
  2.6077711E-009 -2.8741026E-008 0.0
  2.5480424E-009 -2.9047801E-008 0.0
  2.3507254E-009 -2.8899187E-008 0.0
  2.2832441E-009 -2.9207015E-008 0.0
  2.1000749E-009 -2.9073817E-008 0.0
  2.0186105E-009 -2.9412072E-008 0.0
  1.8147885E-009 -2.9230917E-008 0.0
  1.4752500E-009 -2.9402595E-008 0.0
  1.1465506E-009 -2.9567339E-008 0.0
  8.1640014E-010 -2.9718663E-008 0.0
  4.6788333E-010 -2.9862212E-008 0.0
  1.0811895E-010 -3.0005467E-008 0.0
 -2.5999429E-010 -3.0143112E-008 0.0
 -6.4134720E-010 -3.0276598E-008 0.0
 -1.0343818E-009 -3.0409055E-008 0.0
 -1.4347436E-009 -3.0541594E-008 0.0
 -1.8394656E-009 -3.0673388E-008 0.0
 -2.2475189E-009 -3.0803943E-008 0.0
 -2.6583713E-009 -3.0933288E-008 0.0
 -3.0714641E-009 -3.1061309E-008 0.0
 -3.4864938E-009 -3.1187570E-008 0.0
 -3.9038095E-009 -3.1311286E-008 0.0
 -4.3246266E-009 -3.1431536E-008 0.0
 -4.7510082E-009 -3.1547393E-008 0.0
 -5.1858385E-009 -3.1657999E-008 0.0
 -5.6328093E-009 -3.1762704E-008 0.0
 -6.0961912E-009 -3.1861422E-008 0.0
 -6.5801101E-009 -3.1955058E-008 0.0
 -7.0873089E-009 -3.2045700E-008 0.0
 -7.6178803E-009 -3.2136232E-008 0.0
 -8.1686932E-009 -3.2229469E-008 0.0
 -8.7338782E-009 -3.2327179E-008 0.0
 -9.3061232E-009 -3.2429483E-008 0.0
 -9.8782413E-009 -3.2534748E-008 0.0
 -1.0444561E-008 -3.2639975E-008 0.0
 -1.1001812E-008 -3.2741484E-008 0.0
 -1.1549382E-008 -3.2835676E-008 0.0
 -1.2089012E-008 -3.2919671E-008 0.0
 -1.2624142E-008 -3.2991700E-008 0.0
 -1.3159112E-008 -3.3051225E-008 0.0
 -1.3698388E-008 -3.3098863E-008 0.0
 -1.4245895E-008 -3.3136149E-008 0.0
 -1.4804490E-008 -3.3165205E-008 0.0
 -1.5375631E-008 -3.3188340E-008 0.0
 -1.5959265E-008 -3.3207663E-008 0.0
 -1.6553868E-008 -3.3224775E-008 0.0
 -1.7156931E-008 -3.3240454E-008 0.0
 -1.7765289E-008 -3.3255482E-008 0.0
 -1.8373922E-008 -3.3270459E-008 0.0
 -1.8986644E-008 -3.3281170E-008 0.0
 -1.8986230E-008 -3.3893769E-008 0.0
  2.1302480E-009 -2.0700018E-008 0.0
  3.0002739E-009 -2.0677981E-008 0.0
  3.7521883E-009 -2.0703315E-008 0.0
  4.4411830E-009 -2.0754749E-008 0.0
  5.0718284E-009 -2.0827739E-008 0.0
  5.6443741E-009 -2.0912574E-008 0.0
  6.1658907E-009 -2.1006841E-008 0.0
  6.6422520E-009 -2.1108604E-008 0.0
  7.0794944E-009 -2.1216345E-008 0.0
  7.4830157E-009 -2.1329515E-008 0.0
  7.8567994E-009 -2.1448379E-008 0.0
  8.2032097E-009 -2.1574092E-008 0.0
  8.5226720E-009 -2.1708717E-008 0.0
  8.8155923E-009 -2.1854546E-008 0.0
  9.0634366E-009 -2.1997160E-008 0.0
  9.1739990E-009 -2.2119138E-008 0.0
  9.0775992E-009 -2.2266408E-008 0.0
  9.2241231E-009 -2.1593701E-008 0.0
  4.6616723E-009 -2.7915033E-008 0.0
  4.6423349E-009 -2.7396114E-008 0.0
  4.3138013E-009 -2.7527130E-008 0.0
  4.2692017E-009 -2.7906981E-008 0.0
  4.0396136E-009 -2.7661357E-008 0.0
  3.9893131E-009 -2.7985127E-008 0.0
  3.7909855E-009 -2.7802320E-008 0.0
  3.7275098E-009 -2.8124962E-008 0.0
  3.5230050E-009 -2.7932591E-008 0.0
  3.2198000E-009 -2.8078809E-008 0.0
  2.9350268E-009 -2.8230099E-008 0.0
  2.6684936E-009 -2.8380408E-008 0.0
  2.4087940E-009 -2.8530715E-008 0.0
  2.1408833E-009 -2.8676399E-008 0.0
  1.8486855E-009 -2.8820564E-008 0.0
  1.5290145E-009 -2.8965118E-008 0.0
  1.1975115E-009 -2.9113272E-008 0.0
  8.6017873E-010 -2.9256566E-008 0.0
  5.1221655E-010 -2.9394775E-008 0.0
  1.5314535E-010 -2.9529418E-008 0.0
 -2.1638528E-010 -2.9661332E-008 0.0
 -5.9645665E-010 -2.9790680E-008 0.0
 -9.8633330E-010 -2.9918739E-008 0.0
 -1.3839037E-009 -3.0046208E-008 0.0
 -1.7871552E-009 -3.0172981E-008 0.0
 -2.1948022E-009 -3.0298577E-008 0.0
 -2.6061505E-009 -3.0422533E-008 0.0
 -3.0208039E-009 -3.0544374E-008 0.0
 -3.4386760E-009 -3.0663458E-008 0.0
 -3.8601692E-009 -3.0779010E-008 0.0
 -4.2863092E-009 -3.0890213E-008 0.0
 -4.7188013E-009 -3.0996350E-008 0.0
 -5.1600139E-009 -3.1096917E-008 0.0
 -5.6128645E-009 -3.1191783E-008 0.0
 -6.0805079E-009 -3.1281373E-008 0.0
 -6.5657472E-009 -3.1366830E-008 0.0
 -7.0702439E-009 -3.1449992E-008 0.0
 -7.5938054E-009 -3.1533080E-008 0.0
 -8.1340919E-009 -3.1618142E-008 0.0
 -8.6869240E-009 -3.1706468E-008 0.0
 -9.2470869E-009 -3.1798188E-008 0.0
 -9.8093588E-009 -3.1892190E-008 0.0
 -1.0369461E-008 -3.1986353E-008 0.0
 -1.0924717E-008 -3.2077990E-008 0.0
 -1.1474305E-008 -3.2164383E-008 0.0
 -1.2019143E-008 -3.2243241E-008 0.0
 -1.2561489E-008 -3.2313035E-008 0.0
 -1.3104409E-008 -3.2373137E-008 0.0
 -1.3651211E-008 -3.2423801E-008 0.0
 -1.4204934E-008 -3.2466011E-008 0.0
 -1.4767939E-008 -3.2501224E-008 0.0
 -1.5341629E-008 -3.2531060E-008 0.0
 -1.5926292E-008 -3.2556983E-008 0.0
 -1.6521097E-008 -3.2580033E-008 0.0
 -1.7124171E-008 -3.2600795E-008 0.0
 -1.7732536E-008 -3.2619421E-008 0.0
 -1.8344469E-008 -3.2635399E-008 0.0
 -1.8966522E-008 -3.2647761E-008 0.0
  3.1434867E-009 -2.1262343E-008 0.0
  3.8623462E-009 -2.1320225E-008 0.0
  4.5653470E-009 -2.1381938E-008 0.0
  5.1905973E-009 -2.1451128E-008 0.0
  5.7553655E-009 -2.1531667E-008 0.0
  6.2641011E-009 -2.1622404E-008 0.0
  6.7232897E-009 -2.1719704E-008 0.0
  7.1404411E-009 -2.1822301E-008 0.0
  7.5216861E-009 -2.1930176E-008 0.0
  7.8713028E-009 -2.2044134E-008 0.0
  8.1912350E-009 -2.2165386E-008 0.0
  8.4806283E-009 -2.2294815E-008 0.0
  8.7315786E-009 -2.2430012E-008 0.0
  8.9173826E-009 -2.2567607E-008 0.0
  8.9947360E-009 -2.2723168E-008 0.0
  8.9493372E-009 -2.2944471E-008 0.0
  8.8380581E-009 -2.3288358E-008 0.0
  9.0095040E-009 -2.2404225E-008 0.0
  5.5973104E-009 -2.7100115E-008 0.0
  5.5741308E-009 -2.6498587E-008 0.0
  5.2226161E-009 -2.6675750E-008 0.0
  5.1659948E-009 -2.7086833E-008 0.0
  4.9476100E-009 -2.6841955E-008 0.0
  4.8829100E-009 -2.7192462E-008 0.0
  4.6771766E-009 -2.6982933E-008 0.0
  4.3780298E-009 -2.7134421E-008 0.0
  4.0999380E-009 -2.7286419E-008 0.0
  3.8352590E-009 -2.7428210E-008 0.0
  3.5635056E-009 -2.7565557E-008 0.0
  3.2800267E-009 -2.7704995E-008 0.0
  2.9986024E-009 -2.7851178E-008 0.0
  2.7263456E-009 -2.7997361E-008 0.0
  2.4564715E-009 -2.8138961E-008 0.0
  2.1785380E-009 -2.8275440E-008 0.0
  1.8835209E-009 -2.8408117E-008 0.0
  1.5695011E-009 -2.8540934E-008 0.0
  1.2414213E-009 -2.8674320E-008 0.0
  9.0293610E-010 -2.8806917E-008 0.0
  5.5453730E-010 -2.8936922E-008 0.0
  1.9581275E-010 -2.9064417E-008 0.0
 -1.7311232E-010 -2.9189759E-008 0.0
 -5.5189034E-010 -2.9313465E-008 0.0
 -9.3970991E-010 -2.9436021E-008 0.0
 -1.3353307E-009 -2.9557758E-008 0.0
 -1.7374283E-009 -2.9678578E-008 0.0
 -2.1449734E-009 -2.9798064E-008 0.0
 -2.5573072E-009 -2.9915630E-008 0.0
 -2.9740871E-009 -3.0030600E-008 0.0
 -3.3952684E-009 -3.0142227E-008 0.0
 -3.8211656E-009 -3.0249739E-008 0.0
 -4.2525396E-009 -3.0352436E-008 0.0
 -4.6906611E-009 -3.0449823E-008 0.0
 -5.1373155E-009 -3.0541714E-008 0.0
 -5.5946957E-009 -3.0628328E-008 0.0
 -6.0651218E-009 -3.0710355E-008 0.0
 -6.5505825E-009 -3.0788967E-008 0.0
 -7.0521886E-009 -3.0865717E-008 0.0
 -7.5697202E-009 -3.0942304E-008 0.0
 -8.1014592E-009 -3.1020221E-008 0.0
 -8.6443982E-009 -3.1100403E-008 0.0
 -9.1947695E-009 -3.1182973E-008 0.0
 -9.7487359E-009 -3.1267185E-008 0.0
 -1.0303053E-008 -3.1351556E-008 0.0
 -1.0855553E-008 -3.1434161E-008 0.0
 -1.1405376E-008 -3.1512986E-008 0.0
 -1.1952940E-008 -3.1586269E-008 0.0
 -1.2499707E-008 -3.1652759E-008 0.0
 -1.3047836E-008 -3.1711847E-008 0.0
 -1.3599781E-008 -3.1763586E-008 0.0
 -1.4157920E-008 -3.1808586E-008 0.0
 -1.4724249E-008 -3.1847838E-008 0.0
 -1.5300153E-008 -3.1882456E-008 0.0
 -1.5886254E-008 -3.1913398E-008 0.0
 -1.6482290E-008 -3.1941216E-008 0.0
 -1.7086976E-008 -3.1965875E-008 0.0
 -1.7698261E-008 -3.1986609E-008 0.0
 -1.8313399E-008 -3.2002218E-008 0.0
 -1.8934685E-008 -3.2016752E-008 0.0
  3.1476855E-009 -2.1966141E-008 0.0
  4.0035360E-009 -2.1930894E-008 0.0
  4.7002498E-009 -2.1959044E-008 0.0
  5.3236744E-009 -2.2014966E-008 0.0
  5.8807289E-009 -2.2092231E-008 0.0
  6.3729008E-009 -2.2176848E-008 0.0
  6.8117186E-009 -2.2265886E-008 0.0
  7.2061546E-009 -2.2358416E-008 0.0
  7.5634187E-009 -2.2454678E-008 0.0
  7.8879851E-009 -2.2555716E-008 0.0
  8.1810924E-009 -2.2662421E-008 0.0
  8.4397905E-009 -2.2774811E-008 0.0
  8.6542693E-009 -2.2892654E-008 0.0
  8.8064239E-009 -2.3019972E-008 0.0
  8.8765022E-009 -2.3171375E-008 0.0
  8.8584915E-009 -2.3368865E-008 0.0
  8.7210317E-009 -2.3608130E-008 0.0
  8.3009879E-009 -2.3874252E-008 0.0
  8.1180732E-009 -2.4079170E-008 0.0
  7.8174687E-009 -2.4257454E-008 0.0
  7.6827994E-009 -2.4548859E-008 0.0
  7.4196229E-009 -2.4595277E-008 0.0
  7.2966404E-009 -2.4891662E-008 0.0
  7.0659530E-009 -2.4891218E-008 0.0
  6.9565125E-009 -2.5181155E-008 0.0
  6.7444545E-009 -2.5158112E-008 0.0
  6.6431828E-009 -2.5440964E-008 0.0
  6.4464671E-009 -2.5406877E-008 0.0
  6.3498821E-009 -2.5685280E-008 0.0
  6.1672723E-009 -2.5645532E-008 0.0
  6.0737661E-009 -2.5925905E-008 0.0
  5.9065556E-009 -2.5876918E-008 0.0
  5.8082369E-009 -2.6183076E-008 0.0
  5.6233851E-009 -2.6072659E-008 0.0
  5.3021265E-009 -2.6269547E-008 0.0
  5.0065815E-009 -2.6449222E-008 0.0
  4.7236733E-009 -2.6610401E-008 0.0
  4.4387666E-009 -2.6761948E-008 0.0
  4.1583965E-009 -2.6911758E-008 0.0
  3.8849869E-009 -2.7056059E-008 0.0
  3.6109052E-009 -2.7194880E-008 0.0
  3.3329723E-009 -2.7332870E-008 0.0
  3.0546874E-009 -2.7471621E-008 0.0
  2.7781755E-009 -2.7609382E-008 0.0
  2.5005505E-009 -2.7743207E-008 0.0
  2.2155781E-009 -2.7872080E-008 0.0
  1.9178675E-009 -2.7997359E-008 0.0
  1.6054675E-009 -2.8120999E-008 0.0
  1.2796419E-009 -2.8244282E-008 0.0
  9.4231986E-010 -2.8366926E-008 0.0
  5.9449021E-010 -2.8488361E-008 0.0
  2.3651715E-010 -2.8608244E-008 0.0
 -1.3136447E-010 -2.8726672E-008 0.0
 -5.0874455E-010 -2.8843881E-008 0.0
 -8.9497503E-010 -2.8960118E-008 0.0
 -1.2892067E-009 -2.9075463E-008 0.0
 -1.6905643E-009 -2.9189749E-008 0.0
 -2.0983131E-009 -2.9302551E-008 0.0
 -2.5119421E-009 -2.9413254E-008 0.0
 -2.9311627E-009 -2.9521116E-008 0.0
 -3.3558904E-009 -2.9625338E-008 0.0
 -3.7862576E-009 -2.9725152E-008 0.0
 -4.2226686E-009 -2.9819951E-008 0.0
 -4.6658862E-009 -2.9909424E-008 0.0
 -5.1170962E-009 -2.9993638E-008 0.0
 -5.5778704E-009 -3.0073064E-008 0.0
 -6.0499531E-009 -3.0148534E-008 0.0
 -6.5348818E-009 -3.0221160E-008 0.0
 -7.0335455E-009 -3.0292213E-008 0.0
 -7.5458366E-009 -3.0362962E-008 0.0
 -8.0705298E-009 -3.0434475E-008 0.0
 -8.6054358E-009 -3.0507420E-008 0.0
 -9.1477800E-009 -3.0581912E-008 0.0
 -9.6946931E-009 -3.0657468E-008 0.0
 -1.0243686E-008 -3.0733083E-008 0.0
 -1.0793011E-008 -3.0807404E-008 0.0
 -1.1341850E-008 -3.0878978E-008 0.0
 -1.1890330E-008 -3.0946487E-008 0.0
 -1.2439391E-008 -3.1008946E-008 0.0
 -1.2990558E-008 -3.1065823E-008 0.0
 -1.3545670E-008 -3.1117068E-008 0.0
 -1.4106622E-008 -3.1163062E-008 0.0
 -1.4675148E-008 -3.1204482E-008 0.0
 -1.5252664E-008 -3.1242114E-008 0.0
 -1.5840147E-008 -3.1276594E-008 0.0
 -1.6437970E-008 -3.1308119E-008 0.0
 -1.7045626E-008 -3.1336209E-008 0.0
 -1.7661344E-008 -3.1359839E-008 0.0
 -1.8282383E-008 -3.1377902E-008 0.0
 -1.8895008E-008 -3.1390531E-008 0.0
  4.2069197E-009 -2.2371419E-008 0.0
  4.8462247E-009 -2.2447883E-008 0.0
  5.4799998E-009 -2.2519730E-008 0.0
  6.0199564E-009 -2.2591713E-008 0.0
  6.4914678E-009 -2.2667238E-008 0.0
  6.9053579E-009 -2.2745028E-008 0.0
  7.2732582E-009 -2.2823072E-008 0.0
  7.6041264E-009 -2.2902671E-008 0.0
  7.9021511E-009 -2.2985284E-008 0.0
  8.1675968E-009 -2.3071540E-008 0.0
  8.3967310E-009 -2.3161526E-008 0.0
  8.5813019E-009 -2.3255923E-008 0.0
  8.7092639E-009 -2.3357825E-008 0.0
  8.7678235E-009 -2.3472760E-008 0.0
  8.7406647E-009 -2.3601360E-008 0.0
  8.5858924E-009 -2.3739720E-008 0.0
  8.2817038E-009 -2.3921747E-008 0.0
  7.8972897E-009 -2.4151656E-008 0.0
  7.5124116E-009 -2.4416125E-008 0.0
  7.1599069E-009 -2.4674465E-008 0.0
  6.8345816E-009 -2.4918795E-008 0.0
  6.5314257E-009 -2.5148870E-008 0.0
  6.2452191E-009 -2.5365036E-008 0.0
  5.9635737E-009 -2.5562579E-008 0.0
  5.6717552E-009 -2.5746562E-008 0.0
  5.3680430E-009 -2.5921075E-008 0.0
  5.0683197E-009 -2.6091576E-008 0.0
  4.7784736E-009 -2.6251925E-008 0.0
  4.4936698E-009 -2.6403715E-008 0.0
  4.2129620E-009 -2.6549621E-008 0.0
  3.9356896E-009 -2.6690675E-008 0.0
  3.6594315E-009 -2.6827381E-008 0.0
  3.3821830E-009 -2.6961239E-008 0.0
  3.1038952E-009 -2.7093306E-008 0.0
  2.8244015E-009 -2.7222938E-008 0.0
  2.5415510E-009 -2.7348924E-008 0.0
  2.2517187E-009 -2.7470763E-008 0.0
  1.9514891E-009 -2.7589112E-008 0.0
  1.6390958E-009 -2.7705268E-008 0.0
  1.3145088E-009 -2.7820212E-008 0.0
  9.7850198E-010 -2.7934320E-008 0.0
  6.3182922E-010 -2.8047511E-008 0.0
  2.7499056E-010 -2.8159681E-008 0.0
 -9.1632537E-011 -2.8270823E-008 0.0
 -4.6763545E-010 -2.8381031E-008 0.0
 -8.5251446E-010 -2.8490383E-008 0.0
 -1.2456930E-009 -2.8598843E-008 0.0
 -1.6466033E-009 -2.8706195E-008 0.0
 -2.0547731E-009 -2.8812016E-008 0.0
 -2.4698671E-009 -2.8915702E-008 0.0
 -2.8916726E-009 -2.9016501E-008 0.0
 -3.3200508E-009 -2.9113590E-008 0.0
 -3.7548975E-009 -2.9206184E-008 0.0
 -4.1961739E-009 -2.9293716E-008 0.0
 -4.6440409E-009 -2.9375994E-008 0.0
 -5.0990553E-009 -2.9453299E-008 0.0
 -5.5622689E-009 -2.9526307E-008 0.0
 -6.0350882E-009 -2.9595948E-008 0.0
 -6.5188983E-009 -2.9663231E-008 0.0
 -7.0146058E-009 -2.9729139E-008 0.0
 -7.5222947E-009 -2.9794558E-008 0.0
 -8.0411164E-009 -2.9860209E-008 0.0
 -8.5694329E-009 -2.9926559E-008 0.0
 -9.1051316E-009 -2.9993731E-008 0.0
 -9.6460081E-009 -3.0061455E-008 0.0
 -1.0190121E-008 -3.0129090E-008 0.0
 -1.0736057E-008 -3.0195729E-008 0.0
 -1.1283083E-008 -3.0260351E-008 0.0
 -1.1831170E-008 -3.0321998E-008 0.0
 -1.2380921E-008 -3.0379918E-008 0.0
 -1.2933428E-008 -3.0433671E-008 0.0
 -1.3490097E-008 -3.0483166E-008 0.0
 -1.4052472E-008 -3.0528633E-008 0.0
 -1.4622092E-008 -3.0570546E-008 0.0
 -1.5200415E-008 -3.0609500E-008 0.0
 -1.5788789E-008 -3.0646009E-008 0.0
 -1.6388356E-008 -3.0680169E-008 0.0
 -1.6999545E-008 -3.0711292E-008 0.0
 -1.7620989E-008 -3.0737989E-008 0.0
 -1.8247918E-008 -3.0759820E-008 0.0
 -1.8873399E-008 -3.0775448E-008 0.0
 -1.9494991E-008 -3.0781468E-008 0.0
 -1.9490020E-008 -3.1391194E-008 0.0
  4.2145435E-009 -2.2984313E-008 0.0
  5.0328460E-009 -2.2935657E-008 0.0
  5.6498742E-009 -2.2966735E-008 0.0
  6.1744429E-009 -2.3023524E-008 0.0
  6.6203083E-009 -2.3092087E-008 0.0
  7.0014975E-009 -2.3155309E-008 0.0
  7.3387458E-009 -2.3215080E-008 0.0
  7.6410466E-009 -2.3275093E-008 0.0
  7.9112453E-009 -2.3336777E-008 0.0
  8.1486451E-009 -2.3400400E-008 0.0
  8.3493888E-009 -2.3465790E-008 0.0
  8.5065844E-009 -2.3533108E-008 0.0
  8.6107429E-009 -2.3603277E-008 0.0
  8.6497468E-009 -2.3677167E-008 0.0
  8.6060480E-009 -2.3755575E-008 0.0
  8.4615207E-009 -2.3847036E-008 0.0
  8.2145204E-009 -2.3965333E-008 0.0
  7.8979182E-009 -2.4123092E-008 0.0
  7.5566539E-009 -2.4311744E-008 0.0
  7.2201758E-009 -2.4516137E-008 0.0
  6.8995420E-009 -2.4721129E-008 0.0
  6.5944797E-009 -2.4919646E-008 0.0
  6.3003655E-009 -2.5107505E-008 0.0
  6.0098021E-009 -2.5283676E-008 0.0
  5.7158351E-009 -2.5449495E-008 0.0
  5.4178716E-009 -2.5609511E-008 0.0
  5.1214350E-009 -2.5765008E-008 0.0
  4.8301877E-009 -2.5915614E-008 0.0
  4.5442726E-009 -2.6060394E-008 0.0
  4.2624406E-009 -2.6199951E-008 0.0
  3.9834105E-009 -2.6334930E-008 0.0
  3.7055473E-009 -2.6465959E-008 0.0
  3.4273759E-009 -2.6593713E-008 0.0
  3.1478492E-009 -2.6718588E-008 0.0
  2.8658224E-009 -2.6840424E-008 0.0
  2.5794395E-009 -2.6958768E-008 0.0
  2.2862458E-009 -2.7073478E-008 0.0
  1.9839322E-009 -2.7184983E-008 0.0
  1.6710165E-009 -2.7294085E-008 0.0
  1.3470064E-009 -2.7401559E-008 0.0
  1.0120716E-009 -2.7507882E-008 0.0
  6.6661950E-010 -2.7613258E-008 0.0
  3.1106200E-010 -2.7717747E-008 0.0
 -5.4231767E-011 -2.7821394E-008 0.0
 -4.2890231E-010 -2.7924243E-008 0.0
 -8.1257723E-010 -2.8026307E-008 0.0
 -1.2048843E-009 -2.8127508E-008 0.0
 -1.6054947E-009 -2.8227626E-008 0.0
 -2.0141639E-009 -2.8326282E-008 0.0
 -2.4307423E-009 -2.8422925E-008 0.0
 -2.8551311E-009 -2.8516841E-008 0.0
 -3.2871749E-009 -2.8607198E-008 0.0
 -3.7265333E-009 -2.8693155E-008 0.0
 -4.1726343E-009 -2.8774082E-008 0.0
 -4.6248825E-009 -2.8849849E-008 0.0
 -5.0830994E-009 -2.8920909E-008 0.0
 -5.5479015E-009 -2.8988176E-008 0.0
 -6.0206167E-009 -2.9052645E-008 0.0
 -6.5027803E-009 -2.9115189E-008 0.0
 -6.9955297E-009 -2.9176455E-008 0.0
 -7.4991725E-009 -2.9236953E-008 0.0
 -8.0131056E-009 -2.9297107E-008 0.0
 -8.5360071E-009 -2.9357259E-008 0.0
 -9.0661713E-009 -2.9417582E-008 0.0
 -9.6018377E-009 -2.9478009E-008 0.0
 -1.0141464E-008 -2.9538204E-008 0.0
 -1.0683914E-008 -2.9597602E-008 0.0
 -1.1228559E-008 -2.9655519E-008 0.0
 -1.1775303E-008 -2.9711272E-008 0.0
 -1.2324540E-008 -2.9764299E-008 0.0
 -1.2877074E-008 -2.9814243E-008 0.0
 -1.3434007E-008 -2.9860995E-008 0.0
 -1.3996634E-008 -2.9904679E-008 0.0
 -1.4566351E-008 -2.9945604E-008 0.0
 -1.5144611E-008 -2.9984207E-008 0.0
 -1.5733027E-008 -3.0020999E-008 0.0
 -1.6333589E-008 -3.0056299E-008 0.0
 -1.6948312E-008 -3.0089437E-008 0.0
 -1.7577110E-008 -3.0118059E-008 0.0
 -1.8214255E-008 -3.0138626E-008 0.0
 -1.8854586E-008 -3.0149486E-008 0.0
 -1.9499003E-008 -3.0149625E-008 0.0
  5.2983593E-009 -2.3209350E-008 0.0
  5.8387551E-009 -2.3309367E-008 0.0
  6.3578568E-009 -2.3391435E-008 0.0
  6.7559464E-009 -2.3449646E-008 0.0
  7.0966129E-009 -2.3492255E-008 0.0
  7.4008295E-009 -2.3532517E-008 0.0
  7.6732195E-009 -2.3573124E-008 0.0
  7.9148340E-009 -2.3614551E-008 0.0
  8.1240311E-009 -2.3656357E-008 0.0
  8.2969734E-009 -2.3697964E-008 0.0
  8.4276187E-009 -2.3739052E-008 0.0
  8.5077607E-009 -2.3779757E-008 0.0
  8.5269220E-009 -2.3821000E-008 0.0
  8.4735765E-009 -2.3866190E-008 0.0
  8.3394222E-009 -2.3922455E-008 0.0
  8.1277864E-009 -2.4000406E-008 0.0
  7.8575303E-009 -2.4106850E-008 0.0
  7.5551574E-009 -2.4240917E-008 0.0
  7.2430853E-009 -2.4393975E-008 0.0
  6.9339926E-009 -2.4556128E-008 0.0
  6.6321607E-009 -2.4719144E-008 0.0
  6.3364935E-009 -2.4878137E-008 0.0
  6.0435057E-009 -2.5030965E-008 0.0
  5.7501226E-009 -2.5178190E-008 0.0
  5.4559424E-009 -2.5321363E-008 0.0
  5.1630246E-009 -2.5461680E-008 0.0
  4.8734578E-009 -2.5598962E-008 0.0
  4.5878548E-009 -2.5732781E-008 0.0
  4.3057086E-009 -2.5862887E-008 0.0
  4.0259020E-009 -2.5989383E-008 0.0
  3.7470850E-009 -2.6112500E-008 0.0
  3.4678809E-009 -2.6232492E-008 0.0
  3.1869734E-009 -2.6349481E-008 0.0
  2.9029461E-009 -2.6463385E-008 0.0
  2.6141148E-009 -2.6574049E-008 0.0
  2.3186134E-009 -2.6681480E-008 0.0
  2.0147243E-009 -2.6785982E-008 0.0
  1.7012147E-009 -2.6888084E-008 0.0
  1.3774594E-009 -2.6988352E-008 0.0
  1.0433271E-009 -2.7087233E-008 0.0
  6.9896900E-010 -2.7185012E-008 0.0
  3.4464696E-010 -2.7281853E-008 0.0
 -1.9355153E-011 -2.7377854E-008 0.0
 -3.9276341E-010 -2.7473073E-008 0.0
 -7.7532817E-010 -2.7567522E-008 0.0
 -1.1668443E-009 -2.7661131E-008 0.0
 -1.5671773E-009 -2.7753729E-008 0.0
 -1.9762831E-009 -2.7845016E-008 0.0
 -2.3942018E-009 -2.7934551E-008 0.0
 -2.8209996E-009 -2.8021738E-008 0.0
 -3.2566159E-009 -2.8105791E-008 0.0
 -3.7005594E-009 -2.8185768E-008 0.0
 -4.1516716E-009 -2.8260873E-008 0.0
 -4.6082891E-009 -2.8330857E-008 0.0
 -5.0692300E-009 -2.8396432E-008 0.0
 -5.5347578E-009 -2.8458727E-008 0.0
 -6.0064915E-009 -2.8518855E-008 0.0
 -6.4865001E-009 -2.8577357E-008 0.0
 -6.9763427E-009 -2.8634496E-008 0.0
 -7.4765306E-009 -2.8690350E-008 0.0
 -7.9864943E-009 -2.8745148E-008 0.0
 -8.5049985E-009 -2.8799214E-008 0.0
 -9.0305383E-009 -2.8852871E-008 0.0
 -9.5616527E-009 -2.8906276E-008 0.0
 -1.0097110E-008 -2.8959357E-008 0.0
 -1.0636019E-008 -2.9011823E-008 0.0
 -1.1177876E-008 -2.9063233E-008 0.0
 -1.1722578E-008 -2.9113104E-008 0.0
 -1.2270398E-008 -2.9161009E-008 0.0
 -1.2821944E-008 -2.9206659E-008 0.0
 -1.3378111E-008 -2.9249934E-008 0.0
 -1.3940027E-008 -2.9290876E-008 0.0
 -1.4508999E-008 -2.9329627E-008 0.0
 -1.5086477E-008 -2.9366389E-008 0.0
 -1.5674073E-008 -2.9401439E-008 0.0
 -1.6274212E-008 -2.9435469E-008 0.0
 -1.6891357E-008 -2.9468740E-008 0.0
 -1.7529677E-008 -2.9498118E-008 0.0
 -1.8184178E-008 -2.9517329E-008 0.0
 -1.8831796E-008 -2.9527893E-008 0.0
  5.3029269E-009 -2.3725184E-008 0.0
  6.0967992E-009 -2.3664772E-008 0.0
  6.5580213E-009 -2.3700897E-008 0.0
  6.8895007E-009 -2.3723157E-008 0.0
  7.1899128E-009 -2.3747808E-008 0.0
  7.4600750E-009 -2.3773018E-008 0.0
  7.7019023E-009 -2.3798457E-008 0.0
  7.9143001E-009 -2.3823213E-008 0.0
  8.0950934E-009 -2.3846415E-008 0.0
  8.2405957E-009 -2.3867450E-008 0.0
  8.3455131E-009 -2.3886124E-008 0.0
  8.4030079E-009 -2.3902927E-008 0.0
  8.4052779E-009 -2.3919619E-008 0.0
  8.3451101E-009 -2.3939964E-008 0.0
  8.2190256E-009 -2.3970188E-008 0.0
  8.0308339E-009 -2.4017424E-008 0.0
  7.7926856E-009 -2.4086878E-008 0.0
  7.5214872E-009 -2.4178963E-008 0.0
  7.2332457E-009 -2.4289641E-008 0.0
  6.9392796E-009 -2.4412443E-008 0.0
  6.6454451E-009 -2.4541149E-008 0.0
  6.3534190E-009 -2.4671126E-008 0.0
  6.0626209E-009 -2.4799898E-008 0.0
  5.7721240E-009 -2.4926754E-008 0.0
  5.4819135E-009 -2.5052013E-008 0.0
  5.1929569E-009 -2.5175976E-008 0.0
  4.9063449E-009 -2.5298553E-008 0.0
  4.6225597E-009 -2.5419330E-008 0.0
  4.3413181E-009 -2.5537923E-008 0.0
  4.0617825E-009 -2.5654086E-008 0.0
  3.7827944E-009 -2.5767718E-008 0.0
  3.5030601E-009 -2.5878771E-008 0.0
  3.2212243E-009 -2.5987174E-008 0.0
  2.9358561E-009 -2.6092814E-008 0.0
  2.6454339E-009 -2.6195592E-008 0.0
  2.3484237E-009 -2.6295527E-008 0.0
  2.0434510E-009 -2.6392813E-008 0.0
  1.7294722E-009 -2.6487791E-008 0.0
  1.4058532E-009 -2.6580855E-008 0.0
  1.0723283E-009 -2.6672364E-008 0.0
  7.2888969E-010 -2.6762595E-008 0.0
  3.7566931E-010 -2.6851744E-008 0.0
  1.2850595E-011 -2.6939945E-008 0.0
 -3.5938847E-010 -2.7027286E-008 0.0
 -7.4091281E-010 -2.7113805E-008 0.0
 -1.1316585E-009 -2.7199477E-008 0.0
 -1.5316535E-009 -2.7284199E-008 0.0
 -1.9410260E-009 -2.7367780E-008 0.0
 -2.3599935E-009 -2.7449938E-008 0.0
 -2.7888166E-009 -2.7530288E-008 0.0
 -3.2276681E-009 -2.7608272E-008 0.0
 -3.6762470E-009 -2.7682984E-008 0.0
 -4.1328305E-009 -2.7753173E-008 0.0
 -4.5942121E-009 -2.7818460E-008 0.0
 -5.0573824E-009 -2.7879534E-008 0.0
 -5.5225699E-009 -2.7938298E-008 0.0
 -5.9923860E-009 -2.7995255E-008 0.0
 -6.4697863E-009 -2.8050705E-008 0.0
 -6.9570146E-009 -2.8104093E-008 0.0
 -7.4545178E-009 -2.8155305E-008 0.0
 -7.9614883E-009 -2.8204496E-008 0.0
 -8.4765025E-009 -2.8252229E-008 0.0
 -8.9981429E-009 -2.8299102E-008 0.0
 -9.5251841E-009 -2.8345527E-008 0.0
 -1.0056675E-008 -2.8391659E-008 0.0
 -1.0591968E-008 -2.8437406E-008 0.0
 -1.1130715E-008 -2.8482490E-008 0.0
 -1.1672846E-008 -2.8526547E-008 0.0
 -1.2218561E-008 -2.8569230E-008 0.0
 -1.2768330E-008 -2.8610292E-008 0.0
 -1.3322893E-008 -2.8649616E-008 0.0
 -1.3883276E-008 -2.8687197E-008 0.0
 -1.4450784E-008 -2.8723059E-008 0.0
 -1.5026950E-008 -2.8757103E-008 0.0
 -1.5613487E-008 -2.8789012E-008 0.0
 -1.6212108E-008 -2.8818442E-008 0.0
 -1.6828210E-008 -2.8847275E-008 0.0
 -1.7476723E-008 -2.8874722E-008 0.0
 -1.8158640E-008 -2.8889125E-008 0.0
 -1.8831074E-008 -2.8882773E-008 0.0
  6.5546518E-009 -2.3729520E-008 0.0
  6.7536406E-009 -2.3850419E-008 0.0
  7.0292941E-009 -2.3889917E-008 0.0
  7.2851569E-009 -2.3915987E-008 0.0
  7.5204390E-009 -2.3937267E-008 0.0
  7.7302095E-009 -2.3954786E-008 0.0
  7.9122910E-009 -2.3968210E-008 0.0
  8.0641892E-009 -2.3977291E-008 0.0
  8.1825219E-009 -2.3982099E-008 0.0
  8.2627563E-009 -2.3983119E-008 0.0
  8.2994641E-009 -2.3981524E-008 0.0
  8.2870428E-009 -2.3979574E-008 0.0
  8.2210811E-009 -2.3980987E-008 0.0
  8.1002415E-009 -2.3990766E-008 0.0
  7.9279298E-009 -2.4014209E-008 0.0
  7.7124820E-009 -2.4055168E-008 0.0
  7.4653079E-009 -2.4114726E-008 0.0
  7.1979518E-009 -2.4190967E-008 0.0
  6.9196877E-009 -2.4280058E-008 0.0
  6.6365490E-009 -2.4377650E-008 0.0
  6.3516411E-009 -2.4480075E-008 0.0
  6.0661646E-009 -2.4584875E-008 0.0
  5.7805496E-009 -2.4690795E-008 0.0
  5.4952485E-009 -2.4797348E-008 0.0
  5.2109365E-009 -2.4904304E-008 0.0
  4.9282529E-009 -2.5011350E-008 0.0
  4.6474660E-009 -2.5118047E-008 0.0
  4.3683361E-009 -2.5223925E-008 0.0
  4.0901664E-009 -2.5328577E-008 0.0
  3.8119422E-009 -2.5431680E-008 0.0
  3.5324612E-009 -2.5532976E-008 0.0
  3.2504211E-009 -2.5632238E-008 0.0
  2.9644646E-009 -2.5729262E-008 0.0
  2.6732206E-009 -2.5823902E-008 0.0
  2.3753760E-009 -2.5916110E-008 0.0
  2.0697781E-009 -2.6005960E-008 0.0
  1.7555306E-009 -2.6093638E-008 0.0
  1.4320391E-009 -2.6179387E-008 0.0
  1.0989943E-009 -2.6263459E-008 0.0
  7.5630623E-010 -2.6346077E-008 0.0
  4.0402025E-010 -2.6427424E-008 0.0
  4.2238306E-011 -2.6507645E-008 0.0
 -3.2894613E-010 -2.6586851E-008 0.0
 -7.0949781E-010 -2.6665114E-008 0.0
 -1.0994743E-009 -2.6742456E-008 0.0
 -1.4990430E-009 -2.6818843E-008 0.0
 -1.9084783E-009 -2.6894181E-008 0.0
 -2.3281418E-009 -2.6968339E-008 0.0
 -2.7584495E-009 -2.7041190E-008 0.0
 -3.1998299E-009 -2.7112620E-008 0.0
 -3.6525372E-009 -2.7182332E-008 0.0
 -4.1155118E-009 -2.7249082E-008 0.0
 -4.5825717E-009 -2.7310719E-008 0.0
 -5.0469925E-009 -2.7370118E-008 0.0
 -5.5103146E-009 -2.7427590E-008 0.0
 -5.9774469E-009 -2.7484217E-008 0.0
 -6.4523370E-009 -2.7537154E-008 0.0
 -6.9376097E-009 -2.7586837E-008 0.0
 -7.4336671E-009 -2.7632610E-008 0.0
 -7.9386441E-009 -2.7675276E-008 0.0
 -8.4509024E-009 -2.7716008E-008 0.0
 -8.9691411E-009 -2.7755709E-008 0.0
 -9.4923641E-009 -2.7795019E-008 0.0
 -1.0019921E-008 -2.7834269E-008 0.0
 -1.0551450E-008 -2.7873485E-008 0.0
 -1.1086790E-008 -2.7912454E-008 0.0
 -1.1625930E-008 -2.7950848E-008 0.0
 -1.2169013E-008 -2.7988344E-008 0.0
 -1.2716382E-008 -2.8024710E-008 0.0
 -1.3268638E-008 -2.8059846E-008 0.0
 -1.3826712E-008 -2.8093771E-008 0.0
 -1.4391954E-008 -2.8126539E-008 0.0
 -1.4966196E-008 -2.8157997E-008 0.0
 -1.5551521E-008 -2.8187328E-008 0.0
 -1.6150102E-008 -2.8212610E-008 0.0
 -1.6761902E-008 -2.8230516E-008 0.0
 -1.7414575E-008 -2.8242172E-008 0.0
 -1.8156381E-008 -2.8227973E-008 0.0
  6.8817492E-009 -2.3794218E-008 0.0
  6.9893241E-009 -2.3894103E-008 0.0
  7.1804109E-009 -2.3964171E-008 0.0
  7.3903663E-009 -2.4005672E-008 0.0
  7.5868363E-009 -2.4032902E-008 0.0
  7.7617968E-009 -2.4049177E-008 0.0
  7.9116479E-009 -2.4056240E-008 0.0
  8.0338255E-009 -2.4055521E-008 0.0
  8.1251406E-009 -2.4048355E-008 0.0
  8.1816637E-009 -2.4036164E-008 0.0
  8.1990572E-009 -2.4020775E-008 0.0
  8.1732594E-009 -2.4004745E-008 0.0
  8.1014807E-009 -2.3991508E-008 0.0
  7.9833274E-009 -2.3985163E-008 0.0
  7.8216048E-009 -2.3989765E-008 0.0
  7.6222754E-009 -2.4008370E-008 0.0
  7.3933960E-009 -2.4042233E-008 0.0
  7.1434687E-009 -2.4090655E-008 0.0
  6.8799441E-009 -2.4151452E-008 0.0
  6.6083979E-009 -2.4221792E-008 0.0
  6.3324621E-009 -2.4298968E-008 0.0
  6.0542687E-009 -2.4380880E-008 0.0
  5.7750658E-009 -2.4466138E-008 0.0
  5.4957075E-009 -2.4553907E-008 0.0
  5.2168667E-009 -2.4643632E-008 0.0
  4.9390033E-009 -2.4734823E-008 0.0
  4.6622466E-009 -2.4826969E-008 0.0
  4.3863283E-009 -2.4919546E-008 0.0
  4.1106058E-009 -2.5012050E-008 0.0
  3.8341462E-009 -2.5104026E-008 0.0
  3.5558267E-009 -2.5195068E-008 0.0
  3.2744211E-009 -2.5284816E-008 0.0
  2.9886673E-009 -2.5372956E-008 0.0
  2.6973277E-009 -2.5459246E-008 0.0
  2.3992541E-009 -2.5543531E-008 0.0
  2.0934569E-009 -2.5625760E-008 0.0
  1.7791624E-009 -2.5705970E-008 0.0
  1.4558397E-009 -2.5784268E-008 0.0
  1.1231886E-009 -2.5860790E-008 0.0
  7.8109421E-010 -2.5935682E-008 0.0
  4.2956181E-010 -2.6009085E-008 0.0
  6.8645219E-011 -2.6081132E-008 0.0
 -3.0162168E-010 -2.6151942E-008 0.0
 -6.8128379E-010 -2.6221612E-008 0.0
 -1.0705065E-009 -2.6290201E-008 0.0
 -1.4695896E-009 -2.6357713E-008 0.0
 -1.8789473E-009 -2.6424095E-008 0.0
 -2.2990569E-009 -2.6489268E-008 0.0
 -2.7304163E-009 -2.6553230E-008 0.0
 -3.1735139E-009 -2.6616208E-008 0.0
 -3.6289664E-009 -2.6678952E-008 0.0
 -4.0974891E-009 -2.6742407E-008 0.0
 -4.5745201E-009 -2.6805262E-008 0.0
 -5.0348174E-009 -2.6864676E-008 0.0
 -5.4940520E-009 -2.6933220E-008 0.0
 -5.9618683E-009 -2.6989901E-008 0.0
 -6.4336128E-009 -2.7041137E-008 0.0
 -6.9193077E-009 -2.7084840E-008 0.0
 -7.4152760E-009 -2.7122606E-008 0.0
 -7.9189043E-009 -2.7157161E-008 0.0
 -8.4288466E-009 -2.7189915E-008 0.0
 -8.9438810E-009 -2.7221886E-008 0.0
 -9.4632488E-009 -2.7253874E-008 0.0
 -9.9866781E-009 -2.7286312E-008 0.0
 -1.0514171E-008 -2.7319236E-008 0.0
 -1.1045797E-008 -2.7352390E-008 0.0
 -1.1581601E-008 -2.7385390E-008 0.0
 -1.2121652E-008 -2.7417877E-008 0.0
 -1.2666137E-008 -2.7449613E-008 0.0
 -1.3215484E-008 -2.7480522E-008 0.0
 -1.3770475E-008 -2.7510700E-008 0.0
 -1.4332411E-008 -2.7540397E-008 0.0
 -1.4903364E-008 -2.7569933E-008 0.0
 -1.5486406E-008 -2.7599179E-008 0.0
 -1.6084097E-008 -2.7626621E-008 0.0
 -1.6697040E-008 -2.7650223E-008 0.0
 -1.7293590E-008 -2.7686646E-008 0.0
  7.1380146E-009 -2.3816502E-008 0.0
  7.2042981E-009 -2.3905382E-008 0.0
  7.3456355E-009 -2.3980795E-008 0.0
  7.5079499E-009 -2.4037947E-008 0.0
  7.6622396E-009 -2.4073769E-008 0.0
  7.7987355E-009 -2.4091413E-008 0.0
  7.9142306E-009 -2.4094800E-008 0.0
  8.0058457E-009 -2.4087324E-008 0.0
  8.0702814E-009 -2.4071583E-008 0.0
  8.1038810E-009 -2.4049824E-008 0.0
  8.1029764E-009 -2.4024351E-008 0.0
  8.0644365E-009 -2.3997822E-008 0.0
  7.9863451E-009 -2.3973355E-008 0.0
  7.8686593E-009 -2.3954351E-008 0.0
  7.7136045E-009 -2.3944049E-008 0.0
  7.5255688E-009 -2.3944950E-008 0.0
  7.3104495E-009 -2.3958358E-008 0.0
  7.0746665E-009 -2.3984245E-008 0.0
  6.8242065E-009 -2.4021489E-008 0.0
  6.5639933E-009 -2.4068341E-008 0.0
  6.2976828E-009 -2.4122931E-008 0.0
  6.0277966E-009 -2.4183619E-008 0.0
  5.7560181E-009 -2.4249149E-008 0.0
  5.4834742E-009 -2.4318616E-008 0.0
  5.2109036E-009 -2.4391346E-008 0.0
  4.9387039E-009 -2.4466760E-008 0.0
  4.6669183E-009 -2.4544304E-008 0.0
  4.3952294E-009 -2.4623419E-008 0.0
  4.1229922E-009 -2.4703550E-008 0.0
  3.8493041E-009 -2.4784157E-008 0.0
  3.5730908E-009 -2.4864727E-008 0.0
  3.2931909E-009 -2.4944784E-008 0.0
  3.0084298E-009 -2.5023901E-008 0.0
  2.7176834E-009 -2.5101720E-008 0.0
  2.4199362E-009 -2.5177963E-008 0.0
  2.1143312E-009 -2.5252447E-008 0.0
  1.8002059E-009 -2.5325071E-008 0.0
  1.4771069E-009 -2.5395807E-008 0.0
  1.1447777E-009 -2.5464675E-008 0.0
  8.0312245E-010 -2.5531733E-008 0.0
  4.5214948E-010 -2.5597061E-008 0.0
  9.1903200E-011 -2.5660757E-008 0.0
 -2.7760942E-010 -2.5722932E-008 0.0
 -6.5648987E-010 -2.5783696E-008 0.0
 -1.0450037E-009 -2.5843127E-008 0.0
 -1.4436008E-009 -2.5901235E-008 0.0
 -1.8528729E-009 -2.5957920E-008 0.0
 -2.2734562E-009 -2.6012991E-008 0.0
 -2.7058998E-009 -2.6066234E-008 0.0
 -3.1506825E-009 -2.6117656E-008 0.0
 -3.6081444E-009 -2.6167691E-008 0.0
 -4.0796853E-009 -2.6218748E-008 0.0
 -4.5689217E-009 -2.6274697E-008 0.0
 -5.0050087E-009 -2.6381343E-008 0.0
 -5.4686343E-009 -2.6458472E-008 0.0
 -5.9468863E-009 -2.6531464E-008 0.0
 -6.4169837E-009 -2.6568172E-008 0.0
 -6.9055140E-009 -2.6597626E-008 0.0
 -7.4010722E-009 -2.6624116E-008 0.0
 -7.9034114E-009 -2.6648946E-008 0.0
 -8.4111382E-009 -2.6672734E-008 0.0
 -8.9228007E-009 -2.6696460E-008 0.0
 -9.4379123E-009 -2.6721009E-008 0.0
 -9.9567339E-009 -2.6746829E-008 0.0
 -1.0479768E-008 -2.6773841E-008 0.0
 -1.1007353E-008 -2.6801620E-008 0.0
 -1.1539555E-008 -2.6829629E-008 0.0
 -1.2076289E-008 -2.6857436E-008 0.0
 -1.2617534E-008 -2.6884783E-008 0.0
 -1.3163489E-008 -2.6911604E-008 0.0
 -1.3714695E-008 -2.6938043E-008 0.0
 -1.4272201E-008 -2.6964544E-008 0.0
 -1.4837859E-008 -2.6991993E-008 0.0
 -1.5415099E-008 -2.7022057E-008 0.0
 -1.6009455E-008 -2.7055849E-008 0.0
 -1.6618259E-008 -2.7092160E-008 0.0
 -1.7209806E-008 -2.7122827E-008 0.0
  7.3373151E-009 -2.3812949E-008 0.0
  7.3957758E-009 -2.3887731E-008 0.0
  7.5159169E-009 -2.3969503E-008 0.0
  7.6363159E-009 -2.4035263E-008 0.0
  7.7448407E-009 -2.4074576E-008 0.0
  7.8403567E-009 -2.4091069E-008 0.0
  7.9202747E-009 -2.4090817E-008 0.0
  7.9810603E-009 -2.4078125E-008 0.0
  8.0190049E-009 -2.4056219E-008 0.0
  8.0304114E-009 -2.4027733E-008 0.0
  8.0119164E-009 -2.3995143E-008 0.0
  7.9608747E-009 -2.3961032E-008 0.0
  7.8757867E-009 -2.3928179E-008 0.0
  7.7566712E-009 -2.3899442E-008 0.0
  7.6052460E-009 -2.3877479E-008 0.0
  7.4248093E-009 -2.3864401E-008 0.0
  7.2198084E-009 -2.3861490E-008 0.0
  6.9952129E-009 -2.3869106E-008 0.0
  6.7558789E-009 -2.3886801E-008 0.0
  6.5060754E-009 -2.3913592E-008 0.0
  6.2492471E-009 -2.3948275E-008 0.0
  5.9879937E-009 -2.3989679E-008 0.0
  5.7241781E-009 -2.4036807E-008 0.0
  5.4590684E-009 -2.4088860E-008 0.0
  5.1934489E-009 -2.4145192E-008 0.0
  4.9276814E-009 -2.4205235E-008 0.0
  4.6617372E-009 -2.4268442E-008 0.0
  4.3952308E-009 -2.4334257E-008 0.0
  4.1274716E-009 -2.4402100E-008 0.0
  3.8575390E-009 -2.4471377E-008 0.0
  3.5843677E-009 -2.4541495E-008 0.0
  3.3068333E-009 -2.4611873E-008 0.0
  3.0238272E-009 -2.4681972E-008 0.0
  2.7343190E-009 -2.4751311E-008 0.0
  2.4374051E-009 -2.4819487E-008 0.0
  2.1323450E-009 -2.4886184E-008 0.0
  1.8185831E-009 -2.4951170E-008 0.0
  1.4957542E-009 -2.5014290E-008 0.0
  1.1636706E-009 -2.5075451E-008 0.0
  8.2228971E-010 -2.5134613E-008 0.0
  4.7166230E-010 -2.5191783E-008 0.0
  1.1186369E-010 -2.5247009E-008 0.0
 -2.5708782E-010 -2.5300378E-008 0.0
 -6.3531896E-010 -2.5351998E-008 0.0
 -1.0231871E-009 -2.5401959E-008 0.0
 -1.4213286E-009 -2.5450262E-008 0.0
 -1.8306216E-009 -2.5496715E-008 0.0
 -2.2519890E-009 -2.5540848E-008 0.0
 -2.6862095E-009 -2.5581978E-008 0.0
 -3.1337497E-009 -2.5619179E-008 0.0
 -3.5955214E-009 -2.5651388E-008 0.0
 -4.0723914E-009 -2.5675143E-008 0.0
 -4.5832271E-009 -2.5679585E-008 0.0
 -5.9498113E-009 -2.6107934E-008 0.0
 -6.4064893E-009 -2.6103497E-008 0.0
 -6.8994071E-009 -2.6120716E-008 0.0
 -7.3922943E-009 -2.6134176E-008 0.0
 -7.8931797E-009 -2.6148254E-008 0.0
 -8.3985219E-009 -2.6162556E-008 0.0
 -8.9062724E-009 -2.6177899E-008 0.0
 -9.4163239E-009 -2.6195188E-008 0.0
 -9.9297296E-009 -2.6214808E-008 0.0
 -1.0447725E-008 -2.6236496E-008 0.0
 -1.0970967E-008 -2.6259493E-008 0.0
 -1.1499399E-008 -2.6283042E-008 0.0
 -1.2032645E-008 -2.6306632E-008 0.0
 -1.2570401E-008 -2.6330017E-008 0.0
 -1.3112623E-008 -2.6353125E-008 0.0
 -1.3659568E-008 -2.6376041E-008 0.0
 -1.4211833E-008 -2.6399124E-008 0.0
 -1.4770691E-008 -2.6423333E-008 0.0
 -1.5338461E-008 -2.6450551E-008 0.0
 -1.5922400E-008 -2.6485739E-008 0.0
 -1.6536656E-008 -2.6527373E-008 0.0
 -1.7160191E-008 -2.6557173E-008 0.0
  7.4610824E-009 -2.3800237E-008 0.0
  7.5778119E-009 -2.3867552E-008 0.0
  7.6926162E-009 -2.3952906E-008 0.0
  7.7671833E-009 -2.4012744E-008 0.0
  7.8288417E-009 -2.4043592E-008 0.0
  7.8838591E-009 -2.4054248E-008 0.0
  7.9287450E-009 -2.4049181E-008 0.0
  7.9594567E-009 -2.4032056E-008 0.0
  7.9717661E-009 -2.4005787E-008 0.0
  7.9618014E-009 -2.3972864E-008 0.0
  7.9262863E-009 -2.3935614E-008 0.0
  7.8627927E-009 -2.3896386E-008 0.0
  7.7699857E-009 -2.3857599E-008 0.0
  7.6478149E-009 -2.3821663E-008 0.0
  7.4975765E-009 -2.3790798E-008 0.0
  7.3217934E-009 -2.3766819E-008 0.0
  7.1239106E-009 -2.3750956E-008 0.0
  6.9078709E-009 -2.3743789E-008 0.0
  6.6776718E-009 -2.3745306E-008 0.0
  6.4370032E-009 -2.3755060E-008 0.0
  6.1890164E-009 -2.3772369E-008 0.0
  5.9362297E-009 -2.3796490E-008 0.0
  5.6805298E-009 -2.3826734E-008 0.0
  5.4232211E-009 -2.3862504E-008 0.0
  5.1650840E-009 -2.3903288E-008 0.0
  4.9064260E-009 -2.3948608E-008 0.0
  4.6471298E-009 -2.3997986E-008 0.0
  4.3867090E-009 -2.4050900E-008 0.0
  4.1243815E-009 -2.4106777E-008 0.0
  3.8591577E-009 -2.4164991E-008 0.0
  3.5899355E-009 -2.4224876E-008 0.0
  3.3155916E-009 -2.4285759E-008 0.0
  3.0350578E-009 -2.4346984E-008 0.0
  2.7473791E-009 -2.4407949E-008 0.0
  2.4517515E-009 -2.4468126E-008 0.0
  2.1475440E-009 -2.4527077E-008 0.0
  1.8343080E-009 -2.4584449E-008 0.0
  1.5117752E-009 -2.4639971E-008 0.0
  1.1798448E-009 -2.4693443E-008 0.0
  8.3855489E-010 -2.4744725E-008 0.0
  4.8803391E-010 -2.4793741E-008 0.0
  1.2842996E-010 -2.4840481E-008 0.0
 -2.4018396E-010 -2.4884993E-008 0.0
 -6.1791938E-010 -2.4927368E-008 0.0
 -1.0051914E-009 -2.4967704E-008 0.0
 -1.4028557E-009 -2.5006032E-008 0.0
 -1.8122223E-009 -2.5042092E-008 0.0
 -2.2348229E-009 -2.5075138E-008 0.0
 -2.6717402E-009 -2.5103805E-008 0.0
 -3.1238487E-009 -2.5126678E-008 0.0
 -3.5917371E-009 -2.5141416E-008 0.0
 -4.0810100E-009 -2.5145739E-008 0.0
 -6.9013551E-009 -2.5647922E-008 0.0
 -7.3890462E-009 -2.5647264E-008 0.0
 -7.8885272E-009 -2.5651237E-008 0.0
 -8.3912789E-009 -2.5657017E-008 0.0
 -8.8944702E-009 -2.5664726E-008 0.0
 -9.3982891E-009 -2.5675227E-008 0.0
 -9.9050583E-009 -2.5689334E-008 0.0
 -1.0417322E-008 -2.5706449E-008 0.0
 -1.0936035E-008 -2.5725369E-008 0.0
 -1.1460698E-008 -2.5745025E-008 0.0
 -1.1990367E-008 -2.5764943E-008 0.0
 -1.2524421E-008 -2.5784997E-008 0.0
 -1.3062650E-008 -2.5805117E-008 0.0
 -1.3605090E-008 -2.5825226E-008 0.0
 -1.4151938E-008 -2.5845348E-008 0.0
 -1.4703517E-008 -2.5865779E-008 0.0
 -1.5261684E-008 -2.5887493E-008 0.0
 -1.5829402E-008 -2.5910212E-008 0.0
 -1.6448144E-008 -2.5934486E-008 0.0
 -1.7166610E-008 -2.5922452E-008 0.0
  7.4530180E-009 -2.3928224E-008 0.0
  7.7654940E-009 -2.3896518E-008 0.0
  7.8663704E-009 -2.3934436E-008 0.0
  7.8886786E-009 -2.3962378E-008 0.0
  7.9090901E-009 -2.3979365E-008 0.0
  7.9263698E-009 -2.3982206E-008 0.0
  7.9384723E-009 -2.3972324E-008 0.0
  7.9407860E-009 -2.3951887E-008 0.0
  7.9287679E-009 -2.3923017E-008 0.0
  7.8983832E-009 -2.3887723E-008 0.0
  7.8463717E-009 -2.3847981E-008 0.0
  7.7703977E-009 -2.3805805E-008 0.0
  7.6691737E-009 -2.3763252E-008 0.0
  7.5425396E-009 -2.3722351E-008 0.0
  7.3914568E-009 -2.3684975E-008 0.0
  7.2178909E-009 -2.3652700E-008 0.0
  7.0245825E-009 -2.3626691E-008 0.0
  6.8147420E-009 -2.3607647E-008 0.0
  6.5917246E-009 -2.3595839E-008 0.0
  6.3587434E-009 -2.3591200E-008 0.0
  6.1186565E-009 -2.3593454E-008 0.0
  5.8738370E-009 -2.3602232E-008 0.0
  5.6261131E-009 -2.3617162E-008 0.0
  5.3767550E-009 -2.3637901E-008 0.0
  5.1264895E-009 -2.3664134E-008 0.0
  4.8755324E-009 -2.3695545E-008 0.0
  4.6236387E-009 -2.3731768E-008 0.0
  4.3701736E-009 -2.3772360E-008 0.0
  4.1142063E-009 -2.3816777E-008 0.0
  3.8546187E-009 -2.3864370E-008 0.0
  3.5902187E-009 -2.3914412E-008 0.0
  3.3198437E-009 -2.3966128E-008 0.0
  3.0424406E-009 -2.4018748E-008 0.0
  2.7571175E-009 -2.4071545E-008 0.0
  2.4631667E-009 -2.4123875E-008 0.0
  2.1600683E-009 -2.4175190E-008 0.0
  1.8474843E-009 -2.4225038E-008 0.0
  1.5252497E-009 -2.4273050E-008 0.0
  1.1933619E-009 -2.4318929E-008 0.0
  8.5195958E-010 -2.4362443E-008 0.0
  5.0128078E-010 -2.4403430E-008 0.0
  1.4158987E-010 -2.4441809E-008 0.0
 -2.2693200E-010 -2.4477585E-008 0.0
 -6.0433476E-010 -2.4510833E-008 0.0
 -9.9104628E-010 -2.4541632E-008 0.0
 -1.3880440E-009 -2.4570042E-008 0.0
 -1.7972505E-009 -2.4595987E-008 0.0
 -2.2212440E-009 -2.4618444E-008 0.0
 -2.6620288E-009 -2.4635582E-008 0.0
 -3.1191980E-009 -2.4645062E-008 0.0
 -3.5957896E-009 -2.4646091E-008 0.0
 -7.3895957E-009 -2.5153451E-008 0.0
 -7.8871923E-009 -2.5153172E-008 0.0
 -8.3889161E-009 -2.5154987E-008 0.0
 -8.8875853E-009 -2.5156231E-008 0.0
 -9.3835575E-009 -2.5160660E-008 0.0
 -9.8818828E-009 -2.5169659E-008 0.0
 -1.0387565E-008 -2.5183068E-008 0.0
 -1.0901971E-008 -2.5198532E-008 0.0
 -1.1423087E-008 -2.5214695E-008 0.0
 -1.1949044E-008 -2.5231506E-008 0.0
 -1.2479078E-008 -2.5249101E-008 0.0
 -1.3012997E-008 -2.5267366E-008 0.0
 -1.3550754E-008 -2.5286064E-008 0.0
 -1.4092210E-008 -2.5304904E-008 0.0
 -1.4637153E-008 -2.5323699E-008 0.0
 -1.5184575E-008 -2.5342854E-008 0.0
 -1.5739343E-008 -2.5366535E-008 0.0
 -1.6286621E-008 -2.5414441E-008 0.0
  8.0896152E-009 -2.3744578E-008 0.0
  8.0230321E-009 -2.3833050E-008 0.0
  8.0045938E-009 -2.3863145E-008 0.0
  7.9841709E-009 -2.3875239E-008 0.0
  7.9671370E-009 -2.3873730E-008 0.0
  7.9491163E-009 -2.3861290E-008 0.0
  7.9251234E-009 -2.3839602E-008 0.0
  7.8902870E-009 -2.3810191E-008 0.0
  7.8404766E-009 -2.3774581E-008 0.0
  7.7724486E-009 -2.3734360E-008 0.0
  7.6839223E-009 -2.3691200E-008 0.0
  7.5736206E-009 -2.3646826E-008 0.0
  7.4412805E-009 -2.3602944E-008 0.0
  7.2876101E-009 -2.3561150E-008 0.0
  7.1141769E-009 -2.3522821E-008 0.0
  6.9232254E-009 -2.3489048E-008 0.0
  6.7174460E-009 -2.3460590E-008 0.0
  6.4997239E-009 -2.3437900E-008 0.0
  6.2729042E-009 -2.3421180E-008 0.0
  6.0395948E-009 -2.3410469E-008 0.0
  5.8020194E-009 -2.3405723E-008 0.0
  5.5619185E-009 -2.3406875E-008 0.0
  5.3204909E-009 -2.3413862E-008 0.0
  5.0783713E-009 -2.3426613E-008 0.0
  4.8356413E-009 -2.3445018E-008 0.0
  4.5918760E-009 -2.3468876E-008 0.0
  4.3462284E-009 -2.3497854E-008 0.0
  4.0975459E-009 -2.3531453E-008 0.0
  3.8445089E-009 -2.3569014E-008 0.0
  3.5857725E-009 -2.3609736E-008 0.0
  3.3200908E-009 -2.3652738E-008 0.0
  3.0464041E-009 -2.3697119E-008 0.0
  2.7638821E-009 -2.3742029E-008 0.0
  2.4719239E-009 -2.3786716E-008 0.0
  2.1701337E-009 -2.3830548E-008 0.0
  1.8582918E-009 -2.3873002E-008 0.0
  1.5363384E-009 -2.3913643E-008 0.0
  1.2043714E-009 -2.3952098E-008 0.0
  8.6264147E-010 -2.3988054E-008 0.0
  5.1152350E-010 -2.4021266E-008 0.0
  1.5144411E-010 -2.4051582E-008 0.0
 -2.1724146E-010 -2.4078962E-008 0.0
 -5.9443569E-010 -2.4103481E-008 0.0
 -9.8057515E-010 -2.4125267E-008 0.0
 -1.3767198E-009 -2.4144211E-008 0.0
 -1.7848184E-009 -2.4160269E-008 0.0
 -2.2098134E-009 -2.4173367E-008 0.0
 -2.6554799E-009 -2.4179846E-008 0.0
 -3.1198673E-009 -2.4178015E-008 0.0
 -8.3886659E-009 -2.4656690E-008 0.0
 -8.8869873E-009 -2.4656152E-008 0.0
 -9.3730803E-009 -2.4651336E-008 0.0
 -9.8586267E-009 -2.4655466E-008 0.0
 -1.0357305E-008 -2.4665855E-008 0.0
 -1.0868611E-008 -2.4677697E-008 0.0
 -1.1386345E-008 -2.4690432E-008 0.0
 -1.1908142E-008 -2.4704953E-008 0.0
 -1.2433641E-008 -2.4721243E-008 0.0
 -1.2962760E-008 -2.4739098E-008 0.0
 -1.3495447E-008 -2.4758217E-008 0.0
 -1.4031415E-008 -2.4778271E-008 0.0
 -1.4569599E-008 -2.4799010E-008 0.0
 -1.5108023E-008 -2.4820717E-008 0.0
 -1.5635679E-008 -2.4847448E-008 0.0
 -1.6149873E-008 -2.4893116E-008 0.0
  8.3322765E-009 -2.3597610E-008 0.0
  8.2030138E-009 -2.3671935E-008 0.0
  8.1177414E-009 -2.3716281E-008 0.0
  8.0566587E-009 -2.3730025E-008 0.0
  8.0070905E-009 -2.3729043E-008 0.0
  7.9613708E-009 -2.3717495E-008 0.0
  7.9130333E-009 -2.3697270E-008 0.0
  7.8568095E-009 -2.3669612E-008 0.0
  7.7884776E-009 -2.3635724E-008 0.0
  7.7048270E-009 -2.3596900E-008 0.0
  7.6036291E-009 -2.3554532E-008 0.0
  7.4836160E-009 -2.3510072E-008 0.0
  7.3444480E-009 -2.3464969E-008 0.0
  7.1866516E-009 -2.3420592E-008 0.0
  7.0115147E-009 -2.3378156E-008 0.0
  6.8209373E-009 -2.3338672E-008 0.0
  6.6172482E-009 -2.3302919E-008 0.0
  6.4030031E-009 -2.3271462E-008 0.0
  6.1807843E-009 -2.3244694E-008 0.0
  5.9530165E-009 -2.3222898E-008 0.0
  5.7218081E-009 -2.3206306E-008 0.0
  5.4888220E-009 -2.3195140E-008 0.0
  5.2551789E-009 -2.3189627E-008 0.0
  5.0213990E-009 -2.3189974E-008 0.0
  4.7873890E-009 -2.3196320E-008 0.0
  4.5524830E-009 -2.3208669E-008 0.0
  4.3155404E-009 -2.3226826E-008 0.0
  4.0750938E-009 -2.3250358E-008 0.0
  3.8295297E-009 -2.3278588E-008 0.0
  3.5772730E-009 -2.3310630E-008 0.0
  3.3169458E-009 -2.3345465E-008 0.0
  3.0474683E-009 -2.3382044E-008 0.0
  2.7680883E-009 -2.3419384E-008 0.0
  2.4783451E-009 -2.3456641E-008 0.0
  2.1779973E-009 -2.3493134E-008 0.0
  1.8669569E-009 -2.3528319E-008 0.0
  1.5452634E-009 -2.3561740E-008 0.0
  1.2131021E-009 -2.3592983E-008 0.0
  8.7083460E-010 -2.3621671E-008 0.0
  5.1899548E-010 -2.3647487E-008 0.0
  1.5822348E-010 -2.3670217E-008 0.0
 -2.1087672E-010 -2.3689784E-008 0.0
 -5.8793505E-010 -2.3706274E-008 0.0
 -9.7317020E-010 -2.3719996E-008 0.0
 -1.3681537E-009 -2.3731229E-008 0.0
 -1.7747829E-009 -2.3738668E-008 0.0
 -2.1975631E-009 -2.3741135E-008 0.0
 -2.6541293E-009 -2.3736863E-008 0.0
 -9.3717712E-009 -2.4153814E-008 0.0
 -9.8327149E-009 -2.4147819E-008 0.0
 -1.0326477E-008 -2.4152180E-008 0.0
 -1.0836330E-008 -2.4159246E-008 0.0
 -1.1349897E-008 -2.4169865E-008 0.0
 -1.1866921E-008 -2.4183511E-008 0.0
 -1.2387208E-008 -2.4199948E-008 0.0
 -1.2910891E-008 -2.4218899E-008 0.0
 -1.3437912E-008 -2.4240140E-008 0.0
 -1.3967790E-008 -2.4263590E-008 0.0
 -1.4499255E-008 -2.4289339E-008 0.0
 -1.5028103E-008 -2.4317742E-008 0.0
 -1.5546103E-008 -2.4347275E-008 0.0
 -1.6009115E-008 -2.4375538E-008 0.0
  8.5460363E-009 -2.3428491E-008 0.0
  8.3683596E-009 -2.3500733E-008 0.0
  8.2263569E-009 -2.3532724E-008 0.0
  8.1270762E-009 -2.3548445E-008 0.0
  8.0476630E-009 -2.3551174E-008 0.0
  7.9763710E-009 -2.3543787E-008 0.0
  7.9053657E-009 -2.3527691E-008 0.0
  7.8289472E-009 -2.3503965E-008 0.0
  7.7428234E-009 -2.3473654E-008 0.0
  7.6438259E-009 -2.3437880E-008 0.0
  7.5297817E-009 -2.3397846E-008 0.0
  7.3994402E-009 -2.3354806E-008 0.0
  7.2524134E-009 -2.3310010E-008 0.0
  7.0891039E-009 -2.3264649E-008 0.0
  6.9106088E-009 -2.3219800E-008 0.0
  6.7185959E-009 -2.3176393E-008 0.0
  6.5151534E-009 -2.3135197E-008 0.0
  6.3026234E-009 -2.3096836E-008 0.0
  6.0834258E-009 -2.3061832E-008 0.0
  5.8598824E-009 -2.3030650E-008 0.0
  5.6340475E-009 -2.3003755E-008 0.0
  5.4075488E-009 -2.2981638E-008 0.0
  5.1814516E-009 -2.2964823E-008 0.0
  4.9561586E-009 -2.2953821E-008 0.0
  4.7313668E-009 -2.2949061E-008 0.0
  4.5060987E-009 -2.2950790E-008 0.0
  4.2788191E-009 -2.2958984E-008 0.0
  4.0476258E-009 -2.2973284E-008 0.0
  3.8104908E-009 -2.2992981E-008 0.0
  3.5655116E-009 -2.3017070E-008 0.0
  3.3111226E-009 -2.3044357E-008 0.0
  3.0462218E-009 -2.3073603E-008 0.0
  2.7701814E-009 -2.3103678E-008 0.0
  2.4827510E-009 -2.3133665E-008 0.0
  2.1839041E-009 -2.3162886E-008 0.0
  1.8737065E-009 -2.3190852E-008 0.0
  1.5522743E-009 -2.3217155E-008 0.0
  1.2198385E-009 -2.3241389E-008 0.0
  8.7685142E-010 -2.3263135E-008 0.0
  5.2403037E-010 -2.3282019E-008 0.0
  1.6228528E-010 -2.3297789E-008 0.0
 -2.0744612E-010 -2.3310366E-008 0.0
 -5.8441682E-010 -2.3319859E-008 0.0
 -9.6827875E-010 -2.3326628E-008 0.0
 -1.3599774E-009 -2.3331965E-008 0.0
 -1.7647536E-009 -2.3337717E-008 0.0
 -2.1754513E-009 -2.3345585E-008 0.0
 -9.7818668E-009 -2.3614400E-008 0.0
 -1.0296237E-008 -2.3629804E-008 0.0
 -1.0803277E-008 -2.3639237E-008 0.0
 -1.1312733E-008 -2.3650793E-008 0.0
 -1.1824347E-008 -2.3665602E-008 0.0
 -1.2338838E-008 -2.3683742E-008 0.0
 -1.2856503E-008 -2.3705043E-008 0.0
 -1.3377258E-008 -2.3729433E-008 0.0
 -1.3900457E-008 -2.3757119E-008 0.0
 -1.4424494E-008 -2.3788771E-008 0.0
 -1.4946267E-008 -2.3825114E-008 0.0
 -1.5456517E-008 -2.3867050E-008 0.0
 -1.5937809E-008 -2.3907083E-008 0.0
 -1.6398215E-008 -2.3929261E-008 0.0
 -1.6388994E-008 -2.4370179E-008 0.0
  8.7720019E-009 -2.3264025E-008 0.0
  8.4940198E-009 -2.3291075E-008 0.0
  8.3245737E-009 -2.3316793E-008 0.0
  8.1953624E-009 -2.3336090E-008 0.0
  8.0898744E-009 -2.3345310E-008 0.0
  7.9951385E-009 -2.3344499E-008 0.0
  7.9028883E-009 -2.3334552E-008 0.0
  7.8072346E-009 -2.3316433E-008 0.0
  7.7038765E-009 -2.3291139E-008 0.0
  7.5897012E-009 -2.3259714E-008 0.0
  7.4625936E-009 -2.3223252E-008 0.0
  7.3213282E-009 -2.3182868E-008 0.0
  7.1654912E-009 -2.3139664E-008 0.0
  6.9954047E-009 -2.3094687E-008 0.0
  6.8120409E-009 -2.3048896E-008 0.0
  6.6169179E-009 -2.3003135E-008 0.0
  6.4119771E-009 -2.2958138E-008 0.0
  6.1994431E-009 -2.2914547E-008 0.0
  5.9816674E-009 -2.2872951E-008 0.0
  5.7609589E-009 -2.2833948E-008 0.0
  5.5394003E-009 -2.2798187E-008 0.0
  5.3186580E-009 -2.2766408E-008 0.0
  5.0997958E-009 -2.2739430E-008 0.0
  4.8831197E-009 -2.2718100E-008 0.0
  4.6680905E-009 -2.2703179E-008 0.0
  4.4533386E-009 -2.2695201E-008 0.0
  4.2368053E-009 -2.2694341E-008 0.0
  4.0159969E-009 -2.2700314E-008 0.0
  3.7883139E-009 -2.2712355E-008 0.0
  3.5513972E-009 -2.2729291E-008 0.0
  3.3034272E-009 -2.2749686E-008 0.0
  3.0432945E-009 -2.2772057E-008 0.0
  2.7705862E-009 -2.2795099E-008 0.0
  2.4853911E-009 -2.2817843E-008 0.0
  2.1880105E-009 -2.2839693E-008 0.0
  1.8787004E-009 -2.2860323E-008 0.0
  1.5575978E-009 -2.2879480E-008 0.0
  1.2248810E-009 -2.2896825E-008 0.0
  8.8104127E-010 -2.2911908E-008 0.0
  5.2701357E-010 -2.2924318E-008 0.0
  1.6407282E-010 -2.2933811E-008 0.0
 -2.0642005E-010 -2.2940394E-008 0.0
 -5.8324922E-010 -2.2944275E-008 0.0
 -9.6555547E-010 -2.2945835E-008 0.0
 -1.3524068E-009 -2.2945442E-008 0.0
 -1.7485792E-009 -2.2945459E-008 0.0
 -2.1734983E-009 -2.2939757E-008 0.0
 -9.7440547E-009 -2.3090938E-008 0.0
 -1.0260640E-008 -2.3104476E-008 0.0
 -1.0768524E-008 -2.3118058E-008 0.0
 -1.1273457E-008 -2.3132750E-008 0.0
 -1.1779386E-008 -2.3150528E-008 0.0
 -1.2287720E-008 -2.3171663E-008 0.0
 -1.2799074E-008 -2.3196110E-008 0.0
 -1.3313351E-008 -2.3223841E-008 0.0
 -1.3829731E-008 -2.3255080E-008 0.0
 -1.4346573E-008 -2.3290446E-008 0.0
 -1.4861421E-008 -2.3331080E-008 0.0
 -1.5371635E-008 -2.3375557E-008 0.0
 -1.5876030E-008 -2.3414353E-008 0.0
 -1.6376607E-008 -2.3434855E-008 0.0
  9.5287113E-009 -2.3282599E-008 0.0
  9.5291860E-009 -2.2969948E-008 0.0
  9.2105888E-009 -2.2965138E-008 0.0
  9.2128615E-009 -2.3283229E-008 0.0
  8.8748856E-009 -2.2987365E-008 0.0
  8.6075075E-009 -2.3031611E-008 0.0
  8.4135502E-009 -2.3072347E-008 0.0
  8.2624318E-009 -2.3100678E-008 0.0
  8.1343088E-009 -2.3118117E-008 0.0
  8.0181840E-009 -2.3125012E-008 0.0
  7.9059807E-009 -2.3122173E-008 0.0
  7.7919264E-009 -2.3110547E-008 0.0
  7.6717984E-009 -2.3091115E-008 0.0
  7.5425645E-009 -2.3064880E-008 0.0
  7.4021739E-009 -2.3032858E-008 0.0
  7.2494335E-009 -2.2996060E-008 0.0
  7.0839210E-009 -2.2955470E-008 0.0
  6.9059103E-009 -2.2912018E-008 0.0
  6.7162952E-009 -2.2866550E-008 0.0
  6.5165046E-009 -2.2819823E-008 0.0
  6.3084037E-009 -2.2772508E-008 0.0
  6.0941786E-009 -2.2725222E-008 0.0
  5.8761997E-009 -2.2678575E-008 0.0
  5.6568582E-009 -2.2633233E-008 0.0
  5.4383694E-009 -2.2589984E-008 0.0
  5.2225440E-009 -2.2549783E-008 0.0
  5.0105377E-009 -2.2513748E-008 0.0
  4.8026143E-009 -2.2483089E-008 0.0
  4.5979838E-009 -2.2458956E-008 0.0
  4.3947875E-009 -2.2442222E-008 0.0
  4.1902740E-009 -2.2433281E-008 0.0
  3.9811520E-009 -2.2431909E-008 0.0
  3.7640427E-009 -2.2437240E-008 0.0
  3.5359618E-009 -2.2447860E-008 0.0
  3.2947483E-009 -2.2462008E-008 0.0
  3.0393239E-009 -2.2477885E-008 0.0
  2.7696445E-009 -2.2493979E-008 0.0
  2.4863551E-009 -2.2509289E-008 0.0
  2.1902784E-009 -2.2523400E-008 0.0
  1.8819408E-009 -2.2536296E-008 0.0
  1.5613753E-009 -2.2548048E-008 0.0
  1.2284930E-009 -2.2558427E-008 0.0
  8.8372052E-010 -2.2566977E-008 0.0
  5.2828624E-010 -2.2573214E-008 0.0
  1.6399942E-010 -2.2577002E-008 0.0
 -2.0720576E-010 -2.2578548E-008 0.0
 -5.8363255E-010 -2.2578395E-008 0.0
 -9.6369900E-010 -2.2577318E-008 0.0
 -1.3459678E-009 -2.2576778E-008 0.0
 -1.7205304E-009 -2.2582599E-008 0.0
 -9.7121829E-009 -2.2569972E-008 0.0
 -1.0227166E-008 -2.2582644E-008 0.0
 -1.0731468E-008 -2.2598116E-008 0.0
 -1.1231351E-008 -2.2616886E-008 0.0
 -1.1731245E-008 -2.2638662E-008 0.0
 -1.2233309E-008 -2.2663569E-008 0.0
 -1.2738423E-008 -2.2691507E-008 0.0
 -1.3246587E-008 -2.2722288E-008 0.0
 -1.3756969E-008 -2.2755721E-008 0.0
 -1.4268016E-008 -2.2791702E-008 0.0
 -1.4777915E-008 -2.2829978E-008 0.0
 -1.5289583E-008 -2.2870755E-008 0.0
 -1.5816335E-008 -2.2908391E-008 0.0
 -1.6354809E-008 -2.2929420E-008 0.0
  9.8064712E-009 -2.2969691E-008 0.0
  9.8059013E-009 -2.2695302E-008 0.0
  9.5316124E-009 -2.2694885E-008 0.0
  9.2419200E-009 -2.2703779E-008 0.0
  8.9551168E-009 -2.2730608E-008 0.0
  8.7035106E-009 -2.2773092E-008 0.0
  8.4979692E-009 -2.2816927E-008 0.0
  8.3282597E-009 -2.2852399E-008 0.0
  8.1807727E-009 -2.2876970E-008 0.0
  8.0452778E-009 -2.2890956E-008 0.0
  7.9144720E-009 -2.2894976E-008 0.0
  7.7828824E-009 -2.2889851E-008 0.0
  7.6464715E-009 -2.2876475E-008 0.0
  7.5023292E-009 -2.2855768E-008 0.0
  7.3484883E-009 -2.2828656E-008 0.0
  7.1838016E-009 -2.2796051E-008 0.0
  7.0078552E-009 -2.2758831E-008 0.0
  6.8208984E-009 -2.2717815E-008 0.0
  6.6237794E-009 -2.2673745E-008 0.0
  6.4178790E-009 -2.2627281E-008 0.0
  6.2050370E-009 -2.2579010E-008 0.0
  5.9874631E-009 -2.2529484E-008 0.0
  5.7676237E-009 -2.2479276E-008 0.0
  5.5480900E-009 -2.2429061E-008 0.0
  5.3313330E-009 -2.2379704E-008 0.0
  5.1194521E-009 -2.2332333E-008 0.0
  4.9138411E-009 -2.2288357E-008 0.0
  4.7148274E-009 -2.2249392E-008 0.0
  4.5213786E-009 -2.2217047E-008 0.0
  4.3310186E-009 -2.2192602E-008 0.0
  4.1400647E-009 -2.2176678E-008 0.0
  3.9441474E-009 -2.2169054E-008 0.0
  3.7388564E-009 -2.2168671E-008 0.0
  3.5203573E-009 -2.2173790E-008 0.0
  3.2860278E-009 -2.2182219E-008 0.0
  3.0349031E-009 -2.2191787E-008 0.0
  2.7675519E-009 -2.2200768E-008 0.0
  2.4854770E-009 -2.2208183E-008 0.0
  2.1903555E-009 -2.2213837E-008 0.0
  1.8831483E-009 -2.2218242E-008 0.0
  1.5636018E-009 -2.2221931E-008 0.0
  1.2308260E-009 -2.2224985E-008 0.0
  8.8505714E-010 -2.2226707E-008 0.0
  5.2801019E-010 -2.2226766E-008 0.0
  1.6227294E-010 -2.2225066E-008 0.0
 -2.0940207E-010 -2.2222254E-008 0.0
 -5.8481254E-010 -2.2219201E-008 0.0
 -9.6202871E-010 -2.2217051E-008 0.0
 -1.3375146E-009 -2.2217560E-008 0.0
 -1.7047502E-009 -2.2220844E-008 0.0
 -9.6850870E-009 -2.2046914E-008 0.0
 -1.0195667E-008 -2.2062132E-008 0.0
 -1.0692624E-008 -2.2081941E-008 0.0
 -1.1186074E-008 -2.2105071E-008 0.0
 -1.1679551E-008 -2.2131175E-008 0.0
 -1.2175317E-008 -2.2160082E-008 0.0
 -1.2674496E-008 -2.2191566E-008 0.0
 -1.3177328E-008 -2.2225157E-008 0.0
 -1.3683230E-008 -2.2260079E-008 0.0
 -1.4190865E-008 -2.2295133E-008 0.0
 -1.4699375E-008 -2.2328573E-008 0.0
 -1.5209158E-008 -2.2357521E-008 0.0
 -1.5751712E-008 -2.2381209E-008 0.0
 -1.6362192E-008 -2.2375233E-008 0.0
  9.8061884E-009 -2.2435224E-008 0.0
  9.5466095E-009 -2.2440430E-008 0.0
  9.2802881E-009 -2.2455038E-008 0.0
  9.0206010E-009 -2.2482738E-008 0.0
  8.7827064E-009 -2.2521074E-008 0.0
  8.5739389E-009 -2.2562423E-008 0.0
  8.3915806E-009 -2.2599383E-008 0.0
  8.2280286E-009 -2.2628045E-008 0.0
  8.0755147E-009 -2.2647199E-008 0.0
  7.9276752E-009 -2.2656871E-008 0.0
  7.7795811E-009 -2.2657521E-008 0.0
  7.6274958E-009 -2.2649814E-008 0.0
  7.4686996E-009 -2.2634507E-008 0.0
  7.3013462E-009 -2.2612395E-008 0.0
  7.1243589E-009 -2.2584273E-008 0.0
  6.9373523E-009 -2.2550911E-008 0.0
  6.7405710E-009 -2.2513022E-008 0.0
  6.5348393E-009 -2.2471243E-008 0.0
  6.3215152E-009 -2.2426132E-008 0.0
  6.1024441E-009 -2.2378173E-008 0.0
  5.8799018E-009 -2.2327816E-008 0.0
  5.6565133E-009 -2.2275545E-008 0.0
  5.4351244E-009 -2.2221976E-008 0.0
  5.2185992E-009 -2.2167977E-008 0.0
  5.0095127E-009 -2.2114786E-008 0.0
  4.8097169E-009 -2.2064079E-008 0.0
  4.6197967E-009 -2.2017924E-008 0.0
  4.4385398E-009 -2.1978505E-008 0.0
  4.2626681E-009 -2.1947626E-008 0.0
  4.0871677E-009 -2.1926105E-008 0.0
  3.9062051E-009 -2.1913532E-008 0.0
  3.7140603E-009 -2.1908473E-008 0.0
  3.5058228E-009 -2.1908715E-008 0.0
  3.2781626E-009 -2.1911626E-008 0.0
  3.0304409E-009 -2.1914545E-008 0.0
  2.7642984E-009 -2.1915827E-008 0.0
  2.4823540E-009 -2.1914663E-008 0.0
  2.1874397E-009 -2.1910991E-008 0.0
  1.8816584E-009 -2.1905645E-008 0.0
  1.5640477E-009 -2.1900350E-008 0.0
  1.2317564E-009 -2.1894777E-008 0.0
  8.8485054E-010 -2.1888847E-008 0.0
  5.2599030E-010 -2.1881777E-008 0.0
  1.5882601E-010 -2.1874642E-008 0.0
 -2.1293463E-010 -2.1867806E-008 0.0
 -5.8664708E-010 -2.1862535E-008 0.0
 -9.6048264E-010 -2.1859639E-008 0.0
 -1.3316829E-009 -2.1859406E-008 0.0
 -1.6962783E-009 -2.1861205E-008 0.0
 -9.1658275E-009 -2.2043500E-008 0.0
 -9.1734073E-009 -2.1519342E-008 0.0
 -9.6692032E-009 -2.1530166E-008 0.0
 -1.0163369E-008 -2.1548459E-008 0.0
 -1.0651869E-008 -2.1572365E-008 0.0
 -1.1137701E-008 -2.1599537E-008 0.0
 -1.1624270E-008 -2.1629598E-008 0.0
 -1.2113647E-008 -2.1662262E-008 0.0
 -1.2607156E-008 -2.1697163E-008 0.0
 -1.3105411E-008 -2.1733629E-008 0.0
 -1.3608271E-008 -2.1770480E-008 0.0
 -1.4114841E-008 -2.1805942E-008 0.0
 -1.4623378E-008 -2.1838011E-008 0.0
 -1.5134746E-008 -2.1865898E-008 0.0
 -1.5634362E-008 -2.1903530E-008 0.0
  9.8136805E-009 -2.2188505E-008 0.0
  9.5669948E-009 -2.2195939E-008 0.0
  9.3187086E-009 -2.2211943E-008 0.0
  9.0768058E-009 -2.2238203E-008 0.0
  8.8492502E-009 -2.2272470E-008 0.0
  8.6406568E-009 -2.2309901E-008 0.0
  8.4504839E-009 -2.2345353E-008 0.0
  8.2745968E-009 -2.2375091E-008 0.0
  8.1076528E-009 -2.2397150E-008 0.0
  7.9446051E-009 -2.2410813E-008 0.0
  7.7812398E-009 -2.2416058E-008 0.0
  7.6142551E-009 -2.2413218E-008 0.0
  7.4412035E-009 -2.2402814E-008 0.0
  7.2604135E-009 -2.2385465E-008 0.0
  7.0709147E-009 -2.2361829E-008 0.0
  6.8723758E-009 -2.2332559E-008 0.0
  6.6650556E-009 -2.2298265E-008 0.0
  6.4497680E-009 -2.2259488E-008 0.0
  6.2278586E-009 -2.2216683E-008 0.0
  6.0011890E-009 -2.2170220E-008 0.0
  5.7721207E-009 -2.2120422E-008 0.0
  5.5434785E-009 -2.2067636E-008 0.0
  5.3184642E-009 -2.2012348E-008 0.0
  5.1004790E-009 -2.1955347E-008 0.0
  4.8928001E-009 -2.1897897E-008 0.0
  4.6980484E-009 -2.1841891E-008 0.0
  4.5174152E-009 -2.1789878E-008 0.0
  4.3496991E-009 -2.1744800E-008 0.0
  4.1906080E-009 -2.1709201E-008 0.0
  4.0330105E-009 -2.1684176E-008 0.0
  3.8688022E-009 -2.1668522E-008 0.0
  3.6910382E-009 -2.1659754E-008 0.0
  3.4935623E-009 -2.1655397E-008 0.0
  3.2717036E-009 -2.1651911E-008 0.0
  3.0257741E-009 -2.1646768E-008 0.0
  2.7594707E-009 -2.1638647E-008 0.0
  2.4766960E-009 -2.1628178E-008 0.0
  2.1807623E-009 -2.1615201E-008 0.0
  1.8758056E-009 -2.1599381E-008 0.0
  1.5627716E-009 -2.1582619E-008 0.0
  1.2300088E-009 -2.1567267E-008 0.0
  8.8158212E-010 -2.1548334E-008 0.0
  5.2219925E-010 -2.1533627E-008 0.0
  1.5324204E-010 -2.1520649E-008 0.0
 -2.1759010E-010 -2.1510948E-008 0.0
 -5.8901206E-010 -2.1504609E-008 0.0
 -9.5992473E-010 -2.1501237E-008 0.0
 -1.3284383E-009 -2.1500384E-008 0.0
 -1.6923609E-009 -2.1500979E-008 0.0
 -8.6933382E-009 -2.1513261E-008 0.0
 -8.6997201E-009 -2.1013761E-008 0.0
 -9.1748103E-009 -2.1017093E-008 0.0
 -9.6529595E-009 -2.1027130E-008 0.0
 -1.0131764E-008 -2.1046352E-008 0.0
 -1.0609282E-008 -2.1072131E-008 0.0
 -1.1086561E-008 -2.1102228E-008 0.0
 -1.1565629E-008 -2.1135421E-008 0.0
 -1.2048353E-008 -2.1171206E-008 0.0
 -1.2536175E-008 -2.1209156E-008 0.0
 -1.3030146E-008 -2.1248606E-008 0.0
 -1.3530748E-008 -2.1288347E-008 0.0
 -1.4037324E-008 -2.1326565E-008 0.0
 -1.4547416E-008 -2.1361457E-008 0.0
 -1.5053288E-008 -2.1394555E-008 0.0
 -1.5540285E-008 -2.1427982E-008 0.0
  9.8249373E-009 -2.1947935E-008 0.0
  9.5886918E-009 -2.1955715E-008 0.0
  9.3550667E-009 -2.1971380E-008 0.0
  9.1260651E-009 -2.1995181E-008 0.0
  8.9064825E-009 -2.2025156E-008 0.0
  8.6992968E-009 -2.2058248E-008 0.0
  8.5044040E-009 -2.2090813E-008 0.0
  8.3193611E-009 -2.2119670E-008 0.0
  8.1405685E-009 -2.2142673E-008 0.0
  7.9642409E-009 -2.2158657E-008 0.0
  7.7869819E-009 -2.2167156E-008 0.0
  7.6060172E-009 -2.2168151E-008 0.0
  7.4192498E-009 -2.2161898E-008 0.0
  7.2252416E-009 -2.2148817E-008 0.0
  7.0231722E-009 -2.2129415E-008 0.0
  6.8127948E-009 -2.2104230E-008 0.0
  6.5944016E-009 -2.2073778E-008 0.0
  6.3688038E-009 -2.2038519E-008 0.0
  6.1373314E-009 -2.1998818E-008 0.0
  5.9018515E-009 -2.1954940E-008 0.0
  5.6648016E-009 -2.1907065E-008 0.0
  5.4292181E-009 -2.1855367E-008 0.0
  5.1987184E-009 -2.1800146E-008 0.0
  4.9773743E-009 -2.1742034E-008 0.0
  4.7694191E-009 -2.1682222E-008 0.0
  4.5786582E-009 -2.1622750E-008 0.0
  4.4074281E-009 -2.1566655E-008 0.0
  4.2550867E-009 -2.1517783E-008 0.0
  4.1161640E-009 -2.1479970E-008 0.0
  3.9801387E-009 -2.1454699E-008 0.0
  3.8343933E-009 -2.1439666E-008 0.0
  3.6706178E-009 -2.1428721E-008 0.0
  3.4847004E-009 -2.1417970E-008 0.0
  3.2660101E-009 -2.1406007E-008 0.0
  3.0188904E-009 -2.1387280E-008 0.0
  2.7520738E-009 -2.1366614E-008 0.0
  2.4685956E-009 -2.1345720E-008 0.0
  2.1712990E-009 -2.1325221E-008 0.0
  1.8651689E-009 -2.1303691E-008 0.0
  1.5591361E-009 -2.1279262E-008 0.0
  1.2188054E-009 -2.1234598E-008 0.0
  8.7202250E-010 -2.1200323E-008 0.0
  5.1700080E-010 -2.1169567E-008 0.0
  1.4692565E-010 -2.1156876E-008 0.0
 -2.2214290E-010 -2.1148482E-008 0.0
 -5.9139265E-010 -2.1143192E-008 0.0
 -9.6016019E-010 -2.1140274E-008 0.0
 -1.3270834E-009 -2.1139196E-008 0.0
 -1.6911661E-009 -2.1139142E-008 0.0
 -8.2295416E-009 -2.1009072E-008 0.0
 -8.2318911E-009 -2.0523004E-008 0.0
 -8.7104102E-009 -2.0518698E-008 0.0
 -9.1740913E-009 -2.0520238E-008 0.0
 -9.6357729E-009 -2.0533182E-008 0.0
 -1.0099584E-008 -2.0554605E-008 0.0
 -1.0565220E-008 -2.0582366E-008 0.0
 -1.1032993E-008 -2.0614525E-008 0.0
 -1.1504006E-008 -2.0649896E-008 0.0
 -1.1979672E-008 -2.0687858E-008 0.0
 -1.2461455E-008 -2.0728064E-008 0.0
 -1.2950816E-008 -2.0770102E-008 0.0
 -1.3449015E-008 -2.0813109E-008 0.0
 -1.3956198E-008 -2.0855372E-008 0.0
 -1.4468918E-008 -2.0894658E-008 0.0
 -1.4976828E-008 -2.0928895E-008 0.0
 -1.5462415E-008 -2.0958993E-008 0.0
  9.8337657E-009 -2.1711557E-008 0.0
  9.6103057E-009 -2.1718715E-008 0.0
  9.3887485E-009 -2.1732868E-008 0.0
  9.1693838E-009 -2.1752722E-008 0.0
  8.9564336E-009 -2.1777835E-008 0.0
  8.7512967E-009 -2.1806320E-008 0.0
  8.5536336E-009 -2.1835260E-008 0.0
  8.3618529E-009 -2.1861991E-008 0.0
  8.1734731E-009 -2.1884457E-008 0.0
  7.9857202E-009 -2.1901292E-008 0.0
  7.7959753E-009 -2.1911724E-008 0.0
  7.6020287E-009 -2.1915436E-008 0.0
  7.4021874E-009 -2.1912431E-008 0.0
  7.1952996E-009 -2.1902929E-008 0.0
  6.9807398E-009 -2.1887292E-008 0.0
  6.7583801E-009 -2.1865952E-008 0.0
  6.5285664E-009 -2.1839355E-008 0.0
  6.2921117E-009 -2.1807904E-008 0.0
  6.0503163E-009 -2.1771908E-008 0.0
  5.8050204E-009 -2.1731551E-008 0.0
  5.5586922E-009 -2.1686889E-008 0.0
  5.3145449E-009 -2.1637902E-008 0.0
  5.0766407E-009 -2.1584647E-008 0.0
  4.8498570E-009 -2.1527551E-008 0.0
  4.6396117E-009 -2.1467708E-008 0.0
  4.4513899E-009 -2.1407170E-008 0.0
  4.2895632E-009 -2.1349534E-008 0.0
  4.1548733E-009 -2.1299859E-008 0.0
  4.0414086E-009 -2.1263283E-008 0.0
  3.9329980E-009 -2.1243257E-008 0.0
  3.8081725E-009 -2.1234428E-008 0.0
  3.6547173E-009 -2.1227539E-008 0.0
  3.4784894E-009 -2.1211985E-008 0.0
  3.2536883E-009 -2.1170605E-008 0.0
  3.0069011E-009 -2.1131196E-008 0.0
  2.7402642E-009 -2.1094233E-008 0.0
  2.4574755E-009 -2.1060409E-008 0.0
  2.1612939E-009 -2.1031751E-008 0.0
  1.8555865E-009 -2.1012614E-008 0.0
  1.5642510E-009 -2.1012803E-008 0.0
  5.1671744E-010 -2.0783346E-008 0.0
  1.4374741E-010 -2.0783550E-008 0.0
 -2.2477378E-010 -2.0780871E-008 0.0
 -5.9301265E-010 -2.0778190E-008 0.0
 -9.6062636E-010 -2.0776499E-008 0.0
 -1.3269023E-009 -2.0775811E-008 0.0
 -1.6910248E-009 -2.0775650E-008 0.0
 -8.2538586E-009 -2.0025272E-008 0.0
 -8.7247302E-009 -2.0016337E-008 0.0
 -9.1686864E-009 -2.0028190E-008 0.0
 -9.6150959E-009 -2.0048014E-008 0.0
 -1.0065172E-008 -2.0073620E-008 0.0
 -1.0519213E-008 -2.0103814E-008 0.0
 -1.0977243E-008 -2.0137593E-008 0.0
 -1.1439852E-008 -2.0174189E-008 0.0
 -1.1908093E-008 -2.0213156E-008 0.0
 -1.2383336E-008 -2.0254276E-008 0.0
 -1.2867284E-008 -2.0297501E-008 0.0
 -1.3362141E-008 -2.0342656E-008 0.0
 -1.3869898E-008 -2.0388459E-008 0.0
 -1.4388881E-008 -2.0431347E-008 0.0
 -1.4907989E-008 -2.0466490E-008 0.0
 -1.5402063E-008 -2.0491181E-008 0.0
  9.8321665E-009 -2.1491454E-008 0.0
  9.6305629E-009 -2.1488778E-008 0.0
  9.4181465E-009 -2.1495673E-008 0.0
  9.2070753E-009 -2.1509538E-008 0.0
  9.0005303E-009 -2.1529632E-008 0.0
  8.7978385E-009 -2.1553244E-008 0.0
  8.5987269E-009 -2.1577978E-008 0.0
  8.4020222E-009 -2.1601657E-008 0.0
  8.2059264E-009 -2.1622431E-008 0.0
  8.0084034E-009 -2.1638869E-008 0.0
  7.8075084E-009 -2.1650012E-008 0.0
  7.6015798E-009 -2.1655318E-008 0.0
  7.3893513E-009 -2.1654573E-008 0.0
  7.1699987E-009 -2.1647818E-008 0.0
  6.9431363E-009 -2.1635284E-008 0.0
  6.7087921E-009 -2.1617321E-008 0.0
  6.4673889E-009 -2.1594335E-008 0.0
  6.2197454E-009 -2.1566710E-008 0.0
  5.9671119E-009 -2.1534748E-008 0.0
  5.7112510E-009 -2.1498607E-008 0.0
  5.4545799E-009 -2.1458264E-008 0.0
  5.2003840E-009 -2.1413526E-008 0.0
  4.9531031E-009 -2.1364146E-008 0.0
  4.7185984E-009 -2.1310204E-008 0.0
  4.5038635E-009 -2.1252856E-008 0.0
  4.3162290E-009 -2.1194480E-008 0.0
  4.1633703E-009 -2.1138662E-008 0.0
  4.0500894E-009 -2.1092943E-008 0.0
  3.9691693E-009 -2.1065759E-008 0.0
  3.8995896E-009 -2.1057707E-008 0.0
  3.7972931E-009 -2.1064093E-008 0.0
  3.6467130E-009 -2.1059664E-008 0.0
  3.4817607E-009 -2.1060067E-008 0.0
  5.1512185E-010 -2.0411952E-008 0.0
  1.4439757E-010 -2.0411647E-008 0.0
 -2.2536421E-010 -2.0411588E-008 0.0
 -5.9361368E-010 -2.0410968E-008 0.0
 -9.6095062E-010 -2.0410395E-008 0.0
 -1.3274247E-009 -2.0410064E-008 0.0
 -8.3101250E-009 -1.9502372E-008 0.0
 -8.7272272E-009 -1.9523499E-008 0.0
 -9.1565996E-009 -1.9549096E-008 0.0
 -9.5893675E-009 -1.9576122E-008 0.0
 -1.0027535E-008 -1.9605754E-008 0.0
 -1.0470906E-008 -1.9638067E-008 0.0
 -1.0919498E-008 -1.9672804E-008 0.0
 -1.1373676E-008 -1.9709649E-008 0.0
 -1.1834298E-008 -1.9748361E-008 0.0
 -1.2302695E-008 -1.9788773E-008 0.0
 -1.2780549E-008 -1.9830764E-008 0.0
 -1.3270474E-008 -1.9874801E-008 0.0
 -1.3777609E-008 -1.9921103E-008 0.0
 -1.4306649E-008 -1.9965389E-008 0.0
 -1.4847601E-008 -1.9998479E-008 0.0
 -1.5366512E-008 -2.0016782E-008 0.0
  9.6564107E-009 -2.1245604E-008 0.0
  9.4419060E-009 -2.1254623E-008 0.0
  9.2404379E-009 -2.1265226E-008 0.0
  9.0397258E-009 -2.1280299E-008 0.0
  8.8397134E-009 -2.1298448E-008 0.0
  8.6401696E-009 -2.1318190E-008 0.0
  8.4400111E-009 -2.1337984E-008 0.0
  8.2377233E-009 -2.1356090E-008 0.0
  8.0318456E-009 -2.1371026E-008 0.0
  7.8210084E-009 -2.1381749E-008 0.0
  7.6040360E-009 -2.1387555E-008 0.0
  7.3800883E-009 -2.1388041E-008 0.0
  7.1487060E-009 -2.1383089E-008 0.0
  6.9097891E-009 -2.1372823E-008 0.0
  6.6635621E-009 -2.1357539E-008 0.0
  6.4105516E-009 -2.1337634E-008 0.0
  6.1515894E-009 -2.1313522E-008 0.0
  5.8878559E-009 -2.1285556E-008 0.0
  5.6209781E-009 -2.1253942E-008 0.0
  5.3532094E-009 -2.1218665E-008 0.0
  5.0877306E-009 -2.1179436E-008 0.0
  4.8291138E-009 -2.1135714E-008 0.0
  4.5840602E-009 -2.1086918E-008 0.0
  4.3622038E-009 -2.1033600E-008 0.0
  4.1739119E-009 -2.0980190E-008 0.0
  4.0280119E-009 -2.0932264E-008 0.0
  3.9405184E-009 -2.0895145E-008 0.0
  3.9101367E-009 -2.0889890E-008 0.0
  3.9003075E-009 -2.0936198E-008 0.0
  3.7925147E-009 -2.0939869E-008 0.0
  8.8416671E-010 -2.0411952E-008 0.0
  8.8427265E-010 -2.0042528E-008 0.0
  5.1459549E-010 -2.0042371E-008 0.0
  1.4459996E-010 -2.0042340E-008 0.0
 -2.2503674E-010 -2.0042506E-008 0.0
 -5.9356792E-010 -2.0042726E-008 0.0
 -9.6119329E-010 -2.0042980E-008 0.0
 -1.3276158E-009 -2.0043260E-008 0.0
 -7.9451642E-009 -1.9483908E-008 0.0
 -7.9633700E-009 -1.9027168E-008 0.0
 -8.3309722E-009 -1.9046364E-008 0.0
 -8.7257239E-009 -1.9066435E-008 0.0
 -9.1383945E-009 -1.9092529E-008 0.0
 -9.5594033E-009 -1.9122253E-008 0.0
 -9.9868317E-009 -1.9153821E-008 0.0
 -1.0420442E-008 -1.9187051E-008 0.0
 -1.0860086E-008 -1.9221787E-008 0.0
 -1.1306007E-008 -1.9257892E-008 0.0
 -1.1758975E-008 -1.9295258E-008 0.0
 -1.2220415E-008 -1.9333694E-008 0.0
 -1.2692425E-008 -1.9372583E-008 0.0
 -1.3176873E-008 -1.9410658E-008 0.0
 -1.3679494E-008 -1.9449716E-008 0.0
 -1.4219968E-008 -1.9489179E-008 0.0
 -1.4802089E-008 -1.9510989E-008 0.0
 -1.5365999E-008 -1.9500524E-008 0.0
  9.6585089E-009 -2.1025130E-008 0.0
  9.4621315E-009 -2.1018470E-008 0.0
  9.2697298E-009 -2.1022262E-008 0.0
  9.0741546E-009 -2.1030382E-008 0.0
  8.8770126E-009 -2.1041157E-008 0.0
  8.6784155E-009 -2.1054982E-008 0.0
  8.4760353E-009 -2.1070199E-008 0.0
  8.2687388E-009 -2.1084639E-008 0.0
  8.0557374E-009 -2.1097001E-008 0.0
  7.8360387E-009 -2.1106258E-008 0.0
  7.6088495E-009 -2.1111523E-008 0.0
  7.3737685E-009 -2.1112194E-008 0.0
  7.1307494E-009 -2.1108013E-008 0.0
  6.8800286E-009 -2.1099021E-008 0.0
  6.6220713E-009 -2.1085488E-008 0.0
  6.3575395E-009 -2.1067834E-008 0.0
  6.0872917E-009 -2.1046540E-008 0.0
  5.8124254E-009 -2.1022065E-008 0.0
  5.5343795E-009 -2.0994738E-008 0.0
  5.2551265E-009 -2.0964665E-008 0.0
  4.9775111E-009 -2.0931605E-008 0.0
  4.7058613E-009 -2.0894865E-008 0.0
  4.4469461E-009 -2.0853272E-008 0.0
  4.2123295E-009 -2.0805062E-008 0.0
  4.0218196E-009 -2.0752280E-008 0.0
  3.8869965E-009 -2.0713529E-008 0.0
  3.8209544E-009 -2.0706364E-008 0.0
  3.8903882E-009 -2.0745579E-008 0.0
  8.8424463E-010 -1.9672823E-008 0.0
  5.1445937E-010 -1.9672897E-008 0.0
  1.4477606E-010 -1.9673046E-008 0.0
 -2.2480754E-010 -1.9673409E-008 0.0
 -5.9328201E-010 -1.9674169E-008 0.0
 -9.6146462E-010 -1.9674356E-008 0.0
 -7.6156785E-009 -1.9007019E-008 0.0
 -7.6369655E-009 -1.8566015E-008 0.0
 -7.9784242E-009 -1.8588364E-008 0.0
 -8.3390251E-009 -1.8609785E-008 0.0
 -8.7200784E-009 -1.8632574E-008 0.0
 -9.1176376E-009 -1.8658596E-008 0.0
 -9.5266062E-009 -1.8687977E-008 0.0
 -9.9438764E-009 -1.8719502E-008 0.0
 -1.0368292E-008 -1.8752345E-008 0.0
 -1.0799438E-008 -1.8786133E-008 0.0
 -1.1237336E-008 -1.8820672E-008 0.0
 -1.1682583E-008 -1.8855919E-008 0.0
 -1.2136759E-008 -1.8891930E-008 0.0
 -1.2602784E-008 -1.8928171E-008 0.0
 -1.3084879E-008 -1.8961676E-008 0.0
 -1.3581464E-008 -1.8984549E-008 0.0
 -1.4124883E-008 -1.8996737E-008 0.0
 -1.4795191E-008 -1.8971607E-008 0.0
  9.4696820E-009 -2.0794550E-008 0.0
  9.2950957E-009 -2.0782452E-008 0.0
  9.1012742E-009 -2.0777712E-008 0.0
  8.9101807E-009 -2.0779574E-008 0.0
  8.7142672E-009 -2.0787926E-008 0.0
  8.5100283E-009 -2.0797470E-008 0.0
  8.2987921E-009 -2.0806895E-008 0.0
  8.0799168E-009 -2.0815684E-008 0.0
  7.8523097E-009 -2.0822571E-008 0.0
  7.6155582E-009 -2.0826309E-008 0.0
  7.3697873E-009 -2.0826111E-008 0.0
  7.1154209E-009 -2.0821603E-008 0.0
  6.8530867E-009 -2.0812760E-008 0.0
  6.5835392E-009 -2.0799843E-008 0.0
  6.3076108E-009 -2.0783312E-008 0.0
  6.0262051E-009 -2.0763740E-008 0.0
  5.7403349E-009 -2.0741716E-008 0.0
  5.4512152E-009 -2.0717747E-008 0.0
  5.1604387E-009 -2.0692141E-008 0.0
  4.8703069E-009 -2.0664858E-008 0.0
  4.5844217E-009 -2.0635329E-008 0.0
  4.3089578E-009 -2.0602211E-008 0.0
  4.0540707E-009 -2.0563155E-008 0.0
  3.8438736E-009 -2.0509742E-008 0.0
  3.7303800E-009 -2.0442530E-008 0.0
  3.6258598E-009 -2.0365544E-008 0.0
  5.1440804E-010 -1.9303486E-008 0.0
  1.4490058E-010 -1.9303494E-008 0.0
 -2.2481899E-010 -1.9303430E-008 0.0
 -7.3144888E-009 -1.8544439E-008 0.0
 -7.3374317E-009 -1.8121404E-008 0.0
 -7.6527915E-009 -1.8145993E-008 0.0
 -7.9863653E-009 -1.8169634E-008 0.0
 -8.3386467E-009 -1.8193172E-008 0.0
 -8.7086668E-009 -1.8217545E-008 0.0
 -9.0941054E-009 -1.8243960E-008 0.0
 -9.4918083E-009 -1.8272677E-008 0.0
 -9.8992445E-009 -1.8303222E-008 0.0
 -1.0314868E-008 -1.8334897E-008 0.0
 -1.0737890E-008 -1.8367155E-008 0.0
 -1.1168010E-008 -1.8399664E-008 0.0
 -1.1605479E-008 -1.8432363E-008 0.0
 -1.2051412E-008 -1.8465640E-008 0.0
 -1.2509314E-008 -1.8500810E-008 0.0
 -1.2986030E-008 -1.8538443E-008 0.0
 -1.3488452E-008 -1.8574259E-008 0.0
 -1.3953047E-008 -1.8624643E-008 0.0
  9.3248574E-009 -2.0517383E-008 0.0
  9.1192335E-009 -2.0516719E-008 0.0
  8.9430449E-009 -2.0516323E-008 0.0
  8.7471711E-009 -2.0517388E-008 0.0
  8.5410831E-009 -2.0517890E-008 0.0
  8.3279285E-009 -2.0521069E-008 0.0
  8.1045004E-009 -2.0525792E-008 0.0
  7.8696547E-009 -2.0529516E-008 0.0
  7.6237771E-009 -2.0530766E-008 0.0
  7.3675730E-009 -2.0528656E-008 0.0
  7.1019874E-009 -2.0522694E-008 0.0
  6.8281082E-009 -2.0512788E-008 0.0
  6.5470328E-009 -2.0499195E-008 0.0
  6.2597968E-009 -2.0482420E-008 0.0
  5.9673662E-009 -2.0463111E-008 0.0
  5.6706750E-009 -2.0441978E-008 0.0
  5.3706981E-009 -2.0419697E-008 0.0
  5.0685837E-009 -2.0396793E-008 0.0
  4.7659056E-009 -2.0373473E-008 0.0
  4.4652084E-009 -2.0349377E-008 0.0
  4.1709884E-009 -2.0323292E-008 0.0
  3.8929252E-009 -2.0293395E-008 0.0
  3.6433995E-009 -2.0260454E-008 0.0
  3.5153415E-009 -2.0216428E-008 0.0
  3.6299855E-009 -2.0257848E-008 0.0
 -7.0405796E-009 -1.8098286E-008 0.0
 -7.0654403E-009 -1.7691863E-008 0.0
 -7.3540732E-009 -1.7719682E-008 0.0
 -7.6616262E-009 -1.7746039E-008 0.0
 -7.9878443E-009 -1.7771222E-008 0.0
 -8.3317262E-009 -1.7795831E-008 0.0
 -8.6921432E-009 -1.7820938E-008 0.0
 -9.0672489E-009 -1.7847336E-008 0.0
 -9.4548803E-009 -1.7875348E-008 0.0
 -9.8530468E-009 -1.7904762E-008 0.0
 -1.0260253E-008 -1.7935087E-008 0.0
 -1.0675495E-008 -1.7965769E-008 0.0
 -1.1098152E-008 -1.7996335E-008 0.0
 -1.1527927E-008 -1.8026517E-008 0.0
 -1.1965152E-008 -1.8056592E-008 0.0
 -1.2410968E-008 -1.8088137E-008 0.0
 -1.2873786E-008 -1.8128012E-008 0.0
 -1.3369885E-008 -1.8181878E-008 0.0
 -1.3863487E-008 -1.8224589E-008 0.0
  9.3293104E-009 -2.0296853E-008 0.0
  9.1198098E-009 -2.0292413E-008 0.0
  8.9754803E-009 -2.0255766E-008 0.0
  8.7722539E-009 -2.0237255E-008 0.0
  8.5693117E-009 -2.0227273E-008 0.0
  8.3572618E-009 -2.0225881E-008 0.0
  8.1296670E-009 -2.0226110E-008 0.0
  7.8879581E-009 -2.0225674E-008 0.0
  7.6332130E-009 -2.0223503E-008 0.0
  7.3666101E-009 -2.0218503E-008 0.0
  7.0897171E-009 -2.0209993E-008 0.0
  6.8041848E-009 -2.0197801E-008 0.0
  6.5115108E-009 -2.0182182E-008 0.0
  6.2129501E-009 -2.0163660E-008 0.0
  5.9095378E-009 -2.0142921E-008 0.0
  5.6021357E-009 -2.0120728E-008 0.0
  5.2914781E-009 -2.0097854E-008 0.0
  4.9782302E-009 -2.0074964E-008 0.0
  4.6631072E-009 -2.0052421E-008 0.0
  4.3471380E-009 -2.0029896E-008 0.0
  4.0324591E-009 -2.0005622E-008 0.0
  3.7235818E-009 -1.9974405E-008 0.0
  3.4369998E-009 -1.9926689E-008 0.0
  3.1247508E-009 -1.9813325E-008 0.0
 -6.7901104E-009 -1.7669363E-008 0.0
 -6.8168263E-009 -1.7265629E-008 0.0
 -7.0807664E-009 -1.7307986E-008 0.0
 -7.3630979E-009 -1.7340145E-008 0.0
 -7.6644543E-009 -1.7367548E-008 0.0
 -7.9835924E-009 -1.7392773E-008 0.0
 -8.3195754E-009 -1.7417328E-008 0.0
 -8.6712213E-009 -1.7442206E-008 0.0
 -9.0370959E-009 -1.7468090E-008 0.0
 -9.4155646E-009 -1.7495256E-008 0.0
 -9.8050461E-009 -1.7523614E-008 0.0
 -1.0204191E-008 -1.7552810E-008 0.0
 -1.0611933E-008 -1.7582358E-008 0.0
 -1.1027422E-008 -1.7611726E-008 0.0
 -1.1449933E-008 -1.7640397E-008 0.0
 -1.1878635E-008 -1.7667996E-008 0.0
 -1.2313631E-008 -1.7694544E-008 0.0
 -1.2753165E-008 -1.7719571E-008 0.0
 -1.3244498E-008 -1.7746241E-008 0.0
 -1.3869040E-008 -1.7725577E-008 0.0
  9.0199215E-009 -1.9935535E-008 0.0
  8.7890120E-009 -1.9935273E-008 0.0
  8.5999029E-009 -1.9928344E-008 0.0
  8.3870315E-009 -1.9921599E-008 0.0
  8.1551773E-009 -1.9914858E-008 0.0
  7.9072302E-009 -1.9909167E-008 0.0
  7.6437425E-009 -1.9902820E-008 0.0
  7.3664928E-009 -1.9894141E-008 0.0
  7.0779164E-009 -1.9882107E-008 0.0
  6.7804137E-009 -1.9866498E-008 0.0
  6.4759093E-009 -1.9847581E-008 0.0
  6.1658519E-009 -1.9825862E-008 0.0
  5.8513293E-009 -1.9801970E-008 0.0
  5.5331394E-009 -1.9776622E-008 0.0
  5.2117876E-009 -1.9750569E-008 0.0
  4.8874508E-009 -1.9724484E-008 0.0
  4.5599108E-009 -1.9698755E-008 0.0
  4.2284275E-009 -1.9673055E-008 0.0
  3.8914818E-009 -1.9645185E-008 0.0
  3.5463484E-009 -1.9608455E-008 0.0
  3.1880172E-009 -1.9539106E-008 0.0
  2.8110667E-009 -1.9435628E-008 0.0
 -6.3983889E-009 -1.7172831E-008 0.0
 -6.4163745E-009 -1.6869336E-008 0.0
 -6.6288117E-009 -1.6907510E-008 0.0
 -6.6476019E-009 -1.7181932E-008 0.0
 -6.8379905E-009 -1.6934284E-008 0.0
 -7.0899360E-009 -1.6959896E-008 0.0
 -7.3674040E-009 -1.6986169E-008 0.0
 -7.6627163E-009 -1.7010489E-008 0.0
 -7.9749656E-009 -1.7033724E-008 0.0
 -8.3032340E-009 -1.7056840E-008 0.0
 -8.6465697E-009 -1.7080589E-008 0.0
 -9.0038235E-009 -1.7105441E-008 0.0
 -9.3737084E-009 -1.7131597E-008 0.0
 -9.7549140E-009 -1.7159004E-008 0.0
 -1.0146226E-008 -1.7187430E-008 0.0
 -1.0546572E-008 -1.7216531E-008 0.0
 -1.0954987E-008 -1.7245897E-008 0.0
 -1.1370411E-008 -1.7275065E-008 0.0
 -1.1791467E-008 -1.7303571E-008 0.0
 -1.2215150E-008 -1.7331494E-008 0.0
 -1.2641122E-008 -1.7361337E-008 0.0
 -1.3029262E-008 -1.7422154E-008 0.0
  9.0263929E-009 -1.9683724E-008 0.0
  8.7899579E-009 -1.9677146E-008 0.0
  8.6305507E-009 -1.9627929E-008 0.0
  8.4147170E-009 -1.9604081E-008 0.0
  8.1811214E-009 -1.9588752E-008 0.0
  7.9278988E-009 -1.9577394E-008 0.0
  7.6556102E-009 -1.9566715E-008 0.0
  7.3669563E-009 -1.9553846E-008 0.0
  7.0659658E-009 -1.9537508E-008 0.0
  6.7559896E-009 -1.9517575E-008 0.0
  6.4392847E-009 -1.9494387E-008 0.0
  6.1173716E-009 -1.9468307E-008 0.0
  5.7913791E-009 -1.9439774E-008 0.0
  5.4620666E-009 -1.9409352E-008 0.0
  5.1297332E-009 -1.9377659E-008 0.0
  4.7940931E-009 -1.9345235E-008 0.0
  4.4540529E-009 -1.9312361E-008 0.0
  4.1072495E-009 -1.9278766E-008 0.0
  3.7488585E-009 -1.9243140E-008 0.0
  3.3695127E-009 -1.9201669E-008 0.0
  2.9448101E-009 -1.9148384E-008 0.0
  2.5061051E-009 -1.9039132E-008 0.0
 -6.1840578E-009 -1.6852638E-008 0.0
 -6.2064811E-009 -1.6525846E-008 0.0
 -6.4180818E-009 -1.6564262E-008 0.0
 -6.6315723E-009 -1.6595029E-008 0.0
 -6.8545619E-009 -1.6618599E-008 0.0
 -7.1003629E-009 -1.6636077E-008 0.0
 -7.3700036E-009 -1.6653907E-008 0.0
 -7.6583594E-009 -1.6672836E-008 0.0
 -7.9632019E-009 -1.6692471E-008 0.0
 -8.2836061E-009 -1.6713070E-008 0.0
 -8.6187311E-009 -1.6734954E-008 0.0
 -8.9676352E-009 -1.6758342E-008 0.0
 -9.3292365E-009 -1.6783310E-008 0.0
 -9.7023787E-009 -1.6809811E-008 0.0
 -1.0085912E-008 -1.6837728E-008 0.0
 -1.0478743E-008 -1.6866928E-008 0.0
 -1.0879794E-008 -1.6897316E-008 0.0
 -1.1287840E-008 -1.6928862E-008 0.0
 -1.1700772E-008 -1.6961675E-008 0.0
 -1.2114420E-008 -1.6996475E-008 0.0
 -1.2514387E-008 -1.7039011E-008 0.0
 -1.2872621E-008 -1.7090014E-008 0.0
  8.6561269E-009 -1.9291257E-008 0.0
  8.4424430E-009 -1.9265076E-008 0.0
  8.2083724E-009 -1.9243444E-008 0.0
  7.9514879E-009 -1.9227520E-008 0.0
  7.6695141E-009 -1.9212900E-008 0.0
  7.3677908E-009 -1.9195608E-008 0.0
  7.0533301E-009 -1.9174316E-008 0.0
  6.7304097E-009 -1.9149696E-008 0.0
  6.4010133E-009 -1.9121896E-008 0.0
  6.0666451E-009 -1.9090824E-008 0.0
  5.7285562E-009 -1.9056641E-008 0.0
  5.3875203E-009 -1.9019721E-008 0.0
  5.0436564E-009 -1.8980499E-008 0.0
  4.6962480E-009 -1.8939283E-008 0.0
  4.3434706E-009 -1.8896083E-008 0.0
  3.9817900E-009 -1.8850490E-008 0.0
  3.6048360E-009 -1.8801720E-008 0.0
  3.1998140E-009 -1.8749675E-008 0.0
  2.7493234E-009 -1.8699290E-008 0.0
  2.1511269E-009 -1.8654702E-008 0.0
 -5.8585145E-009 -1.6452148E-008 0.0
 -5.8724975E-009 -1.6204282E-008 0.0
 -6.0500351E-009 -1.6233334E-008 0.0
 -6.0641091E-009 -1.6459405E-008 0.0
 -6.2224580E-009 -1.6254258E-008 0.0
 -6.4236348E-009 -1.6275181E-008 0.0
 -6.6387126E-009 -1.6296082E-008 0.0
 -6.8653998E-009 -1.6312355E-008 0.0
 -7.1091332E-009 -1.6325305E-008 0.0
 -7.3717810E-009 -1.6337576E-008 0.0
 -7.6523019E-009 -1.6351228E-008 0.0
 -7.9491189E-009 -1.6366774E-008 0.0
 -8.2612869E-009 -1.6384306E-008 0.0
 -8.5880833E-009 -1.6403883E-008 0.0
 -8.9286956E-009 -1.6425500E-008 0.0
 -9.2821446E-009 -1.6449097E-008 0.0
 -9.6473134E-009 -1.6474607E-008 0.0
 -1.0023025E-008 -1.6502008E-008 0.0
 -1.0408096E-008 -1.6531381E-008 0.0
 -1.0801299E-008 -1.6562963E-008 0.0
 -1.1201181E-008 -1.6597284E-008 0.0
 -1.1605653E-008 -1.6635097E-008 0.0
 -1.2009413E-008 -1.6677045E-008 0.0
 -1.2398710E-008 -1.6721514E-008 0.0
 -1.2749011E-008 -1.6766866E-008 0.0
  8.4698605E-009 -1.8905921E-008 0.0
  8.2383203E-009 -1.8877207E-008 0.0
  7.9810199E-009 -1.8856520E-008 0.0
  7.6863233E-009 -1.8839068E-008 0.0
  7.3682519E-009 -1.8815998E-008 0.0
  7.0400342E-009 -1.8790011E-008 0.0
  6.7038546E-009 -1.8761731E-008 0.0
  6.3609643E-009 -1.8729873E-008 0.0
  6.0132027E-009 -1.8693846E-008 0.0
  5.6621089E-009 -1.8653619E-008 0.0
  5.3085530E-009 -1.8609491E-008 0.0
  4.9524738E-009 -1.8561779E-008 0.0
  4.5927275E-009 -1.8510559E-008 0.0
  4.2268530E-009 -1.8455482E-008 0.0
  3.8505925E-009 -1.8395658E-008 0.0
  3.4567052E-009 -1.8329645E-008 0.0
  3.0337797E-009 -1.8255609E-008 0.0
  2.5557692E-009 -1.8167656E-008 0.0
  1.9729265E-009 -1.8072503E-008 0.0
  1.2826804E-009 -1.8005820E-008 0.0
  1.2810390E-009 -1.8691254E-008 0.0
 -5.6791370E-009 -1.6191151E-008 0.0
 -5.6959759E-009 -1.5927124E-008 0.0
 -5.8753342E-009 -1.5953737E-008 0.0
 -6.0544575E-009 -1.5974709E-008 0.0
 -6.2381855E-009 -1.5990324E-008 0.0
 -6.4360143E-009 -1.6001002E-008 0.0
 -6.6489062E-009 -1.6010689E-008 0.0
 -6.8749675E-009 -1.6019167E-008 0.0
 -7.1155338E-009 -1.6026358E-008 0.0
 -7.3720427E-009 -1.6033762E-008 0.0
 -7.6446679E-009 -1.6042822E-008 0.0
 -7.9329988E-009 -1.6054394E-008 0.0
 -8.2365450E-009 -1.6068745E-008 0.0
 -8.5548079E-009 -1.6085840E-008 0.0
 -8.8871073E-009 -1.6105505E-008 0.0
 -9.2324921E-009 -1.6127541E-008 0.0
 -9.5897796E-009 -1.6151824E-008 0.0
 -9.9576655E-009 -1.6178385E-008 0.0
 -1.0334821E-008 -1.6207445E-008 0.0
 -1.0719880E-008 -1.6239415E-008 0.0
 -1.1111172E-008 -1.6274924E-008 0.0
 -1.1506614E-008 -1.6315268E-008 0.0
 -1.1903899E-008 -1.6361105E-008 0.0
 -1.2295716E-008 -1.6407782E-008 0.0
 -1.2653168E-008 -1.6445792E-008 0.0
  8.2647397E-009 -1.8493149E-008 0.0
  8.0229586E-009 -1.8463415E-008 0.0
  7.7034078E-009 -1.8435821E-008 0.0
  7.3689747E-009 -1.8408662E-008 0.0
  7.0278808E-009 -1.8382775E-008 0.0
  6.6773152E-009 -1.8353401E-008 0.0
  6.3195151E-009 -1.8318816E-008 0.0
  5.9569457E-009 -1.8278394E-008 0.0
  5.5917013E-009 -1.8232305E-008 0.0
  5.2247839E-009 -1.8181033E-008 0.0
  4.8559016E-009 -1.8124961E-008 0.0
  4.4834285E-009 -1.8064065E-008 0.0
  4.1043269E-009 -1.7997747E-008 0.0
  3.7137735E-009 -1.7924775E-008 0.0
  3.3044442E-009 -1.7843317E-008 0.0
  2.8643071E-009 -1.7750735E-008 0.0
  2.3744248E-009 -1.7647161E-008 0.0
  1.8181048E-009 -1.7543502E-008 0.0
  1.2117906E-009 -1.7460128E-008 0.0
  6.2105213E-010 -1.7403573E-008 0.0
  6.4884903E-010 -1.7950232E-008 0.0
  8.7842646E-011 -1.7353910E-008 0.0
  1.1695710E-010 -1.7877598E-008 0.0
 -4.0623524E-010 -1.7291871E-008 0.0
 -3.7767049E-010 -1.7824758E-008 0.0
 -9.0008672E-010 -1.7216132E-008 0.0
 -9.1398174E-010 -1.7827131E-008 0.0
 -5.3872043E-009 -1.5875325E-008 0.0
 -5.3966742E-009 -1.5669792E-008 0.0
 -5.5555926E-009 -1.5688365E-008 0.0
 -5.5645843E-009 -1.5880496E-008 0.0
 -5.7098361E-009 -1.5700529E-008 0.0
 -5.8831454E-009 -1.5712238E-008 0.0
 -6.0647605E-009 -1.5723496E-008 0.0
 -6.2528079E-009 -1.5730757E-008 0.0
 -6.4511955E-009 -1.5734568E-008 0.0
 -6.6617024E-009 -1.5736397E-008 0.0
 -6.8847399E-009 -1.5737533E-008 0.0
 -7.1208254E-009 -1.5738760E-008 0.0
 -7.3708265E-009 -1.5741111E-008 0.0
 -7.6353897E-009 -1.5745753E-008 0.0
 -7.9148618E-009 -1.5753516E-008 0.0
 -8.2094007E-009 -1.5764741E-008 0.0
 -8.5189118E-009 -1.5779341E-008 0.0
 -8.8428972E-009 -1.5796973E-008 0.0
 -9.1803835E-009 -1.5817258E-008 0.0
 -9.5300124E-009 -1.5839964E-008 0.0
 -9.8902404E-009 -1.5865117E-008 0.0
 -1.0259554E-008 -1.5893013E-008 0.0
 -1.0636571E-008 -1.5924070E-008 0.0
 -1.1019906E-008 -1.5958528E-008 0.0
 -1.1407125E-008 -1.5996163E-008 0.0
 -1.1797701E-008 -1.6039032E-008 0.0
 -1.2199717E-008 -1.6085949E-008 0.0
 -1.2594511E-008 -1.6119239E-008 0.0
  8.1104951E-009 -1.7966253E-008 0.0
  7.7232730E-009 -1.7984130E-008 0.0
  7.3765591E-009 -1.7974052E-008 0.0
  7.0194335E-009 -1.7953980E-008 0.0
  6.6522651E-009 -1.7926074E-008 0.0
  6.2772013E-009 -1.7889979E-008 0.0
  5.8979614E-009 -1.7845869E-008 0.0
  5.5173148E-009 -1.7794490E-008 0.0
  5.1363834E-009 -1.7736838E-008 0.0
  4.7544849E-009 -1.7673580E-008 0.0
  4.3694097E-009 -1.7604771E-008 0.0
  3.9775929E-009 -1.7529814E-008 0.0
  3.5739980E-009 -1.7447637E-008 0.0
  3.1515946E-009 -1.7357010E-008 0.0
  2.7009193E-009 -1.7257768E-008 0.0
  2.2119221E-009 -1.7153473E-008 0.0
  1.6815371E-009 -1.7053699E-008 0.0
  1.1250490E-009 -1.6970214E-008 0.0
  5.7402510E-010 -1.6905249E-008 0.0
  5.1166263E-011 -1.6847871E-008 0.0
 -4.4457547E-010 -1.6785536E-008 0.0
 -9.1782456E-010 -1.6718162E-008 0.0
 -1.3363400E-009 -1.6653363E-008 0.0
 -1.2958799E-009 -1.7073864E-008 0.0
 -1.7118867E-009 -1.6575719E-008 0.0
 -1.6770264E-009 -1.6964104E-008 0.0
 -2.0676602E-009 -1.6503041E-008 0.0
 -2.0365421E-009 -1.6875160E-008 0.0
 -2.4075067E-009 -1.6438392E-008 0.0
 -2.3822208E-009 -1.6806374E-008 0.0
 -2.7419657E-009 -1.6381735E-008 0.0
 -2.7228641E-009 -1.6764805E-008 0.0
 -3.0869408E-009 -1.6337812E-008 0.0
 -3.0991571E-009 -1.6762418E-008 0.0
 -5.2281721E-009 -1.5660536E-008 0.0
 -5.2388277E-009 -1.5449024E-008 0.0
 -5.4004835E-009 -1.5461807E-008 0.0
 -5.5618443E-009 -1.5471138E-008 0.0
 -5.7255174E-009 -1.5476984E-008 0.0
 -5.8979443E-009 -1.5479202E-008 0.0
 -6.0796705E-009 -1.5480183E-008 0.0
 -6.2692317E-009 -1.5479337E-008 0.0
 -6.4675760E-009 -1.5476169E-008 0.0
 -6.6759803E-009 -1.5471443E-008 0.0
 -6.8951792E-009 -1.5466212E-008 0.0
 -7.1258140E-009 -1.5461594E-008 0.0
 -7.3686602E-009 -1.5458755E-008 0.0
 -7.6246315E-009 -1.5458846E-008 0.0
 -7.8946979E-009 -1.5462767E-008 0.0
 -8.1797411E-009 -1.5470899E-008 0.0
 -8.4802534E-009 -1.5483051E-008 0.0
 -8.7960024E-009 -1.5498634E-008 0.0
 -9.1259282E-009 -1.5517001E-008 0.0
 -9.4683525E-009 -1.5537740E-008 0.0
 -9.8213499E-009 -1.5560822E-008 0.0
 -1.0183115E-008 -1.5586585E-008 0.0
 -1.0552362E-008 -1.5615594E-008 0.0
 -1.0928524E-008 -1.5647939E-008 0.0
 -1.1311560E-008 -1.5681586E-008 0.0
 -1.1696215E-008 -1.5710179E-008 0.0
 -1.2105634E-008 -1.5732515E-008 0.0
 -1.2599195E-008 -1.5717333E-008 0.0
  8.1207204E-009 -1.7551027E-008 0.0
  7.7578477E-009 -1.7532621E-008 0.0
  7.3908908E-009 -1.7525232E-008 0.0
  7.0165026E-009 -1.7508665E-008 0.0
  6.6294762E-009 -1.7481949E-008 0.0
  6.2343394E-009 -1.7444832E-008 0.0
  5.8362322E-009 -1.7397564E-008 0.0
  5.4390903E-009 -1.7341721E-008 0.0
  5.0439641E-009 -1.7279045E-008 0.0
  4.6494579E-009 -1.7210649E-008 0.0
  4.2525920E-009 -1.7136728E-008 0.0
  3.8493927E-009 -1.7056850E-008 0.0
  3.4349774E-009 -1.6970413E-008 0.0
  3.0035171E-009 -1.6877314E-008 0.0
  2.5487830E-009 -1.6779002E-008 0.0
  2.0663354E-009 -1.6679686E-008 0.0
  1.5577147E-009 -1.6586255E-008 0.0
  1.0337468E-009 -1.6505081E-008 0.0
  5.1147139E-010 -1.6437379E-008 0.0
  4.7094763E-012 -1.6378488E-008 0.0
 -4.8048058E-010 -1.6323617E-008 0.0
 -9.3711720E-010 -1.6272451E-008 0.0
 -1.3561459E-009 -1.6220869E-008 0.0
 -1.7394688E-009 -1.6166276E-008 0.0
 -2.0967521E-009 -1.6106689E-008 0.0
 -2.4378455E-009 -1.6044570E-008 0.0
 -2.7708571E-009 -1.5979557E-008 0.0
 -3.1035394E-009 -1.5909814E-008 0.0
 -3.4395497E-009 -1.5829787E-008 0.0
 -3.4644396E-009 -1.6327992E-008 0.0
 -4.9490249E-009 -1.5420770E-008 0.0
 -4.9536542E-009 -1.5259686E-008 0.0
 -5.1025883E-009 -1.5258351E-008 0.0
 -5.1040231E-009 -1.5425383E-008 0.0
 -5.2509856E-009 -1.5256165E-008 0.0
 -5.4102977E-009 -1.5255504E-008 0.0
 -5.5743172E-009 -1.5255640E-008 0.0
 -5.7421569E-009 -1.5253741E-008 0.0
 -5.9164361E-009 -1.5249553E-008 0.0
 -6.0982912E-009 -1.5243442E-008 0.0
 -6.2878686E-009 -1.5235691E-008 0.0
 -6.4853912E-009 -1.5226307E-008 0.0
 -6.6914020E-009 -1.5215683E-008 0.0
 -6.9064453E-009 -1.5204672E-008 0.0
 -7.1311012E-009 -1.5194397E-008 0.0
 -7.3661671E-009 -1.5186158E-008 0.0
 -7.6128035E-009 -1.5181340E-008 0.0
 -7.8725986E-009 -1.5181110E-008 0.0
 -8.1473804E-009 -1.5186038E-008 0.0
 -8.4385432E-009 -1.5195780E-008 0.0
 -8.7462410E-009 -1.5209348E-008 0.0
 -9.0691932E-009 -1.5225669E-008 0.0
 -9.4051619E-009 -1.5244092E-008 0.0
 -9.7516404E-009 -1.5264505E-008 0.0
 -1.0106398E-008 -1.5287271E-008 0.0
 -1.0467877E-008 -1.5313130E-008 0.0
 -1.0836364E-008 -1.5343351E-008 0.0
 -1.1214728E-008 -1.5378073E-008 0.0
 -1.1605980E-008 -1.5412371E-008 0.0
 -1.1959041E-008 -1.5455922E-008 0.0
  7.7769066E-009 -1.7088345E-008 0.0
  7.4101713E-009 -1.7067431E-008 0.0
  7.0179577E-009 -1.7048026E-008 0.0
  6.6094518E-009 -1.7021835E-008 0.0
  6.1907757E-009 -1.6983839E-008 0.0
  5.7714756E-009 -1.6934052E-008 0.0
  5.3572047E-009 -1.6874851E-008 0.0
  4.9485246E-009 -1.6809175E-008 0.0
  4.5425501E-009 -1.6738440E-008 0.0
  4.1353062E-009 -1.6662796E-008 0.0
  3.7225788E-009 -1.6581916E-008 0.0
  3.3000149E-009 -1.6495697E-008 0.0
  2.8632296E-009 -1.6404826E-008 0.0
  2.4084943E-009 -1.6311375E-008 0.0
  1.9342594E-009 -1.6219088E-008 0.0
  1.4430841E-009 -1.6132737E-008 0.0
  9.4244405E-010 -1.6056277E-008 0.0
  4.4282064E-010 -1.5990925E-008 0.0
 -4.5945742E-011 -1.5935173E-008 0.0
 -5.1614916E-010 -1.5886717E-008 0.0
 -9.6139015E-010 -1.5842938E-008 0.0
 -1.3769065E-009 -1.5800775E-008 0.0
 -1.7630506E-009 -1.5756198E-008 0.0
 -2.1249671E-009 -1.5707011E-008 0.0
 -2.4695147E-009 -1.5652174E-008 0.0
 -2.8032847E-009 -1.5591729E-008 0.0
 -3.1305298E-009 -1.5526359E-008 0.0
 -3.4414518E-009 -1.5461661E-008 0.0
 -3.6909372E-009 -1.5402172E-008 0.0
 -3.6510598E-009 -1.5671957E-008 0.0
 -3.9029036E-009 -1.5327283E-008 0.0
 -3.8716512E-009 -1.5563598E-008 0.0
 -4.1055284E-009 -1.5261437E-008 0.0
 -4.0782231E-009 -1.5479828E-008 0.0
 -4.2970633E-009 -1.5206168E-008 0.0
 -4.2743710E-009 -1.5411056E-008 0.0
 -4.4783319E-009 -1.5161033E-008 0.0
 -4.4598522E-009 -1.5354705E-008 0.0
 -4.6496899E-009 -1.5125659E-008 0.0
 -4.6352516E-009 -1.5309828E-008 0.0
 -4.8110480E-009 -1.5099953E-008 0.0
 -4.8008892E-009 -1.5276971E-008 0.0
 -4.9635348E-009 -1.5081884E-008 0.0
 -5.1140194E-009 -1.5068100E-008 0.0
 -5.2674015E-009 -1.5057862E-008 0.0
 -5.4264170E-009 -1.5048931E-008 0.0
 -5.5911996E-009 -1.5041091E-008 0.0
 -5.7610583E-009 -1.5032954E-008 0.0
 -5.9367281E-009 -1.5023421E-008 0.0
 -6.1190184E-009 -1.5012258E-008 0.0
 -6.3082487E-009 -1.4999439E-008 0.0
 -6.5045408E-009 -1.4985051E-008 0.0
 -6.7079935E-009 -1.4969407E-008 0.0
 -6.9187911E-009 -1.4953184E-008 0.0
 -7.1372830E-009 -1.4937392E-008 0.0
 -7.3641681E-009 -1.4923420E-008 0.0
 -7.6006474E-009 -1.4912917E-008 0.0
 -7.8488691E-009 -1.4907779E-008 0.0
 -8.1120717E-009 -1.4909071E-008 0.0
 -8.3932887E-009 -1.4916402E-008 0.0
 -8.6932883E-009 -1.4927994E-008 0.0
 -9.0101791E-009 -1.4942166E-008 0.0
 -9.3407394E-009 -1.4958012E-008 0.0
 -9.6816666E-009 -1.4975425E-008 0.0
 -1.0030179E-008 -1.4994702E-008 0.0
 -1.0384343E-008 -1.5016460E-008 0.0
 -1.0743112E-008 -1.5041943E-008 0.0
 -1.1111531E-008 -1.5076027E-008 0.0
 -1.1501590E-008 -1.5121779E-008 0.0
 -1.1883137E-008 -1.5157885E-008 0.0
  7.4303675E-009 -1.6585865E-008 0.0
  7.0261094E-009 -1.6567424E-008 0.0
  6.5931882E-009 -1.6542556E-008 0.0
  6.1464193E-009 -1.6505883E-008 0.0
  5.7028984E-009 -1.6454492E-008 0.0
  5.2720675E-009 -1.6393932E-008 0.0
  4.8515801E-009 -1.6328340E-008 0.0
  4.4358560E-009 -1.6258823E-008 0.0
  4.0198668E-009 -1.6184999E-008 0.0
  3.5995094E-009 -1.6106624E-008 0.0
  3.1711613E-009 -1.6023999E-008 0.0
  2.7317271E-009 -1.5938277E-008 0.0
  2.2791162E-009 -1.5851656E-008 0.0
  1.8131156E-009 -1.5767282E-008 0.0
  1.3362346E-009 -1.5688652E-008 0.0
  8.5382476E-010 -1.5618584E-008 0.0
  3.7306269E-010 -1.5558329E-008 0.0
 -9.8624150E-011 -1.5507469E-008 0.0
 -5.5466973E-010 -1.5464368E-008 0.0
 -9.8976327E-010 -1.5426655E-008 0.0
 -1.4006075E-009 -1.5391222E-008 0.0
 -1.7869276E-009 -1.5354945E-008 0.0
 -2.1513484E-009 -1.5315435E-008 0.0
 -2.4980055E-009 -1.5271872E-008 0.0
 -2.8305837E-009 -1.5225206E-008 0.0
 -3.1488695E-009 -1.5179137E-008 0.0
 -3.4421814E-009 -1.5138501E-008 0.0
 -3.6981637E-009 -1.5098940E-008 0.0
 -3.9213311E-009 -1.5057866E-008 0.0
 -4.1238543E-009 -1.5014953E-008 0.0
 -4.3135966E-009 -1.4976216E-008 0.0
 -4.4923544E-009 -1.4943434E-008 0.0
 -4.6613750E-009 -1.4916952E-008 0.0
 -4.8219208E-009 -1.4895975E-008 0.0
 -4.9766718E-009 -1.4878793E-008 0.0
 -5.1298299E-009 -1.4863963E-008 0.0
 -5.2852839E-009 -1.4850480E-008 0.0
 -5.4453486E-009 -1.4838098E-008 0.0
 -5.6106814E-009 -1.4826204E-008 0.0
 -5.7814751E-009 -1.4814111E-008 0.0
 -5.9579970E-009 -1.4801077E-008 0.0
 -6.1406090E-009 -1.4786619E-008 0.0
 -6.3294915E-009 -1.4770514E-008 0.0
 -6.5245822E-009 -1.4752684E-008 0.0
 -6.7256425E-009 -1.4733244E-008 0.0
 -6.9324044E-009 -1.4712648E-008 0.0
 -7.1449862E-009 -1.4691777E-008 0.0
 -7.3637863E-009 -1.4671586E-008 0.0
 -7.5896142E-009 -1.4654141E-008 0.0
 -7.8243474E-009 -1.4642175E-008 0.0
 -8.0734328E-009 -1.4638933E-008 0.0
 -8.3436886E-009 -1.4643628E-008 0.0
 -8.6366836E-009 -1.4653276E-008 0.0
 -8.9488978E-009 -1.4665036E-008 0.0
 -9.2752664E-009 -1.4678139E-008 0.0
 -9.6116343E-009 -1.4692699E-008 0.0
 -9.9548651E-009 -1.4708941E-008 0.0
 -1.0302445E-008 -1.4726970E-008 0.0
 -1.0653216E-008 -1.4746775E-008 0.0
 -1.1004841E-008 -1.4767152E-008 0.0
 -1.1394965E-008 -1.4789331E-008 0.0
 -1.1887906E-008 -1.4771839E-008 0.0
  7.0442681E-009 -1.6052291E-008 0.0
  6.5867635E-009 -1.6039013E-008 0.0
  6.1000969E-009 -1.6006450E-008 0.0
  5.6296600E-009 -1.5956695E-008 0.0
  5.1850569E-009 -1.5899032E-008 0.0
  4.7554777E-009 -1.5838465E-008 0.0
  4.3315873E-009 -1.5774018E-008 0.0
  3.9082468E-009 -1.5705185E-008 0.0
  3.4817652E-009 -1.5631987E-008 0.0
  3.0493553E-009 -1.5555174E-008 0.0
  2.6089397E-009 -1.5476236E-008 0.0
  2.1594328E-009 -1.5397374E-008 0.0
  1.7012010E-009 -1.5321297E-008 0.0
  1.2364295E-009 -1.5250770E-008 0.0
  7.6908300E-010 -1.5188005E-008 0.0
  3.0434963E-010 -1.5134160E-008 0.0
 -1.5221014E-010 -1.5089161E-008 0.0
 -5.9542366E-010 -1.5051843E-008 0.0
 -1.0210920E-009 -1.5020181E-008 0.0
 -1.4265225E-009 -1.4991648E-008 0.0
 -1.8109219E-009 -1.4963728E-008 0.0
 -2.1752211E-009 -1.4934657E-008 0.0
 -2.5211839E-009 -1.4904014E-008 0.0
 -2.8498287E-009 -1.4873125E-008 0.0
 -3.1591491E-009 -1.4844601E-008 0.0
 -3.4438943E-009 -1.4819695E-008 0.0
 -3.6993301E-009 -1.4797275E-008 0.0
 -3.9270092E-009 -1.4774433E-008 0.0
 -4.1330711E-009 -1.4750969E-008 0.0
 -4.3233659E-009 -1.4728118E-008 0.0
 -4.5017626E-009 -1.4707678E-008 0.0
 -4.6706137E-009 -1.4690154E-008 0.0
 -4.8322062E-009 -1.4675110E-008 0.0
 -4.9893191E-009 -1.4661611E-008 0.0
 -5.1452143E-009 -1.4648756E-008 0.0
 -5.3028527E-009 -1.4636092E-008 0.0
 -5.4642660E-009 -1.4623394E-008 0.0
 -5.6305045E-009 -1.4610482E-008 0.0
 -5.8020319E-009 -1.4596986E-008 0.0
 -5.9791290E-009 -1.4582486E-008 0.0
 -6.1619708E-009 -1.4566610E-008 0.0
 -6.3505734E-009 -1.4549074E-008 0.0
 -6.5447168E-009 -1.4529658E-008 0.0
 -6.7438813E-009 -1.4508185E-008 0.0
 -6.9472759E-009 -1.4484652E-008 0.0
 -7.1543317E-009 -1.4459595E-008 0.0
 -7.3663662E-009 -1.4433966E-008 0.0
 -7.5826641E-009 -1.4406734E-008 0.0
 -7.8013587E-009 -1.4384674E-008 0.0
 -8.0307617E-009 -1.4373767E-008 0.0
 -8.2882279E-009 -1.4376051E-008 0.0
 -8.5762131E-009 -1.4383087E-008 0.0
 -8.8855244E-009 -1.4391755E-008 0.0
 -9.2087274E-009 -1.4402125E-008 0.0
 -9.5412364E-009 -1.4414669E-008 0.0
 -9.8798087E-009 -1.4429457E-008 0.0
 -1.0221762E-008 -1.4446526E-008 0.0
 -1.0564064E-008 -1.4466186E-008 0.0
 -1.0906852E-008 -1.4490097E-008 0.0
 -1.1216527E-008 -1.4540444E-008 0.0
  6.6044953E-009 -1.5482998E-008 0.0
  6.0519063E-009 -1.5477861E-008 0.0
  5.5519673E-009 -1.5440340E-008 0.0
  5.0998404E-009 -1.5394847E-008 0.0
  4.6626468E-009 -1.5343766E-008 0.0
  4.2316253E-009 -1.5287335E-008 0.0
  3.8017106E-009 -1.5225494E-008 0.0
  3.3700728E-009 -1.5158970E-008 0.0
  2.9346909E-009 -1.5089058E-008 0.0
  2.4942421E-009 -1.5017563E-008 0.0
  2.0482284E-009 -1.4946705E-008 0.0
  1.5972213E-009 -1.4878925E-008 0.0
  1.1430213E-009 -1.4816566E-008 0.0
  6.8859023E-010 -1.4761488E-008 0.0
  2.3771745E-010 -1.4714742E-008 0.0
 -2.0548176E-010 -1.4676416E-008 0.0
 -6.3708164E-010 -1.4645661E-008 0.0
 -1.0537807E-009 -1.4620879E-008 0.0
 -1.4532279E-009 -1.4600048E-008 0.0
 -1.8341580E-009 -1.4581212E-008 0.0
 -2.1962118E-009 -1.4563041E-008 0.0
 -2.5393792E-009 -1.4545287E-008 0.0
 -2.8631236E-009 -1.4528819E-008 0.0
 -3.1657147E-009 -1.4514885E-008 0.0
 -3.4445180E-009 -1.4504019E-008 0.0
 -3.6978648E-009 -1.4495226E-008 0.0
 -3.9268826E-009 -1.4486962E-008 0.0
 -4.1351896E-009 -1.4478220E-008 0.0
 -4.3271529E-009 -1.4469164E-008 0.0
 -4.5065891E-009 -1.4460320E-008 0.0
 -4.6766362E-009 -1.4452003E-008 0.0
 -4.8400875E-009 -1.4444002E-008 0.0
 -4.9997383E-009 -1.4435806E-008 0.0
 -5.1583439E-009 -1.4426941E-008 0.0
 -5.3183214E-009 -1.4417150E-008 0.0
 -5.4814679E-009 -1.4406381E-008 0.0
 -5.6489132E-009 -1.4394615E-008 0.0
 -5.8212895E-009 -1.4381771E-008 0.0
 -5.9989276E-009 -1.4367693E-008 0.0
 -6.1819631E-009 -1.4352204E-008 0.0
 -6.3703389E-009 -1.4335121E-008 0.0
 -6.5637564E-009 -1.4316231E-008 0.0
 -6.7615953E-009 -1.4295207E-008 0.0
 -6.9626887E-009 -1.4271461E-008 0.0
 -7.1653649E-009 -1.4244417E-008 0.0
 -7.3702348E-009 -1.4214344E-008 0.0
 -7.5862974E-009 -1.4180407E-008 0.0
 -7.7879154E-009 -1.4133469E-008 0.0
 -7.9800906E-009 -1.4113242E-008 0.0
 -8.2257953E-009 -1.4110432E-008 0.0
 -8.5124290E-009 -1.4112686E-008 0.0
 -8.8202408E-009 -1.4117600E-008 0.0
 -9.1406289E-009 -1.4126353E-008 0.0
 -9.4696426E-009 -1.4138471E-008 0.0
 -9.8038469E-009 -1.4153852E-008 0.0
 -1.0139918E-008 -1.4172874E-008 0.0
 -1.0474205E-008 -1.4196822E-008 0.0
 -1.0796797E-008 -1.4230748E-008 0.0
 -1.1088458E-008 -1.4273019E-008 0.0
  5.9623611E-009 -1.4962719E-008 0.0
  5.4752882E-009 -1.4927096E-008 0.0
  5.0176977E-009 -1.4891938E-008 0.0
  4.5747080E-009 -1.4851116E-008 0.0
  4.1366289E-009 -1.4802939E-008 0.0
  3.7005043E-009 -1.4748256E-008 0.0
  3.2642710E-009 -1.4688528E-008 0.0
  2.8265887E-009 -1.4625550E-008 0.0
  2.3866445E-009 -1.4561374E-008 0.0
  1.9442599E-009 -1.4498236E-008 0.0
  1.5000162E-009 -1.4438414E-008 0.0
  1.0553200E-009 -1.4384004E-008 0.0
  6.1233854E-010 -1.4336660E-008 0.0
  1.7379059E-010 -1.4297376E-008 0.0
 -2.5735940E-010 -1.4266350E-008 0.0
 -6.7822142E-010 -1.4242998E-008 0.0
 -1.0862376E-009 -1.4226069E-008 0.0
 -1.4793187E-009 -1.4213923E-008 0.0
 -1.8558244E-009 -1.4204918E-008 0.0
 -2.2144085E-009 -1.4197891E-008 0.0
 -2.5538080E-009 -1.4192494E-008 0.0
 -2.8726977E-009 -1.4189135E-008 0.0
 -3.1696924E-009 -1.4188419E-008 0.0
 -3.4436705E-009 -1.4190387E-008 0.0
 -3.6944155E-009 -1.4194216E-008 0.0
 -3.9231786E-009 -1.4198593E-008 0.0
 -4.1325897E-009 -1.4202469E-008 0.0
 -4.3260282E-009 -1.4205374E-008 0.0
 -4.5070072E-009 -1.4207268E-008 0.0
 -4.6788343E-009 -1.4208124E-008 0.0
 -4.8445347E-009 -1.4207741E-008 0.0
 -5.0068496E-009 -1.4205795E-008 0.0
 -5.1682164E-009 -1.4202024E-008 0.0
 -5.3306825E-009 -1.4196349E-008 0.0
 -5.4958246E-009 -1.4188850E-008 0.0
 -5.6647405E-009 -1.4179677E-008 0.0
 -5.8381187E-009 -1.4168957E-008 0.0
 -6.0163371E-009 -1.4156774E-008 0.0
 -6.1995305E-009 -1.4143176E-008 0.0
 -6.3876142E-009 -1.4128200E-008 0.0
 -6.5802688E-009 -1.4111864E-008 0.0
 -6.7768531E-009 -1.4094105E-008 0.0
 -6.9763013E-009 -1.4074623E-008 0.0
 -7.1760227E-009 -1.4052138E-008 0.0
 -7.3728514E-009 -1.4025207E-008 0.0
 -7.6018919E-009 -1.3970300E-008 0.0
 -7.8077942E-009 -1.3922248E-008 0.0
 -7.9165260E-009 -1.3846821E-008 0.0
 -8.1558854E-009 -1.3833595E-008 0.0
 -8.4457147E-009 -1.3830918E-008 0.0
 -8.7515804E-009 -1.3836489E-008 0.0
 -9.0698281E-009 -1.3846633E-008 0.0
 -9.3958063E-009 -1.3860525E-008 0.0
 -9.7259337E-009 -1.3878189E-008 0.0
 -1.0056460E-008 -1.3900272E-008 0.0
 -1.0382119E-008 -1.3928252E-008 0.0
 -1.0694829E-008 -1.3962737E-008 0.0
 -1.0984525E-008 -1.4001506E-008 0.0
  5.8589862E-009 -1.4469576E-008 0.0
  5.3916403E-009 -1.4429871E-008 0.0
  4.9396249E-009 -1.4401635E-008 0.0
  4.4904986E-009 -1.4366985E-008 0.0
  4.0457478E-009 -1.4324447E-008 0.0
  3.6037251E-009 -1.4275282E-008 0.0
  3.1633980E-009 -1.4221279E-008 0.0
  2.7239356E-009 -1.4164429E-008 0.0
  2.2848810E-009 -1.4106856E-008 0.0
  1.8462170E-009 -1.4050755E-008 0.0
  1.4084385E-009 -1.3998274E-008 0.0
  9.7257138E-010 -1.3951357E-008 0.0
  5.4011787E-010 -1.3911546E-008 0.0
  1.1292712E-010 -1.3879822E-008 0.0
 -3.0698140E-010 -1.3856499E-008 0.0
 -7.1759740E-010 -1.3841223E-008 0.0
 -1.1170382E-009 -1.3833033E-008 0.0
 -1.5035256E-009 -1.3830520E-008 0.0
 -1.8752055E-009 -1.3832127E-008 0.0
 -2.2299387E-009 -1.3836577E-008 0.0
 -2.5653985E-009 -1.3843321E-008 0.0
 -2.8795881E-009 -1.3852533E-008 0.0
 -3.1714305E-009 -1.3864590E-008 0.0
 -3.4408951E-009 -1.3879283E-008 0.0
 -3.6887843E-009 -1.3895608E-008 0.0
 -3.9165661E-009 -1.3912129E-008 0.0
 -4.1263401E-009 -1.3927651E-008 0.0
 -4.3208307E-009 -1.3941505E-008 0.0
 -4.5032434E-009 -1.3953432E-008 0.0
 -4.6769365E-009 -1.3963233E-008 0.0
 -4.8450139E-009 -1.3970620E-008 0.0
 -5.0101002E-009 -1.3975288E-008 0.0
 -5.1743285E-009 -1.3977089E-008 0.0
 -5.3394211E-009 -1.3976098E-008 0.0
 -5.5067387E-009 -1.3972558E-008 0.0
 -5.6772997E-009 -1.3966784E-008 0.0
 -5.8517954E-009 -1.3959086E-008 0.0
 -6.0306191E-009 -1.3949749E-008 0.0
 -6.2138960E-009 -1.3939047E-008 0.0
 -6.4015021E-009 -1.3927284E-008 0.0
 -6.5930467E-009 -1.3914834E-008 0.0
 -6.7878210E-009 -1.3902235E-008 0.0
 -6.9844342E-009 -1.3890397E-008 0.0
 -7.1804609E-009 -1.3881559E-008 0.0
 -7.3602675E-009 -1.3883577E-008 0.0
 -7.7671788E-009 -1.3466181E-008 0.0
 -8.0762538E-009 -1.3512180E-008 0.0
 -8.3688119E-009 -1.3529929E-008 0.0
 -8.6769003E-009 -1.3544591E-008 0.0
 -8.9946598E-009 -1.3560073E-008 0.0
 -9.3188524E-009 -1.3577776E-008 0.0
 -9.6458701E-009 -1.3598656E-008 0.0
 -9.9719086E-009 -1.3623613E-008 0.0
 -1.0292279E-008 -1.3653214E-008 0.0
 -1.0601265E-008 -1.3687023E-008 0.0
 -1.0893454E-008 -1.3722427E-008 0.0
  5.7332555E-009 -1.3980266E-008 0.0
  5.3146642E-009 -1.3956879E-008 0.0
  4.8610800E-009 -1.3928767E-008 0.0
  4.4076063E-009 -1.3894029E-008 0.0
  3.9568224E-009 -1.3853188E-008 0.0
  3.5096948E-009 -1.3807050E-008 0.0
  3.0659484E-009 -1.3757094E-008 0.0
  2.6252770E-009 -1.3705116E-008 0.0
  2.1875076E-009 -1.3653099E-008 0.0
  1.7527252E-009 -1.3603105E-008 0.0
  1.3213128E-009 -1.3557157E-008 0.0
  8.9394759E-010 -1.3517091E-008 0.0
  4.7155677E-010 -1.3484398E-008 0.0
  5.5248869E-011 -1.3460080E-008 0.0
 -3.5376354E-010 -1.3444572E-008 0.0
 -7.5423921E-010 -1.3437738E-008 0.0
 -1.1449576E-009 -1.3438906E-008 0.0
 -1.5246276E-009 -1.3446885E-008 0.0
 -1.8914593E-009 -1.3460020E-008 0.0
 -2.2426598E-009 -1.3476668E-008 0.0
 -2.5745400E-009 -1.3495879E-008 0.0
 -2.8840743E-009 -1.3517943E-008 0.0
 -3.1705423E-009 -1.3543330E-008 0.0
 -3.4352806E-009 -1.3571696E-008 0.0
 -3.6802058E-009 -1.3601372E-008 0.0
 -3.9068984E-009 -1.3630423E-008 0.0
 -4.1168240E-009 -1.3657358E-008 0.0
 -4.3120112E-009 -1.3681610E-008 0.0
 -4.4954905E-009 -1.3703034E-008 0.0
 -4.6708570E-009 -1.3721453E-008 0.0
 -4.8413483E-009 -1.3736412E-008 0.0
 -5.0093542E-009 -1.3747555E-008 0.0
 -5.1765987E-009 -1.3754830E-008 0.0
 -5.3444414E-009 -1.3758517E-008 0.0
 -5.5140385E-009 -1.3759061E-008 0.0
 -5.6863316E-009 -1.3756946E-008 0.0
 -5.8620004E-009 -1.3752632E-008 0.0
 -6.0414311E-009 -1.3746557E-008 0.0
 -6.2247144E-009 -1.3739174E-008 0.0
 -6.4116511E-009 -1.3730998E-008 0.0
 -6.6017372E-009 -1.3722674E-008 0.0
 -6.7940334E-009 -1.3715086E-008 0.0
 -6.9869924E-009 -1.3709541E-008 0.0
 -7.1767868E-009 -1.3707877E-008 0.0
 -7.3593529E-009 -1.3706074E-008 0.0
 -7.6509466E-009 -1.3140650E-008 0.0
 -7.9682395E-009 -1.3182752E-008 0.0
 -8.2797184E-009 -1.3218409E-008 0.0
 -8.5938539E-009 -1.3243969E-008 0.0
 -8.9142503E-009 -1.3266255E-008 0.0
 -9.2384786E-009 -1.3288566E-008 0.0
 -9.5639245E-009 -1.3312838E-008 0.0
 -9.8874893E-009 -1.3340064E-008 0.0
 -1.0205568E-008 -1.3370468E-008 0.0
 -1.0514361E-008 -1.3403227E-008 0.0
 -1.0810838E-008 -1.3436245E-008 0.0
  6.0789123E-009 -1.3973047E-008 0.0
  6.0858256E-009 -1.3565532E-008 0.0
  5.6647350E-009 -1.3543440E-008 0.0
  5.2327659E-009 -1.3507006E-008 0.0
  4.7804813E-009 -1.3468486E-008 0.0
  4.3229985E-009 -1.3429536E-008 0.0
  3.8677167E-009 -1.3387541E-008 0.0
  3.4165690E-009 -1.3342399E-008 0.0
  2.9702823E-009 -1.3294939E-008 0.0
  2.5290585E-009 -1.3246569E-008 0.0
  2.0930284E-009 -1.3199003E-008 0.0
  1.6623875E-009 -1.3154114E-008 0.0
  1.2374330E-009 -1.3113792E-008 0.0
  8.1854227E-010 -1.3079806E-008 0.0
  4.0613297E-010 -1.3053637E-008 0.0
  6.4321802E-013 -1.3036330E-008 0.0
 -3.9744163E-010 -1.3028416E-008 0.0
 -7.8755268E-010 -1.3029941E-008 0.0
 -1.1690620E-009 -1.3040569E-008 0.0
 -1.5413483E-009 -1.3059566E-008 0.0
 -1.9033738E-009 -1.3085371E-008 0.0
 -2.2519675E-009 -1.3115446E-008 0.0
 -2.5812797E-009 -1.3148306E-008 0.0
 -2.8858054E-009 -1.3184259E-008 0.0
 -3.1657207E-009 -1.3224988E-008 0.0
 -3.4250821E-009 -1.3269210E-008 0.0
 -3.6672707E-009 -1.3314251E-008 0.0
 -3.8935927E-009 -1.3356830E-008 0.0
 -4.1041625E-009 -1.3395405E-008 0.0
 -4.2998975E-009 -1.3429619E-008 0.0
 -4.4838629E-009 -1.3460096E-008 0.0
 -4.6606110E-009 -1.3486632E-008 0.0
 -4.8336595E-009 -1.3508607E-008 0.0
 -5.0049000E-009 -1.3525503E-008 0.0
 -5.1753612E-009 -1.3537558E-008 0.0
 -5.3460273E-009 -1.3545388E-008 0.0
 -5.5179140E-009 -1.3549665E-008 0.0
 -5.6919363E-009 -1.3551010E-008 0.0
 -5.8687806E-009 -1.3549982E-008 0.0
 -6.0488237E-009 -1.3547104E-008 0.0
 -6.2320953E-009 -1.3542922E-008 0.0
 -6.4183098E-009 -1.3538069E-008 0.0
 -6.6068736E-009 -1.3533257E-008 0.0
 -6.7967972E-009 -1.3529287E-008 0.0
 -6.9865375E-009 -1.3526889E-008 0.0
 -7.1751229E-009 -1.3525414E-008 0.0
 -7.5411472E-009 -1.2823462E-008 0.0
 -7.8585709E-009 -1.2867944E-008 0.0
 -8.1804712E-009 -1.2906880E-008 0.0
 -8.5041605E-009 -1.2938837E-008 0.0
 -8.8291844E-009 -1.2966121E-008 0.0
 -9.1551085E-009 -1.2992438E-008 0.0
 -9.4806043E-009 -1.3019725E-008 0.0
 -9.8036532E-009 -1.3048831E-008 0.0
 -1.0121761E-008 -1.3079741E-008 0.0
 -1.0432441E-008 -1.3111640E-008 0.0
 -1.0733987E-008 -1.3142926E-008 0.0
  6.0560802E-009 -1.3104594E-008 0.0
  5.6026164E-009 -1.3082592E-008 0.0
  5.1534596E-009 -1.3049017E-008 0.0
  4.6966691E-009 -1.3009237E-008 0.0
  4.2360242E-009 -1.2967343E-008 0.0
  3.7771039E-009 -1.2923930E-008 0.0
  3.3229693E-009 -1.2878962E-008 0.0
  2.8749822E-009 -1.2833073E-008 0.0
  2.4338516E-009 -1.2787373E-008 0.0
  2.0000218E-009 -1.2743323E-008 0.0
  1.5738411E-009 -1.2702606E-008 0.0
  1.1555781E-009 -1.2667004E-008 0.0
  7.4537446E-010 -1.2638255E-008 0.0
  3.4318776E-010 -1.2617878E-008 0.0
 -5.1206885E-011 -1.2606990E-008 0.0
 -4.3807584E-010 -1.2606158E-008 0.0
 -8.1745064E-010 -1.2615436E-008 0.0
 -1.1890528E-009 -1.2634743E-008 0.0
 -1.5527033E-009 -1.2664122E-008 0.0
 -1.9088935E-009 -1.2703299E-008 0.0
 -2.2566076E-009 -1.2749413E-008 0.0
 -2.5855889E-009 -1.2797437E-008 0.0
 -2.8835622E-009 -1.2850772E-008 0.0
 -3.1541333E-009 -1.2910339E-008 0.0
 -3.4072822E-009 -1.2975085E-008 0.0
 -3.6480784E-009 -1.3037733E-008 0.0
 -3.8757985E-009 -1.3095489E-008 0.0
 -4.0885203E-009 -1.3145997E-008 0.0
 -4.2849853E-009 -1.3190155E-008 0.0
 -4.4684213E-009 -1.3228811E-008 0.0
 -4.6462596E-009 -1.3262898E-008 0.0
 -4.8225814E-009 -1.3290486E-008 0.0
 -4.9975517E-009 -1.3311559E-008 0.0
 -5.1713608E-009 -1.3327098E-008 0.0
 -5.3447835E-009 -1.3338113E-008 0.0
 -5.5188439E-009 -1.3345411E-008 0.0
 -5.6945008E-009 -1.3349659E-008 0.0
 -5.8724784E-009 -1.3351445E-008 0.0
 -6.0531624E-009 -1.3351317E-008 0.0
 -6.2365181E-009 -1.3349826E-008 0.0
 -6.4221113E-009 -1.3347610E-008 0.0
 -6.6094117E-009 -1.3345415E-008 0.0
 -6.7975466E-009 -1.3343773E-008 0.0
 -6.9853944E-009 -1.3343121E-008 0.0
 -7.4266342E-009 -1.2513512E-008 0.0
 -7.7470312E-009 -1.2559038E-008 0.0
 -8.0790467E-009 -1.2598241E-008 0.0
 -8.4113582E-009 -1.2630384E-008 0.0
 -8.7412085E-009 -1.2660117E-008 0.0
 -9.0695725E-009 -1.2689328E-008 0.0
 -9.3963203E-009 -1.2719159E-008 0.0
 -9.7204393E-009 -1.2749941E-008 0.0
 -1.0040309E-008 -1.2781377E-008 0.0
 -1.0354223E-008 -1.2812684E-008 0.0
 -1.0661151E-008 -1.2842739E-008 0.0
  6.0114280E-009 -1.2635609E-008 0.0
  5.5437017E-009 -1.2612714E-008 0.0
  5.0788764E-009 -1.2582165E-008 0.0
  4.6130456E-009 -1.2544337E-008 0.0
  4.1472647E-009 -1.2502433E-008 0.0
  3.6847544E-009 -1.2458630E-008 0.0
  3.2281390E-009 -1.2414032E-008 0.0
  2.7790415E-009 -1.2369469E-008 0.0
  2.3384904E-009 -1.2325955E-008 0.0
  1.9072304E-009 -1.2284779E-008 0.0
  1.4858068E-009 -1.2247484E-008 0.0
  1.0745331E-009 -1.2215780E-008 0.0
  6.7339635E-010 -1.2191417E-008 0.0
  2.8194483E-010 -1.2176013E-008 0.0
 -1.0074945E-010 -1.2170814E-008 0.0
 -4.7589964E-010 -1.2176418E-008 0.0
 -8.4436262E-010 -1.2192578E-008 0.0
 -1.2057608E-009 -1.2218737E-008 0.0
 -1.5592998E-009 -1.2255653E-008 0.0
 -1.9064076E-009 -1.2305274E-008 0.0
 -2.2518877E-009 -1.2368923E-008 0.0
 -2.5891501E-009 -1.2440619E-008 0.0
 -2.8733747E-009 -1.2513470E-008 0.0
 -3.1284568E-009 -1.2607171E-008 0.0
 -3.3797112E-009 -1.2694882E-008 0.0
 -3.6212378E-009 -1.2775380E-008 0.0
 -3.8514522E-009 -1.2849171E-008 0.0
 -4.0700154E-009 -1.2915765E-008 0.0
 -4.2686732E-009 -1.2968263E-008 0.0
 -4.4484324E-009 -1.3015951E-008 0.0
 -4.6288938E-009 -1.3054767E-008 0.0
 -4.8097296E-009 -1.3084490E-008 0.0
 -4.9886841E-009 -1.3107193E-008 0.0
 -5.1656218E-009 -1.3124604E-008 0.0
 -5.3415066E-009 -1.3137695E-008 0.0
 -5.5174985E-009 -1.3147123E-008 0.0
 -5.6946301E-009 -1.3153457E-008 0.0
 -5.8736660E-009 -1.3157268E-008 0.0
 -6.0550265E-009 -1.3159127E-008 0.0
 -6.2386594E-009 -1.3159584E-008 0.0
 -6.4238656E-009 -1.3159241E-008 0.0
 -6.6102572E-009 -1.3158530E-008 0.0
 -6.7971115E-009 -1.3158483E-008 0.0
 -7.2985580E-009 -1.2204413E-008 0.0
 -7.6340731E-009 -1.2254251E-008 0.0
 -7.9807711E-009 -1.2285664E-008 0.0
 -8.3183496E-009 -1.2316479E-008 0.0
 -8.6518406E-009 -1.2347549E-008 0.0
 -8.9825584E-009 -1.2379135E-008 0.0
 -9.3112450E-009 -1.2411316E-008 0.0
 -9.6376191E-009 -1.2443828E-008 0.0
 -9.9606219E-009 -1.2476006E-008 0.0
 -1.0278812E-008 -1.2507018E-008 0.0
 -1.0591200E-008 -1.2536166E-008 0.0
  5.9624539E-009 -1.2162037E-008 0.0
  5.4850467E-009 -1.2139348E-008 0.0
  5.0067061E-009 -1.2109830E-008 0.0
  4.5300766E-009 -1.2073212E-008 0.0
  4.0574411E-009 -1.2032005E-008 0.0
  3.5907957E-009 -1.1988795E-008 0.0
  3.1318052E-009 -1.1945186E-008 0.0
  2.6818474E-009 -1.1902204E-008 0.0
  2.2421064E-009 -1.1860813E-008 0.0
  1.8136030E-009 -1.1822199E-008 0.0
  1.3971281E-009 -1.1787827E-008 0.0
  9.9311921E-010 -1.1759375E-008 0.0
  6.0150493E-010 -1.1738632E-008 0.0
  2.2151831E-010 -1.1727349E-008 0.0
 -1.4850678E-010 -1.1727010E-008 0.0
 -5.1104034E-010 -1.1738356E-008 0.0
 -8.6854356E-010 -1.1760887E-008 0.0
 -1.2212277E-009 -1.1792435E-008 0.0
 -1.5647256E-009 -1.1831568E-008 0.0
 -1.8989230E-009 -1.1883227E-008 0.0
 -2.2367565E-009 -1.1949930E-008 0.0
 -2.5891711E-009 -1.2035240E-008 0.0
 -2.8278221E-009 -1.2207969E-008 0.0
 -3.0899128E-009 -1.2331339E-008 0.0
 -3.3430332E-009 -1.2434784E-008 0.0
 -3.5872723E-009 -1.2528984E-008 0.0
 -3.8202331E-009 -1.2616783E-008 0.0
 -4.0404663E-009 -1.2701287E-008 0.0
 -4.2523949E-009 -1.2788916E-008 0.0
 -4.4270929E-009 -1.2830946E-008 0.0
 -4.6122955E-009 -1.2863854E-008 0.0
 -4.7976487E-009 -1.2890227E-008 0.0
 -4.9797178E-009 -1.2912368E-008 0.0
 -5.1590916E-009 -1.2930570E-008 0.0
 -5.3369805E-009 -1.2944897E-008 0.0
 -5.5146377E-009 -1.2955565E-008 0.0
 -5.6931091E-009 -1.2962975E-008 0.0
 -5.8731407E-009 -1.2967684E-008 0.0
 -6.0551897E-009 -1.2970366E-008 0.0
 -6.2393102E-009 -1.2971665E-008 0.0
 -6.4244235E-009 -1.2972378E-008 0.0
 -7.1387487E-009 -1.1904746E-008 0.0
 -7.5351616E-009 -1.1931936E-008 0.0
 -7.8845050E-009 -1.1961825E-008 0.0
 -8.2258112E-009 -1.1994311E-008 0.0
 -8.5615433E-009 -1.2027726E-008 0.0
 -8.8942879E-009 -1.2061878E-008 0.0
 -9.2252205E-009 -1.2096539E-008 0.0
 -9.5547166E-009 -1.2131080E-008 0.0
 -9.8820974E-009 -1.2164425E-008 0.0
 -1.0205672E-008 -1.2195474E-008 0.0
 -1.0523627E-008 -1.2223862E-008 0.0
  5.9151897E-009 -1.1683542E-008 0.0
  5.4268892E-009 -1.1661708E-008 0.0
  4.9342948E-009 -1.1631937E-008 0.0
  4.4462487E-009 -1.1594984E-008 0.0
  3.9663272E-009 -1.1554264E-008 0.0
  3.4953581E-009 -1.1512310E-008 0.0
  3.0339431E-009 -1.1470494E-008 0.0
  2.5830880E-009 -1.1429659E-008 0.0
  2.1440892E-009 -1.1390653E-008 0.0
  1.7182900E-009 -1.1354591E-008 0.0
  1.3068069E-009 -1.1322934E-008 0.0
  9.1025575E-010 -1.1297390E-008 0.0
  5.2859515E-010 -1.1279749E-008 0.0
  1.6090180E-010 -1.1271860E-008 0.0
 -1.9508964E-010 -1.1275460E-008 0.0
 -5.4349353E-010 -1.1291704E-008 0.0
 -8.8925436E-010 -1.1320043E-008 0.0
 -1.2355385E-009 -1.1358031E-008 0.0
 -1.5759304E-009 -1.1399449E-008 0.0
 -1.8920906E-009 -1.1442163E-008 0.0
 -2.2261584E-009 -1.1491856E-008 0.0
 -2.6164376E-009 -1.1504164E-008 0.0
 -4.2562004E-009 -1.2668349E-008 0.0
 -4.4138372E-009 -1.2663532E-008 0.0
 -4.6008028E-009 -1.2680222E-008 0.0
 -4.7872977E-009 -1.2703306E-008 0.0
 -4.9710220E-009 -1.2725989E-008 0.0
 -5.1521680E-009 -1.2745436E-008 0.0
 -5.3318150E-009 -1.2760708E-008 0.0
 -5.5110775E-009 -1.2771748E-008 0.0
 -5.6909072E-009 -1.2778979E-008 0.0
 -5.8719982E-009 -1.2783084E-008 0.0
 -6.0547286E-009 -1.2784852E-008 0.0
 -6.2397201E-009 -1.2784987E-008 0.0
 -6.6513909E-009 -1.1915691E-008 0.0
 -6.6589976E-009 -1.1511752E-008 0.0
 -7.0491329E-009 -1.1541089E-008 0.0
 -7.4323025E-009 -1.1585315E-008 0.0
 -7.7889089E-009 -1.1627228E-008 0.0
 -8.1325362E-009 -1.1664630E-008 0.0
 -8.4702509E-009 -1.1701254E-008 0.0
 -8.8046867E-009 -1.1738052E-008 0.0
 -9.1378436E-009 -1.1775238E-008 0.0
 -9.4709650E-009 -1.1812196E-008 0.0
 -9.8039862E-009 -1.1847373E-008 0.0
 -1.0134602E-008 -1.1878950E-008 0.0
 -1.0458720E-008 -1.1906516E-008 0.0
  5.8750806E-009 -1.1197073E-008 0.0
  5.3694231E-009 -1.1177001E-008 0.0
  4.8590145E-009 -1.1145141E-008 0.0
  4.3598729E-009 -1.1106971E-008 0.0
  3.8735607E-009 -1.1067198E-008 0.0
  3.3986086E-009 -1.1027527E-008 0.0
  2.9346929E-009 -1.0988467E-008 0.0
  2.4826636E-009 -1.0950546E-008 0.0
  2.0440194E-009 -1.0914419E-008 0.0
  1.6205903E-009 -1.0881123E-008 0.0
  1.2140109E-009 -1.0852229E-008 0.0
  8.2512095E-010 -1.0829685E-008 0.0
  4.5373816E-010 -1.0815296E-008 0.0
  9.9049010E-011 -1.0810537E-008 0.0
 -2.4127703E-010 -1.0817441E-008 0.0
 -5.7319026E-010 -1.0837432E-008 0.0
 -9.0612935E-010 -1.0869844E-008 0.0
 -1.2459320E-009 -1.0911196E-008 0.0
 -1.5930450E-009 -1.0960519E-008 0.0
 -1.8704923E-009 -1.1046547E-008 0.0
 -2.2444654E-009 -1.1053735E-008 0.0
 -6.6131983E-009 -1.1180684E-008 0.0
 -6.9649223E-009 -1.1211249E-008 0.0
 -7.3341427E-009 -1.1250936E-008 0.0
 -7.6927326E-009 -1.1291872E-008 0.0
 -8.0390216E-009 -1.1331518E-008 0.0
 -8.3782337E-009 -1.1370080E-008 0.0
 -8.7139314E-009 -1.1408641E-008 0.0
 -9.0487789E-009 -1.1447725E-008 0.0
 -9.3852894E-009 -1.1487124E-008 0.0
 -9.7250518E-009 -1.1525067E-008 0.0
 -1.0065593E-008 -1.1558046E-008 0.0
 -1.0398059E-008 -1.1584573E-008 0.0
  5.8505439E-009 -1.0696318E-008 0.0
  5.3101007E-009 -1.0677094E-008 0.0
  4.7782582E-009 -1.0643126E-008 0.0
  4.2706067E-009 -1.0605807E-008 0.0
  3.7795022E-009 -1.0569379E-008 0.0
  3.3008563E-009 -1.0533273E-008 0.0
  2.8343305E-009 -1.0497966E-008 0.0
  2.3806383E-009 -1.0463808E-008 0.0
  1.9416056E-009 -1.0431207E-008 0.0
  1.5198349E-009 -1.0401028E-008 0.0
  1.1179356E-009 -1.0375037E-008 0.0
  7.3725689E-010 -1.0355867E-008 0.0
  3.7693083E-010 -1.0346043E-008 0.0
  3.5139794E-011 -1.0346220E-008 0.0
 -2.8792589E-010 -1.0356290E-008 0.0
 -5.9923768E-010 -1.0380661E-008 0.0
 -9.1935702E-010 -1.0414833E-008 0.0
 -1.2582244E-009 -1.0449374E-008 0.0
 -1.6189582E-009 -1.0469511E-008 0.0
 -6.5356326E-009 -1.0859267E-008 0.0
 -6.8824905E-009 -1.0894863E-008 0.0
 -7.2458082E-009 -1.0924610E-008 0.0
 -7.6005917E-009 -1.0960026E-008 0.0
 -7.9468227E-009 -1.0997904E-008 0.0
 -8.2865550E-009 -1.1036330E-008 0.0
 -8.6227828E-009 -1.1075007E-008 0.0
 -8.9583303E-009 -1.1114294E-008 0.0
 -9.2967550E-009 -1.1154812E-008 0.0
 -9.6429020E-009 -1.1195833E-008 0.0
 -9.9981437E-009 -1.1232226E-008 0.0
 -1.0345977E-008 -1.1256930E-008 0.0
  5.8581364E-009 -1.0141175E-008 0.0
  5.2463561E-009 -1.0146523E-008 0.0
  4.6920187E-009 -1.0122110E-008 0.0
  4.1804075E-009 -1.0092872E-008 0.0
  3.6843933E-009 -1.0060940E-008 0.0
  3.2023794E-009 -1.0028936E-008 0.0
  2.7331580E-009 -9.9979501E-009 0.0
  2.2772513E-009 -9.9683428E-009 0.0
  1.8367025E-009 -9.9400885E-009 0.0
  1.4152492E-009 -9.9135178E-009 0.0
  1.0174234E-009 -9.8904270E-009 0.0
  6.4607035E-010 -9.8746394E-009 0.0
  2.9956817E-010 -9.8708426E-009 0.0
 -2.8148741E-011 -9.8815251E-009 0.0
 -3.3726568E-010 -9.9024669E-009 0.0
 -6.1641927E-010 -9.9311207E-009 0.0
 -9.2534290E-010 -9.9742618E-009 0.0
 -1.2819822E-009 -9.9935661E-009 0.0
 -6.4259289E-009 -1.0548016E-008 0.0
 -6.8084815E-009 -1.0568818E-008 0.0
 -7.1632936E-009 -1.0595722E-008 0.0
 -7.5132929E-009 -1.0628728E-008 0.0
 -7.8572177E-009 -1.0664728E-008 0.0
 -8.1962916E-009 -1.0701808E-008 0.0
 -8.5323538E-009 -1.0739107E-008 0.0
 -8.8679077E-009 -1.0776506E-008 0.0
 -9.2061386E-009 -1.0814344E-008 0.0
 -9.5548856E-009 -1.0854757E-008 0.0
 -9.9283214E-009 -1.0894382E-008 0.0
 -1.0312585E-008 -1.0918635E-008 0.0
  5.1297800E-009 -9.6439293E-009 0.0
  4.6050486E-009 -9.6037775E-009 0.0
  4.0869727E-009 -9.5732902E-009 0.0
  3.5876721E-009 -9.5429193E-009 0.0
  3.1028733E-009 -9.5138433E-009 0.0
  2.6313747E-009 -9.4869498E-009 0.0
  2.1730004E-009 -9.4624539E-009 0.0
  1.7295603E-009 -9.4397087E-009 0.0
  1.3059908E-009 -9.4177377E-009 0.0
  9.1041208E-010 -9.3974371E-009 0.0
  5.4975078E-010 -9.3840531E-009 0.0
  2.2216683E-010 -9.3856099E-009 0.0
 -8.4278876E-011 -9.4083243E-009 0.0
 -3.8326566E-010 -9.4542522E-009 0.0
 -5.9814400E-010 -9.5561555E-009 0.0
 -9.4422827E-010 -9.5654622E-009 0.0
 -5.9849475E-009 -1.0555425E-008 0.0
 -5.9907852E-009 -1.0173497E-008 0.0
 -6.3618096E-009 -1.0194313E-008 0.0
 -6.7298459E-009 -1.0227882E-008 0.0
 -7.0827271E-009 -1.0262882E-008 0.0
 -7.4285367E-009 -1.0297402E-008 0.0
 -7.7700831E-009 -1.0332756E-008 0.0
 -8.1079448E-009 -1.0368415E-008 0.0
 -8.4434966E-009 -1.0403777E-008 0.0
 -8.7787070E-009 -1.0438311E-008 0.0
 -9.1170109E-009 -1.0471388E-008 0.0
 -9.4625225E-009 -1.0501212E-008 0.0
 -9.8521710E-009 -1.0527287E-008 0.0
 -1.0320346E-008 -1.0519388E-008 0.0
  5.0284666E-009 -9.1236122E-009 0.0
  4.5035948E-009 -9.0837522E-009 0.0
  3.9881233E-009 -9.0464880E-009 0.0
  3.4873588E-009 -9.0144811E-009 0.0
  3.0015205E-009 -8.9864178E-009 0.0
  2.5288390E-009 -8.9625470E-009 0.0
  2.0685920E-009 -8.9429874E-009 0.0
  1.6214392E-009 -8.9271432E-009 0.0
  1.1919647E-009 -8.9123450E-009 0.0
  7.9350319E-010 -8.8957804E-009 0.0
  4.4426460E-010 -8.8830990E-009 0.0
  1.4385114E-010 -8.8889258E-009 0.0
 -1.3554798E-010 -8.9172651E-009 0.0
 -4.2187626E-010 -8.9567087E-009 0.0
 -5.9602471E-009 -9.8445176E-009 0.0
 -6.3000179E-009 -9.8667811E-009 0.0
 -6.6524873E-009 -9.8984744E-009 0.0
 -7.0015349E-009 -9.9337396E-009 0.0
 -7.3452285E-009 -9.9689411E-009 0.0
 -7.6848318E-009 -1.0003692E-008 0.0
 -8.0213989E-009 -1.0038149E-008 0.0
 -8.3561102E-009 -1.0072026E-008 0.0
 -8.6907767E-009 -1.0104906E-008 0.0
 -9.0276513E-009 -1.0136447E-008 0.0
 -9.3727228E-009 -1.0167094E-008 0.0
 -9.7126179E-009 -1.0212123E-008 0.0
  4.9280806E-009 -8.5901130E-009 0.0
  4.3961614E-009 -8.5475438E-009 0.0
  3.8814896E-009 -8.5075613E-009 0.0
  3.3822621E-009 -8.4730734E-009 0.0
  2.8970984E-009 -8.4444418E-009 0.0
  2.4247663E-009 -8.4215503E-009 0.0
  1.9640623E-009 -8.4050690E-009 0.0
  1.5144146E-009 -8.3953755E-009 0.0
  1.0765566E-009 -8.3917463E-009 0.0
  6.6348219E-010 -8.3860077E-009 0.0
  3.2067576E-010 -8.3745466E-009 0.0
  6.9831977E-011 -8.3869816E-009 0.0
 -1.7801664E-010 -8.4365746E-009 0.0
 -5.9108189E-009 -9.5261993E-009 0.0
 -6.2375171E-009 -9.5512759E-009 0.0
 -6.5786496E-009 -9.5803911E-009 0.0
 -6.9224796E-009 -9.6124816E-009 0.0
 -7.2636195E-009 -9.6456070E-009 0.0
 -7.6012885E-009 -9.6790288E-009 0.0
 -7.9362302E-009 -9.7124354E-009 0.0
 -8.2695173E-009 -9.7456554E-009 0.0
 -8.6024093E-009 -9.7786939E-009 0.0
 -8.9365104E-009 -9.8121791E-009 0.0
 -9.2702007E-009 -9.8497144E-009 0.0
 -9.5958561E-009 -9.8920528E-009 0.0
  4.8197141E-009 -8.0412493E-009 0.0
  4.2817762E-009 -7.9955469E-009 0.0
  3.7687993E-009 -7.9534503E-009 0.0
  3.2717302E-009 -7.9174850E-009 0.0
  2.7880484E-009 -7.8863631E-009 0.0
  2.3172796E-009 -7.8613206E-009 0.0
  1.8577542E-009 -7.8435941E-009 0.0
  1.4073023E-009 -7.8344582E-009 0.0
  9.6519789E-010 -7.8352610E-009 0.0
  5.2717786E-010 -7.8499828E-009 0.0
  1.6410712E-010 -7.8683030E-009 0.0
  3.2324210E-011 -7.9282903E-009 0.0
 -5.8494352E-009 -9.2143237E-009 0.0
 -6.1709875E-009 -9.2413273E-009 0.0
 -6.5071859E-009 -9.2687845E-009 0.0
 -6.8467212E-009 -9.2969923E-009 0.0
 -7.1843785E-009 -9.3273160E-009 0.0
 -7.5194030E-009 -9.3590572E-009 0.0
 -7.8520600E-009 -9.3916271E-009 0.0
 -8.1830274E-009 -9.4247890E-009 0.0
 -8.5130079E-009 -9.4587591E-009 0.0
 -8.8419518E-009 -9.4945809E-009 0.0
 -9.1681390E-009 -9.5333681E-009 0.0
 -9.4882087E-009 -9.5752810E-009 0.0
  4.6934814E-009 -7.4807207E-009 0.0
  4.1598954E-009 -7.4282868E-009 0.0
  3.6517314E-009 -7.3886321E-009 0.0
  3.1543702E-009 -7.3488458E-009 0.0
  2.6722874E-009 -7.3123699E-009 0.0
  2.2037243E-009 -7.2815427E-009 0.0
  1.7458640E-009 -7.2572247E-009 0.0
  1.2953745E-009 -7.2392482E-009 0.0
  8.4607720E-010 -7.2260186E-009 0.0
  3.9349915E-010 -7.2090106E-009 0.0
 -1.6034868E-010 -7.1277428E-009 0.0
 -5.7754521E-009 -8.9059194E-009 0.0
 -6.1010241E-009 -8.9363625E-009 0.0
 -6.4384654E-009 -8.9586755E-009 0.0
 -6.7736045E-009 -8.9840819E-009 0.0
 -7.1072885E-009 -9.0125187E-009 0.0
 -7.4389314E-009 -9.0431368E-009 0.0
 -7.7685999E-009 -9.0752530E-009 0.0
 -8.0965166E-009 -9.1086023E-009 0.0
 -8.4227780E-009 -9.1433819E-009 0.0
 -8.7469698E-009 -9.1800856E-009 0.0
 -9.0679257E-009 -9.2191489E-009 0.0
 -9.3842634E-009 -9.2602511E-009 0.0
  4.5325407E-009 -6.9052393E-009 0.0
  4.0418156E-009 -6.8660278E-009 0.0
  3.5252929E-009 -6.8183442E-009 0.0
  3.0275257E-009 -6.7689070E-009 0.0
  2.5476247E-009 -6.7239070E-009 0.0
  2.0819621E-009 -6.6850311E-009 0.0
  1.6254290E-009 -6.6512372E-009 0.0
  1.1724377E-009 -6.6194092E-009 0.0
  7.1519477E-010 -6.5844754E-009 0.0
  2.2420232E-010 -6.5342749E-009 0.0
 -3.5715261E-010 -6.4746148E-009 0.0
 -5.6797936E-009 -8.6064182E-009 0.0
 -6.0374618E-009 -8.6242190E-009 0.0
 -6.3705699E-009 -8.6458606E-009 0.0
 -6.7018439E-009 -8.6715744E-009 0.0
 -7.0313690E-009 -8.7000132E-009 0.0
 -7.3593656E-009 -8.7305171E-009 0.0
 -7.6856539E-009 -8.7626523E-009 0.0
 -8.0101356E-009 -8.7962627E-009 0.0
 -8.3326089E-009 -8.8314408E-009 0.0
 -8.6526150E-009 -8.8684063E-009 0.0
 -8.9694566E-009 -8.9072483E-009 0.0
 -9.2825465E-009 -8.9477344E-009 0.0
  4.9550724E-009 -6.9009518E-009 0.0
  4.9702391E-009 -6.4018748E-009 0.0
  4.4369646E-009 -6.3727157E-009 0.0
  3.9049425E-009 -6.3094780E-009 0.0
  3.3844339E-009 -6.2391389E-009 0.0
  2.8881022E-009 -6.1765325E-009 0.0
  2.4132695E-009 -6.1227251E-009 0.0
  1.9521203E-009 -6.0765341E-009 0.0
  1.4970169E-009 -6.0351721E-009 0.0
  1.0403420E-009 -5.9933044E-009 0.0
  5.7319128E-010 -5.9438437E-009 0.0
  7.8485495E-011 -5.8881736E-009 0.0
 -4.8635964E-010 -5.8391208E-009 0.0
 -5.2720976E-009 -8.6125314E-009 0.0
 -5.2773038E-009 -8.2552406E-009 0.0
 -5.6248507E-009 -8.2728756E-009 0.0
 -5.9697706E-009 -8.3014565E-009 0.0
 -6.3020327E-009 -8.3310579E-009 0.0
 -6.6296336E-009 -8.3599442E-009 0.0
 -6.9556618E-009 -8.3898169E-009 0.0
 -7.2801895E-009 -8.4209553E-009 0.0
 -7.6030894E-009 -8.4534351E-009 0.0
 -7.9241195E-009 -8.4872991E-009 0.0
 -8.2429740E-009 -8.5226379E-009 0.0
 -8.5592454E-009 -8.5595481E-009 0.0
 -8.8724931E-009 -8.5980401E-009 0.0
 -9.1824410E-009 -8.6379735E-009 0.0
  4.9610796E-009 -5.8221607E-009 0.0
  4.3347307E-009 -5.7893186E-009 0.0
  3.7515760E-009 -5.7177861E-009 0.0
  3.2259573E-009 -5.6387694E-009 0.0
  2.7370972E-009 -5.5699975E-009 0.0
  2.2704875E-009 -5.5111334E-009 0.0
  1.8167333E-009 -5.4609109E-009 0.0
  1.3657651E-009 -5.4169082E-009 0.0
  9.0689324E-010 -5.3750242E-009 0.0
  4.3352086E-010 -5.3275595E-009 0.0
 -4.8326651E-011 -5.2726554E-009 0.0
 -5.5929008E-010 -5.2327584E-009 0.0
 -5.2517367E-009 -7.9437398E-009 0.0
 -5.5719362E-009 -7.9626923E-009 0.0
 -5.9028851E-009 -7.9900565E-009 0.0
 -6.2314532E-009 -8.0208175E-009 0.0
 -6.5566465E-009 -8.0517967E-009 0.0
 -6.8797411E-009 -8.0828859E-009 0.0
 -7.2011825E-009 -8.1146949E-009 0.0
 -7.5208822E-009 -8.1475378E-009 0.0
 -7.8386232E-009 -8.1815836E-009 0.0
 -8.1540989E-009 -8.2169337E-009 0.0
 -8.4669576E-009 -8.2536503E-009 0.0
 -8.7768796E-009 -8.2917428E-009 0.0
 -9.0837004E-009 -8.3311647E-009 0.0
  4.9830850E-009 -5.1476100E-009 0.0
  4.2155907E-009 -5.1493083E-009 0.0
  3.5797601E-009 -5.0888270E-009 0.0
  3.0580776E-009 -5.0205897E-009 0.0
  2.5770760E-009 -4.9536044E-009 0.0
  2.1218330E-009 -4.8937267E-009 0.0
  1.6791220E-009 -4.8424663E-009 0.0
  1.2369286E-009 -4.7994362E-009 0.0
  7.8366224E-010 -4.7635572E-009 0.0
  3.0659940E-010 -4.7353177E-009 0.0
 -1.6405298E-010 -4.7114572E-009 0.0
 -5.5337164E-010 -4.7298103E-009 0.0
 -5.2102105E-009 -7.6420617E-009 0.0
 -5.5183099E-009 -7.6634521E-009 0.0
 -5.8383138E-009 -7.6892530E-009 0.0
 -6.1614392E-009 -7.7183459E-009 0.0
 -6.4835911E-009 -7.7488308E-009 0.0
 -6.8039277E-009 -7.7800257E-009 0.0
 -7.1224463E-009 -7.8120249E-009 0.0
 -7.4391172E-009 -7.8450223E-009 0.0
 -7.7537587E-009 -7.8791257E-009 0.0
 -8.0660890E-009 -7.9143886E-009 0.0
 -8.3757801E-009 -7.9508424E-009 0.0
 -8.6825436E-009 -7.9885135E-009 0.0
 -8.9862314E-009 -8.0274337E-009 0.0
  3.9693842E-009 -4.5670096E-009 0.0
  3.3978853E-009 -4.4764168E-009 0.0
  2.8786789E-009 -4.4057740E-009 0.0
  2.4096471E-009 -4.3383780E-009 0.0
  1.9686495E-009 -4.2778243E-009 0.0
  1.5411045E-009 -4.2261470E-009 0.0
  1.1131762E-009 -4.1838389E-009 0.0
  6.7075298E-010 -4.1502254E-009 0.0
  2.0295109E-010 -4.1226018E-009 0.0
 -3.3718940E-010 -4.0759592E-009 0.0
 -5.1590671E-009 -7.3459914E-009 0.0
 -5.4610550E-009 -7.3694123E-009 0.0
 -5.7746724E-009 -7.3946733E-009 0.0
 -6.0929554E-009 -7.4218674E-009 0.0
 -6.4115230E-009 -7.4507601E-009 0.0
 -6.7287211E-009 -7.4811787E-009 0.0
 -7.0442205E-009 -7.5129169E-009 0.0
 -7.3579072E-009 -7.5458628E-009 0.0
 -7.6695983E-009 -7.5799342E-009 0.0
 -7.9789946E-009 -7.6150656E-009 0.0
 -8.2857326E-009 -7.6512313E-009 0.0
 -8.5894774E-009 -7.6884660E-009 0.0
 -8.8900319E-009 -7.7268723E-009 0.0
  3.7211116E-009 -3.9919367E-009 0.0
  3.1784363E-009 -3.8941052E-009 0.0
  2.6838335E-009 -3.8083478E-009 0.0
  2.2323074E-009 -3.7350869E-009 0.0
  1.8107348E-009 -3.6718516E-009 0.0
  1.4029854E-009 -3.6190009E-009 0.0
  9.9372124E-010 -3.5760574E-009 0.0
  5.6738476E-010 -3.5411858E-009 0.0
  1.0162480E-010 -3.5082084E-009 0.0
 -4.3631927E-010 -3.4775344E-009 0.0
 -5.1003206E-009 -7.0541763E-009 0.0
 -5.3998353E-009 -7.0791807E-009 0.0
 -5.7111568E-009 -7.1037955E-009 0.0
 -6.0260630E-009 -7.1287420E-009 0.0
 -6.3407375E-009 -7.1560324E-009 0.0
 -6.6543718E-009 -7.1855799E-009 0.0
 -6.9666073E-009 -7.2169894E-009 0.0
 -7.2772774E-009 -7.2498820E-009 0.0
 -7.5861398E-009 -7.2839580E-009 0.0
 -7.8928189E-009 -7.3190003E-009 0.0
 -8.1968383E-009 -7.3549005E-009 0.0
 -8.4977276E-009 -7.3916909E-009 0.0
 -8.7951683E-009 -7.4295505E-009 0.0
  3.4552387E-009 -3.4343982E-009 0.0
  2.9355441E-009 -3.3263523E-009 0.0
  2.4681423E-009 -3.2311206E-009 0.0
  2.0433317E-009 -3.1503891E-009 0.0
  1.6474958E-009 -3.0838453E-009 0.0
  1.2648855E-009 -3.0299513E-009 0.0
  8.7923564E-010 -2.9869413E-009 0.0
  4.7295556E-010 -2.9523714E-009 0.0
  2.5147219E-011 -2.9248928E-009 0.0
 -4.8816478E-010 -2.9059817E-009 0.0
 -5.0316861E-009 -6.7647870E-009 0.0
 -5.3357614E-009 -6.7926889E-009 0.0
 -5.6491081E-009 -6.8131725E-009 0.0
 -5.9603017E-009 -6.8365019E-009 0.0
 -6.2709143E-009 -6.8630192E-009 0.0
 -6.5806626E-009 -6.8922833E-009 0.0
 -6.8894468E-009 -6.9237249E-009 0.0
 -7.1970831E-009 -6.9568168E-009 0.0
 -7.5032678E-009 -6.9910991E-009 0.0
 -7.8075041E-009 -7.0262052E-009 0.0
 -8.1091207E-009 -7.0619236E-009 0.0
 -8.4073961E-009 -7.0982719E-009 0.0
 -8.7017810E-009 -7.1355279E-009 0.0
  3.1645402E-009 -2.8961272E-009 0.0
  2.6700960E-009 -2.7779683E-009 0.0
  2.2339802E-009 -2.6744998E-009 0.0
  1.8427641E-009 -2.5890161E-009 0.0
  1.4798827E-009 -2.5212544E-009 0.0
  1.1282655E-009 -2.4686313E-009 0.0
  7.7151943E-010 -2.4280673E-009 0.0
  3.9309014E-010 -2.3976802E-009 0.0
 -2.5287294E-011 -2.3776932E-009 0.0
 -5.0335696E-010 -2.3708413E-009 0.0
 -4.9446778E-009 -6.4825791E-009 0.0
 -5.2777369E-009 -6.4991008E-009 0.0
 -5.5873355E-009 -6.5193026E-009 0.0
 -5.8949069E-009 -6.5435182E-009 0.0
 -6.2012625E-009 -6.5707837E-009 0.0
 -6.5070658E-009 -6.6006674E-009 0.0
 -6.8123473E-009 -6.6327124E-009 0.0
 -7.1170087E-009 -6.6664163E-009 0.0
 -7.4207349E-009 -6.7012422E-009 0.0
 -7.7229116E-009 -6.7366803E-009 0.0
 -8.0225957E-009 -6.7723762E-009 0.0
 -8.3186541E-009 -6.8083002E-009 0.0
 -8.6101148E-009 -6.8448594E-009 0.0
  2.8456703E-009 -2.3810652E-009 0.0
  2.3803918E-009 -2.2519487E-009 0.0
  1.9826469E-009 -2.1418924E-009 0.0
  1.6335464E-009 -2.0556461E-009 0.0
  1.3110544E-009 -1.9917549E-009 0.0
  9.9598724E-010 -1.9449258E-009 0.0
  6.7321283E-010 -1.9102958E-009 0.0
  3.2915111E-010 -1.8861420E-009 0.0
 -5.1182329E-011 -1.8741678E-009 0.0
 -4.8565092E-010 -1.8785416E-009 0.0
 -4.5656956E-009 -6.4878607E-009 0.0
 -4.5705727E-009 -6.1538728E-009 0.0
 -4.8952974E-009 -6.1696275E-009 0.0
 -5.2163535E-009 -6.1955789E-009 0.0
 -5.5248465E-009 -6.2229871E-009 0.0
 -5.8285649E-009 -6.2503917E-009 0.0
 -6.1310457E-009 -6.2795045E-009 0.0
 -6.4330113E-009 -6.3106477E-009 0.0
 -6.7348415E-009 -6.3437555E-009 0.0
 -7.0366255E-009 -6.3784739E-009 0.0
 -7.3381620E-009 -6.4142446E-009 0.0
 -7.6387918E-009 -6.4503941E-009 0.0
 -7.9372535E-009 -6.4863298E-009 0.0
 -8.2317699E-009 -6.5218771E-009 0.0
 -8.5205873E-009 -6.5575891E-009 0.0
  2.4943276E-009 -1.8904770E-009 0.0
  2.0633205E-009 -1.7494366E-009 0.0
  1.7162248E-009 -1.6356593E-009 0.0
  1.4212503E-009 -1.5561744E-009 0.0
  1.1468026E-009 -1.5042879E-009 0.0
  8.7225530E-010 -1.4697376E-009 0.0
  5.8584209E-010 -1.4447572E-009 0.0
  2.8020340E-010 -1.4271831E-009 0.0
 -5.5022416E-011 -1.4222873E-009 0.0
 -4.3764142E-010 -1.4361227E-009 0.0
 -4.5483787E-009 -5.8607604E-009 0.0
 -4.8483488E-009 -5.8773973E-009 0.0
 -5.1562578E-009 -5.9019447E-009 0.0
 -5.4606440E-009 -5.9301903E-009 0.0
 -5.7612167E-009 -5.9595670E-009 0.0
 -6.0599738E-009 -5.9901480E-009 0.0
 -6.3581879E-009 -6.0225178E-009 0.0
 -6.6565506E-009 -6.0567974E-009 0.0
 -6.9554768E-009 -6.0927601E-009 0.0
 -7.2550408E-009 -6.1298488E-009 0.0
 -7.5547231E-009 -6.1671925E-009 0.0
 -7.8530012E-009 -6.2037955E-009 0.0
 -8.1471455E-009 -6.2390885E-009 0.0
 -8.4339187E-009 -6.2737174E-009 0.0
  2.1007119E-009 -1.4229814E-009 0.0
  1.7141355E-009 -1.2669700E-009 0.0
  1.4409208E-009 -1.1584091E-009 0.0
  1.2161734E-009 -1.0990347E-009 0.0
  9.9567409E-010 -1.0712534E-009 0.0
  7.6170890E-010 -1.0555218E-009 0.0
  5.1077047E-010 -1.0435898E-009 0.0
  2.4200367E-010 -1.0334828E-009 0.0
 -4.1574848E-011 -1.0287287E-009 0.0
 -3.5907390E-010 -1.0527120E-009 0.0
 -4.5126931E-009 -5.5764605E-009 0.0
 -4.8015298E-009 -5.5948993E-009 0.0
 -5.0989769E-009 -5.6175075E-009 0.0
 -5.3973256E-009 -5.6438518E-009 0.0
 -5.6936826E-009 -5.6726500E-009 0.0
 -5.9884006E-009 -5.7035498E-009 0.0
 -6.2826146E-009 -5.7365835E-009 0.0
 -6.5772925E-009 -5.7717723E-009 0.0
 -6.8731755E-009 -5.8089171E-009 0.0
 -7.1707590E-009 -5.8475185E-009 0.0
 -7.4700080E-009 -5.8865902E-009 0.0
 -7.7695041E-009 -5.9245461E-009 0.0
 -8.0653355E-009 -5.9599221E-009 0.0
 -8.3513971E-009 -5.9930941E-009 0.0
  1.6402465E-009 -9.6617362E-010 0.0
  1.3292205E-009 -8.0042030E-010 0.0
  1.1745413E-009 -7.1546058E-010 0.0
  1.0363357E-009 -7.0451078E-010 0.0
  8.6563062E-010 -7.0947571E-010 0.0
  6.6798823E-010 -7.1508517E-010 0.0
  4.4861989E-010 -7.1743497E-010 0.0
  2.1394554E-010 -7.1735078E-010 0.0
 -2.9562885E-011 -7.1689384E-010 0.0
 -2.4358901E-010 -7.2239733E-010 0.0
 -4.4692790E-009 -5.2977278E-009 0.0
 -4.7525377E-009 -5.3172008E-009 0.0
 -5.0436580E-009 -5.3385326E-009 0.0
 -5.3360147E-009 -5.3623509E-009 0.0
 -5.6269791E-009 -5.3895971E-009 0.0
 -5.9168395E-009 -5.4199045E-009 0.0
 -6.2065221E-009 -5.4529738E-009 0.0
 -6.4970982E-009 -5.4885836E-009 0.0
 -6.7895446E-009 -5.5264800E-009 0.0
 -7.0847663E-009 -5.5663159E-009 0.0
 -7.3835881E-009 -5.6073569E-009 0.0
 -7.6858189E-009 -5.6476779E-009 0.0
 -7.9869290E-009 -5.6839331E-009 0.0
 -8.2754569E-009 -5.7151889E-009 0.0
  1.0221486E-009 -5.3606062E-010 0.0
  9.2804450E-010 -3.2827806E-010 0.0
  9.6846525E-010 -3.6229147E-010 0.0
  8.9162308E-010 -4.0573737E-010 0.0
  7.5957860E-010 -4.3727569E-010 0.0
  5.9052989E-010 -4.5741752E-010 0.0
  3.9885995E-010 -4.7021428E-010 0.0
  1.9485774E-010 -4.8059697E-010 0.0
 -7.6969402E-012 -4.9674291E-010 0.0
 -1.8284970E-010 -5.2500102E-010 0.0
 -3.3387273E-010 -5.5189794E-010 0.0
 -3.3564005E-010 -7.0696197E-010 0.0
 -4.4186906E-009 -5.0227260E-009 0.0
 -4.7019700E-009 -5.0439341E-009 0.0
 -4.9904647E-009 -5.0618420E-009 0.0
 -5.2764998E-009 -5.0836810E-009 0.0
 -5.5613807E-009 -5.1095660E-009 0.0
 -5.8455959E-009 -5.1390756E-009 0.0
 -6.1301362E-009 -5.1717778E-009 0.0
 -6.4161344E-009 -5.2072980E-009 0.0
 -6.7047441E-009 -5.2452466E-009 0.0
 -6.9970362E-009 -5.2852312E-009 0.0
 -7.2945054E-009 -5.3271790E-009 0.0
 -7.5997114E-009 -5.3702263E-009 0.0
 -7.9118391E-009 -5.4094072E-009 0.0
 -8.2112941E-009 -5.4377356E-009 0.0
 -3.7086754E-039 -3.7086754E-039 0.0
  7.2362945E-010 -7.7229282E-011 0.0
  8.1455410E-010 -1.7852424E-010 0.0
  7.7786867E-010 -2.3197235E-010 0.0
  6.6931810E-010 -2.6305116E-010 0.0
  5.2373249E-010 -2.8238637E-010 0.0
  3.5701351E-010 -2.9648418E-010 0.0
  1.8220769E-010 -3.1044239E-010 0.0
  1.3870134E-011 -3.2848797E-010 0.0
 -1.3648437E-010 -3.5082470E-010 0.0
 -2.8105088E-010 -3.7497423E-010 0.0
 -4.3560772E-009 -4.7548178E-009 0.0
 -4.6560523E-009 -4.7681225E-009 0.0
 -4.9383139E-009 -4.7853292E-009 0.0
 -5.2181812E-009 -4.8068691E-009 0.0
 -5.4965711E-009 -4.8322263E-009 0.0
 -5.7746639E-009 -4.8611459E-009 0.0
 -6.0535497E-009 -4.8933302E-009 0.0
 -6.3345432E-009 -4.9284109E-009 0.0
 -6.6190487E-009 -4.9658176E-009 0.0
 -6.9084188E-009 -5.0047017E-009 0.0
 -7.2035960E-009 -5.0441979E-009 0.0
 -7.5088783E-009 -5.0858445E-009 0.0
 -7.8360659E-009 -5.1274723E-009 0.0
 -8.1701849E-009 -5.1543679E-009 0.0
  3.0986152E-034 -3.7086754E-039 0.0
  5.5481239E-010 -1.6604942E-010 0.0
  6.8949953E-010 -1.6738266E-010 0.0
  6.6803767E-010 -1.7071392E-010 0.0
  5.8214932E-010 -1.7348291E-010 0.0
  4.5935322E-010 -1.7793010E-010 0.0
  3.1697826E-010 -1.8473415E-010 0.0
  1.6812878E-010 -1.9458131E-010 0.0
  2.5058185E-011 -2.0700910E-010 0.0
 -1.0128624E-010 -2.2025609E-010 0.0
 -2.1202109E-010 -2.4300527E-010 0.0
 -4.0263707E-009 -4.7578338E-009 0.0
 -4.0305196E-009 -4.4595545E-009 0.0
 -4.3208006E-009 -4.4702173E-009 0.0
 -4.6085232E-009 -4.4889799E-009 0.0
 -4.8866271E-009 -4.5101891E-009 0.0
 -5.1601886E-009 -4.5328288E-009 0.0
 -5.4321776E-009 -4.5582634E-009 0.0
 -5.7039050E-009 -4.5867678E-009 0.0
 -5.9767333E-009 -4.6183560E-009 0.0
 -6.2522419E-009 -4.6528495E-009 0.0
 -6.5323633E-009 -4.6897126E-009 0.0
 -6.8190687E-009 -4.7275751E-009 0.0
 -7.1140738E-009 -4.7637668E-009 0.0
 -7.4163232E-009 -4.7941292E-009 0.0
 -7.7557867E-009 -4.8185765E-009 0.0
 -8.1766325E-009 -4.8083088E-009 0.0
  2.4748814E-010 -3.0049578E-010 0.0
  4.3475363E-010 -2.7726415E-010 0.0
  5.4694430E-010 -2.1265438E-010 0.0
  5.5038089E-010 -1.6341872E-010 0.0
  4.8996458E-010 -1.3607327E-010 0.0
  3.9270124E-010 -1.2325540E-010 0.0
  2.7477002E-010 -1.2046209E-010 0.0
  1.4921057E-010 -1.2469860E-010 0.0
  2.7698061E-011 -1.3340832E-010 0.0
 -7.8907770E-011 -1.4393712E-010 0.0
 -1.4209826E-010 -1.5536361E-010 0.0
 -4.0167707E-009 -4.1923005E-009 0.0
 -4.2873317E-009 -4.2033181E-009 0.0
 -4.5631255E-009 -4.2203950E-009 0.0
 -4.8349162E-009 -4.2409235E-009 0.0
 -5.1025057E-009 -4.2638559E-009 0.0
 -5.3680647E-009 -4.2891483E-009 0.0
 -5.6332826E-009 -4.3171199E-009 0.0
 -5.8996676E-009 -4.3479237E-009 0.0
 -6.1690168E-009 -4.3816522E-009 0.0
 -6.4437725E-009 -4.4182852E-009 0.0
 -6.7273294E-009 -4.4570933E-009 0.0
 -7.0223943E-009 -4.4954144E-009 0.0
 -7.3293659E-009 -4.5290903E-009 0.0
 -7.6166248E-009 -4.5729827E-009 0.0
  3.1042259E-010 -2.8493375E-010 0.0
  3.4548407E-010 -2.6626631E-010 0.0
  4.1385675E-010 -2.1076497E-010 0.0
  4.3197216E-010 -1.5561865E-010 0.0
  3.9722840E-010 -1.1810328E-010 0.0
  3.2511328E-010 -9.7081986E-011 0.0
  2.3085435E-010 -8.8841525E-011 0.0
  1.2707831E-010 -9.0317776E-011 0.0
  2.5205738E-011 -9.9154759E-011 0.0
 -6.1590906E-011 -1.1432440E-010 0.0
 -1.1571301E-010 -1.3205500E-010 0.0
 -1.3370040E-010 -1.4214526E-010 0.0
 -1.3086057E-010 -1.5251459E-010 0.0
 -3.9927375E-009 -3.9348295E-009 0.0
 -4.2546582E-009 -3.9473354E-009 0.0
 -4.5212371E-009 -3.9612080E-009 0.0
 -4.7848070E-009 -3.9797691E-009 0.0
 -5.0455120E-009 -4.0017968E-009 0.0
 -5.3044058E-009 -4.0265091E-009 0.0
 -5.5629141E-009 -4.0536868E-009 0.0
 -5.8224970E-009 -4.0833938E-009 0.0
 -6.0849230E-009 -4.1158812E-009 0.0
 -6.3526705E-009 -4.1516794E-009 0.0
 -6.6299076E-009 -4.1919597E-009 0.0
 -6.9233261E-009 -4.2368792E-009 0.0
 -7.2311058E-009 -4.2831867E-009 0.0
 -7.5178528E-009 -4.3207952E-009 0.0
  2.8490627E-010 -2.2486694E-010 0.0
  2.6993268E-010 -1.9819389E-010 0.0
  3.0922528E-010 -1.6365888E-010 0.0
  3.3176293E-010 -1.3088686E-010 0.0
  3.1354519E-010 -1.0300918E-010 0.0
  2.6196511E-010 -8.4921438E-011 0.0
  1.8837229E-010 -7.7385662E-011 0.0
  1.0419108E-010 -7.9521717E-011 0.0
  2.0377604E-011 -8.9986934E-011 0.0
 -5.1738489E-011 -1.0646841E-010 0.0
 -1.0240147E-010 -1.2384781E-010 0.0
 -1.2748099E-010 -1.3552393E-010 0.0
 -3.9588884E-009 -3.6865887E-009 0.0
 -4.2245048E-009 -3.6951222E-009 0.0
 -4.4813375E-009 -3.7083267E-009 0.0
 -4.7363533E-009 -3.7262431E-009 0.0
 -4.9894420E-009 -3.7476861E-009 0.0
 -5.2413215E-009 -3.7717947E-009 0.0
 -5.4929486E-009 -3.7981167E-009 0.0
 -5.7455126E-009 -3.8265308E-009 0.0
 -6.0004987E-009 -3.8571823E-009 0.0
 -6.2600839E-009 -3.8906115E-009 0.0
 -6.5274418E-009 -3.9280641E-009 0.0
 -6.8115467E-009 -3.9742454E-009 0.0
 -7.1300452E-009 -4.0265721E-009 0.0
 -7.4589130E-009 -4.0629169E-009 0.0
  1.9264678E-010 -1.4682242E-010 0.0
  1.8972666E-010 -1.0562419E-010 0.0
  2.3856814E-010 -1.0860542E-010 0.0
  2.5665463E-010 -1.0153287E-010 0.0
  2.4590690E-010 -8.9823938E-011 0.0
  2.0782963E-010 -8.0565094E-011 0.0
  1.5034510E-010 -7.7808154E-011 0.0
  8.2466496E-011 -8.2868542E-011 0.0
  1.3348817E-011 -9.5255851E-011 0.0
 -4.8465463E-011 -1.1278147E-010 0.0
 -9.6186767E-011 -1.3156291E-010 0.0
 -1.2610384E-010 -1.4667290E-010 0.0
 -1.3698571E-010 -1.5309601E-010 0.0
 -1.3141797E-010 -1.3987512E-010 0.0
 -3.6800551E-009 -3.6880976E-009 0.0
 -3.6825870E-009 -3.4270460E-009 0.0
 -3.9388189E-009 -3.4328847E-009 0.0
 -4.1928458E-009 -3.4451887E-009 0.0
 -4.4418244E-009 -3.4615005E-009 0.0
 -4.6884541E-009 -3.4805947E-009 0.0
 -4.9339251E-009 -3.5023857E-009 0.0
 -5.1786767E-009 -3.5263619E-009 0.0
 -5.4233653E-009 -3.5521340E-009 0.0
 -5.6688577E-009 -3.5794959E-009 0.0
 -5.9163425E-009 -3.6083989E-009 0.0
 -6.1674346E-009 -3.6388628E-009 0.0
 -6.4253650E-009 -3.6708152E-009 0.0
 -6.6935519E-009 -3.7023731E-009 0.0
 -7.0211623E-009 -3.7334340E-009 0.0
 -7.4672885E-009 -3.7191593E-009 0.0
 -3.0281208E-039 -3.0281208E-039 0.0
  1.5535037E-010 -5.1569021E-011 0.0
  1.8884274E-010 -7.6163279E-011 0.0
  2.0359469E-010 -8.3397208E-011 0.0
  1.9415221E-010 -8.3374948E-011 0.0
  1.6413922E-010 -8.2627844E-011 0.0
  1.1822645E-010 -8.5581702E-011 0.0
  6.2973662E-011 -9.4381212E-011 0.0
  5.2720033E-012 -1.0926467E-010 0.0
 -4.8522061E-011 -1.2886926E-010 0.0
 -9.3472180E-011 -1.5047909E-010 0.0
 -1.2648996E-010 -1.7029489E-010 0.0
 -1.4657931E-010 -1.8356424E-010 0.0
 -1.3452625E-010 -1.8000841E-010 0.0
 -1.3155019E-010 -1.5812289E-010 0.0
 -3.6756540E-009 -3.1818202E-009 0.0
 -3.9186393E-009 -3.1905195E-009 0.0
 -4.1608091E-009 -3.2049783E-009 0.0
 -4.4012745E-009 -3.2233647E-009 0.0
 -4.6402261E-009 -3.2442570E-009 0.0
 -4.8783538E-009 -3.2670696E-009 0.0
 -5.1160996E-009 -3.2915131E-009 0.0
 -5.3538804E-009 -3.3173333E-009 0.0
 -5.5922894E-009 -3.3443923E-009 0.0
 -5.8321661E-009 -3.3726764E-009 0.0
 -6.0748691E-009 -3.4022692E-009 0.0
 -6.3219643E-009 -3.4334485E-009 0.0
 -6.5797913E-009 -3.4676472E-009 0.0
 -6.8246274E-009 -3.5276065E-009 0.0
 -5.2448590E-039 -5.2448590E-039 0.0
 -4.5320938E-012 -3.8574292E-011 0.0
  3.1842806E-011 -5.3914331E-011 0.0
  1.1178854E-010 -6.8100096E-011 0.0
  1.5295723E-010 -7.3687995E-011 0.0
  1.6284519E-010 -8.1014741E-011 0.0
  1.5440417E-010 -8.5686642E-011 0.0
  1.2950641E-010 -9.0441425E-011 0.0
  9.1933758E-011 -9.8059706E-011 0.0
  4.6268452E-011 -1.1038217E-010 0.0
 -2.4597441E-012 -1.2795782E-010 0.0
 -4.9586666E-011 -1.5015626E-010 0.0
 -9.1429606E-011 -1.7546914E-010 0.0
 -1.2578407E-010 -2.0202869E-010 0.0
 -1.5023174E-010 -2.2870898E-010 0.0
 -1.6705159E-010 -2.5174052E-010 0.0
 -3.4358473E-009 -3.1805093E-009 0.0
 -3.4400419E-009 -2.9359036E-009 0.0
 -3.6660272E-009 -2.9447665E-009 0.0
 -3.8962735E-009 -2.9581581E-009 0.0
 -4.1279704E-009 -2.9756216E-009 0.0
 -4.3597418E-009 -2.9961123E-009 0.0
 -4.5911649E-009 -3.0187476E-009 0.0
 -4.8222511E-009 -3.0429281E-009 0.0
 -5.0531532E-009 -3.0683463E-009 0.0
 -5.2840586E-009 -3.0948746E-009 0.0
 -5.5152421E-009 -3.1225526E-009 0.0
 -5.7471441E-009 -3.1516695E-009 0.0
 -5.9802775E-009 -3.1829727E-009 0.0
 -6.2154084E-009 -3.2181517E-009 0.0
 -6.4481848E-009 -3.2630104E-009 0.0
 -6.6654616E-009 -3.3182089E-009 0.0
 -3.7086754E-039 -3.7086754E-039 0.0
  3.6132437E-011 -4.1934826E-011 0.0
  8.6640178E-011 -6.9569034E-011 0.0
  1.1923412E-010 -8.1220752E-011 0.0
  1.2967003E-010 -8.7701291E-011 0.0
  1.2245352E-010 -9.4296949E-011 0.0
  1.0176579E-010 -1.0218983E-010 0.0
  7.0571289E-011 -1.1306121E-010 0.0
  3.2377183E-011 -1.2816193E-010 0.0
 -9.1181259E-012 -1.4804257E-010 0.0
 -5.0437480E-011 -1.7251753E-010 0.0
 -8.8792996E-011 -2.0086927E-010 0.0
 -1.2220132E-010 -2.3223176E-010 0.0
 -1.5013950E-010 -2.6520268E-010 0.0
 -1.7637517E-010 -2.9883259E-010 0.0
 -2.0482050E-010 -3.3691531E-010 0.0
 -1.8795609E-010 -2.6411956E-010 0.0
 -3.2234642E-009 -2.9321052E-009 0.0
 -3.2293823E-009 -2.6956337E-009 0.0
 -3.4368820E-009 -2.7060652E-009 0.0
 -3.6514677E-009 -2.7198307E-009 0.0
 -3.8711036E-009 -2.7372947E-009 0.0
 -4.0933950E-009 -2.7577810E-009 0.0
 -4.3169666E-009 -2.7805821E-009 0.0
 -4.5410555E-009 -2.8050704E-009 0.0
 -4.7652921E-009 -2.8308095E-009 0.0
 -4.9894878E-009 -2.8575662E-009 0.0
 -5.2135222E-009 -2.8853146E-009 0.0
 -5.4372904E-009 -2.9142757E-009 0.0
 -5.6606470E-009 -2.9450548E-009 0.0
 -5.8833091E-009 -2.9788683E-009 0.0
 -6.1038682E-009 -3.0180639E-009 0.0
 -6.3186166E-009 -3.0646999E-009 0.0
 -6.5217833E-009 -3.1188006E-009 0.0
 -3.7086754E-039  3.0986152E-034 0.0
  4.4405132E-011 -4.8165035E-011 0.0
  7.2417618E-011 -7.4371291E-011 0.0
  9.3879964E-011 -8.8249265E-011 0.0
  1.0189223E-010 -9.7087394E-011 0.0
  9.6273829E-011 -1.0535229E-010 0.0
  7.9153139E-011 -1.1541446E-010 0.0
  5.3136519E-011 -1.2851729E-010 0.0
  2.0937863E-011 -1.4556727E-010 0.0
 -1.4617899E-011 -1.6702021E-010 0.0
 -5.0896515E-011 -1.9286372E-010 0.0
 -8.5745209E-011 -2.2270052E-010 0.0
 -1.1785692E-010 -2.5578904E-010 0.0
 -1.4749060E-010 -2.9122837E-010 0.0
 -1.7667953E-010 -3.2860844E-010 0.0
 -2.1257558E-010 -3.6633901E-010 0.0
 -2.6883362E-010 -4.0666934E-010 0.0
 -2.8958816E-010 -4.0414800E-010 0.0
 -3.1143293E-010 -4.5999212E-010 0.0
 -2.9725875E-010 -4.0676883E-010 0.0
 -3.0287671E-009 -2.6896769E-009 0.0
 -3.0371602E-009 -2.4556679E-009 0.0
 -3.2284557E-009 -2.4703614E-009 0.0
 -3.4269618E-009 -2.4876012E-009 0.0
 -3.6322691E-009 -2.5070177E-009 0.0
 -3.8427349E-009 -2.5285561E-009 0.0
 -4.0566407E-009 -2.5520962E-009 0.0
 -4.2726006E-009 -2.5772656E-009 0.0
 -4.4896895E-009 -2.6037002E-009 0.0
 -4.7072794E-009 -2.6311319E-009 0.0
 -4.9249000E-009 -2.6594406E-009 0.0
 -5.1421137E-009 -2.6886882E-009 0.0
 -5.3584044E-009 -2.7191852E-009 0.0
 -5.5730456E-009 -2.7516140E-009 0.0
 -5.7848965E-009 -2.7872531E-009 0.0
 -5.9922281E-009 -2.8277665E-009 0.0
 -6.1928204E-009 -2.8745196E-009 0.0
 -6.3847938E-009 -2.9270277E-009 0.0
  8.0213252E-012 -8.0807882E-011 0.0
  3.7529498E-011 -7.6423176E-011 0.0
  5.9180128E-011 -8.5006504E-011 0.0
  7.3954995E-011 -9.5961209E-011 0.0
  7.9546326E-011 -1.0593227E-010 0.0
  7.4811059E-011 -1.1611066E-010 0.0
  6.0633893E-011 -1.2800126E-010 0.0
  3.8806458E-011 -1.4273233E-010 0.0
  1.1454536E-011 -1.6102598E-010 0.0
 -1.9245739E-011 -1.8326312E-010 0.0
 -5.1281950E-011 -2.0947027E-010 0.0
 -8.3075300E-011 -2.3933560E-010 0.0
 -1.1382518E-010 -2.7227008E-010 0.0
 -1.4386513E-010 -3.0755764E-010 0.0
 -1.7540201E-010 -3.4432608E-010 0.0
 -2.1325870E-010 -3.8297940E-010 0.0
 -2.5778920E-010 -4.2828156E-010 0.0
 -3.0490134E-010 -4.7852222E-010 0.0
 -3.6346581E-010 -5.3430062E-010 0.0
 -3.8933214E-010 -5.3000469E-010 0.0
 -4.0355337E-010 -6.0665744E-010 0.0
 -3.8877754E-010 -5.2946132E-010 0.0
 -2.8455788E-009 -2.4492152E-009 0.0
 -2.8570285E-009 -2.2011448E-009 0.0
 -3.0353216E-009 -2.2313463E-009 0.0
 -3.2193961E-009 -2.2575934E-009 0.0
 -3.4106098E-009 -2.2823038E-009 0.0
 -3.6082363E-009 -2.3070239E-009 0.0
 -3.8109946E-009 -2.3324916E-009 0.0
 -4.0174761E-009 -2.3589611E-009 0.0
 -4.2264485E-009 -2.3864323E-009 0.0
 -4.4369224E-009 -2.4147923E-009 0.0
 -4.6481125E-009 -2.4439455E-009 0.0
 -4.8593337E-009 -2.4738800E-009 0.0
 -5.0698857E-009 -2.5047121E-009 0.0
 -5.2789120E-009 -2.5367287E-009 0.0
 -5.4852225E-009 -2.5704573E-009 0.0
 -5.6870739E-009 -2.6067444E-009 0.0
 -5.8825263E-009 -2.6470497E-009 0.0
 -6.0704560E-009 -2.6927108E-009 0.0
 -6.2516954E-009 -2.7440424E-009 0.0
  2.6205149E-012 -6.6590469E-011 0.0
  2.4391749E-011 -7.9057334E-011 0.0
  4.5104458E-011 -9.0062676E-011 0.0
  5.7491142E-011 -1.0144987E-010 0.0
  6.1700898E-011 -1.1301073E-010 0.0
  5.7524867E-011 -1.2509466E-010 0.0
  4.5530447E-011 -1.3866247E-010 0.0
  2.6973904E-011 -1.5461573E-010 0.0
  3.4515914E-012 -1.7359876E-010 0.0
 -2.3369678E-011 -1.9595184E-010 0.0
 -5.1975624E-011 -2.2171457E-010 0.0
 -8.1232251E-011 -2.5064942E-010 0.0
 -1.1063553E-010 -2.8231385E-010 0.0
 -1.4060977E-010 -3.1618448E-010 0.0
 -1.7273265E-010 -3.5209856E-010 0.0
 -2.0872246E-010 -3.9111724E-010 0.0
 -2.4921084E-010 -4.3447088E-010 0.0
 -2.9449542E-010 -4.8363094E-010 0.0
 -3.4233854E-010 -5.4222922E-010 0.0
 -3.9086904E-010 -6.0728699E-010 0.0
 -4.6798406E-010 -6.7235208E-010 0.0
 -5.0375179E-010 -7.3282760E-010 0.0
 -5.6369584E-010 -7.4930194E-010 0.0
 -5.9507981E-010 -8.2480622E-010 0.0
 -6.6174224E-010 -8.2329277E-010 0.0
 -6.9072074E-010 -8.9610330E-010 0.0
 -7.5682680E-010 -8.9822897E-010 0.0
 -7.8476734E-010 -9.4160354E-010 0.0
 -8.2969380E-010 -9.7942902E-010 0.0
 -8.1822453E-010 -9.3605089E-010 0.0
 -2.5451485E-009 -2.1490019E-009 0.0
 -2.5564461E-009 -1.9096946E-009 0.0
 -2.7098716E-009 -1.9616129E-009 0.0
 -2.7293226E-009 -2.1491685E-009 0.0
 -2.8565159E-009 -1.9983175E-009 0.0
 -3.0243954E-009 -2.0310028E-009 0.0
 -3.2031688E-009 -2.0625394E-009 0.0
 -3.3885490E-009 -2.0922205E-009 0.0
 -3.5798355E-009 -2.1209928E-009 0.0
 -3.7759985E-009 -2.1496441E-009 0.0
 -3.9759107E-009 -2.1786246E-009 0.0
 -4.1784809E-009 -2.2081357E-009 0.0
 -4.3827332E-009 -2.2382537E-009 0.0
 -4.5877965E-009 -2.2690241E-009 0.0
 -4.7928434E-009 -2.3005270E-009 0.0
 -4.9969935E-009 -2.3329107E-009 0.0
 -5.1991858E-009 -2.3663983E-009 0.0
 -5.3979813E-009 -2.4012539E-009 0.0
 -5.5913711E-009 -2.4377659E-009 0.0
 -5.7762607E-009 -2.4763876E-009 0.0
 -5.9513220E-009 -2.5200194E-009 0.0
 -6.1205615E-009 -2.5698398E-009 0.0
  8.3057952E-012 -6.5005242E-011 0.0
 -3.7086754E-039 -3.7086754E-039 0.0
  5.7263183E-012 -3.9984901E-011 0.0
  2.0731887E-011 -6.8828059E-011 0.0
  3.5074106E-011 -8.8384219E-011 0.0
  4.4870007E-011 -1.0377120E-010 0.0
  4.7852381E-011 -1.1783705E-010 0.0
  4.3854499E-011 -1.3187837E-010 0.0
  3.3316531E-011 -1.4688557E-010 0.0
  1.7149156E-011 -1.6369755E-010 0.0
 -3.4702393E-012 -1.8291698E-010 0.0
 -2.7299865E-011 -2.0487506E-010 0.0
 -5.3221136E-011 -2.2963743E-010 0.0
 -8.0421024E-011 -2.5704577E-010 0.0
 -1.0857235E-010 -2.8680281E-010 0.0
 -1.3796969E-010 -3.1865344E-010 0.0
 -1.6940791E-010 -3.5268594E-010 0.0
 -2.0380020E-010 -3.8941223E-010 0.0
 -2.4176538E-010 -4.2974364E-010 0.0
 -2.8322903E-010 -4.7477104E-010 0.0
 -3.2826539E-010 -5.2419810E-010 0.0
 -3.8164406E-010 -5.7580220E-010 0.0
 -4.5095636E-010 -6.3190012E-010 0.0
 -5.3519093E-010 -6.9446552E-010 0.0
 -6.2687804E-010 -7.6619594E-010 0.0
 -7.1734171E-010 -8.4585962E-010 0.0
 -8.0778453E-010 -9.2888364E-010 0.0
 -9.3541863E-010 -1.0070731E-009 0.0
 -9.7851802E-010 -1.1250747E-009 0.0
 -1.0935174E-009 -1.0963871E-009 0.0
 -1.1310327E-009 -1.2379174E-009 0.0
 -1.2603297E-009 -1.1805356E-009 0.0
 -1.2943352E-009 -1.3319959E-009 0.0
 -1.4317739E-009 -1.2574601E-009 0.0
 -1.4615711E-009 -1.4124035E-009 0.0
 -1.6017945E-009 -1.3273231E-009 0.0
 -1.6278377E-009 -1.4809490E-009 0.0
 -1.7648961E-009 -1.3911138E-009 0.0
 -1.7880350E-009 -1.5399813E-009 0.0
 -1.9170896E-009 -1.4505227E-009 0.0
 -1.9386090E-009 -1.5927538E-009 0.0
 -2.0570899E-009 -1.5076051E-009 0.0
 -2.0783214E-009 -1.6430804E-009 0.0
 -2.1862066E-009 -1.5643700E-009 0.0
 -2.2082210E-009 -1.6946522E-009 0.0
 -2.3072758E-009 -1.6222079E-009 0.0
 -2.3302434E-009 -1.7509841E-009 0.0
 -2.4222973E-009 -1.6810235E-009 0.0
 -2.4484905E-009 -1.8181614E-009 0.0
 -2.5470831E-009 -1.7296348E-009 0.0
 -2.6939932E-009 -1.7766764E-009 0.0
 -2.8468483E-009 -1.8182161E-009 0.0
 -3.0094467E-009 -1.8532710E-009 0.0
 -3.1822767E-009 -1.8862949E-009 0.0
 -3.3622698E-009 -1.9182896E-009 0.0
 -3.5479048E-009 -1.9494663E-009 0.0
 -3.7382069E-009 -1.9802789E-009 0.0
 -3.9321816E-009 -2.0111091E-009 0.0
 -4.1288405E-009 -2.0422170E-009 0.0
 -4.3272329E-009 -2.0737743E-009 0.0
 -4.5264460E-009 -2.1059194E-009 0.0
 -4.7255654E-009 -2.1388025E-009 0.0
 -4.9236073E-009 -2.1726090E-009 0.0
 -5.1194221E-009 -2.2075466E-009 0.0
 -5.3115735E-009 -2.2437660E-009 0.0
 -5.4979981E-009 -2.2811433E-009 0.0
 -5.6757572E-009 -2.3190313E-009 0.0
 -5.8368244E-009 -2.3564840E-009 0.0
 -5.9872052E-009 -2.4065028E-009 0.0
 -3.7086754E-039 -3.7086754E-039 0.0
  1.5087341E-011 -3.8086767E-011 0.0
  2.0843468E-011 -6.4639487E-011 0.0
  2.9918286E-011 -8.6266234E-011 0.0
  3.6248230E-011 -1.0465488E-010 0.0
  3.7560306E-011 -1.2101415E-010 0.0
  3.3218255E-011 -1.3667603E-010 0.0
  2.3455324E-011 -1.5271720E-010 0.0
  8.8906377E-012 -1.6997420E-010 0.0
 -9.6451424E-012 -1.8903002E-010 0.0
 -3.1261494E-011 -2.1020988E-010 0.0
 -5.5153325E-011 -2.3360432E-010 0.0
 -8.0738411E-011 -2.5912070E-010 0.0
 -1.0777046E-010 -2.8657401E-010 0.0
 -1.3637707E-010 -3.1582335E-010 0.0
 -1.6698364E-010 -3.4689844E-010 0.0
 -2.0012747E-010 -3.8007010E-010 0.0
 -2.3625438E-010 -4.1575895E-010 0.0
 -2.7585559E-010 -4.5415632E-010 0.0
 -3.2040549E-010 -4.9495932E-010 0.0
 -3.7291179E-010 -5.3836946E-010 0.0
 -4.3665627E-010 -5.8575641E-010 0.0
 -5.1162382E-010 -6.3985249E-010 0.0
 -5.9468671E-010 -7.0161956E-010 0.0
 -6.8371006E-010 -7.6897311E-010 0.0
 -7.8530824E-010 -8.3632054E-010 0.0
 -9.1136603E-010 -9.0462276E-010 0.0
 -1.0626045E-009 -9.7476717E-010 0.0
 -1.2300716E-009 -1.0476401E-009 0.0
 -1.4037294E-009 -1.1191304E-009 0.0
 -1.5766143E-009 -1.1876735E-009 0.0
 -1.7423973E-009 -1.2526122E-009 0.0
 -1.8960877E-009 -1.3140457E-009 0.0
 -2.0362589E-009 -1.3732495E-009 0.0
 -2.1655599E-009 -1.4306239E-009 0.0
 -2.2878377E-009 -1.4854395E-009 0.0
 -2.4095072E-009 -1.5347855E-009 0.0
 -2.5386753E-009 -1.5789973E-009 0.0
 -2.6800073E-009 -1.6192234E-009 0.0
 -2.8313092E-009 -1.6575571E-009 0.0
 -2.9908549E-009 -1.6933374E-009 0.0
 -3.1584682E-009 -1.7271247E-009 0.0
 -3.3330905E-009 -1.7599579E-009 0.0
 -3.5133655E-009 -1.7922344E-009 0.0
 -3.6982196E-009 -1.8242085E-009 0.0
 -3.8866842E-009 -1.8561500E-009 0.0
 -4.0778077E-009 -1.8882978E-009 0.0
 -4.2706519E-009 -1.9208542E-009 0.0
 -4.4642793E-009 -1.9540035E-009 0.0
 -4.6577215E-009 -1.9879384E-009 0.0
 -4.8499294E-009 -2.0228850E-009 0.0
 -5.0397199E-009 -2.0591111E-009 0.0
 -5.2256927E-009 -2.0968954E-009 0.0
 -5.4062008E-009 -2.1363909E-009 0.0
 -5.5783352E-009 -2.1770760E-009 0.0
 -5.7375921E-009 -2.2160854E-009 0.0
 -5.8421935E-009 -2.2497428E-009 0.0
  4.1202206E-012 -5.2863691E-011 0.0
  1.0614854E-011 -4.9307645E-011 0.0
  2.0117250E-011 -6.5405622E-011 0.0
  2.7097719E-011 -8.6474542E-011 0.0
  3.0648232E-011 -1.0595147E-010 0.0
  3.0019197E-011 -1.2348673E-010 0.0
  2.4903215E-011 -1.3999022E-010 0.0
  1.5366611E-011 -1.5646670E-010 0.0
  1.7677285E-012 -1.7370206E-010 0.0
 -1.5360256E-011 -1.9222917E-010 0.0
 -3.5416474E-011 -2.1234364E-010 0.0
 -5.7843236E-011 -2.3413748E-010 0.0
 -8.2226801E-011 -2.5755116E-010 0.0
 -1.0836884E-010 -2.8244640E-010 0.0
 -1.3630775E-010 -3.0869033E-010 0.0
 -1.6627784E-010 -3.3622881E-010 0.0
 -1.9862927E-010 -3.6510557E-010 0.0
 -2.3380750E-010 -3.9539185E-010 0.0
 -2.7253648E-010 -4.2709997E-010 0.0
 -3.1609750E-010 -4.6033491E-010 0.0
 -3.6636377E-010 -4.9565085E-010 0.0
 -4.2504041E-010 -5.3445924E-010 0.0
 -4.9277395E-010 -5.7833249E-010 0.0
 -5.6969020E-010 -6.2781563E-010 0.0
 -6.5772893E-010 -6.8132667E-010 0.0
 -7.6188602E-010 -7.3702666E-010 0.0
 -8.8786950E-010 -7.9443345E-010 0.0
 -1.0368918E-009 -8.5521381E-010 0.0
 -1.2033308E-009 -9.1885573E-010 0.0
 -1.3777945E-009 -9.8557084E-010 0.0
 -1.5530510E-009 -1.0538371E-009 0.0
 -1.7222741E-009 -1.1204363E-009 0.0
 -1.8780581E-009 -1.1840570E-009 0.0
 -2.0177017E-009 -1.2443465E-009 0.0
 -2.1474441E-009 -1.3020788E-009 0.0
 -2.2729309E-009 -1.3542344E-009 0.0
 -2.3981618E-009 -1.4002561E-009 0.0
 -2.5282800E-009 -1.4412815E-009 0.0
 -2.6668074E-009 -1.4791507E-009 0.0
 -2.8140983E-009 -1.5150657E-009 0.0
 -2.9695299E-009 -1.5496789E-009 0.0
 -3.1323883E-009 -1.5832473E-009 0.0
 -3.3018696E-009 -1.6161084E-009 0.0
 -3.4769655E-009 -1.6485788E-009 0.0
 -3.6566304E-009 -1.6808785E-009 0.0
 -3.8398759E-009 -1.7132159E-009 0.0
 -4.0257491E-009 -1.7458030E-009 0.0
 -4.2133099E-009 -1.7788419E-009 0.0
 -4.4016054E-009 -1.8125254E-009 0.0
 -4.5896328E-009 -1.8470513E-009 0.0
 -4.7762929E-009 -1.8826499E-009 0.0
 -4.9603411E-009 -1.9196268E-009 0.0
 -5.1403771E-009 -1.9584332E-009 0.0
 -5.3147311E-009 -1.9997817E-009 0.0
 -5.4818876E-009 -2.0448209E-009 0.0
 -5.6369083E-009 -2.0949912E-009 0.0
 -5.7676177E-009 -2.1412004E-009 0.0
 -5.8776234E-009 -2.1635936E-009 0.0
 -5.8655754E-009 -2.2466672E-009 0.0
 -3.7086754E-039 -3.7086754E-039 0.0
  7.7760601E-012 -3.7707170E-011 0.0
  2.0522170E-011 -6.6243164E-011 0.0
  2.5709959E-011 -8.9061175E-011 0.0
  2.6681932E-011 -1.0851095E-010 0.0
  2.4147632E-011 -1.2586440E-010 0.0
  1.8084330E-011 -1.4222039E-010 0.0
  8.4507106E-012 -1.5845503E-010 0.0
 -4.6255580E-012 -1.7520849E-010 0.0
 -2.0857305E-011 -1.9289934E-010 0.0
 -3.9874785E-011 -2.1175127E-010 0.0
 -6.1312175E-011 -2.3182426E-010 0.0
 -8.4884553E-011 -2.5305449E-010 0.0
 -1.1044082E-010 -2.7530335E-010 0.0
 -1.3798281E-010 -2.9840939E-010 0.0
 -1.6765205E-010 -3.2222779E-010 0.0
 -1.9970879E-010 -3.4664221E-010 0.0
 -2.3454996E-010 -3.7155808E-010 0.0
 -2.7278223E-010 -3.9693734E-010 0.0
 -3.1529493E-010 -4.2292580E-010 0.0
 -3.6318024E-010 -4.5007484E-010 0.0
 -4.1753409E-010 -4.7939636E-010 0.0
 -4.7954213E-010 -5.1206356E-010 0.0
 -5.5123201E-010 -5.4864358E-010 0.0
 -6.3638744E-010 -5.8881866E-010 0.0
 -7.3994933E-010 -6.3145252E-010 0.0
 -8.6520128E-010 -6.7629931E-010 0.0
 -1.0122550E-009 -7.2537933E-010 0.0
 -1.1797986E-009 -7.8163349E-010 0.0
 -1.3533333E-009 -8.4278068E-010 0.0
 -1.5265040E-009 -9.1530419E-010 0.0
 -1.7027425E-009 -9.9349249E-010 0.0
 -1.8639287E-009 -1.0612211E-009 0.0
 -1.9988046E-009 -1.1283519E-009 0.0
 -2.1319190E-009 -1.1875680E-009 0.0
 -2.2609097E-009 -1.2362097E-009 0.0
 -2.3872860E-009 -1.2790951E-009 0.0
 -2.5168100E-009 -1.3178208E-009 0.0
 -2.6525856E-009 -1.3535507E-009 0.0
 -2.7957812E-009 -1.3876301E-009 0.0
 -2.9465756E-009 -1.4208100E-009 0.0
 -3.1046066E-009 -1.4534217E-009 0.0
 -3.2691510E-009 -1.4856304E-009 0.0
 -3.4392762E-009 -1.5176005E-009 0.0
 -3.6139672E-009 -1.5495193E-009 0.0
 -3.7922197E-009 -1.5815869E-009 0.0
 -3.9730694E-009 -1.6140087E-009 0.0
 -4.1555765E-009 -1.6469805E-009 0.0
 -4.3387902E-009 -1.6806781E-009 0.0
 -4.5217004E-009 -1.7152594E-009 0.0
 -4.7031803E-009 -1.7508827E-009 0.0
 -4.8819325E-009 -1.7877479E-009 0.0
 -5.0564344E-009 -1.8261765E-009 0.0
 -5.2250635E-009 -1.8667433E-009 0.0
 -5.3858256E-009 -1.9104771E-009 0.0
 -5.5401830E-009 -1.9585153E-009 0.0
 -5.6995966E-009 -2.0027010E-009 0.0
 -5.8681723E-009 -2.0242459E-009 0.0
 -3.7086754E-039 -3.7086754E-039 0.0
  1.9041172E-011 -4.4837739E-011 0.0
  2.3495975E-011 -7.4605520E-011 0.0
  2.4587366E-011 -9.5221651E-011 0.0
  2.2954586E-011 -1.1236868E-010 0.0
  1.8828530E-011 -1.2811728E-010 0.0
  1.1975371E-011 -1.4342528E-010 0.0
  2.1741700E-012 -1.5885179E-010 0.0
 -1.0624411E-011 -1.7477116E-010 0.0
 -2.6312550E-011 -1.9142132E-010 0.0
 -4.4687991E-011 -2.0891609E-010 0.0
 -6.5526024E-011 -2.2725658E-010 0.0
 -8.8640991E-011 -2.4635020E-010 0.0
 -1.1392865E-010 -2.6603695E-010 0.0
 -1.4138573E-010 -2.8611764E-010 0.0
 -1.7111081E-010 -3.0637647E-010 0.0
 -2.0329984E-010 -3.2659543E-010 0.0
 -2.3825002E-010 -3.4657273E-010 0.0
 -2.7637100E-010 -3.6616803E-010 0.0
 -3.1817386E-010 -3.8539387E-010 0.0
 -3.6423181E-010 -4.0451809E-010 0.0
 -4.1520395E-010 -4.2412041E-010 0.0
 -4.7228710E-010 -4.4511233E-010 0.0
 -5.3852034E-010 -4.6852774E-010 0.0
 -6.1933523E-010 -4.9434925E-010 0.0
 -7.2134293E-010 -5.2184166E-010 0.0
 -8.4742984E-010 -5.4900272E-010 0.0
 -9.9295426E-010 -5.7697078E-010 0.0
 -1.1604756E-009 -6.1061382E-010 0.0
 -1.3251566E-009 -6.8169331E-010 0.0
 -1.4958950E-009 -7.5801444E-010 0.0
 -1.6670366E-009 -8.4890969E-010 0.0
 -1.8493066E-009 -9.7129891E-010 0.0
 -1.9778591E-009 -1.0409641E-009 0.0
 -2.1231814E-009 -1.0911678E-009 0.0
 -2.2520780E-009 -1.1344788E-009 0.0
 -2.3774223E-009 -1.1738777E-009 0.0
 -2.5052884E-009 -1.2091225E-009 0.0
 -2.6377039E-009 -1.2420041E-009 0.0
 -2.7764370E-009 -1.2738935E-009 0.0
 -2.9224076E-009 -1.3053782E-009 0.0
 -3.0756110E-009 -1.3365832E-009 0.0
 -3.2353920E-009 -1.3675475E-009 0.0
 -3.4007774E-009 -1.3983784E-009 0.0
 -3.5707109E-009 -1.4292633E-009 0.0
 -3.7441668E-009 -1.4604262E-009 0.0
 -3.9201800E-009 -1.4920893E-009 0.0
 -4.0978304E-009 -1.5244467E-009 0.0
 -4.2762013E-009 -1.5576455E-009 0.0
 -4.4543218E-009 -1.5917719E-009 0.0
 -4.6310981E-009 -1.6268449E-009 0.0
 -4.8052406E-009 -1.6628196E-009 0.0
 -4.9752487E-009 -1.6995835E-009 0.0
 -5.1394273E-009 -1.7368939E-009 0.0
 -5.2969944E-009 -1.7739278E-009 0.0
 -5.4489606E-009 -1.8078363E-009 0.0
 -5.6308942E-009 -1.8360226E-009 0.0
 -5.8784809E-009 -1.8322561E-009 0.0
 -2.3666720E-012 -8.4350563E-011 0.0
  2.1840018E-011 -8.2461843E-011 0.0
  2.2902413E-011 -9.1491723E-011 0.0
  2.1213242E-011 -1.0350745E-010 0.0
  1.8124496E-011 -1.1618929E-010 0.0
  1.3237819E-011 -1.2946873E-010 0.0
  6.0292117E-012 -1.4328780E-010 0.0
 -3.8190069E-012 -1.5764637E-010 0.0
 -1.6437533E-011 -1.7258215E-010 0.0
 -3.1810995E-011 -1.8813011E-010 0.0
 -4.9837555E-011 -2.0428611E-010 0.0
 -7.0385954E-011 -2.2098704E-010 0.0
 -9.3343045E-011 -2.3810682E-010 0.0
 -1.1864685E-010 -2.5546304E-010 0.0
 -1.4630373E-010 -2.7282868E-010 0.0
 -1.7639198E-010 -2.8994389E-010 0.0
 -2.0905613E-010 -3.0652726E-010 0.0
 -2.4449505E-010 -3.2229166E-010 0.0
 -2.8293903E-010 -3.3697304E-010 0.0
 -3.2461208E-010 -3.5037282E-010 0.0
 -3.6969892E-010 -3.6240640E-010 0.0
 -4.1843385E-010 -3.7315366E-010 0.0
 -4.7142552E-010 -3.8292920E-010 0.0
 -5.3123557E-010 -3.9292184E-010 0.0
 -6.0674111E-010 -4.0436507E-010 0.0
 -7.0817705E-010 -4.1241138E-010 0.0
 -8.4106530E-010 -4.1437687E-010 0.0
 -9.8486204E-010 -4.1645415E-010 0.0
 -1.1600039E-009 -4.0947337E-010 0.0
 -1.8627695E-009 -9.5333290E-010 0.0
 -1.9530373E-009 -9.5205933E-010 0.0
 -2.1248752E-009 -1.0167676E-009 0.0
 -2.2468166E-009 -1.0542288E-009 0.0
 -2.3706928E-009 -1.0861023E-009 0.0
 -2.4953226E-009 -1.1152027E-009 0.0
 -2.6229165E-009 -1.1439346E-009 0.0
 -2.7563498E-009 -1.1730971E-009 0.0
 -2.8972620E-009 -1.2025162E-009 0.0
 -3.0457632E-009 -1.2318493E-009 0.0
 -3.2010368E-009 -1.2609668E-009 0.0
 -3.3619404E-009 -1.2899962E-009 0.0
 -3.5273311E-009 -1.3191885E-009 0.0
 -3.6961610E-009 -1.3488200E-009 0.0
 -3.8674831E-009 -1.3791449E-009 0.0
 -4.0404265E-009 -1.4103648E-009 0.0
 -4.2141513E-009 -1.4426022E-009 0.0
 -4.3877862E-009 -1.4758714E-009 0.0
 -4.5603511E-009 -1.5100464E-009 0.0
 -4.7306818E-009 -1.5448261E-009 0.0
 -4.8973812E-009 -1.5796952E-009 0.0
 -5.0590500E-009 -1.6138406E-009 0.0
 -5.2146150E-009 -1.6461498E-009 0.0
 -5.3674496E-009 -1.6758413E-009 0.0
 -5.5074831E-009 -1.7158881E-009 0.0
  5.2612995E-012 -1.0197290E-010 0.0
  1.2734362E-011 -1.0334248E-010 0.0
  1.5483040E-011 -1.0317124E-010 0.0
  1.4417826E-011 -1.0827950E-010 0.0
  1.1844378E-011 -1.1739206E-010 0.0
  7.1912607E-012 -1.2871990E-010 0.0
  1.0617279E-013 -1.4132661E-010 0.0
 -9.6334857E-012 -1.5475449E-010 0.0
 -2.2115506E-011 -1.6878911E-010 0.0
 -3.7335175E-011 -1.8331945E-010 0.0
 -5.5232743E-011 -1.9825828E-010 0.0
 -7.5730735E-011 -2.1349915E-010 0.0
 -9.8765442E-011 -2.2889642E-010 0.0
 -1.2430954E-010 -2.4425941E-010 0.0
 -1.5238393E-010 -2.5935384E-010 0.0
 -1.8305863E-010 -2.7390608E-010 0.0
 -2.1644266E-010 -2.8760816E-010 0.0
 -2.5266151E-010 -3.0012401E-010 0.0
 -2.9181846E-010 -3.1109742E-010 0.0
 -3.3393887E-010 -3.2016197E-010 0.0
 -3.7891703E-010 -3.2695537E-010 0.0
 -4.2651351E-010 -3.3116417E-010 0.0
 -4.7670719E-010 -3.3261279E-010 0.0
 -5.2986574E-010 -3.3108973E-010 0.0
 -5.9473521E-010 -3.2813844E-010 0.0
 -7.0392216E-010 -3.2075615E-010 0.0
 -2.1396676E-009 -9.8606392E-010 0.0
 -2.2503530E-009 -9.9556536E-010 0.0
 -2.3701449E-009 -1.0134857E-009 0.0
 -2.4884409E-009 -1.0344217E-009 0.0
 -2.6086772E-009 -1.0584261E-009 0.0
 -2.7356010E-009 -1.0846424E-009 0.0
 -2.8713302E-009 -1.1116623E-009 0.0
 -3.0154629E-009 -1.1384854E-009 0.0
 -3.1665813E-009 -1.1650011E-009 0.0
 -3.3232734E-009 -1.1914928E-009 0.0
 -3.4843128E-009 -1.2183096E-009 0.0
 -3.6486455E-009 -1.2457868E-009 0.0
 -3.8153662E-009 -1.2742117E-009 0.0
 -3.9836826E-009 -1.3038008E-009 0.0
 -4.1528711E-009 -1.3346704E-009 0.0
 -4.3222178E-009 -1.3667971E-009 0.0
 -4.4909368E-009 -1.3999668E-009 0.0
 -4.6580667E-009 -1.4337274E-009 0.0
 -4.8223873E-009 -1.4673743E-009 0.0
 -4.9823459E-009 -1.5000911E-009 0.0
 -5.1364266E-009 -1.5314547E-009 0.0
 -5.2806815E-009 -1.5640400E-009 0.0
 -5.4062107E-009 -1.5997204E-009 0.0
  1.3254726E-011 -9.9007195E-011 0.0
  5.1642347E-012 -9.9834831E-011 0.0
  5.0311644E-012 -9.9894447E-011 0.0
  6.4255940E-012 -1.0510372E-010 0.0
  5.2044317E-012 -1.1403520E-010 0.0
  1.2449287E-012 -1.2506496E-010 0.0
 -5.5331809E-012 -1.3727799E-010 0.0
 -1.5142052E-011 -1.5019646E-010 0.0
 -2.7570727E-011 -1.6357348E-010 0.0
 -4.2782373E-011 -1.7726940E-010 0.0
 -6.0726507E-011 -1.9117929E-010 0.0
 -8.1354641E-011 -2.0519158E-010 0.0
 -1.0463629E-010 -2.1916665E-010 0.0
 -1.3057119E-010 -2.3292769E-010 0.0
 -1.5919487E-010 -2.4625851E-010 0.0
 -1.9057571E-010 -2.5890429E-010 0.0
 -2.2480114E-010 -2.7057277E-010 0.0
 -2.6194992E-010 -2.8093397E-010 0.0
 -3.0204528E-010 -2.8961729E-010 0.0
 -3.4498254E-010 -2.9620660E-010 0.0
 -3.9042413E-010 -3.0024913E-010 0.0
 -4.3766466E-010 -3.0132910E-010 0.0
 -4.8541826E-010 -2.9948340E-010 0.0
 -5.3256376E-010 -2.9629321E-010 0.0
 -5.6947953E-010 -3.0016569E-010 0.0
 -2.2629838E-009 -9.3898250E-010 0.0
 -2.3764951E-009 -9.4980883E-010 0.0
 -2.4850190E-009 -9.6481120E-010 0.0
 -2.5944311E-009 -9.8476462E-010 0.0
 -2.7138203E-009 -1.0085147E-009 0.0
 -2.8449635E-009 -1.0324246E-009 0.0
 -2.9853015E-009 -1.0556475E-009 0.0
 -3.1326193E-009 -1.0786190E-009 0.0
 -3.2853284E-009 -1.1017822E-009 0.0
 -3.4421525E-009 -1.1255494E-009 0.0
 -3.6020596E-009 -1.1502787E-009 0.0
 -3.7642033E-009 -1.1762719E-009 0.0
 -3.9278872E-009 -1.2037610E-009 0.0
 -4.0925299E-009 -1.2328810E-009 0.0
 -4.2576156E-009 -1.2636236E-009 0.0
 -4.4226117E-009 -1.2957747E-009 0.0
 -4.5868327E-009 -1.3288542E-009 0.0
 -4.7492113E-009 -1.3621205E-009 0.0
 -4.9079891E-009 -1.3947574E-009 0.0
 -5.0599214E-009 -1.4265819E-009 0.0
 -5.1994418E-009 -1.4581737E-009 0.0
 -5.3188558E-009 -1.4908039E-009 0.0
  1.5351395E-011 -7.6978235E-011 0.0
 -4.2981582E-012 -7.3916693E-011 0.0
 -1.4442210E-012 -8.3083809E-011 0.0
  5.8655047E-013 -9.4570788E-011 0.0
 -3.5463970E-014 -1.0645327E-010 0.0
 -3.7328759E-012 -1.1875757E-010 0.0
 -1.0447978E-011 -1.3138387E-010 0.0
 -2.0109443E-011 -1.4422629E-010 0.0
 -3.2648526E-011 -1.5720705E-010 0.0
 -4.8009075E-011 -1.7026799E-010 0.0
 -6.6147517E-011 -1.8334933E-010 0.0
 -8.7036701E-011 -1.9637247E-010 0.0
 -1.1067133E-010 -2.0922976E-010 0.0
 -1.3707237E-010 -2.2178034E-010 0.0
 -1.6628760E-010 -2.3385002E-010 0.0
 -1.9838529E-010 -2.4523309E-010 0.0
 -2.3343827E-010 -2.5569414E-010 0.0
 -2.7149393E-010 -2.6496836E-010 0.0
 -3.1252286E-010 -2.7275904E-010 0.0
 -3.5633241E-010 -2.7873366E-010 0.0
 -4.0240919E-010 -2.8252785E-010 0.0
 -4.4961165E-010 -2.8381958E-010 0.0
 -4.9542732E-010 -2.8257687E-010 0.0
 -5.3416097E-010 -2.8095267E-010 0.0
 -5.5704909E-010 -2.8151590E-010 0.0
 -2.3887991E-009 -8.9696934E-010 0.0
 -2.4850010E-009 -9.0693066E-010 0.0
 -2.5776607E-009 -9.2522784E-010 0.0
 -2.6912378E-009 -9.4534275E-010 0.0
 -2.8190998E-009 -9.6378405E-010 0.0
 -2.9560467E-009 -9.8198714E-010 0.0
 -3.0998009E-009 -1.0004515E-009 0.0
 -3.2486492E-009 -1.0195828E-009 0.0
 -3.4013223E-009 -1.0397281E-009 0.0
 -3.5568195E-009 -1.0612018E-009 0.0
 -3.7143544E-009 -1.0842868E-009 0.0
 -3.8733246E-009 -1.1092249E-009 0.0
 -4.0332932E-009 -1.1361900E-009 0.0
 -4.1939593E-009 -1.1652404E-009 0.0
 -4.3550884E-009 -1.1962463E-009 0.0
 -4.5163521E-009 -1.2288013E-009 0.0
 -4.6769946E-009 -1.2621580E-009 0.0
 -4.8351770E-009 -1.2953000E-009 0.0
 -4.9870213E-009 -1.3271554E-009 0.0
 -5.1258599E-009 -1.3571804E-009 0.0
 -5.2430083E-009 -1.3859526E-009 0.0
 -3.7086754E-039 -3.7086754E-039 0.0
 -1.9382473E-012 -3.7334915E-011 0.0
 -1.3897294E-012 -6.3446772E-011 0.0
 -1.2303671E-012 -8.1726454E-011 0.0
 -2.8901000E-012 -9.7044808E-011 0.0
 -7.1772763E-012 -1.1103224E-010 0.0
 -1.4328981E-011 -1.2435970E-010 0.0
 -2.4354331E-011 -1.3731682E-010 0.0
 -3.7217891E-011 -1.5004387E-010 0.0
 -5.2885631E-011 -1.6260601E-010 0.0
 -7.1338023E-011 -1.7501905E-010 0.0
 -9.2573247E-011 -1.8725872E-010 0.0
 -1.1660911E-010 -1.9926565E-010 0.0
 -1.4348369E-010 -2.1094976E-010 0.0
 -1.7325282E-010 -2.2219536E-010 0.0
 -2.0598175E-010 -2.3286691E-010 0.0
 -2.4172786E-010 -2.4281512E-010 0.0
 -2.8050972E-010 -2.5188286E-010 0.0
 -3.2225420E-010 -2.5991061E-010 0.0
 -3.6670323E-010 -2.6674086E-010 0.0
 -4.1324263E-010 -2.7222061E-010 0.0
 -4.6051194E-010 -2.7617304E-010 0.0
 -5.0563567E-010 -2.7833030E-010 0.0
 -5.4100225E-010 -2.7724316E-010 0.0
 -5.5509165E-010 -2.7562084E-010 0.0
 -2.4839590E-009 -8.7647223E-010 0.0
 -2.5584546E-009 -8.8345156E-010 0.0
 -2.6702739E-009 -8.9216424E-010 0.0
 -2.7947060E-009 -9.0307484E-010 0.0
 -2.9284240E-009 -9.1530420E-010 0.0
 -3.0686460E-009 -9.2872321E-010 0.0
 -3.2136682E-009 -9.4342791E-010 0.0
 -3.3622065E-009 -9.5960465E-010 0.0
 -3.5132852E-009 -9.7747290E-010 0.0
 -3.6661597E-009 -9.9726777E-010 0.0
 -3.8202988E-009 -1.0192288E-009 0.0
 -3.9753886E-009 -1.0435779E-009 0.0
 -4.1313346E-009 -1.0704714E-009 0.0
 -4.2882246E-009 -1.0999220E-009 0.0
 -4.4461984E-009 -1.1316817E-009 0.0
 -4.6050916E-009 -1.1650630E-009 0.0
 -4.7636414E-009 -1.1987384E-009 0.0
 -4.9181405E-009 -1.2307380E-009 0.0
 -5.0608092E-009 -1.2590046E-009 0.0
 -5.1797737E-009 -1.2834696E-009 0.0
 -3.7086754E-039 -3.7086754E-039 0.0
  6.4476790E-012 -3.0176097E-011 0.0
  2.0518986E-012 -5.2713214E-011 0.0
 -3.2869736E-013 -7.1832283E-011 0.0
 -3.6858448E-012 -8.8479035E-011 0.0
 -9.1685874E-012 -1.0336558E-010 0.0
 -1.7183081E-011 -1.1707110E-010 0.0
 -2.7858933E-011 -1.3001058E-010 0.0
 -4.1237055E-011 -1.4244933E-010 0.0
 -5.7338350E-011 -1.5454456E-010 0.0
 -7.6184400E-011 -1.6637802E-010 0.0
 -9.7804783E-011 -1.7797833E-010 0.0
 -1.2223988E-010 -1.8933628E-010 0.0
 -1.4954100E-010 -2.0041619E-010 0.0
 -1.7976684E-010 -2.1116608E-010 0.0
 -2.1297414E-010 -2.2152764E-010 0.0
 -2.4919972E-010 -2.3144702E-010 0.0
 -2.8842941E-010 -2.4088694E-010 0.0
 -3.3054592E-010 -2.4984048E-010 0.0
 -3.7524200E-010 -2.5834566E-010 0.0
 -4.2186152E-010 -2.6649133E-010 0.0
 -4.6914664E-010 -2.7437735E-010 0.0
 -5.1450993E-010 -2.8180819E-010 0.0
 -5.5425904E-010 -2.8711651E-010 0.0
 -5.6683738E-010 -2.8061941E-010 0.0
 -2.4485083E-009 -8.3786813E-010 0.0
 -2.5433158E-009 -8.3954881E-010 0.0
 -2.6504405E-009 -8.4127389E-010 0.0
 -2.7721290E-009 -8.4605015E-010 0.0
 -2.9026033E-009 -8.5285886E-010 0.0
 -3.0393617E-009 -8.6145300E-010 0.0
 -3.1805961E-009 -8.7180261E-010 0.0
 -3.3250374E-009 -8.8398035E-010 0.0
 -3.4717208E-009 -8.9811426E-010 0.0
 -3.6199209E-009 -9.1437868E-010 0.0
 -3.7691407E-009 -9.3299446E-010 0.0
 -3.9191448E-009 -9.5422165E-010 0.0
 -4.0700145E-009 -9.7832095E-010 0.0
 -4.2221669E-009 -1.0054560E-009 0.0
 -4.3762808E-009 -1.0355698E-009 0.0
 -4.5330995E-009 -1.0681823E-009 0.0
 -4.6927273E-009 -1.1018811E-009 0.0
 -4.8526860E-009 -1.1338864E-009 0.0
 -5.0048711E-009 -1.1606405E-009 0.0
 -5.1321139E-009 -1.1797958E-009 0.0
  2.1338590E-012 -3.9328327E-011 0.0
  3.6901042E-012 -3.6683021E-011 0.0
  3.7703952E-012 -4.9105550E-011 0.0
  1.1632620E-012 -6.5954827E-011 0.0
 -3.4861479E-012 -8.2075014E-011 0.0
 -1.0256071E-011 -9.6734359E-011 0.0
 -1.9306457E-011 -1.1017034E-010 0.0
 -3.0775295E-011 -1.2273592E-010 0.0
 -4.4767473E-011 -1.3470863E-010 0.0
 -6.1363662E-011 -1.4627307E-010 0.0
 -8.0630974E-011 -1.5754167E-010 0.0
 -1.0263063E-010 -1.6857685E-010 0.0
 -1.2742259E-010 -1.7940861E-010 0.0
 -1.5506658E-010 -1.9004859E-010 0.0
 -1.8561876E-010 -2.0050229E-010 0.0
 -2.1912222E-010 -2.1078118E-010 0.0
 -2.5558914E-010 -2.2091561E-010 0.0
 -2.9497095E-010 -2.3096910E-010 0.0
 -3.3711082E-010 -2.4105408E-010 0.0
 -3.8166846E-010 -2.5134689E-010 0.0
 -4.2801224E-010 -2.6209429E-010 0.0
 -4.7502739E-010 -2.7359408E-010 0.0
 -5.2113603E-010 -2.8610409E-010 0.0
 -5.6311198E-010 -3.0013031E-010 0.0
 -6.0551106E-010 -3.1297745E-010 0.0
 -2.3375716E-009 -8.4429041E-010 0.0
 -2.3371822E-009 -7.6493820E-010 0.0
 -2.4199653E-009 -7.7507594E-010 0.0
 -2.5201919E-009 -7.8446072E-010 0.0
 -2.6303247E-009 -7.8771295E-010 0.0
 -2.7502956E-009 -7.8941061E-010 0.0
 -2.8782227E-009 -7.9227347E-010 0.0
 -3.0117728E-009 -7.9686282E-010 0.0
 -3.1493850E-009 -8.0335814E-010 0.0
 -3.2898571E-009 -8.1183272E-010 0.0
 -3.4322580E-009 -8.2235874E-010 0.0
 -3.5758674E-009 -8.3504658E-010 0.0
 -3.7201836E-009 -8.5007250E-010 0.0
 -3.8649857E-009 -8.6769918E-010 0.0
 -4.0104590E-009 -8.8826980E-010 0.0
 -4.1573600E-009 -9.1210344E-010 0.0
 -4.3069953E-009 -9.3920892E-010 0.0
 -4.4610339E-009 -9.6921600E-010 0.0
 -4.6216676E-009 -1.0011865E-009 0.0
 -4.7898329E-009 -1.0317036E-009 0.0
 -4.9580838E-009 -1.0550721E-009 0.0
 -5.1049092E-009 -1.0685289E-009 0.0
 -3.7086754E-039  3.0986152E-034 0.0
  1.5244238E-012 -2.6631394E-011 0.0
  5.0959677E-012 -4.6426403E-011 0.0
  2.5061408E-012 -6.3048057E-011 0.0
 -3.1961836E-012 -7.7908906E-011 0.0
 -1.1109534E-011 -9.1414345E-011 0.0
 -2.1123221E-011 -1.0391174E-010 0.0
 -3.3351717E-011 -1.1568975E-010 0.0
 -4.7940005E-011 -1.2696275E-010 0.0
 -6.5013841E-011 -1.3788092E-010 0.0
 -8.4675476E-011 -1.4854659E-010 0.0
 -1.0700949E-010 -1.5903017E-010 0.0
 -1.3208827E-010 -1.6938353E-010 0.0
 -1.5997395E-010 -1.7965154E-010 0.0
 -1.9071550E-010 -1.8988293E-010 0.0
 -2.2433992E-010 -2.0014115E-010 0.0
 -2.6083573E-010 -2.1051546E-010 0.0
 -3.0012686E-010 -2.2113197E-010 0.0
 -3.4203392E-010 -2.3216213E-010 0.0
 -3.8622220E-010 -2.4382327E-010 0.0
 -4.3213375E-010 -2.5635805E-010 0.0
 -4.7896688E-010 -2.6995313E-010 0.0
 -5.2562403E-010 -2.8457355E-010 0.0
 -5.7205245E-010 -2.9880805E-010 0.0
 -6.2334393E-010 -3.1057892E-010 0.0
 -6.8485327E-010 -3.2234805E-010 0.0
 -6.7329084E-010 -3.2548560E-010 0.0
 -2.3091145E-009 -7.1355248E-010 0.0
 -2.3868578E-009 -7.2812757E-010 0.0
 -2.4941558E-009 -7.3175847E-010 0.0
 -2.6081172E-009 -7.3245271E-010 0.0
 -2.7285080E-009 -7.3199678E-010 0.0
 -2.8546606E-009 -7.3208490E-010 0.0
 -2.9854757E-009 -7.3367090E-010 0.0
 -3.1197650E-009 -7.3707974E-010 0.0
 -3.2565160E-009 -7.4241865E-010 0.0
 -3.3948664E-009 -7.4972391E-010 0.0
 -3.5341053E-009 -7.5903670E-010 0.0
 -3.6736970E-009 -7.7045226E-010 0.0
 -3.8133629E-009 -7.8417013E-010 0.0
 -3.9532624E-009 -8.0054339E-010 0.0
 -4.0943544E-009 -8.2007353E-010 0.0
 -4.2389220E-009 -8.4300603E-010 0.0
 -4.3899096E-009 -8.6812688E-010 0.0
 -4.5504344E-009 -8.9392651E-010 0.0
 -4.7284424E-009 -9.1878914E-010 0.0
 -4.9242916E-009 -9.3209468E-010 0.0
 -5.1044025E-009 -9.2421878E-010 0.0
 -3.7086754E-039 -3.7086754E-039 0.0
  9.0651388E-012 -2.8804910E-011 0.0
  7.7075287E-012 -4.8730700E-011 0.0
  3.3093737E-012 -6.3119616E-011 0.0
 -3.5234344E-012 -7.5550274E-011 0.0
 -1.2304568E-011 -8.7112117E-011 0.0
 -2.3023883E-011 -9.8154869E-011 0.0
 -3.5832391E-011 -1.0882054E-010 0.0
 -5.0898095E-011 -1.1919779E-010 0.0
 -6.8365750E-011 -1.2935724E-010 0.0
 -8.8351662E-011 -1.3936060E-010 0.0
 -1.1094874E-010 -1.4926498E-010 0.0
 -1.3623154E-010 -1.5912742E-010 0.0
 -1.6425805E-010 -1.6901056E-010 0.0
 -1.9506711E-010 -1.7898912E-010 0.0
 -2.2867064E-010 -1.8915684E-010 0.0
 -2.6504018E-010 -1.9963294E-010 0.0
 -3.0408718E-010 -2.1056590E-010 0.0
 -3.4563820E-010 -2.2213056E-010 0.0
 -3.8940920E-010 -2.3450979E-010 0.0
 -4.3500107E-010 -2.4784192E-010 0.0
 -4.8194632E-010 -2.6210980E-010 0.0
 -5.3005802E-010 -2.7684986E-010 0.0
 -5.8038014E-010 -2.9113394E-010 0.0
 -6.3539714E-010 -3.0468646E-010 0.0
 -6.9673334E-010 -3.1833431E-010 0.0
 -7.6291516E-010 -3.3255481E-010 0.0
 -7.4967656E-010 -3.3522163E-010 0.0
 -2.2461557E-009 -6.8124581E-010 0.0
 -2.3581509E-009 -6.8196950E-010 0.0
 -2.4689002E-009 -6.7875923E-010 0.0
 -2.5855857E-009 -6.7589276E-010 0.0
 -2.7064785E-009 -6.7329288E-010 0.0
 -2.8314484E-009 -6.7152280E-010 0.0
 -2.9599742E-009 -6.7110442E-010 0.0
 -3.0913219E-009 -6.7233140E-010 0.0
 -3.2246948E-009 -6.7530106E-010 0.0
 -3.3593340E-009 -6.8001658E-010 0.0
 -3.4945534E-009 -6.8644736E-010 0.0
 -3.6297772E-009 -6.9457623E-010 0.0
 -3.7646137E-009 -7.0445680E-010 0.0
 -3.8990397E-009 -7.1631274E-010 0.0
 -4.0338315E-009 -7.3069158E-010 0.0
 -4.1717572E-009 -7.4863988E-010 0.0
 -4.3196750E-009 -7.6995040E-010 0.0
 -4.4821035E-009 -7.8704958E-010 0.0
 -4.6675699E-009 -7.9197491E-010 0.0
 -4.9170488E-009 -7.7316305E-010 0.0
 -2.0583807E-012 -5.1834525E-011 0.0
  1.0833470E-011 -5.0614725E-011 0.0
  7.9612460E-012 -5.6707915E-011 0.0
  2.3034757E-012 -6.5015305E-011 0.0
 -5.0744885E-012 -7.3869252E-011 0.0
 -1.4198773E-011 -8.3082750E-011 0.0
 -2.5241488E-011 -9.2469972E-011 0.0
 -3.8372076E-011 -1.0189561E-010 0.0
 -5.3744714E-011 -1.1128644E-010 0.0
 -7.1488453E-011 -1.2061996E-010 0.0
 -9.1708288E-011 -1.2990790E-010 0.0
 -1.1448841E-010 -1.3918487E-010 0.0
 -1.3989491E-010 -1.4850283E-010 0.0
 -1.6797612E-010 -1.5792978E-010 0.0
 -1.9875974E-010 -1.6755100E-010 0.0
 -2.3224660E-010 -1.7747112E-010 0.0
 -2.6840115E-010 -1.8781498E-010 0.0
 -3.0714004E-010 -1.9872441E-010 0.0
 -3.4832227E-010 -2.1034639E-010 0.0
 -3.9175130E-010 -2.2280489E-010 0.0
 -4.3720838E-010 -2.3614784E-010 0.0
 -4.8457575E-010 -2.5025647E-010 0.0
 -5.3411635E-010 -2.6480348E-010 0.0
 -5.8673569E-010 -2.7945847E-010 0.0
 -6.4378787E-010 -2.9423833E-010 0.0
 -7.0620757E-010 -3.0957012E-010 0.0
 -7.7400796E-010 -3.2562804E-010 0.0
 -8.4666632E-010 -3.4190689E-010 0.0
 -8.3243962E-010 -3.4597268E-010 0.0
 -2.1019372E-009 -6.9390300E-010 0.0
 -2.0986818E-009 -6.0090094E-010 0.0
 -2.2030298E-009 -6.1805731E-010 0.0
 -2.3272381E-009 -6.2190856E-010 0.0
 -2.4445126E-009 -6.2008084E-010 0.0
 -2.5629808E-009 -6.1625643E-010 0.0
 -2.6841592E-009 -6.1277817E-010 0.0
 -2.8081412E-009 -6.1018053E-010 0.0
 -2.9347570E-009 -6.0879082E-010 0.0
 -3.0635551E-009 -6.0880376E-010 0.0
 -3.1939403E-009 -6.1029684E-010 0.0
 -3.3252653E-009 -6.1325357E-010 0.0
 -3.4568898E-009 -6.1759304E-010 0.0
 -3.5882167E-009 -6.2319262E-010 0.0
 -3.7187404E-009 -6.2992001E-010 0.0
 -3.8481502E-009 -6.3771063E-010 0.0
 -3.9766760E-009 -6.4679499E-010 0.0
 -4.1059545E-009 -6.5828335E-010 0.0
 -4.2438705E-009 -6.7636796E-010 0.0
 -4.4126938E-009 -7.0245065E-010 0.0
 -4.5762262E-009 -7.3601732E-010 0.0
  2.4854607E-012 -6.0826625E-011 0.0
  5.1363436E-012 -6.1689436E-011 0.0
  3.8427622E-012 -6.1720633E-011 0.0
 -1.0646176E-012 -6.5161535E-011 0.0
 -7.8997857E-012 -7.1101959E-011 0.0
 -1.6774765E-011 -7.8374710E-011 0.0
 -2.7773896E-011 -8.6334459E-011 0.0
 -4.0991064E-011 -9.4626136E-011 0.0
 -5.6513489E-011 -1.0306418E-010 0.0
 -7.4423119E-011 -1.1156394E-010 0.0
 -9.4793080E-011 -1.2010283E-010 0.0
 -1.1768578E-010 -1.2869806E-010 0.0
 -1.4315131E-010 -1.3739447E-010 0.0
 -1.7122525E-010 -1.4625843E-010 0.0
 -2.0192530E-010 -1.5537497E-010 0.0
 -2.3524654E-010 -1.6484573E-010 0.0
 -2.7115612E-010 -1.7478557E-010 0.0
 -3.0958966E-010 -1.8531505E-010 0.0
 -3.5045410E-010 -1.9654561E-010 0.0
 -3.9364635E-010 -2.0855460E-010 0.0
 -4.3910537E-010 -2.2135040E-010 0.0
 -4.8691666E-010 -2.3484889E-010 0.0
 -5.3744557E-010 -2.4891330E-010 0.0
 -5.9139907E-010 -2.6348305E-010 0.0
 -6.4967591E-010 -2.7872716E-010 0.0
 -7.1306454E-010 -2.9502761E-010 0.0
 -7.8208099E-010 -3.1277518E-010 0.0
 -8.5720062E-010 -3.3198825E-010 0.0
 -9.3881790E-010 -3.5171538E-010 0.0
 -9.2305603E-010 -3.5623502E-010 0.0
 -2.0373417E-009 -5.7552400E-010 0.0
 -2.1726081E-009 -5.6512669E-010 0.0
 -2.2974046E-009 -5.5916005E-010 0.0
 -2.4193265E-009 -5.5620250E-010 0.0
 -2.5396977E-009 -5.5316218E-010 0.0
 -2.6610944E-009 -5.5026514E-010 0.0
 -2.7842724E-009 -5.4800866E-010 0.0
 -2.9093028E-009 -5.4666960E-010 0.0
 -3.0359323E-009 -5.4642806E-010 0.0
 -3.1637167E-009 -5.4737500E-010 0.0
 -3.2921150E-009 -5.4951760E-010 0.0
 -3.4205471E-009 -5.5278293E-010 0.0
 -3.5484259E-009 -5.5701747E-010 0.0
 -3.6751728E-009 -5.6198290E-010 0.0
 -3.8002367E-009 -5.6736447E-010 0.0
 -3.9231283E-009 -5.7284637E-010 0.0
 -4.0440001E-009 -5.7841478E-010 0.0
 -4.1644164E-009 -5.8522835E-010 0.0
 -4.3215763E-009 -5.9858396E-010 0.0
 -4.5759912E-009 -5.7890279E-010 0.0
  7.1939102E-012 -5.7380878E-011 0.0
  7.6420922E-013 -5.7846516E-011 0.0
 -2.0863927E-012 -5.7883704E-011 0.0
 -5.3654488E-012 -6.0814647E-011 0.0
 -1.1243405E-011 -6.5939823E-011 0.0
 -1.9608386E-011 -7.2322572E-011 0.0
 -3.0402231E-011 -7.9387202E-011 0.0
 -4.3589680E-011 -8.6808567E-011 0.0
 -5.9174564E-011 -9.4411006E-011 0.0
 -7.7181875E-011 -1.0211070E-010 0.0
 -9.7646532E-011 -1.0988260E-010 0.0
 -1.2060491E-010 -1.1774096E-010 0.0
 -1.4608903E-010 -1.2572768E-010 0.0
 -1.7412210E-010 -1.3390543E-010 0.0
 -2.0471468E-010 -1.4235306E-010 0.0
 -2.3786147E-010 -1.5116146E-010 0.0
 -2.7353964E-010 -1.6042801E-010 0.0
 -3.1171101E-010 -1.7024799E-010 0.0
 -3.5233216E-010 -1.8070169E-010 0.0
 -3.9537921E-010 -1.9183822E-010 0.0
 -4.4089401E-010 -2.0366250E-010 0.0
 -4.8904942E-010 -2.1614190E-010 0.0
 -5.4020968E-010 -2.2925029E-010 0.0
 -5.9493733E-010 -2.4304944E-010 0.0
 -6.5391734E-010 -2.5776533E-010 0.0
 -7.1784233E-010 -2.7381694E-010 0.0
 -7.8739653E-010 -2.9181150E-010 0.0
 -8.6336141E-010 -3.1271320E-010 0.0
 -9.4668881E-010 -3.3867639E-010 0.0
 -1.0371606E-009 -3.7424473E-010 0.0
 -1.0196039E-009 -3.6495226E-010 0.0
 -1.8562716E-009 -5.9285511E-010 0.0
 -1.8430564E-009 -4.9918431E-010 0.0
 -2.0033394E-009 -4.9157198E-010 0.0
 -2.1432836E-009 -4.9089870E-010 0.0
 -2.2703260E-009 -4.8971510E-010 0.0
 -2.3933908E-009 -4.8843565E-010 0.0
 -2.5150673E-009 -4.8736024E-010 0.0
 -2.6367565E-009 -4.8623834E-010 0.0
 -2.7593632E-009 -4.8532892E-010 0.0
 -2.8831344E-009 -4.8493402E-010 0.0
 -3.0079514E-009 -4.8528577E-010 0.0
 -3.1334826E-009 -4.8654447E-010 0.0
 -3.2592739E-009 -4.8879839E-010 0.0
 -3.3848034E-009 -4.9206459E-010 0.0
 -3.5095064E-009 -4.9628595E-010 0.0
 -3.6327665E-009 -5.0132293E-010 0.0
 -3.7538443E-009 -5.0694938E-010 0.0
 -3.8717185E-009 -5.1289265E-010 0.0
 -3.9844299E-009 -5.1922661E-010 0.0
 -4.0887728E-009 -5.2824096E-010 0.0
 -4.1616223E-009 -5.7088398E-010 0.0
  8.3878833E-012 -4.3183235E-011 0.0
 -4.3245792E-012 -4.1515479E-011 0.0
 -5.6722601E-012 -4.6341067E-011 0.0
 -8.5740902E-012 -5.2289439E-011 0.0
 -1.4005085E-011 -5.8468652E-011 0.0
 -2.2126367E-011 -6.4929079E-011 0.0
 -3.2824510E-011 -7.1605737E-011 0.0
 -4.6020266E-011 -7.8417429E-011 0.0
 -6.1670563E-011 -8.5305203E-011 0.0
 -7.9763301E-011 -9.2241844E-011 0.0
 -1.0030514E-010 -9.9229201E-011 0.0
 -1.2331187E-010 -1.0629300E-010 0.0
 -1.4880116E-010 -1.1347792E-010 0.0
 -1.7678736E-010 -1.2084338E-010 0.0
 -2.0727799E-010 -1.2845972E-010 0.0
 -2.4027201E-010 -1.3640384E-010 0.0
 -2.7576084E-010 -1.4475352E-010 0.0
 -3.1373386E-010 -1.5357990E-010 0.0
 -3.5419111E-010 -1.6293827E-010 0.0
 -3.9716629E-010 -1.7285989E-010 0.0
 -4.4276046E-010 -1.8335033E-010 0.0
 -4.9118049E-010 -1.9440245E-010 0.0
 -5.4276661E-010 -2.0602920E-010 0.0
 -5.9799025E-010 -2.1830936E-010 0.0
 -6.5741792E-010 -2.3142810E-010 0.0
 -7.2167193E-010 -2.4569527E-010 0.0
 -7.9143093E-010 -2.6155881E-010 0.0
 -8.6752694E-010 -2.7963037E-010 0.0
 -9.5107380E-010 -3.0041560E-010 0.0
 -1.0487037E-009 -3.2166390E-010 0.0
 -1.1815686E-009 -3.4138955E-010 0.0
 -1.1979184E-009 -4.5196694E-010 0.0
 -1.3306375E-009 -3.6832669E-010 0.0
 -1.3404219E-009 -4.9467587E-010 0.0
 -1.4830070E-009 -3.8483706E-010 0.0
 -1.4897622E-009 -5.1898404E-010 0.0
 -1.6481050E-009 -3.8970225E-010 0.0
 -1.6483272E-009 -5.2559530E-010 0.0
 -1.8186395E-009 -3.9658169E-010 0.0
 -1.9723116E-009 -4.0366577E-010 0.0
 -2.1116576E-009 -4.0998843E-010 0.0
 -2.2414093E-009 -4.1500920E-010 0.0
 -2.3660543E-009 -4.1821865E-010 0.0
 -2.4886833E-009 -4.2026926E-010 0.0
 -2.6107643E-009 -4.2166596E-010 0.0
 -2.7330629E-009 -4.2276950E-010 0.0
 -2.8558922E-009 -4.2394873E-010 0.0
 -2.9792181E-009 -4.2552628E-010 0.0
 -3.1027851E-009 -4.2776708E-010 0.0
 -3.2261976E-009 -4.3088513E-010 0.0
 -3.3489677E-009 -4.3505503E-010 0.0
 -3.4705301E-009 -4.4042883E-010 0.0
 -3.5902060E-009 -4.4716407E-010 0.0
 -3.7070684E-009 -4.5547935E-010 0.0
 -3.8195109E-009 -4.6581444E-010 0.0
 -3.9240662E-009 -4.7922125E-010 0.0
 -4.0103899E-009 -4.9915451E-010 0.0
 -4.0337835E-009 -5.2271710E-010 0.0
 -3.7086754E-039 -3.7086754E-039 0.0
 -2.8878190E-012 -1.9854583E-011 0.0
 -5.6677009E-012 -3.3301942E-011 0.0
 -9.6053977E-012 -4.2472389E-011 0.0
 -1.5579233E-011 -4.9995556E-011 0.0
 -2.3960285E-011 -5.6802377E-011 0.0
 -3.4833070E-011 -6.3285254E-011 0.0
 -4.8176646E-011 -6.9602790E-011 0.0
 -6.3962482E-011 -7.5828036E-011 0.0
 -8.2174219E-011 -8.2005630E-011 0.0
 -1.0280922E-010 -8.8175200E-011 0.0
 -1.2587397E-010 -9.4380295E-011 0.0
 -1.5137911E-010 -1.0067110E-010 0.0
 -1.7933554E-010 -1.0710423E-010 0.0
 -2.0975219E-010 -1.1374077E-010 0.0
 -2.4263588E-010 -1.2064294E-010 0.0
 -2.7799410E-010 -1.2786950E-010 0.0
 -3.1584189E-010 -1.3546990E-010 0.0
 -3.5621439E-010 -1.4347845E-010 0.0
 -3.9918551E-010 -1.5191051E-010 0.0
 -4.4489157E-010 -1.6076404E-010 0.0
 -4.9355480E-010 -1.7002961E-010 0.0
 -5.4549883E-010 -1.7970834E-010 0.0
 -6.0115003E-010 -1.8983105E-010 0.0
 -6.6102910E-010 -2.0046509E-010 0.0
 -7.2575366E-010 -2.1169309E-010 0.0
 -7.9609992E-010 -2.2353522E-010 0.0
 -8.7320807E-010 -2.3572721E-010 0.0
 -9.5966230E-010 -2.4705767E-010 0.0
 -1.0620171E-009 -2.5600513E-010 0.0
 -1.1854786E-009 -2.6543238E-010 0.0
 -1.3256296E-009 -2.7581131E-010 0.0
 -1.4764630E-009 -2.8638098E-010 0.0
 -1.6335549E-009 -2.9638207E-010 0.0
 -1.7909441E-009 -3.0744183E-010 0.0
 -1.9402365E-009 -3.2012650E-010 0.0
 -2.0791793E-009 -3.3167037E-010 0.0
 -2.2103532E-009 -3.4104716E-010 0.0
 -2.3366730E-009 -3.4824394E-010 0.0
 -2.4604091E-009 -3.5362054E-010 0.0
 -2.5830110E-009 -3.5773499E-010 0.0
 -2.7052378E-009 -3.6109529E-010 0.0
 -2.8274042E-009 -3.6414764E-010 0.0
 -2.9495139E-009 -3.6729899E-010 0.0
 -3.0713494E-009 -3.7092007E-010 0.0
 -3.1925390E-009 -3.7535882E-010 0.0
 -3.3125934E-009 -3.8096422E-010 0.0
 -3.4309036E-009 -3.8812513E-010 0.0
 -3.5466803E-009 -3.9733463E-010 0.0
 -3.6587662E-009 -4.0930008E-010 0.0
 -3.7651329E-009 -4.2510115E-010 0.0
 -3.8614639E-009 -4.4644910E-010 0.0
 -3.9369011E-009 -4.7496092E-010 0.0
 -3.9764235E-009 -5.0432959E-010 0.0
 -3.9931013E-009 -5.2059739E-010 0.0
 -3.9845231E-009 -5.1981208E-010 0.0
 -3.7086754E-039  3.0986152E-034 0.0
  1.4370892E-012 -1.4238651E-011 0.0
 -3.8133276E-012 -2.5216500E-011 0.0
 -9.2275246E-012 -3.4307606E-011 0.0
 -1.6140789E-011 -4.1981547E-011 0.0
 -2.5129660E-011 -4.8714186E-011 0.0
 -3.6410704E-011 -5.4847495E-011 0.0
 -5.0049711E-011 -6.0604768E-011 0.0
 -6.6060320E-011 -6.6124800E-011 0.0
 -8.4445339E-011 -7.1498923E-011 0.0
 -1.0520908E-010 -7.6794715E-011 0.0
 -1.2835979E-010 -8.2069483E-011 0.0
 -1.5390870E-010 -8.7376933E-011 0.0
 -1.8186875E-010 -9.2769662E-011 0.0
 -2.1225425E-010 -9.8298960E-011 0.0
 -2.4508225E-010 -1.0401275E-010 0.0
 -2.8037655E-010 -1.0995222E-010 0.0
 -3.1817496E-010 -1.1614768E-010 0.0
 -3.5854057E-010 -1.2261478E-010 0.0
 -4.0157672E-010 -1.2935230E-010 0.0
 -4.4744425E-010 -1.3634322E-010 0.0
 -4.9637832E-010 -1.4355924E-010 0.0
 -5.4870148E-010 -1.5096665E-010 0.0
 -6.0483313E-010 -1.5852720E-010 0.0
 -6.6530323E-010 -1.6618387E-010 0.0
 -7.3079280E-010 -1.7381721E-010 0.0
 -8.0224631E-010 -1.8115537E-010 0.0
 -8.8118981E-010 -1.8762874E-010 0.0
 -9.7034315E-010 -1.9250851E-010 0.0
 -1.0731903E-009 -1.9600127E-010 0.0
 -1.1918650E-009 -1.9932474E-010 0.0
 -1.3247285E-009 -2.0422283E-010 0.0
 -1.4677023E-009 -2.1125571E-010 0.0
 -1.6161285E-009 -2.2072700E-010 0.0
 -1.7647474E-009 -2.3266283E-010 0.0
 -1.9089033E-009 -2.4607534E-010 0.0
 -2.0465762E-009 -2.5937727E-010 0.0
 -2.1782992E-009 -2.7118683E-010 0.0
 -2.3057407E-009 -2.8103776E-010 0.0
 -2.4304858E-009 -2.8903891E-010 0.0
 -2.5536787E-009 -2.9555136E-010 0.0
 -2.6759929E-009 -3.0102848E-010 0.0
 -2.7977118E-009 -3.0593097E-010 0.0
 -2.9188302E-009 -3.1070964E-010 0.0
 -3.0391297E-009 -3.1580952E-010 0.0
 -3.1582303E-009 -3.2168193E-010 0.0
 -3.2756123E-009 -3.2880842E-010 0.0
 -3.3906001E-009 -3.3774142E-010 0.0
 -3.5022864E-009 -3.4916782E-010 0.0
 -3.6093538E-009 -3.6398600E-010 0.0
 -3.7097271E-009 -3.8333401E-010 0.0
 -3.7998155E-009 -4.0809559E-010 0.0
 -3.8743648E-009 -4.3652313E-010 0.0
 -3.9302716E-009 -4.6166919E-010 0.0
 -3.9770078E-009 -4.7622367E-010 0.0
  8.5196106E-013 -1.7120055E-011 0.0
  2.5493956E-013 -1.5910974E-011 0.0
 -3.0016458E-012 -2.1183583E-011 0.0
 -8.6891476E-012 -2.8330772E-011 0.0
 -1.6289556E-011 -3.5103976E-011 0.0
 -2.5917332E-011 -4.1170779E-011 0.0
 -3.7701705E-011 -4.6632407E-011 0.0
 -5.1723091E-011 -5.1647851E-011 0.0
 -6.8025241E-011 -5.6349866E-011 0.0
 -8.6633239E-011 -6.0837587E-011 0.0
 -1.0756515E-010 -6.5186066E-011 0.0
 -1.3083740E-010 -6.9455608E-011 0.0
 -1.5646709E-010 -7.3697831E-011 0.0
 -1.8447316E-010 -7.7958594E-011 0.0
 -2.1487792E-010 -8.2278536E-011 0.0
 -2.4770986E-010 -8.6691871E-011 0.0
 -2.8300837E-010 -9.1224027E-011 0.0
 -3.2083102E-010 -9.5888722E-011 0.0
 -3.6126357E-010 -1.0068522E-010 0.0
 -4.0443236E-010 -1.0559656E-010 0.0
 -4.5051836E-010 -1.1058909E-010 0.0
 -4.9977143E-010 -1.1561295E-010 0.0
 -5.5252467E-010 -1.2060107E-010 0.0
 -6.0921121E-010 -1.2546268E-010 0.0
 -6.7039201E-010 -1.3006623E-010 0.0
 -7.3681126E-010 -1.3420957E-010 0.0
 -8.0950874E-010 -1.3758871E-010 0.0
 -8.8999620E-010 -1.3984658E-010 0.0
 -9.8026431E-010 -1.4086061E-010 0.0
 -1.0823151E-009 -1.4107133E-010 0.0
 -1.1970500E-009 -1.4166040E-010 0.0
 -1.3233931E-009 -1.4396265E-010 0.0
 -1.4585486E-009 -1.4898119E-010 0.0
 -1.5987757E-009 -1.5708376E-010 0.0
 -1.7401581E-009 -1.6799137E-010 0.0
 -1.8794386E-009 -1.8075770E-010 0.0
 -2.0148509E-009 -1.9403447E-010 0.0
 -2.1461631E-009 -2.0665043E-010 0.0
 -2.2740571E-009 -2.1791099E-010 0.0
 -2.3994660E-009 -2.2762350E-010 0.0
 -2.5231629E-009 -2.3592140E-010 0.0
 -2.6456280E-009 -2.4311236E-010 0.0
 -2.7670473E-009 -2.4959202E-010 0.0
 -2.8873589E-009 -2.5580166E-010 0.0
 -3.0063070E-009 -2.6221359E-010 0.0
 -3.1234796E-009 -2.6932998E-010 0.0
 -3.2383217E-009 -2.7769021E-010 0.0
 -3.3501112E-009 -2.8788699E-010 0.0
 -3.4578915E-009 -3.0058616E-010 0.0
 -3.5603693E-009 -3.1652711E-010 0.0
 -3.6558082E-009 -3.3639568E-010 0.0
 -3.7424790E-009 -3.6034336E-010 0.0
 -3.8201661E-009 -3.8639727E-010 0.0
 -3.8910919E-009 -4.0879884E-010 0.0
 -3.9548276E-009 -4.2218200E-010 0.0
 -3.7086754E-039 -3.7086754E-039 0.0
 -9.8867266E-013 -1.0411266E-011 0.0
 -2.8713135E-012 -1.7624180E-011 0.0
 -8.4490252E-012 -2.3756540E-011 0.0
 -1.6484599E-011 -2.9320623E-011 0.0
 -2.6645002E-011 -3.4315572E-011 0.0
 -3.8909486E-011 -3.8802416E-011 0.0
 -5.3327352E-011 -4.2874885E-011 0.0
 -6.9947994E-011 -4.6624869E-011 0.0
 -8.8809595E-011 -5.0130230E-011 0.0
 -1.0994184E-010 -5.3454290E-011 0.0
 -1.3337027E-010 -5.6648827E-011 0.0
 -1.5911966E-010 -5.9756902E-011 0.0
 -1.8721664E-010 -6.2814463E-011 0.0
 -2.1769259E-010 -6.5850580E-011 0.0
 -2.5058735E-010 -6.8886517E-011 0.0
 -2.8595444E-010 -7.1933981E-011 0.0
 -3.2386817E-010 -7.4992954E-011 0.0
 -3.6443268E-010 -7.8049582E-011 0.0
 -4.0779281E-010 -8.1074493E-011 0.0
 -4.5414635E-010 -8.4021624E-011 0.0
 -5.0375749E-010 -8.6826994E-011 0.0
 -5.5697217E-010 -8.9406251E-011 0.0
 -6.1423784E-010 -9.1649610E-011 0.0
 -6.7613300E-010 -9.3414606E-011 0.0
 -7.4341315E-010 -9.4523360E-011 0.0
 -8.1707087E-010 -9.4788446E-011 0.0
 -8.9835735E-010 -9.4111137E-011 0.0
 -9.8866273E-010 -9.2646978E-011 0.0
 -1.0891331E-009 -9.0977924E-011 0.0
 -1.2001090E-009 -9.0072871E-011 0.0
 -1.3207186E-009 -9.1030023E-011 0.0
 -1.4489363E-009 -9.4690669E-011 0.0
 -1.5820217E-009 -1.0140146E-010 0.0
 -1.7170950E-009 -1.1091496E-010 0.0
 -1.8517364E-009 -1.2245968E-010 0.0
 -1.9844164E-009 -1.3498507E-010 0.0
 -2.1145584E-009 -1.4748099E-010 0.0
 -2.2422642E-009 -1.5922382E-010 0.0
 -2.3679299E-009 -1.6984218E-010 0.0
 -2.4919494E-009 -1.7926884E-010 0.0
 -2.6145562E-009 -1.8765235E-010 0.0
 -2.7357774E-009 -1.9528495E-010 0.0
 -2.8554463E-009 -2.0255628E-010 0.0
 -2.9732371E-009 -2.0992401E-010 0.0
 -3.0886943E-009 -2.1789237E-010 0.0
 -3.2012442E-009 -2.2699186E-010 0.0
 -3.3101769E-009 -2.3775442E-010 0.0
 -3.4146067E-009 -2.5067397E-010 0.0
 -3.5134385E-009 -2.6612617E-010 0.0
 -3.6055291E-009 -2.8421253E-010 0.0
 -3.6901789E-009 -3.0452450E-010 0.0
 -3.7700432E-009 -3.2677869E-010 0.0
 -3.8536215E-009 -3.4803120E-010 0.0
 -3.9387515E-009 -3.6055601E-010 0.0
 -3.7086754E-039 -3.7086754E-039 0.0
  1.3272689E-012 -8.9885518E-012 0.0
 -2.4017744E-012 -1.5508321E-011 0.0
 -8.5136633E-012 -2.0287684E-011 0.0
 -1.6964737E-011 -2.4382523E-011 0.0
 -2.7544039E-011 -2.8054023E-011 0.0
 -4.0209735E-011 -3.1360008E-011 0.0
 -5.4987556E-011 -3.4336217E-011 0.0
 -7.1919237E-011 -3.7023381E-011 0.0
 -9.1044431E-011 -3.9464317E-011 0.0
 -1.1239796E-010 -4.1699295E-011 0.0
 -1.3601157E-010 -4.3763720E-011 0.0
 -1.6191671E-010 -4.5687334E-011 0.0
 -1.9014736E-010 -4.7493826E-011 0.0
 -2.2074342E-010 -4.9200257E-011 0.0
 -2.5375486E-010 -5.0816032E-011 0.0
 -2.8924717E-010 -5.2341458E-011 0.0
 -3.2730811E-010 -5.3766088E-011 0.0
 -3.6805610E-010 -5.5067127E-011 0.0
 -4.1164988E-010 -5.6208129E-011 0.0
 -4.5829961E-010 -5.7138055E-011 0.0
 -5.0827926E-010 -5.7790579E-011 0.0
 -5.6194114E-010 -5.8083563E-011 0.0
 -6.1973357E-010 -5.7919465E-011 0.0
 -6.8222293E-010 -5.7189867E-011 0.0
 -7.5011757E-010 -5.5792504E-011 0.0
 -8.2427773E-010 -5.3674971E-011 0.0
 -9.0567612E-010 -5.0912433E-011 0.0
 -9.9525818E-010 -4.7805940E-011 0.0
 -1.0936842E-009 -4.4936969E-011 0.0
 -1.2010209E-009 -4.3115999E-011 0.0
 -1.3165404E-009 -4.3196257E-011 0.0
 -1.4387542E-009 -4.5839490E-011 0.0
 -1.5656736E-009 -5.1324858E-011 0.0
 -1.6951934E-009 -5.9474830E-011 0.0
 -1.8254772E-009 -6.9708695E-011 0.0
 -1.9552248E-009 -8.1207665E-011 0.0
 -2.0837331E-009 -9.3128393E-011 0.0
 -2.2107657E-009 -1.0477646E-010 0.0
 -2.3363346E-009 -1.1569553E-010 0.0
 -2.4604964E-009 -1.2567656E-010 0.0
 -2.5832210E-009 -1.3472672E-010 0.0
 -2.7043369E-009 -1.4302816E-010 0.0
 -2.8235313E-009 -1.5090006E-010 0.0
 -2.9403789E-009 -1.5876280E-010 0.0
 -3.0543744E-009 -1.6709817E-010 0.0
 -3.1649516E-009 -1.7640000E-010 0.0
 -3.2714813E-009 -1.8710952E-010 0.0
 -3.3732571E-009 -1.9952728E-010 0.0
 -3.4695234E-009 -2.1369079E-010 0.0
 -3.5596055E-009 -2.2921465E-010 0.0
 -3.6436678E-009 -2.4515343E-010 0.0
 -3.7228263E-009 -2.5966908E-010 0.0
 -3.8152275E-009 -2.7202478E-010 0.0
 -3.9425505E-009 -2.6788237E-010 0.0
 -1.9449013E-013 -1.3786303E-011 0.0
  1.5390309E-012 -1.3398070E-011 0.0
 -2.5378394E-012 -1.5144943E-011 0.0
 -9.1147255E-012 -1.7546941E-011 0.0
 -1.7862645E-011 -1.9925355E-011 0.0
 -2.8734391E-011 -2.2167182E-011 0.0
 -4.1706223E-011 -2.4208849E-011 0.0
 -5.6787916E-011 -2.6015656E-011 0.0
 -7.4005566E-011 -2.7578693E-011 0.0
 -9.3391017E-011 -2.8905549E-011 0.0
 -1.1497747E-010 -3.0011396E-011 0.0
 -1.3879885E-010 -3.0912886E-011 0.0
 -1.6489086E-010 -3.1624647E-011 0.0
 -1.9329316E-010 -3.2157361E-011 0.0
 -2.2405246E-010 -3.2516504E-011 0.0
 -2.5722677E-010 -3.2701188E-011 0.0
 -2.9289063E-010 -3.2702928E-011 0.0
 -3.3114164E-010 -3.2504415E-011 0.0
 -3.7210798E-010 -3.2078486E-011 0.0
 -4.1595709E-010 -3.1387511E-011 0.0
 -4.6290537E-010 -3.0383414E-011 0.0
 -5.1322888E-010 -2.9008618E-011 0.0
 -5.6727510E-010 -2.7198566E-011 0.0
 -6.2547547E-010 -2.4887418E-011 0.0
 -6.8835672E-010 -2.2020200E-011 0.0
 -7.5654493E-010 -1.8576601E-011 0.0
 -8.3074891E-010 -1.4610618E-011 0.0
 -9.1170209E-010 -1.0303652E-011 0.0
 -1.0000458E-009 -6.0121417E-012 0.0
 -1.0961596E-009 -2.2781021E-012 0.0
 -1.1999874E-009  2.2989567E-013 0.0
 -1.3109360E-009  8.4362460E-013 0.0
 -1.4279057E-009 -9.4687211E-013 0.0
 -1.5494540E-009 -5.3645187E-012 0.0
 -1.6740394E-009 -1.2288024E-011 0.0
 -1.8002657E-009 -2.1283594E-011 0.0
 -1.9270524E-009 -3.1710627E-011 0.0
 -2.0536836E-009 -4.2861880E-011 0.0
 -2.1797425E-009 -5.4091961E-011 0.0
 -2.3049785E-009 -6.4903525E-011 0.0
 -2.4291718E-009 -7.4988438E-011 0.0
 -2.5520352E-009 -8.4236794E-011 0.0
 -2.6731731E-009 -9.2728311E-011 0.0
 -2.7920900E-009 -1.0071178E-010 0.0
 -2.9082308E-009 -1.0857075E-010 0.0
 -3.0210290E-009 -1.1677127E-010 0.0
 -3.1299439E-009 -1.2578937E-010 0.0
 -3.2344753E-009 -1.3601860E-010 0.0
 -3.3341663E-009 -1.4765946E-010 0.0
 -3.4286107E-009 -1.6060306E-010 0.0
 -3.5175759E-009 -1.7435222E-010 0.0
 -3.6010167E-009 -1.8813221E-010 0.0
 -3.6808273E-009 -2.0152463E-010 0.0
 -3.7490910E-009 -2.2185050E-010 0.0
  1.1475094E-012 -1.4054099E-011 0.0
 -1.6790328E-013 -1.4274792E-011 0.0
 -3.8056156E-012 -1.4106498E-011 0.0
 -1.0323022E-011 -1.4623769E-011 0.0
 -1.9168591E-011 -1.5485263E-011 0.0
 -3.0217336E-011 -1.6401693E-011 0.0
 -4.3419828E-011 -1.7223643E-011 0.0
 -5.8758453E-011 -1.7871091E-011 0.0
 -7.6237990E-011 -1.8303965E-011 0.0
 -9.5877202E-011 -1.8505896E-011 0.0
 -1.1770364E-010 -1.8472646E-011 0.0
 -1.4175051E-010 -1.8204508E-011 0.0
 -1.6805552E-010 -1.7701974E-011 0.0
 -1.9666183E-010 -1.6963548E-011 0.0
 -2.2762062E-010 -1.5984433E-011 0.0
 -2.6099511E-010 -1.4755476E-011 0.0
 -2.9686560E-010 -1.3262184E-011 0.0
 -3.3533545E-010 -1.1483905E-011 0.0
 -3.7653777E-010 -9.3934047E-012 0.0
 -4.2064295E-010 -6.9570979E-012 0.0
 -4.6786667E-010 -4.1362740E-012 0.0
 -5.1847824E-010 -8.8982010E-013 0.0
 -5.7280881E-010  2.8207035E-012 0.0
 -6.3125792E-010  7.0221797E-012 0.0
 -6.9429573E-010  1.1715167E-011 0.0
 -7.6245486E-010  1.6851344E-011 0.0
 -8.3630329E-010  2.2303463E-011 0.0
 -9.1638836E-010  2.7833805E-011 0.0
 -1.0031485E-009  3.3074352E-011 0.0
 -1.0968038E-009  3.7536942E-011 0.0
 -1.1972560E-009  4.0665784E-011 0.0
 -1.3040382E-009  4.1928965E-011 0.0
 -1.4163430E-009  4.0924983E-011 0.0
 -1.5331285E-009  3.7471489E-011 0.0
 -1.6532720E-009  3.1648067E-011 0.0
 -1.7757231E-009  2.3781972E-011 0.0
 -1.8996101E-009  1.4384314E-011 0.0
 -2.0242711E-009  4.0587519E-012 0.0
 -2.1492114E-009 -6.5917106E-012 0.0
 -2.2740127E-009 -1.7042507E-011 0.0
 -2.3982352E-009 -2.6904818E-011 0.0
 -2.5213483E-009 -3.5965286E-011 0.0
 -2.6427103E-009 -4.4209720E-011 0.0
 -2.7616022E-009 -5.1826442E-011 0.0
 -2.8772980E-009 -5.9180876E-011 0.0
 -2.9891451E-009 -6.6756080E-011 0.0
 -3.0966266E-009 -7.5062394E-011 0.0
 -3.1993908E-009 -8.4527939E-011 0.0
 -3.2972458E-009 -9.5385573E-011 0.0
 -3.3901295E-009 -1.0758067E-010 0.0
 -3.4779821E-009 -1.2078199E-010 0.0
 -3.5606703E-009 -1.3465524E-010 0.0
 -3.6360531E-009 -1.5031521E-010 0.0
 -3.6987116E-009 -1.6772394E-010 0.0
  2.2310509E-012 -1.1465974E-011 0.0
 -9.9318233E-013 -1.1481442E-011 0.0
 -5.2772342E-012 -1.1200869E-011 0.0
 -1.1781336E-011 -1.0909504E-011 0.0
 -2.0692136E-011 -1.0746273E-011 0.0
 -3.1892515E-011 -1.0583792E-011 0.0
 -4.5303012E-011 -1.0316259E-011 0.0
 -6.0881705E-011 -9.8732509E-012 0.0
 -7.8613235E-011 -9.2133998E-012 0.0
 -9.8504281E-011 -8.3138907E-012 0.0
 -1.2057738E-010 -7.1607440E-012 0.0
 -1.4486481E-010 -5.7424734E-012 0.0
 -1.7140503E-010 -4.0477851E-012 0.0
 -2.0024254E-010 -2.0647643E-012 0.0
 -2.3143031E-010  2.1971634E-013 0.0
 -2.6503366E-010  2.8207174E-012 0.0
 -3.0113502E-010  5.7559551E-012 0.0
 -3.3983929E-010  9.0462453E-012 0.0
 -3.8127966E-010  1.2715367E-011 0.0
 -4.2562371E-010  1.6789032E-011 0.0
 -4.7307960E-010  2.1292590E-011 0.0
 -5.2390190E-010  2.6246980E-011 0.0
 -5.7839617E-010  3.1662200E-011 0.0
 -6.3692065E-010  3.7527419E-011 0.0
 -6.9988238E-010  4.3796871E-011 0.0
 -7.6772344E-010  5.0371563E-011 0.0
 -8.4089258E-010  5.7078937E-011 0.0
 -9.1979854E-010  6.3655983E-011 0.0
 -1.0047467E-009  6.9744718E-011 0.0
 -1.0958695E-009  7.4909495E-011 0.0
 -1.1930687E-009  7.8681214E-011 0.0
 -1.2959925E-009  8.0623884E-011 0.0
 -1.4040600E-009  8.0409080E-011 0.0
 -1.5165320E-009  7.7878563E-011 0.0
 -1.6326082E-009  7.3078419E-011 0.0
 -1.7515220E-009  6.6257090E-011 0.0
 -1.8726027E-009  5.7830825E-011 0.0
 -1.9952873E-009  4.8327792E-011 0.0
 -2.1190781E-009  3.8323393E-011 0.0
 -2.2434646E-009  2.8374318E-011 0.0
 -2.3678380E-009  1.8952392E-011 0.0
 -2.4914342E-009  1.0378155E-011 0.0
 -2.6133355E-009  2.7608670E-012 0.0
 -2.7325413E-009 -4.0376969E-012 0.0
 -2.8480920E-009 -1.0394299E-011 0.0
 -2.9592033E-009 -1.6858664E-011 0.0
 -3.0653643E-009 -2.4041295E-011 0.0
 -3.1663716E-009 -3.2484252E-011 0.0
 -3.2623011E-009 -4.2550483E-011 0.0
 -3.3534115E-009 -5.4348779E-011 0.0
 -3.4399221E-009 -6.7700663E-011 0.0
 -3.5212449E-009 -8.2312416E-011 0.0
 -3.5950159E-009 -9.7708778E-011 0.0
 -3.6571444E-009 -1.1341011E-010 0.0
  2.7111162E-012 -7.4044660E-012 0.0
 -1.3569588E-012 -7.3866408E-012 0.0
 -6.2149751E-012 -7.0801110E-012 0.0
 -1.3051127E-011 -6.5259441E-012 0.0
 -2.2195159E-011 -5.7039887E-012 0.0
 -3.3620222E-011 -4.6904117E-012 0.0
 -4.7276427E-011 -3.4743681E-012 0.0
 -6.3113566E-011 -2.0284344E-012 0.0
 -8.1104210E-011 -3.3482864E-013 0.0
 -1.0125115E-010  1.6183406E-012 0.0
 -1.2357874E-010  3.8473837E-012 0.0
 -1.4812085E-010  6.3724596E-012 0.0
 -1.7491607E-010  9.2147749E-012 0.0
 -2.0400810E-010  1.2394717E-011 0.0
 -2.3544877E-010  1.5931461E-011 0.0
 -2.6930219E-010  1.9843429E-011 0.0
 -3.0564932E-010  2.4148901E-011 0.0
 -3.4459262E-010  2.8866210E-011 0.0
 -3.8626076E-010  3.4013161E-011 0.0
 -4.3081338E-010  3.9605376E-011 0.0
 -4.7844538E-010  4.5653264E-011 0.0
 -5.2939038E-010  5.2157248E-011 0.0
 -5.8392242E-010  5.9100848E-011 0.0
 -6.4235425E-010  6.6441251E-011 0.0
 -7.0503029E-010  7.4097373E-011 0.0
 -7.7231160E-010  8.1936329E-011 0.0
 -8.4455048E-010  8.9760702E-011 0.0
 -9.2205450E-010  9.7300899E-011 0.0
 -1.0050426E-009  1.0421813E-010 0.0
 -1.0936015E-009  1.1012292E-010 0.0
 -1.1876538E-009  1.1461089E-010 0.0
 -1.2869496E-009  1.1731191E-010 0.0
 -1.3910884E-009  1.1794364E-010 0.0
 -1.4995676E-009  1.1635769E-010 0.0
 -1.6118455E-009  1.1256864E-010 0.0
 -1.7273994E-009  1.0676115E-010 0.0
 -1.8457578E-009  9.9276661E-011 0.0
 -1.9664933E-009  9.0585286E-011 0.0
 -2.0891705E-009  8.1247475E-011 0.0
 -2.2132576E-009  7.1864221E-011 0.0
 -2.3380270E-009  6.3008529E-011 0.0
 -2.4624878E-009  5.5132432E-011 0.0
 -2.5853977E-009  4.8460108E-011 0.0
 -2.7053837E-009  4.2901451E-011 0.0
 -2.8211528E-009  3.8033237E-011 0.0
 -2.9317181E-009  3.3175776E-011 0.0
 -3.0365523E-009  2.7548028E-011 0.0
 -3.1356154E-009  2.0441199E-011 0.0
 -3.2292649E-009  1.1343176E-011 0.0
 -3.3181209E-009 -2.2898802E-014 0.0
 -3.4028460E-009 -1.3627521E-011 0.0
 -3.4835333E-009 -2.8785348E-011 0.0
 -3.5582084E-009 -4.3922519E-011 0.0
 -3.6220162E-009 -5.7764667E-011 0.0
  2.7744576E-012 -3.1261057E-012 0.0
 -1.3721983E-012 -3.0679212E-012 0.0
 -6.5387491E-012 -2.9004637E-012 0.0
 -1.3997201E-011 -1.9784128E-012 0.0
 -2.3531123E-011 -5.7121464E-013 0.0
 -3.5289512E-011  1.1716332E-012 0.0
 -4.9272210E-011  3.2411370E-012 0.0
 -6.5409840E-011  5.6256727E-012 0.0
 -8.3671804E-011  8.2911437E-012 0.0
 -1.0407937E-010  1.1233639E-011 0.0
 -1.2666956E-010  1.4473508E-011 0.0
 -1.5148073E-010  1.8041236E-011 0.0
 -1.7855025E-010  2.1967568E-011 0.0
 -2.0791806E-010  2.6279432E-011 0.0
 -2.3963161E-010  3.0999408E-011 0.0
 -2.7375060E-010  3.6146563E-011 0.0
 -3.1035122E-010  4.1737269E-011 0.0
 -3.4952996E-010  4.7785333E-011 0.0
 -3.9140718E-010  5.4301105E-011 0.0
 -4.3613040E-010  6.1289387E-011 0.0
 -4.8387692E-010  6.8746003E-011 0.0
 -5.3485542E-010  7.6652838E-011 0.0
 -5.8930549E-010  8.4971249E-011 0.0
 -6.4749407E-010  9.3633846E-011 0.0
 -7.0970737E-010  1.0253512E-010 0.0
 -7.7623682E-010  1.1152201E-010 0.0
 -8.4735836E-010  1.2038658E-010 0.0
 -9.2330596E-010  1.2886371E-010 0.0
 -1.0042423E-009  1.3663718E-010 0.0
 -1.0902326E-009  1.4335670E-010 0.0
 -1.1812282E-009  1.4866606E-010 0.0
 -1.2770677E-009  1.5223970E-010 0.0
 -1.3774964E-009  1.5382215E-010 0.0
 -1.4822024E-009  1.5326348E-010 0.0
 -1.5908595E-009  1.5054514E-010 0.0
 -1.7031629E-009  1.4579350E-010 0.0
 -1.8188432E-009  1.3928221E-010 0.0
 -1.9376450E-009  1.3142701E-010 0.0
 -2.0592612E-009  1.2277455E-010 0.0
 -2.1832198E-009  1.1397799E-010 0.0
 -2.3087409E-009  1.0573802E-010 0.0
 -2.4346184E-009  9.8685926E-011 0.0
 -2.5592128E-009  9.3210207E-011 0.0
 -2.6806313E-009  8.9285572E-011 0.0
 -2.7970833E-009  8.6401528E-011 0.0
 -2.9072734E-009  8.3661873E-011 0.0
 -3.0106512E-009  8.0028241E-011 0.0
 -3.1074117E-009  7.4594481E-011 0.0
 -3.1982921E-009  6.6761903E-011 0.0
 -3.2842857E-009  5.6251186E-011 0.0
 -3.3666114E-009  4.2931301E-011 0.0
 -3.4468280E-009  2.7239163E-011 0.0
 -3.5250644E-009  1.1595362E-011 0.0
 -3.5940117E-009 -3.2237980E-013 0.0
 -3.7086754E-039 -3.7086754E-039 0.0
 -6.7514398E-012  6.3167580E-013 0.0
 -1.4738148E-011  2.3991151E-012 0.0
 -2.4623728E-011  4.3979250E-012 0.0
 -3.6856243E-011  6.8090889E-012 0.0
 -5.1281037E-011  9.7509447E-012 0.0
 -6.7740582E-011  1.3049919E-011 0.0
 -8.6268887E-011  1.6622754E-011 0.0
 -1.0693420E-010  2.0471376E-011 0.0
 -1.2979504E-010  2.4636295E-011 0.0
 -1.5489229E-010  2.9164621E-011 0.0
 -1.8225746E-010  3.4096567E-011 0.0
 -2.1192237E-010  3.9462747E-011 0.0
 -2.4392666E-010  4.5285725E-011 0.0
 -2.7832280E-010  5.1582212E-011 0.0
 -3.1517958E-010  5.8364442E-011 0.0
 -3.5458485E-010  6.5640295E-011 0.0
 -3.9664780E-010  7.3412135E-011 0.0
 -4.4150084E-010  8.1674418E-011 0.0
 -4.8930092E-010  9.0410081E-011 0.0
 -5.4022963E-010  9.9585762E-011 0.0
 -5.9449156E-010  1.0914590E-010 0.0
 -6.5230991E-010  1.1900599E-010 0.0
 -7.1391870E-010  1.2904561E-010 0.0
 -7.7955079E-010  1.3910215E-010 0.0
 -8.4942199E-010  1.4896711E-010 0.0
 -9.2371231E-010  1.5838659E-010 0.0
 -1.0025473E-009  1.6706819E-010 0.0
 -1.0859833E-009  1.7469534E-010 0.0
 -1.1740016E-009  1.8094895E-010 0.0
 -1.2665151E-009  1.8553440E-010 0.0
 -1.3633878E-009  1.8821089E-010 0.0
 -1.4644644E-009  1.8881930E-010 0.0
 -1.5696031E-009  1.8730579E-010 0.0
 -1.6786987E-009  1.8373940E-010 0.0
 -1.7916877E-009  1.7832454E-010 0.0
 -1.9085209E-009  1.7141246E-010 0.0
 -2.0290905E-009  1.6351733E-010 0.0
 -2.1530894E-009  1.5533080E-010 0.0
 -2.2797952E-009  1.4770149E-010 0.0
 -2.4078315E-009  1.4151039E-010 0.0
 -2.5350659E-009  1.3740767E-010 0.0
 -2.6588433E-009  1.3548435E-010 0.0
 -2.7765931E-009  1.3509269E-010 0.0
 -2.8865453E-009  1.3498317E-010 0.0
 -2.9881581E-009  1.3372570E-010 0.0
 -3.0820518E-009  1.3017501E-010 0.0
 -3.1695671E-009  1.2375585E-010 0.0
 -3.2522722E-009  1.1447703E-010 0.0
 -3.3315508E-009  1.0269862E-010 0.0
 -3.4100271E-009  8.8076651E-011 0.0
 -3.4933497E-009  7.1962246E-011 0.0
 -3.5766727E-009  6.1069464E-011 0.0
 -3.7086754E-039 -3.7086754E-039 0.0
 -7.6699350E-012  4.2043508E-012 0.0
 -1.5023047E-011  6.5659672E-012 0.0
 -2.5384933E-011  8.7114609E-012 0.0
 -3.8477831E-011  1.2097413E-011 0.0
 -5.3352071E-011  1.6053633E-011 0.0
 -7.0076703E-011  2.0244444E-011 0.0
 -8.8827428E-011  2.4625541E-011 0.0
 -1.0973993E-010  2.9264600E-011 0.0
 -1.3288481E-010  3.4246904E-011 0.0
 -1.5829283E-010  3.9640430E-011 0.0
 -1.8598032E-010  4.5490887E-011 0.0
 -2.1596564E-010  5.1826967E-011 0.0
 -2.4827772E-010  5.8666502E-011 0.0
 -2.8295997E-010  6.6020627E-011 0.0
 -3.2007230E-010  7.3895598E-011 0.0
 -3.5969227E-010  8.2292688E-011 0.0
 -4.0191606E-010  9.1206629E-011 0.0
 -4.4685923E-010  1.0062290E-010 0.0
 -4.9465689E-010  1.1051408E-010 0.0
 -5.4546299E-010  1.2083538E-010 0.0
 -5.9944807E-010  1.3151961E-010 0.0
 -6.5679490E-010  1.4247185E-010 0.0
 -7.1769164E-010  1.5356451E-010 0.0
 -7.8232237E-010  1.6463346E-010 0.0
 -8.5085531E-010  1.7547657E-010 0.0
 -9.2343025E-010  1.8585568E-010 0.0
 -1.0001473E-009  1.9550310E-010 0.0
 -1.0810601E-009  2.0413304E-010 0.0
 -1.1661767E-009  2.1145765E-010 0.0
 -1.2554699E-009  2.1720645E-010 0.0
 -1.3488993E-009  2.2114771E-010 0.0
 -1.4464389E-009  2.2311039E-010 0.0
 -1.5481060E-009  2.2300585E-010 0.0
 -1.6539810E-009  2.2084814E-010 0.0
 -1.7642069E-009  2.1677188E-010 0.0
 -1.8789642E-009  2.1104915E-010 0.0
 -1.9984087E-009  2.0411951E-010 0.0
 -2.1225299E-009  1.9665522E-010 0.0
 -2.2508561E-009  1.8962689E-010 0.0
 -2.3819860E-009  1.8424827E-010 0.0
 -2.5132031E-009  1.8159926E-010 0.0
 -2.6406834E-009  1.8201506E-010 0.0
 -2.7605611E-009  1.8464105E-010 0.0
 -2.8703136E-009  1.8764254E-010 0.0
 -2.9695288E-009  1.8897484E-010 0.0
 -3.0596252E-009  1.8718819E-010 0.0
 -3.1429705E-009  1.8180814E-010 0.0
 -3.2219845E-009  1.7334631E-010 0.0
 -3.2987311E-009  1.6314932E-010 0.0
 -3.3740093E-009  1.5329445E-010 0.0
 -3.4609429E-009  1.4438216E-010 0.0
 -3.5791000E-009  1.4870800E-010 0.0
 -7.2061992E-013  1.0288652E-011 0.0
 -7.7100022E-012  8.9060587E-012 0.0
 -1.3753896E-011  8.2987692E-012 0.0
 -2.6600004E-011  1.2191853E-011 0.0
 -4.0444383E-011  1.7278177E-011 0.0
 -5.5518619E-011  2.2324521E-011 0.0
 -7.2327749E-011  2.7254651E-011 0.0
 -9.1232800E-011  3.2254937E-011 0.0
 -1.1239492E-010  3.7524399E-011 0.0
 -1.3585719E-010  4.3200547E-011 0.0
 -1.6161566E-010  4.9360697E-011 0.0
 -1.8966025E-010  5.6042967E-011 0.0
 -2.1999194E-010  6.3264544E-011 0.0
 -2.5262814E-010  7.1032829E-011 0.0
 -2.8760325E-010  7.9350503E-011 0.0
 -3.2496816E-010  8.8216835E-011 0.0
 -3.6478965E-010  9.7626741E-011 0.0
 -4.0715012E-010  1.0756851E-010 0.0
 -4.5214744E-010  1.1802071E-010 0.0
 -4.9989448E-010  1.2894845E-010 0.0
 -5.5051797E-010  1.4029939E-010 0.0
 -6.0415622E-010  1.5199948E-010 0.0
 -6.6095530E-010  1.6394898E-010 0.0
 -7.2106355E-010  1.7601912E-010 0.0
 -7.8462440E-010  1.8805007E-010 0.0
 -8.5176820E-010  1.9985094E-010 0.0
 -9.2260416E-010  2.1120249E-010 0.0
 -9.9721426E-010  2.2186298E-010 0.0
 -1.0756515E-009  2.3157697E-010 0.0
 -1.1579451E-009  2.4008671E-010 0.0
 -1.2441146E-009  2.4714521E-010 0.0
 -1.3341932E-009  2.5253074E-010 0.0
 -1.4282594E-009  2.5606325E-010 0.0
 -1.5264689E-009  2.5762442E-010 0.0
 -1.6290757E-009  2.5718181E-010 0.0
 -1.7364298E-009  2.5481231E-010 0.0
 -1.8489469E-009  2.5071606E-010 0.0
 -1.9670673E-009  2.4522095E-010 0.0
 -2.0911975E-009  2.3885020E-010 0.0
 -2.2214211E-009  2.3255796E-010 0.0
 -2.3567124E-009  2.2789293E-010 0.0
 -2.4937989E-009  2.2666352E-010 0.0
 -2.6269916E-009  2.2970483E-010 0.0
 -2.7501350E-009  2.3588584E-010 0.0
 -2.8594585E-009  2.4235813E-010 0.0
 -2.9550495E-009  2.4613135E-010 0.0
 -3.0398469E-009  2.4546516E-010 0.0
 -3.1177354E-009  2.4012538E-010 0.0
 -3.1923784E-009  2.3096853E-010 0.0
 -3.2663947E-009  2.1972117E-010 0.0
 -3.3412357E-009  2.0847628E-010 0.0
 -3.4057932E-009  1.9172820E-010 0.0
 -3.7086754E-039 -3.7086754E-039 0.0
 -1.5048184E-011  7.8009390E-012 0.0
 -2.9198914E-011  1.6396946E-011 0.0
 -4.2867665E-011  2.3179408E-011 0.0
 -5.7579995E-011  2.8847491E-011 0.0
 -7.4265236E-011  3.4077326E-011 0.0
 -9.3308894E-011  3.9395867E-011 0.0
 -1.1478097E-010  4.5112360E-011 0.0
 -1.3863276E-010  5.1368433E-011 0.0
 -1.6480129E-010  5.8212562E-011 0.0
 -1.9324498E-010  6.5652139E-011 0.0
 -2.2394944E-010  7.3681571E-011 0.0
 -2.5692360E-010  8.2293174E-011 0.0
 -2.9219522E-010  9.1479973E-011 0.0
 -3.2980748E-010  1.0123477E-010 0.0
 -3.6981684E-010  1.1154757E-010 0.0
 -4.1229190E-010  1.2240226E-010 0.0
 -4.5731268E-010  1.3377298E-010 0.0
 -5.0497000E-010  1.4562043E-010 0.0
 -5.5536435E-010  1.5788822E-010 0.0
 -6.0860397E-010  1.7049946E-010 0.0
 -6.6480190E-010  1.8335389E-010 0.0
 -7.2407191E-010  1.9632587E-010 0.0
 -7.8652355E-010  2.0926373E-010 0.0
 -8.5225678E-010  2.2199093E-010 0.0
 -9.2135727E-010  2.3430932E-010 0.0
 -9.9389370E-010  2.4600444E-010 0.0
 -1.0699191E-009  2.5685258E-010 0.0
 -1.1494782E-009  2.6662861E-010 0.0
 -1.2326235E-009  2.7511391E-010 0.0
 -1.3194419E-009  2.8210420E-010 0.0
 -1.4100915E-009  2.8741943E-010 0.0
 -1.5048450E-009  2.9092118E-010 0.0
 -1.6041235E-009  2.9254354E-010 0.0
 -1.7084953E-009  2.9233419E-010 0.0
 -1.8186238E-009  2.9047772E-010 0.0
 -1.9351907E-009  2.8725868E-010 0.0
 -2.0589480E-009  2.8295272E-010 0.0
 -2.1908895E-009  2.7804239E-010 0.0
 -2.3312804E-009  2.7420209E-010 0.0
 -2.4768735E-009  2.7421514E-010 0.0
 -2.6188992E-009  2.8010015E-010 0.0
 -2.7468686E-009  2.9026492E-010 0.0
 -2.8548624E-009  3.0015813E-010 0.0
 -2.9445660E-009  3.0540825E-010 0.0
 -3.0219116E-009  3.0440216E-010 0.0
 -3.0927492E-009  2.9778789E-010 0.0
 -3.1615450E-009  2.8666607E-010 0.0
 -3.2321434E-009  2.7207217E-010 0.0
 -3.3046489E-009  2.5563794E-010 0.0
 -3.3669516E-009  2.4138114E-010 0.0
  3.0986152E-034 -3.7086754E-039 0.0
 -2.0015325E-011  1.5143319E-011 0.0
 -3.2753334E-011  2.4258840E-011 0.0
 -4.5019722E-011  3.0568777E-011 0.0
 -5.8948383E-011  3.5591597E-011 0.0
 -7.5518810E-011  4.0452067E-011 0.0
 -9.4860300E-011  4.5783719E-011 0.0
 -1.1680261E-010  5.1822614E-011 0.0
 -1.4116043E-010  5.8603658E-011 0.0
 -1.6781153E-010  6.6088948E-011 0.0
 -1.9669564E-010  7.4233901E-011 0.0
 -2.2779366E-010  8.3004204E-011 0.0
 -2.6111331E-010  9.2377160E-011 0.0
 -2.9668002E-010  1.0233825E-010 0.0
 -3.3453155E-010  1.1287656E-010 0.0
 -3.7471497E-010  1.2397998E-010 0.0
 -4.1728531E-010  1.3563076E-010 0.0
 -4.6230488E-010  1.4780143E-010 0.0
 -5.0984284E-010  1.6045111E-010 0.0
 -5.5997455E-010  1.7352234E-010 0.0
 -6.1278025E-010  1.8693847E-010 0.0
 -6.6834317E-010  2.0060168E-010 0.0
 -7.2674694E-010  2.1439211E-010 0.0
 -7.8807261E-010  2.2816834E-010 0.0
 -8.5239564E-010  2.4176947E-010 0.0
 -9.1978366E-010  2.5501910E-010 0.0
 -9.9029597E-010  2.6773073E-010 0.0
 -1.0639863E-009  2.7971410E-010 0.0
 -1.1409106E-009  2.9078114E-010 0.0
 -1.2211435E-009  3.0075030E-010 0.0
 -1.3048054E-009  3.0944865E-010 0.0
 -1.3921064E-009  3.1671280E-010 0.0
 -1.4834085E-009  3.2239743E-010 0.0
 -1.5792928E-009  3.2641143E-010 0.0
 -1.6805859E-009  3.2879510E-010 0.0
 -1.7882719E-009  3.2981181E-010 0.0
 -1.9032919E-009  3.2993118E-010 0.0
 -2.0264050E-009  3.2955935E-010 0.0
 -2.1589884E-009  3.2836386E-010 0.0
 -2.3044843E-009  3.2634459E-010 0.0
 -2.4622257E-009  3.2792179E-010 0.0
 -2.6178479E-009  3.3647588E-010 0.0
 -2.7528685E-009  3.5040945E-010 0.0
 -2.8568861E-009  3.6222688E-010 0.0
 -2.9368430E-009  3.6603976E-010 0.0
 -3.0043361E-009  3.6204143E-010 0.0
 -3.0670394E-009  3.5275993E-010 0.0
 -3.1289926E-009  3.4011293E-010 0.0
 -3.1937734E-009  3.2389804E-010 0.0
 -3.2676626E-009  3.0493591E-010 0.0
 -3.3433599E-009  2.9112902E-010 0.0
 -4.9059086E-012  3.1303858E-011 0.0
 -2.3641176E-011  3.2125778E-011 0.0
 -3.4938379E-011  3.5485169E-011 0.0
 -4.5435813E-011  3.8518640E-011 0.0
 -5.8833017E-011  4.1627111E-011 0.0
 -7.5761129E-011  4.5697219E-011 0.0
 -9.5795410E-011  5.0991822E-011 0.0
 -1.1845469E-010  5.7419260E-011 0.0
 -1.4344551E-010  6.4776487E-011 0.0
 -1.7063993E-010  7.2913090E-011 0.0
 -1.9998940E-010  8.1734896E-011 0.0
 -2.3148711E-010  9.1187156E-011 0.0
 -2.6514859E-010  1.0123986E-010 0.0
 -3.0100171E-010  1.1187731E-010 0.0
 -3.3908093E-010  1.2308993E-010 0.0
 -3.7942460E-010  1.3486755E-010 0.0
 -4.2207416E-010  1.4719401E-010 0.0
 -4.6707412E-010  1.6004291E-010 0.0
 -5.1447229E-010  1.7337424E-010 0.0
 -5.6431976E-010  1.8713176E-010 0.0
 -6.1667047E-010  2.0124109E-010 0.0
 -6.7158040E-010  2.1560855E-010 0.0
 -7.2910643E-010  2.3012115E-010 0.0
 -7.8930523E-010  2.4464793E-010 0.0
 -8.5223227E-010  2.5904295E-010 0.0
 -9.1794166E-010  2.7315011E-010 0.0
 -9.8648705E-010  2.8680941E-010 0.0
 -1.0579249E-009  2.9986398E-010 0.0
 -1.1323212E-009  3.1216617E-010 0.0
 -1.2097656E-009  3.2358095E-010 0.0
 -1.2903964E-009  3.3398444E-010 0.0
 -1.3744456E-009  3.4325723E-010 0.0
 -1.4623175E-009  3.5127248E-010 0.0
 -1.5547204E-009  3.5790903E-010 0.0
 -1.6527907E-009  3.6316983E-010 0.0
 -1.7580405E-009  3.6741631E-010 0.0
 -1.8719098E-009  3.7157823E-010 0.0
 -1.9951991E-009  3.7694294E-010 0.0
 -2.1279858E-009  3.8432189E-010 0.0
 -2.2750961E-009  3.9124490E-010 0.0
 -2.4499463E-009  3.9671030E-010 0.0
 -2.6249119E-009  4.0799999E-010 0.0
 -2.7700654E-009  4.2097481E-010 0.0
 -2.8634227E-009  4.2759238E-010 0.0
 -2.9288715E-009  4.2368849E-010 0.0
 -2.9853197E-009  4.1386399E-010 0.0
 -3.0396780E-009  4.0104091E-010 0.0
 -3.0957764E-009  3.8695669E-010 0.0
 -3.1543583E-009  3.7462583E-010 0.0
 -3.2285680E-009  3.6445872E-010 0.0
 -3.3455524E-009  3.7051688E-010 0.0
 -5.8702169E-012  4.7061821E-011 0.0
 -2.5541678E-011  4.5672915E-011 0.0
 -3.3955517E-011  4.4536590E-011 0.0
 -4.2931777E-011  4.3834528E-011 0.0
 -5.6843421E-011  4.5133661E-011 0.0
 -7.5046349E-011  4.8846168E-011 0.0
 -9.6295986E-011  5.4623827E-011 0.0
 -1.1986655E-010  6.1755896E-011 0.0
 -1.4555673E-010  6.9839277E-011 0.0
 -1.7330730E-010  7.8671059E-011 0.0
 -2.0311347E-010  8.8148972E-011 0.0
 -2.3499381E-010  9.8221210E-011 0.0
 -2.6897849E-010  1.0886476E-010 0.0
 -3.0510084E-010  1.2007240E-010 0.0
 -3.4339281E-010  1.3184258E-010 0.0
 -3.8388356E-010  1.4417159E-010 0.0
 -4.2660009E-010  1.5704799E-010 0.0
 -4.7156849E-010  1.7044868E-010 0.0
 -5.1881509E-010  1.8433624E-010 0.0
 -5.6836722E-010  1.9865705E-010 0.0
 -6.2025366E-010  2.1334006E-010 0.0
 -6.7450484E-010  2.2829628E-010 0.0
 -7.3115315E-010  2.4341925E-010 0.0
 -7.9023353E-010  2.5858699E-010 0.0
 -8.5178454E-010  2.7366563E-010 0.0
 -9.1585015E-010  2.8851516E-010 0.0
 -9.8248210E-010  3.0299706E-010 0.0
 -1.0517432E-009  3.1698332E-010 0.0
 -1.1237121E-009  3.3036504E-010 0.0
 -1.1984929E-009  3.4305820E-010 0.0
 -1.2762335E-009  3.5500314E-010 0.0
 -1.3571661E-009  3.6615462E-010 0.0
 -1.4416798E-009  3.7646273E-010 0.0
 -1.5304869E-009  3.8581120E-010 0.0
 -1.6249984E-009  3.9403505E-010 0.0
 -1.7275643E-009  4.0139795E-010 0.0
 -1.8408337E-009  4.0924128E-010 0.0
 -1.9659887E-009  4.2010571E-010 0.0
 -2.1023333E-009  4.3700685E-010 0.0
 -2.2483455E-009  4.6390091E-010 0.0
 -2.4579241E-009  5.2309023E-010 0.0
 -2.6211968E-009  5.2960244E-010 0.0
 -2.7962552E-009  4.9659332E-010 0.0
 -2.8682548E-009  4.8203997E-010 0.0
 -2.9181904E-009  4.6754446E-010 0.0
 -2.9642403E-009  4.5336924E-010 0.0
 -3.0100226E-009  4.3795892E-010 0.0
 -3.0598674E-009  4.2112858E-010 0.0
 -3.1175199E-009  4.0492690E-010 0.0
 -3.1631051E-009  3.8487158E-010 0.0
 -3.1180133E-011  4.5301135E-011 0.0
 -2.9679761E-011  4.4925993E-011 0.0
 -3.7438542E-011  4.2932269E-011 0.0
 -5.3599117E-011  4.4135839E-011 0.0
 -7.4204605E-011  4.9449187E-011 0.0
 -9.6809444E-011  5.6686039E-011 0.0
 -1.2125880E-010  6.4932163E-011 0.0
 -1.4758691E-010  7.3884819E-011 0.0
 -1.7583791E-010  8.3434193E-011 0.0
 -2.0604980E-010  9.3525649E-011 0.0
 -2.3826906E-010  1.0413539E-010 0.0
 -2.7254279E-010  1.1526297E-010 0.0
 -3.0890991E-010  1.2692015E-010 0.0
 -3.4739807E-010  1.3912013E-010 0.0
 -3.8802491E-010  1.5186959E-010 0.0
 -4.3080095E-010  1.6516389E-010 0.0
 -4.7573251E-010  1.7898440E-010 0.0
 -5.2282386E-010  1.9329705E-010 0.0
 -5.7207868E-010  2.0805134E-010 0.0
 -6.2350110E-010  2.2317974E-010 0.0
 -6.7709683E-010  2.3859752E-010 0.0
 -7.3287466E-010  2.5420344E-010 0.0
 -7.9084880E-010  2.6988162E-010 0.0
 -8.5104205E-010  2.8550541E-010 0.0
 -9.1348990E-010  3.0094363E-010 0.0
 -9.7824486E-010  3.1606965E-010 0.0
 -1.0453805E-009  3.3077318E-010 0.0
 -1.1149942E-009  3.4497309E-010 0.0
 -1.1872106E-009  3.5862867E-010 0.0
 -1.2621900E-009  3.7174521E-010 0.0
 -1.3401534E-009  3.8436846E-010 0.0
 -1.4214585E-009  3.9656738E-010 0.0
 -1.5066793E-009  4.0842597E-010 0.0
 -1.5970181E-009  4.1970217E-010 0.0
 -1.6958021E-009  4.2980262E-010 0.0
 -1.8084189E-009  4.4006979E-010 0.0
 -1.9374110E-009  4.5417563E-010 0.0
 -2.0785376E-009  4.7428926E-010 0.0
 -2.2256683E-009  4.9648332E-010 0.0
 -2.8541724E-009  4.8438491E-010 0.0
 -2.8725197E-009  4.9565627E-010 0.0
 -2.9077947E-009  4.8747047E-010 0.0
 -2.9424964E-009  4.7481004E-010 0.0
 -2.9788823E-009  4.6075788E-010 0.0
 -3.0197800E-009  4.4399585E-010 0.0
 -3.0725453E-009  4.2217556E-010 0.0
 -3.1257821E-009  4.0436511E-010 0.0
 -3.6937981E-011  3.5863111E-011 0.0
 -2.0715082E-011  3.4887271E-011 0.0
 -2.9935218E-011  3.2131255E-011 0.0
 -5.1966796E-011  3.9339086E-011 0.0
 -7.4341266E-011  4.8546146E-011 0.0
 -9.7763299E-011  5.7862738E-011 0.0
 -1.2277691E-010  6.7330237E-011 0.0
 -1.4958515E-010  7.7141588E-011 0.0
 -1.7822610E-010  8.7352498E-011 0.0
 -2.0875526E-010  9.7963652E-011 0.0
 -2.4124668E-010  1.0899029E-010 0.0
 -2.7576428E-010  1.2046687E-010 0.0
 -3.1234901E-010  1.3243331E-010 0.0
 -3.5101909E-010  1.4492242E-010 0.0
 -3.9177591E-010  1.5795297E-010 0.0
 -4.3461019E-010  1.7152721E-010 0.0
 -4.7950658E-010  1.8563052E-010 0.0
 -5.2644653E-010  2.0023166E-010 0.0
 -5.7540988E-010  2.1528291E-010 0.0
 -6.2637624E-010  2.3071984E-010 0.0
 -6.7932650E-010  2.4646116E-010 0.0
 -7.3424540E-010  2.6240893E-010 0.0
 -7.9112539E-010  2.7844991E-010 0.0
 -8.4997209E-010  2.9445859E-010 0.0
 -9.1081120E-010  3.1030304E-010 0.0
 -9.7369605E-010  3.2585457E-010 0.0
 -1.0387138E-009  3.4100187E-010 0.0
 -1.1059878E-009  3.5566899E-010 0.0
 -1.1756737E-009  3.6983362E-010 0.0
 -1.2479557E-009  3.8353987E-010 0.0
 -1.3230495E-009  3.9690317E-010 0.0
 -1.4012422E-009  4.1009096E-010 0.0
 -1.4831140E-009  4.2334009E-010 0.0
 -1.5692518E-009  4.3731216E-010 0.0
 -1.6616166E-009  4.5113018E-010 0.0
 -1.7714256E-009  4.6258467E-010 0.0
 -1.9085208E-009  4.7921965E-010 0.0
 -2.0548644E-009  5.0426169E-010 0.0
 -2.8899972E-009  4.7875206E-010 0.0
 -2.8864293E-009  4.8619740E-010 0.0
 -2.8994344E-009  4.8465832E-010 0.0
 -2.9219215E-009  4.7639534E-010 0.0
 -2.9491246E-009  4.6586688E-010 0.0
 -2.9787769E-009  4.5650673E-010 0.0
 -3.0246802E-009  4.4796771E-010 0.0
 -3.1266067E-009  4.5738606E-010 0.0
 -4.4731830E-011  4.4108610E-012 0.0
  2.5300087E-034 -3.0281208E-039 0.0
 -3.0383432E-011  1.9123038E-011 0.0
 -5.3786424E-011  3.6210596E-011 0.0
 -7.5719408E-011  4.8631079E-011 0.0
 -9.9029252E-011  5.9143779E-011 0.0
 -1.2436746E-010  6.9406687E-011 0.0
 -1.5151849E-010  7.9894534E-011 0.0
 -1.8041293E-010  9.0620079E-011 0.0
 -2.1114391E-010  1.0158965E-010 0.0
 -2.4382727E-010  1.1286164E-010 0.0
 -2.7854252E-010  1.2451757E-010 0.0
 -3.1532354E-010  1.3663206E-010 0.0
 -3.5416957E-010  1.4925824E-010 0.0
 -3.9505864E-010  1.6242465E-010 0.0
 -4.3795755E-010  1.7613736E-010 0.0
 -4.8282751E-010  1.9038320E-010 0.0
 -5.2962663E-010  2.0513209E-010 0.0
 -5.7831102E-010  2.2033808E-010 0.0
 -6.2883560E-010  2.3593923E-010 0.0
 -6.8115572E-010  2.5185687E-010 0.0
 -7.3523030E-010  2.6799484E-010 0.0
 -7.9102694E-010  2.8423941E-010 0.0
 -8.4852954E-010  3.0046046E-010 0.0
 -9.0774847E-010  3.1651533E-010 0.0
 -9.6873273E-010  3.3225688E-010 0.0
 -1.0315813E-009  3.4754813E-010 0.0
 -1.0964480E-009  3.6228470E-010 0.0
 -1.1635322E-009  3.7642176E-010 0.0
 -1.2330527E-009  3.8999247E-010 0.0
 -1.3052281E-009  4.0310617E-010 0.0
 -1.3802583E-009  4.1594375E-010 0.0
 -1.4584016E-009  4.2858087E-010 0.0
 -1.5411472E-009  4.4118708E-010 0.0
 -1.6271514E-009  4.5757700E-010 0.0
 -1.7249190E-009  4.7787389E-010 0.0
 -1.8862194E-009  5.0483412E-010 0.0
 -2.9170825E-009  4.6113370E-010 0.0
 -2.8943299E-009  4.6447108E-010 0.0
 -2.8930921E-009  4.6442838E-010 0.0
 -2.9022704E-009  4.5982887E-010 0.0
 -2.9189137E-009  4.5053870E-010 0.0
 -2.9426710E-009  4.3880758E-010 0.0
 -2.9469018E-009  4.1781000E-010 0.0
 -3.7086754E-039 -3.7086754E-039 0.0
 -3.7470527E-011  2.6016406E-011 0.0
 -5.6733999E-011  4.0940243E-011 0.0
 -7.6461334E-011  5.0964458E-011 0.0
 -1.0002304E-010  6.0773924E-011 0.0
 -1.2590647E-010  7.1434385E-011 0.0
 -1.5330085E-010  8.2412991E-011 0.0
 -1.8227641E-010  9.3438546E-011 0.0
 -2.1307233E-010  1.0452731E-010 0.0
 -2.4587012E-010  1.1581504E-010 0.0
 -2.8075222E-010  1.2744698E-010 0.0
 -3.1772636E-010  1.3953315E-010 0.0
 -3.5675790E-010  1.5214001E-010 0.0
 -3.9779310E-010  1.6529740E-010 0.0
 -4.4077140E-010  1.7900828E-010 0.0
 -4.8562997E-010  1.9325633E-010 0.0
 -5.3230432E-010  2.0801011E-010 0.0
 -5.8072752E-010  2.2322436E-010 0.0
 -6.3082994E-010  2.3883929E-010 0.0
 -6.8254029E-010  2.5477872E-010 0.0
 -7.3578890E-010  2.7094775E-010 0.0
 -7.9051362E-010  2.8723061E-010 0.0
 -8.4666902E-010  3.0348908E-010 0.0
 -9.0423966E-010  3.1956245E-010 0.0
 -9.6325751E-010  3.3527085E-010 0.0
 -1.0238222E-009  3.5042586E-010 0.0
 -1.0861159E-009  3.6485415E-010 0.0
 -1.1503946E-009  3.7843549E-010 0.0
 -1.2169322E-009  3.9113892E-010 0.0
 -1.2859263E-009  4.0299908E-010 0.0
 -1.3574887E-009  4.1402542E-010 0.0
 -1.4313663E-009  4.2423866E-010 0.0
 -1.5069354E-009  4.3180192E-010 0.0
 -1.5896992E-009  4.3128432E-010 0.0
 -1.6369989E-009  4.0890663E-010 0.0
 -2.9685168E-009  4.6245544E-010 0.0
 -2.9677998E-009  4.1916608E-010 0.0
 -2.9264502E-009  4.2287016E-010 0.0
 -2.8985278E-009  4.2771037E-010 0.0
 -2.8860671E-009  4.3040236E-010 0.0
 -2.8829457E-009  4.2906258E-010 0.0
 -2.8863859E-009  4.2152588E-010 0.0
 -2.8988822E-009  4.0462585E-010 0.0
 -2.9055708E-009  3.8789908E-010 0.0
 -3.0723410E-012  5.6170772E-011 0.0
 -4.1430318E-011  4.8423245E-011 0.0
 -5.3538614E-011  4.7936123E-011 0.0
 -7.4897691E-011  5.2224969E-011 0.0
 -1.0087534E-010  6.2162829E-011 0.0
 -1.2745806E-010  7.3631783E-011 0.0
 -1.5481247E-010  8.4986867E-011 0.0
 -1.8360569E-010  9.5988130E-011 0.0
 -2.1432463E-010  1.0685503E-010 0.0
 -2.4719228E-010  1.1787192E-010 0.0
 -2.8225036E-010  1.2925697E-010 0.0
 -3.1944683E-010  1.4113996E-010 0.0
 -3.5869512E-010  1.5358083E-010 0.0
 -3.9990305E-010  1.6659470E-010 0.0
 -4.4298241E-010  1.8017108E-010 0.0
 -4.8784869E-010  1.9428485E-010 0.0
 -5.3441749E-010  2.0890081E-010 0.0
 -5.8260086E-010  2.2397396E-010 0.0
 -6.3230521E-010  2.3944721E-010 0.0
 -6.8343153E-010  2.5524780E-010 0.0
 -7.3587834E-010  2.7128311E-010 0.0
 -7.8954778E-010  2.8743618E-010 0.0
 -8.4435551E-010  3.0356101E-010 0.0
 -9.0024560E-010  3.1947769E-010 0.0
 -9.5721216E-010  3.3496801E-010 0.0
 -1.0153299E-009  3.4977494E-010 0.0
 -1.0747905E-009  3.6361698E-010 0.0
 -1.1359173E-009  3.7623606E-010 0.0
 -1.1990983E-009  3.8747636E-010 0.0
 -1.2645454E-009  3.9732500E-010 0.0
 -1.3320252E-009  4.0562711E-010 0.0
 -1.4013728E-009  4.1181766E-010 0.0
 -1.4696924E-009  4.1714348E-010 0.0
 -1.5354769E-009  4.1892001E-010 0.0
 -1.6309800E-009  4.3688576E-010 0.0
 -2.9720971E-009  3.7650680E-010 0.0
 -2.9294745E-009  3.7822292E-010 0.0
 -2.8983440E-009  3.8138788E-010 0.0
 -2.8779470E-009  3.8423036E-010 0.0
 -2.8649878E-009  3.8520394E-010 0.0
 -2.8538119E-009  3.8437414E-010 0.0
 -2.8546944E-009  3.8043507E-010 0.0
 -2.9049834E-009  3.9052293E-010 0.0
 -3.4452348E-011  4.3367531E-011 0.0
 -4.3482506E-011  3.9216931E-011 0.0
 -7.4632657E-011  4.9895601E-011 0.0
 -1.0283233E-010  6.3939253E-011 0.0
 -1.2914292E-010  7.6702903E-011 0.0
 -1.5575512E-010  8.7961910E-011 0.0
 -1.8404131E-010  9.8355613E-011 0.0
 -2.1460478E-010  1.0853746E-010 0.0
 -2.4758508E-010  1.1896886E-010 0.0
 -2.8289760E-010  1.2990201E-010 0.0
 -3.2038895E-010  1.4143909E-010 0.0
 -3.5990745E-010  1.5359762E-010 0.0
 -4.0132362E-010  1.6635618E-010 0.0
 -4.4452775E-010  1.7967971E-010 0.0
 -4.8942038E-010  1.9352988E-010 0.0
 -5.3590261E-010  2.0786707E-010 0.0
 -5.8386885E-010  2.2264768E-010 0.0
 -6.3320280E-010  2.3781924E-010 0.0
 -6.8377679E-010  2.5331463E-010 0.0
 -7.3545433E-010  2.6904592E-010 0.0
 -7.8809601E-010  2.8489800E-010 0.0
 -8.4156894E-010  3.0072153E-010 0.0
 -8.9576112E-010  3.1632410E-010 0.0
 -9.5060350E-010  3.3145801E-010 0.0
 -1.0061056E-009  3.4580429E-010 0.0
 -1.0624162E-009  3.5895736E-010 0.0
 -1.1199077E-009  3.7045099E-010 0.0
 -1.1791763E-009  3.7990126E-010 0.0
 -1.2407399E-009  3.8723053E-010 0.0
 -1.3040358E-009  3.9271922E-010 0.0
 -1.3670090E-009  3.9512313E-010 0.0
 -1.4314500E-009  3.9034322E-010 0.0
 -1.4675088E-009  3.7246277E-010 0.0
 -2.9724795E-009  3.2269329E-010 0.0
 -2.9279833E-009  3.2397349E-010 0.0
 -2.8937132E-009  3.2571735E-010 0.0
 -2.8676922E-009  3.2703115E-010 0.0
 -2.8465885E-009  3.2668112E-010 0.0
 -2.8263840E-009  3.2342018E-010 0.0
 -2.7845696E-009  3.0674943E-010 0.0
  3.0986152E-034 -3.7086754E-039 0.0
 -4.5108873E-011  2.5364242E-011 0.0
 -8.0107048E-011  5.1997225E-011 0.0
 -1.0634539E-010  6.9392646E-011 0.0
 -1.3033356E-010  8.1685486E-011 0.0
 -1.5541517E-010  9.1464240E-011 0.0
 -1.8303693E-010  1.0034296E-010 0.0
 -2.1357453E-010  1.0933111E-010 0.0
 -2.4686420E-010  1.1892628E-010 0.0
 -2.8259844E-010  1.2928940E-010 0.0
 -3.2049731E-010  1.4041222E-010 0.0
 -3.6035095E-010  1.5222464E-010 0.0
 -4.0200853E-010  1.6464910E-010 0.0
 -4.4535399E-010  1.7761976E-010 0.0
 -4.9028452E-010  1.9108531E-010 0.0
 -5.3669452E-010  2.0500454E-010 0.0
 -5.8446515E-010  2.1933891E-010 0.0
 -6.3345892E-010  2.3404416E-010 0.0
 -6.8351861E-010  2.4906205E-010 0.0
 -7.3446977E-010  2.6431247E-010 0.0
 -7.8612642E-010  2.7968603E-010 0.0
 -8.3829963E-010  2.9503629E-010 0.0
 -8.9080960E-010  3.1017016E-010 0.0
 -9.4350304E-010  3.2483326E-010 0.0
 -9.9628377E-010  3.3868307E-010 0.0
 -1.0491724E-009  3.5124299E-010 0.0
 -1.1024612E-009  3.6182733E-010 0.0
 -1.1569974E-009  3.6961604E-010 0.0
 -1.2140680E-009  3.7421106E-010 0.0
 -1.2741666E-009  3.7635412E-010 0.0
 -1.3326454E-009  3.7858027E-010 0.0
 -1.3862687E-009  3.7951880E-010 0.0
 -1.4631833E-009  3.9367961E-010 0.0
 -3.0255452E-009  3.2158340E-010 0.0
 -3.0252440E-009  2.6351551E-010 0.0
 -2.9685615E-009  2.6224788E-010 0.0
 -2.9225182E-009  2.6157581E-010 0.0
 -2.8854753E-009  2.6178630E-010 0.0
 -2.8544880E-009  2.6131057E-010 0.0
 -2.8265395E-009  2.5789800E-010 0.0
 -2.7950151E-009  2.4918987E-010 0.0
 -2.7435432E-009  2.3777883E-010 0.0
 -5.2448590E-039 -5.2448590E-039 0.0
 -5.7392547E-011  5.1538661E-011 0.0
 -8.7796885E-011  6.8908839E-011 0.0
 -1.0876908E-010  8.0429633E-011 0.0
 -1.2927968E-010  8.8385124E-011 0.0
 -1.5265004E-010  9.4735711E-011 0.0
 -1.7998961E-010  1.0122074E-010 0.0
 -2.1098363E-010  1.0872872E-010 0.0
 -2.4496292E-010  1.1746777E-010 0.0
 -2.8135514E-010  1.2731887E-010 0.0
 -3.1978315E-010  1.3807118E-010 0.0
 -3.6002213E-010  1.4953891E-010 0.0
 -4.0193309E-010  1.6158524E-010 0.0
 -4.4541668E-010  1.7411926E-010 0.0
 -4.9038169E-010  1.8708463E-010 0.0
 -5.3672466E-010  2.0044628E-010 0.0
 -5.8431785E-010  2.1417731E-010 0.0
 -6.3300356E-010  2.2824680E-010 0.0
 -6.8259359E-010  2.4260917E-010 0.0
 -7.3287236E-010  2.5719497E-010 0.0
 -7.8360310E-010  2.7190305E-010 0.0
 -8.3453615E-010  2.8659378E-010 0.0
 -8.8541887E-010  3.0108243E-010 0.0
 -9.3600734E-010  3.1513030E-010 0.0
 -9.8608039E-010  3.2842717E-010 0.0
 -1.0354779E-009  3.4054188E-010 0.0
 -1.0841866E-009  3.5080750E-010 0.0
 -1.1328621E-009  3.5795636E-010 0.0
 -1.1840600E-009  3.6042360E-010 0.0
 -1.2408753E-009  3.5849962E-010 0.0
 -1.3011971E-009  3.5403705E-010 0.0
 -1.3307601E-009  3.4050773E-010 0.0
 -3.0202388E-009  1.9740027E-010 0.0
 -2.9598977E-009  1.9418644E-010 0.0
 -2.9134095E-009  1.9211141E-010 0.0
 -2.8748119E-009  1.9177781E-010 0.0
 -2.8396028E-009  1.9098467E-010 0.0
 -2.8044489E-009  1.8694349E-010 0.0
 -2.7679100E-009  1.7794669E-010 0.0
 -2.7221710E-009  1.6886290E-010 0.0
 -6.7022616E-011  8.9041840E-011 0.0
 -9.0557098E-011  9.0506311E-011 0.0
 -1.0682158E-010  9.2700909E-011 0.0
 -1.2380462E-010  9.3844375E-011 0.0
 -1.4642521E-010  9.5705347E-011 0.0
 -1.7459868E-010  9.9708718E-011 0.0
 -2.0689458E-010  1.0606803E-010 0.0
 -2.4204480E-010  1.1435115E-010 0.0
 -2.7930800E-010  1.2397524E-010 0.0
 -3.1833461E-010  1.3451535E-010 0.0
 -3.5895629E-010  1.4569322E-010 0.0
 -4.0108876E-010  1.5733901E-010 0.0
 -4.4467456E-010  1.6935815E-010 0.0
 -4.8964875E-010  1.8170575E-010 0.0
 -5.3591770E-010  1.9436538E-010 0.0
 -5.8334750E-010  2.0733078E-010 0.0
 -6.3175965E-010  2.2059061E-010 0.0
 -6.8093206E-010  2.3411570E-010 0.0
 -7.3060374E-010  2.4784889E-010 0.0
 -7.8048239E-010  2.6169698E-010 0.0
 -8.3025374E-010  2.7552510E-010 0.0
 -8.7959175E-010  2.8915400E-010 0.0
 -9.2816766E-010  3.0236111E-010 0.0
 -9.7565736E-010  3.1488635E-010 0.0
 -1.0217306E-009  3.2644061E-010 0.0
 -1.0660972E-009  3.3666149E-010 0.0
 -1.1084515E-009  3.4495346E-010 0.0
 -1.1508683E-009  3.4871660E-010 0.0
 -1.2037238E-009  3.4578252E-010 0.0
 -1.2698432E-009  3.4273097E-010 0.0
 -1.3257299E-009  3.5476134E-010 0.0
 -3.0063735E-009  1.2508822E-010 0.0
 -2.9464546E-009  1.1856977E-010 0.0
 -2.9023772E-009  1.1777191E-010 0.0
 -2.8630023E-009  1.1788911E-010 0.0
 -2.8252630E-009  1.1781014E-010 0.0
 -2.7847138E-009  1.1733640E-010 0.0
 -2.7440810E-009  1.1565068E-010 0.0
 -2.7218773E-009  1.2107755E-010 0.0
 -6.9704402E-011  1.0580492E-010 0.0
 -9.0818278E-011  1.0285399E-010 0.0
 -9.8536631E-011  9.8121581E-011 0.0
 -1.1271224E-010  9.3132601E-011 0.0
 -1.3656859E-010  9.1544593E-011 0.0
 -1.6736475E-010  9.4427168E-011 0.0
 -2.0191522E-010  1.0096940E-010 0.0
 -2.3853685E-010  1.0961241E-010 0.0
 -2.7672267E-010  1.1945390E-010 0.0
 -3.1629356E-010  1.2999146E-010 0.0
 -3.5720718E-010  1.4094348E-010 0.0
 -3.9946739E-010  1.5215894E-010 0.0
 -4.4307806E-010  1.6357193E-010 0.0
 -4.8801114E-010  1.7517110E-010 0.0
 -5.3418695E-010  1.8697384E-010 0.0
 -5.8146512E-010  1.9900478E-010 0.0
 -6.2964312E-010  2.1127834E-010 0.0
 -6.7845986E-010  2.2378506E-010 0.0
 -7.2760256E-010  2.3648054E-010 0.0
 -7.7671626E-010  2.4927677E-010 0.0
 -8.2541536E-010  2.6203590E-010 0.0
 -8.7329629E-010  2.7456797E-010 0.0
 -9.1995002E-010  2.8663526E-010 0.0
 -9.6496975E-010  2.9796928E-010 0.0
 -1.0079590E-009  3.0831994E-010 0.0
 -1.0484191E-009  3.1758338E-010 0.0
 -1.0859246E-009  3.2596192E-010 0.0
 -1.1183829E-009  3.3475377E-010 0.0
 -1.1609871E-009  3.4178086E-010 0.0
 -1.2594985E-009  3.5926687E-010 0.0
 -2.9763115E-009  4.3774340E-011 0.0
 -2.9326202E-009  4.2332062E-011 0.0
 -2.8899061E-009  4.2203822E-011 0.0
 -2.8509268E-009  4.2375343E-011 0.0
 -2.8117165E-009  4.2174938E-011 0.0
 -2.7695277E-009  4.0634221E-011 0.0
 -2.7109877E-009  3.3283727E-011 0.0
 -9.1929337E-011  9.4403660E-011 0.0
 -8.3811944E-011  8.9680730E-011 0.0
 -9.5812286E-011  8.1729573E-011 0.0
 -1.2460781E-010  7.9729167E-011 0.0
 -1.6012201E-010  8.5328568E-011 0.0
 -1.9706002E-010  9.3941841E-011 0.0
 -2.3500203E-010  1.0380741E-010 0.0
 -2.7389283E-010  1.1424255E-010 0.0
 -3.1379726E-010  1.2491817E-010 0.0
 -3.5481035E-010  1.3565292E-010 0.0
 -3.9703725E-010  1.4636359E-010 0.0
 -4.4055391E-010  1.5704458E-010 0.0
 -4.8537366E-010  1.6774013E-010 0.0
 -5.3142981E-010  1.7851633E-010 0.0
 -5.7857104E-010  1.8943774E-010 0.0
 -6.2656444E-010  2.0054957E-010 0.0
 -6.7510246E-010  2.1186431E-010 0.0
 -7.2381185E-010  2.2335051E-010 0.0
 -7.7226467E-010  2.3492269E-010 0.0
 -8.1999169E-010  2.4643202E-010 0.0
 -8.6649799E-010  2.5765902E-010 0.0
 -9.1127866E-010  2.6830934E-010 0.0
 -9.5383192E-010  2.7801315E-010 0.0
 -9.9365954E-010  2.8632090E-010 0.0
 -1.0303017E-009  2.9274499E-010 0.0
 -1.0625836E-009  2.9680653E-010 0.0
 -1.0890346E-009  2.9700294E-010 0.0
 -1.0818575E-009  2.7916258E-010 0.0
 -3.0043989E-009  3.8897129E-011 0.0
 -3.0041892E-009 -1.2523059E-011 0.0
 -2.9545712E-009 -2.0710164E-011 0.0
 -2.9143024E-009 -2.8731964E-011 0.0
 -2.8762768E-009 -3.2063888E-011 0.0
 -2.8388943E-009 -3.2322578E-011 0.0
 -2.7990504E-009 -3.2615644E-011 0.0
 -2.7536946E-009 -3.5779228E-011 0.0
 -2.6969038E-009 -3.9934757E-011 0.0
 -9.3641621E-011  7.4218799E-011 0.0
 -5.6687385E-011  6.5662198E-011 0.0
 -7.4805116E-011  5.3984273E-011 0.0
 -1.1607655E-010  6.3044880E-011 0.0
 -1.5485297E-010  7.5015055E-011 0.0
 -1.9321112E-010  8.6671417E-011 0.0
 -2.3182442E-010  9.7993271E-011 0.0
 -2.7100452E-010  1.0906516E-010 0.0
 -3.1091015E-010  1.1984532E-010 0.0
 -3.5174276E-010  1.3026172E-010 0.0
 -3.9371765E-010  1.4031725E-010 0.0
 -4.3698975E-010  1.5008845E-010 0.0
 -4.8161251E-010  1.5969342E-010 0.0
 -5.2752498E-010  1.6925830E-010 0.0
 -5.7455553E-010  1.7889290E-010 0.0
 -6.2243163E-010  1.8867512E-010 0.0
 -6.7079034E-010  1.9864003E-010 0.0
 -7.1918828E-010  2.0876990E-010 0.0
 -7.6711229E-010  2.1898256E-010 0.0
 -8.1399276E-010  2.2911739E-010 0.0
 -8.5922065E-010  2.3891951E-010 0.0
 -9.0216459E-010  2.4802333E-010 0.0
 -9.4217668E-010  2.5592800E-010 0.0
 -9.7856379E-010  2.6193961E-010 0.0
 -1.0105110E-009  2.6493389E-010 0.0
 -1.0371188E-009  2.6327506E-010 0.0
 -1.0524277E-009  2.5449874E-010 0.0
 -1.0407416E-009  2.4320302E-010 0.0
 -2.9848019E-009 -8.3888555E-011 0.0
 -2.9294170E-009 -9.4357267E-011 0.0
 -2.8935640E-009 -1.0225607E-010 0.0
 -2.8619887E-009 -1.0496566E-010 0.0
 -2.8281230E-009 -1.0468046E-010 0.0
 -2.7884218E-009 -1.0336916E-010 0.0
 -2.7418457E-009 -1.0267265E-010 0.0
 -2.6963034E-009 -9.9576139E-011 0.0
 -1.0952205E-010  5.7047634E-012 0.0
 -3.0281208E-039 -3.0281208E-039 0.0
 -6.9919309E-011  2.7317328E-011 0.0
 -1.1330488E-010  5.1766281E-011 0.0
 -1.5199391E-010  6.8040784E-011 0.0
 -1.9027366E-010  8.1235561E-011 0.0
 -2.2899970E-010  9.3278358E-011 0.0
 -2.6807143E-010  1.0469030E-010 0.0
 -3.0758434E-010  1.1535830E-010 0.0
 -3.4789337E-010  1.2522854E-010 0.0
 -3.8935853E-010  1.3438687E-010 0.0
 -4.3222336E-010  1.4301159E-010 0.0
 -4.7657211E-010  1.5130896E-010 0.0
 -5.2233406E-010  1.5946995E-010 0.0
 -5.6930269E-010  1.6764808E-010 0.0
 -6.1715474E-010  1.7595019E-010 0.0
 -6.6546376E-010  1.8443169E-010 0.0
 -7.1370855E-010  1.9309011E-010 0.0
 -7.6128007E-010  2.0185296E-010 0.0
 -8.0749159E-010  2.1055855E-010 0.0
 -8.5159529E-010  2.1893156E-010 0.0
 -8.9280398E-010  2.2655736E-010 0.0
 -9.3029786E-010  2.3286351E-010 0.0
 -9.6317577E-010  2.3709660E-010 0.0
 -9.9018921E-010  2.3826754E-010 0.0
 -1.0098676E-009  2.3434877E-010 0.0
 -1.0221331E-009  2.2487132E-010 0.0
 -1.0210889E-009  2.1585757E-010 0.0
 -2.9469576E-009 -1.5645818E-010 0.0
 -2.8998331E-009 -1.7199771E-010 0.0
 -2.8743757E-009 -1.7488614E-010 0.0
 -2.8491246E-009 -1.7485026E-010 0.0
 -2.8195827E-009 -1.7309160E-010 0.0
 -2.7818349E-009 -1.7130242E-010 0.0
 -2.7296490E-009 -1.7274730E-010 0.0
  3.0986152E-034 -3.7086754E-039 0.0
 -7.4251115E-011  3.7098562E-011 0.0
 -1.1222076E-010  5.4154742E-011 0.0
 -1.4885450E-010  6.6647352E-011 0.0
 -1.8735141E-010  7.8277843E-011 0.0
 -2.2637704E-010  9.0328342E-011 0.0
 -2.6499959E-010  1.0175270E-010 0.0
 -3.0366029E-010  1.1198785E-010 0.0
 -3.4304496E-010  1.2096073E-010 0.0
 -3.8372862E-010  1.2888589E-010 0.0
 -4.2604063E-010  1.3607561E-010 0.0
 -4.7007034E-010  1.4283354E-010 0.0
 -5.1571014E-010  1.4940912E-010 0.0
 -5.6269898E-010  1.5598676E-010 0.0
 -6.1065213E-010  1.6268993E-010 0.0
 -6.5907556E-010  1.6958730E-010 0.0
 -7.0736884E-010  1.7669289E-010 0.0
 -7.5482316E-010  1.8395534E-010 0.0
 -8.0062305E-010  1.9123433E-010 0.0
 -8.4386117E-010  1.9826606E-010 0.0
 -8.8356937E-010  2.0462960E-010 0.0
 -9.1876617E-010  2.0973263E-010 0.0
 -9.4846104E-010  2.1289158E-010 0.0
 -9.7160700E-010  2.1361834E-010 0.0
 -9.8599429E-010  2.1248649E-010 0.0
 -9.9664720E-010  2.0966122E-010 0.0
 -1.0216373E-009  2.1449354E-010 0.0
 -2.8811950E-009 -2.3516826E-010 0.0
 -2.8736639E-009 -2.3858385E-010 0.0
 -2.8565315E-009 -2.3871424E-010 0.0
 -2.8387290E-009 -2.3729166E-010 0.0
 -2.8144671E-009 -2.3453252E-010 0.0
 -2.7781616E-009 -2.3182850E-010 0.0
 -2.7278484E-009 -2.3042564E-010 0.0
 -3.3566993E-011  6.2109858E-011 0.0
 -7.1339745E-011  6.2343485E-011 0.0
 -1.0415567E-010  6.2164150E-011 0.0
 -1.4274068E-010  6.5763827E-011 0.0
 -1.8468162E-010  7.6912484E-011 0.0
 -2.2409257E-010  8.9470488E-011 0.0
 -2.6168542E-010  1.0079377E-010 0.0
 -2.9884716E-010  1.1015688E-010 0.0
 -3.3685585E-010  1.1773765E-010 0.0
 -3.7651357E-010  1.2400677E-010 0.0
 -4.1818750E-010  1.2944802E-010 0.0
 -4.6191697E-010  1.3445439E-010 0.0
 -5.0751669E-010  1.3930785E-010 0.0
 -5.5464851E-010  1.4419491E-010 0.0
 -6.0285942E-010  1.4923214E-010 0.0
 -6.5159196E-010  1.5448748E-010 0.0
 -7.0017607E-010  1.5998992E-010 0.0
 -7.4781183E-010  1.6572301E-010 0.0
 -7.9355494E-010  1.7159880E-010 0.0
 -8.3632065E-010  1.7741132E-010 0.0
 -8.7493162E-010  1.8277937E-010 0.0
 -9.0820569E-010  1.8711884E-010 0.0
 -9.3514169E-010  1.8965294E-010 0.0
 -9.5502204E-010  1.8966440E-010 0.0
 -9.6767593E-010  1.8716079E-010 0.0
 -9.6183081E-010  1.7892304E-010 0.0
 -2.8451385E-009 -2.4466543E-010 0.0
 -2.8446214E-009 -2.5454205E-010 0.0
 -2.8390656E-009 -2.6999077E-010 0.0
 -2.8429613E-009 -2.8446039E-010 0.0
 -2.8398108E-009 -2.8880824E-010 0.0
 -2.8303095E-009 -2.8795068E-010 0.0
 -2.8129488E-009 -2.8569852E-010 0.0
 -2.7806856E-009 -2.8300259E-010 0.0
 -2.7272440E-009 -2.8301067E-010 0.0
 -4.3934145E-011  7.3380684E-011 0.0
 -6.0156128E-011  6.4721329E-011 0.0
 -8.5118176E-011  5.0598207E-011 0.0
 -1.3910513E-010  6.1450557E-011 0.0
 -1.8407867E-010  7.7431682E-011 0.0
 -2.2262851E-010  9.1596566E-011 0.0
 -2.5783321E-010  1.0237460E-010 0.0
 -2.9263869E-010  1.1009044E-010 0.0
 -3.2883962E-010  1.1560194E-010 0.0
 -3.6733424E-010  1.1974218E-010 0.0
 -4.0840368E-010  1.2315637E-010 0.0
 -4.5194975E-010  1.2627893E-010 0.0
 -4.9765888E-010  1.2936931E-010 0.0
 -5.4509624E-010  1.3256856E-010 0.0
 -5.9374268E-010  1.3595143E-010 0.0
 -6.4299353E-010  1.3956352E-010 0.0
 -6.9213368E-010  1.4344149E-010 0.0
 -7.4029903E-010  1.4761426E-010 0.0
 -7.8643530E-010  1.5207977E-010 0.0
 -8.2927561E-010  1.5674931E-010 0.0
 -8.6737389E-010  1.6135546E-010 0.0
 -8.9928232E-010  1.6535070E-010 0.0
 -9.2374361E-010  1.6793350E-010 0.0
 -9.4027433E-010  1.6784413E-010 0.0
 -9.4915644E-010  1.6342615E-010 0.0
 -9.4638375E-010  1.5817309E-010 0.0
 -2.8039565E-009 -2.9831497E-010 0.0
 -2.7965311E-009 -3.1835479E-010 0.0
 -2.8144766E-009 -3.2418949E-010 0.0
 -2.8242645E-009 -3.2563840E-010 0.0
 -2.8245167E-009 -3.2383413E-010 0.0
 -2.8145960E-009 -3.2086126E-010 0.0
 -2.7947647E-009 -3.1579684E-010 0.0
 -3.7086754E-039  3.0986152E-034 0.0
 -8.4657443E-011  3.0448867E-011 0.0
 -1.4362978E-010  6.2060106E-011 0.0
 -1.8743531E-010  8.4029487E-011 0.0
 -2.2157528E-010  9.8265023E-011 0.0
 -2.5258050E-010  1.0675574E-010 0.0
 -2.8421907E-010  1.1155342E-010 0.0
 -3.1838874E-010  1.1420492E-010 0.0
 -3.5580616E-010  1.1580743E-010 0.0
 -3.9648809E-010  1.1706085E-010 0.0
 -4.4009096E-010  1.1833579E-010 0.0
 -4.8612688E-010  1.1978250E-010 0.0
 -5.3405846E-010  1.2143510E-010 0.0
 -5.8331708E-010  1.2328558E-010 0.0
 -6.3328071E-010  1.2533059E-010 0.0
 -6.8322922E-010  1.2759866E-010 0.0
 -7.3228281E-010  1.3016234E-010 0.0
 -7.7932571E-010  1.3312915E-010 0.0
 -8.2293248E-010  1.3658935E-010 0.0
 -8.6134833E-010  1.4049976E-010 0.0
 -8.9261949E-010  1.4447567E-010 0.0
 -9.1526931E-010  1.4762212E-010 0.0
 -9.2831643E-010  1.4932703E-010 0.0
 -9.3439475E-010  1.4947816E-010 0.0
 -9.4597883E-010  1.5300465E-010 0.0
 -2.7205488E-009 -3.5292615E-010 0.0
 -2.7644226E-009 -3.5437579E-010 0.0
 -2.7924077E-009 -3.5114078E-010 0.0
 -2.8132049E-009 -3.4790333E-010 0.0
 -2.8228437E-009 -3.4325071E-010 0.0
 -2.8207233E-009 -3.3759159E-010 0.0
 -2.8121538E-009 -3.3138260E-010 0.0
 -3.7086754E-039 -3.7086754E-039 0.0
 -9.8278922E-011  5.3532520E-011 0.0
 -1.5649257E-010  8.3036484E-011 0.0
 -1.9215259E-010  1.0073339E-010 0.0
 -2.1880704E-010  1.0945908E-010 0.0
 -2.4439542E-010  1.1294818E-010 0.0
 -2.7256529E-010  1.1348419E-010 0.0
 -3.0489826E-010  1.1266654E-010 0.0
 -3.4166380E-010  1.1161029E-010 0.0
 -3.8239989E-010  1.1087635E-010 0.0
 -4.2641962E-010  1.1061371E-010 0.0
 -4.7304433E-010  1.1076119E-010 0.0
 -5.2165577E-010  1.1118727E-010 0.0
 -5.7167048E-010  1.1176884E-010 0.0
 -6.2248903E-010  1.1242919E-010 0.0
 -6.7343580E-010  1.1316414E-010 0.0
 -7.2368076E-010  1.1406603E-010 0.0
 -7.7213244E-010  1.1534106E-010 0.0
 -8.1728884E-010  1.1729777E-010 0.0
 -8.5709596E-010  1.2022547E-010 0.0
 -8.8894230E-010  1.2413798E-010 0.0
 -9.1005741E-010  1.2813035E-010 0.0
 -9.2051223E-010  1.2978319E-010 0.0
 -9.1726899E-010  1.2641998E-010 0.0
 -2.6182961E-009 -3.6894923E-010 0.0
 -2.6139144E-009 -3.2874013E-010 0.0
 -2.6679477E-009 -3.5078047E-010 0.0
 -2.7331044E-009 -3.5722224E-010 0.0
 -2.7758730E-009 -3.5622019E-010 0.0
 -2.8066779E-009 -3.5219572E-010 0.0
 -2.8264657E-009 -3.4670225E-010 0.0
 -2.8316282E-009 -3.3866822E-010 0.0
 -2.8264825E-009 -3.3134290E-010 0.0
 -5.4221908E-012  1.3953837E-010 0.0
 -1.0646299E-010  1.2449066E-010 0.0
 -1.6710776E-010  1.2063828E-010 0.0
 -1.9291254E-010  1.2140475E-010 0.0
 -2.1173367E-010  1.2090682E-010 0.0
 -2.3177721E-010  1.1815647E-010 0.0
 -2.5675615E-010  1.1384970E-010 0.0
 -2.8801413E-010  1.0959086E-010 0.0
 -3.2494793E-010  1.0634615E-010 0.0
 -3.6638091E-010  1.0428210E-010 0.0
 -4.1124065E-010  1.0315486E-010 0.0
 -4.5870530E-010  1.0260585E-010 0.0
 -5.0813849E-010  1.0232101E-010 0.0
 -5.5898837E-010  1.0205848E-010 0.0
 -6.1071798E-010  1.0165714E-010 0.0
 -6.6274131E-010  1.0105129E-010 0.0
 -7.1434588E-010  1.0030206E-010 0.0
 -7.6457143E-010  9.9648068E-011 0.0
 -8.1201363E-010  9.9559455E-011 0.0
 -8.5445819E-010  1.0075020E-010 0.0
 -8.8857807E-010  1.0379729E-010 0.0
 -9.0988315E-010  1.0869392E-010 0.0
 -9.1422148E-010  1.1291448E-010 0.0
 -9.1493923E-010  1.1674990E-010 0.0
 -2.5395502E-009 -3.6129130E-010 0.0
 -2.6354761E-009 -3.4913776E-010 0.0
 -2.7071423E-009 -3.4235445E-010 0.0
 -2.7624645E-009 -3.3915454E-010 0.0
 -2.8029230E-009 -3.3592259E-010 0.0
 -2.8329397E-009 -3.3349501E-010 0.0
 -2.8478033E-009 -3.3111393E-010 0.0
 -2.8270386E-009 -3.3533525E-010 0.0
 -1.7897142E-010  1.2923860E-010 0.0
 -1.8953913E-010  1.3078821E-010 0.0
 -2.0007519E-010  1.2649878E-010 0.0
 -2.1370577E-010  1.1850249E-010 0.0
 -2.3635855E-010  1.0996672E-010 0.0
 -2.6795192E-010  1.0337652E-010 0.0
 -3.0622217E-010  9.9279648E-011 0.0
 -3.4905757E-010  9.7161312E-011 0.0
 -3.9510680E-010  9.6194455E-011 0.0
 -4.4357618E-010  9.5772092E-011 0.0
 -4.9389079E-010  9.5458535E-011 0.0
 -5.4557285E-010  9.4934168E-011 0.0
 -5.9817168E-010  9.3964970E-011 0.0
 -6.5121499E-010  9.2401446E-011 0.0
 -7.0415061E-010  9.0207910E-011 0.0
 -7.5624896E-010  8.7531007E-011 0.0
 -8.0639078E-010  8.4824777E-011 0.0
 -8.5267791E-010  8.3015422E-011 0.0
 -8.9119130E-010  8.3672289E-011 0.0
 -9.1543427E-010  8.7073734E-011 0.0
 -9.1413858E-010  9.0554580E-011 0.0
 -2.3764112E-009 -3.8198271E-010 0.0
 -2.3601936E-009 -3.2010161E-010 0.0
 -2.5017059E-009 -3.1094238E-010 0.0
 -2.6092490E-009 -3.0836117E-010 0.0
 -2.6897594E-009 -3.0471010E-010 0.0
 -2.7530337E-009 -3.0103766E-010 0.0
 -2.8021015E-009 -2.9769817E-010 0.0
 -2.8396961E-009 -2.9437096E-010 0.0
 -2.8792049E-009 -2.8644067E-010 0.0
 -1.8209767E-010  1.3255836E-010 0.0
 -1.8815268E-010  1.2940667E-010 0.0
 -1.8337715E-010  1.2228517E-010 0.0
 -1.8950624E-010  1.1001641E-010 0.0
 -2.1170506E-010  9.9209576E-011 0.0
 -2.4589707E-010  9.2777176E-011 0.0
 -2.8676723E-010  9.0378561E-011 0.0
 -3.3138601E-010  8.9913557E-011 0.0
 -3.7875093E-010  9.0296126E-011 0.0
 -4.2824142E-010  9.0907401E-011 0.0
 -4.7940344E-010  9.1332415E-011 0.0
 -5.3184562E-010  9.1249468E-011 0.0
 -5.8520024E-010  9.0387476E-011 0.0
 -6.3909923E-010  8.8511820E-011 0.0
 -6.9315092E-010  8.5441327E-011 0.0
 -7.4688500E-010  8.1105764E-011 0.0
 -7.9963278E-010  7.5672051E-011 0.0
 -8.5011730E-010  6.9834468E-011 0.0
 -8.9582338E-010  6.5416141E-011 0.0
 -9.2729973E-010  6.7106384E-011 0.0
 -9.2980338E-010  7.3796304E-011 0.0
 -2.2005518E-009 -3.3876892E-010 0.0
 -2.1836061E-009 -2.6086355E-010 0.0
 -2.3380208E-009 -2.4972941E-010 0.0
 -2.4739450E-009 -2.4529550E-010 0.0
 -2.5861442E-009 -2.4489184E-010 0.0
 -2.6759229E-009 -2.4497940E-010 0.0
 -2.7475970E-009 -2.4369255E-010 0.0
 -2.8046620E-009 -2.4102796E-010 0.0
 -2.8509303E-009 -2.3600296E-010 0.0
 -2.8979486E-009 -2.2993372E-010 0.0
 -1.8813097E-010  1.1052473E-010 0.0
 -1.6043341E-010  1.0297474E-010 0.0
 -1.5791669E-010  8.9014962E-011 0.0
 -1.8480875E-010  7.9182120E-011 0.0
 -2.2476321E-010  7.8865394E-011 0.0
 -2.6816473E-010  8.0980542E-011 0.0
 -3.1439306E-010  8.3660568E-011 0.0
 -3.6290773E-010  8.6373086E-011 0.0
 -4.1330054E-010  8.8812116E-011 0.0
 -4.6521456E-010  9.0711284E-011 0.0
 -5.1832709E-010  9.1827121E-011 0.0
 -5.7232009E-010  9.1902136E-011 0.0
 -6.2689019E-010  9.0645030E-011 0.0
 -6.8176237E-010  8.7735594E-011 0.0
 -7.3668926E-010  8.2851508E-011 0.0
 -7.9139926E-010  7.5724594E-011 0.0
 -8.4554937E-010  6.6290042E-011 0.0
 -8.9796270E-010  5.5199668E-011 0.0
 -9.4768634E-010  4.6389418E-011 0.0
 -9.6381896E-010  6.0355234E-011 0.0
 -2.0127106E-009 -2.7772974E-010 0.0
 -1.9972179E-009 -1.7961467E-010 0.0
 -2.1646324E-009 -1.6944711E-010 0.0
 -2.3170614E-009 -1.6462061E-010 0.0
 -2.4520954E-009 -1.6400550E-010 0.0
 -2.5679779E-009 -1.6611803E-010 0.0
 -2.6649274E-009 -1.6876893E-010 0.0
 -2.7449304E-009 -1.7058775E-010 0.0
 -2.8096876E-009 -1.7085372E-010 0.0
 -2.8617249E-009 -1.7124677E-010 0.0
 -2.9005742E-009 -1.7650244E-010 0.0
 -1.9672181E-010  6.5016869E-011 0.0
 -1.2435248E-010  6.3230850E-011 0.0
 -1.1865040E-010  4.6688980E-011 0.0
 -1.6428836E-010  5.6497901E-011 0.0
 -2.0677502E-010  6.6409418E-011 0.0
 -2.5148747E-010  7.3790685E-011 0.0
 -2.9873601E-010  8.0004377E-011 0.0
 -3.4812542E-010  8.5522776E-011 0.0
 -3.9924672E-010  9.0303413E-011 0.0
 -4.5183378E-010  9.4269509E-011 0.0
 -5.0559004E-010  9.7313146E-011 0.0
 -5.6019278E-010  9.9240049E-011 0.0
 -6.1534825E-010  9.9751145E-011 0.0
 -6.7084632E-010  9.8456994E-011 0.0
 -7.2658918E-010  9.4897294E-011 0.0
 -7.8262151E-010  8.8544001E-011 0.0
 -8.3911175E-010  7.8753210E-011 0.0
 -8.9684856E-010  6.4678870E-011 0.0
 -9.5596834E-010  4.3866804E-011 0.0
 -1.0325229E-009  1.6128752E-011 0.0
 -1.8143714E-009 -1.9475923E-010 0.0
 -1.8006818E-009 -7.6655825E-011 0.0
 -1.9796110E-009 -6.8378290E-011 0.0
 -2.1457449E-009 -6.5467476E-011 0.0
 -2.2977985E-009 -6.5787840E-011 0.0
 -2.4342747E-009 -6.8600911E-011 0.0
 -2.5538822E-009 -7.3050358E-011 0.0
 -2.6569929E-009 -7.8260964E-011 0.0
 -2.7441769E-009 -8.3103696E-011 0.0
 -2.8159720E-009 -8.8449925E-011 0.0
 -2.8681234E-009 -9.5767258E-011 0.0
 -3.7086754E-039 -3.7086754E-039 0.0
 -1.0602963E-010  2.0475372E-011 0.0
 -1.5013246E-010  4.7962218E-011 0.0
 -1.9122571E-010  6.1244612E-011 0.0
 -2.3642893E-010  7.1162196E-011 0.0
 -2.8462575E-010  8.0412564E-011 0.0
 -3.3464327E-010  8.8722826E-011 0.0
 -3.8637579E-010  9.6017282E-011 0.0
 -4.3967090E-010  1.0242916E-010 0.0
 -4.9419982E-010  1.0802943E-010 0.0
 -5.4955733E-010  1.1271188E-010 0.0
 -6.0540713E-010  1.1620544E-010 0.0
 -6.6157958E-010  1.1813934E-010 0.0
 -7.1812218E-010  1.1811183E-010 0.0
 -7.7533541E-010  1.1573702E-010 0.0
 -8.3396350E-010  1.1071756E-010 0.0
 -8.9548136E-010  1.0298608E-010 0.0
 -9.6487890E-010  9.4676474E-011 0.0
 -1.0615074E-009  9.0427279E-011 0.0
 -1.2159083E-009  8.6121689E-011 0.0
 -1.2294098E-009 -5.2409031E-011 0.0
 -1.3955961E-009  7.0527328E-011 0.0
 -1.4019858E-009 -8.6179920E-011 0.0
 -1.5855657E-009  6.4944028E-011 0.0
 -1.5865554E-009 -9.7038199E-011 0.0
 -1.7808894E-009  5.8521212E-011 0.0
 -1.9603264E-009  5.3305666E-011 0.0
 -2.1267059E-009  4.9252019E-011 0.0
 -2.2807219E-009  4.4779905E-011 0.0
 -2.4200393E-009  3.9789898E-011 0.0
 -2.5434211E-009  3.3651804E-011 0.0
 -2.6518293E-009  2.6835922E-011 0.0
 -2.7463551E-009  1.9420459E-011 0.0
 -2.8230982E-009  1.2788440E-011 0.0
 -5.2448590E-039 -5.2448590E-039 0.0
 -9.9484490E-011  5.4122016E-011 0.0
 -1.3205972E-010  5.6568449E-011 0.0
 -1.7438996E-010  6.2022726E-011 0.0
 -2.2290137E-010  7.3688409E-011 0.0
 -2.7198137E-010  8.5807038E-011 0.0
 -3.2237562E-010  9.6577007E-011 0.0
 -3.7472979E-010  1.0620684E-010 0.0
 -4.2899749E-010  1.1521817E-010 0.0
 -4.8466716E-010  1.2387655E-010 0.0
 -5.4114210E-010  1.3212505E-010 0.0
 -5.9800293E-010  1.3969607E-010 0.0
 -6.5514793E-010  1.4627104E-010 0.0
 -7.1283989E-010  1.5163052E-010 0.0
 -7.7175703E-010  1.5578653E-010 0.0
 -8.3321436E-010  1.5912978E-010 0.0
 -9.0012434E-010  1.6289134E-010 0.0
 -9.7961475E-010  1.6941598E-010 0.0
 -1.0850026E-009  1.7952437E-010 0.0
 -1.2252334E-009  1.8763167E-010 0.0
 -1.3929760E-009  1.9124150E-010 0.0
 -1.5754660E-009  1.8926449E-010 0.0
 -1.7609046E-009  1.8475319E-010 0.0
 -1.9400235E-009  1.7818976E-010 0.0
 -2.1087763E-009  1.7184360E-010 0.0
 -2.2664117E-009  1.6573335E-010 0.0
 -2.4103693E-009  1.5990357E-010 0.0
 -2.5363186E-009  1.5394383E-010 0.0
 -2.6502129E-009  1.4587679E-010 0.0
 -2.7525636E-009  1.4107697E-010 0.0
 -7.5004437E-011  6.3613637E-011 0.0
 -1.0207718E-010  5.0436973E-011 0.0
 -1.6056204E-010  6.4031793E-011 0.0
 -2.1172982E-010  8.2007212E-011 0.0
 -2.6045534E-010  9.6818498E-011 0.0
 -3.1079776E-010  1.0912049E-010 0.0
 -3.6409911E-010  1.2055884E-010 0.0
 -4.1997454E-010  1.3218840E-010 0.0
 -4.7744886E-010  1.4433623E-010 0.0
 -5.3560205E-010  1.5684305E-010 0.0
 -5.9390992E-010  1.6933845E-010 0.0
 -6.5240960E-010  1.8148939E-010 0.0
 -7.1171641E-010  1.9324401E-010 0.0
 -7.7297044E-010  2.0497282E-010 0.0
 -8.3803380E-010  2.1751103E-010 0.0
 -9.1030293E-010  2.3201850E-010 0.0
 -9.9584816E-010  2.4913444E-010 0.0
 -1.1026132E-009  2.6737153E-010 0.0
 -1.2360955E-009  2.8385082E-010 0.0
 -1.3939561E-009  2.9584818E-010 0.0
 -1.5671061E-009  3.0308508E-010 0.0
 -1.7461095E-009  3.0519179E-010 0.0
 -1.9237561E-009  3.0465954E-010 0.0
 -2.0943637E-009  3.0220946E-010 0.0
 -2.2560766E-009  2.9863137E-010 0.0
 -2.4059601E-009  2.9336286E-010 0.0
 -2.5309606E-009  2.8123990E-010 0.0
 -2.6543053E-009  2.7924134E-010 0.0
 -3.7086754E-039 -3.7086754E-039 0.0
 -9.2840466E-011  3.7326676E-011 0.0
 -1.5573264E-010  7.6674525E-011 0.0
 -2.0261178E-010  9.9156387E-011 0.0
 -2.4847205E-010  1.1345915E-010 0.0
 -2.9887994E-010  1.2538790E-010 0.0
 -3.5417030E-010  1.3803312E-010 0.0
 -4.1279701E-010  1.5246492E-010 0.0
 -4.7301390E-010  1.6861870E-010 0.0
 -5.3351261E-010  1.8598972E-010 0.0
 -5.9366465E-010  2.0396621E-010 0.0
 -6.5372031E-010  2.2207292E-010 0.0
 -7.1485355E-010  2.4026786E-010 0.0
 -7.7878306E-010  2.5921591E-010 0.0
 -8.4748309E-010  2.7991253E-010 0.0
 -9.2380031E-010  3.0307820E-010 0.0
 -1.0118810E-009  3.2864449E-010 0.0
 -1.1167991E-009  3.5458340E-010 0.0
 -1.2444647E-009  3.7739086E-010 0.0
 -1.3969276E-009  3.9745475E-010 0.0
 -1.5644600E-009  4.1508642E-010 0.0
 -1.7366987E-009  4.2828409E-010 0.0
 -1.9152076E-009  4.3558308E-010 0.0
 -2.0867187E-009  4.4336118E-010 0.0
 -2.2530078E-009  4.4840180E-010 0.0
 -2.4064086E-009  4.4925355E-010 0.0
 -5.2448590E-039 -4.0953895E-034 0.0
 -1.0443941E-010  8.9158035E-011 0.0
 -1.5386083E-010  1.1296817E-010 0.0
 -1.9021536E-010  1.2490643E-010 0.0
 -2.3302794E-010  1.3284762E-010 0.0
 -2.8554253E-010  1.4272993E-010 0.0
 -3.4503328E-010  1.5693595E-010 0.0
 -4.0796354E-010  1.7509175E-010 0.0
 -4.7191619E-010  1.9601326E-010 0.0
 -5.3539253E-010  2.1873246E-010 0.0
 -5.9760280E-010  2.4246618E-010 0.0
 -6.5897320E-010  2.6642015E-010 0.0
 -7.2152542E-010  2.9036971E-010 0.0
 -7.8807712E-010  3.1511303E-010 0.0
 -8.6026564E-010  3.4230942E-010 0.0
 -9.3914038E-010  3.7224181E-010 0.0
 -1.0282408E-009  4.0413109E-010 0.0
 -1.1306277E-009  4.3875859E-010 0.0
 -1.2491073E-009  4.7174033E-010 0.0
 -1.4020566E-009  4.9907798E-010 0.0
 -1.5714079E-009  5.3045050E-010 0.0
 -1.7324693E-009  5.5628770E-010 0.0
 -1.9189630E-009  5.8613929E-010 0.0
 -2.0810405E-009  5.9001863E-010 0.0
 -1.1429677E-010  1.5491943E-010 0.0
 -1.4178939E-010  1.5188429E-010 0.0
 -1.6785145E-010  1.4752288E-010 0.0
 -2.1147690E-010  1.4735395E-010 0.0
 -2.7125478E-010  1.5695616E-010 0.0
 -3.3810174E-010  1.7579569E-010 0.0
 -4.0652239E-010  1.9992337E-010 0.0
 -4.7469231E-010  2.2650208E-010 0.0
 -5.4157070E-010  2.5458134E-010 0.0
 -6.0601664E-010  2.8383373E-010 0.0
 -6.6781565E-010  3.1337088E-010 0.0
 -7.3033821E-010  3.4181953E-010 0.0
 -7.9907095E-010  3.7062929E-010 0.0
 -8.7531413E-010  4.0182440E-010 0.0
 -9.5606421E-010  4.3706361E-010 0.0
 -1.0423185E-009  4.7282591E-010 0.0
 -1.1471060E-009  5.0871939E-010 0.0
 -1.2536006E-009  5.5417540E-010 0.0
 -1.4191589E-009  6.2695560E-010 0.0
 -1.5822465E-009  6.6264967E-010 0.0
 -1.7237759E-009  6.6562302E-010 0.0
 -1.2594807E-010  1.6331126E-010 0.0
 -1.1994718E-010  1.6192902E-010 0.0
 -1.3120058E-010  1.4980449E-010 0.0
 -1.8452547E-010  1.4660581E-010 0.0
 -2.6099359E-010  1.6475278E-010 0.0
 -3.3696482E-010  1.9604614E-010 0.0
 -4.0956033E-010  2.2888934E-010 0.0
 -4.8159624E-010  2.6132622E-010 0.0
 -5.5182838E-010  2.9417787E-010 0.0
 -6.1857207E-010  3.2699965E-010 0.0
 -6.8059774E-010  3.6061909E-010 0.0
 -7.3930154E-010  3.9409566E-010 0.0
 -8.0989341E-010  4.2485322E-010 0.0
 -8.9136556E-010  4.5951492E-010 0.0
 -9.7427658E-010  4.9416020E-010 0.0
 -1.0507593E-009  5.2905706E-010 0.0
 -1.1659138E-009  5.7806269E-010 0.0
 -1.2416616E-009  5.7997885E-010 0.0
 -1.3601139E-010  1.3712479E-010 0.0
 -9.3975110E-011  1.3132774E-010 0.0
 -6.9954808E-011  1.1327207E-010 0.0
 -1.6410691E-010  1.2106561E-010 0.0
 -2.6890057E-010  1.7478190E-010 0.0
 -3.4330597E-010  2.2448197E-010 0.0
 -4.1742435E-010  2.6441341E-010 0.0
 -4.9336388E-010  3.0495968E-010 0.0
 -5.6459389E-010  3.4073091E-010 0.0
 -6.3268475E-010  3.7239906E-010 0.0
 -6.9581431E-010  4.0268148E-010 0.0
 -7.4786324E-010  4.3407688E-010 0.0
 -8.2635502E-010  4.8851953E-010 0.0
 -9.0546243E-010  5.2766600E-010 0.0
 -9.8751873E-010  5.5188497E-010 0.0
 -1.0441566E-009  5.5097978E-010 0.0
 -4.0953895E-034  4.3821036E-034 0.0
 -3.0281208E-039 -3.0281208E-039 0.0
 -1.9468634E-010  1.3424575E-010 0.0
 -2.9253569E-010  2.0598969E-010 0.0
 -3.5514183E-010  2.5268094E-010 0.0
 -4.3569981E-010  3.1943819E-010 0.0
 -5.0826715E-010  3.6520138E-010 0.0
 -5.7775901E-010  4.0019392E-010 0.0
 -6.4402328E-010  4.2733382E-010 0.0
 -7.0639683E-010  4.4415462E-010 0.0
 -7.4366459E-010  4.4180625E-010 0.0
 -1.1678072E-011  3.0342064E-010 0.0
 -2.1664892E-010  2.6737980E-010 0.0
 -3.0889210E-010  2.6564845E-010 0.0
 -3.5190936E-010  2.5904780E-010 0.0
SCALARS Stress_xx double
LOOKUP_TABLE default
  1.8115409E+003
  5.0448634E+003
 -1.0212961E+003
 -2.5324650E+003
 -1.0829032E+003
 -3.5693064E+002
 -1.1274991E+003
 -3.4982604E+002
 -1.0973436E+003
 -2.5355005E+003
  4.9113225E+003
  1.9838260E+003
 -1.5567010E+002
  4.2365787E+002
  2.0355542E+002
  8.5970545E+001
  1.6936763E+002
 -6.4280089E+001
  1.0998129E+002
 -7.1863569E+000
  8.6226289E+001
  2.6542208E+001
  6.5353566E+001
  7.1829632E+001
  4.9168091E+001
  1.1713629E+002
  3.3178248E+001
  1.7081755E+002
  3.7075079E+001
  2.2023610E+002
  3.4733120E+001
  3.3522438E+002
  2.4968272E+002
  4.2459314E+002
  1.5116236E+002
  1.2929122E+003
  1.0801506E+003
 -1.7151501E+003
 -2.1703998E+003
 -2.2980065E+003
 -2.0631332E+003
  5.2569891E+002
 -4.6438092E+002
  8.5426263E+002
 -3.1977325E+002
 -2.3456030E+003
  5.7780993E+003
  3.1015683E+003
  1.0210675E+003
  5.4243636E+002
  3.8607027E+002
  3.0410780E+002
  2.6641477E+002
  2.4361334E+002
  2.2824529E+002
  2.2160074E+002
  2.2498381E+002
  2.9263565E+002
  3.7934532E+002
  9.6418877E+002
  1.8827866E+002
 -1.5537974E+003
 -2.6747046E+003
 -2.9491195E+003
 -2.3359031E+003
 -1.0693521E+003
 -6.4180132E+002
 -9.6816187E+002
  1.8968864E+003
  6.4515411E+002
  1.9334654E+002
  6.7689229E+003
  1.8580811E+003
  7.3605873E+001
  4.2430014E+002
  1.1978073E+003
  8.9082618E+002
  7.2755520E+002
  6.0750013E+002
  5.3387363E+002
  4.7689375E+002
  4.2906183E+002
  3.8429402E+002
  3.4691181E+002
  3.0359798E+002
  2.9194437E+002
 -1.0618933E+002
 -8.3547169E+002
 -1.9517101E+003
 -2.9776820E+003
 -3.4242791E+003
 -3.2519758E+003
 -2.8288227E+003
 -2.3875650E+003
 -1.2759397E+003
  1.1342164E+002
  2.0324816E+003
  3.2727538E+003
  1.1443763E+004
 -1.2177384E+003
  2.7145658E+003
  1.4308663E+003
  1.3027698E+003
  1.0925762E+003
  9.7056299E+002
  8.5971163E+002
  7.6518481E+002
  6.7507092E+002
  5.7972837E+002
  4.5975078E+002
  2.9257680E+002
 -2.3714032E+001
 -5.3705112E+002
 -1.4003289E+003
 -2.4642406E+003
 -3.4234443E+003
 -4.0479799E+003
 -4.2532933E+003
 -4.0809732E+003
 -3.5989667E+003
 -2.7780872E+003
 -1.5718028E+003
  4.9995460E+002
  4.2593360E+003
  2.3741791E+004
  3.2022297E+003
  1.8886463E+003
  1.6746766E+003
  1.5234112E+003
  1.3712817E+003
  1.2183988E+003
  1.0746047E+003
  9.3422209E+002
  7.7689072E+002
  5.6957418E+002
  2.5808618E+002
 -2.1465417E+002
 -9.2695863E+002
 -1.8612648E+003
 -2.9329646E+003
 -3.9667619E+003
 -4.7703250E+003
 -5.2245025E+003
 -5.2848499E+003
 -4.9211925E+003
 -4.0762164E+003
 -2.6910028E+003
 -4.2174796E+002
  3.1874218E+003
  9.0744504E+003
  1.7938599E+003
 -2.9505547E+003
  1.1359038E+004
  5.9267826E+003
 -5.1807294E+002
  9.2799912E+002
  1.8970399E+003
  2.2565705E+003
  2.1445152E+003
  1.9989995E+003
  1.7931310E+003
  1.5794874E+003
  1.3827234E+003
  1.1968468E+003
  9.8962190E+002
  7.1200225E+002
  3.0677107E+002
 -2.8757866E+002
 -1.1061602E+003
 -2.1472307E+003
 -3.3287789E+003
 -4.5059860E+003
 -5.5100102E+003
 -6.1869227E+003
 -6.4169706E+003
 -6.1144615E+003
 -5.2001015E+003
 -3.5535801E+003
 -9.2920295E+002
  3.0076764E+003
  6.3122351E+003
  5.7713194E+003
  5.8240713E+003
  1.8435579E+003
 -7.7504690E+002
  7.4088495E+003
  3.6169003E+003
  1.6512763E+003
  2.1785093E+003
  2.6437937E+003
  2.7010190E+003
  2.4965748E+003
  2.1972445E+003
  1.9042577E+003
  1.6622458E+003
  1.4512607E+003
  1.2210860E+003
  9.1057174E+002
  4.5470703E+002
 -2.0577746E+002
 -1.1127940E+003
 -2.2637490E+003
 -3.5968414E+003
 -4.9792307E+003
 -6.2262928E+003
 -7.1341534E+003
 -7.5295864E+003
 -7.2825055E+003
 -6.2754206E+003
 -4.4242951E+003
 -1.6935301E+003
  1.4469084E+003
  3.8665512E+003
  5.4356927E+003
  6.4090433E+003
  5.2908083E+003
  4.7202175E+003
  1.7087141E+003
  1.1184953E+002
  3.4102401E+003
  1.6060077E+003
 -4.2635088E+002
 -3.8487425E+002
  1.0219702E+003
  2.2642841E+003
  3.0340334E+003
  3.2746943E+003
  2.9700384E+003
  2.5146129E+003
  2.1454221E+003
  1.8896115E+003
  1.6888205E+003
  1.4721452E+003
  1.1687279E+003
  7.0962823E+002
  2.9078576E+001
 -9.2613952E+002
 -2.1798213E+003
 -3.6930006E+003
 -5.3395775E+003
 -6.8899260E+003
 -8.0814724E+003
 -8.6675321E+003
 -8.4767949E+003
 -7.4662219E+003
 -5.5469039E+003
 -2.8482327E+003
  2.0900645E+002
  3.0904430E+003
  5.1530975E+003
  6.0249044E+003
  6.2449514E+003
  5.9704394E+003
  4.4573086E+003
  2.9254265E+003
  1.1375253E+003
  4.4308093E+002
  4.5257374E+002
  1.3555101E+002
  8.4049813E+001
  5.5407807E+002
  2.3654648E+003
  3.9853638E+003
  4.0134129E+003
  3.3075038E+003
  2.6567418E+003
  2.2729867E+003
  2.0585741E+003
  1.9083235E+003
  1.7374575E+003
  1.4748619E+003
  1.0528012E+003
  4.0131926E+002
 -5.5258650E+002
 -1.8716798E+003
 -3.5724873E+003
 -5.5375974E+003
 -7.4964990E+003
 -9.0050567E+003
 -9.7696171E+003
 -9.7433075E+003
 -8.7298355E+003
 -6.8633723E+003
 -4.1548788E+003
 -8.7596488E+002
  2.3404790E+003
  4.9335944E+003
  6.5552830E+003
  7.0297598E+003
  6.4842322E+003
  5.4243185E+003
  4.2069340E+003
  2.6641228E+003
  1.1242513E+003
  3.9360673E+002
  3.1620958E+002
 -4.6574457E+002
 -6.9557217E+002
  5.9797120E+002
  1.8217413E+003
  4.5496965E+003
  4.6084574E+003
  3.3100750E+003
  2.6043112E+003
  2.3170134E+003
  2.1965572E+003
  2.1198604E+003
  2.0075451E+003
  1.8006975E+003
  1.4411411E+003
  8.6069596E+002
 -2.7242216E+001
 -1.3357682E+003
 -3.1740692E+003
 -5.5411804E+003
 -8.0178260E+003
 -1.0041139E+004
 -1.0978377E+004
 -1.0713879E+004
 -1.0123405E+004
 -8.4081898E+003
 -5.5182444E+003
 -1.9012767E+003
  1.9693070E+003
  5.1779806E+003
  7.1444973E+003
  7.7608046E+003
  7.3227921E+003
  6.2082093E+003
  4.7705690E+003
  3.3083233E+003
  2.0053777E+003
  9.0207852E+002
 -7.2270618E+001
 -1.1983284E+003
 -1.0602777E+003
 -1.0280253E+003
  1.0495914E+004
  5.1942739E+003
  2.9851434E+003
  2.5353131E+003
  2.3790225E+003
  2.3607056E+003
  2.3375903E+003
  2.2654593E+003
  2.1015547E+003
  1.8034459E+003
  1.3139741E+003
  5.4594451E+002
 -6.3642398E+002
 -2.4667537E+003
 -5.1902532E+003
 -8.6211616E+003
 -1.0915626E+004
 -1.1254391E+004
 -1.1535959E+004
 -1.0521437E+004
 -9.6711449E+003
 -7.3297156E+003
 -3.0802563E+003
  1.6503641E+003
  5.8134344E+003
  8.1637795E+003
  8.6083651E+003
  7.8381788E+003
  6.5666389E+003
  5.1789195E+003
  3.7986365E+003
  2.5066810E+003
  1.3392997E+003
  2.0737153E+002
 -7.4419332E+002
 -1.8981220E+003
 -1.0336237E+003
  1.3405903E+004
  3.4179474E+003
  3.1095840E+003
  2.5851419E+003
  2.6074210E+003
  2.5864203E+003
  2.5644319E+003
  2.4819039E+003
  2.3211606E+003
  2.0507112E+003
  1.6286170E+003
  9.8677571E+002
 -5.1104203E+000
 -1.5832447E+003
 -4.3213489E+003
 -8.9789224E+003
 -1.3959911E+004
 -1.3011058E+004
 -8.4584186E+003
 -1.1892029E+004
 -1.2644545E+004
 -8.4773065E+003
 -4.3089235E+003
  1.9207052E+003
  7.2641550E+003
  9.6273394E+003
  9.2802704E+003
  7.8823651E+003
  6.4517700E+003
  5.1641393E+003
  3.9730774E+003
  2.8275863E+003
  1.6911783E+003
  5.4888594E+002
 -6.5062678E+002
 -1.5678254E+003
 -2.5539646E+003
  4.7386571E+001
  5.9255865E+003
  4.3328219E+003
  3.1972864E+003
  3.0851763E+003
  2.9487923E+003
  2.8723701E+003
  2.7661561E+003
  2.6185738E+003
  2.4047035E+003
  2.1015531E+003
  1.6758540E+003
  1.0777351E+003
  2.0550168E+002
 -1.1223393E+003
 -3.4754417E+003
 -7.9578963E+003
 -1.6488973E+004
 -4.8457997E+003
 -5.2233550E+003
 -4.4349965E+003
 -1.1984730E+004
 -1.0375753E+004
 -1.0055095E+004
 -3.2786125E+002
  9.9949797E+003
  1.1429337E+004
  8.9741912E+003
  6.9783360E+003
  5.7333858E+003
  4.8069157E+003
  3.9349598E+003
  3.0120283E+003
  1.9968283E+003
  8.9790691E+002
 -3.7887354E+002
 -1.6827654E+003
 -5.5794644E+003
 -4.1308504E+003
  3.6582698E+003
  3.6200746E+003
  3.5605401E+003
  3.3150770E+003
  3.1138890E+003
  2.8906511E+003
  2.6350280E+003
  2.3193649E+003
  1.9182905E+003
  1.3945109E+003
  7.0354525E+002
 -2.7885276E+002
 -1.6408635E+003
 -4.3887036E+003
 -9.0225439E+003
 -3.9343984E+004
 -2.9119862E+003
 -1.6782075E+003
 -4.7654307E+003
 -2.7219178E+004
 -2.3635120E+003
 -2.2765434E+004
  1.1165631E+004
  1.6888427E+004
  1.0326606E+004
  6.4949085E+003
  5.0785610E+003
  4.5888261E+003
  4.2608574E+003
  3.8120838E+003
  3.1561149E+003
  2.3015762E+003
  1.2516153E+003
  4.8080646E+001
 -1.6244101E+003
 -2.7847728E+003
 -4.9267266E+003
  1.0768882E+003
 -3.2489128E+004
 -1.0876688E+004
 -5.3970872E+003
 -3.8705042E+003
 -2.0322967E+003
 -4.4016217E+003
 -1.5102166E+003
  1.6604968E+003
 -3.8301268E+003
 -2.1548655E+003
 -3.3243037E+003
 -6.7425585E+003
  2.0949638E+002
  3.1103220E+003
  1.6212899E+002
 -1.4062313E+003
 -8.5347133E+002
  3.0347823E+003
  3.7305848E+003
  3.7446000E+003
  3.4996398E+003
  3.2093823E+003
  2.8816588E+003
  2.5099423E+003
  2.0695268E+003
  1.5300271E+003
  8.4296259E+002
 -4.4347953E+001
 -1.3039791E+003
 -2.9462174E+003
 -6.2040483E+003
 -9.0499041E+003
 -2.0327835E+004
 -1.2467653E+004
  1.1798985E+004
 -6.6136647E+004
  2.7083568E+003
  6.9118767E+003
  6.2651497E+003
  2.7814474E+003
  3.0078499E+003
  3.5118963E+003
  3.8487032E+003
  3.7817007E+003
  3.3509668E+003
  2.6225626E+003
  1.6532769E+003
  4.2803881E+002
 -1.1396517E+003
 -3.1154778E+003
 -8.4824389E+003
  5.9240193E+003
  3.1327678E+003
 -1.1676851E+003
 -6.6995695E+003
 -5.1081706E+003
 -2.7957884E+003
 -2.7476990E+003
 -9.8608105E+002
 -3.2567865E+002
 -5.3097565E+002
  9.0832877E+002
 -1.5981208E+003
 -4.2073917E+002
 -4.4917753E+003
 -9.5109952E+003
  2.5382615E+002
  3.1069885E+003
 -1.9769038E+003
  6.4655922E+002
 -2.9207709E+002
  2.8576602E+002
  2.1460231E+003
  3.3227899E+003
  3.5504596E+003
  3.4098568E+003
  3.1061590E+003
  2.7166898E+003
  2.2522375E+003
  1.6987081E+003
  1.0239627E+003
  1.8372371E+002
 -9.0652214E+002
 -2.3063327E+003
 -4.3573385E+003
 -6.5496875E+003
 -1.1289787E+004
 -1.7443551E+003
 -4.5188136E+004
  4.0948862E+004
  1.7032436E+004
  3.9882169E+003
  5.1636556E+002
  1.9545831E+003
  2.9620007E+003
  3.7208941E+003
  3.9535277E+003
  3.6493840E+003
  2.9811162E+003
  2.0753919E+003
  9.2021668E+002
 -4.6508685E+002
 -2.4489466E+003
 -3.9318780E+003
 -6.1312857E+003
 -1.5265736E+003
  4.8836348E+003
 -1.6170130E+003
 -3.7887157E+003
 -4.6262901E+003
 -4.2235467E+003
 -3.4736364E+003
 -2.3249482E+003
 -9.9372486E+002
 -9.7414030E+002
 -1.6911621E+002
  8.2099898E+000
  1.2917611E+002
  5.1557178E+002
  5.4981756E+002
  2.2526638E+003
 -3.5908750E+003
 -7.2556355E+002
 -5.2120076E+003
 -1.4260658E+004
  3.4756196E+002
  5.0549115E+003
 -2.8945922E+003
 -4.6095512E+002
 -5.2205853E+002
  1.7603590E+002
  8.3120575E+002
  1.2347935E+003
  2.0274764E+003
  2.8169810E+003
  3.1499714E+003
  3.0982722E+003
  2.8266165E+003
  2.4173941E+003
  1.9001187E+003
  1.2723022E+003
  5.1268700E+002
 -4.1547474E+002
 -1.5531105E+003
 -2.9554755E+003
 -4.5291883E+003
 -6.1363713E+003
 -4.9184855E+003
  2.0962368E+002
 -1.8049484E+003
 -2.0241686E+003
  1.3190511E+003
  2.8241704E+003
  4.2597001E+003
  4.4474360E+003
  4.0123967E+003
  3.3529839E+003
  2.5174129E+003
  1.4695386E+003
  1.1568578E+002
 -1.5187494E+003
 -3.5304122E+003
 -4.1666683E+003
 -7.4580597E+003
  4.3491771E+002
 -3.4649537E+002
  1.9015702E+003
  2.1217023E+003
 -5.6048071E+002
 -3.3242887E+003
 -4.5054688E+003
 -4.5498131E+003
 -3.8691719E+003
 -2.8163493E+003
 -1.8840616E+003
 -1.2134215E+003
 -5.0260281E+002
  4.5203535E+002
  8.1290661E+002
 -9.3394342E+002
 -2.8519470E+002
 -9.2284494E+002
 -2.4508620E+002
 -2.7731502E+002
  1.2333954E+001
 -3.0290615E+002
  8.7970083E+001
 -3.0116958E+002
  1.4363393E+002
 -3.4777794E+002
  1.5902907E+002
 -3.8483573E+002
  1.5351630E+002
 -4.2248141E+002
  1.4004130E+002
 -4.5667933E+002
  1.3579579E+002
 -4.8908800E+002
  1.4273032E+002
 -5.1903216E+002
  1.4663738E+002
 -5.4340935E+002
  1.3085824E+002
 -5.7508548E+002
  1.4736767E+001
 -5.8144428E+002
 -1.6425842E+002
 -7.4041539E+002
 -1.0495870E+003
 -8.5545091E+002
 -1.4087397E+003
 -3.0132702E+003
 -5.1825735E+003
 -1.2607357E+003
 -1.3846391E+003
 -3.5133168E+002
  3.2336654E+002
  6.5668151E+002
  1.0081680E+003
  1.4678763E+003
  2.0032542E+003
  2.4592860E+003
  2.7032064E+003
  2.6784385E+003
  2.4363928E+003
  2.0350498E+003
  1.5054433E+003
  8.5610562E+002
  8.1022163E+001
 -8.2902226E+002
 -1.8763764E+003
 -2.9958242E+003
 -4.0411467E+003
 -4.2232016E+003
 -3.0835005E+003
  1.8619455E+003
  1.3029909E+003
  2.4910122E+003
  4.4296083E+003
  4.7978210E+003
  4.3320880E+003
  3.7574088E+003
  2.9684948E+003
  2.0104667E+003
  8.4744139E+002
 -4.4879999E+002
 -2.0191683E+003
 -4.1674574E+003
 -1.6497807E+004
  5.3334775E+003
  2.3399121E+003
 -5.2916981E+002
 -3.0735607E+003
 -4.5750944E+003
 -4.8818287E+003
 -4.3461160E+003
 -3.3780530E+003
 -2.3423824E+003
 -1.4057204E+003
 -5.4621852E+002
  5.4853345E+001
  1.1544517E+002
 -6.9896845E+002
 -1.0598018E+003
 -3.9752589E+002
 -1.5430925E+002
  3.5163733E+001
  1.2177407E+002
  1.3234108E+002
  8.2210120E+001
  1.6638517E+001
 -2.8431054E+001
 -3.5356062E+001
 -3.5341430E+001
 -1.0302084E+002
 -3.0527262E+002
 -8.6063106E+002
 -1.7505087E+003
 -4.4480849E+003
 -4.5185547E+003
 -2.0360811E+003
 -6.8598621E+002
 -1.6863274E+002
  3.6216139E+002
  7.8815088E+002
  1.1412894E+003
  1.4934021E+003
  1.8436339E+003
  2.1336685E+003
  2.2741547E+003
  2.2294385E+003
  2.0038235E+003
  1.6245591E+003
  1.1163924E+003
  4.9490863E+002
 -2.2871512E+002
 -1.0375495E+003
 -1.8860130E+003
 -2.6723933E+003
 -3.1384945E+003
 -2.9596486E+003
 -1.6212499E+003
  3.9361155E+002
  1.4922157E+003
  8.5979919E+002
  4.7803464E+002
  8.7054362E+003
  5.5933840E+003
  4.8876407E+003
  4.1672684E+003
  3.4082809E+003
  2.5448102E+003
  1.5075331E+003
  3.0581986E+002
 -1.1846048E+003
 -3.2991497E+003
 -6.5398637E+003
 -1.5065527E+003
 -7.5330367E+002
 -1.0044779E+003
 -4.3583878E+002
 -3.3648540E+002
 -1.1431726E+002
 -2.5949458E+002
 -5.7166160E+001
 -2.0314768E+002
 -2.0252670E+001
 -1.9879840E+002
  8.0983892E+000
 -1.9126214E+002
  2.7395679E+001
 -1.7913015E+002
  3.5666442E+001
 -1.5688753E+002
  3.4509794E+001
 -1.2170727E+002
 -2.2614734E+001
  4.5509318E+001
  4.1924721E+001
  6.6160753E+003
  2.3725152E+003
 -6.8415523E+002
 -3.5567258E+003
 -5.0953743E+003
 -5.3596100E+003
 -4.7129130E+003
 -3.6946817E+003
 -2.6144741E+003
 -1.6342130E+003
 -8.3808075E+002
 -3.2106268E+002
 -2.7925683E+002
 -4.4727444E+002
 -5.0558741E+002
 -4.2791780E+002
 -9.0624813E+001
  1.6878183E+002
  3.3735622E+002
  3.6459021E+002
  2.5296754E+002
  9.0485787E+001
  9.7426250E+000
  8.7268293E+000
  2.8861519E+001
 -2.3405516E+001
 -3.2063892E+002
 -9.2634333E+002
 -2.0367068E+003
 -2.6563432E+003
 -2.8021182E+003
 -2.0919596E+003
 -9.9167381E+002
 -2.0737748E+002
  3.0369529E+002
  7.0663605E+002
  1.0421607E+003
  1.3395755E+003
  1.5998510E+003
  1.7860073E+003
  1.8589504E+003
  1.7900290E+003
  1.5756852E+003
  1.2278962E+003
  7.6530071E+002
  2.0804294E+002
 -4.1983591E+002
 -1.0808222E+003
 -1.7093574E+003
 -2.1851927E+003
 -2.3360212E+003
 -1.9374824E+003
 -9.2108987E+002
  3.1849057E+002
  1.0315959E+003
  1.2215457E+003
  1.5349424E+002
  5.1848339E+003
  5.2173895E+003
  5.3356719E+003
  4.5194358E+003
  3.8896490E+003
  3.0525642E+003
  2.0378179E+003
  8.0644915E+002
 -7.9150736E+002
 -3.0249448E+003
 -4.8988565E+003
 -3.9662885E+003
 -1.5780674E+003
 -9.9092300E+002
 -6.7134111E+002
 -5.8173658E+002
 -5.3874377E+002
 -5.0617518E+002
 -4.5773972E+002
 -3.8819283E+002
 -2.9708724E+002
 -1.3961815E+002
 -7.4479052E+001
  2.8680241E+001
 -1.9524868E+001
 -1.1165236E+001
  9.1762658E+001
  6.6420402E+001
  7.5047349E+003
  3.2061233E+003
 -1.1614181E+003
 -4.5718625E+003
 -6.1492126E+003
 -5.8483857E+003
 -4.9041143E+003
 -3.7745893E+003
 -2.6873521E+003
 -1.7475413E+003
 -1.0280526E+003
 -5.9881972E+002
 -4.3488255E+002
 -4.6222695E+002
 -4.6379255E+002
 -2.8674243E+002
 -1.1080529E+001
  3.4416175E+002
  6.2715753E+002
  6.6245159E+002
  4.2147022E+002
  1.2907449E+002
 -6.4215813E+001
 -4.2539734E+001
  6.3555648E+001
  3.6601801E+001
 -1.8663869E+002
 -7.6630643E+002
 -1.4187688E+003
 -2.0314982E+003
 -2.0963572E+003
 -1.6313660E+003
 -1.0017895E+003
 -3.8322349E+002
  1.1676995E+002
  5.0925767E+002
  8.2959538E+002
  1.0923597E+003
  1.2962262E+003
  1.4259692E+003
  1.4581390E+003
  1.3769327E+003
  1.1781350E+003
  8.6950786E+002
  4.6711587E+002
 -6.2948000E+000
 -5.1932437E+002
 -1.0261603E+003
 -1.4575494E+003
 -1.7171908E+003
 -1.6874811E+003
 -1.2830141E+003
 -5.5596466E+002
  2.7580825E+002
  9.4318429E+002
  2.0259938E+003
 -1.7234050E+003
  1.0134872E+004
  5.5067952E+003
  5.0042377E+003
  4.4095078E+003
  3.5788937E+003
  2.5267616E+003
  1.2891540E+003
 -2.1338744E+002
 -1.8046280E+003
 -2.7206617E+003
 -2.6321589E+003
 -2.1556270E+003
 -1.4713108E+003
 -1.2172160E+003
 -1.1077502E+003
 -1.0644153E+003
 -1.0096750E+003
 -9.1163891E+002
 -7.5926554E+002
 -5.5486360E+002
 -3.3430650E+002
 -1.5564382E+002
 -4.2776231E+001
  6.0232382E+001
  8.5244143E+001
  2.7354167E+001
  2.7981018E+003
  4.3915350E+003
 -1.5101376E+003
 -7.2837992E+003
 -7.1059741E+003
 -5.9585854E+003
 -4.6964902E+003
 -3.5582644E+003
 -2.5463077E+003
 -1.7094076E+003
 -1.0918644E+003
 -7.0897983E+002
 -5.3758628E+002
 -4.7507800E+002
 -4.0647787E+002
 -2.4399536E+002
  7.5108897E+001
  5.2394947E+002
  1.0401221E+003
  1.2725848E+003
  8.0159887E+002
  2.1841204E+000
 -9.7109286E+001
 -3.6385115E+000
  1.1202026E+002
  4.1852861E+002
  2.6547647E+002
 -3.1159961E+002
 -9.3723815E+002
 -1.2056664E+003
 -1.3377282E+003
 -1.2533717E+003
 -9.1877111E+002
 -4.8844692E+002
 -7.7296011E+001
  2.7618140E+002
  5.6963152E+002
  8.0391628E+002
  9.7461615E+002
  1.0715525E+003
  1.0832820E+003
  1.0012955E+003
  8.2452578E+002
  5.6025518E+002
  2.2400591E+002
 -1.6054740E+002
 -5.6022216E+002
 -9.2958547E+002
 -1.2091441E+003
 -1.3279202E+003
 -1.2198061E+003
 -8.5833244E+002
 -2.9103096E+002
  3.3577496E+002
  8.6090875E+002
  9.8942155E+002
  3.0119809E+002
 -3.1157899E+002
  5.1397544E+003
  5.1591289E+003
  5.8649543E+003
  5.1188825E+003
  4.0849974E+003
  3.0553034E+003
  1.9625041E+003
  7.0854463E+002
 -5.3799449E+002
 -1.5100833E+003
 -1.9277613E+003
 -1.8788620E+003
 -1.7804810E+003
 -1.6890665E+003
 -1.6806337E+003
 -1.6743203E+003
 -1.6149579E+003
 -1.4626551E+003
 -1.2100304E+003
 -8.8489266E+002
 -5.5077558E+002
 -2.7540704E+002
 -7.1820897E+001
  6.0565998E+001
  2.1706613E+002
 -2.4048467E+003
  1.4254397E+004
 -9.6834577E+003
 -8.9354346E+003
 -6.8462876E+003
 -5.1150887E+003
 -4.0406552E+003
 -3.0936244E+003
 -2.2448352E+003
 -1.5393045E+003
 -1.0341152E+003
 -7.3163827E+002
 -5.8565692E+002
 -5.2175527E+002
 -4.4504821E+002
 -2.6734496E+002
  6.9422952E+001
  6.1488822E+002
  1.3559754E+003
  2.1835297E+003
  1.1548094E+003
  1.5820902E+001
 -2.0988564E+002
 -1.6812283E+002
 -5.6692222E+001
 -7.7434525E+001
  6.3419636E+002
 -3.5146187E+002
 -1.6682855E+002
 -2.9167366E+002
 -7.8288524E+002
 -9.4122380E+002
 -7.6856809E+002
 -5.1436118E+002
 -2.2381013E+002
  6.9196832E+001
  3.2417026E+002
  5.2709271E+002
  6.7054817E+002
  7.4627362E+002
  7.4798448E+002
  6.7271119E+002
  5.2186239E+002
  3.0322324E+002
  3.1877832E+001
 -2.6924083E+002
 -5.6886389E+002
 -8.2723179E+002
 -9.9753761E+002
 -1.0317792E+003
 -8.9360278E+002
 -5.7498130E+002
 -1.1417447E+002
  4.2219518E+002
  8.9899486E+002
  1.0343256E+003
  9.5061456E+002
  2.9691781E+002
  5.3882696E+003
  5.8270039E+003
  5.5217884E+003
  4.4756745E+003
  3.7257501E+003
  2.8507625E+003
  1.8372937E+003
  7.1995485E+002
 -2.9347147E+002
 -1.0596297E+003
 -1.5640664E+003
 -1.8619274E+003
 -2.0823467E+003
 -2.2452858E+003
 -2.3367348E+003
 -2.3042819E+003
 -2.1043659E+003
 -1.7301503E+003
 -1.2449565E+003
 -7.5038324E+002
 -3.4562021E+002
 -9.4767874E+001
  6.1015987E+001
  2.3698636E+002
  2.1865412E+004
 -1.0870296E+004
 -6.5455460E+003
 -4.3656096E+003
 -3.6804108E+003
 -3.2618173E+003
 -2.6366820E+003
 -1.9140123E+003
 -1.3192467E+003
 -9.2739431E+002
 -7.1456923E+002
 -6.2506342E+002
 -5.8761545E+002
 -5.2532296E+002
 -3.5783389E+002
 -1.7912353E+001
  6.0548619E+002
  1.4654181E+003
  3.1645303E+003
  3.6540665E+003
 -8.6021270E+002
  5.0419879E+002
  4.3001326E+002
  5.8248711E+002
  8.7968667E+002
  2.4395526E+003
 -3.0174936E+002
 -3.3373526E+002
  3.8877748E+002
 -4.8333678E+002
 -4.6002782E+002
 -5.6227766E+002
 -4.9666043E+002
 -2.7522290E+002
 -6.3003848E+001
  1.3203958E+002
  3.0020552E+002
  4.1517559E+002
  4.7032041E+002
  4.6516396E+002
  3.9889545E+002
  2.7410785E+002
  9.8258603E+001
 -1.1474725E+002
 -3.4388573E+002
 -5.6167252E+002
 -7.3555268E+002
 -8.3072654E+002
 -8.1553876E+002
 -6.6943043E+002
 -3.9172937E+002
 -3.7013970E+000
  4.5106639E+002
  9.0138280E+002
  9.7283412E+002
  2.8504502E+002
  1.3924474E+003
  1.1283094E+004
  6.1119934E+003
  5.1279896E+003
  4.5406026E+003
  3.9859379E+003
  3.1463546E+003
  2.0297020E+003
  7.9625360E+002
 -3.2048029E+002
 -1.2150947E+003
 -1.8985383E+003
 -2.4122548E+003
 -2.7937450E+003
 -3.0286145E+003
 -3.0637809E+003
 -2.8356488E+003
 -2.3277736E+003
 -1.6015224E+003
 -8.6202276E+002
 -3.4117127E+002
 -4.5802328E+001
  5.4037810E+001
  1.8087148E+002
 -3.8366640E+004
 -1.3227331E+004
 -2.0896976E+003
 -1.7102842E+003
 -2.7313096E+003
 -3.2144018E+003
 -2.5042359E+003
 -1.6941140E+003
 -1.1537041E+003
 -8.5788295E+002
 -7.2447588E+002
 -6.8798926E+002
 -6.8267162E+002
 -6.3853334E+002
 -4.8245182E+002
 -1.2220019E+002
  5.1784600E+002
  1.7220931E+003
  3.4568670E+003
  9.7014337E+003
  1.4004368E+003
 -5.6137253E+002
  8.4818066E+002
  2.7819364E+003
 -4.8642691E+002
  1.4660801E+002
 -4.0930637E+002
 -2.3966825E+002
 -2.2795388E+002
 -1.3070111E+002
  3.7248062E+001
  1.5524608E+002
  2.2830444E+002
  2.5998829E+002
  2.4446627E+002
  1.8522236E+002
  8.3821614E+001
 -5.5479038E+001
 -2.2027395E+002
 -3.9168179E+002
 -5.4633794E+002
 -6.5853811E+002
 -7.0309789E+002
 -6.5927721E+002
 -5.1527676E+002
 -2.7230908E+002
  5.8484619E+001
  4.5575970E+002
  9.7027287E+002
  1.9400368E+003
 -3.1799652E+002
  6.5534162E+003
  5.3256136E+003
  5.7096064E+003
  5.4817838E+003
  5.3842250E+003
  4.7219548E+003
  3.3818284E+003
  1.8048553E+003
  2.9502775E+002
 -9.5860483E+002
 -1.9478961E+003
 -2.7252350E+003
 -3.3252272E+003
 -3.7382231E+003
 -3.8930660E+003
 -3.6514868E+003
 -2.9140966E+003
 -1.9002478E+003
 -9.3436271E+002
 -1.4930578E+002
 -4.7183613E+001
  3.3516699E+001
  6.9644024E+001
 -4.9548082E+004
 -2.2219247E+004
 -1.9791695E+003
 -2.2680270E+003
 -5.3849090E+003
 -4.5195891E+003
 -2.7077414E+003
 -1.6768918E+003
 -1.1658627E+003
 -9.1589473E+002
 -8.2030566E+002
 -8.0578011E+002
 -8.1094716E+002
 -7.6962703E+002
 -6.0591861E+002
 -2.1931909E+002
  5.1731254E+002
  1.8789809E+003
  4.2157073E+003
  9.1432052E+003
  1.2616197E+003
 -7.8350137E+002
  1.9593152E+003
 -3.6922722E+002
  1.5485265E+002
 -1.6876748E+002
  1.3394921E+001
  3.2327657E+001
  8.6060059E+001
  1.3342156E+002
  1.2138579E+002
  8.8099639E+001
  3.6653035E+001
 -4.6693067E+001
 -1.5860881E+002
 -2.8758680E+002
 -4.1637011E+002
 -5.2502829E+002
 -5.9373545E+002
 -6.0465871E+002
 -5.4401366E+002
 -4.0560819E+002
 -1.8705378E+002
  9.5661325E+001
  4.8823288E+002
  8.9056396E+002
  2.2198991E+003
 -1.6245170E+003
  9.3849902E+003
  5.7163930E+003
  6.6368181E+003
  7.4080289E+003
  6.5189844E+003
  4.7549262E+003
  2.5711009E+003
  6.7199861E+002
 -8.5102108E+002
 -2.0514360E+003
 -3.0270990E+003
 -3.8353595E+003
 -4.4428892E+003
 -4.7702435E+003
 -4.6774707E+003
 -3.8455730E+003
 -2.0462035E+003
 -3.9249148E+002
  6.9280246E+001
  5.6590127E+001
  1.8339520E+001
  1.8365993E+001
 -2.1557335E+004
 -3.3333056E+003
 -1.6455903E+003
 -9.4085453E+003
 -5.6580238E+003
 -3.1816055E+003
 -2.0336697E+003
 -1.4652346E+003
 -1.1692516E+003
 -1.0368939E+003
 -9.9289344E+002
 -9.7356735E+002
 -9.1071902E+002
 -7.2307955E+002
 -2.9786590E+002
  5.1845782E+002
  2.0215206E+003
  4.5043629E+003
  8.5073558E+003
  9.4848079E+002
 -5.9138595E+002
  1.4267038E+003
 -2.0533334E+002
  2.3829715E+002
  7.7688981E+001
  2.0059168E+002
  1.2828914E+002
  4.3028371E+001
  5.3923881E+000
 -4.4215657E+001
 -1.1554496E+002
 -2.1163993E+002
 -3.1916101E+002
 -4.1985662E+002
 -4.9733988E+002
 -5.3659995E+002
 -5.2552476E+002
 -4.5553517E+002
 -3.2182400E+002
 -1.2496266E+002
  1.3913720E+002
  4.6665358E+002
  9.6322321E+002
  1.3509684E+003
  4.1109672E+003
  4.9464168E+003
  8.5004320E+003
  9.5566219E+003
  8.9274193E+003
  5.6638313E+003
  2.8763044E+003
  7.0350858E+002
 -9.2212000E+002
 -2.1994674E+003
 -3.2846595E+003
 -4.2829573E+003
 -5.1633529E+003
 -5.6466619E+003
 -5.5513847E+003
 -4.1850904E+003
 -1.5327908E+003
 -2.8470809E+002
  2.4307686E+002
 -1.4443047E+004
  5.8129438E+003
 -2.6947395E+004
 -7.3794766E+003
 -4.5206584E+003
 -2.8613600E+003
 -2.0854414E+003
 -1.6072717E+003
 -1.3625581E+003
 -1.2368383E+003
 -1.1603651E+003
 -1.0574411E+003
 -8.4307280E+002
 -4.0268150E+002
  4.1754215E+002
  1.8689668E+003
  4.0372776E+003
  7.3621631E+003
  6.9173439E+002
 -4.1968391E+002
  1.1814265E+003
 -8.6374538E+001
  4.8233851E+002
  1.2927570E+002
  2.8803992E+001
 -1.5254314E+001
 -4.3574993E+001
 -1.2032351E+002
 -2.1830956E+002
 -3.1712996E+002
 -4.0390763E+002
 -4.6229442E+002
 -4.8246997E+002
 -4.5809044E+002
 -3.8390189E+002
 -2.5703275E+002
 -7.5835266E+001
  1.5595802E+002
  4.5059348E+002
  7.5255949E+002
  1.1028482E+003
  5.8667116E+000
  3.7863615E+003
  8.6462992E+003
  1.5945387E+004
  9.9663100E+003
  5.6142101E+003
  2.4827112E+003
  3.9753129E+002
 -1.1249383E+003
 -2.3336524E+003
 -3.4319818E+003
 -4.5659745E+003
 -5.8411306E+003
 -6.9147935E+003
 -7.1599978E+003
 -8.3481816E+003
  6.2947778E+002
 -1.6006891E+004
 -7.7470794E+003
 -6.0946622E+003
 -3.9038010E+003
 -2.8284907E+003
 -2.1208960E+003
 -1.7275115E+003
 -1.4956746E+003
 -1.3471982E+003
 -1.2009940E+003
 -9.7507755E+002
 -5.6565694E+002
  1.4704309E+002
  1.3666491E+003
  3.1537445E+003
  6.0100889E+003
  5.5696498E+002
 -2.7585148E+002
  1.2806034E+003
  1.8096916E+002
  1.0372427E+002
  1.1224642E+002
  1.5284824E+001
 -8.2408442E+001
 -1.7600617E+002
 -2.8721968E+002
 -3.7218871E+002
 -4.1823009E+002
 -4.2701263E+002
 -3.9639606E+002
 -3.2373839E+002
 -2.0670373E+002
 -4.5226540E+001
  1.5744152E+002
  3.8107042E+002
  5.9448224E+002
  7.8216902E+002
 -3.0467400E+003
  1.8477301E+004
  1.7078767E+004
  8.6250833E+003
  4.2686610E+003
  1.6516029E+003
 -4.7013724E+001
 -1.3065051E+003
 -2.3662733E+003
 -3.4054999E+003
 -4.6027383E+003
 -6.1689883E+003
 -8.2709281E+003
 -7.7526979E+003
 -4.5592144E+003
 -9.0860510E+001
 -8.9982592E+003
 -6.3688270E+003
 -4.6918915E+003
 -3.3449038E+003
 -2.5450517E+003
 -2.0272597E+003
 -1.7094532E+003
 -1.4989322E+003
 -1.3242422E+003
 -1.1120694E+003
 -7.8477396E+002
 -2.5298119E+002
  5.7879025E+002
  1.9365918E+003
  4.2089658E+003
  7.0479189E+002
  4.8753075E+002
  1.9912015E+001
  2.5094381E+002
  8.6028249E+001
  6.1995569E+001
 -9.4762644E+001
 -2.4340196E+002
 -3.2290445E+002
 -3.6207953E+002
 -3.6607935E+002
 -3.3622967E+002
 -2.7082209E+002
 -1.6900446E+002
 -3.0987403E+001
  1.3813929E+002
  3.2054285E+002
  4.5825611E+002
  5.1961143E+002
  5.7696769E+004
  1.3488060E+004
  6.7332101E+003
  2.8535415E+003
  1.0917664E+003
 -2.3871524E+002
 -1.2673945E+003
 -2.2161589E+003
 -3.1977973E+003
 -4.4281322E+003
 -6.1171874E+003
 -9.6322576E+003
 -1.6605449E+004
  3.5739423E+003
  8.8728253E+002
 -7.7000267E+003
 -6.0519414E+003
 -4.5546515E+003
 -3.5069827E+003
 -2.7146269E+003
 -2.1775188E+003
 -1.8183494E+003
 -1.5799209E+003
 -1.4036668E+003
 -1.2367226E+003
 -1.0211161E+003
 -7.3102338E+002
 -2.4853364E+002
  1.5650192E+002
  2.2571025E+003
  6.4426180E+002
 -1.6853281E+002
  8.9556761E+002
 -3.2788708E+001
  3.0089605E+002
 -4.0531768E+001
 -1.7946948E+002
 -2.5653804E+002
 -2.8793707E+002
 -2.9558179E+002
 -2.7344283E+002
 -2.2171948E+002
 -1.3990706E+002
 -2.9456623E+001
  1.0499614E+002
  2.5232545E+002
  3.3989664E+002
  1.4868435E+002
  5.0080334E+004
  1.3152124E+004
  6.3735149E+003
  3.0993681E+003
  1.4126279E+003
  1.5008162E+002
 -8.8146338E+002
 -1.8403856E+003
 -2.8815211E+003
 -4.0356710E+003
 -6.1798681E+003
 -8.2494618E+003
 -2.2446752E+004
 -6.2540007E+003
 -4.2749612E+003
 -4.0138912E+003
 -3.2095162E+003
 -2.6104625E+003
 -2.1241973E+003
 -1.7870018E+003
 -1.5617717E+003
 -1.4190245E+003
 -1.3235138E+003
 -1.2554975E+003
 -1.1761896E+003
 -1.1943658E+003
 -1.0224732E+003
 -2.3484397E+003
  4.2654364E+002
 -2.0797966E+002
  8.8929383E+002
  4.6118141E+001
 -7.5232575E+001
 -1.3581873E+002
 -1.9386468E+002
 -2.2440741E+002
 -2.0618944E+002
 -1.7176174E+002
 -1.1627433E+002
 -3.2697741E+001
  7.2654351E+001
  1.8946497E+002
  4.5457058E+002
 -3.3261040E+001
  9.1372849E+003
  1.4032124E+004
  8.2482888E+003
  4.8077781E+003
  2.6221611E+003
  1.0704784E+003
 -1.7103980E+002
 -1.2914449E+003
 -2.4163953E+003
 -3.7770668E+003
 -5.4129106E+003
 -8.8769187E+003
 -1.1735076E+004
 -1.6819198E+003
 -3.4284812E+003
 -3.0023591E+003
 -2.6788073E+003
 -2.2365962E+003
 -1.8752806E+003
 -1.6021939E+003
 -1.4315577E+003
 -1.3539313E+003
 -1.3592534E+003
 -1.4460711E+003
 -1.6258955E+003
 -1.9851469E+003
 -2.6423198E+003
 -5.2967669E+003
  4.7561465E+002
  2.3219775E+002
 -3.4371224E+001
  1.1314884E+001
 -1.4567253E+002
 -1.2468688E+002
 -1.1705025E+002
 -1.2562882E+002
 -9.5831747E+001
 -3.3654693E+001
  5.0288383E+001
  1.2018504E+002
  3.1641437E+002
  1.3674793E+002
  1.2653776E+004
  9.4268011E+003
  6.4823700E+003
  3.9876474E+003
  2.1616746E+003
  6.7488005E+002
 -6.2554789E+002
 -1.8935307E+003
 -3.2456374E+003
 -4.8471946E+003
 -6.3216433E+003
 -5.1301425E+003
 -8.6986774E+002
  3.0125253E+003
 -7.7618930E+002
 -1.8108009E+003
 -2.0618041E+003
 -1.9136358E+003
 -1.6885007E+003
 -1.4524675E+003
 -1.2759239E+003
 -1.1875264E+003
 -1.2014917E+003
 -1.3261308E+003
 -1.5810376E+003
 -1.9964890E+003
 -2.6922737E+003
 -3.7092256E+003
 -5.1841470E+003
 -1.4456070E+003
  7.6867096E+001
  3.9488342E+002
 -1.3108958E+002
  3.3195910E+002
 -6.8821154E+001
 -6.1994609E+001
 -3.1140204E+001
 -9.9292395E+001
 -7.2232810E+001
 -2.4782401E+001
  2.6422455E+001
  9.6486974E+001
  3.0173148E+001
 -5.5490395E+003
 -7.9107836E+003
  1.1727848E+003
  6.5931779E+003
  8.5028776E+003
  6.8041383E+003
  4.8252422E+003
  3.0069774E+003
  1.4430704E+003
  4.5603397E+001
 -1.2700461E+003
 -2.5650396E+003
 -3.7918905E+003
 -4.4824980E+003
 -3.9579619E+003
 -2.4145195E+003
 -5.3690439E+001
 -7.8775049E+002
 -1.0061186E+003
 -1.0935184E+003
 -1.0139300E+003
 -9.0127886E+002
 -8.2753639E+002
 -8.3805260E+002
 -9.5887365E+002
 -1.2138950E+003
 -1.6296585E+003
 -2.2688001E+003
 -3.1647576E+003
 -4.6111338E+003
 -5.7608622E+003
 -1.0745399E+004
  1.5815846E+002
 -1.5433392E+002
  2.1566775E+001
  1.3803659E+002
 -4.8398947E+001
 -3.2040306E+001
 -1.1297653E+001
  1.5239224E+001
  4.2647230E+001
  1.2738319E+001
 -2.9604442E+003
 -7.3049455E+003
 -2.1920182E+002
  1.8839812E+003
 -3.0357232E+003
  1.4925545E+003
  4.8537984E+003
  6.4042233E+003
  6.1673484E+003
  4.9060037E+003
  3.4297181E+003
  1.9874471E+003
  6.4197036E+002
 -6.0799683E+002
 -1.7412231E+003
 -2.6230802E+003
 -2.9479477E+003
 -2.4712484E+003
 -1.1608244E+003
  5.0228333E+002
  1.1136975E+003
 -2.0307740E+002
  2.5754537E+002
 -3.8903570E+001
 -2.7008669E+002
 -2.7130548E+002
 -2.5635027E+002
 -2.8165359E+002
 -3.9551528E+002
 -6.2877751E+002
 -1.0127622E+003
 -1.5815653E+003
 -2.3909190E+003
 -3.4729474E+003
 -4.9674052E+003
 -6.8443843E+003
 -1.3953858E+004
  4.2988055E+001
 -9.0673581E+001
 -1.4447225E+001
 -8.4170122E+000
 -8.7515736E+000
  1.9565641E+001
 -8.6017210E+002
 -2.1870461E+003
  2.1318483E+002
  1.1293251E+003
  1.5867501E+002
  1.7785944E+002
  1.2148240E+002
  9.5707498E+001
  4.5068146E+001
  9.3858263E+000
 -2.7450520E+000
 -1.2884243E+001
 -5.2475744E+001
 -3.6751581E+001
 -1.3771195E+002
 -4.8081821E+001
 -2.4575463E+002
 -1.3309265E+002
 -7.0047126E+002
 -2.2329528E+002
 -9.5378269E+002
 -1.2516483E+003
 -3.0631482E+003
 -1.7925508E+003
 -1.2162590E+003
  1.0251069E+003
  3.5070042E+003
  4.9203832E+003
  5.1317225E+003
  4.5128759E+003
  3.4632195E+003
  2.2834031E+003
  1.1106744E+003
  1.7822521E+001
 -9.2142890E+002
 -1.5873489E+003
 -1.8405718E+003
 -1.5853309E+003
 -8.4697010E+002
  1.1743604E+002
  8.2208946E+002
  4.2525336E+002
  1.5372533E+003
  6.3626571E+002
  5.5107828E+002
  5.0672473E+002
  4.5369346E+002
  3.3751624E+002
  1.2557857E+002
 -2.1711130E+002
 -7.2133319E+002
 -1.4269100E+003
 -2.3751321E+003
 -3.6432303E+003
 -5.2276426E+003
 -7.6059162E+003
 -8.1107395E+003
 -7.5966223E+003
  2.5357775E+003
 -1.1432441E+003
 -2.4417000E+003
  2.5860380E+001
  1.1296658E+003
 -6.6872452E+001
 -2.4146613E+002
 -6.1302399E+002
  3.3989261E+002
  3.6451026E+002
  2.1859951E+002
  8.0196136E+001
 -4.1715382E+001
 -1.7535773E+002
 -3.5124551E+002
 -6.7755442E+002
 -1.1713816E+003
 -2.5953587E+003
 -2.9273439E+003
 -1.6999983E+003
 -4.9072829E+002
  9.8477082E+002
  2.6256225E+003
  3.7744585E+003
  4.1788218E+003
  3.9308505E+003
  3.2609768E+003
  2.3791199E+003
  1.4391650E+003
  5.4586171E+002
 -2.1010056E+002
 -7.3603076E+002
 -9.4336076E+002
 -7.8500447E+002
 -3.1188783E+002
  2.6014577E+002
  6.3784910E+002
  9.4303000E+002
  1.1390082E+001
  1.7747970E+003
  1.3853546E+003
  1.3878094E+003
  1.3066172E+003
  1.1971991E+003
  1.0115142E+003
  7.0907556E+002
  2.6688510E+002
 -3.4425311E+002
 -1.1601151E+003
 -2.2307792E+003
 -3.6144161E+003
 -5.4367774E+003
 -7.6072407E+003
 -9.8469737E+003
 -1.4358645E+004
 -1.5342054E+003
 -3.6378103E+003
 -3.3228178E+001
  1.2006986E+003
 -8.1930740E+002
  1.0919363E+002
 -2.8363195E+002
 -3.0532428E+002
  9.9291015E+001
  2.8815109E+002
  2.1769293E+002
  6.4149645E+001
 -1.1136275E+002
 -3.1612911E+002
 -5.8940220E+002
 -9.6636949E+002
 -1.5670796E+003
 -1.9511310E+003
 -2.0297684E+003
 -1.5158376E+003
 -4.3493111E+002
  8.2056745E+002
  2.0219260E+003
  2.9366321E+003
  3.3794880E+003
  3.3503879E+003
  2.9590465E+003
  2.3477413E+003
  1.6441408E+003
  9.5322208E+002
  3.6251810E+002
 -5.2308903E+001
 -2.3627718E+002
 -1.7258585E+002
  8.3623020E+001
  4.5248214E+002
  7.9715947E+002
  1.7843918E+003
  5.2850630E+002
  1.7732582E+003
  2.0551073E+003
  2.0677066E+003
  1.9694001E+003
  1.7210309E+003
  1.3395156E+003
  8.1029797E+002
  1.0935986E+002
 -7.9188736E+002
 -1.9309410E+003
 -3.3752552E+003
 -5.1380525E+003
 -7.2949010E+003
 -9.4884161E+003
 -1.2302954E+004
 -2.2844044E+003
  1.0503429E+003
 -1.3897542E+003
 -3.3251541E+003
 -5.5579465E+001
  1.5452811E+003
 -2.5157622E+002
 -3.9257388E+002
 -1.3302191E+003
 -4.8502867E+002
 -4.2889459E+002
 -1.8584612E+002
 -1.2554545E+001
  1.8444101E+000
  9.2311433E+001
  1.8094702E+002
  1.3519064E+002
 -8.1435528E+000
 -2.0601372E+002
 -4.4827113E+002
 -7.4382613E+002
 -1.1114103E+003
 -1.4693847E+003
 -1.7464686E+003
 -1.6639814E+003
 -1.1439655E+003
 -3.3430220E+002
  6.3926904E+002
  1.5825922E+003
  2.3217253E+003
  2.7499361E+003
  2.8406655E+003
  2.6447540E+003
  2.2510802E+003
  1.7561994E+003
  1.2484901E+003
  8.0359826E+002
  4.8138784E+002
  3.2019330E+002
  3.2498164E+002
  4.6721139E+002
  6.7614392E+002
  9.4421266E+002
  1.0107407E+003
  9.1757921E+002
 -2.6817244E+002
 -5.9058880E+002
  3.5776071E+003
  2.9091171E+003
  2.9348149E+003
  2.7572064E+003
  2.4493451E+003
  2.0070456E+003
  1.3977716E+003
  6.1935947E+002
 -3.4248832E+002
 -1.5155891E+003
 -2.9201877E+003
 -4.6369899E+003
 -6.5969502E+003
 -9.6372222E+003
 -1.1398720E+004
 -2.4286993E+004
 -1.3706939E+003
 -3.6583551E+003
 -8.0512035E+000
  1.7106256E+003
 -2.0785106E+002
 -3.8356739E+002
 -1.2099081E+003
 -1.0987016E+002
 -7.7998392E+002
 -1.0590230E+003
 -5.7277977E+002
 -2.5776273E+002
 -1.1407165E+002
 -2.2805806E+001
  4.2644828E+001
  9.3454829E+001
  9.8857393E+001
  3.6807826E+001
 -1.0264025E+002
 -3.0017524E+002
 -5.4080300E+002
 -8.1586867E+002
 -1.0985277E+003
 -1.3422435E+003
 -1.4327532E+003
 -1.2963727E+003
 -8.8988133E+002
 -2.4482821E+002
  5.1469285E+002
  1.2594760E+003
  1.8705765E+003
  2.2671863E+003
  2.4228389E+003
  2.3592168E+003
  2.1309126E+003
  1.8062513E+003
  1.4536656E+003
  1.1334303E+003
  8.9219535E+002
  7.5743426E+002
  7.3364858E+002
  8.0099045E+002
  9.3196760E+002
  1.0907692E+003
  1.2025844E+003
  1.6687001E+003
  1.9933613E+003
  3.1129642E+003
  3.6379022E+003
  3.4948189E+003
  3.2183542E+003
  2.7010617E+003
  2.0132690E+003
  1.1608997E+003
  1.4332074E+002
 -1.0427354E+003
 -2.4136293E+003
 -3.9961376E+003
 -5.8938050E+003
 -8.1488660E+003
 -1.2360597E+004
 -2.6427034E+004
 -9.0753478E+002
 -2.5523252E+003
  2.1279494E+002
  1.3010411E+003
  9.8586154E+001
  2.1124784E+002
  1.3717378E+001
  6.7313423E+001
 -3.0281043E+002
 -6.0845579E+001
 -4.1770344E+002
 -7.1516694E+002
 -1.4380756E+003
 -1.0829957E+002
 -7.3840106E+002
 -9.5977200E+002
 -6.5958622E+002
 -5.1624448E+002
 -5.8393434E+002
 -5.0160765E+002
 -2.7656301E+002
 -1.0899741E+002
 -8.5876764E+000
  4.5201069E+001
  5.9917861E+001
  3.2781812E+001
 -5.0751584E+001
 -1.9018824E+002
 -3.7668836E+002
 -5.9462182E+002
 -8.2333475E+002
 -1.0334460E+003
 -1.1749029E+003
 -1.1937709E+003
 -1.0325180E+003
 -6.7631674E+002
 -1.6336721E+002
  4.3692284E+002
  1.0334057E+003
  1.5421720E+003
  1.9039503E+003
  2.0931917E+003
  2.1178807E+003
  2.0109079E+003
  1.8189840E+003
  1.5922447E+003
  1.3763560E+003
  1.2066020E+003
  1.1036378E+003
  1.0709566E+003
  1.0971011E+003
  1.1580563E+003
  1.2136387E+003
  1.2461222E+003
  1.0934329E+003
  3.1567614E+002
 -2.3680258E+002
 -1.1285831E+003
  6.3149674E+003
  4.5927344E+003
  4.4644276E+003
  4.0184693E+003
  3.4153062E+003
  2.6485123E+003
  1.7071129E+003
  6.2204499E+002
 -5.9461555E+002
 -1.9481634E+003
 -3.4631706E+003
 -5.2158402E+003
 -7.3982562E+003
 -1.0812727E+004
 -1.2898258E+004
 -1.1230696E+004
 -7.6044690E+003
 -9.7566338E+002
 -2.5175300E+003
  1.5340171E+002
  1.2795921E+003
 -7.5772143E+001
  1.6856447E+002
 -1.5387467E+002
 -3.7472192E+002
 -8.3684289E+002
  2.6047477E+002
  2.2608042E+002
 -7.2608142E+001
 -4.3201965E+002
 -1.2413264E+003
 -1.2835553E+003
 -7.9935161E+002
 -5.7234280E+002
 -6.5076034E+002
 -6.2420259E+002
 -5.5376633E+002
 -4.9111052E+002
 -3.7673736E+002
 -2.4137336E+002
 -1.1159562E+002
 -2.4282083E+001
  1.8052071E+001
  1.7670585E+001
 -2.8781550E+001
 -1.2205127E+002
 -2.5946740E+002
 -4.3026637E+002
 -6.1760840E+002
 -7.9897746E+002
 -9.4469936E+002
 -1.0197695E+003
 -9.8575328E+002
 -8.1757075E+002
 -5.1123427E+002
 -9.0796916E+001
  3.9292135E+002
  8.7850733E+002
  1.3070477E+003
  1.6346671E+003
  1.8394866E+003
  1.9223338E+003
  1.9026257E+003
  1.8114501E+003
  1.6842534E+003
  1.5543479E+003
  1.4477275E+003
  1.3793394E+003
  1.3512055E+003
  1.3533058E+003
  1.3643205E+003
  1.3702048E+003
  1.3424276E+003
  1.2810875E+003
  1.1070403E+003
  3.3930307E+003
  4.6988937E+003
  5.2228753E+003
  4.7780820E+003
  4.1887678E+003
  3.2959533E+003
  2.2385993E+003
  1.0598677E+003
 -2.1645187E+002
 -1.5885718E+003
 -3.0927256E+003
 -4.7903466E+003
 -6.9247472E+003
 -9.3292553E+003
 -1.1237108E+004
 -1.0236914E+004
 -1.7890765E+004
 -1.0361769E+004
 -1.1282410E+003
 -3.3918678E+003
  7.9313037E+001
  1.7190520E+003
 -1.0365199E+002
 -1.8810124E+002
 -7.9159728E+002
  1.6131840E+002
  3.4491424E+001
 -5.9772337E+002
 -6.1534542E+002
 -1.5330299E+002
 -3.3725049E+000
 -1.9715797E+002
 -5.8790764E+002
 -8.3232224E+002
 -9.5947055E+002
 -8.4946970E+002
 -7.1314516E+002
 -6.3926697E+002
 -5.7390671E+002
 -4.9851068E+002
 -4.1275053E+002
 -3.1826947E+002
 -2.0871681E+002
 -1.1025426E+002
 -4.0206556E+001
 -9.8760454E+000
 -2.2577815E+001
 -7.8591864E+001
 -1.7639868E+002
 -3.0904221E+002
 -4.6367102E+002
 -6.2187710E+002
 -7.6100325E+002
 -8.5612172E+002
 -8.8178156E+002
 -8.1652162E+002
 -6.4746614E+002
 -3.7707300E+002
 -2.5611671E+001
  3.7257327E+002
  7.7505935E+002
  1.1406966E+003
  1.4374299E+003
  1.6473319E+003
  1.7679315E+003
  1.8101860E+003
  1.7943037E+003
  1.7446762E+003
  1.6849319E+003
  1.6336867E+003
  1.6011649E+003
  1.5872855E+003
  1.5803602E+003
  1.5633555E+003
  1.5087056E+003
  1.4195506E+003
  1.2447154E+003
  1.6899802E+003
 -1.6024226E+003
  9.2063530E+003
  6.3116919E+003
  5.8910454E+003
  5.0125633E+003
  3.9539515E+003
  2.7472606E+003
  1.4397948E+003
  8.0415066E+001
 -1.3335840E+003
 -2.8346934E+003
 -4.4803364E+003
 -6.2600248E+003
 -7.8610861E+003
 -8.9136548E+003
 -9.4758665E+003
 -1.1597119E+004
 -2.7325912E+003
 -2.8145594E+003
 -2.0362275E+003
  2.0637441E+001
 -7.2445596E+002
 -9.2915934E+001
 -4.9550718E+002
  7.9700566E+001
 -3.3523167E+002
  3.5140668E+001
 -3.0812538E+002
 -7.8449420E+000
 -4.8189468E+002
 -5.0432821E+001
 -5.1694409E+002
 -6.6892657E+002
 -1.3421925E+003
  2.4313401E+001
 -4.4356262E+002
 -5.8086237E+002
 -2.3519975E+002
 -1.9263541E+002
 -2.9371515E+002
 -3.6526940E+002
 -2.8371175E+002
 -2.1944480E+002
 -3.4224969E+002
 -5.5450274E+002
 -7.7622351E+002
 -8.4953136E+002
 -7.9921595E+002
 -7.0503582E+002
 -6.1570170E+002
 -5.3817836E+002
 -4.5706358E+002
 -3.7011684E+002
 -2.7604143E+002
 -1.8457577E+002
 -1.0503850E+002
 -5.0840241E+001
 -3.1210316E+001
 -5.1474430E+001
 -1.1297156E+002
 -2.1240624E+002
 -3.4073248E+002
 -4.8256336E+002
 -6.1707615E+002
 -7.2212437E+002
 -7.7706603E+002
 -7.6534907E+002
 -6.7682060E+002
 -5.0837159E+002
 -2.6627079E+002
  3.3989848E+001
  3.6824480E+002
  7.0774702E+002
  1.0239953E+003
  1.2938257E+003
  1.5030177E+003
  1.6477190E+003
  1.7336432E+003
  1.7735657E+003
  1.7838931E+003
  1.7810248E+003
  1.7779789E+003
  1.7815969E+003
  1.7897746E+003
  1.7900039E+003
  1.7581281E+003
  1.6702535E+003
  1.5105072E+003
  1.3690090E+003
  1.3089694E+003
  4.8689909E+003
  6.3078718E+003
  6.7652591E+003
  5.8357311E+003
  4.6624190E+003
  3.2195076E+003
  1.7532852E+003
  3.0769170E+002
 -1.1433119E+003
 -2.6330335E+003
 -4.1728007E+003
 -5.7062990E+003
 -7.1079345E+003
 -8.2690668E+003
 -9.3626590E+003
 -9.8732644E+003
 -7.6342228E+003
 -3.2949746E+003
 -1.9691606E+003
 -1.1859769E+003
 -8.8528917E+002
 -8.1625186E+002
 -9.1105226E+002
 -1.4960549E+003
 -1.3471216E+003
 -7.2802324E+002
 -4.3459424E+002
 -4.3052140E+002
 -3.8616846E+002
 -3.1969841E+002
 -3.6152746E+002
 -3.7731336E+002
 -3.5242915E+002
 -3.6021322E+002
 -4.3301781E+002
 -5.6587052E+002
 -6.8097038E+002
 -7.4169600E+002
 -7.2913154E+002
 -6.6772019E+002
 -5.8903103E+002
 -5.0521097E+002
 -4.2039456E+002
 -3.3329280E+002
 -2.4661803E+002
 -1.6490835E+002
 -9.7315876E+001
 -5.2972873E+001
 -4.0203059E+001
 -6.4677221E+001
 -1.2863053E+002
 -2.2920060E+002
 -3.5656902E+002
 -4.9187649E+002
 -6.1162547E+002
 -6.9080675E+002
 -7.1215077E+002
 -6.6899906E+002
 -5.6019190E+002
 -3.9177035E+002
 -1.7123652E+002
  8.9233352E+001
  3.7417241E+002
  6.6483400E+002
  9.4196661E+002
  1.1889500E+003
  1.3945711E+003
  1.5544896E+003
  1.6711482E+003
  1.7523317E+003
  1.8088499E+003
  1.8518656E+003
  1.8903662E+003
  1.9288546E+003
  1.9654669E+003
  1.9870095E+003
  1.9642549E+003
  1.8564807E+003
  1.6411941E+003
  1.3482528E+003
  6.8205444E+002
 -2.4360043E+002
 -3.7436699E+002
 -2.1154939E+003
  1.2175318E+004
  8.1882283E+003
  7.1159013E+003
  5.3821881E+003
  3.6085371E+003
  2.0049395E+003
  4.9178868E+002
 -9.7876215E+002
 -2.4408574E+003
 -3.8947326E+003
 -5.3016637E+003
 -6.5927499E+003
 -7.7158259E+003
 -8.5339322E+003
 -8.2639667E+003
 -6.6570033E+003
 -4.9355256E+003
 -3.1290964E+003
 -2.1829459E+003
 -1.6620822E+003
 -1.4491002E+003
 -1.4762020E+003
 -1.4294182E+003
 -1.3236105E+003
 -1.0411508E+003
 -7.7522211E+002
 -6.2824230E+002
 -5.2990066E+002
 -4.7794667E+002
 -4.4715326E+002
 -4.3941231E+002
 -4.3655263E+002
 -4.4941899E+002
 -4.9854534E+002
 -5.7043624E+002
 -6.4000204E+002
 -6.7356610E+002
 -6.6280344E+002
 -6.1637375E+002
 -5.4837355E+002
 -4.7047061E+002
 -3.8779282E+002
 -3.0384538E+002
 -2.2176133E+002
 -1.4693453E+002
 -8.5972617E+001
 -4.6570407E+001
 -3.6000599E+001
 -6.0395388E+001
 -1.2366319E+002
 -2.2558087E+002
 -3.5654303E+002
 -4.9648021E+002
 -6.1006654E+002
 -6.7014906E+002
 -6.6285769E+002
 -5.8711156E+002
 -4.5940373E+002
 -2.8870215E+002
 -8.6990043E+001
  1.4033001E+002
  3.8509621E+002
  6.3678160E+002
  8.8277636E+002
  1.1109496E+003
  1.3121574E+003
  1.4818269E+003
  1.6203156E+003
  1.7321375E+003
  1.8243256E+003
  1.9043934E+003
  1.9782773E+003
  2.0489741E+003
  2.1148878E+003
  2.1701194E+003
  2.1833694E+003
  2.0804553E+003
  1.7606601E+003
  1.3048690E+003
  1.0044646E+003
 -2.3912922E+002
  6.2735931E+003
  8.4197770E+003
  8.4133911E+003
  5.8532664E+003
  3.9207056E+003
  2.2170554E+003
  6.7213587E+002
 -8.0308840E+002
 -2.2350410E+003
 -3.6229026E+003
 -4.9369071E+003
 -6.1248122E+003
 -7.0939800E+003
 -7.6148757E+003
 -7.5054640E+003
 -6.6440468E+003
 -5.2368998E+003
 -3.9991045E+003
 -3.0146207E+003
 -2.4054322E+003
 -2.0656211E+003
 -1.8758306E+003
 -1.7595890E+003
 -1.5614678E+003
 -1.3016178E+003
 -1.0572393E+003
 -8.6597071E+002
 -7.3619241E+002
 -6.4425415E+002
 -5.8704808E+002
 -5.4951585E+002
 -5.2923052E+002
 -5.2895703E+002
 -5.4872476E+002
 -5.8227231E+002
 -6.1223267E+002
 -6.2385418E+002
 -6.0834693E+002
 -5.6699289E+002
 -5.0681354E+002
 -4.3495735E+002
 -3.5717074E+002
 -2.7748932E+002
 -1.9998573E+002
 -1.2935440E+002
 -7.1473451E+001
 -3.2836353E+001
 -2.0149233E+001
 -3.9803214E+001
 -9.7823418E+001
 -1.9850574E+002
 -3.4003191E+002
 -4.9445696E+002
 -6.2452299E+002
 -6.7241332E+002
 -6.2495843E+002
 -5.1718144E+002
 -3.6160996E+002
 -1.9327253E+002
 -1.0385080E+001
  1.8516733E+002
  3.9514504E+002
  6.1522161E+002
  8.3689419E+002
  1.0505937E+003
  1.2481661E+003
  1.4246522E+003
  1.5790551E+003
  1.7138955E+003
  1.8339277E+003
  1.9443374E+003
  2.0489141E+003
  2.1483800E+003
  2.2415198E+003
  2.3235386E+003
  2.4012376E+003
  2.3815270E+003
  2.0671372E+003
  1.1872407E+003
  4.4244421E+002
 -3.5360898E+003
  1.7511480E+004
  9.4606771E+003
  6.3210485E+003
  4.1990418E+003
  2.4575000E+003
  8.8878907E+002
 -5.8745429E+002
 -1.9942855E+003
 -3.3264166E+003
 -4.5555505E+003
 -5.6272537E+003
 -6.4445827E+003
 -6.8893009E+003
 -6.8237395E+003
 -6.2632699E+003
 -5.4111796E+003
 -4.4529872E+003
 -3.6376890E+003
 -3.0204758E+003
 -2.5964342E+003
 -2.3053426E+003
 -2.0615292E+003
 -1.8258289E+003
 -1.5770913E+003
 -1.3348360E+003
 -1.1276131E+003
 -9.6151020E+002
 -8.3658818E+002
 -7.4319891E+002
 -6.7641831E+002
 -6.3127461E+002
 -6.0548465E+002
 -5.9654657E+002
 -5.9753724E+002
 -5.9884527E+002
 -5.9016008E+002
 -5.6550886E+002
 -5.2386075E+002
 -4.6782325E+002
 -4.0156045E+002
 -3.2909049E+002
 -2.5416348E+002
 -1.8052547E+002
 -1.1253791E+002
 -5.5309188E+001
 -1.4653984E+001
  3.3148239E+000
 -7.8046209E+000
 -5.4733161E+001
 -1.4697980E+002
 -2.9517916E+002
 -4.9562735E+002
 -6.4028915E+002
 -6.6468500E+002
 -5.9326644E+002
 -4.2929813E+002
 -2.6752843E+002
 -9.7892078E+001
  5.5664443E+001
  2.1766681E+002
  3.9721945E+002
  5.9239566E+002
  7.9666494E+002
  1.0011084E+003
  1.1972678E+003
  1.3795351E+003
  1.5460403E+003
  1.6984216E+003
  1.8405194E+003
  1.9766296E+003
  2.1094752E+003
  2.2381547E+003
  2.3563344E+003
  2.4607593E+003
  2.5507368E+003
  2.7008516E+003
  2.1457408E+003
  8.6827827E+002
  1.0490615E+002
  1.8828644E+004
  9.2573214E+003
  6.8585415E+003
  4.4990659E+003
  2.7791797E+003
  1.1643285E+003
 -3.2041991E+002
 -1.7121194E+003
 -2.9967676E+003
 -4.1504678E+003
 -5.1254805E+003
 -5.8552404E+003
 -6.2596555E+003
 -6.2937150E+003
 -5.9708682E+003
 -5.3849746E+003
 -4.7025476E+003
 -4.0409763E+003
 -3.4825357E+003
 -3.0405930E+003
 -2.6908402E+003
 -2.3971433E+003
 -2.1229372E+003
 -1.8577843E+003
 -1.6079522E+003
 -1.3837061E+003
 -1.1930789E+003
 -1.0360263E+003
 -9.1046009E+002
 -8.1186956E+002
 -7.3687085E+002
 -6.8230028E+002
 -6.4414811E+002
 -6.1688474E+002
 -5.9337125E+002
 -5.6685721E+002
 -5.3241109E+002
 -4.8795148E+002
 -4.3385154E+002
 -3.7188834E+002
 -3.0444437E+002
 -2.3412752E+002
 -1.6394601E+002
 -9.7586251E+001
 -3.9667976E+001
  4.3903608E+000
  2.8607213E+001
  2.7212328E+001
 -6.4259422E+000
 -8.0222611E+001
 -2.1563546E+002
 -4.5557819E+002
 -7.5260689E+002
 -7.5026733E+002
 -5.1555997E+002
 -3.6734803E+002
 -1.4155622E+002
 -1.2922837E+001
  9.7278327E+001
  2.2836350E+002
  3.8342741E+002
  5.6157610E+002
  7.5643192E+002
  9.5810370E+002
  1.1565773E+003
  1.3448811E+003
  1.5209456E+003
  1.6866345E+003
  1.8462286E+003
  2.0046916E+003
  2.1654284E+003
  2.3289633E+003
  2.4841965E+003
  2.6208902E+003
  2.7196578E+003
  3.0407080E+003
  4.3598693E+003
 -4.0373537E+002
  1.1580321E+004
  1.0047673E+004
  6.9316019E+003
  4.9591009E+003
  3.1335561E+003
  1.4925087E+003
 -2.1188716E+001
 -1.4011449E+003
 -2.6463109E+003
 -3.7378967E+003
 -4.6435419E+003
 -5.3189626E+003
 -5.7224478E+003
 -5.8309504E+003
 -5.6657510E+003
 -5.2948786E+003
 -4.8061819E+003
 -4.2923710E+003
 -3.8124103E+003
 -3.3927827E+003
 -3.0312842E+003
 -2.7107960E+003
 -2.4157125E+003
 -2.1368343E+003
 -1.8744011E+003
 -1.6338360E+003
 -1.4196925E+003
 -1.2344417E+003
 -1.0775558E+003
 -9.4744136E+002
 -8.4166076E+002
 -7.5737695E+002
 -6.9100978E+002
 -6.3790486E+002
 -5.9273251E+002
 -5.5022491E+002
 -5.0621384E+002
 -4.5810822E+002
 -4.0484619E+002
 -3.4648732E+002
 -2.8377258E+002
 -2.1796384E+002
 -1.5096533E+002
 -8.5685138E+001
 -2.6351565E+001
  2.1320789E+001
  5.0937925E+001
  5.5827930E+001
  3.0848492E+001
 -3.0166407E+001
 -1.4289521E+002
 -3.3998457E+002
 -8.6340949E+002
 -3.0537069E+002
 -2.7419767E+002
 -2.7354348E+002
 -3.0143001E+001
  1.3208751E+001
  9.7343473E+001
  2.0902982E+002
  3.4755002E+002
  5.1702807E+002
  7.1291943E+002
  9.2060690E+002
  1.1258682E+003
  1.3210671E+003
  1.5044597E+003
  1.6796080E+003
  1.8524983E+003
  2.0296278E+003
  2.2180191E+003
  2.4197053E+003
  2.6414775E+003
  2.8292860E+003
  3.0292779E+003
  2.9647060E+003
  4.9715223E+003
  9.8105088E+003
  8.3586566E+003
  7.1406899E+003
  5.2979488E+003
  3.4964742E+003
  1.7993894E+003
  2.7540642E+002
 -1.0896841E+003
 -2.2959179E+003
 -3.3362023E+003
 -4.1914566E+003
 -4.8367832E+003
 -5.2499813E+003
 -5.4249281E+003
 -5.3797789E+003
 -5.1586193E+003
 -4.8236930E+003
 -4.4349289E+003
 -4.0397783E+003
 -3.6646220E+003
 -3.3176605E+003
 -2.9959464E+003
 -2.6926736E+003
 -2.4038054E+003
 -2.1294155E+003
 -1.8724088E+003
 -1.6365749E+003
 -1.4246718E+003
 -1.2381925E+003
 -1.0772464E+003
 -9.4098626E+002
 -8.2762408E+002
 -7.3440453E+002
 -6.5766766E+002
 -5.9312831E+002
 -5.3645316E+002
 -4.8380852E+002
 -4.3223145E+002
 -3.7967390E+002
 -3.2482814E+002
 -2.6694620E+002
 -2.0582115E+002
 -1.4202917E+002
 -7.7438964E+001
 -1.6041052E+001
  3.5833712E+001
  6.8693622E+001
  7.5267938E+001
  4.3953340E+001
 -1.6459609E+001
 -1.6806295E+002
 -3.1923259E+002
 -1.6554523E+003
 -2.5531908E+002
 -1.0089421E+002
 -5.7677373E+002
  1.9725235E+001
 -6.5019054E+001
  6.6701443E+001
  1.5727258E+002
  2.8426747E+002
  4.5822950E+002
  6.6644757E+002
  8.8914131E+002
  1.1078770E+003
  1.3101892E+003
  1.4980553E+003
  1.6785759E+003
  1.8603699E+003
  2.0519691E+003
  2.2620262E+003
  2.5037538E+003
  2.7808773E+003
  3.1210929E+003
  3.3524779E+003
  3.5089784E+003
  2.7054421E+003
  7.0806066E+003
  7.8383311E+003
  7.1942189E+003
  5.5710702E+003
  3.7137475E+003
  2.0311030E+003
  5.2444888E+002
 -8.0419002E+002
 -1.9652466E+003
 -2.9580474E+003
 -3.7742620E+003
 -4.4012356E+003
 -4.8292401E+003
 -5.0585356E+003
 -5.1050341E+003
 -5.0003495E+003
 -4.7856950E+003
 -4.5040991E+003
 -4.1910071E+003
 -3.8703121E+003
 -3.5540923E+003
 -3.2459586E+003
 -2.9457583E+003
 -2.6530353E+003
 -2.3690189E+003
 -2.0967158E+003
 -1.8399518E+003
 -1.6024915E+003
 -1.3873207E+003
 -1.1964132E+003
 -1.0305518E+003
 -8.8928238E+002
 -7.7091074E+002
 -6.7264375E+002
 -5.9093342E+002
 -5.2193340E+002
 -4.6194781E+002
 -4.0770029E+002
 -3.5638297E+002
 -3.0556287E+002
 -2.5309607E+002
 -1.9722126E+002
 -1.3695884E+002
 -7.2765330E+001
 -7.7277607E+000
  5.0150989E+001
  8.9249678E+001
  9.2470391E+001
  5.0492017E+001
 -4.4060756E+001
 -2.1021524E+002
 -3.5390184E+002
 -7.2933886E+002
 -1.2276571E+002
  3.0206001E+002
 -2.2008140E+002
  1.4336520E+001
  7.5688535E+001
  2.0257369E+002
  3.7880732E+002
  6.1866193E+002
  8.7469188E+002
  1.1082240E+003
  1.3157019E+003
  1.5029820E+003
  1.6846119E+003
  1.8717417E+003
  2.0728535E+003
  2.2978402E+003
  2.5607629E+003
  2.8897769E+003
  3.2900625E+003
  3.7815878E+003
  3.1780600E+003
  6.8305560E+002
  1.7856035E+003
  6.9951066E+003
  7.3513372E+003
  5.5472169E+003
  3.7722434E+003
  2.1494580E+003
  7.0803356E+002
 -5.6004610E+002
 -1.6647417E+003
 -2.6095564E+003
 -3.3918155E+003
 -4.0060798E+003
 -4.4489143E+003
 -4.7236397E+003
 -4.8431783E+003
 -4.8300728E+003
 -4.7134591E+003
 -4.5236420E+003
 -4.2873644E+003
 -4.0244843E+003
 -3.7474415E+003
 -3.4627749E+003
 -3.1736172E+003
 -2.8821806E+003
 -2.5912737E+003
 -2.3048204E+003
 -2.0276507E+003
 -1.7648938E+003
 -1.5213636E+003
 -1.3009821E+003
 -1.1063632E+003
 -9.3852986E+002
 -7.9685471E+002
 -6.7925274E+002
 -5.8259391E+002
 -5.0322838E+002
 -4.3743827E+002
 -3.8167359E+002
 -3.3255163E+002
 -2.8670127E+002
 -2.4065519E+002
 -1.9097603E+002
 -1.3477571E+002
 -7.0808844E+001
 -2.8735255E-001
  7.0324134E+001
  1.1871817E+002
  1.2260839E+002
  6.4536998E+001
 -4.9635434E+001
 -1.9948410E+002
 -6.8349399E+002
 -1.1448816E+002
  1.6232158E+001
  1.4282821E+001
  8.7947465E+001
  3.0562744E+002
  5.7535615E+002
  8.6741028E+002
  1.1349350E+003
  1.3400095E+003
  1.5186860E+003
  1.6978588E+003
  1.8896920E+003
  2.0980836E+003
  2.3306223E+003
  2.6015643E+003
  2.9441358E+003
  3.4112195E+003
  4.1473702E+003
  5.7007969E+003
 -1.2035649E+003
 -2.1519964E+003
  1.1919978E+004
  7.6601867E+003
  5.4346295E+003
  3.7225387E+003
  2.1823123E+003
  8.3484208E+002
 -3.5490405E+002
 -1.3946336E+003
 -2.2901287E+003
 -3.0408238E+003
 -3.6446529E+003
 -4.1009906E+003
 -4.4137234E+003
 -4.5929745E+003
 -4.6550078E+003
 -4.6202682E+003
 -4.5104141E+003
 -4.3451544E+003
 -4.1401748E+003
 -3.9064632E+003
 -3.6510084E+003
 -3.3783215E+003
 -3.0920724E+003
 -2.7963762E+003
 -2.4964473E+003
 -2.1986291E+003
 -1.9099724E+003
 -1.6375255E+003
 -1.3875367E+003
 -1.1646972E+003
 -9.7161789E+002
 -8.0864971E+002
 -6.7412070E+002
 -5.6493691E+002
 -4.7731198E+002
 -4.0736011E+002
 -3.5134907E+002
 -3.0553084E+002
 -2.6581148E+002
 -2.2748147E+002
 -1.8526290E+002
 -1.3385820E+002
 -6.9356435E+001
  7.9145758E+000
  9.6239373E+001
  1.8674778E+002
  2.1164512E+002
  1.1971692E+002
  3.4497710E+000
 -2.8099029E+002
 -6.8872763E+001
  2.6366333E+001
  2.8075138E+001
  1.1462598E+002
  5.2050379E+002
  9.4769884E+002
  1.2065197E+003
  1.3800818E+003
  1.5383721E+003
  1.7194218E+003
  1.9183285E+003
  2.1357300E+003
  2.3735130E+003
  2.6483785E+003
  2.9729858E+003
  3.4947882E+003
  4.2171793E+003
  6.8383867E+003
  1.3603505E+004
  7.1584724E+003
  5.4889314E+003
  3.5871190E+003
  2.1899372E+003
  9.2630059E+002
 -1.7467223E+002
 -1.1482620E+003
 -1.9948368E+003
 -2.7161542E+003
 -3.3108156E+003
 -3.7790856E+003
 -4.1242650E+003
 -4.3538477E+003
 -4.4793397E+003
 -4.5150504E+003
 -4.4761590E+003
 -4.3767745E+003
 -4.2285091E+003
 -4.0399636E+003
 -3.8171185E+003
 -3.5643707E+003
 -3.2858267E+003
 -2.9864438E+003
 -2.6727438E+003
 -2.3529563E+003
 -2.0365902E+003
 -1.7335448E+003
 -1.4529371E+003
 -1.2019510E+003
 -9.8491448E+002
 -8.0295670E+002
 -6.5436091E+002
 -5.3546836E+002
 -4.4187727E+002
 -3.6938627E+002
 -3.1422195E+002
 -2.7267849E+002
 -2.4025260E+002
 -2.1105901E+002
 -1.7781361E+002
 -1.3231702E+002
 -6.6239893E+001
  2.4244068E+001
  1.2858538E+002
  2.4630290E+002
  3.0526708E+002
  2.0011205E+002
 -2.4185942E+001
 -3.9244939E+001
  7.1230678E+001
  4.0258588E+002
  9.4305930E+002
  1.3093785E+003
  1.4067330E+003
  1.5641187E+003
  1.7510606E+003
  1.9623981E+003
  2.1915051E+003
  2.4387076E+003
  2.7144846E+003
  3.0329384E+003
  3.4969443E+003
  4.2150715E+003
  6.1993507E+003
  8.6923903E+003
  7.9184825E+003
  5.0889064E+003
  3.5276273E+003
  2.1594304E+003
  1.0143248E+003
 -8.7170034E+000
 -9.1659726E+002
 -1.7180896E+003
 -2.4125973E+003
 -2.9993820E+003
 -3.4783712E+003
 -3.8518721E+003
 -4.1250523E+003
 -4.3057786E+003
 -4.4037415E+003
 -4.4291843E+003
 -4.3915869E+003
 -4.2987102E+003
 -4.1562488E+003
 -3.9681723E+003
 -3.7376410E+003
 -3.4682363E+003
 -3.1651765E+003
 -2.8361689E+003
 -2.4916402E+003
 -2.1441937E+003
 -1.8073770E+003
 -1.4940311E+003
 -1.2144035E+003
 -9.7477693E+002
 -7.7678553E+002
 -6.1783702E+002
 -4.9277010E+002
 -3.9581008E+002
 -3.2215381E+002
 -2.6851513E+002
 -2.3177487E+002
 -2.0752715E+002
 -1.8889492E+002
 -1.6627588E+002
 -1.2804753E+002
 -6.1620002E+001
  5.0356395E+001
  2.0756681E+002
  3.9269923E+002
  9.0028856E+002
 -2.7142700E+001
 -1.4256275E+002
  1.8199177E+003
  1.4342376E+003
  1.4454515E+003
  1.6012683E+003
  1.7985270E+003
  2.0242958E+003
  2.2660983E+003
  2.5240104E+003
  2.8019579E+003
  3.1133974E+003
  3.4637160E+003
  3.9266897E+003
  4.6273003E+003
  1.0436091E+004
  6.1322552E+003
  4.8578538E+003
  3.3044803E+003
  2.1484588E+003
  1.0922011E+003
  1.5370757E+002
 -6.9579208E+002
 -1.4557256E+003
 -2.1265818E+003
 -2.7066593E+003
 -3.1954686E+003
 -3.5941685E+003
 -3.9059906E+003
 -4.1359724E+003
 -4.2902862E+003
 -4.3752890E+003
 -4.3965680E+003
 -4.3582454E+003
 -4.2627709E+003
 -4.1113228E+003
 -3.9048080E+003
 -3.6452989E+003
 -3.3375720E+003
 -2.9903085E+003
 -2.6164481E+003
 -2.2325288E+003
 -1.8569366E+003
 -1.5072795E+003
 -1.1979699E+003
 -9.3753167E+002
 -7.2753419E+002
 -5.6352167E+002
 -4.3709522E+002
 -3.3974252E+002
 -2.6590890E+002
 -2.1315025E+002
 -1.8086392E+002
 -1.6563608E+002
 -1.5900696E+002
 -1.4873295E+002
 -1.1965475E+002
 -5.3360121E+001
  6.7581001E+001
  2.9773679E+002
  4.5279030E+002
  5.8867339E+002
  2.1280526E+003
  1.4132749E+003
  1.5173471E+003
  1.6485020E+003
  1.8668175E+003
  2.1026767E+003
  2.3540925E+003
  2.6163307E+003
  2.8906743E+003
  3.1803793E+003
  3.4254185E+003
  3.5116488E+003
  2.3998196E+003
  1.1438695E+002
 -1.1423308E+003
  7.3040786E+003
  5.5351058E+003
  4.1606235E+003
  3.1309736E+003
  2.1023300E+003
  1.1717688E+003
  3.0772555E+002
 -4.8495269E+002
 -1.2073153E+003
 -1.8566081E+003
 -2.4307333E+003
 -2.9283583E+003
 -3.3496233E+003
 -3.6961677E+003
 -3.9708535E+003
 -4.1771507E+003
 -4.3183384E+003
 -4.3966972E+003
 -4.4129160E+003
 -4.3659363E+003
 -4.2534206E+003
 -4.0729550E+003
 -3.8239203E+003
 -3.5097193E+003
 -3.1396376E+003
 -2.7296949E+003
 -2.3014840E+003
 -1.8795827E+003
 -1.4885014E+003
 -1.1476265E+003
 -8.6868510E+002
 -6.5305847E+002
 -4.9166910E+002
 -3.7086800E+002
 -2.7713111E+002
 -2.0270729E+002
 -1.4938052E+002
 -1.2013715E+002
 -1.1385856E+002
 -1.2161870E+002
 -1.2508769E+002
 -1.0550738E+002
 -4.2437079E+001
  9.5419372E+001
  3.5770205E+002
  1.1650591E+003
 -1.7321935E+002
  1.3518533E+003
  1.5240567E+003
  1.5304541E+003
  1.7238458E+003
  1.9477756E+003
  2.1951713E+003
  2.4476930E+003
  2.7017615E+003
  2.9573286E+003
  3.1987535E+003
  3.4064147E+003
  3.2861734E+003
  2.5225180E+003
  1.0716696E+003
  1.4130772E+002
  8.4770020E+001
  7.6979932E+002
 -7.4267716E+002
  3.4190413E+003
  4.3406785E+003
  3.6907192E+003
  2.8941253E+003
  2.0570339E+003
  1.2347291E+003
  4.4968643E+002
 -2.8883511E+002
 -9.7466901E+002
 -1.6032631E+003
 -2.1711543E+003
 -2.6761432E+003
 -3.1173642E+003
 -3.4951748E+003
 -3.8107803E+003
 -4.0656175E+003
 -4.2605685E+003
 -4.3951464E+003
 -4.4668444E+003
 -4.4708945E+003
 -4.4007119E+003
 -4.2492987E+003
 -4.0117704E+003
 -3.6887106E+003
 -3.2895626E+003
 -2.8337768E+003
 -2.3501019E+003
 -1.8722700E+003
 -1.4320439E+003
 -1.0579244E+003
 -7.6493989E+002
 -5.5155679E+002
 -4.0479197E+002
 -2.9989911E+002
 -2.1463375E+002
 -1.3874922E+002
 -7.5815319E+001
 -4.5509420E+001
 -5.2379700E+001
 -7.7519778E+001
 -1.0046879E+002
 -8.8662239E+001
 -3.0434215E+001
  1.2167871E+002
  3.2778855E+002
  1.0827981E+003
  1.3170597E+003
  1.3265068E+003
  1.5686156E+003
  1.7901181E+003
  2.0420528E+003
  2.2953881E+003
  2.5435775E+003
  2.7783650E+003
  2.9927667E+003
  3.1790997E+003
  3.2936584E+003
  3.2573512E+003
  2.2651613E+003
  1.4774289E+002
 -8.2881549E+001
 -1.1030721E+001
  3.7336649E+002
  1.5848225E+003
  2.9769889E+003
  3.4738720E+003
  3.2448022E+003
  2.6627279E+003
  1.9869627E+003
  1.2765491E+003
  5.7068847E+002
 -1.1229761E+002
 -7.6099979E+002
 -1.3680606E+003
 -1.9283821E+003
 -2.4386330E+003
 -2.8969462E+003
 -3.3026157E+003
 -3.6556234E+003
 -3.9559599E+003
 -4.2027594E+003
 -4.3933458E+003
 -4.5223621E+003
 -4.5812517E+003
 -4.5584741E+003
 -4.4409421E+003
 -4.2172079E+003
 -3.8826530E+003
 -3.4452356E+003
 -2.9307186E+003
 -2.3773846E+003
 -1.8289046E+003
 -1.3322582E+003
 -9.1998022E+002
 -6.1688820E+002
 -4.2318533E+002
 -3.0466886E+002
 -2.3148925E+002
 -1.6489232E+002
 -8.0965155E+001
 -5.5325033E+000
  2.6848891E+001
  1.2495691E+001
 -3.9456328E+001
 -7.8406312E+001
 -8.1156525E+001
 -1.7038631E+001
  1.0761813E+002
  3.4826926E+002
  4.5413035E+002
  7.5593242E+002
  1.2561683E+003
  1.5624943E+003
  1.8628828E+003
  2.1379392E+003
  2.4020277E+003
  2.6445397E+003
  2.8565179E+003
  3.0252661E+003
  3.1486949E+003
  3.2113248E+003
  3.3875905E+003
  4.0570354E+003
 -9.1741221E+002
  1.0618853E+002
  7.8692875E+002
  1.5182648E+003
  2.3183986E+003
  2.7969239E+003
  2.7748465E+003
  2.4174575E+003
  1.8898610E+003
  1.2916750E+003
  6.6648520E+002
  4.1091768E+001
 -5.6868568E+002
 -1.1524013E+003
 -1.7030416E+003
 -2.2159224E+003
 -2.6881348E+003
 -3.1180716E+003
 -3.5048634E+003
 -3.8476132E+003
 -4.1443910E+003
 -4.3910265E+003
 -4.5798608E+003
 -4.6987120E+003
 -4.7305235E+003
 -4.6544645E+003
 -4.4494246E+003
 -4.1013730E+003
 -3.6149308E+003
 -3.0186087E+003
 -2.3731232E+003
 -1.7463020E+003
 -1.1786248E+003
 -7.3262152E+002
 -4.4079731E+002
 -2.7194163E+002
 -2.0353044E+002
 -1.7216952E+002
 -1.4362346E+002
 -5.1728847E+001
  1.0047870E+002
  1.4699732E+002
  7.7984273E+001
  4.6522120E+000
 -8.0254264E+001
 -8.3487120E+001
 -2.2405505E+001
  8.9711185E+001
  1.9736866E+002
  2.6359191E+002
 -5.7050223E+002
 -3.4092844E+002
  4.6750935E+002
  1.1702613E+003
  1.5812147E+003
  1.9284210E+003
  2.2355921E+003
  2.5132957E+003
  2.7571648E+003
  2.9533089E+003
  3.0918984E+003
  3.1485686E+003
  3.2391965E+003
  3.2496851E+003
  5.0126066E+003
  4.0350934E+002
  8.5068156E+002
  1.4648867E+003
  2.0247866E+003
  2.3508905E+003
  2.3901713E+003
  2.1708749E+003
  1.7777782E+003
  1.2838479E+003
  7.3845841E+002
  1.7127311E+002
 -3.9813425E+002
 -9.5669010E+002
 -1.4953819E+003
 -2.0080770E+003
 -2.4907951E+003
 -2.9411598E+003
 -3.3577829E+003
 -3.7394346E+003
 -4.0838869E+003
 -4.3863742E+003
 -4.6377465E+003
 -4.8227401E+003
 -4.9186523E+003
 -4.8952416E+003
 -4.7181051E+003
 -4.3561112E+003
 -3.7988721E+003
 -3.0952808E+003
 -2.3300947E+003
 -1.5978056E+003
 -9.7744167E+002
 -4.6360823E+002
 -1.7678469E+002
 -1.2441190E+002
 -9.6140162E+001
 -1.0313785E+002
 -1.2411237E+002
 -1.0892793E+002
  1.7107735E+002
  3.7841441E+001
  2.9840956E+001
  3.4213263E+001
 -9.3828319E+001
 -8.2855121E+001
 -2.7468492E+001
  4.4587392E+001
  1.0975153E+002
  9.3785969E+001
 -3.3732510E+002
 -4.7706937E+002
 -1.2577214E+002
  5.3719016E+002
  1.1231453E+003
  1.6082252E+003
  1.9949301E+003
  2.3319521E+003
  2.6288007E+003
  2.8836921E+003
  3.0832349E+003
  3.2035564E+003
  3.2420185E+003
  3.2050644E+003
  3.4144075E+003
  3.4779220E+003
  4.5324128E+002
  8.9426342E+002
  1.3658995E+003
  1.7715852E+003
  2.0336420E+003
  2.0968769E+003
  1.9613876E+003
  1.6677529E+003
  1.2647347E+003
  7.9281149E+002
  2.8174420E+002
 -2.4753761E+002
 -7.8004359E+002
 -1.3050584E+003
 -1.8150346E+003
 -2.3049377E+003
 -2.7717327E+003
 -3.2138046E+003
 -3.6301330E+003
 -4.0190435E+003
 -4.3763555E+003
 -4.6927506E+003
 -4.9506006E+003
 -5.1220342E+003
 -5.1670703E+003
 -5.0324400E+003
 -4.6664774E+003
 -4.0365987E+003
 -3.1397895E+003
 -2.1518959E+003
 -1.3631696E+003
 -7.4484863E+002
 -1.6390866E+002
 -1.2080676E+002
 -6.1231351E+001
 -6.1871027E+001
 -6.8902768E+001
 -7.4074505E+001
 -8.7480586E+001
  6.1115046E+002
  1.6366222E+002
  1.1250069E+002
  2.1837944E+002
 -6.5450834E+001
 -5.0893201E+001
 -2.4328943E+001
  1.7505432E+001
  4.1341911E+001
  1.9469282E+001
 -1.5256676E+002
 -2.0109597E+002
 -6.8367989E+002
 -1.7367822E+001
  5.6468147E+002
  1.1586606E+003
  1.6486851E+003
  2.0665325E+003
  2.4267724E+003
  2.7446473E+003
  3.0203134E+003
  3.2399283E+003
  3.3739128E+003
  3.3750915E+003
  3.2621606E+003
  3.0118741E+003
  2.9569681E+003
  8.9567380E+001
  7.9780012E+002
  1.2515329E+003
  1.5795373E+003
  1.8061437E+003
  1.8812436E+003
  1.7980988E+003
  1.5763915E+003
  1.2462749E+003
  8.3819035E+002
  3.7807415E+002
 -1.1343005E+002
 -6.2053087E+002
 -1.1312360E+003
 -1.6367160E+003
 -2.1309119E+003
 -2.6102076E+003
 -3.0729841E+003
 -3.5189047E+003
 -3.9477284E+003
 -4.3572914E+003
 -4.7402562E+003
 -5.0787601E+003
 -5.3381219E+003
 -5.4695825E+003
 -5.4053226E+003
 -5.0283003E+003
 -4.2534504E+003
 -3.1780878E+003
 -1.9634028E+003
 -7.8072616E+002
 -3.9268898E+002
  3.9070368E+002
  1.7325598E+002
  1.0865837E+002
  9.0910555E+001
  5.4492258E+001
  2.2383377E+001
 -2.6009155E+002
  2.4367246E+002
 -6.0081530E+001
 -6.3497326E+000
 -1.2132147E+001
 -8.7765386E+000
  1.0378141E+000
 -3.7099710E+000
  5.2141605E+000
 -2.1266231E+003
 -4.6840996E+002
  6.0489552E+001
  7.0767330E+002
  1.2363049E+003
  1.7215901E+003
  2.1438133E+003
  2.5197691E+003
  2.8559246E+003
  3.1531973E+003
  3.4069502E+003
  3.5799292E+003
  3.5789007E+003
  3.2393974E+003
  2.6834573E+003
  2.0964448E+003
 -2.0472380E+002
  1.1597229E+003
  1.1352007E+003
  1.4206438E+003
  1.6388325E+003
  1.7245832E+003
  1.6783262E+003
  1.5105111E+003
  1.2379446E+003
  8.8247318E+002
  4.6635010E+002
  8.3943024E+000
 -4.7565527E+002
 -9.7288850E+002
 -1.4732546E+003
 -1.9696676E+003
 -2.4579485E+003
 -2.9365883E+003
 -3.4062620E+003
 -3.8688819E+003
 -4.3258657E+003
 -4.7745434E+003
 -5.2021378E+003
 -5.5710688E+003
 -5.8038512E+003
 -5.8298649E+003
 -5.5778395E+003
 -4.7547811E+003
 -3.1109580E+003
 -7.9765758E+002
 -4.3077486E+002
 -2.0766121E+002
  1.7976977E+002
 -5.2121022E+001
  3.9944128E+001
  1.1701323E+001
  4.3645500E+000
 -4.0071495E+000
 -1.7191405E+001
 -2.3143247E+003
 -5.2924613E+002
  2.6348448E+002
  8.3412340E+002
  1.3472929E+003
  1.8077255E+003
  2.2266951E+003
  2.6090565E+003
  2.9591368E+003
  3.2759495E+003
  3.5485435E+003
  3.7879724E+003
  3.8793277E+003
  3.5158385E+003
  2.2822233E+003
  4.4631472E+002
  5.9446208E+002
  9.4472926E+002
  1.3441443E+003
  1.5283818E+003
  1.6115514E+003
  1.5971442E+003
  1.4734940E+003
  1.2445400E+003
  9.3151776E+002
  5.5214628E+002
  1.2225575E+002
 -3.4283140E+002
 -8.2910737E+002
 -1.3252085E+003
 -1.8229569E+003
 -2.3175557E+003
 -2.8076013E+003
 -3.2948736E+003
 -3.7838654E+003
 -4.2805834E+003
 -4.7903031E+003
 -5.3103501E+003
 -5.8208050E+003
 -6.2270114E+003
 -6.3011592E+003
 -5.9998896E+003
 -4.6975098E+003
 -2.8798708E+003
 -3.6931838E+002
  5.1266550E+001
  1.7313826E+001
  2.1705298E+000
 -7.4560962E+000
  1.3075638E+000
  1.3541781E+001
  6.1255174E+000
 -1.7984106E+001
 -8.6924595E+000
 -9.7763643E+002
 -1.3317183E+003
 -9.6832526E+002
 -2.9240572E+002
  4.0787336E+002
  9.6470658E+002
  1.4529455E+003
  1.8974317E+003
  2.3084285E+003
  2.6932770E+003
  3.0570977E+003
  3.3932404E+003
  3.6864597E+003
  3.9024672E+003
  4.1861284E+003
  3.4694325E+003
  1.5250927E+003
  2.5050929E+002
  4.9633678E+001
  8.2071418E+002
  1.1594253E+003
  1.3685789E+003
  1.4991957E+003
  1.5561510E+003
  1.4629099E+003
  1.2659787E+003
  9.8966923E+002
  6.4101343E+002
  2.3226947E+002
 -2.1969753E+002
 -6.9926996E+002
 -1.1936247E+003
 -1.6933292E+003
 -2.1928834E+003
 -2.6908882E+003
 -3.1901361E+003
 -3.6975726E+003
 -4.2244194E+003
 -4.7843716E+003
 -5.3940550E+003
 -6.0499397E+003
 -6.7614694E+003
 -7.1960671E+003
 -7.0999539E+003
 -8.5565101E+003
 -2.7766831E+002
 -3.0449661E+000
 -6.6529292E+000
  4.9048701E+000
 -6.2881702E+000
  5.2613616E+000
 -1.4643535E+001
 -1.5285033E+003
 -1.4052003E+003
 -1.0437275E+003
 -6.4217510E+002
 -7.8041394E+001
  5.3839965E+002
  1.0784612E+003
  1.5518852E+003
  1.9836836E+003
  2.3868181E+003
  2.7723252E+003
  3.1497255E+003
  3.5244167E+003
  3.8730747E+003
  4.1065718E+003
  4.4091427E+003
  6.5621478E+003
 -3.3821362E+002
  3.4056207E+002
  1.6222286E+003
  1.2558026E+003
  1.5495014E+003
  1.5804415E+003
  1.4589278E+003
  1.3015907E+003
  1.0646578E+003
  7.3820309E+002
  3.4199213E+002
 -1.0410816E+002
 -5.8301380E+002
 -1.0798627E+003
 -1.5838265E+003
 -2.0886139E+003
 -2.5927826E+003
 -3.0998672E+003
 -3.6189969E+003
 -4.1655621E+003
 -4.7638509E+003
 -5.4429551E+003
 -6.2530255E+003
 -7.1734124E+003
 -8.4028992E+003
 -7.0772826E+003
 -4.6516228E+003
 -2.1191918E+000
  4.9303851E+000
 -3.0927312E-001
 -1.6513726E+003
 -1.5060131E+003
 -1.1393160E+003
 -7.0961953E+002
 -2.8894002E+002
  1.9470081E+002
  7.0237168E+002
  1.1974290E+003
  1.6517735E+003
  2.0702786E+003
  2.4644385E+003
  2.8473451E+003
  3.2343689E+003
  3.6531304E+003
  4.1052457E+003
  4.6093296E+003
  4.4897118E+003
  6.6654830E+003
  9.6232209E+002
  4.8065455E+002
  1.5717864E+003
  1.4456687E+003
  1.4448878E+003
  1.3746316E+003
  1.1652498E+003
  8.4748103E+002
  4.5526398E+002
  5.9531298E+000
 -4.7988724E+002
 -9.8523299E+002
 -1.4973347E+003
 -2.0093510E+003
 -2.5198898E+003
 -3.0330408E+003
 -3.5593973E+003
 -4.1177979E+003
 -4.7408191E+003
 -5.4751508E+003
 -6.4131303E+003
 -7.6294649E+003
 -9.5496386E+003
 -1.4376074E+004
  3.3453133E+003
 -1.8195759E+003
 -1.5761636E+003
 -1.2219860E+003
 -8.0663394E+002
 -4.3529225E+002
 -1.9109265E+001
  4.2193206E+002
  8.8156301E+002
  1.3323280E+003
  1.7612116E+003
  2.1644738E+003
  2.5480451E+003
  2.9233691E+003
  3.3116681E+003
  3.7438276E+003
  4.2946065E+003
  4.9678641E+003
  4.8737622E+003
  9.4128314E+002
 -2.1337155E+002
  2.3957817E+002
  2.5815734E+003
  1.4296738E+003
  1.5585777E+003
  1.5072337E+003
  1.2823014E+003
  9.7165631E+002
  5.7526856E+002
  1.1376784E+002
 -3.8929413E+002
 -9.1041873E+002
 -1.4356837E+003
 -1.9582945E+003
 -2.4773453E+003
 -2.9974223E+003
 -3.5292646E+003
 -4.0954927E+003
 -4.7272356E+003
 -5.5111952E+003
 -6.4826167E+003
 -8.1660240E+003
 -9.7620754E+003
 -1.6688452E+004
 -1.5951545E+003
 -2.5419999E+003
 -1.2359901E+003
 -9.2282965E+002
 -5.4679198E+002
 -1.7308457E+002
  2.2178147E+002
  6.3548376E+002
  1.0583401E+003
  1.4780351E+003
  1.8837055E+003
  2.2718377E+003
  2.6448309E+003
  3.0121601E+003
  3.3888928E+003
  3.8243628E+003
  4.3701412E+003
  5.4121515E+003
  7.9036444E+003
 -1.3256179E+003
  1.4240576E+003
  4.9509008E+002
  1.7774886E+003
  1.5863725E+003
  1.4295428E+003
  1.1225679E+003
  7.1509621E+002
  2.2186375E+002
 -3.0992545E+002
 -8.5510496E+002
 -1.3984300E+003
 -1.9357104E+003
 -2.4671028E+003
 -2.9967453E+003
 -3.5358254E+003
 -4.1041651E+003
 -4.7437477E+003
 -5.5058455E+003
 -6.5815620E+003
 -7.9978385E+003
 -1.1242620E+004
 -1.1784739E+004
 -9.7473092E+002
 -1.0406856E+003
 -3.3720266E+002
  1.0714393E+002
 -1.5016205E+003
 -1.0085303E+003
 -6.8780165E+002
 -3.1746447E+002
  4.8016368E+001
  4.3442771E+002
  8.3067259E+002
  1.2320495E+003
  1.6296158E+003
  2.0176272E+003
  2.3933616E+003
  2.7595066E+003
  3.1191156E+003
  3.4962309E+003
  3.8803411E+003
  4.5160816E+003
  5.0710344E+003
  8.9099864E+003
 -3.9431624E+002
  5.8709214E+002
  2.2415503E+003
  1.7267699E+003
  1.6076400E+003
  1.3018038E+003
  8.7526428E+002
  3.3645714E+002
 -2.4276654E+002
 -8.1635030E+002
 -1.3809806E+003
 -1.9380106E+003
 -2.4865955E+003
 -3.0299356E+003
 -3.5772187E+003
 -4.1492355E+003
 -4.7732232E+003
 -5.5267079E+003
 -6.4251715E+003
 -7.9546453E+003
 -9.2461772E+003
 -1.5711254E+004
 -1.1479051E+003
 -2.0632499E+003
 -7.1935563E+002
 -9.4258553E+002
 -1.0715495E+003
 -8.7060693E+002
 -4.9385320E+002
 -1.3210184E+002
  2.4405313E+002
  6.2674489E+002
  1.0147335E+003
  1.4021118E+003
  1.7845279E+003
  2.1590533E+003
  2.5256530E+003
  2.8863331E+003
  3.2479499E+003
  3.6125847E+003
  4.0142256E+003
  4.4316502E+003
  5.3577396E+003
  5.5504007E+003
  1.6583998E+003
  1.9272566E+003
  1.8240634E+003
  1.6575551E+003
  1.1135901E+003
  4.3859861E+002
 -1.8622373E+002
 -7.8275814E+002
 -1.3743004E+003
 -1.9577771E+003
 -2.5296040E+003
 -3.0898050E+003
 -3.6467068E+003
 -4.2165664E+003
 -4.8277927E+003
 -5.5094869E+003
 -6.3402586E+003
 -7.2760021E+003
 -8.8578636E+003
 -1.2158686E+004
 -7.4979510E+002
 -8.3378590E+002
 -3.1660076E+002
  8.6806664E+001
 -1.2075305E+003
 -9.2325322E+002
 -8.1092714E+002
 -7.7782474E+002
 -6.2624407E+002
 -3.1989492E+002
  4.4655067E+001
  4.2334227E+002
  8.0828847E+002
  1.1921176E+003
  1.5703482E+003
  1.9406052E+003
  2.3032519E+003
  2.6605325E+003
  3.0163041E+003
  3.3734609E+003
  3.7417870E+003
  4.1005046E+003
  4.4436817E+003
  4.5144226E+003
  4.7023055E+003
  1.9820941E+003
  2.0820428E+003
  1.9003575E+003
  1.2581742E+003
  5.1987939E+002
 -1.0965214E+002
 -7.3663710E+002
 -1.3656510E+003
 -1.9870027E+003
 -2.5880364E+003
 -3.1664032E+003
 -3.7292316E+003
 -4.2919224E+003
 -4.8748151E+003
 -5.4978638E+003
 -6.1758316E+003
 -6.8709539E+003
 -7.5665686E+003
 -5.8705668E+003
 -1.4407817E+003
  1.5301177E+003
 -8.6311819E+002
 -1.5388921E+003
 -6.2291221E+002
 -8.5001667E+002
 -1.0174064E+003
 -9.3084312E+002
 -7.8565453E+002
 -6.4423014E+002
 -4.3143097E+002
 -1.3838035E+002
  2.1657401E+002
  5.9886389E+002
  9.8680403E+002
  1.3687873E+003
  1.7389317E+003
  2.0965628E+003
  2.4451245E+003
  2.7900756E+003
  3.1353146E+003
  3.4828391E+003
  3.8243503E+003
  4.1723692E+003
  4.3770579E+003
  4.1854294E+003
  3.3642077E+003
  1.3463075E+003
  3.9531453E+003
  1.5083938E+003
  6.8082851E+002
  2.1962016E+001
 -6.5890734E+002
 -1.3489265E+003
 -2.0207120E+003
 -2.6561006E+003
 -3.2491310E+003
 -3.8089629E+003
 -4.3514048E+003
 -4.8916989E+003
 -5.4389271E+003
 -5.9731006E+003
 -6.4579603E+003
 -6.5147910E+003
 -5.5418044E+003
 -2.7852208E+003
 -7.5917629E+002
 -8.0697117E+001
 -4.9647019E+002
  1.3661557E+002
 -3.3949950E+002
 -7.9773901E+002
  1.7254387E+003
  6.9201927E+002
 -4.7593824E+002
 -5.9833672E+002
 -2.6408986E+002
  3.0880990E+001
 -9.7317239E+002
 -8.4126774E+002
 -8.2483672E+002
 -8.7435776E+002
 -8.5345913E+002
 -7.1794990E+002
 -5.3033084E+002
 -2.8760913E+002
  2.1797610E+001
  3.8325067E+002
  7.7324554E+002
  1.1678700E+003
  1.5499445E+003
  1.9108682E+003
  2.2520921E+003
  2.5810651E+003
  2.9072434E+003
  3.2374765E+003
  3.5670391E+003
  3.8760757E+003
  4.1270273E+003
  4.3469143E+003
  3.6476872E+003
  7.9245906E+002
  2.4958165E+003
  1.3463814E+003
  9.5174498E+002
  1.9542259E+002
 -5.5144182E+002
 -1.3241485E+003
 -2.0628499E+003
 -2.7323722E+003
 -3.3305735E+003
 -3.8717513E+003
 -4.3758363E+003
 -4.8548253E+003
 -5.3024200E+003
 -5.6851103E+003
 -5.8744079E+003
 -5.6113154E+003
 -4.5667522E+003
 -3.0255547E+003
 -1.6590649E+003
 -9.0496489E+002
 -6.0692014E+002
  3.5813800E+002
  5.0805310E+000
  4.2935306E+002
  7.3466740E+000
  1.3055134E+002
 -1.0677070E+002
  4.8611052E+001
 -1.5816144E+002
 -1.1503278E+001
 -7.3800078E+001
 -4.8145110E+002
  4.1286142E+002
  1.0098398E+003
 -5.4080978E+002
 -9.5520211E+002
 -4.8305967E+002
 -7.0836987E+002
 -8.9206343E+002
 -8.9738594E+002
 -8.6903946E+002
 -8.4874586E+002
 -7.7805613E+002
 -6.4529243E+002
 -4.4197443E+002
 -1.7401471E+002
  1.5610194E+002
  5.3664344E+002
  9.4664926E+002
  1.3567301E+003
  1.7410336E+003
  2.0904342E+003
  2.4083180E+003
  2.7091925E+003
  3.0086917E+003
  3.3178816E+003
  3.6387392E+003
  3.9376385E+003
  4.1250742E+003
  4.2596523E+003
  5.7195535E+003
 -9.9855864E+002
 -1.2271296E+002
  1.8395899E+003
  1.0444268E+003
  4.2818344E+002
 -4.3027270E+002
 -1.3137956E+003
 -2.1233620E+003
 -2.8227785E+003
 -3.4060040E+003
 -3.9080678E+003
 -4.3554243E+003
 -4.7571832E+003
 -5.0975744E+003
 -5.3232438E+003
 -5.3317363E+003
 -4.9819280E+003
 -4.2088954E+003
 -3.1214170E+003
 -2.0909659E+003
 -1.3323970E+003
 -6.6330342E+002
 -2.2663921E+001
  2.0326819E+002
 -6.3563919E+001
 -1.8187167E+002
 -3.0821147E+002
 -2.4389240E+002
  1.4836776E+002
  2.6744614E+003
  1.2232195E+003
 -1.7237871E+002
 -2.7644355E+002
 -2.1590061E+002
 -1.0932740E+002
 -6.9237210E+002
 -6.8722119E+002
 -7.3124876E+002
 -8.2857511E+002
 -8.8237420E+002
 -8.6364657E+002
 -8.1506054E+002
 -7.2880853E+002
 -5.8270467E+002
 -3.7100606E+002
 -8.8402567E+001
  2.6031226E+002
  6.7117794E+002
  1.1143988E+003
  1.5530859E+003
  1.9503132E+003
  2.2829316E+003
  2.5678784E+003
  2.8296367E+003
  3.0932666E+003
  3.3749761E+003
  3.6893246E+003
  4.0231499E+003
  4.3510533E+003
  4.1236225E+003
  5.5789665E+003
  1.0317517E+003
  1.4566679E+003
  6.4619744E+002
 -2.8824086E+002
 -1.2915298E+003
 -2.2299508E+003
 -2.9316999E+003
 -3.4718107E+003
 -3.9105755E+003
 -4.2898756E+003
 -4.6111583E+003
 -4.8519682E+003
 -4.9641113E+003
 -4.8774750E+003
 -4.5261737E+003
 -3.8997515E+003
 -3.1025752E+003
 -2.2850838E+003
 -1.5529170E+003
 -9.2941633E+002
 -4.7531238E+002
 -2.6647693E+002
 -2.2113312E+002
 -3.1713013E+002
 -3.6235656E+002
 -2.4474874E+002
  1.1928170E+002
  1.1252097E+003
  2.3549940E+002
  5.2768870E+002
  2.0369443E+002
  1.2624191E+002
  4.4942511E+001
  1.0777980E+002
  1.8365493E+001
  7.0088860E+001
 -9.5915202E+000
  6.3555963E+001
 -4.0580659E+001
  4.9670732E+001
 -9.1849405E+001
  2.5816123E+001
 -2.7296353E+002
 -5.3362446E+002
 -6.9632676E+002
 -7.4412664E+002
 -7.8149873E+002
 -8.2613111E+002
 -8.4521355E+002
 -8.3220547E+002
 -7.7965860E+002
 -6.8454320E+002
 -5.3619185E+002
 -3.2073838E+002
 -3.5194308E+001
  3.3401567E+002
  7.6896888E+002
  1.2765917E+003
  1.7814512E+003
  2.1879577E+003
  2.4972982E+003
  2.7320020E+003
  2.9440083E+003
  3.1638889E+003
  3.4123092E+003
  3.7036321E+003
  4.0742925E+003
  4.5046321E+003
  4.2173416E+003
  8.1140357E+002
  1.2739187E+003
  1.1015757E+003
 -2.6669317E+001
 -1.4238406E+003
 -2.3995075E+003
 -3.0674897E+003
 -3.5088921E+003
 -3.8758042E+003
 -4.1857728E+003
 -4.4360467E+003
 -4.6000869E+003
 -4.6395377E+003
 -4.5117177E+003
 -4.1882057E+003
 -3.6797881E+003
 -3.0437467E+003
 -2.3704532E+003
 -1.7349759E+003
 -1.1903124E+003
 -7.7478214E+002
 -5.2760786E+002
 -4.4263844E+002
 -4.1688209E+002
 -3.7338040E+002
 -2.0014646E+002
  2.2735498E+002
  7.6572747E+002
  8.0197134E+002
  3.1933141E+002
  1.7990500E+002
  8.1282195E+001
  2.3160268E+001
 -4.2616420E+001
 -1.6330959E+002
 -3.5511240E+002
 -5.1543049E+002
 -6.4462201E+002
 -7.2761939E+002
 -7.6604492E+002
 -7.9115933E+002
 -8.0005661E+002
 -7.8067334E+002
 -7.2923210E+002
 -6.3883895E+002
 -4.9792492E+002
 -2.9097157E+002
 -2.0323485E+000
  3.3893325E+002
  8.1354214E+002
  1.3822732E+003
  1.9947894E+003
  2.4825697E+003
  2.7348344E+003
  2.8992690E+003
  3.0528871E+003
  3.2302706E+003
  3.4403904E+003
  3.7113635E+003
  4.0624383E+003
  4.7654303E+003
  6.6347722E+003
 -1.1105898E+003
  1.1018668E+003
  5.7088176E+002
 -1.3337900E+003
 -2.7067611E+003
 -3.1584780E+003
 -3.5110109E+003
 -3.8019087E+003
 -4.0569533E+003
 -4.2528083E+003
 -4.3643027E+003
 -4.3618309E+003
 -4.2200706E+003
 -3.9278894E+003
 -3.4988230E+003
 -2.9744642E+003
 -2.4115023E+003
 -1.8682476E+003
 -1.3921509E+003
 -1.0213551E+003
 -7.7001913E+002
 -6.1687150E+002
 -5.1775334E+002
 -3.9439523E+002
 -1.7709541E+002
  1.4630975E+002
  4.0130607E+002
  4.4505826E+002
  3.8490111E+002
  2.1759353E+002
  1.1683872E+002
  3.1701647E+001
 -6.0396397E+001
 -1.8050527E+002
 -3.2225415E+002
 -4.7087881E+002
 -5.8704398E+002
 -6.6151758E+002
 -7.0810923E+002
 -7.3065635E+002
 -7.3246007E+002
 -7.1133698E+002
 -6.6240467E+002
 -5.8045581E+002
 -4.5712296E+002
 -2.7208694E+002
  5.7794999E+000
  3.7950332E+002
  6.7328713E+002
  1.4556855E+003
  2.4697014E+003
  2.8664125E+003
  2.9889450E+003
  3.0566958E+003
  3.1636426E+003
  3.3002146E+003
  3.4854821E+003
  3.7039253E+003
  4.1319513E+003
  4.4558173E+003
  7.3136485E+003
  1.5493565E+003
 -2.6406929E+003
 -3.0401773E+003
 -3.2339730E+003
 -3.4682647E+003
 -3.7075656E+003
 -3.9228204E+003
 -4.0820862E+003
 -4.1601317E+003
 -4.1349846E+003
 -3.9918005E+003
 -3.7278562E+003
 -3.3571481E+003
 -2.9102183E+003
 -2.4293372E+003
 -1.9589251E+003
 -1.5387727E+003
 -1.1964932E+003
 -9.4247191E+002
 -7.6285546E+002
 -6.1731638E+002
 -4.5738719E+002
 -2.4714369E+002
 -7.1100414E+000
  2.0493358E+002
  3.0602762E+002
  2.7791697E+002
  2.1351560E+002
  1.2811370E+002
  4.6964435E+001
 -4.3948700E+001
 -1.5245392E+002
 -2.7601688E+002
 -3.9545006E+002
 -4.9741962E+002
 -5.7295615E+002
 -6.1990372E+002
 -6.4316812E+002
 -6.4417474E+002
 -6.2225379E+002
 -5.7544555E+002
 -5.0034419E+002
 -3.9245060E+002
 -2.3736694E+002
 -3.6891834E+000
  3.9825943E+002
  3.6149466E+002
  6.9384414E+002
  2.7377273E+003
  3.2838652E+003
  3.2136867E+003
  3.2257462E+003
  3.2844123E+003
  3.3871361E+003
  3.5323907E+003
  3.7539628E+003
  4.0284685E+003
  4.7094384E+003
  4.5354481E+003
 -4.1657556E+003
 -3.3775697E+003
 -3.2678115E+003
 -3.4176106E+003
 -3.6213970E+003
 -3.8091969E+003
 -3.9430726E+003
 -3.9993108E+003
 -3.9614960E+003
 -3.8209888E+003
 -3.5791727E+003
 -3.2493576E+003
 -2.8564255E+003
 -2.4331984E+003
 -2.0153383E+003
 -1.6353169E+003
 -1.3170735E+003
 -1.0694444E+003
 -8.8175159E+002
 -7.2416853E+002
 -5.6046327E+002
 -3.6858894E+002
 -1.5820387E+002
  2.1158848E+001
  1.3387679E+002
  1.7571733E+002
  1.5770604E+002
  1.1559737E+002
  5.7712309E+001
 -1.4935294E+001
 -1.0458290E+002
 -2.0628554E+002
 -3.0924344E+002
 -3.9984422E+002
 -4.6960554E+002
 -5.1614143E+002
 -5.3926213E+002
 -5.3980691E+002
 -5.1732862E+002
 -4.7045976E+002
 -3.9597924E+002
 -2.9296002E+002
 -1.4067589E+002
  6.7468253E+001
  9.6659361E+002
  1.4253825E+002
 -3.5684818E+002
  5.6911144E+003
  3.8927164E+003
  3.5144748E+003
  3.4365643E+003
  3.4299954E+003
  3.4845157E+003
  3.5907336E+003
  3.7464636E+003
  3.9859969E+003
  4.1318451E+003
  4.1352755E+003
 -5.3716315E+003
 -3.3799657E+003
 -3.3332260E+003
 -3.3922446E+003
 -3.5782610E+003
 -3.7380813E+003
 -3.8510309E+003
 -3.8899842E+003
 -3.8431184E+003
 -3.7046339E+003
 -3.4776844E+003
 -3.1745833E+003
 -2.8163363E+003
 -2.4302397E+003
 -2.0460048E+003
 -1.6916229E+003
 -1.3896355E+003
 -1.1525028E+003
 -9.7537187E+002
 -8.3444852E+002
 -6.8527415E+002
 -5.0461069E+002
 -3.0807251E+002
 -1.2254566E+002
  6.9406397E+000
  7.3472317E+001
  9.6588259E+001
  9.0817804E+001
  6.7117931E+001
  2.3023512E+001
 -4.5089820E+001
 -1.2984572E+002
 -2.1876732E+002
 -2.9936151E+002
 -3.6327803E+002
 -4.0654930E+002
 -4.2825067E+002
 -4.2799934E+002
 -4.0470004E+002
 -3.5696549E+002
 -2.7997658E+002
 -1.7670288E+002
 -1.5623816E+001
  1.0073749E+002
  3.4899262E+002
  6.3112470E+003
  4.1227568E+003
  3.9456354E+003
  3.6664618E+003
  3.5990513E+003
  3.5842665E+003
  3.6315327E+003
  3.7202705E+003
  3.8022112E+003
  3.8356081E+003
  3.6119388E+003
 -4.3499847E+003
 -3.5266038E+003
 -3.3451456E+003
 -3.4418535E+003
 -3.5845642E+003
 -3.7221190E+003
 -3.8123047E+003
 -3.8356514E+003
 -3.7799226E+003
 -3.6407851E+003
 -3.4213175E+003
 -3.1325524E+003
 -2.7930091E+003
 -2.4267011E+003
 -2.0598347E+003
 -1.7174951E+003
 -1.4214695E+003
 -1.1919940E+003
 -1.0391851E+003
 -9.3381549E+002
 -8.3111091E+002
 -6.6249376E+002
 -4.2624608E+002
 -2.2823306E+002
 -8.4058469E+001
 -5.8559477E+000
  2.8593323E+001
  5.8932677E+001
  7.8923901E+001
  6.6411927E+001
  1.9427513E+001
 -5.3798919E+001
 -1.3343290E+002
 -2.0533951E+002
 -2.6190765E+002
 -3.0015962E+002
 -3.1911974E+002
 -3.1793883E+002
 -2.9517522E+002
 -2.4764518E+002
 -1.7557178E+002
 -6.7410542E+001
  3.3883986E+001
  2.3535534E+002
 -8.3912932E+001
  4.3961245E+003
  4.8621562E+003
  4.1843413E+003
  3.9254021E+003
  3.7430730E+003
  3.6726296E+003
  3.6549863E+003
  3.6618960E+003
  3.6521081E+003
  3.5715651E+003
  3.3397875E+003
  9.7700196E+002
 -2.9653741E+002
 -2.4424758E+003
 -3.3022770E+003
 -3.3917347E+003
 -3.5084462E+003
 -3.6387200E+003
 -3.7539856E+003
 -3.8251338E+003
 -3.8341561E+003
 -3.7698082E+003
 -3.6274148E+003
 -3.4090235E+003
 -3.1240972E+003
 -2.7894911E+003
 -2.4283148E+003
 -2.0659527E+003
 -1.7246069E+003
 -1.4238909E+003
 -1.1839336E+003
 -1.0456560E+003
 -1.0290170E+003
 -9.6802452E+002
 -7.5739016E+002
 -5.2093447E+002
 -2.4919034E+002
 -1.1610289E+002
 -6.6977345E+001
 -1.9826373E+001
  2.7474212E+001
  9.1278092E+001
  1.2098167E+002
  8.1312035E+001
  1.0559428E+001
 -6.2892011E+001
 -1.2535409E+002
 -1.7263095E+002
 -2.0380107E+002
 -2.1892838E+002
 -2.1772592E+002
 -1.9748076E+002
 -1.5637749E+002
 -9.3103183E+001
 -1.3695642E+001
  9.4264878E+001
  4.1799039E+001
  4.8018828E+003
  4.6440532E+003
  4.4170537E+003
  4.0466560E+003
  3.8500669E+003
  3.7305218E+003
  3.6614116E+003
  3.6040483E+003
  3.5211437E+003
  3.3876260E+003
  3.1313579E+003
 -1.6499678E+003
 -2.5279191E+003
 -3.1062820E+003
 -3.4069240E+003
 -3.5724359E+003
 -3.7149975E+003
 -3.8210029E+003
 -3.8805108E+003
 -3.8796358E+003
 -3.8086977E+003
 -3.6621476E+003
 -3.4403294E+003
 -3.1505915E+003
 -2.8087984E+003
 -2.4388507E+003
 -2.0704673E+003
 -1.7283679E+003
 -1.4172938E+003
 -1.1526967E+003
 -9.7867484E+002
 -1.0248057E+003
 -1.2571822E+003
 -1.0483003E+003
 -4.0235706E+002
 -2.0228209E+002
 -9.6962390E+001
 -7.5343672E+001
 -1.6098253E+002
 -5.9207599E+001
  1.3409243E+002
  1.7989986E+002
  1.2456105E+002
  4.8969386E+001
 -1.5715428E+001
 -6.5376270E+001
 -1.0058066E+002
 -1.2278878E+002
 -1.3340969E+002
 -1.3268996E+002
 -1.2019331E+002
 -8.4198832E+001
 -3.1411602E+001
  1.8653350E+001
  6.2666068E+001
  4.8211826E+003
  4.9225947E+003
  4.3361226E+003
  4.0919345E+003
  3.8895554E+003
  3.7621041E+003
  3.6580857E+003
  3.5529183E+003
  3.4189269E+003
  3.2460112E+003
  2.9910014E+003
 -1.9795895E+003
 -2.4058533E+003
 -2.9709423E+003
 -3.3725348E+003
 -3.6292805E+003
 -3.7982095E+003
 -3.9107918E+003
 -3.9682034E+003
 -3.9647019E+003
 -3.8916236E+003
 -3.7424263E+003
 -3.5150145E+003
 -3.2142873E+003
 -2.8537541E+003
 -2.4606643E+003
 -2.0731907E+003
 -1.7318974E+003
 -1.4450837E+003
 -1.1344776E+003
 -8.5984801E+002
 -8.5564814E+002
 -1.4936051E+003
 -3.4870101E+002
 -2.5250755E+002
 -5.5502593E+001
 -2.2914746E+001
 -3.5135337E+001
 -2.3105287E+001
 -1.4410699E+002
  2.3280655E+002
  1.9933407E+002
  1.1584919E+002
  4.9042398E+001
  3.4027866E+000
 -2.7469480E+001
 -4.7694098E+001
 -5.9820600E+001
 -6.4653494E+001
 -6.5156630E+001
 -5.8612495E+001
 -4.3490663E+001
 -2.2328545E+001
  3.7528961E+001
  6.7987229E+003
  4.4795128E+003
  4.3185316E+003
  4.0367050E+003
  3.9024065E+003
  3.7744233E+003
  3.6559720E+003
  3.5164059E+003
  3.3403599E+003
  3.1357680E+003
  2.8843759E+003
 -2.0436559E+003
 -2.4453223E+003
 -2.9467266E+003
 -3.3905306E+003
 -3.6935334E+003
 -3.8912365E+003
 -4.0154547E+003
 -4.0802377E+003
 -4.0825471E+003
 -4.0138630E+003
 -3.8655684E+003
 -3.6332099E+003
 -3.3173894E+003
 -2.9294542E+003
 -2.4928916E+003
 -2.0628523E+003
 -1.7127425E+003
 -1.5028284E+003
 -1.2978444E+003
 -9.3794361E+002
 -6.1506446E+002
 -2.9664755E+003
 -5.3256088E+002
 -1.0107124E+002
 -9.9912239E+001
 -8.0906295E+001
 -8.7621653E+001
 -2.1177574E+002
 -7.1790673E+002
  1.5029167E+002
  1.0064503E+002
  6.7749761E+001
  2.8544603E+001
  7.6003924E+000
 -7.0106921E+000
 -1.6221794E+001
 -2.1594692E+001
 -2.4356376E+001
 -2.3171408E+001
 -3.9023400E+001
 -2.7921107E+001
  5.6414329E+003
  4.5333991E+003
  4.1623410E+003
  4.0172283E+003
  3.8938765E+003
  3.7874946E+003
  3.6648369E+003
  3.5027894E+003
  3.2859011E+003
  3.0356807E+003
  2.7823882E+003
 -1.8373101E+003
 -2.3773919E+003
 -3.0113240E+003
 -3.4807126E+003
 -3.7910545E+003
 -3.9950329E+003
 -4.1317450E+003
 -4.2106452E+003
 -4.2282531E+003
 -4.1720430E+003
 -4.0288792E+003
 -3.7920803E+003
 -3.4627534E+003
 -3.0388065E+003
 -2.5470182E+003
 -2.0466703E+003
 -1.6425759E+003
 -1.4550860E+003
 -1.5837156E+003
 -3.8045376E+002
 -8.3762245E+002
 -1.3152696E+003
 -1.7600597E+002
  4.1891577E+002
  5.6839607E+001
  2.0361517E+001
 -5.2207585E+000
 -5.8760764E+000
 -4.2504673E+000
 -1.0684095E+000
  2.0339002E+000
  3.2251730E+000
  1.1899681E+001
 -1.8590264E+001
 -1.2147159E+003
  5.6456557E+002
  3.2789164E+003
  4.2043651E+003
  4.0771790E+003
  3.9761142E+003
  3.8867252E+003
  3.8015667E+003
  3.6924816E+003
  3.5249499E+003
  3.2629777E+003
  2.9456631E+003
  2.6499223E+003
 -1.4050665E+003
 -2.4589317E+003
 -3.1838081E+003
 -3.6393884E+003
 -3.9069197E+003
 -4.1086104E+003
 -4.2550980E+003
 -4.3549843E+003
 -4.3987057E+003
 -4.3657916E+003
 -4.2324139E+003
 -3.9874792E+003
 -3.6405260E+003
 -3.1960049E+003
 -2.6067655E+003
 -1.9403452E+003
 -1.5976759E+003
 -1.3437496E+003
 -2.5187564E+003
  2.1825907E+002
 -1.1580757E+003
  2.5162561E+003
  3.6114974E+003
  3.8605677E+003
  3.9614124E+003
  3.9074893E+003
  3.8636925E+003
  3.8089230E+003
  3.7353215E+003
  3.5939312E+003
  3.3034272E+003
  2.8089324E+003
  2.3753115E+003
 -1.8444613E+002
 -2.3322112E+003
 -3.4614843E+003
 -3.7889071E+003
 -4.0342019E+003
 -4.2253391E+003
 -4.3819710E+003
 -4.5078257E+003
 -4.5915729E+003
 -4.5994401E+003
 -4.4836511E+003
 -4.2113895E+003
 -3.8145033E+003
 -3.3716466E+003
 -2.7814815E+003
 -1.9287899E+003
 -1.1601074E+003
 -1.5074381E+003
 -1.4728961E+003
  4.4649232E+003
  3.2266645E+003
  3.6315974E+003
  3.7503698E+003
  3.8148656E+003
  3.8131280E+003
  3.7995541E+003
  3.7658102E+003
  3.7051517E+003
  3.4660681E+003
  2.8763646E+003
  1.8804843E+003
  9.4380112E+002
 -3.9581292E+003
 -3.8369755E+003
 -3.9611004E+003
 -4.1787867E+003
 -4.3494044E+003
 -4.5089646E+003
 -4.6607221E+003
 -4.8001493E+003
 -4.8805898E+003
 -4.8119202E+003
 -4.5164282E+003
 -3.9854488E+003
 -3.3717588E+003
 -3.0028900E+003
 -7.8194523E+002
 -1.2289494E+003
 -1.5058482E+003
  3.9604504E+003
  3.3948806E+003
  3.4509544E+003
  3.6165578E+003
  3.7057960E+003
  3.7500833E+003
  3.7677704E+003
  3.7751963E+003
  3.7678099E+003
  3.7197953E+003
  2.7445268E+003
  3.2843776E+002
 -5.0653820E+003
 -3.9913148E+003
 -4.2412136E+003
 -4.3427017E+003
 -4.4945043E+003
 -4.6348131E+003
 -4.7989908E+003
 -5.0031541E+003
 -5.2100109E+003
 -5.2526325E+003
 -4.8478350E+003
 -4.2115779E+003
 -3.3150666E+003
 -3.7484243E+003
 -5.1929709E+001
 -8.6106771E+002
 -8.4326272E+002
  3.2449798E+002
  2.3918587E+003
  3.2336211E+003
  3.3929991E+003
  3.5259406E+003
  3.6216516E+003
  3.6861804E+003
  3.7293740E+003
  3.7748880E+003
  3.8182418E+003
  4.0531797E+003
  4.8039378E+003
 -1.0826969E+003
 -4.0069186E+003
 -4.5508112E+003
 -4.4743191E+003
 -4.5739374E+003
 -4.6554636E+003
 -4.7677904E+003
 -4.9193916E+003
 -5.1485985E+003
 -5.5352200E+003
 -5.9210726E+003
 -5.7666331E+003
 -4.3099586E+003
 -3.1717384E+003
 -2.5216965E+003
  1.7360334E+003
  2.6182627E+003
  3.1090406E+003
  3.3432539E+003
  3.4561496E+003
  3.5547352E+003
  3.6321937E+003
  3.7063608E+003
  3.7707589E+003
  3.9525147E+003
  4.0514618E+003
  6.0314445E+003
 -4.4256802E+003
 -4.6938835E+003
 -4.8005863E+003
 -4.7964752E+003
 -4.8518594E+003
 -4.9225873E+003
 -5.0385750E+003
 -5.2602451E+003
 -5.6753827E+003
 -6.5643621E+003
 -6.1715808E+003
 -4.0220957E+003
 -3.3342704E+003
  2.3550088E+003
  2.6641559E+003
  3.0320810E+003
  3.2378654E+003
  3.3830821E+003
  3.4927496E+003
  3.5926745E+003
  3.6899591E+003
  3.8177171E+003
  3.9807904E+003
  4.4504850E+003
  4.5141037E+003
 -4.6376927E+003
 -5.1609654E+003
 -4.9879833E+003
 -5.0579414E+003
 -5.0812462E+003
 -5.1243147E+003
 -5.2018743E+003
 -5.4044213E+003
 -5.8323738E+003
 -7.2608486E+003
 -1.2340635E+004
 -1.1161871E+003
  2.6954266E+003
  2.9749374E+003
  2.9692164E+003
  3.1548800E+003
  3.3041291E+003
  3.4383659E+003
  3.5592255E+003
  3.6859346E+003
  3.8327032E+003
  4.0512953E+003
  4.2583760E+003
  4.5016091E+003
 -6.7632200E+003
 -5.0421656E+003
 -5.3247477E+003
 -5.3376728E+003
 -5.3710397E+003
 -5.3687396E+003
 -5.4391425E+003
 -5.5689281E+003
 -6.1941815E+003
 -6.7123468E+003
 -1.2945891E+004
  4.0092902E+003
  2.8185813E+003
  2.9784550E+003
  3.0839730E+003
  3.2506491E+003
  3.3934249E+003
  3.5320350E+003
  3.6730717E+003
  3.8337073E+003
  4.0103774E+003
  4.1974118E+003
  4.3247344E+003
 -5.5540237E+003
 -5.5179621E+003
 -5.6578743E+003
 -5.7428201E+003
 -5.6856940E+003
 -5.6358005E+003
 -5.6530807E+003
 -5.8452823E+003
 -6.0978916E+003
 -7.1545911E+003
 -6.0020659E+003
  3.3988283E+003
  2.9285893E+003
  2.9283114E+003
  3.0722195E+003
  3.2178159E+003
  3.3644772E+003
  3.5069607E+003
  3.6530363E+003
  3.8062726E+003
  3.9683288E+003
  4.1179903E+003
  4.2623837E+003
  1.4432997E+003
  2.4289989E+002
 -3.7780415E+003
 -5.8433148E+003
 -6.2253505E+003
 -6.1645204E+003
 -6.0037303E+003
 -5.8461543E+003
 -5.7843352E+003
 -5.8866162E+003
 -6.1194974E+003
 -5.7208678E+003
 -4.4762438E+003
 -7.3646384E+002
  2.6100426E+002
  2.0502018E+003
  2.7968777E+003
  2.9363797E+003
  3.0701976E+003
  3.2059661E+003
  3.3441700E+003
  3.4834752E+003
  3.6253825E+003
  3.7709291E+003
  3.9181966E+003
  4.0583918E+003
  4.1969460E+003
  3.6484201E+002
 -4.0937173E+003
 -6.5457734E+003
 -6.7707195E+003
 -6.5745306E+003
 -6.2708197E+003
 -5.9677395E+003
 -5.7448484E+003
 -5.6706464E+003
 -5.7112050E+003
 -4.7516161E+003
 -8.9591281E+002
  1.4646007E+003
  2.2396544E+003
  2.7024097E+003
  2.9335516E+003
  3.0644830E+003
  3.1946514E+003
  3.3251603E+003
  3.4585085E+003
  3.5939329E+003
  3.7308313E+003
  3.8690773E+003
  4.0018162E+003
  4.1432388E+003
  2.2216418E+003
 -7.5504452E+003
 -7.6469958E+003
 -7.2771817E+003
 -6.9682276E+003
 -6.4877179E+003
 -6.0097202E+003
 -5.5843173E+003
 -5.2768447E+003
 -5.3002695E+003
 -6.8753548E+003
  1.1806131E+003
  1.9368323E+003
  2.2993387E+003
  2.6531198E+003
  2.8860555E+003
  3.0397847E+003
  3.1720116E+003
  3.3015643E+003
  3.4306501E+003
  3.5598347E+003
  3.6890109E+003
  3.8195975E+003
  3.9478363E+003
  4.0899281E+003
 -1.1438868E+004
 -8.3686881E+003
 -8.0432651E+003
 -7.3501703E+003
 -6.7039938E+003
 -6.0173271E+003
 -5.3532313E+003
 -4.9008053E+003
 -4.4152013E+003
 -6.5712738E+003
  2.3401763E+003
  2.4905857E+003
  2.6807289E+003
  2.8426349E+003
  3.0000029E+003
  3.1408490E+003
  3.2736428E+003
  3.4010899E+003
  3.5248460E+003
  3.6464066E+003
  3.7695204E+003
  3.8929168E+003
  4.0355442E+003
 -1.0551735E+004
 -9.9137453E+003
 -8.7360407E+003
 -7.8530652E+003
 -6.9235587E+003
 -6.0054128E+003
 -5.1439161E+003
 -4.3370743E+003
 -4.0070972E+003
 -2.7656692E+003
  2.5374477E+003
  2.7276750E+003
  2.6717974E+003
  2.8156278E+003
  2.9627667E+003
  3.1111078E+003
  3.2473982E+003
  3.3737358E+003
  3.4916479E+003
  3.6043026E+003
  3.7180313E+003
  3.8348127E+003
  3.9767368E+003
 -1.1837239E+004
 -1.0697959E+004
 -9.5903691E+003
 -8.3473930E+003
 -7.1486459E+003
 -5.9740697E+003
 -4.8495321E+003
 -3.8014919E+003
 -2.7006744E+003
 -1.3695506E+003
  3.6736458E+003
  2.5776772E+003
  2.6979854E+003
  2.7851879E+003
  2.9448475E+003
  3.0918597E+003
  3.2302729E+003
  3.3536367E+003
  3.4638671E+003
  3.5644588E+003
  3.6645793E+003
  3.7707436E+003
  3.9100610E+003
 -1.2858832E+004
 -1.1716191E+004
 -1.0333751E+004
 -8.8246671E+003
 -7.3154197E+003
 -5.8789428E+003
 -4.5025533E+003
 -3.1047713E+003
 -1.6549436E+003
  1.7665817E+002
  3.0648729E+003
  2.6575777E+003
  2.6569866E+003
  2.7944886E+003
  2.9409533E+003
  3.0899542E+003
  3.2262723E+003
  3.3454987E+003
  3.4456026E+003
  3.5295023E+003
  3.6088612E+003
  3.6966542E+003
  3.8296034E+003
 -1.4212588E+004
 -1.2781769E+004
 -1.1107499E+004
 -9.1834584E+003
 -7.3653962E+003
 -5.6850102E+003
 -4.1037630E+003
 -2.4351038E+003
 -6.8559179E+002
  1.5547111E+003
 -6.7572794E+002
  2.2031680E+002
  1.8255774E+003
  2.5180893E+003
  2.6604239E+003
  2.8041874E+003
  2.9527206E+003
  3.1005072E+003
  3.2365069E+003
  3.3522260E+003
  3.4415362E+003
  3.5038452E+003
  3.5515001E+003
  3.6082363E+003
  3.7263780E+003
 -1.5512953E+004
 -1.4190029E+004
 -1.1763988E+004
 -9.3664727E+003
 -7.1938083E+003
 -5.3688097E+003
 -3.6738629E+003
 -1.9179271E+003
  2.7844000E+002
  2.6233878E+003
  1.2579151E+003
  1.9737978E+003
  2.4051542E+003
  2.6475277E+003
  2.8042439E+003
  2.9639081E+003
  3.1171854E+003
  3.2580129E+003
  3.3750537E+003
  3.4572534E+003
  3.4950866E+003
  3.4966255E+003
  3.4940492E+003
  3.5798396E+003
 -1.8545576E+004
 -1.5471329E+004
 -1.2383364E+004
 -9.0422247E+003
 -6.7703881E+003
 -4.9087944E+003
 -3.2597024E+003
 -1.4431941E+003
  4.5257131E+002
  4.8592129E+003
  1.6789199E+003
  1.9759343E+003
  2.3341866E+003
  2.5821452E+003
  2.7849901E+003
  2.9645068E+003
  3.1339250E+003
  3.2863412E+003
  3.4126646E+003
  3.4971957E+003
  3.5175692E+003
  3.4566812E+003
  3.3614826E+003
  3.3652571E+003
 -1.9451964E+004
 -1.8633184E+004
 -1.1350798E+004
 -8.3355799E+003
 -6.0715242E+003
 -4.3936681E+003
 -2.8244753E+003
 -1.1795049E+003
  8.4732717E+002
  4.2860922E+003
  1.8823105E+003
  2.1557249E+003
  2.2778843E+003
  2.5266944E+003
  2.7495377E+003
  2.9583883E+003
  3.1484172E+003
  3.3181431E+003
  3.4586852E+003
  3.5594728E+003
  3.5851144E+003
  3.4679182E+003
  3.1568687E+003
  2.9678936E+003
 -4.3245271E+004
 -1.3892287E+004
 -1.0395031E+004
 -7.0425797E+003
 -5.4223437E+003
 -3.8993842E+003
 -2.4913990E+003
 -9.8056103E+002
  7.1497912E+002
  1.8764779E+003
  9.8145727E+002
 -6.0224268E+002
  2.6578391E+003
  2.0316835E+003
  2.2659471E+003
  2.4749800E+003
  2.7228384E+003
  2.9513243E+003
  3.1640047E+003
  3.3521394E+003
  3.5087543E+003
  3.6216307E+003
  3.6910229E+003
  3.5977908E+003
  3.1536506E+003
  2.3258533E+003
 -3.1711030E+004
 -1.0365729E+004
 -8.3951664E+003
 -6.2074558E+003
 -4.8988112E+003
 -3.5784234E+003
 -2.2974044E+003
 -9.4163200E+002
  4.4163444E+002
  1.6382893E+003
  2.7708986E+003
  2.1716522E+003
  2.0669087E+003
  2.2092910E+003
  2.4546185E+003
  2.7038859E+003
  2.9512505E+003
  3.1838084E+003
  3.3930601E+003
  3.5649341E+003
  3.6848689E+003
  3.7490407E+003
  3.7744164E+003
  2.9464783E+003
  4.8361026E+002
  1.0606000E+004
 -9.2033875E+003
 -6.2957610E+003
 -5.9207977E+003
 -4.5579735E+003
 -3.4243255E+003
 -2.2319767E+003
 -1.0752806E+003
  7.2418785E+001
  1.0286400E+003
  3.3586367E+003
 -5.1658537E+002
  1.1266698E+002
  1.3057420E+003
  1.9396622E+003
  2.1788614E+003
  2.4338300E+003
  2.6944873E+003
  2.9559486E+003
  3.2094327E+003
  3.4463146E+003
  3.6454102E+003
  3.7830659E+003
  3.8226945E+003
  4.0042385E+003
  5.0260420E+003
 -1.0329504E+003
  8.3012229E+003
 -4.0924389E+003
 -5.9315656E+003
 -5.3539489E+003
 -4.3545484E+003
 -3.2811833E+003
 -2.2228620E+003
 -1.1995405E+003
 -2.4456512E+002
  8.0553991E+002
  2.0532774E+003
  7.5773821E+002
  1.4306821E+003
  1.8068597E+003
  2.1359775E+003
  2.4071039E+003
  2.6847226E+003
  2.9611970E+003
  3.2377127E+003
  3.5069048E+003
  3.7658823E+003
  3.9438186E+003
  4.0587949E+003
  3.8091281E+003
  5.6918189E+003
  9.0602622E+001
 -3.1413292E+003
 -4.8340330E+003
 -4.6882335E+003
 -3.9502737E+003
 -3.0649247E+003
 -2.1541774E+003
 -1.2721150E+003
 -4.4030147E+002
  3.1191201E+002
  5.4994850E+002
  6.1435569E+001
 -4.7718972E+002
  1.3619091E+003
  1.3015862E+003
  1.7237208E+003
  2.0611401E+003
  2.3758652E+003
  2.6699771E+003
  2.9638609E+003
  3.2605820E+003
  3.5669272E+003
  3.8773786E+003
  4.2104302E+003
  4.3610054E+003
  4.3204138E+003
  3.2333020E+003
 -1.4946941E+003
 -3.6154953E+003
 -3.6511879E+003
 -3.8102264E+003
 -3.3689269E+003
 -2.7316002E+003
 -2.0044274E+003
 -1.2766337E+003
 -5.9317180E+002
 -6.4047626E+001
  1.8028011E+002
  1.5761942E+001
  1.1990922E+003
  1.3491498E+003
  1.6648329E+003
  2.0189722E+003
  2.3448881E+003
  2.6565101E+003
  2.9634938E+003
  3.2773223E+003
  3.6074251E+003
  3.9692177E+003
  4.3650039E+003
  4.8059585E+003
  3.9441341E+003
  7.7367885E+002
 -8.6683968E+003
 -2.3544193E+003
 -3.0816551E+003
 -2.9092218E+003
 -2.7731560E+003
 -2.3367946E+003
 -1.8032618E+003
 -1.2337379E+003
 -7.1570013E+002
 -3.3273436E+002
 -1.8908121E+002
 -2.0614616E+002
 -5.6179919E+002
 -2.8019485E+002
 -2.8814331E+002
  4.8225528E+001
  7.6079821E+002
  1.3041366E+003
  1.6568636E+003
  2.0018681E+003
  2.3310054E+003
  2.6491930E+003
  2.9653871E+003
  3.2914510E+003
  3.6381769E+003
  4.0335893E+003
  4.4840636E+003
  5.2346127E+003
  6.9291339E+003
 -1.4620626E+003
 -3.3278369E+003
 -3.1863273E+003
 -2.1873643E+003
 -2.3979707E+003
 -2.2372698E+003
 -1.9786542E+003
 -1.5891400E+003
 -1.1654057E+003
 -7.7225696E+002
 -4.8216356E+002
 -3.3040124E+002
 -4.0279133E+002
 -4.4904031E+002
 -1.0059684E+003
  2.0550039E+002
  3.3207381E+002
  8.3584191E+002
  1.2886710E+003
  1.6675065E+003
  2.0059513E+003
  2.3326004E+003
  2.6519214E+003
  2.9741879E+003
  3.3085500E+003
  3.6798121E+003
  4.0786079E+003
  4.6857603E+003
  5.1876621E+003
  8.4129842E+003
  2.2890289E+003
 -8.6582807E+002
  1.7377408E+003
 -2.0265787E+003
 -1.8914594E+003
 -1.9724374E+003
 -1.8711585E+003
 -1.6807002E+003
 -1.3985870E+003
 -1.0815175E+003
 -7.8221518E+002
 -5.5060175E+002
 -4.3041575E+002
 -4.3029652E+002
 -6.4578275E+002
 -1.5027625E+003
 -3.1647552E+002
 -1.3871223E+002
  3.5497743E+002
  8.7562092E+002
  1.3028206E+003
  1.6815404E+003
  2.0219114E+003
  2.3449412E+003
  2.6638080E+003
  2.9887335E+003
  3.3343851E+003
  3.7155317E+003
  4.1779278E+003
  4.7210246E+003
  5.7146709E+003
  6.0746877E+003
 -6.6924695E+002
 -8.5568954E+002
 -1.2576109E+003
 -1.6746705E+003
 -1.6655529E+003
 -1.6043390E+003
 -1.4505262E+003
 -1.2389116E+003
 -9.9775536E+002
 -7.6642461E+002
 -5.8036192E+002
 -4.7083722E+002
 -4.5303067E+002
 -6.0634587E+002
 -7.7468813E+002
 -1.7574774E+003
 -7.8397565E+002
 -4.0680353E+002
 -3.0085255E+002
  7.1646322E+001
  5.4113269E+002
  9.5656875E+002
  1.3529025E+003
  1.7115343E+003
  2.0454125E+003
  2.3644662E+003
  2.6806227E+003
  3.0060657E+003
  3.3547334E+003
  3.7498343E+003
  4.2098832E+003
  4.8046425E+003
  5.3730728E+003
  5.9893592E+003
 -8.7622750E+002
 -5.3116734E+002
 -1.0144922E+003
 -1.3268033E+003
 -1.4298755E+003
 -1.3832299E+003
 -1.2695907E+003
 -1.1068044E+003
 -9.2219480E+002
 -7.4266313E+002
 -5.9509071E+002
 -5.0373582E+002
 -4.9096013E+002
 -5.8981522E+002
 -7.2869143E+002
 -1.0077809E+003
 -1.4927558E+002
  3.2023187E+002
 -1.4066831E+003
 -6.1536213E+002
 -6.3203193E+002
 -4.1272242E+002
 -1.0168985E+002
  2.9599954E+002
  6.6684665E+002
  1.0539397E+003
  1.4146777E+003
  1.7547233E+003
  2.0763673E+003
  2.3879578E+003
  2.6986177E+003
  3.0190623E+003
  3.3632739E+003
  3.7478330E+003
  4.2005835E+003
  4.7083298E+003
  5.2512070E+003
  5.6755419E+003
  2.2363329E+002
 -7.4427124E+002
 -9.5517569E+002
 -1.1320035E+003
 -1.2122130E+003
 -1.1993382E+003
 -1.1177344E+003
 -9.9674518E+002
 -8.5677907E+002
 -7.1953351E+002
 -6.0563266E+002
 -5.3453594E+002
 -5.2176258E+002
 -5.6660176E+002
 -6.6998823E+002
 -7.2846283E+002
 -5.3784078E+002
 -5.9585089E+002
 -7.0813094E+001
  5.7735325E+002
 -1.7362803E+003
 -6.4735791E+002
 -6.5116988E+002
 -1.1263464E+003
 -1.8663497E+002
  1.3258290E+002
  4.7550427E+002
  8.1595502E+002
  1.1546486E+003
  1.4858208E+003
  1.8042560E+003
  2.1117131E+003
  2.4128497E+003
  2.7143990E+003
  3.0247454E+003
  3.3532775E+003
  3.7145982E+003
  4.1164128E+003
  4.6039787E+003
  5.0792017E+003
  5.6319724E+003
 -3.5329712E+002
 -7.3582170E+002
 -8.6056145E+002
 -9.8195648E+002
 -1.0397415E+003
 -1.0401772E+003
 -9.8903512E+002
 -9.0336169E+002
 -8.0099746E+002
 -6.9907333E+002
 -6.1397302E+002
 -5.5965835E+002
 -5.4440446E+002
 -5.6920623E+002
 -6.0521684E+002
 -5.7873390E+002
 -5.3435707E+002
 -5.3602114E+002
 -3.7909047E+002
 -7.0586841E+002
 -1.7333301E+002
 -3.1646007E+002
 -4.7010007E+001
  7.9893962E-001
  1.1032770E+002
  7.8291398E+001
  2.0347192E+002
  8.2895955E+002
 -1.6223397E+003
 -5.5081977E+002
 -4.8697126E+002
 -1.2790224E+003
  1.3008362E+001
  3.8805469E+002
 -4.3809518E+002
  2.9351550E+001
  3.2226598E+002
  6.3727680E+002
  9.4210831E+002
  1.2518665E+003
  1.5565816E+003
  1.8552112E+003
  2.1474720E+003
  2.4362938E+003
  2.7261527E+003
  3.0222196E+003
  3.3308521E+003
  3.6546378E+003
  4.0109715E+003
  4.3889365E+003
  5.0333628E+003
  5.3955581E+003
 -3.6866899E+002
 -1.1491170E+003
 -2.4615988E+002
 -4.9714266E+002
 -7.1651867E+002
 -8.3172020E+002
 -8.9253182E+002
 -9.0654286E+002
 -8.8003043E+002
 -8.2452528E+002
 -7.5355197E+002
 -6.8101720E+002
 -6.1950601E+002
 -5.7877041E+002
 -5.6347226E+002
 -5.6797631E+002
 -5.7252365E+002
 -5.6788024E+002
 -5.4204222E+002
 -4.8395350E+002
 -5.1886067E+002
 -6.7892268E+002
 -5.2596263E+002
 -6.0663884E+001
  1.9280937E+002
  2.8258444E+002
 -4.4456606E+002
 -7.9158551E+001
 -3.7448577E+002
 -8.1596965E+001
 -8.2658273E+001
 -1.8659118E+001
 -4.8070647E+001
 -4.5646887E+001
 -3.0926043E+000
 -6.6071214E+001
  1.2136626E+001
 -1.0454482E+002
  3.2737505E+001
 -1.0885190E+002
  3.6853873E+001
 -9.2410227E+001
  3.3196918E+001
 -8.2717110E+001
  1.3636851E+001
 -1.3735985E+002
 -1.2326360E+001
 -1.5538848E+002
 -2.1292366E+002
 -4.8413895E+002
 -1.7268946E+002
 -1.0429883E+002
  1.5301232E+002
  4.6877058E+002
  7.6046233E+002
  1.0499573E+003
  1.3369671E+003
  1.6217191E+003
  1.9026582E+003
  2.1800896E+003
  2.4557028E+003
  2.7321945E+003
  3.0132134E+003
  3.2994865E+003
  3.5975488E+003
  3.8808464E+003
  4.2414917E+003
  4.4481783E+003
  6.5148548E+003
 -6.1371935E+002
 -5.0926990E+002
 -4.8583379E+002
 -5.9767010E+002
 -7.0237175E+002
 -7.6974894E+002
 -7.9708474E+002
 -7.9068666E+002
 -7.5921994E+002
 -7.1362566E+002
 -6.6483209E+002
 -6.2249761E+002
 -5.9348514E+002
 -5.7997480E+002
 -5.7775242E+002
 -5.7897978E+002
 -5.7299628E+002
 -5.5869451E+002
 -5.5713020E+002
 -5.7074489E+002
 -5.1943362E+002
 -3.5268361E+002
 -1.2375236E+002
  1.0541333E+002
  6.4005312E+001
 -2.4566636E+002
 -3.3559390E+002
 -9.1371039E+001
 -6.8039061E+001
 -7.9652120E+001
 -1.6617136E+002
 -1.9877842E+002
 -2.2691371E+002
 -2.0893378E+002
 -1.8617227E+002
 -2.2219208E+002
 -4.3121773E+002
 -4.1611274E+002
 -1.4019297E+002
  8.1808903E+001
  3.0701600E+002
  5.8024357E+002
  8.6172514E+002
  1.1370986E+003
  1.4089690E+003
  1.6776356E+003
  1.9434203E+003
  2.2067375E+003
  2.4687050E+003
  2.7311354E+003
  2.9957715E+003
  3.2649240E+003
  3.5340829E+003
  3.8089878E+003
  4.0222038E+003
  4.3203946E+003
  4.6567961E+003
  1.4903359E+002
 -5.1794868E+002
 -4.7483541E+002
 -5.2567406E+002
 -6.1098478E+002
 -6.7764518E+002
 -7.1347666E+002
 -7.2074366E+002
 -7.0686769E+002
 -6.8050014E+002
 -6.5023434E+002
 -6.2337578E+002
 -6.0486202E+002
 -5.9624269E+002
 -5.9558064E+002
 -5.9806731E+002
 -5.9960260E+002
 -5.9893931E+002
 -5.9430716E+002
 -5.7221602E+002
 -5.0854907E+002
 -3.6048734E+002
 -1.4791554E+002
  1.7628839E+001
  5.2891713E+001
  8.6022963E+000
 -9.5928839E+000
 -2.4316382E+001
 -7.8459015E+001
 -1.6078205E+002
 -1.7199101E+002
 -4.5679035E+002
 -5.0461726E+002
 -3.0631451E+002
 -2.7680651E+002
 -3.3632569E+002
 -3.1647814E+002
 -2.3972997E+002
 -7.1993319E+001
  1.6968419E+002
  4.2259993E+002
  6.8225599E+002
  9.4737625E+002
  1.2100825E+003
  1.4684894E+003
  1.7235162E+003
  1.9757499E+003
  2.2256530E+003
  2.4737683E+003
  2.7209277E+003
  2.9683272E+003
  3.2170478E+003
  3.4676912E+003
  3.7130474E+003
  3.9290759E+003
  3.9397176E+003
  2.6422934E+003
 -1.1553961E+002
 -1.2673525E+003
 -9.5191971E+002
 -4.0699720E+002
 -4.0599785E+002
 -4.7882918E+002
 -5.5849431E+002
 -6.1933707E+002
 -6.5529747E+002
 -6.6891870E+002
 -6.6597133E+002
 -6.5308145E+002
 -6.3665617E+002
 -6.2209051E+002
 -6.1303570E+002
 -6.1091461E+002
 -6.1482381E+002
 -6.2228006E+002
 -6.3007782E+002
 -6.3463042E+002
 -6.2889469E+002
 -5.9862517E+002
 -5.1961970E+002
 -3.8027405E+002
 -1.9444107E+002
 -1.2910938E+001
  1.1288378E+002
  1.3872992E+002
  1.2247845E+002
  1.0740210E+002
 -8.6783452E+001
 -6.2391166E+001
 -1.4484952E+002
 -1.6483849E+002
 -6.0368637E+002
 -3.1839128E+002
 -4.4861449E+002
 -4.0826020E+002
 -3.0894728E+002
 -1.7433854E+002
  2.6031824E+001
  2.6162725E+002
  5.1519518E+002
  7.7052343E+002
  1.0229681E+003
  1.2718575E+003
  1.5171184E+003
  1.7593798E+003
  1.9991070E+003
  2.2362530E+003
  2.4704668E+003
  2.7013354E+003
  2.9287299E+003
  3.1526658E+003
  3.3737206E+003
  3.5852954E+003
  3.7690198E+003
  3.7469800E+003
  2.5628636E+003
 -8.5876418E+001
 -1.0808920E+003
 -2.5748270E+002
 -3.7553889E+002
 -4.7242758E+002
 -5.4356485E+002
 -5.8982747E+002
 -6.1798675E+002
 -6.3127293E+002
 -6.3366938E+002
 -6.2946760E+002
 -6.2297785E+002
 -6.1793068E+002
 -6.1696976E+002
 -6.2128757E+002
 -6.3057101E+002
 -6.4317021E+002
 -6.5627333E+002
 -6.6516653E+002
 -6.6189361E+002
 -6.3359148E+002
 -5.6482384E+002
 -4.3954948E+002
 -2.4828633E+002
 -4.1833234E-002
  1.9532283E+002
  2.5545793E+002
  3.0627835E+001
  6.9862535E+001
 -3.2166935E+002
 -8.6175106E+001
 -3.1937608E+001
 -2.8129318E+002
 -1.6132518E+003
 -3.7306603E+001
 -7.7194270E+002
 -4.5528536E+002
 -3.2715114E+002
 -1.3709898E+002
  8.9472693E+001
  3.4592428E+002
  6.0161928E+002
  8.4941541E+002
  1.0890356E+003
  1.3235927E+003
  1.5554088E+003
  1.7854178E+003
  2.0135736E+003
  2.2389706E+003
  2.4599712E+003
  2.6745229E+003
  2.8801710E+003
  3.0755692E+003
  3.2560753E+003
  3.4280232E+003
  3.5443182E+003
  3.7309342E+003
  4.1599565E+003
 -1.0702113E+003
  1.9780512E+002
 -3.3175311E+002
 -4.4996611E+002
 -5.1667049E+002
 -5.5314902E+002
 -5.7627245E+002
 -5.9204692E+002
 -6.0147153E+002
 -6.0585888E+002
 -6.0712192E+002
 -6.0764992E+002
 -6.0976048E+002
 -6.1523414E+002
 -6.2498009E+002
 -6.3886945E+002
 -6.5567283E+002
 -6.7285500E+002
 -6.8611878E+002
 -6.8849729E+002
 -6.6974289E+002
 -6.1548041E+002
 -5.0757419E+002
 -3.2049895E+002
 -1.3481642E+001
  2.9500193E+002
  4.0343023E+002
  1.6621914E+002
  2.9370728E+002
  3.4332383E+001
 -5.5992622E+002
  5.1143414E+002
 -1.4822480E+003
 -5.8976059E+002
 -4.2761044E+002
 -1.5341648E+002
  1.3754426E+002
  4.2535495E+002
  6.8575272E+002
  9.2180055E+002
  1.1452660E+003
  1.3645678E+003
  1.5830069E+003
  1.8015452E+003
  2.0194675E+003
  2.2348381E+003
  2.4446485E+003
  2.6447645E+003
  2.8309243E+003
  2.9970250E+003
  3.1458560E+003
  3.2580202E+003
  3.4331728E+003
  3.5007641E+003
  5.3182839E+003
  4.2837133E+002
 -4.4940838E+002
 -5.4540913E+002
 -5.5899537E+002
 -5.5582984E+002
 -5.5995852E+002
 -5.6592467E+002
 -5.7249420E+002
 -5.7827215E+002
 -5.8350174E+002
 -5.8915019E+002
 -5.9650577E+002
 -6.0668479E+002
 -6.2030621E+002
 -6.3727430E+002
 -6.5661478E+002
 -6.7627865E+002
 -6.9276836E+002
 -7.0068563E+002
 -6.9172500E+002
 -6.5364308E+002
 -5.6308809E+002
 -3.8155646E+002
 -3.5342573E+000
  9.9314549E+002
  1.1061937E+002
 -8.7666895E+002
 -7.3366530E+002
 -5.6615023E+002
 -2.0675187E+002
  1.8171622E+002
  5.1748413E+002
  7.7019631E+002
  9.8494072E+002
  1.1897119E+003
  1.3932642E+003
  1.5991125E+003
  1.8075074E+003
  2.0170507E+003
  2.2249172E+003
  2.4268240E+003
  2.6170365E+003
  2.7883877E+003
  2.9346813E+003
  3.0504479E+003
  3.1548219E+003
  3.2607899E+003
  3.6388842E+003
  3.8115618E+003
  3.5433667E+002
 -4.6458650E+002
 -5.1954359E+002
 -5.3132342E+002
 -5.2356295E+002
 -5.2579185E+002
 -5.3135391E+002
 -5.3933538E+002
 -5.4793079E+002
 -5.5687246E+002
 -5.6651677E+002
 -5.7760072E+002
 -5.9082913E+002
 -6.0660103E+002
 -6.2479985E+002
 -6.4464416E+002
 -6.6450358E+002
 -6.8177149E+002
 -6.9218431E+002
 -6.9017575E+002
 -6.6230644E+002
 -5.9708321E+002
 -4.0699524E+002
 -1.1201010E+002
  1.0085452E+003
 -9.3307676E+002
 -7.4306323E+002
 -2.5196911E+002
  3.0163682E+002
  6.3430983E+002
  8.4440351E+002
  1.0343422E+003
  1.2194301E+003
  1.4085637E+003
  1.6032587E+003
  1.8031968E+003
  2.0064327E+003
  2.2096459E+003
  2.4078109E+003
  2.5937995E+003
  2.7585683E+003
  2.8918746E+003
  2.9891269E+003
  3.0536408E+003
  3.1456922E+003
  3.2461952E+003
  3.4900088E+003
 -3.4059630E+002
 -3.2505083E+002
 -4.0257428E+002
 -4.3408416E+002
 -4.5825138E+002
 -4.7304395E+002
 -4.8744613E+002
 -5.0102869E+002
 -5.1413563E+002
 -5.2686009E+002
 -5.3969323E+002
 -5.5323114E+002
 -5.6800333E+002
 -5.8427322E+002
 -6.0189278E+002
 -6.2018259E+002
 -6.3784385E+002
 -6.5279030E+002
 -6.6211256E+002
 -6.6088331E+002
 -6.4310682E+002
 -5.8806017E+002
 -4.8231869E+002
 -1.3456441E+002
  2.5402960E+002
 -7.9306841E+002
 -4.9374334E+002
  5.3460383E+002
  7.1695364E+002
  9.0397556E+002
  1.0651841E+003
  1.2346594E+003
  1.4109630E+003
  1.5961811E+003
  1.7890264E+003
  1.9876076E+003
  2.1886261E+003
  2.3869296E+003
  2.5747411E+003
  2.7409005E+003
  2.8712770E+003
  2.9505504E+003
  2.9734412E+003
  2.9423998E+003
  2.9146033E+003
  2.9381733E+003
 -1.3441123E+003
 -2.3968837E+002
 -3.0188789E+002
 -3.4076752E+002
 -3.8507931E+002
 -4.1503896E+002
 -4.3992676E+002
 -4.6048384E+002
 -4.7836754E+002
 -4.9443247E+002
 -5.0952703E+002
 -5.2432995E+002
 -5.3932349E+002
 -5.5469367E+002
 -5.7025046E+002
 -5.8536755E+002
 -5.9891259E+002
 -6.0929169E+002
 -6.1411818E+002
 -6.1128415E+002
 -5.9480375E+002
 -5.7084724E+002
 -5.0154633E+002
 -5.4565575E+002
 -2.2783657E+001
  8.4645601E+002
  6.7682287E+002
  8.1686015E+002
  9.4299311E+002
  1.0862699E+003
  1.2389302E+003
  1.4039587E+003
  1.5800718E+003
  1.7662365E+003
  1.9606715E+003
  2.1607216E+003
  2.3618588E+003
  2.5562225E+003
  2.7314034E+003
  2.8682509E+003
  2.9393785E+003
  2.9119426E+003
  2.7692541E+003
  2.5219408E+003
  2.3394620E+003
 -4.3981853E+002
 -3.7179931E+002
 -2.6696816E+002
 -2.9611566E+002
 -3.2894582E+002
 -3.6623964E+002
 -3.9676376E+002
 -4.2216653E+002
 -4.4322751E+002
 -4.6132281E+002
 -4.7744521E+002
 -4.9234402E+002
 -5.0645844E+002
 -5.1990786E+002
 -5.3246351E+002
 -5.4352313E+002
 -5.5214309E+002
 -5.5698555E+002
 -5.5687120E+002
 -5.4977278E+002
 -5.3959231E+002
 -5.1987413E+002
 -5.6238870E+002
 -5.6763452E+002
 -1.3465065E+003
  1.6932312E+003
  9.0981285E+002
  9.2422346E+002
  9.9159145E+002
  1.1061340E+003
  1.2403833E+003
  1.3924468E+003
  1.5584945E+003
  1.7369055E+003
  1.9261764E+003
  2.1246669E+003
  2.3292996E+003
  2.5333634E+003
  2.7227985E+003
  2.8761100E+003
  2.9557059E+003
  2.8917096E+003
  2.5980441E+003
  2.1409186E+003
  1.6283128E+003
  8.8761089E+001
 -3.7604481E+002
 -2.9195367E+002
 -2.7195883E+002
 -2.9951281E+002
 -3.3263105E+002
 -3.6362753E+002
 -3.8950859E+002
 -4.1105423E+002
 -4.2923467E+002
 -4.4496973E+002
 -4.5888008E+002
 -4.7129500E+002
 -4.8224612E+002
 -4.9147441E+002
 -4.9845146E+002
 -5.0243454E+002
 -5.0263562E+002
 -4.9849576E+002
 -4.9077816E+002
 -4.8255139E+002
 -4.8803560E+002
 -5.3358762E+002
 -7.4819564E+002
 -1.6825960E+003
 -1.7522789E+002
  3.1116244E+002
  1.3107723E+003
  1.1645175E+003
  1.0421611E+003
  1.0554385E+003
  1.1322185E+003
  1.2450612E+003
  1.3814911E+003
  1.5354337E+003
  1.7039095E+003
  1.8855851E+003
  2.0799672E+003
  2.2862715E+003
  2.5009137E+003
  2.7112143E+003
  2.8848914E+003
  2.9882592E+003
  2.9638268E+003
  2.6215729E+003
  1.7374844E+003
  3.4513159E+002
 -6.3551142E+002
 -2.9675429E+002
 -2.5247894E+002
 -2.6280729E+002
 -2.8678642E+002
 -3.1532395E+002
 -3.4122977E+002
 -3.6373442E+002
 -3.8287550E+002
 -3.9922981E+002
 -4.1328290E+002
 -4.2536535E+002
 -4.3560284E+002
 -4.4391837E+002
 -4.5004867E+002
 -4.5359512E+002
 -4.5413845E+002
 -4.5148272E+002
 -4.4614686E+002
 -4.4040208E+002
 -4.4025166E+002
 -4.6000288E+002
 -5.2724839E+002
 -7.1094341E+002
 -8.8458492E+002
 -9.0554475E+002
 -6.0920880E+002
  2.2496063E+003
  1.4031462E+003
  1.2926289E+003
  1.1429465E+003
  1.1180417E+003
  1.1639206E+003
  1.2552217E+003
  1.3747593E+003
  1.5146472E+003
  1.6707805E+003
  1.8417667E+003
  2.0280743E+003
  2.2316423E+003
  2.4542103E+003
  2.6922720E+003
  2.9137548E+003
  3.0169244E+003
  2.9710147E+003
  2.3959197E+003
  1.1637223E+003
  1.6757515E+002
 -7.1260320E+002
 -1.6346994E+002
 -2.2992633E+002
 -2.6451011E+002
 -2.9019674E+002
 -3.0936423E+002
 -3.2713453E+002
 -3.4341654E+002
 -3.5824416E+002
 -3.7146229E+002
 -3.8301454E+002
 -3.9282898E+002
 -4.0078931E+002
 -4.0671092E+002
 -4.1035904E+002
 -4.1151764E+002
 -4.1014576E+002
 -4.0667320E+002
 -4.0257677E+002
 -4.0130150E+002
 -4.1024987E+002
 -4.4224663E+002
 -5.2292610E+002
 -6.6486740E+002
 -8.0281255E+002
 -8.3837635E+002
 -9.0700333E+002
 -9.5919967E+002
  2.8331803E+003
  1.5201020E+003
  1.3113898E+003
  1.1939834E+003
  1.1678339E+003
  1.1969633E+003
  1.2710296E+003
  1.3743439E+003
  1.4993338E+003
  1.6414720E+003
  1.7992064E+003
  1.9735149E+003
  2.1682234E+003
  2.3917100E+003
  2.6534092E+003
  2.9654521E+003
  3.2164095E+003
  3.2460963E+003
  4.0967456E+003
  7.3919048E+000
  1.0419378E+002
 -2.1679932E+002
 -2.6736853E+002
 -2.9212409E+002
 -3.0128733E+002
 -3.0786174E+002
 -3.1597430E+002
 -3.2549573E+002
 -3.3557139E+002
 -3.4536469E+002
 -3.5426971E+002
 -3.6185428E+002
 -3.6779449E+002
 -3.7183620E+002
 -3.7380666E+002
 -3.7369080E+002
 -3.7179642E+002
 -3.6905637E+002
 -3.6750259E+002
 -3.7105014E+002
 -3.8618795E+002
 -4.2311874E+002
 -4.8989307E+002
 -5.7590369E+002
 -6.5814262E+002
 -7.3375006E+002
 -8.3496018E+002
 -9.4758258E+002
 -1.0329286E+003
 -6.0006128E+002
  1.6331505E+003
  1.5077816E+003
  1.5804466E+003
  1.3152968E+003
  1.2351854E+003
  1.2069754E+003
  1.2316294E+003
  1.2922451E+003
  1.3813532E+003
  1.4918254E+003
  1.6197626E+003
  1.7634574E+003
  1.9237257E+003
  2.1053828E+003
  2.3189290E+003
  2.5918550E+003
  2.9569685E+003
  3.5040550E+003
  3.1058118E+003
  2.1882977E+003
  2.5993980E+002
 -2.7624138E+002
 -3.1715717E+002
 -3.1475828E+002
 -3.0409916E+002
 -3.0068678E+002
 -3.0178453E+002
 -3.0648139E+002
 -3.1298684E+002
 -3.2008378E+002
 -3.2685233E+002
 -3.3267116E+002
 -3.3711889E+002
 -3.3993932E+002
 -3.4105090E+002
 -3.4061970E+002
 -3.3920818E+002
 -3.3801050E+002
 -3.3918621E+002
 -3.4617090E+002
 -3.6384873E+002
 -3.9713646E+002
 -4.4727561E+002
 -5.0985344E+002
 -5.7462584E+002
 -6.3909508E+002
 -7.0893885E+002
 -8.3993462E+002
 -9.6326824E+002
 -1.1805373E+003
  2.7665394E+003
  1.6861128E+003
  1.4832837E+003
  1.3537720E+003
  1.2706680E+003
  1.2497941E+003
  1.2682048E+003
  1.3191516E+003
  1.3956810E+003
  1.4931269E+003
  1.6081530E+003
  1.7392669E+003
  1.8869607E+003
  2.0559516E+003
  2.2560879E+003
  2.5243079E+003
  2.9163244E+003
  3.7883637E+003
  5.9785935E+003
 -1.2945155E+003
  2.0102878E+002
 -2.5500664E+002
 -2.9136691E+002
 -2.9361773E+002
 -2.8370011E+002
 -2.8032624E+002
 -2.8061647E+002
 -2.8408805E+002
 -2.8922313E+002
 -2.9498698E+002
 -3.0054343E+002
 -3.0531711E+002
 -3.0893332E+002
 -3.1120931E+002
 -3.1217381E+002
 -3.1213305E+002
 -3.1178302E+002
 -3.1236165E+002
 -3.1579225E+002
 -3.2472684E+002
 -3.4213769E+002
 -3.7023253E+002
 -4.0889313E+002
 -4.5483815E+002
 -5.0368682E+002
 -5.5706828E+002
 -6.1500860E+002
 -7.1441988E+002
 -8.1017262E+002
 -1.7937832E+003
 -1.0117310E+003
  4.6686762E+002
  1.4632205E+003
  1.4671834E+003
  1.5366256E+003
  1.4221555E+003
  1.3621498E+003
  1.3111561E+003
  1.2932675E+003
  1.3078090E+003
  1.3500201E+003
  1.4159155E+003
  1.5021850E+003
  1.6066203E+003
  1.7279763E+003
  1.8678797E+003
  2.0270566E+003
  2.2278192E+003
  2.4536738E+003
  2.9462805E+003
  3.3294703E+003
  7.2472418E+003
 -1.8805488E+002
 -1.6551560E+002
 -2.1485982E+002
 -2.3153676E+002
 -2.4250811E+002
 -2.4752913E+002
 -2.5274598E+002
 -2.5826762E+002
 -2.6416729E+002
 -2.6998272E+002
 -2.7530156E+002
 -2.7977962E+002
 -2.8320601E+002
 -2.8552638E+002
 -2.8688396E+002
 -2.8767764E+002
 -2.8863773E+002
 -2.9089878E+002
 -2.9602427E+002
 -3.0588083E+002
 -3.2225422E+002
 -3.4620717E+002
 -3.7741190E+002
 -4.1443498E+002
 -4.5540144E+002
 -5.0149042E+002
 -5.5372883E+002
 -6.3530500E+002
 -7.3675341E+002
 -1.0527020E+003
 -1.9752350E+002
 -3.1922533E+002
 -1.0963076E+002
 -3.6234237E+001
  1.4305582E+002
 -6.7261783E+001
  2.6899336E+002
  1.7007991E+002
  1.2219409E+003
  1.4887283E+003
  1.5205046E+003
  1.4410672E+003
  1.3828715E+003
  1.3486518E+003
  1.3355126E+003
  1.3468135E+003
  1.3818700E+003
  1.4387700E+003
  1.5157849E+003
  1.6117166E+003
  1.7265009E+003
  1.8610481E+003
  2.0208737E+003
  2.2087085E+003
  2.4666189E+003
  2.7582004E+003
  3.5363159E+003
  3.6534521E+003
 -7.2106151E+002
 -1.2296079E+002
 -1.4879893E+002
 -1.7238867E+002
 -1.9622638E+002
 -2.1082991E+002
 -2.2201829E+002
 -2.3100131E+002
 -2.3876376E+002
 -2.4551869E+002
 -2.5130069E+002
 -2.5606305E+002
 -2.5979685E+002
 -2.6259105E+002
 -2.6468819E+002
 -2.6653608E+002
 -2.6883430E+002
 -2.7255736E+002
 -2.7891854E+002
 -2.8923019E+002
 -3.0463772E+002
 -3.2578965E+002
 -3.5267117E+002
 -3.8479220E+002
 -4.2217247E+002
 -4.6628729E+002
 -5.2293765E+002
 -6.0095562E+002
 -7.3282586E+002
 -8.1979216E+002
 -6.0074844E+002
 -1.0208378E+002
  1.7214206E+002
  6.9140295E+002
  1.1293509E+003
  1.3550317E+003
  1.4338243E+003
  1.4352859E+003
  1.4043009E+003
  1.3798414E+003
  1.3711413E+003
  1.3807986E+003
  1.4103251E+003
  1.4597917E+003
  1.5289008E+003
  1.6175882E+003
  1.7264153E+003
  1.8572098E+003
  2.0128480E+003
  2.1998525E+003
  2.4164439E+003
  2.6720577E+003
  2.7653255E+003
  1.9375169E+003
  3.8077176E+001
 -9.6659809E+002
 -2.0225804E+002
 -1.6863646E+002
 -1.2213374E+002
 -1.4148252E+002
 -1.6014880E+002
 -1.7875731E+002
 -1.9320288E+002
 -2.0489859E+002
 -2.1440814E+002
 -2.2229027E+002
 -2.2881868E+002
 -2.3417153E+002
 -2.3850078E+002
 -2.4200970E+002
 -2.4500693E+002
 -2.4795018E+002
 -2.5147300E+002
 -2.5638317E+002
 -2.6361432E+002
 -2.7411722E+002
 -2.8870277E+002
 -3.0790083E+002
 -3.3194253E+002
 -3.6101397E+002
 -3.9573005E+002
 -4.3790681E+002
 -4.9063176E+002
 -5.5763268E+002
 -6.1749540E+002
 -5.7362817E+002
 -3.6706401E+002
 -9.2446212E+001
  2.9690565E+002
  6.5487474E+002
  1.0142772E+003
  1.2612876E+003
  1.3723437E+003
  1.4062022E+003
  1.4069027E+003
  1.3983988E+003
  1.3956840E+003
  1.4054842E+003
  1.4310611E+003
  1.4742391E+003
  1.5360471E+003
  1.6172698E+003
  1.7188178E+003
  1.8418807E+003
  1.9877726E+003
  2.1550865E+003
  2.3327309E+003
  2.4595727E+003
  2.3357959E+003
  1.7465449E+003
  8.5780274E+002
  3.7391145E+001
 -1.6855763E+002
 -1.3378174E+002
 -1.2564675E+002
 -1.3875423E+002
 -1.5445256E+002
 -1.6928035E+002
 -1.8179038E+002
 -1.9221409E+002
 -2.0086549E+002
 -2.0806006E+002
 -2.1404514E+002
 -2.1905173E+002
 -2.2333927E+002
 -2.2723858E+002
 -2.3118192E+002
 -2.3571667E+002
 -2.4149430E+002
 -2.4922754E+002
 -2.5961589E+002
 -2.7325696E+002
 -2.9058273E+002
 -3.1187446E+002
 -3.3737138E+002
 -3.6742320E+002
 -4.0232150E+002
 -4.4103350E+002
 -4.7520837E+002
 -4.7641815E+002
 -4.0979214E+002
 -2.4246643E+002
  2.8366127E+001
  3.3489369E+002
  6.6778005E+002
  9.5576320E+002
  1.1693154E+003
  1.3024198E+003
  1.3679940E+003
  1.3935774E+003
  1.4017767E+003
  1.4069702E+003
  1.4181696E+003
  1.4407778E+003
  1.4781722E+003
  1.5325213E+003
  1.6051440E+003
  1.6966469E+003
  1.8068220E+003
  1.9335245E+003
  2.0701914E+003
  2.1939088E+003
  2.2501551E+003
  2.0835509E+003
  1.5596226E+003
  8.5106700E+002
 -2.5670931E+002
 -1.3496620E+002
 -1.1568929E+002
 -1.1611315E+002
 -1.2448468E+002
 -1.3738084E+002
 -1.5033958E+002
 -1.6220818E+002
 -1.7255228E+002
 -1.8143326E+002
 -1.8901476E+002
 -1.9550086E+002
 -2.0111353E+002
 -2.0610830E+002
 -2.1079325E+002
 -2.1554410E+002
 -2.2080715E+002
 -2.2708456E+002
 -2.3489888E+002
 -2.4473981E+002
 -2.5700446E+002
 -2.7194813E+002
 -2.8965268E+002
 -3.0998061E+002
 -3.3237366E+002
 -3.5516917E+002
 -3.7369283E+002
 -3.7655619E+002
 -3.4535985E+002
 -2.5551398E+002
 -9.4645765E+001
  1.2688776E+002
  3.9379535E+002
  6.6457320E+002
  9.1274591E+002
  1.1098342E+003
  1.2455011E+003
  1.3278596E+003
  1.3718129E+003
  1.3933838E+003
  1.4056618E+003
  1.4181808E+003
  1.4377342E+003
  1.4690705E+003
  1.5153161E+003
  1.5780840E+003
  1.6573397E+003
  1.7509726E+003
  1.8538043E+003
  1.9552298E+003
  2.0351934E+003
  2.0592168E+003
  1.9908687E+003
  1.4335243E+003
  1.5409857E+002
 -2.0474355E+002
 -6.3355316E+001
 -9.3532506E+001
 -1.0435655E+002
 -1.1422949E+002
 -1.2429728E+002
 -1.3502274E+002
 -1.4543404E+002
 -1.5507762E+002
 -1.6374067E+002
 -1.7141972E+002
 -1.7821294E+002
 -1.8428143E+002
 -1.8983167E+002
 -1.9511366E+002
 -2.0042138E+002
 -2.0608719E+002
 -2.1246418E+002
 -2.1989415E+002
 -2.2866206E+002
 -2.3894078E+002
 -2.5072642E+002
 -2.6374938E+002
 -2.7730822E+002
 -2.8990921E+002
 -2.9851517E+002
 -2.9726458E+002
 -2.7656244E+002
 -2.2305234E+002
 -1.2452681E+002
  2.5383715E+001
  2.2231508E+002
  4.4734937E+002
  6.7969288E+002
  8.9351068E+002
  1.0711482E+003
  1.2042175E+003
  1.2937734E+003
  1.3481298E+003
  1.3781555E+003
  1.3945343E+003
  1.4065212E+003
  1.4216789E+003
  1.4458751E+003
  1.4831567E+003
  1.5354438E+003
  1.6021447E+003
  1.6795484E+003
  1.7606374E+003
  1.8333627E+003
  1.8878581E+003
  1.9077064E+003
  1.9798393E+003
  2.3599794E+003
 -5.1250053E+002
  4.5246790E+001
 -7.6656152E+001
 -8.6680376E+001
 -9.7086306E+001
 -1.0467295E+002
 -1.1253750E+002
 -1.2120003E+002
 -1.3018402E+002
 -1.3896931E+002
 -1.4722243E+002
 -1.5481176E+002
 -1.6174238E+002
 -1.6810259E+002
 -1.7402928E+002
 -1.7969268E+002
 -1.8528783E+002
 -1.9102338E+002
 -1.9710124E+002
 -2.0368418E+002
 -2.1085016E+002
 -2.1853178E+002
 -2.2643378E+002
 -2.3390889E+002
 -2.3975166E+002
 -2.4185126E+002
 -2.3666865E+002
 -2.1872420E+002
 -1.8041784E+002
 -1.1321422E+002
 -9.8528801E+000
  1.3183613E+002
  3.0656932E+002
  5.0286018E+002
  7.0338561E+002
  8.9137539E+002
  1.0526241E+003
  1.1790913E+003
  1.2694943E+003
  1.3276879E+003
  1.3607288E+003
  1.3770267E+003
  1.3852004E+003
  1.3933673E+003
  1.4085303E+003
  1.4358454E+003
  1.4778817E+003
  1.5338434E+003
  1.5994865E+003
  1.6659119E+003
  1.7259011E+003
  1.7613353E+003
  1.8257544E+003
  1.8312065E+003
  2.7628552E+003
  6.8751974E+001
 -7.3287486E+001
 -8.0090842E+001
 -8.7697823E+001
 -9.2538046E+001
 -9.9392852E+001
 -1.0695367E+002
 -1.1511875E+002
 -1.2330191E+002
 -1.3119614E+002
 -1.3863578E+002
 -1.4559553E+002
 -1.5211130E+002
 -1.5824919E+002
 -1.6408979E+002
 -1.6971996E+002
 -1.7522007E+002
 -1.8064189E+002
 -1.8597430E+002
 -1.9109535E+002
 -1.9570711E+002
 -1.9924626E+002
 -2.0075658E+002
 -1.9870576E+002
 -1.9073904E+002
 -1.7342099E+002
 -1.4209884E+002
 -9.1204365E+001
 -1.5170195E+001
  8.9812346E+001
  2.2403560E+002
  3.8304547E+002
  5.5747796E+002
  7.3521752E+002
  9.0316516E+002
  1.0502760E+003
  1.1691418E+003
  1.2566865E+003
  1.3139163E+003
  1.3450310E+003
  1.3565568E+003
  1.3565894E+003
  1.3539885E+003
  1.3572800E+003
  1.3733133E+003
  1.4058114E+003
  1.4544643E+003
  1.5145158E+003
  1.5779568E+003
  1.6334184E+003
  1.6809820E+003
  1.7142808E+003
  1.8776405E+003
  1.8261986E+003
  3.4491209E+001
 -1.9321598E+001
 -5.7097731E+001
 -6.7144361E+001
 -7.5455923E+001
 -8.3036619E+001
 -9.1106809E+001
 -9.9290104E+001
 -1.0734675E+002
 -1.1504029E+002
 -1.2234736E+002
 -1.2928447E+002
 -1.3586646E+002
 -1.4209114E+002
 -1.4794484E+002
 -1.5340297E+002
 -1.5841955E+002
 -1.6290401E+002
 -1.6668534E+002
 -1.6946297E+002
 -1.7074248E+002
 -1.6975185E+002
 -1.6533377E+002
 -1.5581414E+002
 -1.3886643E+002
 -1.1142689E+002
 -6.9774938E+001
 -9.9043208E+000
  7.1694479E+001
  1.7697468E+002
  3.0520731E+002
  4.5233068E+002
  6.1116778E+002
  7.7222792E+002
  9.2539333E+002
  1.0613735E+003
  1.1730276E+003
  1.2560648E+003
  1.3092446E+003
  1.3343937E+003
  1.3364053E+003
  1.3231103E+003
  1.3046587E+003
  1.2920573E+003
  1.2947501E+003
  1.3184525E+003
  1.3635422E+003
  1.4251196E+003
  1.4941319E+003
  1.5596364E+003
  1.6075695E+003
  1.6436151E+003
  1.6374255E+003
  1.6366797E+003
  1.4492411E+001
 -1.4062624E+001
 -2.1906767E+001
 -4.1440246E+001
 -5.3351689E+001
 -6.3804099E+001
 -7.3354024E+001
 -8.2477985E+001
 -9.0695322E+001
 -9.8280974E+001
 -1.0546416E+002
 -1.1236705E+002
 -1.1898130E+002
 -1.2522643E+002
 -1.3098748E+002
 -1.3612959E+002
 -1.4048942E+002
 -1.4385009E+002
 -1.4590397E+002
 -1.4620484E+002
 -1.4410956E+002
 -1.3870880E+002
 -1.2874872E+002
 -1.1255351E+002
 -8.7972926E+001
 -5.2402402E+001
 -2.9399752E+000
  6.3252326E+001
  1.4837530E+002
  2.5327231E+002
  3.7677757E+002
  5.1534604E+002
  6.6312778E+002
  8.1259016E+002
  9.5537865E+002
  1.0833431E+003
  1.1893580E+003
  1.2679254E+003
  1.3156679E+003
  1.3319801E+003
  1.3199463E+003
  1.2872917E+003
  1.2463185E+003
  1.2118569E+003
  1.1980166E+003
  1.2133482E+003
  1.2588412E+003
  1.3281863E+003
  1.4102636E+003
  1.4919788E+003
  1.5533542E+003
  1.5511755E+003
  1.4532190E+003
  1.3208799E+003
 -1.4131470E+001
  3.3419883E+001
  6.7412717E+000
 -1.6378492E+001
 -2.9965562E+001
 -4.2168175E+001
 -5.4964309E+001
 -6.4991771E+001
 -7.3204557E+001
 -8.0524407E+001
 -8.7558561E+001
 -9.4461539E+001
 -1.0114509E+002
 -1.0741388E+002
 -1.1304233E+002
 -1.1779260E+002
 -1.2140123E+002
 -1.2354902E+002
 -1.2382211E+002
 -1.2166740E+002
 -1.1634362E+002
 -1.0686994E+002
 -9.1977202E+001
 -7.0073698E+001
 -3.9246998E+001
  2.6663981E+000
  5.7906858E+001
  1.2848944E+002
  2.1578165E+002
  3.2002891E+002
  4.3993365E+002
  5.7242197E+002
  7.1268853E+002
  8.5450133E+002
  9.9072566E+002
  1.1138844E+003
  1.2166590E+003
  1.2922818E+003
  1.3350208E+003
  1.3411738E+003
  1.3111639E+003
  1.2520553E+003
  1.1792243E+003
  1.1147942E+003
  1.0793162E+003
  1.0865769E+003
  1.1374131E+003
  1.2213442E+003
  1.3222117E+003
  1.4221143E+003
  1.5082847E+003
  1.5197741E+003
  1.3610879E+003
  9.9353554E+002
  5.2927849E+001
  1.5922962E+000
  4.2846791E+000
 -6.5531920E-001
 -2.2776080E+001
 -3.7639048E+001
 -4.7346545E+001
 -5.4569057E+001
 -6.1309655E+001
 -6.8214049E+001
 -7.5260957E+001
 -8.2146058E+001
 -8.8515064E+001
 -9.4030863E+001
 -9.8372691E+001
 -1.0120450E+002
 -1.0213552E+002
 -1.0067959E+002
 -9.6215488E+001
 -8.7949099E+001
 -7.4879801E+001
 -5.5776608E+001
 -2.9174436E+001
  6.5937765E+000
  5.3309523E+001
  1.1270823E+002
  1.8623933E+002
  2.7476352E+002
  3.7822974E+002
  4.9539784E+002
  6.2366905E+002
  7.5906152E+002
  8.9633443E+002
  1.0292117E+003
  1.1506546E+003
  1.2531044E+003
  1.3285793E+003
  1.3687522E+003
  1.3658277E+003
  1.3152162E+003
  1.2218046E+003
  1.1050652E+003
  9.9583913E+002
  9.3186606E+002
  9.3255854E+002
  9.9709008E+002
  1.1061761E+003
  1.2329310E+003
  1.3527406E+003
  1.4498069E+003
  1.5172504E+003
  1.2183888E+003
  2.0768816E+002
  8.7357114E+001
 -5.5128566E+000
  7.1725208E+001
  1.6961642E+001
 -1.0047923E+001
 -2.2983849E+001
 -2.8818934E+001
 -3.3914102E+001
 -3.9957512E+001
 -4.7050842E+001
 -5.4580186E+001
 -6.1909224E+001
 -6.8510424E+001
 -7.3969014E+001
 -7.7921842E+001
 -7.9998752E+001
 -7.9772269E+001
 -7.6717258E+001
 -7.0178230E+001
 -5.9343546E+001
 -4.3227956E+001
 -2.0667948E+001
  9.6623987E+000
  4.9204801E+001
  9.9428796E+001
  1.6169539E+002
  2.3707435E+002
  3.2612992E+002
  4.2870295E+002
  5.4372166E+002
  6.6906549E+002
  8.0148578E+002
  9.3656635E+002
  1.0687141E+003
  1.1912000E+003
  1.2962383E+003
  1.3750488E+003
  1.4171842E+003
  1.4095839E+003
  1.3395137E+003
  1.2027269E+003
  1.0205917E+003
  8.5224432E+002
  7.4656803E+002
  7.4432134E+002
  8.3739120E+002
  9.8930448E+002
  1.1558483E+003
  1.3036599E+003
  1.4074346E+003
  1.5501710E+003
  2.0154346E+003
 -4.0535075E+002
 -1.4607411E+002
  1.3973629E+002
  8.7148167E+001
  7.2899317E+000
 -6.5494079E+000
 -7.7030949E+000
 -6.7032229E+000
 -9.5373359E+000
 -1.5767259E+001
 -2.3887602E+001
 -3.2469250E+001
 -4.0544225E+001
 -4.7509313E+001
 -5.2955276E+001
 -5.6539960E+001
 -5.7903970E+001
 -5.6616901E+001
 -5.2142485E+001
 -4.3816138E+001
 -3.0831948E+001
 -1.2239404E+001
  1.3047047E+001
  4.6220378E+001
  8.8529206E+001
  1.4119698E+002
  2.0531118E+002
  2.8168793E+002
  3.7072504E+002
  4.7226028E+002
  5.8544880E+002
  7.0865829E+002
  8.3935130E+002
  9.7390748E+002
  1.1073674E+003
  1.2331757E+003
  1.3432244E+003
  1.4280398E+003
  1.4770491E+003
  1.4743100E+003
  1.3924449E+003
  1.2097191E+003
  9.4508101E+002
  6.5780840E+002
  5.0085328E+002
  5.1139140E+002
  6.6251826E+002
  8.8081734E+002
  1.1084052E+003
  1.2928423E+003
  1.4401124E+003
  1.4329588E+003
  2.2494987E+003
  4.5739770E+002
 -1.3316743E+001
 -4.0128846E+000
 -1.7941828E+000
  1.7806510E+001
  2.3369904E+001
  2.0117310E+001
  1.1387974E+001
  9.0791642E-001
 -9.3379826E+000
 -1.8373087E+001
 -2.5733344E+001
 -3.1140031E+001
 -3.4341469E+001
 -3.5028993E+001
 -3.2793915E+001
 -2.7106079E+001
 -1.7305429E+001
 -2.6024240E+000
  1.7913030E+001
  4.5251876E+001
  8.0491725E+001
  1.2472467E+002
  1.7898553E+002
  2.4416291E+002
  3.2090037E+002
  4.0949983E+002
  5.0983952E+002
  6.2131175E+002
  7.4276330E+002
  8.7239267E+002
  1.0074778E+003
  1.1438190E+003
  1.2750070E+003
  1.3918969E+003
  1.4839470E+003
  1.5403474E+003
  1.5516099E+003
  1.4840700E+003
  1.2549169E+003
  8.2648656E+002
  4.4835441E+002
  1.8560721E+002
  2.3201679E+002
  4.8674789E+002
  8.0068031E+002
  1.0877710E+003
  1.3412974E+003
  1.5056228E+003
  1.5949792E+003
  1.2843378E+003
  1.2602666E+002
  1.4391414E+000
 -1.9162844E+001
  3.5987290E+001
  6.1279040E+001
  6.4392049E+001
  5.4408948E+001
  4.0106109E+001
  2.6155354E+001
  1.4021468E+001
  4.1270619E+000
 -3.4506036E+000
 -8.6683971E+000
 -1.1410720E+001
 -1.1438677E+001
 -8.3721981E+000
 -1.6894654E+000
  9.2644412E+000
  2.5263838E+001
  4.7183717E+001
  7.5973531E+001
  1.1262011E+002
  1.5809722E+002
  2.1330161E+002
  2.7897969E+002
  3.5565352E+002
  4.4355915E+002
  5.4261092E+002
  6.5239710E+002
  7.7219331E+002
  9.0092202E+002
  1.0369738E+003
  1.1774238E+003
  1.3163140E+003
  1.4430952E+003
  1.5417299E+003
  1.5994795E+003
  1.6116549E+003
  1.5929017E+003
  1.4126040E+003
  8.9774453E+002
  7.1796417E-001
 -3.2419488E+002
 -9.3658456E+001
  3.5854920E+002
  7.6714728E+002
  1.1039254E+003
  1.3733216E+003
  1.6208882E+003
  1.4338402E+003
  3.3549693E+002
 -1.7852332E+002
 -6.1981582E+001
  3.4567319E+001
  1.0808173E+002
  1.2474993E+002
  1.1221505E+002
  8.8292291E+001
  6.7209136E+001
  5.0055709E+001
  3.6682096E+001
  2.6502846E+001
  1.9145880E+001
  1.4399561E+001
  1.2248696E+001
  1.2876030E+001
  1.6649757E+001
  2.4098172E+001
  3.5882838E+001
  5.2773387E+001
  7.5622606E+001
  1.0533776E+002
  1.4284389E+002
  1.8903620E+002
  2.4472166E+002
  3.1055389E+002
  3.8697123E+002
  4.7415346E+002
  5.7201585E+002
  6.8025690E+002
  7.9845426E+002
  9.2617929E+002
  1.0629218E+003
  1.2079430E+003
  1.3578547E+003
  1.5002656E+003
  1.6143835E+003
  1.6696316E+003
  1.6609147E+003
  1.5897159E+003
  1.5986824E+003
  2.9095561E+002
  9.2977112E+001
 -7.8219120E+002
 -2.8000824E+002
  3.1000919E+002
  7.7964261E+002
  1.1553443E+003
  1.4355998E+003
  1.6767653E+003
  2.4532800E+003
 -4.6190083E+002
  1.9615149E+001
 -1.8096179E+002
  1.1462208E+002
  2.0017683E+002
  1.9961614E+002
  1.4912790E+002
  1.1416910E+002
  8.9018114E+001
  7.1199632E+001
  5.8062911E+001
  4.8587038E+001
  4.2082624E+001
  3.8171583E+001
  3.6757639E+001
  3.8016896E+001
  4.2346597E+001
  5.0311817E+001
  6.2601342E+001
  7.9995604E+001
  1.0334118E+002
  1.3352484E+002
  1.7144099E+002
  2.1794843E+002
  2.7381550E+002
  3.3965649E+002
  4.1586889E+002
  5.0258887E+002
  5.9969381E+002
  7.0688080E+002
  8.2385156E+002
  9.5056839E+002
  1.0876128E+003
  1.2357321E+003
  1.3980231E+003
  1.5694948E+003
  1.7093288E+003
  1.7502850E+003
  1.7377230E+003
  1.5955692E+003
  2.1642042E+003
  2.2518495E+002
 -9.5407254E+000
 -2.4833009E+003
 -4.7472457E+002
  2.7526427E+002
  7.9935692E+002
  1.2171576E+003
  1.5954272E+003
  1.6964528E+003
  2.5979910E+003
 -2.9544441E+002
  2.2472799E+002
  3.5733961E+002
  2.2270760E+002
  1.6146796E+002
  1.2618192E+002
  1.0513088E+002
  8.9577373E+001
  7.8397613E+001
  7.0694111E+001
  6.5718528E+001
  6.2977611E+001
  6.2380297E+001
  6.4175249E+001
  6.8851448E+001
  7.7050228E+001
  8.9509854E+001
  1.0703516E+002
  1.3047984E+002
  1.6072987E+002
  1.9867956E+002
  2.4519531E+002
  3.0106430E+002
  3.6692845E+002
  4.4320965E+002
  5.3004352E+002
  6.2725783E+002
  7.3445723E+002
  8.5126495E+002
  9.7776053E+002
  1.1151025E+003
  1.2662665E+003
  1.4334460E+003
  1.6376378E+003
  1.8843136E+003
  2.0166728E+003
  1.8121500E+003
  1.6723249E+003
  1.4118082E+003
 -2.2988935E+003
 -4.5872660E+002
  2.1843604E+002
  8.0511943E+002
  1.2487225E+003
  1.6843044E+003
  1.8258026E+003
  4.6771410E+002
 -3.6912011E+002
  7.7626062E+002
  2.9236332E+002
  1.9031295E+002
  1.4538172E+002
  1.3367648E+002
  1.1886972E+002
  1.0686827E+002
  9.8650276E+001
  9.3678942E+001
  9.0773792E+001
  8.9372214E+001
  8.9499449E+001
  9.1596310E+001
  9.6319201E+001
  1.0442292E+002
  1.1670761E+002
  1.3400529E+002
  1.5718103E+002
  1.8713273E+002
  2.2478083E+002
  2.7104237E+002
  3.2678616E+002
  3.9276556E+002
  4.6952713E+002
  5.5730380E+002
  6.5592940E+002
  7.6486975E+002
  8.8351076E+002
  1.0118342E+003
  1.1511011E+003
  1.3065630E+003
  1.4853596E+003
  1.6815977E+003
  1.9688912E+003
  2.1188601E+003
  1.8763771E+003
  1.7536809E+003
 -1.3179717E+003
 -5.5929403E+002
  2.3675941E+002
  8.0383814E+002
  1.2688073E+003
  1.7541019E+003
  3.0179176E+003
 -4.2956673E+002
 -4.8868429E+002
  1.0437838E+003
  1.1378928E+002
  1.4055857E+002
  1.4996513E+002
  1.5139754E+002
  1.3410587E+002
  1.2455180E+002
  1.2023139E+002
  1.1886178E+002
  1.1829695E+002
  1.1806324E+002
  1.1853372E+002
  1.2050311E+002
  1.2486706E+002
  1.3250738E+002
  1.4427327E+002
  1.6100632E+002
  1.8357216E+002
  2.1288260E+002
  2.4990189E+002
  2.9563445E+002
  3.5109170E+002
  4.1723148E+002
  4.9485982E+002
  5.8447714E+002
  6.8608776E+002
  7.9905540E+002
  9.2236985E+002
  1.0554720E+003
  1.2006990E+003
  1.3606899E+003
  1.5641404E+003
  1.8239950E+003
  2.2355774E+003
  3.9804886E+003
  1.0928496E+003
 -7.8299270E+002
 -2.5342669E+002
  2.8601795E+002
  8.3401710E+002
  1.3873536E+003
  1.6748038E+003
  3.0212736E+003
  3.4448211E+002
  1.0735255E+002
  1.7205601E+002
  2.2377239E+002
  1.7170244E+002
  1.4894203E+002
  1.4284037E+002
  1.4510989E+002
  1.4805266E+002
  1.4955933E+002
  1.4974464E+002
  1.4978179E+002
  1.5098034E+002
  1.5449909E+002
  1.6130487E+002
  1.7224127E+002
  1.8811431E+002
  2.0976214E+002
  2.3810027E+002
  2.7414353E+002
  3.1900797E+002
  3.7389391E+002
  4.4004617E+002
  5.1867028E+002
  6.1077532E+002
  7.1684088E+002
  8.3641059E+002
  9.6769258E+002
  1.1091920E+003
  1.2611634E+003
  1.4388767E+003
  1.6192100E+003
  1.9597012E+003
  1.9369685E+003
  2.4044796E+003
  1.9187483E+002
 -8.7918002E+001
 -1.6420266E+002
 -1.7058049E+001
  3.9375523E+002
  8.7253996E+002
  1.4144026E+003
  1.7786578E+003
  5.3754284E+002
 -3.1514544E+002
 -2.0859531E+002
  4.7776105E+002
  2.4476518E+002
  1.7486702E+002
  1.5449271E+002
  1.6485320E+002
  1.7640794E+002
  1.8369172E+002
  1.8574028E+002
  1.8478786E+002
  1.8318998E+002
  1.8283495E+002
  1.8503473E+002
  1.9071053E+002
  2.0059427E+002
  2.1538506E+002
  2.3585237E+002
  2.6289687E+002
  2.9758118E+002
  3.4114127E+002
  3.9498636E+002
  4.6068781E+002
  5.3995006E+002
  6.3449588E+002
  7.4579732E+002
  8.7415061E+002
  1.0174780E+003
  1.1703422E+003
  1.3302571E+003
  1.5053596E+003
  1.7597623E+003
  1.9937761E+003
  3.5316496E+003
 -7.2779048E+002
 -1.3965125E+002
  1.3830167E+001
  1.9479072E+002
  4.9779034E+002
  8.9699142E+002
  1.4754420E+003
  2.7893625E+003
 -3.3324376E+002
  1.1786838E+003
  3.7777005E+002
  1.7790709E+002
  1.3096991E+002
  1.6438415E+002
  1.9769306E+002
  2.1987364E+002
  2.2802336E+002
  2.2727981E+002
  2.2274156E+002
  2.1808695E+002
  2.1548211E+002
  2.1607755E+002
  2.2051936E+002
  2.2928266E+002
  2.4287674E+002
  2.6196041E+002
  2.8740209E+002
  3.2030688E+002
  3.6202735E+002
  4.1417114E+002
  4.7861809E+002
  5.5754849E+002
  6.5348318E+002
  7.6916189E+002
  9.0703515E+002
  1.0664610E+003
  1.2373443E+003
  1.4060179E+003
  1.5543259E+003
  1.7778640E+003
  1.7641808E+003
  1.6461244E+003
  1.3843652E+002
  2.0628956E+002
  3.7371967E+002
  6.0050213E+002
  9.5808591E+002
  1.2572739E+003
  2.7195223E+003
  1.6089976E+003
  1.5100475E+002
  6.3803196E+001
  1.0977708E+002
  2.0123751E+002
  2.5613648E+002
  2.8034290E+002
  2.8140151E+002
  2.7267708E+002
  2.6179007E+002
  2.5301977E+002
  2.4794436E+002
  2.4707029E+002
  2.5048898E+002
  2.5827816E+002
  2.7069069E+002
  2.8825041E+002
  3.1179052E+002
  3.4246240E+002
  3.8173265E+002
  4.3138398E+002
  4.9353515E+002
  5.7071382E+002
  6.6598451E+002
  7.8329676E+002
  9.2739074E+002
  1.1038164E+003
  1.3069711E+003
  1.4908940E+003
  1.6128234E+003
  1.6923829E+003
  2.8549366E+003
 -4.8691991E+002
  6.2053346E+000
  8.2616430E+001
  2.7824297E+002
  3.7673710E+002
  4.9271689E+002
  6.9946180E+002
  9.5874342E+002
  1.3360341E+003
  1.2034841E+003
  7.2023397E+002
 -7.5602324E+001
 -3.4917667E+001
  1.6839538E+002
  2.8715464E+002
  3.5051824E+002
  3.5604570E+002
  3.3964679E+002
  3.1721320E+002
  2.9865328E+002
  2.8590392E+002
  2.7906364E+002
  2.7746729E+002
  2.8046555E+002
  2.8765815E+002
  2.9902381E+002
  3.1496212E+002
  3.3629445E+002
  3.6424283E+002
  4.0040378E+002
  4.4672617E+002
  5.0551473E+002
  5.7945772E+002
  6.7184957E+002
  7.8673512E+002
  9.3095539E+002
  1.1121699E+003
  1.3540710E+003
  1.6130243E+003
  1.7753606E+003
  1.4650208E+003
  1.3372441E+003
  3.0892026E+002
  5.3334295E+002
  4.9828265E+002
  5.7585639E+002
  7.1439059E+002
  9.5167146E+002
  9.9409394E+002
  3.6495688E+002
 -3.2439804E+002
  2.3497083E+001
  2.7988691E+002
  4.4289226E+002
  4.6658303E+002
  4.3737423E+002
  3.9002719E+002
  3.5392960E+002
  3.2927519E+002
  3.1472673E+002
  3.0792831E+002
  3.0700900E+002
  3.1054927E+002
  3.1770280E+002
  3.2821926E+002
  3.4242933E+002
  3.6119691E+002
  3.8586428E+002
  4.1820054E+002
  4.6035879E+002
  5.1483491E+002
  5.8447628E+002
  6.7245039E+002
  7.8279303E+002
  9.1998282E+002
  1.0972937E+003
  1.3253281E+003
  1.7012019E+003
  1.6983949E+003
  1.3650774E+003
  1.7407090E+001
  1.0724344E+003
  6.1159386E+002
  6.0525240E+002
  6.0779467E+002
  6.9675864E+002
  8.4566721E+002
  1.4332895E+003
 -1.9366371E+002
 -6.3191825E+001
 -1.2541846E+002
  4.8601043E+002
  6.1340303E+002
  5.9838119E+002
  4.8704497E+002
  4.1937679E+002
  3.7580466E+002
  3.5107300E+002
  3.3848092E+002
  3.3440779E+002
  3.3599824E+002
  3.4124915E+002
  3.4897276E+002
  3.5879716E+002
  3.7107992E+002
  3.8680771E+002
  4.0750876E+002
  4.3518761E+002
  4.7227526E+002
  5.2156966E+002
  5.8620502E+002
  6.6953338E+002
  7.7552741E+002
  9.0791586E+002
  1.0759164E+003
  1.2999900E+003
  1.7310166E+003
  3.2283129E+003
  1.8035397E+002
  1.3024735E+003
  7.8883247E+002
  6.6303726E+002
  6.1610780E+002
  6.6424467E+002
  6.9302272E+002
  1.1786728E+003
 -4.0124974E+001
  7.0235705E+002
  9.3830888E+002
  6.1290293E+002
  4.8856456E+002
  4.1819366E+002
  3.8289027E+002
  3.6442460E+002
  3.5797634E+002
  3.5944493E+002
  3.6547213E+002
  3.7356113E+002
  3.8233331E+002
  3.9144501E+002
  4.0141080E+002
  4.1343134E+002
  4.2927995E+002
  4.5125008E+002
  4.8211556E+002
  5.2514391E+002
  5.8386318E+002
  6.6266754E+002
  7.6457703E+002
  9.0075530E+002
  1.0577729E+003
  1.3174939E+003
  1.4831200E+003
  2.9964750E+003
 -1.8012378E+002
  3.2932754E+002
  9.1770232E+002
  8.9515996E+002
  6.9386700E+002
  5.9357847E+002
  5.7098661E+002
  6.2040305E+002
  1.5573458E+002
 -6.5990514E+002
  2.0962627E+003
  7.4683371E+002
  5.4519013E+002
  4.3641179E+002
  4.0411733E+002
  3.8155660E+002
  3.7294390E+002
  3.7544857E+002
  3.8502318E+002
  3.9717992E+002
  4.0893967E+002
  4.1889573E+002
  4.2694955E+002
  4.3393011E+002
  4.4133367E+002
  4.5120113E+002
  4.6610404E+002
  4.8919422E+002
  5.2419507E+002
  5.7547829E+002
  6.4749315E+002
  7.4644245E+002
  8.7509019E+002
  1.0581565E+003
  1.2470809E+003
  1.5754793E+003
  1.0797299E+003
  1.0938810E+003
  1.2550047E+003
  9.1650996E+002
  6.8788917E+002
  5.2025864E+002
  4.6228890E+002
  6.3908103E+002
 -2.5719779E+001
 -8.8621549E+002
  2.6570776E+003
  3.4608419E+002
  4.7727817E+002
  4.0068738E+002
  4.0327054E+002
  3.7849098E+002
  3.7998023E+002
  3.9366217E+002
  4.1387287E+002
  4.3345537E+002
  4.4915221E+002
  4.5985915E+002
  4.6605287E+002
  4.6905582E+002
  4.7070597E+002
  4.7325569E+002
  4.7945402E+002
  4.9270592E+002
  5.1722414E+002
  5.5793642E+002
  6.2037986E+002
  7.0918892E+002
  8.2958923E+002
  9.7877751E+002
  1.1816284E+003
  1.0926963E+003
  3.1429365E+002
  2.5348271E+003
  1.1989917E+003
  9.3262936E+002
  6.0331602E+002
  4.0177196E+002
  2.6726507E+002
  3.3614729E+002
 -6.4579646E+002
  5.2778192E+002
  3.9059178E+002
  4.9322184E+002
  3.9391308E+002
  3.7452611E+002
  3.8477834E+002
  4.1605083E+002
  4.4934491E+002
  4.7707733E+002
  4.9600656E+002
  5.0623361E+002
  5.0921819E+002
  5.0696004E+002
  5.0160665E+002
  4.9545888E+002
  4.9119779E+002
  4.9223421E+002
  5.0303171E+002
  5.2925748E+002
  5.7700164E+002
  6.5211196E+002
  7.5402512E+002
  8.7714446E+002
  1.0042706E+003
  1.4906423E+003
 -2.4003618E+002
  2.6326834E+003
  1.4188298E+003
  8.7844225E+002
  5.2047432E+002
  2.3122446E+002
  1.0973923E+002
 -1.4919247E+001
 -1.1045251E+003
  1.0656327E+002
  8.1010171E+002
  4.7259669E+002
  3.6640430E+002
  3.4797085E+002
  3.9142130E+002
  4.4694340E+002
  4.9605918E+002
  5.3087144E+002
  5.5092390E+002
  5.5841068E+002
  5.5630571E+002
  5.4735566E+002
  5.3386515E+002
  5.1789128E+002
  5.0165740E+002
  4.8813968E+002
  4.8165745E+002
  4.8854037E+002
  5.1624498E+002
  5.7308160E+002
  6.5714579E+002
  7.7990686E+002
  8.1603019E+002
  1.2494198E+003
 -3.1091527E+002
  4.9880023E+002
  1.7523839E+003
  1.3446030E+003
  8.2571892E+002
  4.0984182E+002
  3.9620056E+001
 -3.2655272E+002
  1.1488407E+002
 -8.0784247E+002
  1.4124407E+003
  7.3646526E+002
  3.3263590E+002
  2.5503900E+002
  3.1145251E+002
  4.0842701E+002
  4.9555935E+002
  5.5898088E+002
  5.9710591E+002
  6.1416450E+002
  6.1560726E+002
  6.0619311E+002
  5.8925546E+002
  5.6693749E+002
  5.4064705E+002
  5.1166913E+002
  4.8189204E+002
  4.5488943E+002
  4.3689214E+002
  4.3832210E+002
  4.7045559E+002
  5.4236331E+002
  6.3633039E+002
  7.1929354E+002
  1.7133443E+002
  3.1051371E+003
  1.6474795E+003
  1.2479688E+003
  6.9560240E+002
  2.5662916E+002
 -9.8367127E+001
 -7.6240114E+002
  2.6065577E+003
  1.2921432E+002
  7.4323725E+001
  1.1122579E+002
  3.0341269E+002
  4.5619617E+002
  5.7188194E+002
  6.4200523E+002
  6.7594427E+002
  6.8381367E+002
  6.7527923E+002
  6.5645506E+002
  6.3078868E+002
  5.9973562E+002
  5.6364940E+002
  5.2239981E+002
  4.7614837E+002
  4.2647050E+002
  3.7877411E+002
  3.4428974E+002
  3.4421310E+002
  4.0386934E+002
  5.1610814E+002
  8.3671452E+002
 -6.5043611E+001
  3.5957063E+003
  1.6065483E+003
  1.0194477E+003
  5.1070366E+002
  5.4277314E+001
 -3.1928855E+002
 -7.4990983E+002
  5.3964855E+002
  2.4930398E+002
 -1.8143787E+002
  1.0108847E+002
  3.4680800E+002
  5.5236252E+002
  6.8034919E+002
  7.4539105E+002
  7.6320422E+002
  7.5493228E+002
  7.3271053E+002
  7.0336458E+002
  6.6920078E+002
  6.3050664E+002
  5.8630105E+002
  5.3484902E+002
  4.7400611E+002
  4.0249838E+002
  3.2125740E+002
  2.4317853E+002
  1.8738101E+002
  2.2464663E+002
  3.2134026E+002
  4.5430072E+002
 -7.3721060E+002
  2.0049325E+003
  1.6825417E+003
  1.4773638E+003
  8.1606842E+002
  3.4437997E+002
 -1.3603432E+002
 -4.6516330E+002
 -2.7078832E+002
 -4.4313152E+002
 -4.9567363E+002
 -5.5128947E+002
  1.0453769E+002
  4.5019087E+002
  6.8959847E+002
  8.2300766E+002
  8.5988771E+002
  8.5000272E+002
  8.1857945E+002
  7.8165793E+002
  7.4239104E+002
  7.0121064E+002
  6.5683765E+002
  6.0711044E+002
  5.4883570E+002
  4.7788036E+002
  3.8860211E+002
  2.7812169E+002
  1.4183875E+002
  3.1305942E+001
 -4.9749640E+001
  3.5193320E+002
 -1.1458080E+000
  3.2530561E+003
  1.7031971E+003
  1.1471506E+003
  6.5225608E+002
  1.8719720E+002
 -2.9182331E+002
 -1.1562635E+003
  1.5648136E+002
 -3.6359805E+002
  1.3375673E+002
  5.4358756E+002
  8.9010775E+002
  9.8033526E+002
  9.7387011E+002
  9.1734323E+002
  8.6496981E+002
  8.1578228E+002
  7.6953349E+002
  7.2367649E+002
  6.7592964E+002
  6.2338410E+002
  5.6219898E+002
  4.8666504E+002
  3.8887954E+002
  2.5601190E+002
  7.9371443E+001
 -1.6303410E+002
 -3.1315752E+002
 -3.2942499E+002
  7.4040187E+002
  1.3957391E+003
  1.5421968E+003
  1.2790791E+003
  8.4539770E+002
  4.4198611E+002
  9.8723887E+000
 -3.3174802E+002
 -1.3034452E+003
 -6.3671245E+001
 -9.2613460E+001
  8.7621833E+002
  1.1055603E+003
  1.1725397E+003
  1.0332537E+003
  9.5204940E+002
  8.8611835E+002
  8.3225633E+002
  7.8261430E+002
  7.3453985E+002
  6.8507055E+002
  6.3149424E+002
  5.7008120E+002
  4.9529529E+002
  3.9695834E+002
  2.6205884E+002
  5.3139208E+001
 -2.3701098E+002
 -8.3278210E+002
 -8.8385201E+002
  1.2552354E+003
  1.2192419E+003
  1.2641949E+003
  1.3127445E+003
  1.0511831E+003
  6.4287819E+002
  2.3239318E+002
 -1.2408319E+002
 -4.9316401E+002
 -3.0570530E+002
 -6.6685296E+001
  7.4844937E+002
  1.6505380E+003
  1.1735730E+003
  1.0348565E+003
  9.4657410E+002
  8.8676419E+002
  8.3228756E+002
  7.8267120E+002
  7.3342455E+002
  6.8236174E+002
  6.2751159E+002
  5.6632957E+002
  4.9354928E+002
  4.0167403E+002
  2.6953306E+002
  8.5933821E+001
 -2.8562699E+002
 -7.3042082E+002
 -2.5662797E+003
  1.1293244E+003
  1.1168440E+003
  1.1156723E+003
  1.0708865E+003
  9.5989537E+002
  7.4874941E+002
  4.2731447E+002
  6.5095065E+001
 -2.8109892E+002
 -5.0233326E+002
 -1.5043993E+002
 -1.4474228E+003
  3.6768993E+003
  1.5308822E+003
  1.0613776E+003
  9.9614538E+002
  9.3494742E+002
  8.7438867E+002
  8.2245657E+002
  7.7329461E+002
  7.2203522E+002
  6.6717835E+002
  6.0855564E+002
  5.4502380E+002
  4.7256109E+002
  3.8334347E+002
  2.6152008E+002
  8.2283858E+001
 -2.3568953E+002
 -8.3478509E+002
 -3.2449121E+003
  8.8481552E+002
  1.2188921E+003
  1.0088509E+003
  9.9074572E+002
  8.8873267E+002
  7.3971434E+002
  5.1640227E+002
  2.2823468E+002
 -1.2438799E+002
 -4.7597323E+002
 -3.9759858E+002
  4.5430531E+003
  8.2720353E+002
  1.1254918E+003
  1.0109649E+003
  9.2949627E+002
  8.5705884E+002
  8.1033463E+002
  7.6056535E+002
  7.0363423E+002
  6.4026845E+002
  5.7347552E+002
  5.0364874E+002
  4.2722531E+002
  3.3562577E+002
  2.1388072E+002
  3.7725661E+001
 -2.4431052E+002
 -7.1700894E+002
 -1.2247411E+003
 -2.0492578E+002
 -4.8062098E+001
  1.1600711E+001
 -1.2243004E+002
  1.9864803E+002
  1.3383941E+002
  9.4187154E+002
  9.3838093E+002
  8.6430529E+002
  6.9864590E+002
  5.0089810E+002
  3.0562381E+002
  3.0125052E+001
 -3.5777256E+002
 -4.6398451E+002
 -5.9531941E+002
  7.2098834E+002
  1.3289317E+003
  1.0464656E+003
  8.9024851E+002
  8.4266404E+002
  8.0553837E+002
  7.5202892E+002
  6.8170514E+002
  6.0292532E+002
  5.2275675E+002
  4.4362820E+002
  3.6091931E+002
  2.6456913E+002
  1.3860406E+002
 -3.7188295E+001
 -2.9544832E+002
 -6.4608850E+002
 -8.6596923E+002
 -5.2442199E+002
  4.0238481E+001
  4.7679310E+002
  7.7778958E+002
  8.2340054E+002
  7.2484774E+002
  5.3296283E+002
  2.3480267E+002
  1.3622040E+002
 -1.8660650E+002
 -4.0892742E+002
  2.5973581E+003
  1.2255034E+003
  8.8206490E+002
  8.3005315E+002
  8.5060495E+002
  8.2384216E+002
  7.5457925E+002
  6.5802409E+002
  5.5483154E+002
  4.5739973E+002
  3.6864852E+002
  2.8360317E+002
  1.8651604E+002
  6.2626097E+001
 -9.6755347E+001
 -2.8760247E+002
 -4.3683635E+002
 -3.9946286E+002
 -1.9053002E+002
  7.8190439E+001
  4.0234159E+002
  6.2571806E+002
  6.4465865E+002
  4.8265449E+002
  2.4503540E+002
 -7.4670470E+001
  1.0098281E+002
 -2.8550529E+002
  3.1192838E+003
  6.6269934E+002
  7.1379092E+002
  8.2699994E+002
  9.2246960E+002
  8.8112294E+002
  7.6489878E+002
  6.2700886E+002
  4.9376966E+002
  3.7640430E+002
  2.8325712E+002
  2.0523072E+002
  1.2441121E+002
  1.4357229E+001
 -1.2114032E+002
 -2.3281043E+002
 -2.8378718E+002
 -1.6786638E+002
  1.2905499E+002
  2.5239170E+002
  2.1035890E+002
  5.1112087E+002
  2.4339414E+002
  4.5557022E+002
  1.1887273E+002
 -5.6204535E+001
  1.0387389E+003
  2.7642872E+002
  5.5151351E+002
  1.0374419E+003
  1.0998101E+003
  9.5859523E+002
  7.6881419E+002
  5.7949433E+002
  4.1347822E+002
  2.8041391E+002
  1.8394343E+002
  1.3607173E+002
  8.7982860E+001
 -8.0475699E+000
 -1.1810530E+002
 -1.6774652E+002
 -1.0394938E+002
 -4.7082406E+001
  3.5392279E+002
  6.6781744E+001
  9.2942844E+001
  8.2918237E+002
  3.7310534E+001
  2.2196391E+002
 -6.9411716E+002
  9.1105504E+002
  1.3509524E+003
  1.3035908E+003
  1.0187101E+003
  6.8612535E+002
  4.8598527E+002
  3.2729530E+002
  1.7131594E+002
  7.2441523E+001
  6.1276538E+001
  1.3113818E+002
  8.4799173E+001
 -1.1573978E+002
 -1.9482849E+002
  1.2419410E+002
 -9.0044190E+001
  1.2401266E+003
  2.1300569E+002
 -2.5941942E+002
  4.3301978E+002
 -3.8506849E+002
  8.3043126E+002
  2.1681413E+003
  1.7228599E+003
  7.1357764E+002
  5.6604614E+002
  4.3351723E+002
  2.0115861E+002
  7.6064575E+001
 -2.6238886E+001
 -6.6308313E+001
  1.7982637E+002
 -1.1433996E+000
 -3.9172711E+001
 -1.1523895E+002
  7.5695150E+002
 -3.9518066E+002
  5.5639973E+002
 -9.9773886E+002
  2.0067131E+003
  3.5585286E+003
  4.0767597E+002
  2.1830245E+002
  3.4765685E+002
  1.6616528E+002
  1.0439293E+002
  1.8394852E+001
 -1.8208428E+001
 -6.0723665E+001
  6.0972606E+002
  1.1350522E+002
 -1.8502512E+001
 -3.5980814E+002
  3.4167950E+002
  5.4492501E+003
  4.3296847E+003
  5.6536974E+002
 -8.4224037E+001
  7.1654989E+002
  1.5285629E+002
  7.1367545E+000
 -2.0437002E+001
 -5.0848609E+001
 -3.1713380E+002
  1.9978462E+002
 -2.4496260E+003
 -1.2255494E+003
 -6.5304583E+002
  1.3303236E+002
SCALARS Stress_yy double
LOOKUP_TABLE default
 -2.9799444E+003
  1.5612247E+004
  8.4275513E+003
  1.9250966E+003
  8.3717239E+003
  7.2288548E+003
  8.3680679E+003
  7.2807466E+003
  8.4459897E+003
  1.9536164E+003
  1.5108088E+004
 -2.6882872E+003
 -6.9259901E+001
  1.2747168E+002
  4.4930940E+002
  1.3673909E+002
  1.1150777E+003
  6.4448897E+002
  1.7533174E+003
  1.6248280E+003
  2.5634476E+003
  2.7276543E+003
  3.4854622E+003
  3.9851165E+003
  4.5190383E+003
  5.3627922E+003
  5.6390506E+003
  6.8844680E+003
  6.8793658E+003
  8.4766125E+003
  8.0710713E+003
  1.0496049E+004
  9.7031552E+003
  1.1969639E+004
  9.1836711E+003
  1.8389966E+004
  9.8968918E+003
  9.3910822E+003
  9.1169972E+003
  9.2098165E+003
  9.6037387E+003
  9.8649764E+003
  9.4239738E+003
  1.5848657E+004
  9.5753075E+003
  3.0650309E+003
  1.3264958E+004
 -9.2204255E+002
  6.8066422E+002
  6.9535314E+002
  1.1087309E+003
  1.5799688E+003
  2.1526528E+003
  2.8078382E+003
  3.5388702E+003
  4.3322236E+003
  5.1379363E+003
  5.9617571E+003
  6.3966045E+003
  6.9514896E+003
  7.1534624E+003
  7.6482008E+003
  8.1418922E+003
  8.4223805E+003
  8.4965047E+003
  8.6116380E+003
  9.1891960E+003
  8.8316806E+003
  8.5494487E+003
  5.4069720E+003
  7.5884204E+003
  6.2879280E+003
 -3.7044114E+002
  3.5569254E+002
 -1.7266900E+002
  2.3886848E+002
  5.1546817E+002
  8.9346708E+002
  1.1897629E+003
  1.5505421E+003
  1.9599376E+003
  2.4168005E+003
  2.9002129E+003
  3.3915350E+003
  3.8146919E+003
  4.2199891E+003
  4.5580312E+003
  5.1323004E+003
  5.7688990E+003
  6.4057616E+003
  6.8927425E+003
  7.2417117E+003
  7.6239442E+003
  7.9838122E+003
  8.3776345E+003
  8.4096513E+003
  8.9230320E+003
  3.5987480E+003
 -1.2595495E+003
  3.0370475E+003
  2.0615999E+002
  1.7953044E+002
  5.0715062E+002
  5.1192219E+002
  6.5709449E+002
  8.1496872E+002
  1.0117021E+003
  1.2292804E+003
  1.4619952E+003
  1.6967038E+003
  1.9436836E+003
  2.2168452E+003
  2.6109331E+003
  3.1220909E+003
  3.7722166E+003
  4.4524570E+003
  5.0817567E+003
  5.6550333E+003
  6.2368937E+003
  6.8682399E+003
  7.6843117E+003
  8.5681341E+003
  1.1075676E+004
  1.3070275E+004
  2.9046441E+004
  1.2585913E+003
  3.7937494E+002
  2.1546825E+002
  3.9977288E+001
  1.3007951E+001
  4.3322477E+000
  1.0665741E+001
  1.7940633E+001
  3.0277292E+001
  6.1436053E+001
  1.3558808E+002
  2.9858182E+002
  5.8761490E+002
  1.0415072E+003
  1.6286483E+003
  2.2974530E+003
  2.9899637E+003
  3.6841472E+003
  4.3992242E+003
  5.1802087E+003
  6.1200840E+003
  7.2913215E+003
  8.9975621E+003
  9.3144561E+003
  1.0983360E+004
  1.0150262E+004
  1.5661670E+004
  2.1535527E+004
 -3.4331149E+003
  5.7431183E+002
 -5.0447660E+002
 -2.0617206E+002
 -3.3680977E+002
 -4.1159741E+002
 -5.4960186E+002
 -6.8727701E+002
 -8.2690622E+002
 -9.9376053E+002
 -1.1841010E+003
 -1.3800281E+003
 -1.5521895E+003
 -1.6613735E+003
 -1.6639041E+003
 -1.5157795E+003
 -1.1983145E+003
 -7.1734332E+002
 -1.1266121E+002
  5.6684858E+002
  1.2828611E+003
  2.0196718E+003
  2.7814669E+003
  3.5707850E+003
  4.3522475E+003
  4.8351095E+003
  4.9433986E+003
  5.7921889E+003
  6.6913026E+003
  7.2251272E+003
  6.6966052E+003
  1.0540756E+004
  1.2350898E+004
 -1.6704573E+003
  1.7045586E+002
 -3.2546521E+002
 -7.3052801E+002
 -9.8347903E+002
 -1.1503466E+003
 -1.3492552E+003
 -1.6150226E+003
 -1.9556774E+003
 -2.3505392E+003
 -2.7639025E+003
 -3.1556163E+003
 -3.4824085E+003
 -3.6975306E+003
 -3.7578693E+003
 -3.6321450E+003
 -3.3169020E+003
 -2.8379096E+003
 -2.2457241E+003
 -1.5967942E+003
 -9.3599257E+002
 -3.0531435E+002
  2.5347431E+002
  6.3425328E+002
  7.5717423E+002
  7.9479503E+002
  1.0040066E+003
  1.3105979E+003
  2.3725458E+003
  2.8876703E+003
  2.9748386E+003
  2.5377189E+003
  5.9086804E+003
  4.4754446E+003
 -6.3075601E+002
  3.2359905E+001
 -3.7889064E+002
 -1.9241109E+002
 -6.9794693E+002
 -1.0556762E+003
 -1.3595466E+003
 -1.5886178E+003
 -1.8724260E+003
 -2.2931548E+003
 -2.8409485E+003
 -3.4623397E+003
 -4.1082648E+003
 -4.7391748E+003
 -5.3161582E+003
 -5.7959219E+003
 -6.1299128E+003
 -6.2737939E+003
 -6.2015153E+003
 -5.9270736E+003
 -5.5039970E+003
 -5.0064238E+003
 -4.5048292E+003
 -4.0251631E+003
 -3.6446697E+003
 -3.4041030E+003
 -3.3283958E+003
 -3.3256786E+003
 -3.2283309E+003
 -2.8414037E+003
 -2.2623221E+003
 -1.5840742E+003
 -6.7982368E+002
 -1.2502308E+002
 -6.4592662E+001
 -8.9075764E+001
  1.7617104E+003
 -4.3154344E+002
 -5.5077763E+000
  2.9566235E+002
 -2.3868070E+002
 -3.9056106E+002
 -9.7742214E+002
 -1.4129017E+003
 -1.7297147E+003
 -2.1603805E+003
 -2.8371262E+003
 -3.6503440E+003
 -4.5155816E+003
 -5.3956919E+003
 -6.2689421E+003
 -7.1148241E+003
 -7.9023542E+003
 -8.5839123E+003
 -9.0941754E+003
 -9.3763440E+003
 -9.4127034E+003
 -9.2669837E+003
 -9.0398408E+003
 -8.7608972E+003
 -8.4924576E+003
 -8.1336418E+003
 -7.8342427E+003
 -7.6139925E+003
 -7.4554671E+003
 -7.2290816E+003
 -6.7672371E+003
 -5.9864875E+003
 -4.9588610E+003
 -3.8635841E+003
 -2.8509087E+003
 -1.9712458E+003
 -1.4355692E+003
 -1.2263864E+003
 -1.0377109E+003
 -5.7753485E+002
 -1.0666836E+003
 -2.1236893E+002
  1.3817642E+003
  1.2691390E+002
 -4.4063116E+002
 -1.0329411E+003
 -1.3634988E+003
 -2.2481514E+003
 -3.3391059E+003
 -4.4409043E+003
 -5.5268546E+003
 -6.6030931E+003
 -7.6864358E+003
 -8.7869880E+003
 -9.9005576E+003
 -1.0995210E+004
 -1.1998849E+004
 -1.2790481E+004
 -1.3309929E+004
 -1.3603273E+004
 -1.3816884E+004
 -1.4072267E+004
 -1.3937008E+004
 -1.3629213E+004
 -1.2912351E+004
 -1.2220293E+004
 -1.1664306E+004
 -1.1081163E+004
 -1.0303916E+004
 -9.1525579E+003
 -7.6731862E+003
 -6.0770880E+003
 -4.6140895E+003
 -3.4404177E+003
 -2.5529697E+003
 -1.9430763E+003
 -1.6109612E+003
 -1.3385425E+003
 -1.4583743E+003
 -8.0579115E+002
  1.4736473E+003
  4.1364924E+003
  7.5464149E+002
 -8.1410515E+002
 -2.5577812E+003
 -4.0231779E+003
 -5.3197900E+003
 -6.5189284E+003
 -7.6967107E+003
 -8.9084170E+003
 -1.0198971E+004
 -1.1600920E+004
 -1.3129120E+004
 -1.4743928E+004
 -1.6311342E+004
 -1.7549952E+004
 -1.8545773E+004
 -1.9663984E+004
 -2.0489428E+004
 -2.1373222E+004
 -2.0368347E+004
 -1.9058683E+004
 -1.7438905E+004
 -1.6003474E+004
 -1.4842400E+004
 -1.3428997E+004
 -1.1625570E+004
 -9.4824650E+003
 -7.3322088E+003
 -5.5144250E+003
 -4.1391424E+003
 -3.1699159E+003
 -2.5122004E+003
 -2.0347286E+003
 -1.6968038E+003
 -1.1642986E+003
 -1.3301389E+003
 -1.1356316E+003
  9.1114403E+002
 -1.0450905E+003
 -1.3683452E+003
 -3.8005808E+003
 -5.1141256E+003
 -6.3696581E+003
 -7.4869858E+003
 -8.6238327E+003
 -9.8355352E+003
 -1.1191078E+004
 -1.2758997E+004
 -1.4613090E+004
 -1.6838457E+004
 -1.9421506E+004
 -2.2069679E+004
 -2.4107329E+004
 -2.6557537E+004
 -3.0477851E+004
 -3.0769065E+004
 -3.0880670E+004
 -2.6972879E+004
 -2.3154803E+004
 -2.0505508E+004
 -1.7826253E+004
 -1.5751208E+004
 -1.3101776E+004
 -9.9648698E+003
 -7.2405784E+003
 -5.3244198E+003
 -4.0949513E+003
 -3.3000780E+003
 -2.7601941E+003
 -2.3671658E+003
 -1.9946561E+003
 -1.6754798E+003
 -6.7637955E+002
  8.5813717E+001
 -9.8835729E+002
  1.9449600E+003
 -2.2457245E+003
 -4.9566834E+003
 -5.7699566E+003
 -6.7007361E+003
 -7.5128770E+003
 -8.3754365E+003
 -9.3104993E+003
 -1.0374401E+004
 -1.1623705E+004
 -1.3137614E+004
 -1.5037195E+004
 -1.7503430E+004
 -2.0849985E+004
 -2.5585958E+004
 -3.0277813E+004
 -3.7008087E+004
 -3.9049341E+004
 -4.9298073E+004
 -4.0907990E+004
 -3.8287842E+004
 -3.1494891E+004
 -2.4596120E+004
 -2.0363198E+004
 -1.7065055E+004
 -1.2507723E+004
 -8.1015773E+003
 -5.3104803E+003
 -3.9808810E+003
 -3.3459321E+003
 -2.9959602E+003
 -2.7605883E+003
 -2.5865420E+003
 -2.3786705E+003
 -2.3462191E+003
 -1.8974030E+003
 -3.1521267E+003
 -1.7644653E+004
 -9.4103104E+003
 -9.0247618E+003
 -8.1828463E+003
 -8.3070035E+003
 -8.5776268E+003
 -9.0597579E+003
 -9.6851940E+003
 -1.0470075E+004
 -1.1434054E+004
 -1.2641623E+004
 -1.4131080E+004
 -1.6241315E+004
 -1.8629120E+004
 -2.4482828E+004
 -2.8634860E+004
 -6.3066702E+004
 -7.1978264E+004
 -4.9181565E+004
 -7.3634117E+004
 -6.9543003E+004
 -2.9121955E+004
 -2.7677628E+004
 -1.7534371E+004
 -1.5124525E+004
 -6.9732031E+003
 -2.3233717E+003
 -1.5893237E+003
 -1.8668426E+003
 -2.2026891E+003
 -2.4437839E+003
 -2.5902914E+003
 -2.6683468E+003
 -2.7341687E+003
 -2.6709491E+003
 -2.5498968E+003
 -8.5871295E+002
  2.0729243E+002
 -1.3758829E+003
 -6.3047023E+003
 -2.4006758E+003
 -2.5443832E+003
 -1.5340428E+004
 -6.1502998E+003
 -2.0858007E+004
 -6.6162335E+003
 -1.3001997E+003
 -7.7591198E+003
 -1.4395800E+002
  2.2048679E+003
 -1.8211971E+004
 -1.2528848E+004
 -2.9513412E+003
 -1.2138689E+004
 -1.8798719E+004
 -1.2454366E+004
 -1.1866694E+004
 -1.0927260E+004
 -9.9104501E+003
 -9.4550060E+003
 -9.3167687E+003
 -9.4226124E+003
 -9.7042507E+003
 -1.0132602E+004
 -1.0689546E+004
 -1.1375481E+004
 -1.2151516E+004
 -1.3091775E+004
 -1.3634525E+004
 -1.4697271E+004
 -6.7308687E+003
  4.2463276E+003
  1.4175799E+004
 -2.9257735E+004
 -7.0054297E+004
 -1.8632804E+004
  4.4035251E+002
  1.1850416E+004
  5.3824334E+003
  2.1326208E+003
  3.0515725E+001
 -1.1424994E+003
 -1.8712713E+003
 -2.3276119E+003
 -2.6411004E+003
 -2.9020657E+003
 -3.0570120E+003
 -3.4191596E+003
 -3.7487579E+003
 -5.8766171E+003
  3.8635526E+003
  3.1621303E+002
  2.8468430E+002
 -1.1185648E+003
 -2.8764345E+003
 -4.1999247E+003
 -4.7097154E+003
 -4.4919802E+003
 -5.6048584E+003
 -4.4880547E+003
 -1.1681883E+002
 -6.0262562E+003
  1.3098165E+003
  4.6458800E+003
 -2.4930315E+004
 -1.4002753E+004
 -9.4825168E+003
 -1.5129850E+004
 -1.3514206E+004
 -1.3138811E+004
 -1.1958101E+004
 -1.1561008E+004
 -1.1174098E+004
 -1.0519680E+004
 -9.9456198E+003
 -9.5845845E+003
 -9.4088877E+003
 -9.3771571E+003
 -9.4433555E+003
 -9.5625026E+003
 -9.6654516E+003
 -9.6827316E+003
 -9.3182792E+003
 -8.5820640E+003
 -5.2339371E+003
 -3.2210537E+003
 -4.1793309E+002
  7.1486411E+004
  1.1312205E+005
  8.0230341E+004
  1.8813778E+004
  6.3157850E+003
  3.2603427E+003
  7.3188265E+002
 -5.1951862E+002
 -1.4185310E+003
 -2.0039900E+003
 -2.4741927E+003
 -2.8894646E+003
 -3.3123134E+003
 -3.6229128E+003
 -3.6280800E+003
 -2.6094218E+003
 -3.3475705E+003
 -3.2659331E+003
  2.7252411E+003
  5.0949964E+002
 -1.8050351E+001
 -1.4888441E+003
 -2.8544944E+003
 -4.0221885E+003
 -5.0247299E+003
 -5.7719104E+003
 -6.6008749E+003
 -6.7469001E+003
 -6.9422640E+003
 -8.0623786E+003
 -4.2034020E+003
 -8.0404598E+003
 -5.1714215E+002
 -1.5110478E+004
  3.8783858E+003
  8.9722326E+003
 -4.0652313E+004
 -2.0054344E+004
 -1.2181392E+004
 -1.9718321E+004
 -1.6898015E+004
 -1.5473793E+004
 -1.3820399E+004
 -1.2759333E+004
 -1.1951972E+004
 -1.1338371E+004
 -1.0865245E+004
 -1.0372251E+004
 -9.8502941E+003
 -9.3979018E+003
 -9.0433545E+003
 -8.7670685E+003
 -8.5277151E+003
 -8.2654261E+003
 -7.8995223E+003
 -7.2976582E+003
 -6.3076405E+003
 -4.5882090E+003
 -2.3564584E+003
 -9.5084244E+002
  1.0829098E+003
 -7.0410020E+003
 -1.6488180E+002
  1.6380430E+003
  6.9573656E+002
 -1.0722621E+002
 -9.3904623E+002
 -1.5525892E+003
 -2.1100232E+003
 -2.7015185E+003
 -3.2738010E+003
 -3.8012380E+003
 -4.1342708E+003
 -4.7866138E+003
 -2.0588498E+003
  2.0639235E+003
 -3.5220197E+003
  1.1746906E+003
 -7.7078890E+002
 -3.3959819E+002
 -2.9129611E+002
 -4.7316874E+002
 -1.3544419E+003
 -2.5956321E+003
 -3.9602893E+003
 -5.2665988E+003
 -6.4148264E+003
 -7.3865970E+003
 -8.5112102E+003
 -9.8104717E+003
 -1.1592268E+004
 -1.3669721E+004
 -1.4734123E+004
 -2.1229707E+004
 -1.7191647E+004
 -1.8458083E+004
 -1.7911468E+004
 -2.0163951E+004
 -1.8968059E+004
 -2.1258557E+004
 -1.9905411E+004
 -2.2589553E+004
 -2.0824081E+004
 -2.3786490E+004
 -2.1681524E+004
 -2.4912239E+004
 -2.2498273E+004
 -2.5970382E+004
 -2.3290315E+004
 -2.6998557E+004
 -2.4073821E+004
 -2.8017389E+004
 -2.4867435E+004
 -2.9013038E+004
 -2.5658660E+004
 -3.0041046E+004
 -2.6599089E+004
 -3.0953789E+004
 -2.7364124E+004
 -3.2757709E+004
 -2.9405201E+004
 -3.3260709E+004
 -2.6245675E+004
 -4.7015302E+004
 -2.5722514E+004
 -2.2545540E+004
 -1.9275786E+004
 -1.6476284E+004
 -1.4879663E+004
 -1.3447567E+004
 -1.2341113E+004
 -1.1490658E+004
 -1.0851091E+004
 -1.0332227E+004
 -9.8411290E+003
 -9.3483836E+003
 -8.8643862E+003
 -8.4069388E+003
 -7.9668883E+003
 -7.5110913E+003
 -6.9877049E+003
 -6.3225232E+003
 -5.4351940E+003
 -4.2053670E+003
 -2.7138397E+003
 -9.8015566E+002
  1.9526825E+002
  1.8658828E+003
  1.5961929E+003
  1.0681786E+003
  4.3072304E+002
 -2.7146935E+002
 -7.7504818E+002
 -1.5542998E+003
 -2.3134640E+003
 -3.0404918E+003
 -3.8834563E+003
 -4.7493263E+003
 -6.8592750E+003
 -8.7479740E+003
 -2.0964257E+004
  3.9824004E+002
 -3.2041197E+002
 -5.1755282E+002
 -9.3168498E+002
 -1.7284106E+003
 -2.9673921E+003
 -4.4151514E+003
 -5.8476716E+003
 -7.1363773E+003
 -8.3168975E+003
 -9.4463205E+003
 -1.0676177E+004
 -1.1690978E+004
 -1.2651864E+004
 -1.3912400E+004
 -1.4871050E+004
 -1.6005299E+004
 -1.6807564E+004
 -1.7561829E+004
 -1.8225972E+004
 -1.8826363E+004
 -1.9380572E+004
 -1.9924677E+004
 -2.0473908E+004
 -2.1023390E+004
 -2.1567953E+004
 -2.2005080E+004
 -2.2394808E+004
 -2.1709052E+004
 -2.1102022E+004
 -1.9406049E+004
 -1.8029570E+004
 -1.6730609E+004
 -1.5036939E+004
 -1.3574359E+004
 -1.2415108E+004
 -1.1448377E+004
 -1.0683336E+004
 -1.0072244E+004
 -9.5546930E+003
 -9.0744459E+003
 -8.5935086E+003
 -8.1017680E+003
 -7.5962478E+003
 -7.0674929E+003
 -6.4921607E+003
 -5.8342334E+003
 -5.0520794E+003
 -4.1059572E+003
 -3.0038333E+003
 -1.8195219E+003
 -7.7207799E+002
 -2.0133101E+002
  1.0013120E+002
  7.0453900E+002
  1.0750448E+003
  2.3201900E+003
  4.2353072E+003
  1.4428424E+003
  8.3851317E+001
 -9.6040854E+002
 -1.7245487E+003
 -2.5680782E+003
 -3.4689525E+003
 -4.5575838E+003
 -6.0250093E+003
 -6.9533485E+003
 -8.1523561E+003
 -7.7035500E+003
 -1.9263350E+004
 -8.8240082E+003
 -8.9011785E+003
 -6.0319416E+003
 -7.1354820E+003
 -4.6165178E+003
 -4.8329648E+003
 -3.2472218E+003
 -3.3203905E+003
 -2.2221368E+003
 -2.0443910E+003
 -1.4121821E+003
 -1.0950480E+003
 -8.2129744E+002
 -4.3207274E+002
 -4.0376808E+002
 -3.9162677E+001
 -1.2074241E+002
  4.2284767E+001
  1.5655741E+002
 -1.5736418E+001
  4.2857607E+002
 -5.1719247E+002
 -7.0027716E+002
 -1.4435867E+003
 -2.4090269E+003
 -3.8185489E+003
 -5.3674142E+003
 -6.8265785E+003
 -8.0826529E+003
 -9.1498787E+003
 -1.0090209E+004
 -1.0870002E+004
 -1.1527015E+004
 -1.2110424E+004
 -1.2658279E+004
 -1.3385715E+004
 -1.4053639E+004
 -1.4696047E+004
 -1.5222938E+004
 -1.5644736E+004
 -1.5962877E+004
 -1.6232287E+004
 -1.6487989E+004
 -1.6770458E+004
 -1.7060318E+004
 -1.7288107E+004
 -1.7398271E+004
 -1.7161504E+004
 -1.6656756E+004
 -1.5695504E+004
 -1.4997518E+004
 -1.4285788E+004
 -1.3519406E+004
 -1.2658956E+004
 -1.1737990E+004
 -1.0896288E+004
 -1.0174119E+004
 -9.5598689E+003
 -9.0385865E+003
 -8.5755880E+003
 -8.1322894E+003
 -7.6807088E+003
 -7.2041485E+003
 -6.6935721E+003
 -6.1393571E+003
 -5.5275238E+003
 -4.8410295E+003
 -4.0660523E+003
 -3.2076249E+003
 -2.3063550E+003
 -1.4616330E+003
 -8.2569618E+002
 -4.5238891E+002
 -2.3886694E+002
 -1.7003336E+002
 -3.2592948E+002
  9.0201998E+002
 -1.1222273E+003
 -9.9779502E+001
  3.8968680E+002
 -2.1385278E+002
 -1.0132322E+003
 -1.8358175E+003
 -2.6048134E+003
 -3.3687260E+003
 -3.9487104E+003
 -4.1520735E+003
 -4.4396568E+003
 -5.0168596E+003
 -4.8423392E+003
 -4.5532168E+003
 -3.5320219E+003
 -2.6610734E+003
 -1.8785418E+003
 -1.2561358E+003
 -7.8005370E+002
 -4.3248233E+002
 -2.0653759E+002
 -6.3281031E+001
 -3.8647528E+000
  2.7739593E+002
  4.7945379E+001
  9.6425718E+001
  8.5619330E+001
  3.4743151E+001
  5.5888313E+002
 -7.7417670E+002
 -1.3919518E+003
 -2.1165728E+003
 -3.5397707E+003
 -5.3212659E+003
 -7.0105520E+003
 -8.3175033E+003
 -9.3077993E+003
 -1.0054256E+004
 -1.0607527E+004
 -1.1005028E+004
 -1.1265313E+004
 -1.1458073E+004
 -1.1682750E+004
 -1.1944779E+004
 -1.2291353E+004
 -1.2657060E+004
 -1.2979429E+004
 -1.3178158E+004
 -1.3223600E+004
 -1.3145923E+004
 -1.3110687E+004
 -1.3105114E+004
 -1.3113098E+004
 -1.3101062E+004
 -1.2929462E+004
 -1.2607592E+004
 -1.2098591E+004
 -1.1620445E+004
 -1.1139505E+004
 -1.0771040E+004
 -1.0430633E+004
 -1.0025428E+004
 -9.5648661E+003
 -9.0847168E+003
 -8.6264349E+003
 -8.2062615E+003
 -7.8185497E+003
 -7.4474200E+003
 -7.0720506E+003
 -6.6733641E+003
 -6.2382429E+003
 -5.7582099E+003
 -5.2271588E+003
 -4.6400194E+003
 -3.9946431E+003
 -3.2976974E+003
 -2.5732470E+003
 -1.8712912E+003
 -1.2689868E+003
 -8.2723045E+002
 -5.6851525E+002
 -3.2641492E+002
 -4.0439790E+001
  7.1913890E+002
  2.1488510E+003
  4.5360623E+003
  1.4161357E+003
  6.2453340E+002
 -3.5858104E+002
 -9.2669126E+002
 -1.4897777E+003
 -1.9248700E+003
 -2.1547319E+003
 -2.2135772E+003
 -2.2963372E+003
 -2.4373546E+003
 -2.7087290E+003
 -2.5748648E+003
 -2.2362918E+003
 -1.7233295E+003
 -1.2376356E+003
 -8.2224763E+002
 -5.0682599E+002
 -2.9225283E+002
 -1.6570432E+002
 -9.9899954E+001
 -5.4083340E+001
 -3.3912566E+001
 -1.6442271E+001
 -1.7952156E+001
  6.1026536E+001
 -2.5125914E+003
 -1.2525412E+003
 -1.8503963E+003
 -3.2488244E+003
 -5.6237437E+003
 -8.1687040E+003
 -9.5804563E+003
 -1.0393816E+004
 -1.0840830E+004
 -1.1077803E+004
 -1.1160398E+004
 -1.1116663E+004
 -1.0982826E+004
 -1.0806832E+004
 -1.0639667E+004
 -1.0539109E+004
 -1.0517116E+004
 -1.0603347E+004
 -1.0770571E+004
 -1.0777962E+004
 -1.0523446E+004
 -1.0230737E+004
 -9.7794130E+003
 -9.4391805E+003
 -9.1336736E+003
 -8.7795523E+003
 -8.5101530E+003
 -8.1829408E+003
 -7.9234669E+003
 -7.6929886E+003
 -7.5714395E+003
 -7.4940427E+003
 -7.4539356E+003
 -7.4043364E+003
 -7.2979547E+003
 -7.1367821E+003
 -6.9401299E+003
 -6.7222743E+003
 -6.4877404E+003
 -6.2323023E+003
 -5.9470398E+003
 -5.6225460E+003
 -5.2514448E+003
 -4.8294584E+003
 -4.3553531E+003
 -3.8314052E+003
 -3.2652980E+003
 -2.6735942E+003
 -2.0856090E+003
 -1.5444026E+003
 -1.0971934E+003
 -7.7799413E+002
 -5.7489286E+002
 -4.3774639E+002
 -3.9789290E+002
 -2.3229765E+002
 -3.6225917E+002
  3.1233089E+002
 -8.4434814E+002
  3.8813433E+002
  9.5066385E+002
  4.2375342E+002
  6.2162212E+001
 -3.1356334E+002
 -6.3379034E+002
 -7.9289026E+002
 -8.1431751E+002
 -8.2561501E+002
 -9.1675332E+002
 -9.9016529E+002
 -1.0201071E+003
 -8.9444316E+002
 -6.7901149E+002
 -4.3080916E+002
 -2.1988557E+002
 -7.8628363E+001
 -1.6401181E+001
 -1.6678308E+001
 -4.2025143E+001
 -6.3935516E+001
 -5.2960036E+001
 -3.3340169E+001
  1.6302184E+001
  1.9942644E+003
  5.5993065E+003
 -2.9984188E+003
 -5.2227387E+003
 -1.1464259E+004
 -1.2881492E+004
 -1.3189398E+004
 -1.2924943E+004
 -1.2572610E+004
 -1.2167614E+004
 -1.1715082E+004
 -1.1211427E+004
 -1.0671193E+004
 -1.0120417E+004
 -9.5913746E+003
 -9.1074501E+003
 -8.7032844E+003
 -8.3952647E+003
 -8.3357722E+003
 -8.4715983E+003
 -8.3047413E+003
 -7.3960095E+003
 -6.8939963E+003
 -6.0378418E+003
 -4.9430407E+003
 -4.5267397E+003
 -3.8545141E+003
 -3.6931862E+003
 -3.5877210E+003
 -3.9331316E+003
 -4.1305690E+003
 -4.3324688E+003
 -4.6306525E+003
 -4.8990501E+003
 -5.0832726E+003
 -5.1918070E+003
 -5.2285076E+003
 -5.2024695E+003
 -5.1221398E+003
 -4.9904783E+003
 -4.8071698E+003
 -4.5705297E+003
 -4.2790893E+003
 -3.9331956E+003
 -3.5362228E+003
 -3.0955935E+003
 -2.6241004E+003
 -2.1413541E+003
 -1.6743902E+003
 -1.2550226E+003
 -9.1348904E+002
 -6.6600558E+002
 -5.1469637E+002
 -4.5242868E+002
 -3.8565929E+002
 -1.9651293E+002
 -3.5797172E+001
  3.1564270E+003
  2.5821897E+003
  1.4671336E+003
  1.4764319E+003
  1.2627733E+003
  7.6450209E+002
  3.9670452E+002
  2.5793865E+002
  2.6229387E+002
  3.2293953E+002
  3.5397117E+002
  3.2456274E+002
  2.9639179E+002
  2.9730175E+002
  3.4388476E+002
  4.0509795E+002
  4.4122450E+002
  4.1684794E+002
  3.2193674E+002
  1.8107793E+002
  3.9804528E+001
 -4.3517700E+001
 -6.2350071E+001
 -4.0773856E+001
  1.3864767E+001
  1.4759697E+004
 -8.6067208E+003
 -2.0924731E+004
 -2.1634750E+004
 -1.9322172E+004
 -1.7146928E+004
 -1.5472479E+004
 -1.4218827E+004
 -1.3157538E+004
 -1.2170357E+004
 -1.1221112E+004
 -1.0300653E+004
 -9.4064777E+003
 -8.5405751E+003
 -7.7027378E+003
 -6.9035583E+003
 -6.1017687E+003
 -5.4630784E+003
 -4.5221708E+003
 -5.4369751E+003
 -7.4801786E+003
 -3.8736305E+003
 -2.3557699E+003
 -7.6913966E+002
  1.8799847E+003
  2.9350579E+003
  1.0765832E+003
  1.7678390E+002
 -4.9155020E+001
 -6.1876186E+002
 -1.3320860E+003
 -2.0807113E+003
 -2.5825933E+003
 -3.0189131E+003
 -3.3556544E+003
 -3.5851616E+003
 -3.7269956E+003
 -3.7885792E+003
 -3.7759799E+003
 -3.6960104E+003
 -3.5525133E+003
 -3.3483201E+003
 -3.0874410E+003
 -2.7765721E+003
 -2.4262349E+003
 -2.0512108E+003
 -1.6704975E+003
 -1.3062267E+003
 -9.8094829E+002
 -7.1211519E+002
 -5.0889659E+002
 -3.6616201E+002
 -2.8049199E+002
 -2.8514546E+002
 -1.7786508E+002
 -3.3516090E+002
  3.7413434E+003
  6.6569031E+003
  3.3840180E+003
  2.2709182E+003
  1.4697845E+003
  1.1839216E+003
  1.0553106E+003
  1.1527151E+003
  1.3219375E+003
  1.4480850E+003
  1.4773239E+003
  1.4244530E+003
  1.3401565E+003
  1.2562828E+003
  1.1749163E+003
  1.0671865E+003
  8.9400908E+002
  6.4493516E+002
  3.5438189E+002
  1.1469683E+002
 -4.2939910E+001
 -5.7931362E+001
 -4.1791787E+001
  1.2366939E+001
 -9.6488711E+004
 -7.3193388E+004
 -4.4362393E+004
 -3.2299677E+004
 -2.4539897E+004
 -2.0061024E+004
 -1.7334925E+004
 -1.5438180E+004
 -1.3822317E+004
 -1.2372231E+004
 -1.1052345E+004
 -9.8264730E+003
 -8.6617042E+003
 -7.5319508E+003
 -6.4197859E+003
 -5.2842838E+003
 -4.1445837E+003
 -2.6962921E+003
 -1.4225910E+003
  1.4873544E+003
  4.8983145E+002
  1.9760322E+003
  6.7796185E+003
  6.0680181E+003
  1.8666941E+003
  1.1493433E+003
  1.6139645E+002
 -5.1875035E+002
 -1.2290383E+003
 -1.6943775E+003
 -2.0789804E+003
 -2.3621778E+003
 -2.5398972E+003
 -2.6326715E+003
 -2.6495641E+003
 -2.5969551E+003
 -2.4805518E+003
 -2.3057954E+003
 -2.0814021E+003
 -1.8197615E+003
 -1.5359888E+003
 -1.2470201E+003
 -9.7026115E+002
 -7.2074417E+002
 -5.0911313E+002
 -3.3322336E+002
 -1.9248145E+002
 -1.9783659E+001
  1.2391582E+002
  6.8335450E+002
  2.7545572E+002
 -7.0645694E+002
  7.0548132E+002
  2.2319646E+003
  1.9138362E+003
  1.6931783E+003
  1.7125054E+003
  2.0034456E+003
  2.3531950E+003
  2.5616551E+003
  2.5769104E+003
  2.4391921E+003
  2.2282583E+003
  2.0041607E+003
  1.7894202E+003
  1.5606220E+003
  1.2696925E+003
  8.7742653E+002
  4.6591167E+002
  8.9518331E+001
  2.0503534E+000
 -5.0844698E+001
  2.0992870E+001
  4.9085268E+000
 -1.3225017E+005
 -7.9774054E+004
 -4.3839152E+004
 -3.4026254E+004
 -2.5076420E+004
 -2.0814882E+004
 -1.8142143E+004
 -1.5948768E+004
 -1.3906305E+004
 -1.2148510E+004
 -1.0607042E+004
 -9.2052011E+003
 -7.8855339E+003
 -6.6054720E+003
 -5.3375812E+003
 -4.0500890E+003
 -2.7636372E+003
 -1.3573556E+003
 -6.9849265E+002
  5.1258899E+002
 -9.5033397E+002
  2.7937578E+003
  4.5829813E+003
  1.5649586E+003
  1.0719834E+003
  2.9828428E+002
 -2.3782672E+002
 -7.9326984E+002
 -1.1403818E+003
 -1.4140665E+003
 -1.5956004E+003
 -1.6943261E+003
 -1.7265383E+003
 -1.6932394E+003
 -1.5989511E+003
 -1.4550823E+003
 -1.2752806E+003
 -1.0742917E+003
 -8.6669781E+002
 -6.6598670E+002
 -4.8229781E+002
 -3.2292242E+002
 -1.8065691E+002
 -6.9692624E+001
  1.0247478E+002
  4.9279210E+000
  1.8459258E+002
  2.2570128E+003
  4.7244124E+003
  2.3622181E+003
  2.3167278E+003
  2.0313006E+003
  2.3910607E+003
  3.0964931E+003
  3.6474245E+003
  3.8635789E+003
  3.7176996E+003
  3.3682111E+003
  2.9452136E+003
  2.5306740E+003
  2.1495189E+003
  1.8014511E+003
  1.3752357E+003
  8.1345752E+002
  2.3619625E+002
  1.0446294E+002
  1.5510698E+002
  3.4274129E+002
  6.6980897E+001
  2.3964247E+001
  1.8480391E+003
 -1.9750171E+004
 -2.3209395E+004
 -2.2585691E+004
 -2.0019831E+004
 -1.8111281E+004
 -1.5318924E+004
 -1.3141195E+004
 -1.1360450E+004
 -9.8181587E+003
 -8.4136008E+003
 -7.0812207E+003
 -5.7816341E+003
 -4.4952185E+003
 -3.2170470E+003
 -2.0034304E+003
 -9.1579857E+002
 -4.3858262E+002
  5.7211603E+002
 -7.4113697E+002
  1.9911536E+003
  3.3608006E+003
  1.2204573E+003
  8.7425729E+002
  3.2520139E+002
 -8.0476831E+001
 -4.5556503E+002
 -6.7506088E+002
 -8.5055549E+002
 -9.6245381E+002
 -9.9965416E+002
 -9.7469990E+002
 -9.0084090E+002
 -7.9320026E+002
 -6.6546952E+002
 -5.2969160E+002
 -3.9619492E+002
 -2.7300426E+002
 -1.6425291E+002
 -7.3273788E+001
  6.2799116E+000
  3.8623401E+001
  2.6453346E+001
  6.7328443E+001
 -3.8375093E+002
  1.1818243E+003
  2.1445920E+003
  2.3020787E+003
  3.6921199E+003
  4.8375625E+003
  5.6011199E+003
  5.4721351E+003
  4.9274414E+003
  4.1881025E+003
  3.4377428E+003
  2.7804542E+003
  2.1923705E+003
  1.5946611E+003
  1.1425286E+003
  4.2183613E+002
 -1.8080940E+002
 -5.9532055E+002
  3.1033497E+002
 -1.6684111E+003
 -1.6806271E+004
 -3.5340738E+004
 -1.7613920E+004
 -1.6078367E+004
 -1.2851607E+004
 -1.1440819E+004
 -9.9688009E+003
 -8.7019382E+003
 -7.4673155E+003
 -6.2639630E+003
 -5.0657768E+003
 -3.8747528E+003
 -2.7071946E+003
 -1.6486955E+003
 -7.3775364E+002
 -3.6372625E+002
  4.2676997E+002
 -5.5826049E+002
  1.4947520E+003
  2.6526813E+003
  9.7320497E+002
  7.9436737E+002
  3.7518198E+002
  1.1493899E+002
 -1.5654147E+002
 -3.1711562E+002
 -4.0880653E+002
 -4.3548890E+002
 -4.1970392E+002
 -3.7418517E+002
 -3.1016221E+002
 -2.3756841E+002
 -1.6367281E+002
 -9.4866860E+001
 -3.6971000E+001
  7.6275479E+000
  2.9179197E+001
  3.6011458E+001
  2.9495688E+000
  4.8839110E+001
  2.3863120E+003
  1.2437731E+003
  2.2241159E+003
  4.5810135E+003
  6.0264836E+003
  8.5883187E+003
  8.2837111E+003
  7.3572367E+003
  6.0935302E+003
  4.8161412E+003
  3.6340914E+003
  2.6481456E+003
  1.9559101E+003
  1.0719425E+003
 -3.3957583E+002
 -3.0775324E+003
 -1.4546354E+003
  1.3226444E+003
 -4.3276926E+003
 -9.6666899E+003
 -9.1953577E+003
 -8.9557974E+003
 -8.1979879E+003
 -7.3614143E+003
 -6.4359771E+003
 -5.4654499E+003
 -4.4599950E+003
 -3.4408036E+003
 -2.4332903E+003
 -1.5133935E+003
 -7.0300935E+002
 -3.4779648E+002
  3.7119280E+002
 -4.7314545E+002
  1.4225677E+003
  2.2529899E+003
  8.8153775E+002
  6.8522383E+002
  3.7898807E+002
  1.9556652E+002
  9.1521119E+001
  2.2010400E+001
 -1.2341352E+001
 -1.7641091E+001
 -1.0221159E+001
  7.2883535E+000
  3.0148499E+001
  5.1995985E+001
  6.6703415E+001
  6.8374401E+001
  5.4432479E+001
  3.2452711E+001
  4.3070747E+000
  2.3399719E+001
  3.3257233E+003
  2.9036039E+003
  8.0347534E+003
  1.5472395E+004
  1.3607643E+004
  1.1370540E+004
  9.0250910E+003
  6.9631614E+003
  5.1250015E+003
  3.5066438E+003
  2.0886712E+003
  1.1148034E+003
  7.5338811E+002
  7.0642489E+002
  2.2226934E+003
  9.1338869E+002
 -2.1373110E+003
 -3.6330246E+003
 -6.0485451E+003
 -6.4204461E+003
 -6.3808953E+003
 -5.9848449E+003
 -5.4183131E+003
 -4.7321487E+003
 -3.9710431E+003
 -3.1656684E+003
 -2.3477198E+003
 -1.5505820E+003
 -7.9918393E+002
 -3.7107807E+002
  2.8092084E+002
  2.2737767E+002
  1.0221252E+003
  8.4279208E+002
  7.8454782E+002
  6.6188521E+002
  5.2179403E+002
  3.8870062E+002
  3.3069509E+002
  2.7361149E+002
  2.2932446E+002
  2.0166147E+002
  1.8402981E+002
  1.6920796E+002
  1.5078380E+002
  1.2338212E+002
  8.1791229E+001
  3.5429133E+001
  7.7823437E+000
  1.0115393E+001
  5.4523130E+004
  3.5564712E+004
  2.5925137E+004
  1.7648254E+004
  1.3164266E+004
  9.7437622E+003
  7.1742093E+003
  5.0252162E+003
  3.1255429E+003
  1.4060220E+003
 -3.8928203E+002
 -1.5331064E+003
 -5.8039168E+003
 -2.0966552E+003
 -7.6847044E+002
 -3.1206215E+003
 -2.7185471E+003
 -3.8210983E+003
 -4.4792546E+003
 -4.7792752E+003
 -4.7535601E+003
 -4.5095012E+003
 -4.1106699E+003
 -3.6056166E+003
 -3.0345581E+003
 -2.4137368E+003
 -1.8069440E+003
 -1.0417532E+003
 -5.7328182E+002
  2.0707180E+002
  8.4004632E+001
  1.0196743E+003
  1.9343029E+003
  8.7997865E+002
  8.8807819E+002
  7.0053850E+002
  6.0516919E+002
  4.7973725E+002
  4.0108676E+002
  3.4309992E+002
  2.9771282E+002
  2.5692310E+002
  2.1657454E+002
  1.7312618E+002
  1.2508519E+002
  5.1963277E+001
  1.0059487E+001
 -7.8133360E+001
  5.4031528E+004
  3.4758296E+004
  2.4042782E+004
  1.6397420E+004
  1.2074705E+004
  8.9027354E+003
  6.5008668E+003
  4.5049947E+003
  2.6675574E+003
  1.1368737E+003
 -1.1750673E+003
 -1.6558860E+002
 -1.9805889E+003
 -4.4650995E+002
 -1.0309405E+003
 -2.4816441E+003
 -3.0298556E+003
 -3.5503860E+003
 -3.7590526E+003
 -3.7769677E+003
 -3.6299034E+003
 -3.3668030E+003
 -3.0166225E+003
 -2.6221371E+003
 -2.1469940E+003
 -1.7969323E+003
 -7.4500847E+002
 -2.9946179E+002
 -3.2157361E+002
  1.0542398E+003
  1.7312938E+003
  8.0188444E+002
  7.4162701E+002
  5.7930911E+002
  5.0321594E+002
  4.3400530E+002
  3.7318513E+002
  3.1429939E+002
  2.6120296E+002
  2.0673687E+002
  1.6842237E+002
  1.3019324E+002
  2.2650531E+002
  1.0935947E+002
 -5.2777458E+003
  4.6636357E+003
  1.0649495E+004
  9.9688255E+003
  8.3188223E+003
  6.6101541E+003
  5.0444597E+003
  3.6194119E+003
  2.3177310E+003
  1.1013503E+003
  1.3401328E+002
 -5.9907703E+002
 -2.9974393E+003
  1.5238241E+002
 -6.8276932E+002
 -1.2896188E+003
 -2.1344045E+003
 -2.6576071E+003
 -3.0403289E+003
 -3.2404006E+003
 -3.2991799E+003
 -3.2410233E+003
 -3.0907069E+003
 -2.8776440E+003
 -2.5826383E+003
 -2.3488341E+003
 -1.9006130E+003
 -2.8311040E+003
  8.6908562E+001
  6.2660052E+002
  6.0661344E+002
  6.1655909E+002
  5.5150642E+002
  4.9685888E+002
  4.0628945E+002
  3.4360283E+002
  2.8296242E+002
  2.1272556E+002
  1.6182515E+002
  6.2099234E+001
  3.6475510E+001
 -5.3771324E+003
 -2.3184075E+003
 -3.8998642E+002
  3.0976712E+003
  3.7509233E+003
  3.6880580E+003
  3.1757104E+003
  2.5411645E+003
  1.9041544E+003
  1.3901278E+003
  1.1871244E+003
  1.3634271E+003
  8.1371176E+002
  1.7475103E+003
 -6.3467007E+002
  1.0506478E+002
 -3.8442079E+002
 -8.8442672E+002
 -1.5348702E+003
 -2.1065793E+003
 -2.5597815E+003
 -2.8925754E+003
 -3.1045815E+003
 -3.2104918E+003
 -3.2226220E+003
 -3.1532092E+003
 -2.9698306E+003
 -2.6865127E+003
 -1.6044200E+003
 -8.1321928E+002
  9.4416523E+002
 -1.3964801E+003
  5.9965442E+001
  5.0243529E+002
  9.1394205E+002
  5.3286916E+002
  4.8337372E+002
  4.2984341E+002
  3.5793922E+002
  2.7254048E+002
  1.9295208E+002
  1.1322377E+002
  5.2478110E+001
 -3.8947622E+000
 -1.7761235E+003
 -1.4158405E+004
 -6.8461408E+003
 -6.1929213E+003
 -3.8140310E+003
 -1.6480739E+003
  1.4010605E+002
  9.9483033E+002
  1.3462193E+003
  1.4119267E+003
  1.3836031E+003
  1.4022134E+003
  1.5206157E+003
  1.4608336E+003
  9.1574646E+002
  6.0095528E+001
  3.1627873E+001
 -3.1851299E+002
 -7.1315322E+002
 -1.2391909E+003
 -1.7750082E+003
 -2.2793693E+003
 -2.6965891E+003
 -3.0207187E+003
 -3.2508818E+003
 -3.3924360E+003
 -3.4341192E+003
 -3.3875613E+003
 -3.0727042E+003
 -2.9496928E+003
 -1.1769287E+003
 -8.4635839E+002
 -1.2208495E+002
  1.4906640E+002
  6.9748097E+002
  5.6191039E+002
  2.6970185E+002
  2.1996819E+002
  1.4384657E+002
  8.5428790E+001
  4.8706425E+001
  1.9942240E+001
  3.8184963E+003
 -1.8083743E+004
 -8.4789946E+003
 -8.1836244E+003
 -8.6617930E+003
 -7.2848208E+003
 -6.7045735E+003
 -5.3340288E+003
 -3.7173390E+003
 -2.1617498E+003
 -9.6213435E+002
 -1.5943962E+002
  3.7279327E+002
  7.5615518E+002
  1.0733316E+003
  1.3069980E+003
  1.3682472E+003
  1.2434780E+003
  8.7395812E+002
  8.6924973E+002
  2.0802944E+002
 -8.5324068E+001
 -1.4061925E+002
 -5.3348415E+002
 -1.0456077E+003
 -1.5998109E+003
 -2.1349566E+003
 -2.6096342E+003
 -3.0123135E+003
 -3.3362077E+003
 -3.5783523E+003
 -3.7203788E+003
 -3.7820385E+003
 -3.6577927E+003
 -3.8813695E+003
 -3.4057405E+003
 -6.4779154E+003
 -1.2973243E+002
  2.5058927E+001
  1.4571746E+002
  1.0418347E+002
  3.0973241E+001
  5.0500776E+000
  1.2131242E+003
 -6.7531479E+003
 -4.3644105E+003
 -8.3017338E+002
 -4.9826790E+003
 -3.7548832E+003
 -5.3736279E+003
 -5.0304265E+003
 -6.0742431E+003
 -6.0446016E+003
 -6.7344823E+003
 -6.8598517E+003
 -7.4381877E+003
 -7.6929148E+003
 -8.2668453E+003
 -8.5496548E+003
 -9.1056011E+003
 -9.9405035E+003
 -1.0658133E+004
 -1.0985301E+004
 -9.9117020E+003
 -1.8290891E+004
 -9.9923202E+003
 -9.0265739E+003
 -7.7359000E+003
 -6.8568150E+003
 -6.4363493E+003
 -5.6563496E+003
 -4.5470625E+003
 -3.3172231E+003
 -2.1801910E+003
 -1.2356277E+003
 -4.8721604E+002
  1.0800468E+002
  5.7622011E+002
  9.0650629E+002
  1.0605345E+003
  1.0011804E+003
  7.7780396E+002
  4.6354096E+002
  5.5985588E+002
  3.8128631E+002
  4.5921490E+001
 -4.3053444E+002
 -9.2598205E+002
 -1.5255424E+003
 -2.0701395E+003
 -2.5812600E+003
 -3.0403360E+003
 -3.4375209E+003
 -3.7592012E+003
 -3.9943642E+003
 -4.1063836E+003
 -4.1204297E+003
 -3.7829094E+003
 -3.0523436E+003
 -9.5074893E+002
  1.3743409E+003
 -2.8113101E+003
  8.7542594E+002
 -6.7295900E+003
 -4.8391241E+003
 -9.8915306E+002
 -4.9805713E+003
 -6.5610802E+003
 -5.3050584E+003
 -5.4933721E+003
 -5.6150585E+003
 -5.7864637E+003
 -6.1243404E+003
 -6.5557776E+003
 -7.0420914E+003
 -7.5329890E+003
 -8.0514963E+003
 -8.0965748E+003
 -8.0997784E+003
 -7.5810936E+003
 -7.0738352E+003
 -6.7730482E+003
 -6.3491425E+003
 -5.9738025E+003
 -5.4765713E+003
 -4.7191352E+003
 -3.7912858E+003
 -2.8251885E+003
 -1.9230909E+003
 -1.1331668E+003
 -4.6974025E+002
  6.0772766E+001
  4.4251486E+002
  6.5433136E+002
  6.8977655E+002
  5.7947603E+002
  4.4588337E+002
  1.4084326E+002
 -8.2501440E+001
  4.2741501E+002
  1.4079737E+001
 -4.1070229E+002
 -9.1736197E+002
 -1.4813438E+003
 -2.0186698E+003
 -2.5585074E+003
 -3.0644474E+003
 -3.5224218E+003
 -3.9191041E+003
 -4.2338485E+003
 -4.4311464E+003
 -4.4548498E+003
 -4.1251476E+003
 -3.8044788E+003
 -3.4860016E+003
 -6.2344569E+003
  1.9151257E+003
 -9.6160991E+003
 -5.3535828E+003
 -3.4339259E+003
 -5.8551380E+003
 -5.4904887E+003
 -5.5979501E+003
 -5.4575186E+003
 -5.5866648E+003
 -5.7699629E+003
 -5.8910016E+003
 -6.0562372E+003
 -6.2783597E+003
 -6.5224493E+003
 -6.7452817E+003
 -6.8260962E+003
 -6.7618150E+003
 -6.4474419E+003
 -6.2019036E+003
 -6.0010287E+003
 -5.8299314E+003
 -5.6832272E+003
 -5.4632473E+003
 -5.1092178E+003
 -4.5757023E+003
 -3.8799739E+003
 -3.0986810E+003
 -2.3109130E+003
 -1.5755091E+003
 -9.2945450E+002
 -3.9785067E+002
 -7.1857255E-002
  2.4931053E+002
  3.6161514E+002
  3.5990946E+002
  3.7615527E+002
  3.7294685E+002
  8.5129135E+002
 -5.8639700E+002
 -4.1663978E+002
 -9.0619985E+002
 -1.3220915E+003
 -1.9168849E+003
 -2.4941314E+003
 -3.0420025E+003
 -3.5594651E+003
 -4.0309757E+003
 -4.4409405E+003
 -4.7551027E+003
 -4.9350187E+003
 -4.8676372E+003
 -4.6565936E+003
 -2.5277922E+003
 -1.5069695E+003
  2.6368985E+003
 -2.9873185E+003
  1.4145449E+003
 -9.4377220E+003
 -6.3689447E+003
 -1.2540535E+003
 -6.2628125E+003
 -8.8232826E+003
 -6.3586394E+003
 -6.3379284E+003
 -6.0232350E+003
 -5.7652926E+003
 -5.6531467E+003
 -5.6113613E+003
 -5.6312805E+003
 -5.7033658E+003
 -5.7804598E+003
 -5.8476519E+003
 -5.9219438E+003
 -5.9880391E+003
 -6.0034707E+003
 -5.9365128E+003
 -5.7577580E+003
 -5.5473632E+003
 -5.3323428E+003
 -5.1926694E+003
 -5.1233534E+003
 -5.0525337E+003
 -4.9247823E+003
 -4.6809474E+003
 -4.2914666E+003
 -3.7659975E+003
 -3.1463850E+003
 -2.4893300E+003
 -1.8474750E+003
 -1.2626036E+003
 -7.6553885E+002
 -3.7757767E+002
 -1.0715836E+002
  5.2292519E+001
  1.3496661E+002
  1.6648551E+002
  1.4842667E+002
  1.2766263E+001
 -2.1341911E+002
  4.0295559E+002
  5.5730345E+002
  1.1162623E+003
 -2.0623489E+002
 -1.0275668E+003
 -1.7428956E+003
 -2.3336345E+003
 -2.9389396E+003
 -3.5150082E+003
 -4.0625281E+003
 -4.5768095E+003
 -5.0554000E+003
 -5.4633974E+003
 -5.8720860E+003
 -5.8141181E+003
 -6.6067735E+003
 -2.3508649E+003
 -2.2861477E+003
  1.8007343E+003
 -1.0723760E+004
 -6.8366780E+003
 -1.2721180E+003
 -6.6562147E+003
 -9.1018070E+003
 -6.8697901E+003
 -6.7313954E+003
 -6.5252261E+003
 -6.1177179E+003
 -5.9494672E+003
 -5.9156686E+003
 -5.7677531E+003
 -5.6592407E+003
 -5.5908358E+003
 -5.5631467E+003
 -5.5624200E+003
 -5.5632754E+003
 -5.5546827E+003
 -5.5299425E+003
 -5.4801318E+003
 -5.3898768E+003
 -5.2453221E+003
 -5.0605807E+003
 -4.8607778E+003
 -4.7032882E+003
 -4.6046214E+003
 -4.5524032E+003
 -4.5096804E+003
 -4.4217262E+003
 -4.2447405E+003
 -3.9541665E+003
 -3.5518855E+003
 -3.0634360E+003
 -2.5279290E+003
 -1.9875785E+003
 -1.4801727E+003
 -1.0356087E+003
 -6.7398447E+002
 -4.0355885E+002
 -2.1948142E+002
 -1.0232936E+002
 -4.4062739E+001
  4.4449509E+001
  1.6664214E+002
  6.2397385E+002
 -8.8434712E+002
 -4.6399607E+002
 -8.3653683E+002
 -1.3746242E+003
 -2.0653087E+003
 -2.7325958E+003
 -3.3564705E+003
 -3.9724391E+003
 -4.5848288E+003
 -5.2139007E+003
 -5.8706776E+003
 -6.6388541E+003
 -7.4842366E+003
 -9.2519340E+003
 -1.1188854E+004
 -1.7022961E+004
  1.5407295E+003
 -8.0112630E+003
 -5.0122020E+003
 -9.2828940E+002
 -5.7445819E+003
 -4.2467430E+003
 -6.1825263E+003
 -6.0078803E+003
 -7.3712466E+003
 -7.1546439E+003
 -7.0796222E+003
 -1.1806091E+004
 -7.6568669E+003
 -7.2464673E+003
 -6.9697254E+003
 -6.4897016E+003
 -6.3274886E+003
 -6.1522674E+003
 -5.9396500E+003
 -5.7916210E+003
 -5.6979724E+003
 -5.6230720E+003
 -5.5338995E+003
 -5.4601792E+003
 -5.4019196E+003
 -5.3508260E+003
 -5.2959686E+003
 -5.2265670E+003
 -5.1368629E+003
 -5.0218491E+003
 -4.8776935E+003
 -4.7074316E+003
 -4.5236844E+003
 -4.3536581E+003
 -4.2188612E+003
 -4.1327122E+003
 -4.0845528E+003
 -4.0429129E+003
 -3.9699608E+003
 -3.8312130E+003
 -3.6063539E+003
 -3.2933633E+003
 -2.9073840E+003
 -2.4754219E+003
 -2.0294577E+003
 -1.6005407E+003
 -1.2145602E+003
 -8.8946746E+002
 -6.3339030E+002
 -4.4402231E+002
 -3.1147419E+002
 -2.1518488E+002
 -1.3886208E+002
 -1.4775494E+002
 -8.3075107E+001
 -2.8591910E+002
  2.8639533E+002
  1.1214678E+003
  2.2834176E+003
  1.6671186E+002
 -8.4042283E+002
 -1.7375297E+003
 -2.3862565E+003
 -3.0650621E+003
 -3.7255192E+003
 -4.4034200E+003
 -5.1281735E+003
 -5.9417854E+003
 -6.8761618E+003
 -8.0621508E+003
 -9.3016743E+003
 -9.8435588E+003
 -1.0734497E+004
 -1.1550922E+004
 -1.0476404E+004
  1.4877002E+003
 -7.9005137E+003
 -5.1029652E+003
 -1.0610509E+003
 -6.0409756E+003
 -4.3471682E+003
 -5.6598080E+003
 -8.4728839E+003
 -6.2462084E+003
 -6.2331760E+003
 -6.2701662E+003
 -6.3825905E+003
 -6.4204655E+003
 -6.6113188E+003
 -6.5196591E+003
 -6.5374564E+003
 -6.4126042E+003
 -6.1983271E+003
 -5.9939780E+003
 -5.8445415E+003
 -5.6989818E+003
 -5.5715102E+003
 -5.4833989E+003
 -5.4069722E+003
 -5.3329364E+003
 -5.2556005E+003
 -5.1775752E+003
 -5.0950166E+003
 -5.0012507E+003
 -4.8910476E+003
 -4.7612617E+003
 -4.6115936E+003
 -4.4448844E+003
 -4.2684021E+003
 -4.0955018E+003
 -3.9419498E+003
 -3.8225460E+003
 -3.7407051E+003
 -3.6864569E+003
 -3.6380674E+003
 -3.5675987E+003
 -3.4497515E+003
 -3.2682038E+003
 -3.0192377E+003
 -2.7116544E+003
 -2.3638147E+003
 -1.9992521E+003
 -1.6421935E+003
 -1.3138092E+003
 -1.0294027E+003
 -7.9647673E+002
 -6.1443676E+002
 -4.7382299E+002
 -3.6360931E+002
 -2.7111628E+002
 -1.8905541E+002
 -7.3625588E+001
 -2.2762596E+001
 -1.2247893E+003
 -4.3758542E+002
 -6.2499888E+002
 -1.1830373E+003
 -1.9251595E+003
 -2.6358216E+003
 -3.3019164E+003
 -4.0003926E+003
 -4.7568656E+003
 -5.5964637E+003
 -6.5508603E+003
 -7.5615562E+003
 -8.5877003E+003
 -9.6679906E+003
 -1.2477550E+004
 -1.4379230E+004
 -3.0284718E+004
 -6.2996299E+003
  2.1818901E+003
 -1.1122886E+004
 -6.7700516E+003
 -9.6749428E+002
 -6.5200502E+003
 -7.7198802E+003
 -6.4587645E+003
 -6.4453371E+003
 -6.1868021E+003
 -6.0840643E+003
 -5.9926480E+003
 -6.1044818E+003
 -6.2145338E+003
 -6.1609630E+003
 -6.1004454E+003
 -5.9862925E+003
 -5.9858218E+003
 -5.9595050E+003
 -5.9132847E+003
 -5.7987892E+003
 -5.6598987E+003
 -5.5295058E+003
 -5.4151600E+003
 -5.3173928E+003
 -5.2333836E+003
 -5.1597096E+003
 -5.0852339E+003
 -5.0051116E+003
 -4.9155995E+003
 -4.8137565E+003
 -4.6963569E+003
 -4.5613441E+003
 -4.4092883E+003
 -4.2435605E+003
 -4.0702015E+003
 -3.8977094E+003
 -3.7363219E+003
 -3.5964469E+003
 -3.4848039E+003
 -3.4017529E+003
 -3.3389778E+003
 -3.2805457E+003
 -3.2069392E+003
 -3.0998269E+003
 -2.9466596E+003
 -2.7433694E+003
 -2.4948430E+003
 -2.2133889E+003
 -1.9159468E+003
 -1.6208769E+003
 -1.3449611E+003
 -1.1008784E+003
 -8.9544212E+002
 -7.2790190E+002
 -5.9132228E+002
 -4.6914255E+002
 -3.5285608E+002
 -1.7687450E+002
 -9.1873756E+001
  4.0656563E+001
  1.7388953E+003
  3.5600837E+003
  6.5715765E+002
 -4.5540099E+002
 -1.4403342E+003
 -2.0454851E+003
 -2.7100644E+003
 -3.3851520E+003
 -4.1181163E+003
 -4.9196451E+003
 -5.7798263E+003
 -6.6756344E+003
 -7.6694092E+003
 -8.9200377E+003
 -1.0940371E+004
 -1.3101403E+004
 -1.5700961E+004
 -1.4882035E+004
 -3.1580271E+004
 -1.6922501E+004
 -1.4704403E+004
 -1.3353095E+004
 -1.3510022E+004
 -1.2033476E+004
 -1.1331348E+004
 -1.0935934E+004
 -1.0526919E+004
 -1.0312988E+004
 -1.0229805E+004
 -1.0292142E+004
 -9.9022868E+003
 -9.0877949E+003
 -1.3474897E+004
 -8.9641530E+003
 -8.0030843E+003
 -7.3361569E+003
 -6.7112915E+003
 -6.4491682E+003
 -6.3042393E+003
 -6.0602239E+003
 -5.9684190E+003
 -5.9485100E+003
 -5.9387298E+003
 -5.8806286E+003
 -5.7608450E+003
 -5.6616311E+003
 -5.5763236E+003
 -5.5291998E+003
 -5.4754121E+003
 -5.4007589E+003
 -5.3068065E+003
 -5.2084284E+003
 -5.1158241E+003
 -5.0320604E+003
 -4.9569631E+003
 -4.8851468E+003
 -4.8110510E+003
 -4.7286058E+003
 -4.6334495E+003
 -4.5220731E+003
 -4.3923838E+003
 -4.2445998E+003
 -4.0821182E+003
 -3.9111259E+003
 -3.7394702E+003
 -3.5753271E+003
 -3.4256630E+003
 -3.2957645E+003
 -3.1880897E+003
 -3.1010440E+003
 -3.0281313E+003
 -2.9585682E+003
 -2.8790219E+003
 -2.7766480E+003
 -2.6420227E+003
 -2.4712809E+003
 -2.2668444E+003
 -2.0367545E+003
 -1.7929625E+003
 -1.5491056E+003
 -1.3182426E+003
 -1.1108722E+003
 -9.3324475E+002
 -7.8561608E+002
 -6.6118178E+002
 -5.4351699E+002
 -4.1838696E+002
 -2.5990732E+002
 -1.0474330E+002
  1.8264436E+002
 -1.5526178E+003
 -3.6486818E+002
 -2.6500156E+002
 -7.0998713E+002
 -1.3479700E+003
 -1.9714678E+003
 -2.5934873E+003
 -3.2861462E+003
 -4.0246497E+003
 -4.7895011E+003
 -5.5796126E+003
 -6.4341756E+003
 -7.4397057E+003
 -8.5513683E+003
 -9.3876368E+003
 -1.0379703E+004
 -1.1898245E+004
 -1.1975223E+004
 -1.2029583E+004
 -1.1072373E+004
 -1.0356110E+004
 -9.7643195E+003
 -9.0890050E+003
 -8.6335039E+003
 -7.9943201E+003
 -7.5959694E+003
 -7.1720556E+003
 -6.7409769E+003
 -6.4172037E+003
 -6.1764048E+003
 -5.9960611E+003
 -5.8424582E+003
 -5.7485325E+003
 -5.6713408E+003
 -5.5718903E+003
 -5.4542256E+003
 -5.3325715E+003
 -5.2382120E+003
 -5.1638061E+003
 -5.1002200E+003
 -5.0323228E+003
 -4.9570236E+003
 -4.8782455E+003
 -4.8010721E+003
 -4.7283331E+003
 -4.6592176E+003
 -4.5908701E+003
 -4.5185173E+003
 -4.4372350E+003
 -4.3421917E+003
 -4.2294434E+003
 -4.0967071E+003
 -3.9451437E+003
 -3.7798873E+003
 -3.6098796E+003
 -3.4446299E+003
 -3.2906796E+003
 -3.1521305E+003
 -3.0295684E+003
 -2.9223887E+003
 -2.8283421E+003
 -2.7437060E+003
 -2.6620424E+003
 -2.5750557E+003
 -2.4739384E+003
 -2.3515654E+003
 -2.2042588E+003
 -2.0327183E+003
 -1.8418928E+003
 -1.6399799E+003
 -1.4368947E+003
 -1.2426238E+003
 -1.0657450E+003
 -9.1244388E+002
 -7.8524681E+002
 -6.7955118E+002
 -5.8232949E+002
 -4.6819361E+002
 -3.5157125E+002
 -2.7534376E+002
 -1.2556371E+002
 -2.7807261E+002
 -1.8808065E+001
  2.3594775E+003
  4.8562060E+003
  1.2377028E+003
  1.8197423E+002
 -6.4989453E+002
 -1.0751662E+003
 -1.6910858E+003
 -2.3588799E+003
 -3.0415855E+003
 -3.7171612E+003
 -4.3841709E+003
 -5.0551036E+003
 -5.7285593E+003
 -6.3377410E+003
 -6.9669398E+003
 -7.7437129E+003
 -8.5032966E+003
 -9.4228275E+003
 -9.6759654E+003
 -9.6006918E+003
 -9.2187249E+003
 -8.7543873E+003
 -8.2771910E+003
 -7.7624299E+003
 -7.4027944E+003
 -7.0700836E+003
 -6.7774019E+003
 -6.4809699E+003
 -6.2045877E+003
 -5.9776850E+003
 -5.7845619E+003
 -5.6307136E+003
 -5.5021194E+003
 -5.3865671E+003
 -5.2688248E+003
 -5.1442672E+003
 -5.0248956E+003
 -4.9187708E+003
 -4.8312578E+003
 -4.7558677E+003
 -4.6854643E+003
 -4.6153753E+003
 -4.5451652E+003
 -4.4763408E+003
 -4.4099059E+003
 -4.3454174E+003
 -4.2805947E+003
 -4.2120623E+003
 -4.1356404E+003
 -4.0467854E+003
 -3.9406892E+003
 -3.8139404E+003
 -3.6661615E+003
 -3.5043324E+003
 -3.3393366E+003
 -3.1821781E+003
 -3.0406624E+003
 -2.9119793E+003
 -2.7932843E+003
 -2.6812057E+003
 -2.5758992E+003
 -2.4765398E+003
 -2.3816215E+003
 -2.2865235E+003
 -2.1851397E+003
 -2.0715232E+003
 -1.9417862E+003
 -1.7951840E+003
 -1.6343199E+003
 -1.4645618E+003
 -1.2929319E+003
 -1.1267634E+003
 -9.7269475E+002
 -8.3594063E+002
 -7.2173935E+002
 -6.3351749E+002
 -5.6044768E+002
 -4.7652394E+002
 -3.3395020E+002
 -1.3802528E+002
  1.4720003E+002
  2.5075948E+001
 -2.1490020E+003
 -2.4124763E+002
  4.2429951E+002
  3.7911052E+002
 -9.0355673E+001
 -7.9620372E+002
 -1.4539015E+003
 -2.0871143E+003
 -2.6744621E+003
 -3.2235672E+003
 -3.7380205E+003
 -4.2159506E+003
 -4.6827022E+003
 -5.1860311E+003
 -5.8091715E+003
 -6.5813092E+003
 -7.2453510E+003
 -7.7573805E+003
 -7.9412330E+003
 -7.8829680E+003
 -7.6553140E+003
 -7.3430142E+003
 -7.0350913E+003
 -6.7425189E+003
 -6.5050268E+003
 -6.2858521E+003
 -6.0714851E+003
 -5.8639560E+003
 -5.6703870E+003
 -5.4993372E+003
 -5.3469762E+003
 -5.2112002E+003
 -5.0838661E+003
 -4.9583205E+003
 -4.8337787E+003
 -4.7140440E+003
 -4.6056143E+003
 -4.5103277E+003
 -4.4267034E+003
 -4.3506835E+003
 -4.2789837E+003
 -4.2100479E+003
 -4.1436120E+003
 -4.0796570E+003
 -4.0175218E+003
 -3.9557081E+003
 -3.8918967E+003
 -3.8232127E+003
 -3.7460143E+003
 -3.6555966E+003
 -3.5450283E+003
 -3.4119441E+003
 -3.2588156E+003
 -3.1034073E+003
 -2.9617606E+003
 -2.8299281E+003
 -2.7080543E+003
 -2.5845019E+003
 -2.4597498E+003
 -2.3344565E+003
 -2.2165692E+003
 -2.1073608E+003
 -2.0050279E+003
 -1.9040238E+003
 -1.7982601E+003
 -1.6830404E+003
 -1.5562125E+003
 -1.4185479E+003
 -1.2733587E+003
 -1.1255154E+003
 -9.8023369E+002
 -8.4159877E+002
 -7.1276794E+002
 -5.9486035E+002
 -5.0086782E+002
 -4.4548038E+002
 -3.8369235E+002
 -2.2707462E+002
 -5.9586367E+001
 -2.4019097E+002
  2.7043604E+003
  6.7225303E+003
  2.3314878E+003
  1.7583750E+003
  6.0892268E+002
 -5.3863652E+001
 -7.0579298E+002
 -1.2550839E+003
 -1.7503135E+003
 -2.1950238E+003
 -2.6014581E+003
 -2.9859221E+003
 -3.3777090E+003
 -3.8288935E+003
 -4.3770072E+003
 -4.9952283E+003
 -5.6298879E+003
 -6.1325819E+003
 -6.4541792E+003
 -6.5741245E+003
 -6.5380695E+003
 -6.4060850E+003
 -6.2300228E+003
 -6.0580722E+003
 -5.8959981E+003
 -5.7440440E+003
 -5.5928677E+003
 -5.4404481E+003
 -5.2910348E+003
 -5.1475800E+003
 -5.0125827E+003
 -4.8841757E+003
 -4.7597709E+003
 -4.6370773E+003
 -4.5161064E+003
 -4.3996551E+003
 -4.2908507E+003
 -4.1918034E+003
 -4.1021518E+003
 -4.0201605E+003
 -3.9438327E+003
 -3.8718091E+003
 -3.8034239E+003
 -3.7382825E+003
 -3.6758409E+003
 -3.6151757E+003
 -3.5551189E+003
 -3.4943817E+003
 -3.4317410E+003
 -3.3645110E+003
 -3.2870100E+003
 -3.1816764E+003
 -3.0559954E+003
 -2.9206660E+003
 -2.7865581E+003
 -2.6786140E+003
 -2.5500662E+003
 -2.4056001E+003
 -2.2443513E+003
 -2.0909974E+003
 -1.9494758E+003
 -1.8281914E+003
 -1.7225516E+003
 -1.6253125E+003
 -1.5291277E+003
 -1.4278914E+003
 -1.3180372E+003
 -1.1989884E+003
 -1.0727574E+003
 -9.4297061E+002
 -8.1339766E+002
 -6.8660719E+002
 -5.6038453E+002
 -4.3191823E+002
 -2.8382888E+002
 -1.6550720E+002
 -1.4684517E+002
 -3.2693227E+001
  1.0361685E+002
  5.8263774E+002
  1.3749847E+003
  5.3958879E+002
  1.8003868E+003
  7.9085605E+002
  3.3511641E+002
 -1.8430159E+002
 -6.0459249E+002
 -9.9069721E+002
 -1.3413654E+003
 -1.6716280E+003
 -1.9979972E+003
 -2.3488976E+003
 -2.7550810E+003
 -3.2355745E+003
 -3.7782438E+003
 -4.3216178E+003
 -4.8049739E+003
 -5.1657669E+003
 -5.3865168E+003
 -5.4797061E+003
 -5.4796702E+003
 -5.4262579E+003
 -5.3472343E+003
 -5.2609381E+003
 -5.1701527E+003
 -5.0738080E+003
 -4.9711017E+003
 -4.8632655E+003
 -4.7529507E+003
 -4.6416017E+003
 -4.5298514E+003
 -4.4172714E+003
 -4.3037350E+003
 -4.1902335E+003
 -4.0788046E+003
 -3.9718937E+003
 -3.8711493E+003
 -3.7770997E+003
 -3.6892642E+003
 -3.6067969E+003
 -3.5289764E+003
 -3.4553745E+003
 -3.3857340E+003
 -3.3197416E+003
 -3.2569757E+003
 -3.1970536E+003
 -3.1403638E+003
 -3.0882964E+003
 -3.0448655E+003
 -3.0112632E+003
 -2.9814972E+003
 -2.8929866E+003
 -2.8187612E+003
 -2.7698210E+003
 -2.6261143E+003
 -2.4544298E+003
 -2.2227645E+003
 -2.0191568E+003
 -1.8154459E+003
 -1.6572209E+003
 -1.5333475E+003
 -1.4325397E+003
 -1.3457123E+003
 -1.2633418E+003
 -1.1776315E+003
 -1.0837603E+003
 -9.8039765E+002
 -8.6912737E+002
 -7.5323408E+002
 -6.3648977E+002
 -5.2098724E+002
 -4.0610101E+002
 -2.7296198E+002
 -1.0944865E+002
  2.1148637E+002
  5.5741769E+002
  1.6756072E+003
  6.8294298E+002
  3.5072875E+002
  3.8650939E+002
  5.7871083E+002
  6.4313609E+002
  3.6980652E+002
  1.3044157E+002
 -1.3335648E+002
 -3.9657351E+002
 -6.6191014E+002
 -9.3030420E+002
 -1.2133620E+003
 -1.5286824E+003
 -1.8948098E+003
 -2.3191253E+003
 -2.7874946E+003
 -3.2668827E+003
 -3.7084616E+003
 -4.0739615E+003
 -4.3415019E+003
 -4.5123662E+003
 -4.6035823E+003
 -4.6383071E+003
 -4.6384331E+003
 -4.6174666E+003
 -4.5824333E+003
 -4.5353912E+003
 -4.4771013E+003
 -4.4087001E+003
 -4.3316177E+003
 -4.2473421E+003
 -4.1568281E+003
 -4.0608400E+003
 -3.9602991E+003
 -3.8566563E+003
 -3.7518950E+003
 -3.6480811E+003
 -3.5469099E+003
 -3.4493714E+003
 -3.3558350E+003
 -3.2663252E+003
 -3.1808192E+003
 -3.0993836E+003
 -3.0221119E+003
 -2.9489773E+003
 -2.8796863E+003
 -2.8140527E+003
 -2.7524901E+003
 -2.6986609E+003
 -2.6597815E+003
 -2.6549321E+003
 -2.7160021E+003
 -2.8220781E+003
 -2.9533010E+003
 -2.8432975E+003
 -2.8196121E+003
 -2.3995726E+003
 -2.0186972E+003
 -1.6880132E+003
 -1.4703159E+003
 -1.3257957E+003
 -1.2156859E+003
 -1.1325365E+003
 -1.0650645E+003
 -1.0026785E+003
 -9.3538818E+002
 -8.5754872E+002
 -7.6798714E+002
 -6.6879835E+002
 -5.6367581E+002
 -4.5743411E+002
 -3.5344789E+002
 -2.5992367E+002
 -1.5982202E+002
 -7.5214665E+001
  2.3027261E+002
  1.4485709E+001
  2.4808615E+002
  1.2052899E+002
 -9.5092034E+001
  9.2505420E+001
  2.0443962E+002
  3.3200702E+002
  3.1726358E+002
  2.1977121E+002
  6.0637345E+001
 -1.3175155E+002
 -3.4994445E+002
 -5.9557507E+002
 -8.7743253E+002
 -1.2041390E+003
 -1.5771869E+003
 -1.9854918E+003
 -2.4042287E+003
 -2.8030040E+003
 -3.1528079E+003
 -3.4358716E+003
 -3.6476622E+003
 -3.7951488E+003
 -3.8915837E+003
 -3.9506472E+003
 -3.9833379E+003
 -3.9962471E+003
 -3.9927520E+003
 -3.9744482E+003
 -3.9423543E+003
 -3.8974704E+003
 -3.8407621E+003
 -3.7732171E+003
 -3.6958891E+003
 -3.6101041E+003
 -3.5175673E+003
 -3.4202773E+003
 -3.3202781E+003
 -3.2193463E+003
 -3.1188261E+003
 -3.0196392E+003
 -2.9224489E+003
 -2.8278372E+003
 -2.7363865E+003
 -2.6486262E+003
 -2.5647206E+003
 -2.4843564E+003
 -2.4059119E+003
 -2.3295977E+003
 -2.2516437E+003
 -2.1928844E+003
 -2.1185293E+003
 -2.2385236E+003
 -2.1380397E+003
 -3.9455004E+003
 -4.3088288E+003
 -3.1953407E+003
 -2.4000070E+003
 -1.2422958E+003
 -1.2279783E+003
 -1.0408056E+003
 -9.5742380E+002
 -8.7773796E+002
 -8.2552680E+002
 -7.8850655E+002
 -7.5230199E+002
 -7.0607592E+002
 -6.4431045E+002
 -5.6708480E+002
 -4.7804639E+002
 -3.8170914E+002
 -2.8242641E+002
 -1.8790281E+002
 -1.0466957E+002
 -6.5947910E+001
 -6.4217905E+001
 -1.4851632E+002
 -2.2121360E+001
 -8.5590056E+001
 -1.2634457E+002
 -2.0789158E+002
 -3.1735269E+002
  5.0357870E+001
  3.8500118E+002
  5.2454335E+002
  5.1236099E+002
  4.2095758E+002
  2.7694918E+002
  9.6729316E+001
 -1.1682430E+002
 -3.6619299E+002
 -6.5454093E+002
 -9.8038815E+002
 -1.3343990E+003
 -1.6996339E+003
 -2.0544526E+003
 -2.3785880E+003
 -2.6575207E+003
 -2.8851596E+003
 -3.0631478E+003
 -3.1981700E+003
 -3.2987259E+003
 -3.3723400E+003
 -3.4244244E+003
 -3.4581372E+003
 -3.4750510E+003
 -3.4758924E+003
 -3.4610656E+003
 -3.4309860E+003
 -3.3862544E+003
 -3.3278193E+003
 -3.2570654E+003
 -3.1758027E+003
 -3.0861197E+003
 -2.9901351E+003
 -2.8897628E+003
 -2.7865793E+003
 -2.6818447E+003
 -2.5766295E+003
 -2.4719542E+003
 -2.3688292E+003
 -2.2681362E+003
 -2.1704252E+003
 -2.0748421E+003
 -1.9792317E+003
 -1.8766025E+003
 -1.7665572E+003
 -1.6326846E+003
 -1.5039477E+003
 -1.2780353E+003
 -9.1481041E+002
  1.7399789E+002
  6.7118356E+002
 -2.8975340E+002
 -7.7521045E+002
 -5.3681988E+002
 -5.7734484E+002
 -5.3067379E+002
 -5.2964513E+002
 -5.2339573E+002
 -5.1814248E+002
 -4.9484477E+002
 -4.4832685E+002
 -3.8226526E+002
 -3.0310135E+002
 -2.1542025E+002
 -1.2228156E+002
 -2.6358961E+001
  5.7092628E+001
  1.1977144E+002
  7.1015433E+001
 -1.9595080E+002
 -1.8242522E+002
 -8.7107536E+002
 -1.9143782E+003
 -3.7180196E+002
 -3.2377146E+002
  4.3826344E+002
  7.0826193E+002
  7.8656780E+002
  7.8042993E+002
  7.0433474E+002
  5.8437740E+002
  4.2950804E+002
  2.4337758E+002
  2.5239599E+001
 -2.2563071E+002
 -5.0692626E+002
 -8.1136015E+002
 -1.1266910E+003
 -1.4379384E+003
 -1.7304196E+003
 -1.9929289E+003
 -2.2194141E+003
 -2.4090360E+003
 -2.5648053E+003
 -2.6915715E+003
 -2.7942470E+003
 -2.8766098E+003
 -2.9409298E+003
 -2.9881260E+003
 -3.0182060E+003
 -3.0307645E+003
 -3.0254166E+003
 -3.0021547E+003
 -2.9615793E+003
 -2.9049855E+003
 -2.8342735E+003
 -2.7516993E+003
 -2.6595575E+003
 -2.5599075E+003
 -2.4544490E+003
 -2.3445693E+003
 -2.2315070E+003
 -2.1165098E+003
 -2.0008781E+003
 -1.8857374E+003
 -1.7716476E+003
 -1.6588336E+003
 -1.5422081E+003
 -1.4167103E+003
 -1.2576300E+003
 -1.0796351E+003
 -8.1754541E+002
 -5.0118600E+002
 -4.1061346E+002
  1.0061935E+002
 -9.9416652E+001
 -2.0533271E+002
 -2.4679757E+002
 -2.4974954E+002
 -2.8698157E+002
 -3.0899888E+002
 -3.0529573E+002
 -2.7114228E+002
 -2.1554673E+002
 -1.4947585E+002
 -7.5610587E+001
  9.0110172E+000
  1.0350946E+002
  2.1640831E+002
  3.0710098E+002
  4.9130821E+002
  5.7818794E+002
  1.7505793E+003
  5.6129747E+002
  1.5122324E+003
  4.0976504E+003
  1.4623497E+003
  1.3275136E+003
  1.0738230E+003
  1.0625983E+003
  9.9321182E+002
  9.0937591E+002
  7.9652241E+002
  6.6021111E+002
  4.9896541E+002
  3.1172743E+002
  9.7880667E+001
 -1.4057239E+002
 -3.9818815E+002
 -6.6627271E+002
 -9.3419134E+002
 -1.1914235E+003
 -1.4294803E+003
 -1.6431681E+003
 -1.8308014E+003
 -1.9935022E+003
 -2.1339776E+003
 -2.2552209E+003
 -2.3595419E+003
 -2.4480518E+003
 -2.5206162E+003
 -2.5761480E+003
 -2.6130973E+003
 -2.6300142E+003
 -2.6260574E+003
 -2.6013515E+003
 -2.5571000E+003
 -2.4954071E+003
 -2.4188802E+003
 -2.3301363E+003
 -2.2314089E+003
 -2.1244011E+003
 -2.0103997E+003
 -1.8905393E+003
 -1.7660621E+003
 -1.6383854E+003
 -1.5089131E+003
 -1.3779167E+003
 -1.2440105E+003
 -1.1102082E+003
 -9.5253782E+002
 -7.7076843E+002
 -5.1084153E+002
 -2.2814832E+002
 -1.2184649E+002
 -1.0263257E+001
 -2.9383783E+001
 -4.0043746E+001
 -5.3718457E+001
 -5.1256265E+001
 -1.0402348E+002
 -1.2955374E+002
 -1.0728201E+002
 -6.5179208E+001
 -2.2829841E+001
  2.6234682E+001
  9.1573201E+001
  1.7526736E+002
  2.9194933E+002
  4.0800633E+002
  6.4305870E+002
  2.4897377E+002
  4.1822547E+002
  9.5444512E+002
  4.9153372E+002
  1.5784583E+003
  1.2159240E+003
  1.2162139E+003
  1.1047661E+003
  1.0173667E+003
  9.1210661E+002
  7.9512551E+002
  6.6004212E+002
  5.0488984E+002
  3.2839735E+002
  1.3188200E+002
 -8.0767098E+001
 -3.0332927E+002
 -5.2825229E+002
 -7.4797705E+002
 -9.5626060E+002
 -1.1490581E+003
 -1.3247659E+003
 -1.4838219E+003
 -1.6278607E+003
 -1.7587201E+003
 -1.8775659E+003
 -1.9843429E+003
 -2.0776343E+003
 -2.1549199E+003
 -2.2131512E+003
 -2.2494841E+003
 -2.2620236E+003
 -2.2503552E+003
 -2.2157026E+003
 -2.1606674E+003
 -2.0885496E+003
 -2.0025539E+003
 -1.9051655E+003
 -1.7979446E+003
 -1.6817917E+003
 -1.5574631E+003
 -1.4259436E+003
 -1.2886077E+003
 -1.1470290E+003
 -1.0027239E+003
 -8.5053033E+002
 -6.8110592E+002
 -5.3112795E+002
 -2.9954372E+002
 -2.8470793E+001
  1.1595582E+002
 -5.9263245E+001
  2.0665669E+002
  1.7456365E+002
  6.2993637E+001
  4.0137025E+001
  6.4053449E+001
  6.7480377E+001
  6.4279958E+001
  8.0098516E+001
  1.1355716E+002
  1.6773169E+002
  2.4966638E+002
  3.4446084E+002
  4.9668036E+002
  2.1670773E+002
  3.2742456E+002
  2.7815789E+002
  5.8187275E+002
  9.5261396E+002
  1.2505472E+003
  1.1552421E+003
  1.0963154E+003
  1.0133252E+003
  9.3179996E+002
  8.4026296E+002
  7.3600152E+002
  6.1532322E+002
  4.7704567E+002
  3.2192042E+002
  1.5282325E+002
 -2.5700633E+001
 -2.0817290E+002
 -3.8915692E+002
 -5.6418955E+002
 -7.3043732E+002
 -8.8689992E+002
 -1.0341235E+003
 -1.1735136E+003
 -1.3064328E+003
 -1.4333236E+003
 -1.5530859E+003
 -1.6628838E+003
 -1.7584538E+003
 -1.8348366E+003
 -1.8874346E+003
 -1.9130375E+003
 -1.9106516E+003
 -1.8818115E+003
 -1.8300745E+003
 -1.7600334E+003
 -1.6759438E+003
 -1.5806667E+003
 -1.4754288E+003
 -1.3603900E+003
 -1.2355213E+003
 -1.1014602E+003
 -9.5940958E+002
 -8.1120644E+002
 -6.5813286E+002
 -5.0954721E+002
 -3.1779942E+002
 -6.0473021E+001
  3.9188294E+002
  2.0326059E+002
  2.7826881E+002
  7.1824696E+002
  3.2174365E+002
  2.2664719E+002
  1.3645304E+002
  9.9929543E+001
  7.8647028E+001
  7.7652116E+001
  8.7880358E+001
  1.1259848E+002
  1.2005479E+002
  2.0462354E+002
  2.6893751E+002
  1.1304259E+003
  5.9326722E+002
  3.4383468E+002
  1.1150098E+003
  9.5337497E+002
  9.9881424E+002
  9.4639514E+002
  9.1018895E+002
  8.6213923E+002
  8.0659903E+002
  7.3794468E+002
  6.5435558E+002
  5.5484507E+002
  4.4029951E+002
  3.1311288E+002
  1.7687958E+002
  3.5766514E+001
 -1.0622711E+002
 -2.4599385E+002
 -3.8183731E+002
 -5.1364266E+002
 -6.4261827E+002
 -7.7062103E+002
 -8.9918906E+002
 -1.0285086E+003
 -1.1566218E+003
 -1.2791653E+003
 -1.3897703E+003
 -1.4811579E+003
 -1.5464655E+003
 -1.5809197E+003
 -1.5830065E+003
 -1.5548165E+003
 -1.5017416E+003
 -1.4305225E+003
 -1.3471867E+003
 -1.2552715E+003
 -1.1552720E+003
 -1.0459056E+003
 -9.2629190E+002
 -7.9665662E+002
 -6.5803569E+002
 -5.1298641E+002
 -3.5921145E+002
 -2.1526579E+002
 -1.0051986E+002
 -8.6122445E+001
 -1.4149228E+002
  1.0882649E+002
  8.2008297E+001
  2.2005268E+002
  1.1303041E+002
  6.9054710E+001
  2.5909409E+001
 -1.2908949E+000
 -2.5581188E+001
 -6.5548686E+001
 -1.2610290E+002
 -2.5322961E+002
 -4.3094375E+002
 -2.7283838E+002
 -7.2914697E+002
  2.5210200E+002
  2.5630374E+003
  9.3112232E+002
  7.6517387E+002
  6.5262090E+002
  6.9132388E+002
  7.1088986E+002
  7.2441974E+002
  7.2407524E+002
  7.0993600E+002
  6.8036988E+002
  6.3477232E+002
  5.7338167E+002
  4.9759260E+002
  4.0984973E+002
  3.1336184E+002
  2.1160560E+002
  1.0771057E+002
  3.8415059E+000
 -9.9275140E+001
 -2.0253141E+002
 -3.0819545E+002
 -4.1918004E+002
 -5.3786156E+002
 -6.6470081E+002
 -7.9709889E+002
 -9.2898913E+002
 -1.0515137E+003
 -1.1543450E+003
 -1.2281460E+003
 -1.2661660E+003
 -1.2662377E+003
 -1.2320760E+003
 -1.1713696E+003
 -1.0944696E+003
 -1.0103672E+003
 -9.2344379E+002
 -8.3306013E+002
 -7.3584875E+002
 -6.2851218E+002
 -5.1193304E+002
 -3.8946320E+002
 -2.6035575E+002
 -1.3320750E+002
  3.1603987E+001
  1.4387795E+002
  5.3960976E+002
  2.6795543E+002
  3.8815292E-001
  4.8347592E+001
  4.3705342E+001
  2.8103294E+001
 -2.5461281E+001
 -6.4471850E+001
 -9.9534522E+001
 -1.3695001E+002
 -1.8856216E+002
 -2.9047528E+002
 -4.3567598E+002
 -5.1643399E+002
 -2.3929925E+002
 -2.2391232E+002
 -3.1040328E+002
  3.4161376E+002
  5.3111541E+001
  4.8101232E+002
 -6.7930308E+001
 -1.8390896E+002
  5.1883737E+001
  2.2659542E+002
  3.2931294E+002
  4.2593362E+002
  4.9520046E+002
  5.4369010E+002
  5.7153813E+002
  5.8024635E+002
  5.7083802E+002
  5.4484534E+002
  5.0440170E+002
  4.5229917E+002
  3.9176967E+002
  3.2608001E+002
  2.5798217E+002
  1.8911742E+002
  1.1950320E+002
  4.7266404E+001
 -3.1191280E+001
 -1.2040031E+002
 -2.2433665E+002
 -3.4439414E+002
 -4.7754142E+002
 -6.1564134E+002
 -7.4636323E+002
 -8.5639568E+002
 -9.3263804E+002
 -9.6685853E+002
 -9.5735014E+002
 -9.0813929E+002
 -8.3219267E+002
 -7.4383676E+002
 -6.5626380E+002
 -5.7637075E+002
 -5.0079363E+002
 -4.2109832E+002
 -3.3538431E+002
 -2.4319633E+002
 -1.5093769E+002
 -5.9648941E+001
  1.4936204E+001
  1.1914084E+002
  3.3274323E+001
  1.0739712E+002
 -1.3029443E+001
 -2.8673050E+001
 -8.5668612E+001
 -1.2327107E+002
 -1.4950834E+002
 -1.7756140E+002
 -2.0025094E+002
 -2.1943861E+002
 -2.4245074E+002
 -2.6641380E+002
 -3.2118918E+002
 -4.3645484E+002
 -2.5734680E+002
 -6.7812718E+002
 -2.0356511E+002
  8.6111587E+001
  2.3959931E+001
 -6.0266333E+001
 -3.4294201E+002
 -4.9236866E+002
 -3.8725160E+002
 -1.8052377E+002
  3.1864057E+000
  1.4684424E+002
  2.6257907E+002
  3.5045766E+002
  4.1408937E+002
  4.5564084E+002
  4.7738915E+002
  4.8168743E+002
  4.7129325E+002
  4.4939784E+002
  4.1948073E+002
  3.8495002E+002
  3.4861004E+002
  3.1202052E+002
  2.7486153E+002
  2.3447689E+002
  1.8584669E+002
  1.2229913E+002
  3.7375563E+001
 -7.2221597E+001
 -2.0326087E+002
 -3.4449537E+002
 -4.7938214E+002
 -5.8819124E+002
 -6.5803850E+002
 -6.7800383E+002
 -6.4525819E+002
 -5.7355946E+002
 -4.7419371E+002
 -3.6844475E+002
 -2.7478440E+002
 -2.0156986E+002
 -1.4453315E+002
 -9.4577033E+001
 -3.4501001E+001
  2.2623593E+001
  6.8398307E+001
  9.6987272E+001
  1.1385330E+002
  8.8553014E+001
  5.0488546E+001
  2.8313221E+001
 -1.4779038E+002
 -2.5375930E+002
 -2.6767834E+002
 -2.7913063E+002
 -2.8719583E+002
 -2.9422334E+002
 -2.9556740E+002
 -2.8487512E+002
 -2.4686451E+002
 -1.8182379E+002
  3.6301741E+000
  1.9377277E+002
  1.0676906E+003
  2.9784872E+002
 -1.0428651E+002
 -4.1662267E+001
 -2.7073376E+002
 -4.7705431E+002
 -5.9826801E+002
 -5.5750742E+002
 -4.1198661E+002
 -2.3867868E+002
 -7.7805287E+001
  5.8761018E+001
  1.7063775E+002
  2.5831636E+002
  3.2364981E+002
  3.6873245E+002
  3.9607547E+002
  4.0863887E+002
  4.0986200E+002
  4.0352151E+002
  3.9339509E+002
  3.8270888E+002
  3.7340355E+002
  3.6530964E+002
  3.5539521E+002
  3.3737697E+002
  3.0216020E+002
  2.3968039E+002
  1.4320076E+002
  1.5240665E+001
 -1.2762995E+002
 -2.5722777E+002
 -3.5510846E+002
 -3.9784456E+002
 -3.8244708E+002
 -3.1944193E+002
 -2.0764525E+002
 -8.8720613E+001
  3.3700566E+001
  1.4243506E+002
  2.1087382E+002
  2.5766947E+002
  3.0038510E+002
  3.0855969E+002
  2.9878960E+002
  2.6887492E+002
  2.2927408E+002
  1.6680637E+002
  1.0222827E+002
  3.8124609E+001
  1.3888264E+001
 -2.3859665E+002
 -4.9459073E+002
 -3.9540736E+002
 -4.3862570E+002
 -4.3807435E+002
 -4.1979391E+002
 -4.1128508E+002
 -4.0097458E+002
 -3.8413817E+002
 -3.5057285E+002
 -2.7153150E+002
 -1.6471440E+002
  1.1993967E+002
  7.7580807E+000
  2.4354188E+002
 -7.6831883E+001
 -1.0941087E+002
 -2.9762653E+002
 -4.7710263E+002
 -5.8842004E+002
 -5.9246046E+002
 -5.0714339E+002
 -3.7429256E+002
 -2.3060046E+002
 -9.5571604E+001
  2.2395048E+001
  1.2064012E+002
  1.9875865E+002
  2.5773338E+002
  2.9943096E+002
  3.2651202E+002
  3.4236586E+002
  3.5097212E+002
  3.5658050E+002
  3.6313989E+002
  3.7342755E+002
  3.8797403E+002
  4.0397226E+002
  4.1434781E+002
  4.0763723E+002
  3.6956730E+002
  2.8781295E+002
  1.6211256E+002
  1.5212143E+001
 -1.1019160E+002
 -1.5364489E+002
 -1.4190973E+002
 -5.7774818E+001
  9.8296082E+001
  2.2691606E+002
  3.5675171E+002
  4.4715308E+002
  5.6130053E+002
  6.6007649E+002
  7.6022511E+002
  7.4401131E+002
  7.4358455E+002
  6.1416850E+002
  4.4470451E+002
  3.0201515E+002
  1.9082426E+002
  1.0227398E+002
  4.0946646E+001
  2.9050196E+000
 -3.3010460E+002
 -3.1974638E+002
 -2.8117313E+002
 -4.1060868E+002
 -5.0909746E+002
 -5.3290324E+002
 -5.2461485E+002
 -5.0411263E+002
 -4.8393393E+002
 -4.6000502E+002
 -4.2020626E+002
 -3.5053843E+002
 -2.1941227E+002
 -1.0344007E+002
 -8.9247112E+000
  3.1118275E+001
 -7.2338111E+001
 -1.0372835E+002
 -2.8529194E+002
 -4.2680155E+002
 -5.2353164E+002
 -5.5243213E+002
 -5.1247663E+002
 -4.2328355E+002
 -3.1059565E+002
 -1.9365357E+002
 -8.4030580E+001
  1.2183115E+001
  9.2229125E+001
  1.5534988E+002
  2.0222713E+002
  2.3473500E+002
  2.5585040E+002
  2.6953532E+002
  2.8046998E+002
  2.9351039E+002
  3.1273040E+002
  3.3988386E+002
  3.7284404E+002
  4.0456240E+002
  4.2155809E+002
  4.0514973E+002
  3.3484681E+002
  2.0269355E+002
  3.8691270E+001
 -6.0214665E+001
 -5.5708953E+001
  1.3511375E+002
  4.1851826E+002
  5.8277841E+002
  8.4226153E+002
  8.5550893E+002
  8.3742416E+002
  8.6154862E+002
  8.4683638E+002
  1.6398480E+003
  1.8647052E+003
  1.4476190E+003
  9.0903337E+002
  3.6139268E+002
  2.7339354E+002
  1.5583598E+002
  8.7981120E+001
  3.3199044E+001
  3.0965375E+000
 -2.9695595E+002
  1.3992088E+002
 -1.7628244E+002
 -3.0472137E+002
 -5.1807015E+002
 -5.7587206E+002
 -6.0152996E+002
 -5.8509331E+002
 -5.5758097E+002
 -5.2882343E+002
 -5.0379110E+002
 -4.7822576E+002
 -4.3359801E+002
 -3.5703059E+002
 -2.2668472E+002
 -1.0038518E+002
 -3.6118966E+001
 -2.0691757E+002
 -9.2384116E+001
 -2.2057179E+002
 -3.0672479E+002
 -4.1118585E+002
 -4.6248476E+002
 -4.5576017E+002
 -4.0508492E+002
 -3.2668375E+002
 -2.3604026E+002
 -1.4467917E+002
 -6.0336563E+001
  1.2284178E+001
  7.0683760E+001
  1.1404671E+002
  1.4307335E+002
  1.5993848E+002
  1.6824754E+002
  1.7288220E+002
  1.7958699E+002
  1.9406783E+002
  2.2021481E+002
  2.5660017E+002
  2.9494252E+002
  3.2274312E+002
  3.1402005E+002
  2.4722423E+002
  1.0547410E+002
 -8.0902907E+001
 -2.6770447E+002
 -2.3843935E+001
  1.9858010E+002
  1.2669771E+003
  1.9571202E+003
  1.6087371E+003
  1.5520071E+003
  1.3506475E+003
  1.0826160E+003
  3.1612072E+002
 -2.6702891E+002
 -1.2790160E+002
  6.9566206E+001
  1.2283472E+002
  9.0802297E+001
  4.7995871E+001
  1.4631284E+001
  4.2975020E+000
 -2.8296287E+002
 -2.4144103E+002
 -7.2598613E+002
 -6.6298833E+002
 -6.8281515E+002
 -6.5052493E+002
 -6.1225528E+002
 -5.6566863E+002
 -5.2240520E+002
 -4.8996512E+002
 -4.7482371E+002
 -4.7149411E+002
 -4.4018592E+002
 -3.5212429E+002
 -1.5336010E+002
 -7.8627862E+001
  1.4723940E+002
  3.5047127E+002
  1.6097954E+001
 -1.4527721E+002
 -2.7253891E+002
 -3.2969755E+002
 -3.4950506E+002
 -3.3152771E+002
 -2.8715139E+002
 -2.2608805E+002
 -1.5877249E+002
 -9.3217737E+001
 -3.5171037E+001
  1.1315255E+001
  4.3785137E+001
  6.1461110E+001
  6.5330708E+001
  5.8198803E+001
  4.4679105E+001
  3.1052387E+001
  2.4643169E+001
  3.2321553E+001
  5.6565309E+001
  8.3437702E+001
  8.6879434E+001
  6.5322788E+001
 -8.0056214E+001
 -3.3056183E+002
 -6.2582977E+002
 -3.8712637E+002
 -3.6482755E+002
  1.6525146E+002
 -2.2875767E+002
  3.0949222E+000
  1.8306323E+001
  1.8505583E+001
  3.1611981E+001
  1.6221301E+001
  6.0021082E+000
 -1.7693442E+003
 -1.2077064E+003
 -1.0122987E+003
 -8.4341144E+002
 -7.5845229E+002
 -6.7659652E+002
 -6.0148670E+002
 -5.2819798E+002
 -4.6047393E+002
 -3.9826954E+002
 -3.5738133E+002
 -3.6902355E+002
 -3.6877295E+002
 -2.8958700E+002
 -5.7469383E+001
 -4.8074001E+002
 -1.6847250E+002
  1.7007324E+001
  4.6967263E+000
 -8.7649245E+001
 -1.5130956E+002
 -1.9256971E+002
 -2.0896358E+002
 -1.9690807E+002
 -1.6639842E+002
 -1.2674517E+002
 -8.4493341E+001
 -4.5828642E+001
 -1.6324616E+001
 -2.0697495E-001
  6.8718465E-002
 -1.6035466E+001
 -4.7017884E+001
 -8.9198601E+001
 -1.3662784E+002
 -1.8099185E+002
 -2.1251815E+002
 -2.2209876E+002
 -2.0876455E+002
 -2.5122217E+002
 -4.1368971E+002
 -5.6732343E+002
 -8.9337217E+002
 -2.0606181E+003
 -1.6114482E+003
  4.2698943E+002
 -5.1553662E+000
  1.0409576E+001
 -2.3003229E+000
 -1.3876892E+000
 -4.5084252E+000
 -7.1568610E+000
 -1.8623581E+001
 -1.6162736E+001
 -1.1508908E+003
 -1.3692396E+003
 -1.1882157E+003
 -1.0806865E+003
 -1.0337861E+003
 -9.0223062E+002
 -7.7272453E+002
 -6.5884212E+002
 -5.5104759E+002
 -4.4947018E+002
 -3.5091065E+002
 -2.5271589E+002
 -1.1903471E+002
 -1.7184452E+000
 -3.7548309E+001
  6.6470684E+001
  2.4730200E+002
  9.5215986E+002
  4.5302376E+002
  3.3732730E+002
  2.0696489E+002
  1.5754579E+002
  9.5209062E+001
  5.8788981E+000
 -3.9289822E+001
 -5.5486477E+001
 -5.8290659E+001
 -4.9667352E+001
 -3.3244488E+001
 -1.6443151E+001
 -6.7902249E+000
 -1.0236853E+001
 -3.0990534E+001
 -7.1337994E+001
 -1.3149536E+002
 -2.0947831E+002
 -3.0073786E+002
 -3.9793072E+002
 -4.8951529E+002
 -5.6195237E+002
 -5.9419598E+002
 -5.5342421E+002
 -8.7707728E+002
 -1.7809827E+003
 -4.0889835E+003
 -1.9441526E+003
 -4.4150476E+000
 -5.6901351E+000
 -7.3114347E+000
 -2.7069728E+001
 -2.1727023E+001
 -5.8384501E+000
 -1.4928430E+003
 -1.5119482E+003
 -1.3485001E+003
 -1.1746504E+003
 -1.0537580E+003
 -9.5325201E+002
 -8.5177192E+002
 -7.2660274E+002
 -5.9600852E+002
 -4.6628086E+002
 -3.3787115E+002
 -2.1701348E+002
 -8.7962624E+001
  5.7920334E+001
  4.8036872E+002
  9.8278465E+002
  2.7362176E+003
  1.2588304E+003
  6.7853069E+002
  1.0051757E+003
  5.8073642E+002
  3.8311272E+002
  2.4276727E+002
  1.9339396E+002
  1.4153198E+002
  9.4536252E+001
  7.0293392E+001
  6.1113240E+001
  5.5336042E+001
  4.4187800E+001
  2.0234583E+001
 -2.2470133E+001
 -8.7938023E+001
 -1.7829627E+002
 -2.9364007E+002
 -4.3220689E+002
 -5.8811843E+002
 -7.5634903E+002
 -9.0946170E+002
 -1.0754479E+003
 -1.0304430E+003
 -8.1463134E+002
 -5.2031987E+000
  1.6646850E+003
 -2.5409372E+000
  2.4547787E+000
  6.8531462E+000
 -1.5798125E+003
 -1.6397338E+003
 -1.4860261E+003
 -1.2755726E+003
 -1.1201426E+003
 -9.8477992E+002
 -8.7669793E+002
 -7.6469404E+002
 -6.4142765E+002
 -5.0503149E+002
 -3.6013870E+002
 -2.1033041E+002
 -6.5594596E+001
  6.8270620E+001
  1.0251035E+002
  3.9637754E+002
  6.4385366E+001
  3.0885251E+002
  3.9997751E+002
  2.2258330E+002
  6.6412455E+002
  5.4924269E+002
  5.3478721E+002
  3.7326718E+002
  2.8413316E+002
  2.3352346E+002
  1.9926345E+002
  1.7052939E+002
  1.3914868E+002
  9.5658958E+001
  3.2688182E+001
 -5.5261605E+001
 -1.7184265E+002
 -3.1944332E+002
 -4.9840138E+002
 -7.0858797E+002
 -9.3927590E+002
 -1.2015703E+003
 -1.4093771E+003
 -1.9112625E+003
 -1.9835393E+003
 -5.0112390E+003
 -1.7527133E+003
 -1.6919530E+003
 -1.8332700E+003
 -1.6414210E+003
 -1.4130657E+003
 -1.2210849E+003
 -1.0484670E+003
 -9.0927789E+002
 -7.8649388E+002
 -6.6904534E+002
 -5.4367785E+002
 -4.0553261E+002
 -2.5310578E+002
 -8.6827254E+001
  8.7347020E+001
  2.5069746E+002
  3.4035158E+002
 -6.9650506E+001
 -5.5577546E+001
 -1.2610554E+003
 -3.2553293E+002
  1.1579817E+003
  2.2485053E+003
  1.1331170E+003
  8.4928495E+002
  6.0023103E+002
  5.2228460E+002
  4.4355430E+002
  3.7958163E+002
  3.2825399E+002
  2.7778754E+002
  2.1725652E+002
  1.3757445E+002
  3.2831544E+001
 -1.0144147E+002
 -2.6925353E+002
 -4.7263713E+002
 -7.1563202E+002
 -9.8258718E+002
 -1.3016784E+003
 -1.4750447E+003
 -1.9580766E+003
 -6.8696107E+002
 -1.0237851E+003
 -1.1124313E+003
 -3.7741550E+003
 -1.8584327E+003
 -1.6512426E+003
 -1.3075580E+003
 -1.1147111E+003
 -9.4465921E+002
 -8.0717580E+002
 -6.8529175E+002
 -5.6835307E+002
 -4.4676608E+002
 -3.1404537E+002
 -1.6492238E+002
  2.2093364E+000
  2.0183304E+002
  4.0320012E+002
  7.5497913E+002
  9.6697253E+002
  2.6944687E+003
  1.0160511E+003
  4.2674316E+002
  3.7487611E+002
  1.0997281E+003
  9.1126887E+002
  8.5277502E+002
  6.9482960E+002
  6.0005048E+002
  5.2269098E+002
  4.5669719E+002
  3.8137245E+002
  2.8940480E+002
  1.7550407E+002
  3.5420114E+001
 -1.3533568E+002
 -3.4144599E+002
 -5.8228245E+002
 -8.6379578E+002
 -1.1339497E+003
 -1.4469228E+003
 -1.1772263E+003
 -7.7575017E+002
 -3.1112062E+002
  9.3322948E+001
 -1.8968585E+003
 -1.5439934E+003
 -2.3291223E+003
 -1.7304177E+003
 -1.5033458E+003
 -1.3597877E+003
 -1.1205314E+003
 -9.5235998E+002
 -8.0574899E+002
 -6.8287495E+002
 -5.7142422E+002
 -4.6448956E+002
 -3.5479559E+002
 -2.3781242E+002
 -1.0769746E+002
  3.4446450E+001
  2.1835380E+002
  3.6939527E+002
  7.8008275E+002
  2.3924778E+002
  5.6738514E+002
 -4.1851064E+002
  1.6717913E+003
  2.5013693E+003
  1.4182115E+003
  1.2099606E+003
  9.6986111E+002
  8.3973000E+002
  7.4879651E+002
  6.6687416E+002
  5.7810338E+002
  4.7708331E+002
  3.6309862E+002
  2.3130608E+002
  7.5838729E+001
 -1.0618214E+002
 -3.1914478E+002
 -5.4894510E+002
 -8.2950748E+002
 -9.8234448E+002
 -1.4948520E+003
 -4.5195748E+002
 -9.1434232E+002
 -5.2889265E+002
 -3.1503334E+003
 -1.5769376E+003
 -1.5835358E+003
 -1.2322203E+003
 -1.0787745E+003
 -9.7983080E+002
 -8.6738316E+002
 -7.4564373E+002
 -6.3754026E+002
 -5.3870117E+002
 -4.4652233E+002
 -3.5661220E+002
 -2.6612348E+002
 -1.7305008E+002
 -7.7819043E+001
  2.2290344E+001
  1.1689837E+002
  2.3934503E+002
  2.1904483E+002
  1.7244892E+002
  8.7998587E+001
  1.5884574E+003
  1.8417850E+003
  1.5274428E+003
  1.2825692E+003
  1.1087501E+003
  9.9253314E+002
  8.9616754E+002
  7.8432533E+002
  6.7964738E+002
  5.7783650E+002
  4.6854677E+002
  3.4567856E+002
  2.0740296E+002
  5.5235986E+001
 -1.0294728E+002
 -2.7436483E+002
 -4.2869723E+002
 -8.4189554E+002
 -1.3448669E+003
 -4.1777771E+003
  6.9287059E+001
 -1.4601014E+003
 -1.2078926E+003
 -1.8116267E+003
 -1.3797844E+003
 -1.2858446E+003
 -1.1287147E+003
 -9.2032544E+002
 -7.6808699E+002
 -6.6854541E+002
 -5.9626517E+002
 -5.2381654E+002
 -4.5180054E+002
 -3.8162275E+002
 -3.1211657E+002
 -2.4282260E+002
 -1.7432225E+002
 -1.0901808E+002
 -5.0092489E+001
 -6.8631246E+000
  1.4867205E+001
 -9.1360064E+000
 -2.2842262E+001
 -4.9835534E+001
 -1.0476213E+001
  2.0757619E+003
  1.8716004E+003
  1.5231012E+003
  1.3447722E+003
  1.2715965E+003
  1.0911129E+003
  9.5925251E+002
  8.7132323E+002
  7.9689467E+002
  7.2347555E+002
  6.4415801E+002
  5.6121888E+002
  4.8344742E+002
  4.2160113E+002
  3.9829459E+002
  4.0352700E+002
  5.5723002E+002
  1.0149712E+003
  9.7325239E+002
  1.8146595E+003
 -2.0165686E+003
 -4.3921553E+002
 -2.2398899E+003
 -1.1328748E+003
 -1.1573145E+003
 -9.2380431E+002
 -7.9767048E+002
 -7.1025521E+002
 -5.8553151E+002
 -4.7239944E+002
 -3.9522389E+002
 -3.4272074E+002
 -3.0128987E+002
 -2.6062955E+002
 -2.1717360E+002
 -1.6997094E+002
 -1.2034955E+002
 -7.2125000E+001
 -3.0467294E+001
 -2.5266765E+000
  6.9737028E+000
 -2.6296824E+001
 -1.1971816E+002
 -2.2722678E+002
 -1.0525710E+002
 -1.1921093E+002
  1.7864581E+003
  2.8154095E+003
  1.7658084E+003
  1.3844706E+003
  1.1437478E+003
  1.0745041E+003
  1.0280528E+003
  1.0012018E+003
  9.7068736E+002
  9.3702236E+002
  9.0763443E+002
  8.9756372E+002
  9.2755769E+002
  1.0169300E+003
  1.2111923E+003
  1.5305451E+003
  1.8222725E+003
  1.8435521E+003
  1.7313793E+003
  1.7439051E+003
  2.6683438E+003
  2.1454746E+003
  3.0633510E+003
  2.5409760E+003
  8.1104282E+002
  5.0623299E+003
 -8.8987348E+002
  7.3713294E+001
 -9.7583845E+002
 -7.7041727E+002
 -1.2892895E+003
 -9.0315424E+002
 -8.4819339E+002
 -7.3961721E+002
 -5.8379434E+002
 -4.5690738E+002
 -3.4876386E+002
 -2.6113635E+002
 -1.8446387E+002
 -1.3109956E+002
 -1.0078547E+002
 -8.3672869E+001
 -6.9031388E+001
 -4.9083756E+001
 -2.1050889E+001
  1.2883128E+001
  4.6684660E+001
  7.2013123E+001
  8.2800423E+001
  7.4938014E+001
  6.5259368E+001
  2.2043354E+001
 -2.3315202E+002
 -1.7147450E+002
 -9.5151197E+002
 -4.5706294E+001
  4.0179847E+002
  1.1293737E+003
  1.0730381E+003
  1.1272521E+003
  1.1516650E+003
  1.1772487E+003
  1.1884305E+003
  1.1908834E+003
  1.2002648E+003
  1.2368949E+003
  1.3203024E+003
  1.4693217E+003
  1.6884521E+003
  1.9356490E+003
  2.0981139E+003
  2.0476049E+003
  1.8648745E+003
  1.7968553E+003
  2.1041592E+003
  2.5222279E+003
  2.9959334E+003
  2.9703921E+003
  6.0633385E+003
  3.2946194E+003
  4.0172489E+003
  2.8325501E+003
  3.4058832E+003
  2.5065819E+003
  2.4351367E+003
  2.1501583E+003
  6.1431576E+002
  1.5963215E+003
  2.8771474E+002
 -3.4559373E+002
 -1.1878577E+003
 -5.9807581E+002
 -6.3344349E+002
 -5.0649381E+002
 -4.2797348E+002
 -3.6571972E+002
 -2.5929476E+002
 -1.4429967E+002
 -4.6080223E+001
  3.5257908E+001
  9.4418024E+001
  1.2915058E+002
  1.3932333E+002
  1.3325802E+002
  1.2337396E+002
  1.2181785E+002
  1.3422613E+002
  1.5781416E+002
  1.8398234E+002
  2.0320789E+002
  2.0322579E+002
  1.9290114E+002
  1.7442703E+002
  3.6799757E+002
  5.6994970E+002
  1.9089793E+003
  7.6611937E+002
  9.1737315E+002
  1.1529179E+003
  8.5662834E+002
  1.1029580E+003
  1.1618388E+003
  1.2514502E+003
  1.3185273E+003
  1.3560043E+003
  1.3760608E+003
  1.4021703E+003
  1.4585372E+003
  1.5590453E+003
  1.7054246E+003
  1.8789987E+003
  2.0288278E+003
  2.0790248E+003
  1.9949807E+003
  1.8458113E+003
  1.7725923E+003
  1.8382861E+003
  1.9596431E+003
  2.0962274E+003
  2.3119268E+003
  2.3807453E+003
  2.5100072E+003
  2.5221090E+003
  2.8021458E+003
  2.8477372E+003
  5.8626686E+003
 -1.4498836E+002
 -1.0095558E+002
  1.1581241E+002
 -4.9129559E+001
 -7.3089989E+002
 -2.2247059E+002
 -2.8911948E+002
 -2.7282403E+002
 -2.1050940E+002
 -1.4036799E+002
 -5.9915453E+001
  2.8739861E+001
  1.2865655E+002
  2.2514148E+002
  3.0568511E+002
  3.6372045E+002
  3.9121379E+002
  3.8710594E+002
  3.5687682E+002
  3.2056194E+002
  2.9714638E+002
  2.9605878E+002
  3.1387614E+002
  3.3813508E+002
  3.5741202E+002
  3.5949983E+002
  3.3957611E+002
  2.3927797E+002
  3.4725884E+002
  7.9208820E+001
  2.1964327E+002
  1.2572948E+003
  1.4188137E+003
  1.1568796E+003
  1.2305877E+003
  1.3273169E+003
  1.4092569E+003
  1.4507701E+003
  1.4618314E+003
  1.4865611E+003
  1.5447511E+003
  1.6400681E+003
  1.7599568E+003
  1.8780743E+003
  1.9541577E+003
  1.9500210E+003
  1.8576856E+003
  1.7197468E+003
  1.6039322E+003
  1.5453976E+003
  1.5432812E+003
  1.5992958E+003
  1.6936739E+003
  1.8760622E+003
  2.0605520E+003
  2.2809254E+003
  2.5737080E+003
  2.8366600E+003
  3.1158108E+003
  2.9011360E+003
  6.5173517E+003
  3.2017174E+003
  3.7384499E+003
  2.5377298E+003
  3.2928158E+003
  2.1286114E+003
  2.6381407E+003
  1.6901526E+003
  2.1630769E+003
  1.2678905E+003
  1.6644518E+003
  8.5520486E+002
  1.1276581E+003
  5.6924675E+002
  2.7074702E+002
  1.1807433E+002
  4.5199310E+001
  6.3914538E+000
  3.1733573E+001
  9.0508013E+001
  1.6568385E+002
  2.5632043E+002
  3.5684546E+002
  4.5861407E+002
  5.5224657E+002
  6.2387463E+002
  6.6433381E+002
  6.5553185E+002
  6.0589549E+002
  5.3470116E+002
  4.8175665E+002
  4.6742212E+002
  4.7996716E+002
  5.0242427E+002
  5.2216010E+002
  5.3423075E+002
  5.3144227E+002
  4.7447423E+002
  4.6612609E+001
 -1.1137510E+001
 -1.0540821E+003
  1.2084910E+003
  1.3625904E+003
  1.2116977E+003
  1.3108050E+003
  1.4170599E+003
  1.4243645E+003
  1.4147017E+003
  1.4349456E+003
  1.4982821E+003
  1.5864087E+003
  1.6811916E+003
  1.7567647E+003
  1.7858034E+003
  1.7484927E+003
  1.6463549E+003
  1.5062195E+003
  1.3660270E+003
  1.2574460E+003
  1.1982307E+003
  1.2001304E+003
  1.2762264E+003
  1.4046726E+003
  1.5807201E+003
  1.7640646E+003
  1.9120450E+003
  1.9291053E+003
  1.9307592E+003
  2.0244355E+003
  1.9226541E+003
  1.8294272E+003
  1.5432306E+003
  1.2582775E+003
  9.7237342E+002
  7.2738490E+002
  5.1469213E+002
  3.8453610E+002
  2.7737153E+002
  2.0980778E+002
  1.8753656E+002
  2.0165210E+002
  2.5040695E+002
  3.2432652E+002
  4.1743460E+002
  5.2638863E+002
  6.4556543E+002
  7.6126447E+002
  8.7390217E+002
  9.5247623E+002
  9.7630405E+002
  8.9396324E+002
  7.7649460E+002
  6.8602222E+002
  6.5341446E+002
  6.5928865E+002
  6.6588596E+002
  6.7018802E+002
  6.8765955E+002
  7.0120714E+002
  8.5087470E+002
  9.1316175E+002
  2.2696448E+003
  8.5722442E+002
  8.0751138E+002
  1.2460890E+003
  1.1702583E+003
  1.2380133E+003
  1.2054063E+003
  1.1925753E+003
  1.2553472E+003
  1.3389692E+003
  1.4328148E+003
  1.5133733E+003
  1.5621696E+003
  1.5619907E+003
  1.5039663E+003
  1.3926380E+003
  1.2468007E+003
  1.0938170E+003
  9.6048789E+002
  8.6870230E+002
  8.3376321E+002
  8.5937049E+002
  9.4105830E+002
  1.0500326E+003
  1.1517609E+003
  1.1965994E+003
  1.1849990E+003
  1.1535885E+003
  1.1197746E+003
  1.1397104E+003
  1.0771360E+003
  9.6950105E+002
  8.1249337E+002
  6.5663475E+002
  5.2031633E+002
  4.2063172E+002
  3.4295660E+002
  2.9424000E+002
  2.6764549E+002
  2.6441556E+002
  2.8886632E+002
  3.3877109E+002
  4.1201348E+002
  5.0684828E+002
  6.2395118E+002
  7.6283496E+002
  9.2148863E+002
  1.0673793E+003
  1.2724699E+003
  1.3692641E+003
  1.3338329E+003
  1.1266610E+003
  9.3094216E+002
  8.8365631E+002
  8.5102589E+002
  8.1156876E+002
  7.6996920E+002
  7.5968650E+002
  7.1791401E+002
  8.8651090E+002
  3.0938796E+002
  4.3953064E+002
  5.0103245E+002
  2.3342683E+001
  6.0107385E+002
  7.0438230E+002
  8.5284257E+002
  9.7929463E+002
  1.1111642E+003
  1.2192850E+003
  1.2956908E+003
  1.3282299E+003
  1.3089971E+003
  1.2356212E+003
  1.1146404E+003
  9.6161539E+002
  7.9806733E+002
  6.4706955E+002
  5.2895671E+002
  4.5794360E+002
  4.3898648E+002
  4.6249832E+002
  5.0771016E+002
  5.4306874E+002
  5.4741648E+002
  5.1867724E+002
  4.8486638E+002
  4.7509865E+002
  4.6899623E+002
  4.6588957E+002
  4.3304170E+002
  3.8134399E+002
  3.2298466E+002
  2.7547114E+002
  2.4378255E+002
  2.3091479E+002
  2.2995911E+002
  2.4070228E+002
  2.6467378E+002
  3.0349418E+002
  3.5884632E+002
  4.3106122E+002
  5.2148402E+002
  6.3375244E+002
  7.7852780E+002
  9.7155288E+002
  1.2089890E+003
  1.4756390E+003
  1.9900650E+003
  1.8289123E+003
  1.5880731E+003
  1.2760667E+003
  1.1739261E+003
  1.0311010E+003
  8.9765239E+002
  8.0594060E+002
  7.1913963E+002
  6.5459069E+002
  4.4955977E+002
  2.6655348E+002
  4.0075097E+001
 -9.9513161E+001
  6.4795325E+001
  2.3725634E+002
  4.8064884E+002
  6.9805966E+002
  8.6714416E+002
  9.8945294E+002
  1.0618030E+003
  1.0815356E+003
  1.0467216E+003
  9.5933974E+002
  8.2705294E+002
  6.6350076E+002
  4.8672106E+002
  3.1633547E+002
  1.7053261E+002
  6.2845578E+001
 -1.3650034E+000
 -2.7736535E+001
 -3.3375147E+001
 -3.9708268E+001
 -6.1681429E+001
 -9.3939966E+001
 -1.2110704E+002
 -1.2751617E+002
 -1.0751861E+002
 -7.9947787E+001
 -5.3641068E+001
 -3.5148286E+001
 -1.8079507E+001
  4.0689196E+000
  3.5094956E+001
  7.2841330E+001
  1.1533669E+002
  1.6064516E+002
  2.0922123E+002
  2.6294455E+002
  3.2318086E+002
  3.9138580E+002
  4.6712606E+002
  5.5841523E+002
  6.5231727E+002
  8.4425333E+002
  9.5599020E+002
  2.0287615E+003
  2.1614580E+003
  2.8282723E+003
  3.9412825E+003
  1.6952886E+003
  1.4088126E+003
  1.0391215E+003
  8.9836402E+002
  7.5851229E+002
  6.3736272E+002
  4.8525463E+002
  3.0596968E+002
  1.2135994E+002
  1.2090603E+001
 -3.0390687E+002
 -1.3718943E+001
 -1.2654278E+002
  2.6103827E+002
  4.7891863E+002
  6.6222860E+002
  7.7782251E+002
  8.3825940E+002
  8.4171485E+002
  7.9013080E+002
  6.8708871E+002
  5.4040787E+002
  3.6210868E+002
  1.6746866E+002
 -2.6878069E+001
 -2.0488836E+002
 -3.5283142E+002
 -4.6221474E+002
 -5.3284725E+002
 -5.7761046E+002
 -6.1418066E+002
 -6.5294785E+002
 -6.9410264E+002
 -7.1330004E+002
 -6.9931643E+002
 -6.5208284E+002
 -5.8252525E+002
 -5.0795657E+002
 -4.3216601E+002
 -3.5520191E+002
 -2.7422663E+002
 -1.8967323E+002
 -1.0521399E+002
 -2.4707557E+001
  5.0204279E+001
  1.2000918E+002
  1.8607943E+002
  2.4950455E+002
  3.1062428E+002
  3.6728080E+002
  4.1953156E+002
  4.4700062E+002
  4.7314950E+002
  2.1951774E+002
 -1.8712270E+002
  7.0875891E+001
  4.3291683E+002
  1.0605519E+003
  8.5381860E+002
  7.8384402E+002
  6.5573308E+002
  5.2306708E+002
  3.7182877E+002
  2.0423958E+002
  9.0087292E+001
 -2.2794630E+001
 -1.2012084E+003
 -2.7994349E+002
 -7.0830101E+001
  2.0009378E+002
  3.7489810E+002
  5.1772055E+002
  6.0462190E+002
  6.3972747E+002
  6.2075322E+002
  5.4892107E+002
  4.2741887E+002
  2.6300924E+002
  6.5983353E+001
 -1.5073368E+002
 -3.7329631E+002
 -5.8859754E+002
 -7.8370737E+002
 -9.4408548E+002
 -1.0622282E+003
 -1.1398242E+003
 -1.2022823E+003
 -1.2700911E+003
 -1.3143914E+003
 -1.3305300E+003
 -1.2849840E+003
 -1.1895684E+003
 -1.0694209E+003
 -9.3790139E+002
 -8.1028314E+002
 -6.7960939E+002
 -5.4381921E+002
 -4.0925751E+002
 -2.8280829E+002
 -1.6969139E+002
 -7.0521609E+001
  1.6057053E+001
  9.1694257E+001
  1.5716092E+002
  2.1123578E+002
  2.5231621E+002
  2.6951709E+002
  2.6642833E+002
  1.5894896E+002
  1.3045077E+002
  1.1899220E+002
  4.7440311E+001
  2.8157864E+002
  4.4071888E+002
  6.3924582E+002
  6.0255991E+002
  5.2926923E+002
  4.1129519E+002
  2.8004518E+002
  1.4760915E+002
  6.2764309E+001
 -2.6310188E+001
 -3.4519678E+002
  6.8259107E+002
  1.8887050E+002
  3.2255747E+002
  2.2185199E+002
  2.6421301E+002
  3.5451133E+002
  4.2650315E+002
  4.6878888E+002
  4.6879246E+002
  4.2238392E+002
  3.2748864E+002
  1.8542306E+002
  9.5192940E-001
 -2.1741668E+002
 -4.5832209E+002
 -7.1030668E+002
 -9.6409517E+002
 -1.2132069E+003
 -1.4440150E+003
 -1.6214473E+003
 -1.7495795E+003
 -1.8463030E+003
 -1.9192266E+003
 -2.0201582E+003
 -2.0059320E+003
 -1.9124140E+003
 -1.7443071E+003
 -1.5386277E+003
 -1.3551932E+003
 -1.1667512E+003
 -9.7824765E+002
 -7.8719940E+002
 -6.0234417E+002
 -4.4008805E+002
 -3.0178500E+002
 -1.8488368E+002
 -8.6157607E+001
 -3.4078303E+000
  6.3915796E+001
  1.1470952E+002
  1.4459838E+002
  1.5444962E+002
  1.2664404E+002
  1.1746699E+002
  7.0068871E+001
  1.3402686E+001
  1.1923617E+002
  3.1289042E+002
  4.2983163E+002
  4.6390803E+002
  4.0257399E+002
  3.0966537E+002
  2.0470057E+002
  1.0337540E+002
  4.7168102E+001
 -3.0915326E+001
  1.3266790E+002
  1.3681635E+002
  3.2448499E+002
  3.4309045E+002
  3.3816122E+002
  3.4721402E+002
  3.6088631E+002
  3.5462513E+002
  3.1830947E+002
  2.4338828E+002
  1.2538928E+002
 -3.7164054E+001
 -2.4190683E+002
 -4.8223379E+002
 -7.4725690E+002
 -1.0242424E+003
 -1.3086744E+003
 -1.6047530E+003
 -1.9216635E+003
 -2.2343657E+003
 -2.4157527E+003
 -2.5841246E+003
 -2.8172476E+003
 -2.8158512E+003
 -2.8091678E+003
 -2.5931086E+003
 -2.3173291E+003
 -2.0579841E+003
 -1.7409383E+003
 -1.4886711E+003
 -1.2355995E+003
 -9.6932461E+002
 -7.4415995E+002
 -5.5970626E+002
 -4.0765353E+002
 -2.8009975E+002
 -1.7335185E+002
 -8.5680584E+001
 -1.5973718E+001
  3.3843862E+001
  6.4011256E+001
  7.1016645E+001
  5.9013257E+001
  4.4408150E+001
  3.7408458E+001
  1.8467829E+002
  2.9127992E+002
  3.9361541E+002
  3.5412991E+002
  2.9805988E+002
  2.1609362E+002
  1.3646855E+002
  6.4827047E+001
  3.2093672E+001
 -3.1989854E+001
  9.1399373E+001
  1.1292653E+002
  2.4926350E+002
  3.2338649E+002
  3.3486266E+002
  3.1787924E+002
  2.8817587E+002
  2.4373758E+002
  1.7571278E+002
  7.6041682E+001
 -6.1911350E+001
 -2.4187568E+002
 -4.6427887E+002
 -7.2460774E+002
 -1.0121390E+003
 -1.3099996E+003
 -1.5998260E+003
 -1.9085474E+003
 -2.2756518E+003
 -2.7511899E+003
 -3.2623177E+003
 -3.7187592E+003
 -3.6348148E+003
 -4.0883022E+003
 -3.5324385E+003
 -3.2581202E+003
 -3.0220890E+003
 -2.4839523E+003
 -2.2143300E+003
 -1.7422112E+003
 -1.3538590E+003
 -1.0423074E+003
 -8.1642211E+002
 -6.3624383E+002
 -4.8170803E+002
 -3.4778118E+002
 -2.3422762E+002
 -1.4204702E+002
 -7.1276759E+001
 -2.2462242E+001
  8.4847178E+000
  8.4235987E+000
  1.4779039E+001
  3.4038046E+002
  1.7574944E+002
  5.4049583E+002
  3.2649991E+002
  2.7999917E+002
  1.9572394E+002
  1.2657318E+002
  6.7548906E+001
  2.4815979E+001
  1.6279756E+001
 -3.2738656E+001
  6.1703177E+001
  7.7688421E+001
  2.0325520E+002
  2.7540571E+002
  2.8569629E+002
  2.4907919E+002
  1.9154663E+002
  1.1922693E+002
  2.8153823E+001
 -8.9935337E+001
 -2.4235980E+002
 -4.3440157E+002
 -6.6820766E+002
 -9.4301296E+002
 -1.2492301E+003
 -1.5663929E+003
 -1.8576660E+003
 -2.0999349E+003
 -2.3629472E+003
 -2.9610010E+003
 -3.0757462E+003
 -6.3994168E+003
 -7.1874591E+003
 -4.4207594E+003
 -4.2377588E+003
 -3.8615345E+003
 -3.5419723E+003
 -4.0239648E+003
 -2.8064700E+003
 -1.3627669E+003
 -1.2262463E+003
 -9.7593408E+002
 -8.4198062E+002
 -6.8074421E+002
 -5.2775238E+002
 -3.8424033E+002
 -2.5974725E+002
 -1.6129695E+002
 -8.7819437E+001
 -5.4704139E+001
 -3.9760974E+001
  1.6596669E+003
  5.3078860E+002
  4.0961138E+002
  2.3519874E+002
  1.6916774E+002
  9.2846836E+001
  3.2204912E+001
 -8.1869101E+000
 -2.2946254E+001
 -4.5702513E+000
 -3.6417655E+001
  1.0131322E+002
  8.6751734E+001
  2.0037058E+002
  2.3749901E+002
  2.0747827E+002
  1.4088019E+002
  6.0008599E+001
 -3.0246500E+001
 -1.3571149E+002
 -2.6533852E+002
 -4.2750926E+002
 -6.2584838E+002
 -8.6316050E+002
 -1.1401449E+003
 -1.4537538E+003
 -1.7843705E+003
 -2.1021887E+003
 -2.2980310E+003
 -2.4561520E+003
 -2.1787902E+003
 -2.1258300E+003
  1.7909002E+002
  6.8265591E+002
 -1.6117881E+002
 -9.0374674E+002
 -9.8172727E+002
 -9.0308895E+002
 -7.3658695E+002
 -5.5480154E+002
 -3.8151864E+002
 -2.3246944E+002
 -1.1814620E+002
 -2.6713236E+001
 -2.4726017E+000
  5.2133161E+002
 -8.7577962E+002
 -1.7035306E+002
 -2.1945742E+002
  2.8035529E+001
  7.9189769E+001
  4.2398448E+001
 -7.4019269E+000
 -6.2623808E+001
 -9.3593837E+001
 -8.5748222E+001
 -3.1647754E+001
 -4.3337310E+001
  1.4986341E+002
  8.6606185E+001
  2.2527869E+002
  1.7626044E+002
  8.4678611E+001
 -1.5702552E+001
 -1.1132414E+002
 -2.1240225E+002
 -3.2420801E+002
 -4.5956123E+002
 -6.3073696E+002
 -8.3902944E+002
 -1.0724683E+003
 -1.3325209E+003
 -1.6405770E+003
 -1.8950946E+003
 -2.2936729E+003
 -2.2517838E+003
 -3.9946332E+003
 -2.2522770E+003
  6.9728493E+001
 -1.2832338E+002
 -3.5282338E+001
 -1.6950322E+002
 -8.2410686E+001
 -4.6833804E+001
 -4.0769509E+001
 -7.9374096E+001
 -1.3446167E+002
 -1.8188631E+002
 -1.7259059E+002
 -8.4742896E+001
 -9.1144953E+001
  6.0557935E+002
  1.1682590E+002
  1.8521728E+002
  2.1854685E+000
 -1.1921020E+002
 -2.1666626E+002
 -3.2361475E+002
 -4.3012033E+002
 -5.4322926E+002
 -6.7882236E+002
 -8.5921714E+002
 -1.0972103E+003
 -1.3564130E+003
 -1.5830731E+003
 -1.8155814E+003
 -2.1014586E+003
 -1.9435580E+003
 -1.9596289E+003
 -8.5382237E+002
  1.4735368E+002
  9.5898152E+000
  1.4514129E+002
 -4.8123961E+001
 -5.3017906E+001
 -6.7794744E+001
 -8.6819370E+001
 -1.4148365E+002
 -2.2211380E+002
 -2.7467260E+002
 -1.1854808E+002
 -1.4730566E+002
 -2.6137834E+002
 -9.9925881E+002
 -3.4707919E+002
 -3.3073884E+002
 -3.3971243E+002
 -4.4633882E+002
 -5.6331243E+002
 -6.8430360E+002
 -7.9885880E+002
 -9.2632297E+002
 -1.1152476E+003
 -1.3957745E+003
 -1.7920344E+003
 -2.0528928E+003
 -2.3380896E+003
 -1.9110713E+003
 -2.1034050E+003
 -1.0877174E+003
  1.1372870E+003
  3.1109980E+002
  1.5452934E+002
 -3.9259823E+000
 -3.3869634E+001
 -3.9402399E+001
 -3.5585437E+001
 -3.5597977E+001
 -9.1235699E+001
 -2.7858961E+002
 -1.7921407E+002
 -7.4940493E+002
 -1.6828323E+002
 -1.8303254E+002
 -4.8832581E+002
 -5.0039956E+002
 -6.5518151E+002
 -8.1054265E+002
 -9.7185688E+002
 -1.1047937E+003
 -1.2161574E+003
 -1.3857076E+003
 -1.6708816E+003
 -2.2399803E+003
 -2.6066746E+003
 -4.7599373E+003
 -2.9017093E+003
  3.3470195E+002
  3.6444210E+002
 -6.3080005E+002
 -1.2961567E+002
 -2.0830233E+002
 -6.1899166E+001
 -3.1625188E+001
 -2.2617618E+001
  4.1437440E+000
  4.9246488E+001
  9.9802087E+001
  2.5121940E+002
  3.7602671E+002
  1.3191052E+003
  3.7874225E+002
  3.0628183E+001
 -2.0247434E+002
 -3.6629712E+002
 -6.0893974E+002
 -8.0297893E+002
 -1.0329094E+003
 -1.2733321E+003
 -1.4839927E+003
 -1.5974077E+003
 -1.7248684E+003
 -2.0946402E+003
 -2.5595278E+003
 -2.8563285E+003
 -2.2682438E+003
 -1.2560282E+002
 -7.4172269E+001
 -1.8748266E+002
 -1.2975015E+002
 -6.1509060E+001
 -6.8053664E+000
  3.9132883E+001
  1.0833332E+002
  1.6408894E+002
  3.7707598E+002
  1.1545446E+002
  2.8785310E+002
  2.0614596E+001
 -1.6009352E+002
 -3.7747061E+002
 -6.3146589E+002
 -8.9312983E+002
 -1.1767559E+003
 -1.5027526E+003
 -1.8931794E+003
 -2.2099597E+003
 -2.1844843E+003
 -2.4403375E+003
 -2.8478682E+003
 -3.8111307E+003
 -6.5271761E+001
 -3.8680735E+001
 -6.9023955E+001
 -6.1171583E+001
 -2.3683168E+001
  1.6240656E+001
  6.2803757E+001
  1.0992989E+002
  1.7336068E+002
  1.5404461E+002
  1.0963651E+002
  4.6931599E+001
  1.6961345E+001
 -2.2071698E+002
 -3.9396923E+002
 -6.5439251E+002
 -8.8056007E+002
 -1.1810903E+003
 -1.5584392E+003
 -1.9872278E+003
 -2.7754942E+003
 -3.5762394E+003
 -6.3851308E+003
 -3.3875916E+003
 -1.1481172E+001
  6.1536140E+001
  4.8923741E+001
  5.7760454E+001
  3.4489020E+001
  4.6395215E+001
  6.7613608E+001
  9.5185468E+001
  1.0293456E+002
  8.8814069E+001
  3.0004383E+001
  3.5993475E+001
 -2.6095367E+002
 -1.8080389E+002
 -5.4483227E+002
 -5.3238320E+002
 -7.7033250E+002
 -1.0228814E+003
 -1.3509400E+003
 -1.5784469E+003
 -2.2388840E+003
 -7.7830284E+002
 -9.9889152E+002
  1.7601348E+002
  8.7589782E+001
  2.6166698E+002
  1.0789946E+002
  8.0187200E+001
  5.9426441E+001
  6.2830254E+001
  6.6945992E+001
  6.2888023E+001
  4.2993498E+001
  1.5540476E+001
  1.8721893E+001
 -1.2412921E+003
 -2.8098028E+002
 -2.4012818E+002
 -3.1918201E+002
 -5.5581457E+002
 -7.8686853E+002
 -9.4543741E+002
 -1.0578040E+003
 -7.2986814E+002
 -5.2854470E+002
  8.8816703E+001
  9.6545398E+002
  3.0095129E+002
  2.1138240E+002
  9.9910531E+001
  7.0211294E+001
  5.1241903E+001
  4.6632501E+001
  4.3522146E+001
  3.5185092E+001
  2.3549162E+001
  3.5602251E+000
  1.9588467E+001
 -1.9522280E+002
  9.9259890E+002
  3.5776890E+002
  6.5362091E+002
  2.8819319E+002
 -6.8677443E+001
 -3.5748290E+002
 -5.6949923E+002
 -6.5820195E+002
 -5.1454331E+002
 -2.1322078E+002
 -7.6057694E+001
  1.5265866E+002
  2.9710913E+002
 -5.3804074E+002
 -1.0336402E+002
 -1.5794266E+002
 -1.6671077E+001
  2.1699363E+001
  2.3691492E+001
  2.5470126E+001
  2.4808244E+001
  2.2979142E+001
  1.7576792E+001
  1.1680816E+001
 -7.9402577E-001
  1.8462771E+001
  1.1703975E+003
  4.3862730E+002
  7.7325061E+002
  3.7590130E+002
 -7.3864373E+000
 -2.7282892E+002
 -4.7355176E+002
 -5.7443411E+002
 -5.0646175E+002
 -4.3943502E+001
  4.0619167E+001
  1.1634772E+003
 -1.1053045E+002
 -6.5243380E+001
 -1.6154073E+002
 -1.1137521E+002
 -5.2773064E+001
 -1.7347579E+001
 -3.1363121E+000
  3.6602921E+000
  5.8588026E+000
  4.8242439E+000
  4.4510161E+000
 -3.8439932E+000
  1.8667007E+001
 -4.4846667E+001
 -1.3942006E+003
 -1.9250912E+002
 -1.0705605E+002
 -1.3705875E+002
 -3.0762504E+002
 -4.7755927E+002
 -6.0695288E+002
 -8.4884741E+002
 -9.5588098E+002
 -2.3618331E+003
 -9.0016190E+002
 -6.9903424E+001
 -4.1626628E+001
 -9.0506744E+001
 -8.5982297E+001
 -5.9714913E+001
 -3.4835715E+001
 -2.0390002E+001
 -1.2605030E+001
 -7.7315268E+000
 -4.9760454E+000
 -9.5982589E-001
 -5.8418824E+000
  1.8640463E+001
 -4.2653378E+002
 -9.3843641E+001
 -4.3726424E+002
 -2.6113646E+002
 -3.6893836E+002
 -4.8247853E+002
 -5.7092861E+002
 -8.3781615E+002
 -3.3016230E+002
 -3.4860284E+002
 -2.0196924E+001
 -1.5648919E+000
 -1.2955359E+001
 -2.2351662E+001
 -2.6200239E+001
 -2.8438323E+001
 -2.6874198E+001
 -2.3973514E+001
 -1.9193617E+001
 -1.3717702E+001
 -5.8238230E+000
 -7.6721433E+000
  1.8611949E+001
 -1.3627200E+002
 -1.2002029E+002
 -2.4078235E+002
 -3.3600391E+002
 -3.7937456E+002
 -4.3760209E+002
 -4.9596857E+002
 -3.6596219E+002
 -2.8313809E+002
  1.0043400E+002
 -2.4181900E+000
  6.2903973E+001
  6.0474518E+001
  5.6645734E+001
  8.2898637E+000
 -1.6612891E+001
 -3.1450551E+001
 -3.5378795E+001
 -3.1813251E+001
 -2.3754166E+001
 -1.1594601E+001
 -9.8306511E+000
  1.8372446E+001
 -1.5515309E+002
 -3.9071945E+001
 -2.1097620E+002
 -3.1122143E+002
 -3.9362098E+002
 -4.1187942E+002
 -3.6475052E+002
 -2.3377698E+002
 -1.4778888E+002
  1.6724443E+002
  1.6212169E+002
  7.6449248E+001
  2.2659736E+002
  7.4672413E+001
  2.5983216E+001
 -2.1368331E+001
 -4.4100836E+001
 -5.3346438E+001
 -4.9763783E+001
 -3.8011167E+001
 -1.9963220E+001
 -1.2976096E+001
  1.7797532E+001
 -1.5192426E+002
 -4.9643313E+001
 -2.3576426E+002
 -3.8418644E+002
 -4.7347218E+002
 -4.5477925E+002
 -3.5433700E+002
 -1.8054615E+002
 -1.4040113E+002
  2.3656592E+002
  8.5499832E+002
  2.5429063E+002
  1.6260450E+002
  4.5816572E+001
 -4.4416654E+000
 -4.7132916E+001
 -7.1621453E+001
 -8.1845310E+001
 -7.6786777E+001
 -5.9599856E+001
 -3.3065987E+001
 -1.8049562E+001
  1.6400399E+001
 -2.0280973E+002
 -9.4456136E+001
 -3.9661930E+002
 -6.1229766E+002
 -7.1586682E+002
 -6.2833817E+002
 -4.4159720E+002
 -1.9241936E+002
 -1.5439627E+002
  2.9148851E+002
  2.5652519E+002
 -4.8322705E+002
 -1.0087900E+002
 -1.6211864E+002
 -5.2552361E+001
 -3.9221365E+001
 -6.4003918E+001
 -8.9261953E+001
 -1.1102350E+002
 -1.2103154E+002
 -1.1491993E+002
 -9.1713115E+001
 -5.3770245E+001
 -2.6125435E+001
  1.3789783E+001
 -1.6761974E+002
 -2.9666944E+002
 -7.4447815E+002
 -1.1256891E+003
 -1.1848203E+003
 -9.7546466E+002
 -5.9508510E+002
 -2.4106497E+002
 -1.1932199E+002
  3.3084547E+002
 -1.0246734E+002
 -6.3533602E+001
 -1.6426033E+002
 -1.3889375E+002
 -1.1419833E+002
 -1.1344905E+002
 -1.3220390E+002
 -1.5252660E+002
 -1.6636067E+002
 -1.6365197E+002
 -1.3773913E+002
 -8.6655733E+001
 -4.0644132E+001
  6.3664955E+000
 -5.8777117E+002
 -5.6309827E+002
 -1.6100248E+003
 -2.0029610E+003
 -1.9523223E+003
 -1.4445565E+003
 -8.8769050E+002
 -1.3764105E+002
 -1.8676648E+002
  5.8751469E+002
 -5.9314560E+001
 -4.1286225E+001
 -9.0278682E+001
 -1.1315307E+002
 -1.2121120E+002
 -1.3622180E+002
 -1.5842018E+002
 -1.8465762E+002
 -2.0762516E+002
 -2.1793590E+002
 -1.9938293E+002
 -1.3870789E+002
 -6.2636626E+001
 -5.2345388E+000
 -2.5647085E+002
 -2.0256862E+003
 -2.9580318E+003
 -3.5731033E+003
 -2.7275161E+003
 -1.9730952E+003
 -1.1986567E+003
 -4.0980672E+002
  1.7167274E+002
  1.7381433E+003
 -2.1796668E+001
  2.3635826E+001
 -1.4362497E+001
 -4.2072686E+001
 -9.3780482E+001
 -1.2889363E+002
 -1.6330590E+002
 -1.9602531E+002
 -2.2889464E+002
 -2.5904949E+002
 -2.7070534E+002
 -2.2007518E+002
 -1.1365446E+002
 -6.2645399E+001
 -6.2092348E+003
 -2.3052953E+003
 -7.2000702E+003
 -4.2248185E+003
 -3.3505454E+003
 -2.2371650E+003
 -1.4696613E+003
 -8.7931341E+002
 -6.9572444E+002
 -4.1939668E+002
 -7.1024795E+002
  7.3793360E+002
  9.1972851E+001
  4.3241964E+001
  1.1927116E+002
 -4.1665012E+000
 -5.6844115E+001
 -1.0912646E+002
 -1.4806762E+002
 -1.8251383E+002
 -2.1107869E+002
 -2.4816073E+002
 -3.0030250E+002
 -3.2058649E+002
 -1.4314038E+002
 -1.2569242E+002
 -1.5807019E+004
 -8.2911810E+003
 -6.9227751E+003
 -4.0730997E+003
 -3.0464483E+003
 -2.1175947E+003
 -1.4971082E+003
 -1.0418796E+003
 -6.7925159E+002
 -3.4208020E+002
  1.2170720E+002
  5.5718646E+002
  1.6349292E+002
  9.6284866E+001
  7.5442367E+000
 -4.0271341E+001
 -8.5078427E+001
 -1.2049566E+002
 -1.4674170E+002
 -1.5973279E+002
 -1.4726255E+002
 -1.5605186E+002
 -3.1853024E+002
 -1.9853458E+002
 -8.0216781E+002
 -4.5362925E+003
 -7.0241410E+003
 -1.8116506E+003
 -2.7826814E+003
 -1.9357390E+003
 -1.6508290E+003
 -1.2518970E+003
 -9.3190094E+002
 -4.7643087E+002
 -3.1013824E+002
  2.5619493E+002
  1.4563683E+002
 -3.3521883E+002
 -5.6733459E+001
 -9.5901489E+001
 -2.2452497E+001
 -1.3585814E+001
 -3.6131289E+001
 -5.9712242E+001
 -8.3896328E+001
 -1.0330714E+002
 -9.6721405E+001
 -5.1465695E+001
  1.6826070E+002
  3.8773569E+002
  1.5004023E+003
  5.0360201E+002
  3.8749412E+003
  3.0445073E+002
  2.9800873E+002
 -6.4810339E+002
 -9.6922309E+002
 -1.0371392E+003
 -9.5526302E+002
 -7.8620023E+002
 -5.0485233E+002
 -1.8794332E+002
  5.3229372E+002
 -8.3411377E+001
 -8.9988481E+000
 -7.3246125E+001
 -4.5047765E+001
 -3.1996536E+001
 -2.4095132E+001
 -2.8810207E+001
 -3.6814424E+001
 -5.3492577E+001
 -5.7471374E+001
 -6.1532148E+001
  1.8866399E+002
 -4.5096289E-001
  2.2843986E+002
  4.0400818E+002
  3.1926294E+002
  6.2912812E+002
  6.1736060E+001
 -4.0496378E+002
 -6.5963286E+002
 -7.5668654E+002
 -7.4913475E+002
 -6.8916767E+002
 -6.4181968E+002
 -3.4929798E+002
 -3.4392695E+002
  1.4739825E+002
  1.2448607E+000
  7.4446915E+000
  2.6401961E+001
 -2.5147050E+001
 -1.7017600E+001
 -3.7556827E+000
  1.2864961E+001
  2.2918761E+001
  2.4518396E+001
 -1.3753403E+001
 -7.9433705E+001
 -1.9955449E+002
 -5.0175189E+001
 -1.2339281E+002
  4.7486964E+002
 -1.8284600E+002
 -1.1485892E+001
 -2.5740510E+002
 -3.8119393E+002
 -5.8085219E+002
 -7.1249499E+002
 -7.9828255E+002
 -8.3478804E+002
 -7.8718111E+002
 -5.7226643E+002
 -3.4616018E+002
  2.8461934E+002
  7.8615197E+001
  2.4017960E+001
 -1.4749613E+001
 -6.3331798E+000
  2.0055323E+001
  5.6688322E+001
  9.6288396E+001
  1.2666136E+002
  1.4659885E+002
  6.3951155E+001
 -2.6361395E+002
 -2.2171808E+002
 -1.0734795E+003
 -1.4753115E+003
 -2.2306429E+002
 -1.4451886E+003
 -6.6351589E+002
 -6.6999249E+002
 -6.7829632E+002
 -7.8431579E+002
 -8.8031299E+002
 -9.4555930E+002
 -9.2960923E+002
 -8.4080661E+002
 -5.1629857E+002
 -4.2744403E+002
 -2.0935502E+002
  9.0510722E+001
 -1.9547426E+002
 -3.8167512E+001
 -9.8313070E+001
 -6.8888898E+001
 -4.6517252E+001
 -1.6196479E+001
  3.1365715E+001
  9.0756013E+001
  1.5718745E+002
  2.3961233E+002
  3.1235074E+002
  5.2496612E+002
  6.6746345E+002
  2.0999741E+003
  6.7438856E+002
 -3.0560847E+003
 -3.1568274E+003
 -1.4073216E+003
 -1.0937574E+003
 -8.5474849E+002
 -8.3284215E+002
 -8.8859662E+002
 -9.7972817E+002
 -1.0561791E+003
 -1.0918476E+003
 -1.0268802E+003
 -9.4253318E+002
 -3.7255759E+002
 -1.0838778E+002
 -1.2648366E+002
 -9.1488527E+001
 -1.6152746E+002
 -1.7766150E+002
 -1.5387509E+002
 -1.0425843E+002
 -4.5180457E+001
  2.2124905E+001
  1.0022211E+002
  1.8326772E+002
  2.9093830E+002
  3.6279168E+002
  6.5275305E+002
  1.9841260E+002
  4.7145285E+002
  1.7830247E+003
 -1.0373388E+003
  1.3852080E+002
 -1.2520420E+003
 -1.0048997E+003
 -1.0853179E+003
 -9.3068820E+002
 -9.3333132E+002
 -9.8224235E+002
 -1.0728048E+003
 -1.1654215E+003
 -1.2402743E+003
 -1.2770016E+003
 -1.3153359E+003
 -1.3349800E+003
 -1.4753491E+003
 -1.2535597E+002
 -3.3330253E+002
 -3.1555748E+002
 -3.0006730E+002
 -2.7484694E+002
 -2.2747028E+002
 -1.6402396E+002
 -8.9091507E+001
 -7.1899405E+000
  7.8975259E+001
  1.6890657E+002
  2.4876131E+002
  3.3371564E+002
  2.8034841E+002
  1.7656994E+002
  1.0553037E+002
 -2.1471404E+003
 -1.9101607E+003
 -1.2868920E+003
 -9.9888911E+002
 -9.4074680E+002
 -9.5233956E+002
 -9.7616628E+002
 -1.0472700E+003
 -1.1435253E+003
 -1.2518598E+003
 -1.3553583E+003
 -1.4611377E+003
 -1.5434757E+003
 -1.6818403E+003
 -1.6443942E+003
 -3.0096972E+003
 -3.9835639E+002
 -2.9297019E+002
 -4.8076452E+002
 -4.7441008E+002
 -4.4169052E+002
 -4.1444179E+002
 -3.6458621E+002
 -3.0151369E+002
 -2.2558399E+002
 -1.4165373E+002
 -5.3398417E+001
  3.5322851E+001
  1.1664194E+002
  1.8332807E+002
  1.9743538E+002
  1.6583403E+002
  4.8296282E+001
  8.8394847E+001
 -2.5963996E+003
 -1.8133563E+003
 -1.1713466E+003
 -9.8698885E+002
 -9.1969084E+002
 -9.4027877E+002
 -9.9950016E+002
 -1.0826627E+003
 -1.1867439E+003
 -1.3018388E+003
 -1.4204766E+003
 -1.5393716E+003
 -1.6466315E+003
 -1.7892861E+003
 -1.8672674E+003
 -2.0922111E+003
 -1.8953952E+003
 -1.7441298E+003
 -3.4003811E+003
  7.0600764E+002
 -4.8198313E+002
 -7.0808710E+002
 -7.1640056E+002
 -6.5550240E+002
 -5.8963610E+002
 -5.2182318E+002
 -4.5164383E+002
 -3.7327434E+002
 -2.8870949E+002
 -1.9978930E+002
 -1.0969629E+002
 -2.2925760E+001
  5.4161923E+001
  1.0706623E+002
  1.2186356E+002
  9.1490121E+001
  2.8852092E+001
  6.0502403E+001
  3.7714092E+002
 -3.8790525E+002
 -8.7786260E+002
 -8.9850954E+002
 -9.0927557E+002
 -9.4539895E+002
 -1.0112940E+003
 -1.0993568E+003
 -1.2028175E+003
 -1.3160332E+003
 -1.4325875E+003
 -1.5466863E+003
 -1.6566383E+003
 -1.7569115E+003
 -1.8409799E+003
 -2.0389315E+003
 -2.2363445E+003
 -2.5184179E+003
 -2.4923691E+003
 -1.5814328E+003
 -4.7853318E+003
  1.0448060E+003
 -1.9777293E+002
 -2.2541975E+003
 -1.1333360E+003
 -1.0379882E+003
 -8.3079544E+002
 -7.2410051E+002
 -6.2172473E+002
 -5.3081661E+002
 -4.4065952E+002
 -3.5018052E+002
 -2.5958721E+002
 -1.7081161E+002
 -8.6398468E+001
 -1.1734423E+001
  4.9975982E+001
  7.7018884E+001
  7.8613308E+001
  1.4497104E+001
  7.6244373E+001
 -5.4370015E+002
 -8.2898455E+002
 -8.0506953E+002
 -8.9028587E+002
 -9.1647865E+002
 -9.5877776E+002
 -1.0206273E+003
 -1.1019042E+003
 -1.1971241E+003
 -1.3004708E+003
 -1.4061851E+003
 -1.5095089E+003
 -1.6071420E+003
 -1.7005164E+003
 -1.8158359E+003
 -1.9710025E+003
 -2.1468433E+003
 -2.4699794E+003
 -2.8038784E+003
 -3.0796172E+003
 -3.0528237E+003
 -5.1998122E+003
 -3.2601034E+003
 -3.2300935E+003
 -3.0984297E+003
 -2.6248977E+003
 -2.9364813E+003
 -5.7458078E+002
 -5.1869809E+003
  1.0324862E+003
  7.7657735E+002
 -3.4890011E+003
 -1.6836987E+003
 -1.2854351E+003
 -1.6642429E+003
 -1.3250199E+003
 -1.1635261E+003
 -9.6247397E+002
 -8.2190231E+002
 -7.0111285E+002
 -5.9629887E+002
 -4.9874957E+002
 -4.0588664E+002
 -3.1671796E+002
 -2.3174357E+002
 -1.5237053E+002
 -7.7670233E+001
 -1.1025453E+001
  6.5800403E+001
  8.4371857E+001
  5.9127894E+001
  8.0430085E+001
 -5.1125275E+001
 -2.2661660E+003
 -1.5637274E+003
 -1.1912123E+003
 -9.9828639E+002
 -9.4824709E+002
 -9.4964327E+002
 -9.7604634E+002
 -1.0249881E+003
 -1.0929531E+003
 -1.1743597E+003
 -1.2633296E+003
 -1.3544260E+003
 -1.4435891E+003
 -1.5295794E+003
 -1.6184720E+003
 -1.7205836E+003
 -1.8470678E+003
 -2.0146180E+003
 -2.2048077E+003
 -2.3479734E+003
 -2.5031738E+003
 -2.7050602E+003
 -2.8450718E+003
 -3.1339306E+003
 -3.3600180E+003
 -3.6419239E+003
 -3.5211301E+003
 -6.1667401E+003
 -3.8015811E+003
 -4.1447449E+003
 -3.3832247E+003
 -3.7307756E+003
 -3.1142865E+003
 -3.1146838E+003
 -2.8326928E+003
 -2.6679789E+003
 -2.6271135E+003
 -2.3159444E+003
 -2.4818811E+003
 -2.1344464E+003
 -2.4293457E+003
 -2.1011872E+003
 -2.4279707E+003
 -2.2728127E+003
 -2.5826466E+003
 -2.4224322E+003
 -2.3160486E+003
 -3.7589139E+003
 -2.2469194E+003
 -1.9633738E+003
 -1.6247526E+003
 -1.3514460E+003
 -1.1786273E+003
 -1.0182622E+003
 -8.7457784E+002
 -7.5099691E+002
 -6.4167599E+002
 -5.4268261E+002
 -4.5129128E+002
 -3.6643554E+002
 -2.8837414E+002
 -2.1649761E+002
 -1.5291026E+002
 -8.0044817E+001
 -2.4019952E+001
  1.9989299E+002
  2.8032641E+001
  2.8653017E+002
 -1.9710842E+003
 -1.5839387E+003
 -1.1670384E+003
 -1.0868167E+003
 -1.0081494E+003
 -9.8113553E+002
 -9.8702335E+002
 -1.0198253E+003
 -1.0723193E+003
 -1.1381503E+003
 -1.2111730E+003
 -1.2863134E+003
 -1.3602129E+003
 -1.4325802E+003
 -1.5064787E+003
 -1.5879078E+003
 -1.6830372E+003
 -1.7907334E+003
 -1.8979440E+003
 -2.0020290E+003
 -2.1163930E+003
 -2.2655350E+003
 -2.4947215E+003
 -2.7117143E+003
 -2.8401935E+003
 -2.9154091E+003
 -3.0545485E+003
 -3.0613856E+003
 -3.1011338E+003
 -2.9871848E+003
 -2.8856317E+003
 -2.7366481E+003
 -2.6351009E+003
 -2.5403858E+003
 -2.4568246E+003
 -2.2963370E+003
 -2.1459922E+003
 -1.9170119E+003
 -1.7121824E+003
 -1.5351303E+003
 -1.3322902E+003
 -1.1622144E+003
 -1.0187045E+003
 -8.8793894E+002
 -7.6988880E+002
 -6.6410229E+002
 -5.6871308E+002
 -4.8230887E+002
 -4.0419222E+002
 -3.3465402E+002
 -2.7437733E+002
 -2.2529182E+002
 -1.8302265E+002
 -1.5266923E+002
 -3.7054069E+001
  1.1403647E+002
  9.9452211E+002
  4.1607030E+002
 -4.7222621E+002
 -1.0878166E+003
 -1.0790104E+003
 -1.0262355E+003
 -9.8662061E+002
 -9.8020184E+002
 -1.0003273E+003
 -1.0396425E+003
 -1.0911231E+003
 -1.1488900E+003
 -1.2082900E+003
 -1.2663604E+003
 -1.3221670E+003
 -1.3768924E+003
 -1.4328805E+003
 -1.4915792E+003
 -1.5512185E+003
 -1.6100401E+003
 -1.6720503E+003
 -1.7565839E+003
 -1.8812430E+003
 -2.0321018E+003
 -2.1786271E+003
 -2.2888413E+003
 -2.3810955E+003
 -2.4870059E+003
 -2.6398335E+003
 -2.7647573E+003
 -2.9359258E+003
 -2.9273076E+003
 -2.9442229E+003
 -2.7870893E+003
 -2.6270964E+003
 -2.4501010E+003
 -2.2017882E+003
 -1.9512132E+003
 -1.7542587E+003
 -1.5773759E+003
 -1.4137947E+003
 -1.2628674E+003
 -1.1189615E+003
 -9.8826770E+002
 -8.6953576E+002
 -7.6111800E+002
 -6.6303924E+002
 -5.7488855E+002
 -4.9595471E+002
 -4.2584306E+002
 -3.6488205E+002
 -3.1482957E+002
 -2.7922626E+002
 -2.6758596E+002
 -2.9131490E+002
 -4.0480977E+002
 -5.8525273E+002
 -3.2227626E+002
 -7.6244042E+002
  1.3060505E+002
 -2.0668120E+003
 -1.5789794E+003
 -1.2157748E+003
 -1.0776740E+003
 -9.9530092E+002
 -9.5655916E+002
 -9.4926689E+002
 -9.6485213E+002
 -9.9580926E+002
 -1.0360432E+003
 -1.0805664E+003
 -1.1254531E+003
 -1.1679563E+003
 -1.2066249E+003
 -1.2411105E+003
 -1.2715602E+003
 -1.2977104E+003
 -1.3191920E+003
 -1.3373226E+003
 -1.3588528E+003
 -1.3945916E+003
 -1.4550249E+003
 -1.5378337E+003
 -1.6294547E+003
 -1.7057981E+003
 -1.7821606E+003
 -1.9070329E+003
 -2.1677811E+003
 -2.5531645E+003
 -2.7954861E+003
 -3.3664676E+003
 -3.1282933E+003
 -3.1491957E+003
 -2.8389328E+003
 -2.4238781E+003
 -2.0713628E+003
 -1.8408867E+003
 -1.6293586E+003
 -1.4533662E+003
 -1.3076169E+003
 -1.1747749E+003
 -1.0505198E+003
 -9.3367593E+002
 -8.2578557E+002
 -7.2759636E+002
 -6.3925822E+002
 -5.6051675E+002
 -4.9069341E+002
 -4.2903908E+002
 -3.7521035E+002
 -3.2998213E+002
 -2.9628086E+002
 -2.8205408E+002
 -3.0174709E+002
 -3.9714173E+002
 -5.6317838E+002
 -3.0540984E+002
 -7.2133606E+002
 -2.4767818E+003
 -1.7051149E+003
 -1.1531614E+003
 -9.6587019E+002
 -9.0644196E+002
 -8.9055480E+002
 -8.9709503E+002
 -9.1641569E+002
 -9.4409901E+002
 -9.7642483E+002
 -1.0101385E+003
 -1.0423493E+003
 -1.0707054E+003
 -1.0934606E+003
 -1.1093712E+003
 -1.1174003E+003
 -1.1165871E+003
 -1.1063685E+003
 -1.0877536E+003
 -1.0641857E+003
 -1.0417664E+003
 -1.0270727E+003
 -1.0340573E+003
 -1.0379949E+003
 -1.0625455E+003
 -1.0384449E+003
 -1.1551664E+003
 -1.1300283E+003
 -2.1212705E+003
 -3.3959167E+003
 -3.2217109E+003
 -5.0669896E+003
 -4.6154905E+003
 -2.3128654E+003
 -2.3277759E+003
 -1.9056166E+003
 -1.7081054E+003
 -1.4770437E+003
 -1.3226734E+003
 -1.1922370E+003
 -1.0754521E+003
 -9.6299849E+002
 -8.5663768E+002
 -7.5871865E+002
 -6.7092907E+002
 -5.9349922E+002
 -5.2575590E+002
 -4.6645558E+002
 -4.1391731E+002
 -3.6630958E+002
 -3.2150786E+002
 -2.7864849E+002
 -2.3175062E+002
 -1.8617582E+002
 -4.7365605E+001
  1.1852638E+002
  9.6268604E+002
  1.6927251E+002
  2.7515933E+002
 -2.8537407E+002
 -6.8189624E+002
 -7.3032598E+002
 -7.7410648E+002
 -8.0666218E+002
 -8.3560318E+002
 -8.6282499E+002
 -8.8985852E+002
 -9.1645637E+002
 -9.4141935E+002
 -9.6302440E+002
 -9.7942908E+002
 -9.8886284E+002
 -9.8964832E+002
 -9.8012893E+002
 -9.5863409E+002
 -9.2365895E+002
 -8.7416719E+002
 -8.0968756E+002
 -7.3041970E+002
 -6.3625000E+002
 -5.3162995E+002
 -4.7372413E+002
 -3.1686091E+002
 -5.4108988E+001
 -7.5833364E+000
  1.2947758E+002
  6.7158247E+002
  1.0900248E+003
 -1.5673216E+003
 -2.8417256E+003
 -1.5427220E+003
 -1.4793436E+003
 -1.2585208E+003
 -1.1661804E+003
 -1.0627425E+003
 -9.6038083E+002
 -8.5536576E+002
 -7.5635537E+002
 -6.6790243E+002
 -5.9140403E+002
 -5.2628175E+002
 -4.7121199E+002
 -4.2421951E+002
 -3.8255956E+002
 -3.4287006E+002
 -2.9963864E+002
 -2.4955540E+002
 -1.7270224E+002
 -9.3155092E+001
  1.5113685E+002
  1.7264097E+001
  2.5430121E+002
  8.6674762E+001
 -1.8018148E+002
 -2.9952480E+002
 -5.4906777E+002
 -6.6576873E+002
 -7.3806199E+002
 -7.8197558E+002
 -8.1373155E+002
 -8.3890896E+002
 -8.6012867E+002
 -8.7763691E+002
 -8.9061265E+002
 -8.9766094E+002
 -8.9713460E+002
 -8.8723566E+002
 -8.6601019E+002
 -8.3128423E+002
 -7.8063576E+002
 -7.1107539E+002
 -6.1950223E+002
 -4.9975320E+002
 -3.5332751E+002
 -1.4522092E+002
  8.8799955E+001
  5.9991167E+002
  3.7924737E+002
 -3.5864939E+002
 -9.8174635E+002
 -1.0460143E+003
 -1.0379264E+003
 -9.9225973E+002
 -9.2051854E+002
 -8.2403260E+002
 -7.2073534E+002
 -6.2894007E+002
 -5.5210582E+002
 -4.8902628E+002
 -4.3822781E+002
 -3.9774158E+002
 -3.6519391E+002
 -3.3737815E+002
 -3.0964142E+002
 -2.7606223E+002
 -2.2736216E+002
 -1.5979797E+002
 -5.5213884E+001
  8.7398151E+000
  3.5206254E+001
  5.0815454E+001
  8.8201051E+001
 -1.8137387E+002
 -3.0144250E+002
 -5.3481221E+002
 -6.4179318E+002
 -7.0964561E+002
 -7.4900902E+002
 -7.7582292E+002
 -7.9523276E+002
 -8.1005636E+002
 -8.2080203E+002
 -8.2694403E+002
 -8.2732536E+002
 -8.2046399E+002
 -8.0465551E+002
 -7.7798774E+002
 -7.3820165E+002
 -6.8269279E+002
 -6.0756430E+002
 -5.0980932E+002
 -3.7863744E+002
 -2.3134070E+002
 -1.1432898E+001
 -4.0629018E+001
  1.5036343E+002
 -8.1453400E+002
 -8.4955465E+002
 -8.2435343E+002
 -8.2261007E+002
 -7.6331092E+002
 -6.4716445E+002
 -5.4765894E+002
 -4.7141325E+002
 -4.1111979E+002
 -3.6504014E+002
 -3.3070930E+002
 -3.0643591E+002
 -2.9016507E+002
 -2.7900717E+002
 -2.6863903E+002
 -2.5249007E+002
 -2.2338569E+002
 -1.7216618E+002
 -1.1047964E+002
 -4.3399699E+001
 -2.3605189E+001
  3.0316031E+001
  1.2129910E+002
 -2.6641274E+002
 -6.6242192E+002
 -6.6377243E+002
 -6.9878458E+002
 -7.1914699E+002
 -7.3667497E+002
 -7.4937543E+002
 -7.5930175E+002
 -7.6669019E+002
 -7.7131390E+002
 -7.7234506E+002
 -7.6865545E+002
 -7.5892864E+002
 -7.4173147E+002
 -7.1549745E+002
 -6.7848155E+002
 -6.2850819E+002
 -5.6314411E+002
 -4.7811514E+002
 -3.7270570E+002
 -2.3510584E+002
 -1.1352492E+002
 -3.1392522E+001
  6.0176920E+001
 -6.5577214E+002
 -8.3966056E+002
 -6.3265528E+002
 -5.2300026E+002
 -3.9250938E+002
 -3.3646291E+002
 -2.8505511E+002
 -2.4938357E+002
 -2.2314054E+002
 -2.0662678E+002
 -1.9888343E+002
 -1.9917970E+002
 -2.0590555E+002
 -2.1598188E+002
 -2.2426193E+002
 -2.2285610E+002
 -2.0424668E+002
 -1.6219385E+002
 -1.0198231E+002
 -4.2803234E+001
 -8.7060198E-001
 -2.2281031E+003
 -1.4613641E+003
 -1.0143243E+003
 -8.2574916E+002
 -7.6908569E+002
 -7.4199845E+002
 -7.3243937E+002
 -7.2875574E+002
 -7.2817360E+002
 -7.2841194E+002
 -7.2804458E+002
 -7.2576213E+002
 -7.2037511E+002
 -7.1076634E+002
 -6.9589484E+002
 -6.7480264E+002
 -6.4654971E+002
 -6.1036643E+002
 -5.6493848E+002
 -5.1083050E+002
 -4.4106023E+002
 -3.7243067E+002
 -2.2235220E+002
 -1.4895953E+002
  5.5192816E+001
  1.0393090E+001
 -3.0646401E+001
 -8.7162254E+001
 -1.0621389E+002
 -9.6441041E+001
 -8.5754328E+001
 -7.5980037E+001
 -7.0615951E+001
 -7.0755119E+001
 -7.7632224E+001
 -9.2172576E+001
 -1.1468033E+002
 -1.4418398E+002
 -1.7758741E+002
 -2.0839920E+002
 -2.2465666E+002
 -2.1018942E+002
 -1.5137400E+002
 -6.4683946E+001
 -4.4550698E+001
 -1.5293681E+003
 -1.2687165E+003
 -9.5842098E+002
 -8.7474682E+002
 -7.9301028E+002
 -7.4912848E+002
 -7.2122951E+002
 -7.0594567E+002
 -6.9734723E+002
 -6.9243103E+002
 -6.8889507E+002
 -6.8518166E+002
 -6.8012697E+002
 -6.7288358E+002
 -6.6287962E+002
 -6.4981468E+002
 -6.3376461E+002
 -6.1505064E+002
 -5.9519346E+002
 -5.7401393E+002
 -5.6061828E+002
 -5.2949012E+002
 -5.5798610E+002
 -2.1268387E+002
 -1.4802853E+002
  7.2506198E+002
  2.8561843E+002
  2.5730271E+002
  1.4958913E+002
  1.2858058E+002
  1.0698210E+002
  9.4807221E+001
  8.2992714E+001
  7.0106463E+001
  5.3250701E+001
  2.9924214E+001
 -2.3587076E+000
 -4.4635162E+001
 -9.6046297E+001
 -1.5328725E+002
 -2.0526755E+002
 -2.2698426E+002
 -2.0236408E+002
 -8.5023038E+001
 -6.6314381E+001
  3.0423888E+002
 -3.5501858E+002
 -8.1804510E+002
 -8.1641238E+002
 -7.7179089E+002
 -7.2533189E+002
 -6.9434808E+002
 -6.7468851E+002
 -6.6299912E+002
 -6.5600311E+002
 -6.5156000E+002
 -6.4820890E+002
 -6.4503506E+002
 -6.4154000E+002
 -6.3761331E+002
 -6.3354982E+002
 -6.3014784E+002
 -6.2875248E+002
 -6.3174763E+002
 -6.4159415E+002
 -6.6532791E+002
 -6.9883780E+002
 -7.8818276E+002
 -8.8112432E+002
 -1.2135379E+003
  3.1175093E+002
 -2.8465940E+002
  1.0100512E+002
  2.0110301E+002
  3.6005754E+002
  3.4209364E+002
  3.0731534E+002
  2.7564423E+002
  2.4916479E+002
  2.2726623E+002
  2.0763806E+002
  1.8754684E+002
  1.6347952E+002
  1.3128777E+002
  8.7024067E+001
  3.2137217E+001
 -2.8302269E+001
 -1.0052714E+002
 -1.3661374E+002
 -1.2563427E+002
 -7.4089986E+000
 -3.5145435E+002
 -1.4510452E+003
 -1.1062814E+003
 -8.4280963E+002
 -7.6906718E+002
 -7.1208124E+002
 -6.7471870E+002
 -6.4925477E+002
 -6.3318130E+002
 -6.2326074E+002
 -6.1741980E+002
 -6.1417334E+002
 -6.1261392E+002
 -6.1226221E+002
 -6.1302333E+002
 -6.1517820E+002
 -6.1941918E+002
 -6.2689527E+002
 -6.3931349E+002
 -6.5881159E+002
 -6.8836439E+002
 -7.2931400E+002
 -7.8602017E+002
 -8.4168671E+002
 -8.3614253E+002
 -8.4078875E+002
 -8.8406236E+002
 -7.7176827E+002
  1.4166241E+002
  1.9949289E+002
  4.8509182E+002
  4.6500366E+002
  4.7674446E+002
  4.4343466E+002
  4.0877219E+002
  3.7750099E+002
  3.5235685E+002
  3.3257987E+002
  3.1633189E+002
  3.0050857E+002
  2.8032617E+002
  2.4948516E+002
  2.0198267E+002
  1.6362086E+002
  1.5876214E+002
  9.4230814E+001
  1.3555238E+002
  2.7104039E+002
  6.6862903E+002
 -1.5903223E+003
 -1.1111430E+003
 -7.8002133E+002
 -6.5893786E+002
 -6.2063998E+002
 -6.0130325E+002
 -5.9048854E+002
 -5.8325999E+002
 -5.7874013E+002
 -5.7630176E+002
 -5.7566224E+002
 -5.7668201E+002
 -5.7942469E+002
 -5.8418160E+002
 -5.9151254E+002
 -6.0227497E+002
 -6.1763888E+002
 -6.3901190E+002
 -6.6791799E+002
 -7.0519455E+002
 -7.5060867E+002
 -7.9769667E+002
 -8.3087313E+002
 -8.5598783E+002
 -8.9336875E+002
 -9.3592643E+002
 -9.6000295E+002
 -9.5520364E+002
  1.2625147E+003
  6.3346260E+002
  6.9774782E+002
  5.9517992E+002
  5.7622322E+002
  5.3718026E+002
  5.0358307E+002
  4.7309011E+002
  4.5028018E+002
  4.3528921E+002
  4.2804919E+002
  4.2728136E+002
  4.3004488E+002
  4.2899949E+002
  4.1308579E+002
  3.5360137E+002
  4.5003109E+002
  7.8077711E+002
  1.8818259E+003
  9.8053965E+002
  1.7025765E+002
 -1.8968572E+002
 -4.4869752E+002
 -4.8143056E+002
 -5.0547673E+002
 -5.1892019E+002
 -5.2633986E+002
 -5.2987469E+002
 -5.3175713E+002
 -5.3339410E+002
 -5.3570443E+002
 -5.3932178E+002
 -5.4479405E+002
 -5.5270827E+002
 -5.6376635E+002
 -5.7881307E+002
 -5.9879937E+002
 -6.2466160E+002
 -6.5698379E+002
 -6.9553137E+002
 -7.3800925E+002
 -7.7950464E+002
 -8.1711491E+002
 -8.5358732E+002
 -9.0092398E+002
 -9.6113163E+002
 -1.0317873E+003
 -1.0461758E+003
 -9.8802861E+002
  5.1586316E+002
 -2.3460096E+002
  1.9646893E+002
  6.5221305E+002
  6.7312583E+002
  6.6907827E+002
  6.2238568E+002
  5.8931666E+002
  5.5766731E+002
  5.3267956E+002
  5.1516626E+002
  5.0705402E+002
  5.0987920E+002
  5.2494217E+002
  5.5460671E+002
  5.9326730E+002
  6.4544631E+002
  6.1268605E+002
  4.8476472E+002
  6.3797980E+001
 -6.9703996E+002
  5.1859307E+001
 -1.1332219E+002
 -1.8632808E+002
 -3.4004042E+002
 -4.0795089E+002
 -4.4741337E+002
 -4.6755192E+002
 -4.7871481E+002
 -4.8519286E+002
 -4.8987898E+002
 -4.9442704E+002
 -4.9995676E+002
 -5.0729887E+002
 -5.1718212E+002
 -5.3031833E+002
 -5.4742278E+002
 -5.6916374E+002
 -5.9601801E+002
 -6.2803965E+002
 -6.6449440E+002
 -7.0371921E+002
 -7.4406929E+002
 -7.8596787E+002
 -8.3457734E+002
 -8.9661066E+002
 -9.7644747E+002
 -1.0723271E+003
 -1.1725583E+003
 -1.2058809E+003
 -1.0687699E+003
  1.7197367E+003
  1.0095737E+003
  7.7952210E+002
  6.6622942E+002
  6.5074670E+002
  6.2111722E+002
  5.9545982E+002
  5.7304744E+002
  5.5554481E+002
  5.4450755E+002
  5.4209066E+002
  5.5087970E+002
  5.7510014E+002
  6.1830156E+002
  6.9438291E+002
  7.8710155E+002
  9.9660042E+002
  1.0036905E+003
  2.2604613E+003
  8.4186448E+002
  5.0423976E+001
 -9.9673023E+001
 -1.6885230E+002
 -3.0041270E+002
 -3.6293607E+002
 -4.0116218E+002
 -4.2156822E+002
 -4.3358335E+002
 -4.4102012E+002
 -4.4661885E+002
 -4.5200343E+002
 -4.5831528E+002
 -4.6639609E+002
 -4.7694108E+002
 -4.9056008E+002
 -5.0778479E+002
 -5.2901839E+002
 -5.5443816E+002
 -5.8386631E+002
 -6.1672678E+002
 -6.5229875E+002
 -6.9055169E+002
 -7.3317128E+002
 -7.8474979E+002
 -8.4992125E+002
 -9.4290483E+002
 -1.0511861E+003
 -1.2951839E+003
 -1.4474053E+003
 -3.0356921E+003
 -5.3797352E+002
  8.3405863E+002
  1.3551374E+003
  6.7772141E+002
  6.5339470E+002
  6.4028055E+002
  6.0444644E+002
  5.8165456E+002
  5.7360164E+002
  5.6349720E+002
  5.5371874E+002
  5.4525848E+002
  5.3988867E+002
  5.3978540E+002
  5.4711464E+002
  5.6715560E+002
  5.9887489E+002
  6.7346684E+002
  7.1403586E+002
  1.0399000E+003
  3.6106927E+002
  5.8608196E+002
  6.3579711E+001
 -1.3746932E+002
 -3.4805691E+002
 -3.4607630E+002
 -3.6648388E+002
 -3.7838005E+002
 -3.8811397E+002
 -3.9453532E+002
 -3.9937716E+002
 -4.0365995E+002
 -4.0836451E+002
 -4.1423964E+002
 -4.2190733E+002
 -4.3188621E+002
 -4.4460952E+002
 -4.6040918E+002
 -4.7947548E+002
 -5.0180376E+002
 -5.2716979E+002
 -5.5521421E+002
 -5.8572546E+002
 -6.1916835E+002
 -6.5716000E+002
 -7.0294581E+002
 -7.6046675E+002
 -8.3676723E+002
 -9.3456691E+002
 -1.0857845E+003
 -1.2006579E+003
 -1.3231636E+003
 -1.0741796E+003
 -3.0691571E+003
 -1.0789268E+003
 -1.1873568E+003
 -3.0618467E+002
 -8.7397661E+002
 -1.0083583E+002
  7.1773091E+002
  2.2122796E+002
  3.1069709E+002
  3.7972788E+002
  4.1507462E+002
  4.5943948E+002
  4.8074133E+002
  4.9537877E+002
  5.0447319E+002
  5.0837632E+002
  5.0885517E+002
  5.0752035E+002
  5.0580848E+002
  5.0509650E+002
  5.0605076E+002
  5.1050016E+002
  5.1254755E+002
  5.2215356E+002
  4.5496011E+002
  3.9982157E+002
  8.4141787E+002
 -1.1921320E+003
 -7.6595978E+002
 -5.1183887E+002
 -4.1085127E+002
 -3.7853464E+002
 -3.6441240E+002
 -3.5982054E+002
 -3.5834517E+002
 -3.5867342E+002
 -3.6024802E+002
 -3.6314862E+002
 -3.6760065E+002
 -3.7389228E+002
 -3.8229930E+002
 -3.9304924E+002
 -4.0628450E+002
 -4.2202694E+002
 -4.4015459E+002
 -4.6041869E+002
 -4.8253845E+002
 -5.0639618E+002
 -5.3228137E+002
 -5.6107483E+002
 -5.9409515E+002
 -6.3276427E+002
 -6.7706146E+002
 -7.2446310E+002
 -7.5488839E+002
 -7.2579633E+002
 -6.8335275E+002
 -6.7255493E+002
 -4.8931568E+002
 -3.6135393E+002
 -1.4485304E+002
 -6.1540246E+001
  2.9898562E+001
  1.4213364E+002
  2.3850669E+002
  3.1202073E+002
  3.6747468E+002
  4.0578963E+002
  4.3181233E+002
  4.4801169E+002
  4.5600678E+002
  4.5700869E+002
  4.5153027E+002
  4.3906561E+002
  4.1758673E+002
  3.8187836E+002
  3.2265932E+002
  2.1918776E+002
  4.0364192E+001
 -2.0418363E+002
 -1.4286263E+002
 -5.4600206E+002
  1.1430677E+002
 -7.1495270E+002
 -6.0492907E+002
 -4.6242144E+002
 -4.0967125E+002
 -3.6558427E+002
 -3.4241298E+002
 -3.2827206E+002
 -3.2063380E+002
 -3.1666084E+002
 -3.1526806E+002
 -3.1588168E+002
 -3.1832681E+002
 -3.2258731E+002
 -3.2871121E+002
 -3.3673710E+002
 -3.4664623E+002
 -3.5832851E+002
 -3.7156910E+002
 -3.8606731E+002
 -4.0149719E+002
 -4.1759753E+002
 -4.3424163E+002
 -4.5137955E+002
 -4.6875092E+002
 -4.8514866E+002
 -4.9721258E+002
 -4.9690324E+002
 -4.7011961E+002
 -4.2204104E+002
 -3.7168132E+002
 -3.1300307E+002
 -2.8783726E+002
 -2.2422633E+002
 -1.8769387E+002
 -1.2681891E+002
 -6.0481985E+001
  2.4799071E+001
  1.1705246E+002
  2.0028048E+002
  2.6825619E+002
  3.2061980E+002
  3.5849190E+002
  3.8359678E+002
  3.9706300E+002
  3.9936653E+002
  3.9015728E+002
  3.6781511E+002
  3.2867614E+002
  2.6590161E+002
  1.6881758E+002
  2.3606846E+001
 -1.4560185E+002
 -2.4258730E+002
 -1.2516001E+002
 -1.5069697E+002
  1.3360430E+002
 -1.5260147E+002
 -3.5186426E+002
 -3.4938622E+002
 -3.2767101E+002
 -3.0488023E+002
 -2.8894460E+002
 -2.7826238E+002
 -2.7161322E+002
 -2.6782580E+002
 -2.6624465E+002
 -2.6649690E+002
 -2.6839303E+002
 -2.7182164E+002
 -2.7668264E+002
 -2.8283810E+002
 -2.9008105E+002
 -2.9812213E+002
 -3.0659655E+002
 -3.1508716E+002
 -3.2314459E+002
 -3.3026255E+002
 -3.3575050E+002
 -3.3843719E+002
 -3.3619498E+002
 -3.2540723E+002
 -3.0105527E+002
 -2.6225987E+002
 -2.1484262E+002
 -1.7306500E+002
 -1.5172789E+002
 -1.3761721E+002
 -1.3955063E+002
 -1.3208616E+002
 -1.1808813E+002
 -8.0474792E+001
 -2.0584132E+001
  5.2509899E+001
  1.2714968E+002
  1.9462012E+002
  2.5074663E+002
  2.9407393E+002
  3.2423878E+002
  3.4114323E+002
  3.4445470E+002
  3.3336285E+002
  3.0624593E+002
  2.6039637E+002
  1.9130658E+002
  9.4892620E+001
 -3.1488291E+001
 -1.6121800E+002
 -2.2378557E+002
 -1.1147558E+002
 -1.2439732E+002
 -5.7696785E+002
 -4.2758680E+002
 -3.1419024E+002
 -2.9496584E+002
 -2.7297425E+002
 -2.5543715E+002
 -2.4112350E+002
 -2.3053842E+002
 -2.2291224E+002
 -2.1765661E+002
 -2.1427134E+002
 -2.1242215E+002
 -2.1187511E+002
 -2.1244889E+002
 -2.1396692E+002
 -2.1622114E+002
 -2.1894651E+002
 -2.2180742E+002
 -2.2439481E+002
 -2.2622731E+002
 -2.2674147E+002
 -2.2524865E+002
 -2.2083772E+002
 -2.1223043E+002
 -1.9768234E+002
 -1.7519081E+002
 -1.4397070E+002
 -1.0620823E+002
 -6.9281709E+001
 -4.2846876E+001
 -3.2433763E+001
 -4.1176978E+001
 -5.7363459E+001
 -7.4364902E+001
 -7.7586528E+001
 -6.1714255E+001
 -2.4929926E+001
  2.7618079E+001
  8.7542793E+001
  1.4700652E+002
  2.0035846E+002
  2.4410798E+002
  2.7610390E+002
  2.9488367E+002
  2.9933951E+002
  2.8857756E+002
  2.6196869E+002
  2.1916168E+002
  1.6123541E+002
  9.0337546E+001
  1.8792501E+001
 -5.6849453E+001
 -1.6583854E+002
 -1.0269851E+002
 -3.8493940E+002
 -4.8564770E+002
 -3.5859923E+002
 -2.6659689E+002
 -2.2530483E+002
 -2.0984253E+002
 -1.9753860E+002
 -1.8731434E+002
 -1.7847135E+002
 -1.7113645E+002
 -1.6517099E+002
 -1.6040982E+002
 -1.5666272E+002
 -1.5374880E+002
 -1.5148766E+002
 -1.4968365E+002
 -1.4810604E+002
 -1.4647266E+002
 -1.4443946E+002
 -1.4159554E+002
 -1.3745969E+002
 -1.3147153E+002
 -1.2297185E+002
 -1.1117899E+002
 -9.5202676E+001
 -7.4195679E+001
 -4.7872613E+001
 -1.7339442E+001
  1.3839559E+001
  3.9850784E+001
  5.4215403E+001
  5.2616175E+001
  3.6877463E+001
  1.1747401E+001
 -1.2566312E+001
 -2.7753467E+001
 -2.6631676E+001
 -7.3404130E+000
  2.7567198E+001
  7.2658325E+001
  1.2171462E+002
  1.6917239E+002
  2.1056171E+002
  2.4242572E+002
  2.6213571E+002
  2.6786405E+002
  2.5877743E+002
  2.3529527E+002
  2.0000512E+002
  1.5741131E+002
  1.2006190E+002
  9.3430513E+001
  1.3963745E+002
  1.9309673E+002
  6.6745165E+002
  2.0085164E+002
  5.6984882E+001
 -5.9218890E+001
 -1.3410537E+002
 -1.4164107E+002
 -1.4067642E+002
 -1.3660065E+002
 -1.3076691E+002
 -1.2419617E+002
 -1.1758628E+002
 -1.1129225E+002
 -1.0543070E+002
 -9.9977180E+001
 -9.4834484E+001
 -8.9863402E+001
 -8.4889834E+001
 -7.9699627E+001
 -7.4031278E+001
 -6.7571396E+001
 -5.9954464E+001
 -5.0766254E+001
 -3.9550666E+001
 -2.5824601E+001
 -9.1182111E+000
  1.0921511E+001
  3.4296893E+001
  6.0274066E+001
  8.6887554E+001
  1.1072545E+002
  1.2729316E+002
  1.3238810E+002
  1.2397409E+002
  1.0310153E+002
  7.4912615E+001
  4.6209363E+001
  2.4630027E+001
  1.5650270E+001
  2.1895144E+001
  4.2685268E+001
  7.4846406E+001
  1.1386892E+002
  1.5485290E+002
  1.9305140E+002
  2.2413394E+002
  2.4444728E+002
  2.5137391E+002
  2.4389511E+002
  2.2298488E+002
  1.9295014E+002
  1.5954209E+002
  1.3976858E+002
  1.2525407E+002
  2.0601682E+002
  6.4543332E+001
  1.3747909E+002
  1.2568860E+001
 -2.6819085E+001
 -3.6260970E+001
 -6.8881361E+001
 -7.6374178E+001
 -7.8078169E+001
 -7.5033015E+001
 -6.9979877E+001
 -6.3802719E+001
 -5.7150143E+001
 -5.0266774E+001
 -4.3226113E+001
 -3.5993859E+001
 -2.8482532E+001
 -2.0562930E+001
 -1.2065485E+001
 -2.7787754E+000
  7.5482118E+000
  1.9198339E+001
  3.2471774E+001
  4.7661823E+001
  6.5013697E+001
  8.4651620E+001
  1.0645208E+002
  1.2985003E+002
  1.5359451E+002
  1.7556625E+002
  1.9281963E+002
  2.0207842E+002
  2.0064700E+002
  1.8747997E+002
  1.6405138E+002
  1.3412532E+002
  1.0328479E+002
  7.7306079E+001
  6.1074142E+001
  5.7469997E+001
  6.7122676E+001
  8.8633804E+001
  1.1906722E+002
  1.5441661E+002
  1.8997046E+002
  2.2071178E+002
  2.4189002E+002
  2.4985612E+002
  2.4287889E+002
  2.2195515E+002
  1.9085129E+002
  1.5742778E+002
  1.2785652E+002
  1.1911772E+002
  8.5376778E+001
  5.8696845E+001
  1.1914585E+001
  1.0240296E+001
 -2.1528417E+000
 -9.0040460E+000
 -1.8092246E+001
 -2.4977517E+001
 -2.5427237E+001
 -2.2628810E+001
 -1.7518991E+001
 -1.1098036E+001
 -3.8069320E+000
  4.1486258E+000
  1.2727671E+001
  2.1936611E+001
  3.1814856E+001
  4.2433391E+001
  5.3899922E+001
  6.6357547E+001
  7.9976201E+001
  9.4936388E+001
  1.1140442E+002
  1.2949621E+002
  1.4922391E+002
  1.7041761E+002
  1.9261686E+002
  2.1493893E+002
  2.3596210E+002
  2.5369626E+002
  2.6574706E+002
  2.6973042E+002
  2.6391205E+002
  2.4787981E+002
  2.2294328E+002
  1.9217951E+002
  1.5984369E+002
  1.3063124E+002
  1.0873981E+002
  9.7256962E+001
  9.7809523E+001
  1.1049219E+002
  1.3387313E+002
  1.6496243E+002
  1.9922507E+002
  2.3088390E+002
  2.5382130E+002
  2.6282416E+002
  2.5507002E+002
  2.3086386E+002
  1.9371490E+002
  1.4904476E+002
  1.0519148E+002
  6.4533571E+001
  3.4998444E+001
  1.1168351E+001
  1.0608052E+000
  3.9148306E+000
  5.1963824E-001
  9.3998225E+000
  1.2230636E+001
  1.7268310E+001
  2.0678222E+001
  2.5997520E+001
  3.2390910E+001
  3.9730450E+001
  4.7877276E+001
  5.6982165E+001
  6.7089754E+001
  7.8200125E+001
  9.0293843E+001
  1.0337331E+002
  1.1747585E+002
  1.3267058E+002
  1.4904265E+002
  1.6666916E+002
  1.8558730E+002
  2.0575303E+002
  2.2698761E+002
  2.4891010E+002
  2.7085917E+002
  2.9181942E+002
  3.1038391E+002
  3.2480201E+002
  3.3315875E+002
  3.3370558E+002
  3.2529114E+002
  3.0777705E+002
  2.8229982E+002
  2.5123321E+002
  2.1790473E+002
  1.8607585E+002
  1.5943430E+002
  1.4116895E+002
  1.3371884E+002
  1.3856503E+002
  1.5588551E+002
  1.8396574E+002
  2.1859613E+002
  2.5309338E+002
  2.7922344E+002
  2.8967564E+002
  2.8000550E+002
  2.5013867E+002
  2.0371649E+002
  1.4579665E+002
  8.1039878E+001
  2.0147217E+001
 -1.8298438E+001
 -1.5906983E+001
 -3.0127709E+001
 -2.3815705E+000
  1.4227961E+001
  2.4183227E+001
  4.4947850E+001
  5.4354411E+001
  6.3143443E+001
  7.1627173E+001
  8.0069756E+001
  8.8222322E+001
  9.7229820E+001
  1.0750325E+002
  1.1917192E+002
  1.3215812E+002
  1.4635434E+002
  1.6168288E+002
  1.7811325E+002
  1.9564850E+002
  2.1429987E+002
  2.3405555E+002
  2.5484534E+002
  2.7650018E+002
  2.9870597E+002
  3.2095287E+002
  3.4248681E+002
  3.6227734E+002
  3.7902497E+002
  3.9123505E+002
  3.9737911E+002
  3.9613962E+002
  3.8670077E+002
  3.6901296E+002
  3.4394709E+002
  3.1329248E+002
  2.7957885E+002
  2.4580310E+002
  2.1513632E+002
  1.9073011E+002
  1.7562697E+002
  1.7264402E+002
  1.8385584E+002
  2.0941172E+002
  2.4593161E+002
  2.8539974E+002
  3.1698923E+002
  3.2942139E+002
  3.1659078E+002
  2.7887744E+002
  2.2214770E+002
  1.5483905E+002
  7.8616722E+001
 -3.5356223E+000
 -6.7700050E+001
 -3.3769841E+001
 -5.3186855E+001
  3.5747957E+001
  5.1899110E+001
  8.5489216E+001
  8.9838351E+001
  1.0424959E+002
  1.1729452E+002
  1.2569953E+002
  1.3395218E+002
  1.4353092E+002
  1.5505983E+002
  1.6841409E+002
  1.8332673E+002
  1.9955479E+002
  2.1694580E+002
  2.3542097E+002
  2.5494053E+002
  2.7546495E+002
  2.9691839E+002
  3.1915353E+002
  3.4191657E+002
  3.6481187E+002
  3.8726878E+002
  4.0851689E+002
  4.2758060E+002
  4.4330740E+002
  4.5444361E+002
  4.5976378E+002
  4.5824471E+002
  4.4925608E+002
  4.3272591E+002
  4.0924028E+002
  3.8005038E+002
  3.4699468E+002
  3.1236060E+002
  2.7874292E+002
  2.4898552E+002
  2.2632433E+002
  2.1461881E+002
  2.1819435E+002
  2.4016833E+002
  2.7903069E+002
  3.2629259E+002
  3.6495550E+002
  3.8010589E+002
  3.6160037E+002
  3.1211264E+002
  2.4364286E+002
  1.7057923E+002
  1.0746487E+002
  4.2378779E+001
 -7.4837790E+001
 -6.0992088E+001
 -3.2457023E+002
  2.3193264E+002
  1.3706808E+002
  1.0818997E+002
  1.2202864E+002
  1.5616282E+002
  1.6299215E+002
  1.6877892E+002
  1.7563746E+002
  1.8592925E+002
  1.9908471E+002
  2.1445378E+002
  2.3142312E+002
  2.4963363E+002
  2.6890045E+002
  2.8914349E+002
  3.1031771E+002
  3.3236388E+002
  3.5517085E+002
  3.7854542E+002
  4.0218611E+002
  4.2566034E+002
  4.4838704E+002
  4.6962947E+002
  4.8850579E+002
  5.0402487E+002
  5.1515325E+002
  5.2091197E+002
  5.2049345E+002
  5.1337895E+002
  4.9943431E+002
  4.7896756E+002
  4.5274735E+002
  4.2199164E+002
  3.8833028E+002
  3.5374124E+002
  3.2046170E+002
  2.9113990E+002
  2.6971918E+002
  2.6239670E+002
  2.7681687E+002
  3.1672128E+002
  3.7131282E+002
  4.2239837E+002
  4.3797926E+002
  4.0841648E+002
  3.3948212E+002
  2.5242650E+002
  1.7492482E+002
  1.2231469E+002
  1.5297481E+002
  1.9503150E+002
  6.2241097E+002
  2.0833577E+002
 -1.1290498E+002
 -1.1350361E+001
  1.0326437E+002
  2.1630754E+002
  2.1189013E+002
  2.0671735E+002
  2.0494416E+002
  2.1138972E+002
  2.2352849E+002
  2.3934980E+002
  2.5725229E+002
  2.7642724E+002
  2.9651831E+002
  3.1742267E+002
  3.3912836E+002
  3.6163057E+002
  3.8488106E+002
  4.0875883E+002
  4.3305026E+002
  4.5743489E+002
  4.8147537E+002
  5.0461359E+002
  5.2617634E+002
  5.4539511E+002
  5.6144357E+002
  5.7349329E+002
  5.8078322E+002
  5.8269260E+002
  5.7880305E+002
  5.6893801E+002
  5.5317938E+002
  5.3188205E+002
  5.0571639E+002
  4.7575004E+002
  4.4345038E+002
  4.1051825E+002
  3.7830669E+002
  3.4833859E+002
  3.2637834E+002
  3.2541188E+002
  3.5764583E+002
  4.2510647E+002
  4.7794406E+002
  4.9476537E+002
  4.4217094E+002
  3.4296989E+002
  2.2996093E+002
  1.4004184E+002
  7.5263622E+001
  1.3162460E+002
  1.9762700E+001
  1.0401223E+002
  5.0086528E+002
  3.5100374E+002
  3.3211418E+002
  2.5288405E+002
  2.3364789E+002
  2.2866465E+002
  2.3939449E+002
  2.5639776E+002
  2.7635130E+002
  2.9727060E+002
  3.1860422E+002
  3.4030017E+002
  3.6248225E+002
  3.8528013E+002
  4.0876389E+002
  4.3291576E+002
  4.5761923E+002
  4.8265519E+002
  5.0770148E+002
  5.3233514E+002
  5.5603954E+002
  5.7821928E+002
  5.9822586E+002
  6.1539519E+002
  6.2909507E+002
  6.3877574E+002
  6.4401258E+002
  6.4452766E+002
  6.4018191E+002
  6.3094088E+002
  6.1685066E+002
  5.9811231E+002
  5.7530740E+002
  5.4975036E+002
  5.2321600E+002
  4.9710738E+002
  4.6861039E+002
  4.3322842E+002
  4.0346913E+002
  4.1671039E+002
  4.5704725E+002
  5.4703264E+002
  5.3051478E+002
  4.3722327E+002
  2.8942853E+002
  1.5885085E+002
  6.2706146E+001
 -6.2245070E-001
 -6.1745612E+001
 -1.6690643E+001
 -3.2473214E+001
  7.5066136E+002
  5.1790755E+002
  2.9211180E+002
  2.4772776E+002
  2.2619128E+002
  2.3854092E+002
  2.6107641E+002
  2.8673666E+002
  3.1171772E+002
  3.3546452E+002
  3.5842279E+002
  3.8113905E+002
  4.0406543E+002
  4.2750004E+002
  4.5159093E+002
  4.7634699E+002
  5.0165373E+002
  5.2728808E+002
  5.5293155E+002
  5.7818284E+002
  6.0257287E+002
  6.2558596E+002
  6.4668944E+002
  6.6537243E+002
  6.8119045E+002
  6.9380815E+002
  7.0302764E+002
  7.0878762E+002
  7.1111864E+002
  7.1005982E+002
  7.0554616E+002
  6.9738129E+002
  6.8564369E+002
  6.7148789E+002
  6.5845428E+002
  6.4983763E+002
  6.4753367E+002
  6.2953218E+002
  5.7240963E+002
  5.1394618E+002
  5.7637951E+002
  5.0582701E+002
  4.7971445E+002
  3.0733337E+002
  1.2869562E+002
  1.5316618E+001
 -1.8715952E+001
 -3.5827929E+001
 -1.3134996E+002
 -9.4773818E+001
 -3.9877849E+002
 -6.7550950E+001
  6.7738744E+001
  1.6367922E+002
  1.6402387E+002
  1.9868692E+002
  2.4288938E+002
  2.8444388E+002
  3.1933323E+002
  3.4785346E+002
  3.7293808E+002
  3.9628750E+002
  4.1909522E+002
  4.4206778E+002
  4.6562008E+002
  4.8993319E+002
  5.1501036E+002
  5.4071791E+002
  5.6681758E+002
  5.9299011E+002
  6.1885398E+002
  6.4398437E+002
  6.6793696E+002
  6.9028021E+002
  7.1063685E+002
  7.2873199E+002
  7.4444015E+002
  7.5781795E+002
  7.6910301E+002
  7.7866171E+002
  7.8685688E+002
  7.9388584E+002
  7.9948875E+002
  8.0282689E+002
  8.0449309E+002
  8.0846674E+002
  8.2914725E+002
  8.7053082E+002
  9.5845563E+002
  9.5506899E+002
  9.5146216E+002
  4.2752928E+002
  6.2372191E+002
  9.7522109E+001
 -5.0748022E+001
 -2.0167897E+002
 -1.6816449E+002
 -1.1754408E+002
  2.7856676E+001
  1.6760418E+002
  7.9200380E+002
  3.0091844E+002
 -5.4600577E+001
 -1.2426244E+002
 -2.3675239E+000
  8.6341382E+001
  1.8773846E+002
  2.6530373E+002
  3.2305775E+002
  3.5892998E+002
  3.8663796E+002
  4.1014200E+002
  4.3217002E+002
  4.5392748E+002
  4.7619018E+002
  4.9934975E+002
  5.2353752E+002
  5.4869269E+002
  5.7462704E+002
  6.0106797E+002
  6.2768609E+002
  6.5411342E+002
  6.7996048E+002
  7.0483850E+002
  7.2839177E+002
  7.5034228E+002
  7.7054600E+002
  7.8905540E+002
  8.0617465E+002
  8.2248841E+002
  8.3882850E+002
  8.5618007E+002
  8.7537361E+002
  8.9705832E+002
  9.2027949E+002
  9.4194813E+002
  9.6415278E+002
  1.0061362E+003
  1.0835827E+003
  1.2957614E+003
  1.4398177E+003
  2.7111489E+003
  1.9801946E+003
 -1.0748216E+003
 -1.9698297E+003
 -7.1736402E+002
 -5.1193849E+002
 -2.7848036E+002
 -2.0018332E+002
 -3.1441795E+001
 -5.4401619E+001
  1.1972706E+002
 -1.1628878E+002
  3.7237640E+001
  9.7563527E+001
  2.3980636E+002
  3.4322971E+002
  3.8078130E+002
  4.0679095E+002
  4.2703579E+002
  4.4628994E+002
  4.6528498E+002
  4.8496837E+002
  5.0588030E+002
  5.2826257E+002
  5.5208433E+002
  5.7715093E+002
  6.0317974E+002
  6.2984623E+002
  6.5680441E+002
  6.8369551E+002
  7.1015600E+002
  7.3583305E+002
  7.6041291E+002
  7.8366638E+002
  8.0551366E+002
  8.2610798E+002
  8.4593005E+002
  8.6586758E+002
  8.8725473E+002
  9.1179605E+002
  9.4152577E+002
  9.7798593E+002
  1.0241662E+003
  1.0776363E+003
  1.1191553E+003
  1.1798119E+003
  1.3067400E+003
  1.4701106E+003
  1.6479419E+003
  1.2373226E+003
 -1.6944475E+002
 -1.4989042E+002
 -4.4000373E+002
 -2.2810439E+002
 -1.1119042E+002
 -1.6716616E+002
 -9.3642983E+001
 -5.0208665E+002
 -1.2203891E+002
  1.3572013E+002
  2.0464499E+002
  4.7874930E+002
  4.4577712E+002
  4.5064496E+002
  4.5355875E+002
  4.6573295E+002
  4.7912749E+002
  4.9416516E+002
  5.1111763E+002
  5.3036865E+002
  5.5184286E+002
  5.7523983E+002
  6.0015984E+002
  6.2619900E+002
  6.5297787E+002
  6.8014022E+002
  7.0734104E+002
  7.3423848E+002
  7.6049735E+002
  7.8580879E+002
  8.0993050E+002
  8.3275370E+002
  8.5440432E+002
  8.7537940E+002
  8.9670721E+002
  9.2005594E+002
  9.4778697E+002
  9.8274089E+002
  1.0288511E+003
  1.0873350E+003
  1.1767490E+003
  1.2956027E+003
  1.3140771E+003
  1.4204408E+003
  1.6269866E+003
  1.8405151E+003
 -1.4711790E+002
 -7.9657691E+001
 -1.4269842E+002
 -1.0249084E+002
  1.0441330E+002
  2.8735959E+002
  1.1055691E+003
  4.7695169E+002
 -7.3416692E+002
  9.3786701E+002
  9.1599538E+002
  6.5632210E+002
  5.2889957E+002
  4.9265195E+002
  4.9132081E+002
  4.9818008E+002
  5.0614587E+002
  5.1682526E+002
  5.3101653E+002
  5.4879723E+002
  5.6961135E+002
  5.9275693E+002
  6.1758752E+002
  6.4358566E+002
  6.7034551E+002
  6.9752926E+002
  7.2482477E+002
  7.5191709E+002
  7.7847728E+002
  8.0416932E+002
  8.2867722E+002
  8.5175994E+002
  8.7334906E+002
  8.9371730E+002
  9.1370930E+002
  9.3503304E+002
  9.6021508E+002
  9.9269878E+002
  1.0353088E+003
  1.0966543E+003
  1.1522281E+003
  1.3430753E+003
  1.6731120E+003
  2.6009577E+003
  1.6205225E+003
 -2.1422043E+002
 -2.1552356E+000
  2.2473858E+001
  2.9608836E+001
  1.4860374E+002
  8.7927230E+000
  1.9053531E+002
  1.4400716E+003
  8.8559566E+002
  5.4778713E+002
  4.9102954E+002
  5.0241839E+002
  5.2084040E+002
  5.2268085E+002
  5.2473139E+002
  5.3103773E+002
  5.4326838E+002
  5.6047429E+002
  5.8133034E+002
  6.0462109E+002
  6.2948729E+002
  6.5537294E+002
  6.8192078E+002
  7.0886767E+002
  7.3596895E+002
  7.6295188E+002
  7.8949247E+002
  8.1520980E+002
  8.3967355E+002
  8.6242997E+002
  8.8305812E+002
  9.0131916E+002
  9.1742176E+002
  9.3260775E+002
  9.4904155E+002
  9.7110295E+002
  9.9562619E+002
  1.0420489E+003
  1.0495314E+003
  1.0420060E+003
  3.3330639E+002
 -2.2446839E+002
 -5.7974841E+001
  1.0881094E+002
  1.1181669E+002
  1.7785093E+002
  1.9525246E+002
  2.0489170E+002
  2.6691954E+001
 -8.1546374E+000
 -4.5556049E+002
 -5.8941431E+002
 -2.1875071E+002
  2.7457975E+002
  4.1039060E+002
  5.4956185E+002
  5.4742828E+002
  5.3839918E+002
  5.3082584E+002
  5.3449387E+002
  5.4682788E+002
  5.6528535E+002
  5.8728397E+002
  6.1121443E+002
  6.3617961E+002
  6.6176174E+002
  6.8777706E+002
  7.1411513E+002
  7.4064139E+002
  7.6714497E+002
  7.9331377E+002
  8.1872254E+002
  8.4282400E+002
  8.6493215E+002
  8.8421366E+002
  8.9968572E+002
  9.1047372E+002
  9.1628238E+002
  9.1927547E+002
  9.2149073E+002
  9.3287468E+002
  9.0876678E+002
  9.8686812E+002
  9.0302529E+002
  1.6973508E+003
  7.2159217E+002
 -1.8353265E+000
  1.1268686E+002
  2.2301639E+002
  2.8221602E+002
  3.8995881E+002
  4.4761406E+002
  1.1319118E+003
  4.9785646E+002
  1.7747037E+002
  2.7124951E+002
  6.8283784E+002
  6.2235972E+002
  5.7169750E+002
  5.3175482E+002
  5.1959430E+002
  5.2512574E+002
  5.4199909E+002
  5.6424949E+002
  5.8858777E+002
  6.1343318E+002
  6.3827832E+002
  6.6311001E+002
  6.8807021E+002
  7.1327782E+002
  7.3874150E+002
  7.6432373E+002
  7.8972965E+002
  8.1450326E+002
  8.3801435E+002
  8.5941903E+002
  8.7756396E+002
  8.9083002E+002
  8.9696761E+002
  8.9313269E+002
  8.7919240E+002
  8.5708567E+002
  8.4599684E+002
  8.1739682E+002
  7.2109579E+002
  2.6350793E+002
 -2.8313675E+002
  1.0488284E+002
  1.4794674E+002
  2.2945491E+002
  2.6104864E+002
  3.7331485E+002
  1.1313233E+002
  2.1283369E+002
  1.6524299E+003
  1.2692724E+003
  9.6894341E+002
  6.3416765E+002
  5.3687452E+002
  4.8792068E+002
  4.8619012E+002
  5.0448461E+002
  5.3169790E+002
  5.6017038E+002
  5.8733324E+002
  6.1265031E+002
  6.3660310E+002
  6.5985110E+002
  6.8297974E+002
  7.0637290E+002
  7.3018257E+002
  7.5433114E+002
  7.7853002E+002
  8.0229902E+002
  8.2497387E+002
  8.4567724E+002
  8.6322236E+002
  8.7582874E+002
  8.8056032E+002
  8.7247652E+002
  8.4250149E+002
  7.9716135E+002
  7.3013975E+002
  7.6286552E+002
  7.1143515E+002
  1.3604196E+003
  6.2609263E+002
  4.9300952E+001
 -2.5214632E+001
  6.8242844E+001
  1.4873987E+002
  2.0951903E+002
  2.2421604E+002
  1.3750671E+002
  9.0757411E+001
  9.3200024E+000
  2.9515566E+003
  1.1771932E+003
  4.9230946E+002
  4.8714227E+002
  3.9938200E+002
  4.0568490E+002
  4.3656330E+002
  4.8133239E+002
  5.2274086E+002
  5.5773630E+002
  5.8626481E+002
  6.1040310E+002
  6.3193687E+002
  6.5233685E+002
  6.7261684E+002
  6.9338457E+002
  7.1488160E+002
  7.3703955E+002
  7.5953440E+002
  7.8183881E+002
  8.0326257E+002
  8.2299705E+002
  8.4005605E+002
  8.5334279E+002
  8.6049179E+002
  8.5847190E+002
  8.3261788E+002
  7.6381365E+002
  6.5364691E+002
  6.0382033E+002
  2.6169627E+002
 -1.8241259E+002
 -1.0873129E+001
  9.6039425E+001
  1.5903620E+002
  2.3016845E+002
  2.1394609E+002
  9.3748346E+001
  1.4550928E+001
 -2.3297714E+002
 -2.0262517E+002
  1.2764040E+002
  1.7896529E+002
  2.3021100E+002
  3.0867523E+002
  3.9858839E+002
  4.7198308E+002
  5.2571073E+002
  5.6190826E+002
  5.8786032E+002
  6.0774245E+002
  6.2466999E+002
  6.4063736E+002
  6.5692722E+002
  6.7423010E+002
  6.9276877E+002
  7.1239500E+002
  7.3267583E+002
  7.5296704E+002
  7.7249603E+002
  7.9043103E+002
  8.0610855E+002
  8.1888989E+002
  8.2975825E+002
  8.3671737E+002
  8.4821787E+002
  8.2154897E+002
  6.9853843E+002
  5.0386137E+002
  6.2907325E+002
  7.5280660E+002
  7.9015517E+001
  1.0433647E+002
  2.6280783E+002
  2.4532266E+002
  2.8556023E+002
  2.7459236E+002
  5.9576520E+002
  2.6058399E+002
 -7.1268599E+001
 -2.2980102E+002
 -2.8128579E+001
  9.2135955E+001
  2.7281387E+002
  4.0744513E+002
  5.0077890E+002
  5.4749267E+002
  5.7562412E+002
  5.9263767E+002
  6.0456094E+002
  6.1443761E+002
  6.2438412E+002
  6.3563234E+002
  6.4876104E+002
  6.6382517E+002
  6.8048724E+002
  6.9811402E+002
  7.1585494E+002
  7.3270433E+002
  7.4764964E+002
  7.5969712E+002
  7.6883783E+002
  7.7454794E+002
  7.8675148E+002
  7.9857649E+002
  9.0974015E+002
  1.0043925E+003
  1.7500939E+003
  8.7885864E+002
  5.4187015E+002
  2.6606414E+002
  2.8687222E+002
  2.4902855E+002
  2.6208756E+002
  1.0230172E+002
  8.5063541E+001
 -1.7699862E+002
  6.8387681E+000
  1.1377894E+002
  3.5007599E+002
  5.2524387E+002
  5.6576490E+002
  5.8786613E+002
  5.9538298E+002
  5.9843726E+002
  5.9911748E+002
  6.0000171E+002
  6.0273636E+002
  6.0826223E+002
  6.1682366E+002
  6.2815525E+002
  6.4162712E+002
  6.5633585E+002
  6.7115173E+002
  6.8471196E+002
  6.9555647E+002
  7.0185616E+002
  7.0287394E+002
  6.9422790E+002
  6.8584502E+002
  6.4149181E+002
  7.0851933E+002
  2.5324858E+002
  2.3565912E+002
  2.3146888E+002
 -2.1032344E+002
  2.2816246E+001
  1.0776472E+002
  2.3100435E+002
  2.5584274E+002
  1.6226982E+002
  8.6967100E+001
 -1.0967090E+002
 -5.0365556E+002
  2.4345123E+002
  2.3483511E+002
  7.8397202E+002
  6.6302291E+002
  6.5268217E+002
  6.2659945E+002
  6.1378518E+002
  6.0035507E+002
  5.8847772E+002
  5.7940519E+002
  5.7455044E+002
  5.7430762E+002
  5.7839931E+002
  5.8609755E+002
  5.9641892E+002
  6.0818659E+002
  6.1999339E+002
  6.3014114E+002
  6.3647870E+002
  6.3662278E+002
  6.2681622E+002
  6.0495341E+002
  5.5477040E+002
  4.8173290E+002
  2.8281158E+002
  1.8061951E+002
 -3.2011040E+001
  4.3412009E+000
  9.5580079E+001
  1.5153358E+002
  2.4764014E+002
  2.6202181E+002
  2.2595389E+002
  3.1574082E+002
  1.5480989E+002
 -1.0916399E+003
  1.8225801E+003
  1.3880610E+003
  1.0225013E+003
  7.5693509E+002
  6.9099471E+002
  6.4794397E+002
  6.2179546E+002
  5.9347409E+002
  5.6914945E+002
  5.5045177E+002
  5.3870903E+002
  5.3351088E+002
  5.3383381E+002
  5.3838048E+002
  5.4582806E+002
  5.5482083E+002
  5.6383566E+002
  5.7094641E+002
  5.7364997E+002
  5.6852258E+002
  5.5180633E+002
  5.1733142E+002
  4.6265855E+002
  3.6030656E+002
  1.6921466E+002
  4.4863205E+001
 -2.4367685E+002
  1.9734465E+002
  1.1871976E+002
  3.7524481E+002
  2.7943211E+002
  2.6471451E+002
  1.2245701E+002
  3.1418491E+001
  1.6303787E+003
  1.3165069E+003
  6.9219585E+002
  7.0685788E+002
  6.5735714E+002
  6.5660882E+002
  6.1498179E+002
  5.7425723E+002
  5.3762928E+002
  5.1122209E+002
  4.9460652E+002
  4.8629068E+002
  4.8415953E+002
  4.8633058E+002
  4.9125711E+002
  4.9763602E+002
  5.0411500E+002
  5.0894170E+002
  5.0944896E+002
  5.0218976E+002
  4.8170450E+002
  4.4638202E+002
  3.8672179E+002
  3.5470145E+002
  2.9450469E+002
  5.7632072E+002
  2.2518990E+002
  1.0741720E+003
  4.5494172E+002
  4.0906681E+002
  2.9952281E+002
  2.2529308E+002
  1.2520100E+002
  4.4674353E+001
 -4.7409174E+002
  6.2546846E+001
  3.5283313E+002
  5.1878823E+002
  6.9013144E+002
  6.5258738E+002
  5.9776875E+002
  5.3668472E+002
  4.9105607E+002
  4.6050765E+002
  4.4287714E+002
  4.3428918E+002
  4.3149884E+002
  4.3212233E+002
  4.3466601E+002
  4.3822292E+002
  4.4204696E+002
  4.4504495E+002
  4.4508128E+002
  4.3868218E+002
  4.1994435E+002
  3.8629187E+002
  3.1974780E+002
  2.8292405E+002
  1.0929473E+002
  7.7662221E+001
  4.6624188E+002
 -4.2634846E+002
  5.3693114E+001
  1.2560200E+002
  3.1414125E+002
  2.4209096E+002
  1.3381376E+002
 -5.2063306E+001
  4.6305989E+000
 -5.0641176E+002
 -1.3711052E+002
  1.9751292E+002
  8.4942853E+002
  7.4583366E+002
  6.5957158E+002
  5.5024626E+002
  4.7524308E+002
  4.2639719E+002
  3.9936664E+002
  3.8625402E+002
  3.8106294E+002
  3.7946721E+002
  3.7903037E+002
  3.7872992E+002
  3.7846078E+002
  3.7854593E+002
  3.7913671E+002
  3.7947990E+002
  3.7671127E+002
  3.6537935E+002
  3.3630801E+002
  2.9049168E+002
  1.5524613E+002
  7.3518752E+001
 -1.4526080E+002
  2.1350500E+002
  1.3775612E+002
  4.1096239E+002
  2.9316666E+002
  2.1233911E+002
  1.2488939E+002
 -6.5561104E+001
  2.2716940E+003
  1.4208958E+003
  1.1994424E+003
  7.8073926E+002
  5.9208092E+002
  4.5238114E+002
  3.8176667E+002
  3.4553839E+002
  3.3266051E+002
  3.3089393E+002
  3.3264493E+002
  3.3343354E+002
  3.3156593E+002
  3.2700616E+002
  3.2078259E+002
  3.1455723E+002
  3.1025265E+002
  3.0936022E+002
  3.1107785E+002
  3.1213220E+002
  2.9556481E+002
  2.7431965E+002
  2.3193935E+002
  3.8233823E+002
  1.7274022E+002
  1.5894061E+003
  6.4125135E+002
  5.8709217E+002
  3.5932328E+002
  2.4642308E+002
  1.2581588E+002
 -4.3987080E+001
  2.7298603E+003
  1.8726822E+003
  8.3447191E+002
  5.9226515E+002
  3.7182749E+002
  2.9936828E+002
  2.6185343E+002
  2.5922195E+002
  2.7171368E+002
  2.8725503E+002
  2.9764772E+002
  3.0033771E+002
  2.9530953E+002
  2.8402191E+002
  2.6859955E+002
  2.5193100E+002
  2.3760548E+002
  2.3024986E+002
  2.3253498E+002
  2.4592932E+002
  2.5387236E+002
  2.3552040E+002
  9.2799699E+001
 -1.9767419E+001
  6.6438941E+002
 -3.1248386E+002
  1.1195918E+002
  5.4360714E+002
  4.5837834E+002
  3.3595048E+002
  2.4187952E+002
  1.3623417E+002
  1.9011529E+002
 -9.3077552E+002
 -6.1575144E+002
 -2.1247462E+002
  6.4322423E+001
  1.1472872E+002
  1.2343070E+002
  1.4533504E+002
  1.8948630E+002
  2.3599191E+002
  2.6946674E+002
  2.8639627E+002
  2.8761157E+002
  2.7630165E+002
  2.5511281E+002
  2.2681677E+002
  1.9459975E+002
  1.6326603E+002
  1.3853369E+002
  1.3237183E+002
  1.4241857E+002
  1.9202549E+002
  1.8286548E+002
  3.0479651E+002
  1.6747770E+002
  1.9975970E+003
  1.0723292E+003
  6.5853739E+002
  3.9277212E+002
  1.9449275E+002
 -1.7033126E+000
 -4.5399489E+002
 -2.1246946E+002
 -2.1381488E+001
  1.0607243E+001
 -6.0875649E+001
 -5.5151560E+000
  7.0443832E+001
  1.7377387E+002
  2.4911124E+002
  2.9359127E+002
  3.0743269E+002
  3.0142791E+002
  2.7984456E+002
  2.4596860E+002
  2.0193674E+002
  1.5017811E+002
  9.4126635E+001
  4.0945310E+001
 -8.7657125E-004
 -2.4872484E+000
  3.1851519E+001
  2.6471086E+001
  1.9867953E+001
  1.2284380E+003
  1.1374616E+003
  8.4525871E+002
  6.2559094E+002
  5.1341693E+002
  3.3110849E+002
  1.2030303E+002
  9.1101715E+001
 -1.2443381E+002
 -1.2705409E+002
 -2.4144965E+002
 -8.0370100E+001
 -7.7680589E+001
  1.0999133E+002
  2.4694494E+002
  3.4131264E+002
  3.6507735E+002
  3.6449626E+002
  3.4396464E+002
  3.0929903E+002
  2.6166986E+002
  2.0174494E+002
  1.2953096E+002
  4.6241274E+001
 -4.6920431E+001
 -1.3616538E+002
 -2.2187818E+002
 -1.7631382E+002
 -1.2355614E+002
 -8.8056521E+001
  1.3809754E+003
  1.0898077E+003
  8.5464487E+002
  6.0459924E+002
  4.1635687E+002
  2.8404067E+002
  1.7338904E+002
  1.1402528E+002
  3.6950898E+001
  1.3406741E+002
 -2.9546488E+002
 -1.2842327E+002
  8.4286277E+001
  2.8588036E+002
  5.0232475E+002
  4.8899194E+002
  4.7955083E+002
  4.5016274E+002
  4.1297857E+002
  3.6481066E+002
  3.0574450E+002
  2.3353548E+002
  1.4587623E+002
  3.9195516E+001
 -8.6543322E+001
 -2.4408451E+002
 -3.9208215E+002
 -6.4950240E+002
 -2.5659451E+002
 -3.0348197E+001
  1.1983857E+003
  1.0071946E+003
  7.7352055E+002
  5.3769562E+002
  3.4934652E+002
  1.9145640E+002
  7.2888894E+001
 -1.6211900E+001
 -1.0676830E+002
 -2.8983671E+002
 -3.4862622E+002
 -3.4693648E+002
  7.9530598E+002
  4.2021671E+002
  1.0271204E+003
  7.3346243E+002
  6.6890752E+002
  6.0175080E+002
  5.5421180E+002
  5.0062690E+002
  4.4372379E+002
  3.7900840E+002
  3.0237422E+002
  2.0920774E+002
  9.3808027E+001
 -4.7031540E+001
 -2.3322733E+002
 -4.4430681E+002
 -8.6272851E+002
 -1.2092139E+003
 -3.2259139E+003
  9.2463075E+002
  1.1688337E+003
  5.9260473E+002
  4.5759734E+002
  2.9151975E+002
  1.4206135E+002
 -4.8986452E-001
 -1.2287969E+002
 -2.5207678E+002
 -4.5753701E+002
 -4.6564949E+002
  2.4735585E+003
  1.5560589E+003
  1.3396645E+003
  8.2376798E+002
  7.9041734E+002
  7.2037794E+002
  6.5982445E+002
  5.9846450E+002
  5.4070667E+002
  4.7962965E+002
  4.0891604E+002
  3.2288662E+002
  2.1753568E+002
  8.8872410E+001
 -6.6577882E+001
 -2.5576374E+002
 -4.7374259E+002
 -5.5455446E+002
 -6.6801051E+002
 -5.4402897E+002
 -2.5637579E+003
 -5.0183302E+002
 -9.1224700E+002
 -1.1054069E+002
  4.0360545E+002
  1.3960751E+002
  1.9235157E+002
  1.8126442E+002
  8.6154377E+001
 -2.4323265E+001
 -1.5314072E+002
 -2.8510721E+002
 -4.5714419E+002
 -4.4052824E+002
  2.8426101E+003
  1.0353379E+003
  5.0953039E+002
  8.4550835E+002
  8.8960383E+002
  8.2983774E+002
  7.5510662E+002
  6.9709661E+002
  6.5020212E+002
  6.0394698E+002
  5.4920849E+002
  4.8142535E+002
  3.9984129E+002
  3.0746755E+002
  2.0976162E+002
  1.2122576E+002
  7.9042422E+001
  1.0168775E+002
  8.8539629E+001
  3.8309565E+001
  4.2283229E+001
  4.5344540E+001
  6.8887153E+001
  5.6038963E+001
  3.5569838E+001
 -3.2731844E+001
 -1.5171351E+002
 -2.4774450E+002
 -3.8901287E+002
 -3.1873657E+002
  5.6687628E+001
  5.3588263E+002
  1.1765995E+003
  1.0314196E+003
  9.0913100E+002
  8.2626658E+002
  7.8982436E+002
  7.6967483E+002
  7.4846015E+002
  7.1658393E+002
  6.7167607E+002
  6.1864131E+002
  5.6714979E+002
  5.2959925E+002
  5.2242933E+002
  5.5111829E+002
  5.8460748E+002
  5.8432013E+002
  5.3737969E+002
  4.3878950E+002
  3.5423803E+002
  2.7078262E+002
  1.9999882E+002
  5.7412107E+001
 -5.1724643E+001
 -4.0240771E+002
 -3.2012867E+002
 -8.5116742E+001
  2.7729791E+003
  2.0811073E+003
  1.6190119E+003
  1.0355903E+003
  9.0609397E+002
  8.6229069E+002
  8.8134602E+002
  9.0317062E+002
  9.1257258E+002
  9.0291153E+002
  8.7844883E+002
  8.4701003E+002
  8.2631778E+002
  8.3509014E+002
  8.7188650E+002
  9.3738158E+002
  9.9584865E+002
  9.7615886E+002
  9.3288590E+002
  9.0816812E+002
  7.5270593E+002
  6.3546791E+002
  3.8908534E+002
  5.0763102E+002
  1.3783455E+002
  4.3594878E+001
  5.0775668E+003
  2.0381272E+003
  7.7249449E+002
  8.3578245E+002
  7.8319939E+002
  8.9767362E+002
  1.0018998E+003
  1.0688498E+003
  1.0944076E+003
  1.0994339E+003
  1.0848102E+003
  1.0629199E+003
  1.0551440E+003
  1.0817135E+003
  1.1612480E+003
  1.2334784E+003
  1.3585227E+003
  1.4479017E+003
  1.4238243E+003
  1.2631656E+003
  1.2400863E+003
  1.5294816E+003
  8.2008389E+002
 -5.3729872E+001
 -6.0488743E+002
  2.5774770E+002
  3.7600826E+002
  7.2010848E+002
  1.0342636E+003
  1.2168721E+003
  1.2787287E+003
  1.2888723E+003
  1.2814624E+003
  1.2790517E+003
  1.2506693E+003
  1.2348696E+003
  1.2837137E+003
  1.3637904E+003
  1.4288850E+003
  1.5852120E+003
  1.5251688E+003
  3.0128025E+003
  2.7378931E+003
  5.0270055E+002
 -1.8484996E+001
 -2.2436838E+001
  1.3426524E+000
  4.6573079E+002
  9.9552195E+002
  1.4345103E+003
  1.6197940E+003
  1.5500803E+003
  1.4573557E+003
  1.4141813E+003
  1.3872101E+003
  1.4007649E+003
  1.4496091E+003
  1.3450953E+003
  1.4990172E+003
  1.3123959E+003
  2.1511358E+003
  1.1766029E+003
 -5.2702222E+002
 -4.9506042E+002
  2.0824562E+002
  7.0213352E+002
  1.6925332E+003
  2.5154541E+003
  1.9896630E+003
  1.7386177E+003
  1.6898217E+003
  1.3997377E+003
  1.3053887E+003
  1.1664182E+003
  1.9715881E+003
  2.2440986E+003
  1.3149520E+003
  3.7894600E+002
 -3.3814858E+002
 -2.8478678E+000
  6.0710011E+003
  5.1864604E+003
  1.8919710E+003
  2.6098815E+003
  2.6468308E+003
  1.5783274E+003
  1.3186006E+003
  9.5377496E+002
  2.0495214E+002
 -4.0058850E+002
 -1.9248010E+003
 -1.5015085E+003
 -1.1572287E+002
 -6.0251658E+002
SCALARS Stress_zz double
LOOKUP_TABLE default
 -3.3883702E+002
  5.9905619E+003
  2.1478140E+003
 -1.7613684E+002
  2.1137580E+003
  1.9928580E+003
  2.0997650E+003
  2.0099670E+003
  2.1311074E+003
 -1.6874638E+002
  5.8056290E+003
 -2.0429376E+002
 -6.5229701E+001
  1.5982757E+002
  1.8933080E+002
  6.4585794E+001
  3.7248915E+002
  1.6826058E+002
  5.4035662E+002
  4.6911607E+002
  7.6840543E+002
  7.9871699E+002
  1.0297366E+003
  1.1765144E+003
  1.3247799E+003
  1.5891793E+003
  1.6449464E+003
  2.0460328E+003
  2.0057678E+003
  2.5220861E+003
  2.3506833E+003
  3.1410692E+003
  2.8863230E+003
  3.5943272E+003
  2.7071017E+003
  5.7080346E+003
  3.1833423E+003
  2.2260203E+003
  2.0145132E+003
  2.0044249E+003
  2.1867756E+003
  3.0132959E+003
  2.5982819E+003
  4.8438467E+003
  2.6841049E+003
  2.0863411E+002
  5.5224866E+003
  6.3206246E+002
  4.9350220E+002
  3.5895895E+002
  4.3349232E+002
  5.4638220E+002
  7.0152961E+002
  8.8492094E+002
  1.0924635E+003
  1.3206091E+003
  1.5552468E+003
  1.8137739E+003
  1.9650255E+003
  2.2955467E+003
  2.1291049E+003
  1.7673770E+003
  1.5854844E+003
  1.5872457E+003
  1.7865745E+003
  2.1872629E+003
  2.4787445E+003
  2.2804204E+003
  3.0294372E+003
  1.7551166E+003
  2.2567124E+003
  3.7864868E+003
  4.3141559E+002
  1.2449654E+002
  7.2973033E+001
  4.1663596E+002
  4.0782536E+002
  4.7009646E+002
  5.2120627E+002
  6.0448057E+002
  7.0668108E+002
  8.2530006E+002
  9.5250700E+002
  1.0841496E+003
  1.1943041E+003
  1.3084607E+003
  1.2910341E+003
  1.2460803E+003
  1.1069848E+003
  9.9414309E+002
  1.0058544E+003
  1.1570234E+003
  1.3905852E+003
  1.6229117E+003
  2.0594915E+003
  2.4716911E+003
  3.1770989E+003
  1.9927355E+003
  2.9534220E+003
  5.2759964E+002
  8.4701048E+002
  4.6701506E+002
  5.2487693E+002
  4.6530455E+002
  4.7202067E+002
  4.8565730E+002
  5.1529721E+002
  5.5226188E+002
  5.9209982E+002
  6.2537183E+002
  6.4851551E+002
  6.3600803E+002
  6.0142577E+002
  4.9931096E+002
  3.7931305E+002
  2.9841368E+002
  2.9979527E+002
  4.0650460E+002
  6.2521695E+002
  9.4808923E+002
  1.4228051E+003
  2.0289361E+003
  3.3569330E+003
  5.0255871E+003
  1.5308587E+004
  1.2936381E+003
  6.5772615E+002
  5.4814202E+002
  4.5338266E+002
  4.0144400E+002
  3.5459201E+002
  3.1472842E+002
  2.7612719E+002
  2.3407872E+002
  1.8299297E+002
  1.1416554E+002
  2.4339017E+001
 -9.8409681E+001
 -2.3772971E+002
 -3.7825173E+002
 -4.8409959E+002
 -5.1630476E+002
 -4.4670303E+002
 -2.5683146E+002
  7.5114683E+001
  5.9272160E+002
  1.3340924E+003
  2.4869861E+003
  3.6255446E+003
  5.8167649E+003
  3.4637953E+003
  3.6862235E+003
  9.5394241E+003
  7.2316362E+002
  1.6309278E+001
  1.2282153E+002
  4.9035168E+002
  5.5673062E+002
  5.0254617E+002
  4.2032531E+002
  3.2069767E+002
  2.1824854E+002
  1.1279923E+002
  3.6962736E+000
 -1.1321781E+002
 -2.4365430E+002
 -3.9283472E+002
 -5.6593001E+002
 -7.6036252E+002
 -9.7020810E+002
 -1.1733754E+003
 -1.3394077E+003
 -1.4335169E+003
 -1.4221779E+003
 -1.2752166E+003
 -9.6656843E+002
 -4.7250180E+002
  2.3161353E+002
  1.1327129E+003
  2.3058117E+003
  3.5102830E+003
  3.6141604E+003
  3.7842676E+003
  2.4766473E+003
  2.8320555E+003
  5.7303267E+003
  5.6446849E+002
  5.2830231E+002
  5.3738279E+002
  5.5484704E+002
  4.9808658E+002
  3.9040616E+002
  2.4591692E+002
  8.3878188E+001
 -8.5095179E+001
 -2.6079077E+002
 -4.4741679E+002
 -6.5106292E+002
 -8.7803342E+002
 -1.1319593E+003
 -1.4124923E+003
 -1.7098093E+003
 -2.0049856E+003
 -2.2669707E+003
 -2.4568849E+003
 -2.5319748E+003
 -2.4550179E+003
 -2.2004678E+003
 -1.7463644E+003
 -1.0991121E+003
 -2.7154321E+002
  6.5009400E+002
  1.4124618E+003
  1.9564242E+003
  2.5466608E+003
  2.3717588E+003
  2.2315663E+003
  1.2314656E+003
  1.7459537E+003
  2.2868486E+003
  2.8282299E+002
 -1.1425738E+002
 -2.2149182E+002
  2.4057214E+002
  4.5423777E+002
  5.7372359E+002
  5.5539285E+002
  4.0061197E+002
  1.8623420E+002
 -4.2842485E+001
 -2.7588774E+002
 -5.1432057E+002
 -7.6447468E+002
 -1.0354296E+003
 -1.3358937E+003
 -1.6723846E+003
 -2.0462552E+003
 -2.4515484E+003
 -2.8694096E+003
 -3.2673288E+003
 -3.5942377E+003
 -3.7954899E+003
 -3.8199848E+003
 -3.6255678E+003
 -3.2221586E+003
 -2.5957920E+003
 -1.7912223E+003
 -9.0383492E+002
 -3.9987503E+001
  6.7039120E+002
  1.0911489E+003
  1.3516544E+003
  1.5342786E+003
  1.2563628E+003
  8.2964181E+002
  3.0405036E+002
  6.3938948E+002
  6.0987883E+000
  3.7712537E+001
  1.1011653E+002
  9.1465236E+001
  5.7272208E+002
  8.7230307E+002
  7.5414827E+002
  4.5755883E+002
  1.4394477E+002
 -1.6360047E+002
 -4.6161328E+002
 -7.5610484E+002
 -1.0608880E+003
 -1.3902833E+003
 -1.7579866E+003
 -2.1753001E+003
 -2.6495846E+003
 -3.1800980E+003
 -3.7551611E+003
 -4.3355872E+003
 -4.8614100E+003
 -5.2330203E+003
 -5.3738492E+003
 -5.2883719E+003
 -4.8904084E+003
 -4.2623083E+003
 -3.4129727E+003
 -2.4161153E+003
 -1.4176948E+003
 -5.3175638E+002
  1.6495069E+002
  6.0056067E+002
  7.5998794E+002
  7.4628884E+002
  6.4834957E+002
  3.5628054E+002
 -2.9619178E+001
 -1.8679020E+002
 -7.5784329E+001
 -4.4440417E+002
 -2.6330292E+002
  5.7412327E+002
  5.6511000E+002
  1.1916290E+003
  1.0368997E+003
  5.6450711E+002
  1.0328636E+002
 -2.9640682E+002
 -6.5086066E+002
 -9.8802833E+002
 -1.3327089E+003
 -1.7068641E+003
 -2.1302956E+003
 -2.6215599E+003
 -3.1965112E+003
 -3.8670390E+003
 -4.6297196E+003
 -5.4668217E+003
 -6.2701186E+003
 -6.9188267E+003
 -7.2646867E+003
 -7.1487570E+003
 -6.8882592E+003
 -6.1829570E+003
 -5.1441758E+003
 -3.9340190E+003
 -2.6424383E+003
 -1.4865213E+003
 -5.8233756E+002
  2.5409337E+001
  3.6125421E+002
  4.6229474E+002
  3.8574390E+002
  2.1905255E+002
  1.8067418E+001
 -2.0557598E+002
 -4.0913580E+002
 -7.7044379E+002
 -5.4115996E+002
  1.2923038E+002
  4.2433978E+003
  1.7251855E+003
  6.2960109E+002
 -6.5157464E+000
 -4.7680507E+002
 -8.5813447E+002
 -1.2125881E+003
 -1.5750629E+003
 -1.9739901E+003
 -2.4347023E+003
 -2.9832144E+003
 -3.6491210E+003
 -4.4603021E+003
 -5.4456476E+003
 -6.5946596E+003
 -7.8784112E+003
 -8.8680868E+003
 -9.2057078E+003
 -9.5436625E+003
 -8.9580373E+003
 -8.3316502E+003
 -7.1828999E+003
 -5.5342817E+003
 -3.8256906E+003
 -2.2085133E+003
 -1.0039191E+003
 -2.5348897E+002
  1.4673129E+002
  3.0514205E+002
  3.0153537E+002
  1.8232900E+002
 -1.6006336E+000
 -2.0167438E+002
 -4.3193537E+002
 -5.5346264E+002
 -9.3619565E+002
 -6.2908406E+002
  4.1519436E+003
  6.8812852E+002
  5.0495926E+002
 -3.5247728E+002
 -7.2694431E+002
 -1.0971390E+003
 -1.4275406E+003
 -1.7811594E+003
 -2.1791686E+003
 -2.6507065E+003
 -3.2278102E+003
 -3.9516312E+003
 -4.8846345E+003
 -6.0913777E+003
 -7.6533981E+003
 -9.5950130E+003
 -1.1750060E+004
 -1.2611784E+004
 -1.1375970E+004
 -1.2404083E+004
 -1.1489053E+004
 -9.1733118E+003
 -7.1961851E+003
 -4.6126088E+003
 -2.4612453E+003
 -1.0075866E+003
 -1.9853384E+002
  1.8611816E+002
  3.2693157E+002
  3.1006453E+002
  1.9516981E+002
  1.9543741E+001
 -1.9603635E+002
 -4.1927335E+002
 -6.7457089E+002
 -6.5081944E+002
 -7.1576375E+002
 -2.7288151E+002
  2.2824585E+003
  6.0525826E+002
 -5.1022513E+002
 -7.7858629E+002
 -1.0880637E+003
 -1.3457470E+003
 -1.6266913E+003
 -1.9406584E+003
 -2.3112122E+003
 -2.7614241E+003
 -3.3239105E+003
 -4.0482433E+003
 -5.0163991E+003
 -6.3719739E+003
 -8.4278059E+003
 -1.1088356E+004
 -1.5514147E+004
 -1.2729591E+004
 -1.5811214E+004
 -1.3149466E+004
 -1.4579046E+004
 -1.2142487E+004
 -1.0048852E+004
 -6.0004071E+003
 -2.0503219E+003
 -3.1273191E+002
  2.5305803E+002
  4.8367816E+002
  5.0822639E+002
  4.2368523E+002
  2.7230990E+002
  7.2917603E+001
 -1.7101699E+002
 -4.2942144E+002
 -7.9027687E+002
 -1.0382488E+003
 -2.5321614E+003
 -6.3148960E+003
 -1.6680918E+003
 -1.5673593E+003
 -1.3404688E+003
 -1.4476587E+003
 -1.5844840E+003
 -1.7890410E+003
 -2.0445481E+003
 -2.3637058E+003
 -2.7595713E+003
 -3.2616625E+003
 -3.8939852E+003
 -4.7908487E+003
 -5.8782953E+003
 -8.3727443E+003
 -1.0920647E+004
 -2.9699099E+004
 -2.1718173E+004
 -1.4749334E+004
 -2.2735869E+004
 -2.8061033E+004
 -9.1307854E+003
 -1.4628488E+004
 -1.8469345E+003
  5.1153157E+002
  9.7248679E+002
  1.2097457E+003
  1.0118788E+003
  7.8937520E+002
  5.9686880E+002
  3.9680698E+002
  1.6408884E+002
 -1.0636348E+002
 -4.2994048E+002
 -7.6063186E+002
 -1.2105490E+003
 -1.0566109E+003
 -1.3686359E+003
 -8.6708480E+001
 -1.1250211E+004
 -3.8504355E+003
 -2.3030264E+003
 -5.5711703E+003
 -2.3729530E+003
 -7.3252924E+003
 -2.3566705E+003
  1.0448618E+002
 -3.3608815E+003
 -6.6665880E+002
 -3.2463639E+002
 -7.2368135E+003
 -3.5726119E+003
  4.6104418E+001
 -3.4732023E+003
 -5.8594356E+003
 -3.8592727E+003
 -2.5612544E+003
 -2.0870358E+003
 -1.7880965E+003
 -1.7270562E+003
 -1.7711421E+003
 -1.8968766E+003
 -2.0863494E+003
 -2.3382919E+003
 -2.6562604E+003
 -3.0544303E+003
 -3.5368005E+003
 -4.1747686E+003
 -4.8084153E+003
 -6.0613826E+003
 -4.5764241E+003
 -4.6636372E+003
  4.9536233E+002
 -5.0630374E+003
 -3.9495374E+004
 -4.6180897E+003
  2.1321465E+003
  5.2535139E+003
  2.3675254E+003
  1.4907365E+003
  1.0272995E+003
  7.8479912E+002
  5.5402454E+002
  2.9677291E+002
 -5.3759740E+000
 -3.6214876E+002
 -7.6240223E+002
 -1.3220553E+003
 -1.9906284E+003
 -4.1641262E+003
  2.8383958E+003
  1.0002044E+003
 -2.5607024E+002
 -2.2672589E+003
 -2.3155355E+003
 -2.0287568E+003
 -2.1626502E+003
 -1.5886378E+003
 -1.7198557E+003
 -1.4555188E+003
  2.2953788E+002
 -2.2110693E+003
  2.5783242E+002
  4.4690350E+001
 -9.9879800E+003
 -3.9871889E+003
 -1.8489032E+003
 -4.9609585E+003
 -3.7316175E+003
 -3.8949575E+003
 -3.3849773E+003
 -2.7303457E+003
 -2.2768795E+003
 -2.0210740E+003
 -1.8953713E+003
 -1.8787434E+003
 -1.9407374E+003
 -2.0662267E+003
 -2.2459478E+003
 -2.4761766E+003
 -2.7497011E+003
 -3.0708836E+003
 -3.3711375E+003
 -3.7524267E+003
 -3.4172511E+003
 -4.2081437E+003
 -6.2706357E+002
  7.6264999E+003
  4.4680566E+004
  2.8206205E+004
  6.6125785E+003
  1.9813237E+003
  1.5123285E+003
  1.0712262E+003
  9.2839889E+002
  7.3514905E+002
  4.7716427E+002
  1.4700782E+002
 -2.3608110E+002
 -6.9370806E+002
 -1.1855199E+003
 -1.7623377E+003
 -1.8969770E+003
 -2.7488683E+003
 -1.3898270E+003
  2.2065740E+003
 -3.2117888E+002
 -1.1039622E+003
 -1.7733889E+003
 -2.0526319E+003
 -2.1737892E+003
 -2.1314066E+003
 -1.9620342E+003
 -2.1967544E+003
 -2.0056447E+003
 -2.0108757E+003
 -2.3006287E+003
 -1.0694708E+003
 -2.1722863E+003
  5.0330129E+002
 -5.4233925E+003
  9.1431845E+002
  1.0904652E+003
 -1.5924761E+004
 -5.7149667E+003
 -2.0666794E+003
 -6.5577449E+003
 -5.0341012E+003
 -4.6387969E+003
 -3.9568654E+003
 -3.4591570E+003
 -3.1079817E+003
 -2.7001593E+003
 -2.3339967E+003
 -2.0944612E+003
 -1.9580863E+003
 -1.9056727E+003
 -1.9215285E+003
 -1.9914154E+003
 -2.1040697E+003
 -2.2482943E+003
 -2.4113491E+003
 -2.5667229E+003
 -2.6863036E+003
 -2.6440452E+003
 -2.4629206E+003
 -1.7021051E+003
  3.7483470E+002
 -2.5653256E+003
 -6.3482463E+002
  8.5755729E+002
  1.0207730E+003
  1.2042174E+003
  1.0174330E+003
  7.1334416E+002
  3.6045862E+002
 -5.3390630E+001
 -5.2323607E+002
 -1.0688101E+003
 -1.6393759E+003
 -2.4119375E+003
 -1.8054003E+003
 -1.5642995E+003
 -8.9525956E+002
  2.4017661E+002
  3.2792657E+002
  5.1681020E+002
 -2.4701528E+002
 -1.1012627E+003
 -1.6993741E+003
 -2.0721791E+003
 -2.2705438E+003
 -2.3440549E+003
 -2.4066775E+003
 -2.4940054E+003
 -2.6140058E+003
 -2.7139466E+003
 -3.1260147E+003
 -4.2350628E+003
 -4.3556020E+003
 -6.4242400E+003
 -5.0566527E+003
 -5.4332655E+003
 -5.1907488E+003
 -5.9353887E+003
 -5.4752259E+003
 -6.2523207E+003
 -5.7309154E+003
 -6.6518260E+003
 -5.9928652E+003
 -7.0096844E+003
 -6.2431223E+003
 -7.3470690E+003
 -6.4838871E+003
 -7.6638479E+003
 -6.7148105E+003
 -7.9714172E+003
 -6.9400164E+003
 -8.2755621E+003
 -7.1690313E+003
 -8.5713699E+003
 -7.4030625E+003
 -8.8786782E+003
 -7.7094622E+003
 -9.1452176E+003
 -7.9832308E+003
 -9.7144561E+003
 -8.8318887E+003
 -9.8936864E+003
 -8.0197803E+003
 -1.4508286E+004
 -8.9624753E+003
 -6.9038201E+003
 -5.9915234E+003
 -4.8800084E+003
 -4.2213259E+003
 -3.7093568E+003
 -3.2865539E+003
 -2.9066067E+003
 -2.5658726E+003
 -2.2831528E+003
 -2.0699976E+003
 -1.9342841E+003
 -1.8641181E+003
 -1.8478478E+003
 -1.8738191E+003
 -1.9299459E+003
 -2.0029380E+003
 -2.0739482E+003
 -2.1203554E+003
 -2.0883454E+003
 -1.9589461E+003
 -1.5089736E+003
 -8.3758734E+002
  1.0810702E+003
  8.4076329E+002
  1.0321653E+003
  1.4094961E+003
  1.3126420E+003
  1.0315415E+003
  6.3890160E+002
  1.8995894E+002
 -2.9870727E+002
 -8.8044432E+002
 -1.5074566E+003
 -2.5747485E+003
 -3.7454751E+003
 -1.0863999E+004
  1.6621981E+003
  5.8565505E+002
 -3.0354956E+002
 -1.1615212E+003
 -1.8280165E+003
 -2.2762740E+003
 -2.5407676E+003
 -2.6754601E+003
 -2.7488403E+003
 -2.8195592E+003
 -2.8978363E+003
 -3.0801839E+003
 -3.3569045E+003
 -3.8717414E+003
 -4.3419386E+003
 -4.4278870E+003
 -4.6862863E+003
 -4.8639960E+003
 -5.0576158E+003
 -5.2471530E+003
 -5.4358042E+003
 -5.6155408E+003
 -5.7864014E+003
 -5.9476866E+003
 -6.1070321E+003
 -6.2845824E+003
 -6.4700023E+003
 -6.7440773E+003
 -6.8032725E+003
 -7.4095310E+003
 -6.9381352E+003
 -5.8190389E+003
 -5.0508125E+003
 -4.4096159E+003
 -3.8315373E+003
 -3.3718176E+003
 -2.9890555E+003
 -2.6650809E+003
 -2.3862969E+003
 -2.1520971E+003
 -1.9720845E+003
 -1.8455803E+003
 -1.7684039E+003
 -1.7317897E+003
 -1.7258191E+003
 -1.7392031E+003
 -1.7582551E+003
 -1.7659924E+003
 -1.7376714E+003
 -1.6461057E+003
 -1.4378248E+003
 -1.0822007E+003
 -5.2854846E+002
  1.4318540E+002
  6.3705886E+002
  5.6110476E+002
  8.1148514E+002
  3.7528156E+003
  2.0405057E+003
  1.4417327E+003
  9.2998937E+002
  4.8828235E+002
 -6.7477399E+000
 -5.6881162E+002
 -1.2330116E+003
 -2.0907881E+003
 -2.9732245E+003
 -4.2607438E+003
 -2.6709298E+003
 -5.8048296E+003
 -2.8502610E+003
 -2.7077350E+003
 -1.8468438E+003
 -2.1024418E+003
 -1.4140436E+003
 -1.4181380E+003
 -1.0006072E+003
 -9.6878653E+002
 -7.0207122E+002
 -5.9052486E+002
 -4.6499883E+002
 -3.0961916E+002
 -2.9012400E+002
 -1.1495783E+002
 -1.6259013E+002
 -1.3493360E+000
 -7.0310405E+001
  5.7043098E+000
  5.8599351E+001
  7.5946078E+000
  2.0429489E+003
  5.3804358E+002
 -4.0148539E+002
 -1.4500906E+003
 -2.1762763E+003
 -2.6616661E+003
 -2.9232949E+003
 -3.0511655E+003
 -3.1021668E+003
 -3.1273866E+003
 -3.1692042E+003
 -3.2454088E+003
 -3.4238189E+003
 -3.6417326E+003
 -3.8175212E+003
 -4.0059536E+003
 -4.1018365E+003
 -4.2129068E+003
 -4.3168187E+003
 -4.4312422E+003
 -4.5558738E+003
 -4.6811224E+003
 -4.7786915E+003
 -4.8609021E+003
 -4.9391224E+003
 -5.0203386E+003
 -5.1384839E+003
 -5.2454758E+003
 -5.4211041E+003
 -5.3220358E+003
 -5.1618944E+003
 -4.7495467E+003
 -4.2082130E+003
 -3.7312366E+003
 -3.3159455E+003
 -2.9549992E+003
 -2.6482680E+003
 -2.3838851E+003
 -2.1572333E+003
 -1.9689784E+003
 -1.8192683E+003
 -1.7082971E+003
 -1.6322544E+003
 -1.5850460E+003
 -1.5584764E+003
 -1.5426495E+003
 -1.5256510E+003
 -1.4925936E+003
 -1.4259249E+003
 -1.3025488E+003
 -1.1013197E+003
 -8.0132178E+002
 -3.9830885E+002
  2.3090854E+001
  2.4985315E+002
  2.5972870E+002
  3.0609912E+002
  1.1781559E+003
  1.4841069E+003
  1.6603540E+003
  1.2486191E+003
  8.3416087E+002
  3.5285653E+002
 -1.6442867E+002
 -7.4306030E+002
 -1.3746632E+003
 -2.0813353E+003
 -2.7081688E+003
 -2.6051129E+003
 -1.8619179E+003
 -1.6078005E+003
 -1.2189753E+003
 -9.4041488E+002
 -7.0101282E+002
 -5.1107018E+002
 -3.5896009E+002
 -2.3799580E+002
 -1.4605120E+002
 -5.8840761E+001
 -2.2719703E+001
  8.8762090E+001
  8.2419482E+000
  2.4725540E+001
  5.1440777E+001
  2.9337430E+001
  2.3384492E+003
  7.0526453E+002
 -7.4047727E+002
 -1.9396462E+003
 -2.8098052E+003
 -3.2391990E+003
 -3.4552532E+003
 -3.5067069E+003
 -3.4785939E+003
 -3.4225212E+003
 -3.3743182E+003
 -3.3651159E+003
 -3.3930568E+003
 -3.4568870E+003
 -3.5224974E+003
 -3.5471413E+003
 -3.5677057E+003
 -3.5707404E+003
 -3.5821586E+003
 -3.6295548E+003
 -3.7126176E+003
 -3.7748860E+003
 -3.8207218E+003
 -3.8128195E+003
 -3.7843674E+003
 -3.7886934E+003
 -3.8036691E+003
 -3.8784305E+003
 -3.9200344E+003
 -3.9590635E+003
 -3.8384000E+003
 -3.5966977E+003
 -3.3154026E+003
 -3.0185090E+003
 -2.7399479E+003
 -2.4868831E+003
 -2.2610834E+003
 -2.0630315E+003
 -1.8914738E+003
 -1.7462207E+003
 -1.6280344E+003
 -1.5359651E+003
 -1.4674313E+003
 -1.4177236E+003
 -1.3804125E+003
 -1.3474311E+003
 -1.3090506E+003
 -1.2539187E+003
 -1.1689309E+003
 -1.0406598E+003
 -8.5737567E+002
 -6.1197092E+002
 -3.2609917E+002
 -1.4675933E+001
  2.6179591E+002
  7.9608848E+002
  1.2337932E+002
  4.2545710E+003
  2.0076500E+003
  1.6323436E+003
  1.1747688E+003
  7.6913871E+002
  3.0072534E+002
 -1.8435763E+002
 -6.8675461E+002
 -1.1652795E+003
 -1.4549297E+003
 -1.4701589E+003
 -1.4106632E+003
 -1.1733909E+003
 -1.0015173E+003
 -8.2101311E+002
 -6.6759478E+002
 -5.3125755E+002
 -4.1135482E+002
 -3.0494033E+002
 -2.0896470E+002
 -1.2591987E+002
 -6.0820876E+001
 -2.2239751E+001
  1.2699132E+001
  1.9514676E+001
  2.5630404E+001
  8.2798025E+001
  9.1030819E+002
 -9.7455484E+002
 -3.0544608E+003
 -3.6916182E+003
 -4.0969139E+003
 -4.1403145E+003
 -4.0461033E+003
 -3.8822698E+003
 -3.7082910E+003
 -3.5531560E+003
 -3.4294365E+003
 -3.3409197E+003
 -3.2717538E+003
 -3.2033820E+003
 -3.1271003E+003
 -3.0281819E+003
 -2.9230254E+003
 -2.8218302E+003
 -2.7565594E+003
 -2.8193357E+003
 -2.9662804E+003
 -2.8641915E+003
 -2.7384175E+003
 -2.6162795E+003
 -2.4246969E+003
 -2.3909562E+003
 -2.4634167E+003
 -2.5696045E+003
 -2.5806100E+003
 -2.5836586E+003
 -2.5367502E+003
 -2.4280849E+003
 -2.2889072E+003
 -2.1388227E+003
 -1.9895742E+003
 -1.8474445E+003
 -1.7163238E+003
 -1.5988060E+003
 -1.4966175E+003
 -1.4104898E+003
 -1.3401626E+003
 -1.2838065E+003
 -1.2380689E+003
 -1.1980907E+003
 -1.1576662E+003
 -1.1094009E+003
 -1.0449221E+003
 -9.5547838E+002
 -8.3297363E+002
 -6.7192985E+002
 -4.7453470E+002
 -2.5111791E+002
 -2.9571712E+001
  1.3427460E+002
  2.1956593E+002
 -1.7707715E+001
  2.1804965E-001
  1.2456678E+003
  1.6087063E+003
  1.9765293E+003
  1.6073644E+003
  1.2026763E+003
  7.9510462E+002
  3.8532698E+002
 -2.4460233E+001
 -3.9217048E+002
 -6.7735250E+002
 -8.2490924E+002
 -8.3201792E+002
 -8.1217055E+002
 -7.4921781E+002
 -6.8429710E+002
 -6.1048753E+002
 -5.3210460E+002
 -4.4697219E+002
 -3.5566517E+002
 -2.6145558E+002
 -1.7191221E+002
 -9.8409342E+001
 -3.6186470E+001
  7.8954903E+000
  6.7676810E+001
 -1.1906887E+002
  5.7575739E+003
 -3.6777442E+003
 -4.1058703E+003
 -5.3100586E+003
 -5.2190084E+003
 -4.9967153E+003
 -4.6453846E+003
 -4.2970592E+003
 -3.9750062E+003
 -3.6972672E+003
 -3.4634889E+003
 -3.2644864E+003
 -3.0862300E+003
 -2.9105626E+003
 -2.7186906E+003
 -2.5038198E+003
 -2.2563092E+003
 -2.0241411E+003
 -1.8235399E+003
 -2.0734802E+003
 -2.1402547E+003
 -2.0601258E+003
 -1.7997297E+003
 -1.4499225E+003
 -1.3352105E+003
 -9.3389213E+002
 -1.1729479E+003
 -1.0888194E+003
 -1.2251935E+003
 -1.4249017E+003
 -1.5293708E+003
 -1.5657740E+003
 -1.5698893E+003
 -1.5390540E+003
 -1.4855570E+003
 -1.4222578E+003
 -1.3558593E+003
 -1.2909616E+003
 -1.2308194E+003
 -1.1771637E+003
 -1.1303674E+003
 -1.0895958E+003
 -1.0526920E+003
 -1.0162601E+003
 -9.7580195E+002
 -9.2595966E+002
 -8.6088990E+002
 -7.7485906E+002
 -6.6317250E+002
 -5.2405663E+002
 -3.5988619E+002
 -1.8237254E+002
 -8.7677149E+000
  1.4886731E+002
  2.4296568E+002
  2.6529704E+002
  1.0014700E+003
  2.3114332E+003
  2.1152999E+003
  2.0294839E+003
  1.6641498E+003
  1.3021731E+003
  9.4176544E+002
  6.0761737E+002
  2.8485213E+002
  8.5457354E+000
 -2.0464096E+002
 -3.5945607E+002
 -4.5400531E+002
 -5.1766303E+002
 -5.5140631E+002
 -5.6017469E+002
 -5.4028666E+002
 -4.8938020E+002
 -4.0838192E+002
 -3.0852479E+002
 -2.0606783E+002
 -1.1284999E+002
 -4.5564204E+001
  5.8702177E+000
  7.2746827E+001
  1.0621282E+004
 -5.6483348E+003
 -7.9663804E+003
 -7.5401042E+003
 -6.6707490E+003
 -5.9185361E+003
 -5.2516567E+003
 -4.6785234E+003
 -4.1982675E+003
 -3.7983478E+003
 -3.4613476E+003
 -3.1684576E+003
 -2.8982870E+003
 -2.6291104E+003
 -2.3375658E+003
 -2.0072265E+003
 -1.5939219E+003
 -1.1593215E+003
 -3.9371575E+002
 -5.1704348E+002
 -2.4187135E+003
 -9.7713520E+002
 -5.5846944E+002
 -5.4129239E+001
  8.0030468E+002
  1.5586370E+003
  2.2470181E+002
 -4.5515895E+001
  9.8490514E+001
 -3.1960861E+002
 -5.1971299E+002
 -7.6646679E+002
 -8.9298359E+002
 -9.5529943E+002
 -9.9141089E+002
 -1.0014054E+003
 -9.9376914E+002
 -9.7828705E+002
 -9.5864125E+002
 -9.3694546E+002
 -9.1454918E+002
 -8.9152156E+002
 -8.6686290E+002
 -8.3848261E+002
 -8.0333498E+002
 -7.5773617E+002
 -6.9775456E+002
 -6.1971645E+002
 -5.2098124E+002
 -4.0064823E+002
 -2.6118153E+002
 -1.0726039E+002
  4.9466578E+001
  1.7870883E+002
  2.3054102E+002
 -1.4533606E+001
  1.4887993E+003
  5.2025992E+003
  2.7538433E+003
  2.1456833E+003
  1.7430123E+003
  1.4992593E+003
  1.2184829E+003
  9.2290096E+002
  6.1427541E+002
  3.2700535E+002
  7.6046456E+001
 -1.3748473E+002
 -3.1090851E+002
 -4.4586404E+002
 -5.3757249E+002
 -5.7901237E+002
 -5.6307553E+002
 -4.8802315E+002
 -3.6167074E+002
 -2.1672452E+002
 -1.1139224E+002
 -3.0082770E+001
  3.5513466E+000
  5.6039142E+001
 -3.9108052E+004
 -2.5062009E+004
 -1.3471106E+004
 -9.8628888E+003
 -7.9086500E+003
 -6.7498734E+003
 -5.7533566E+003
 -4.9683652E+003
 -4.3430461E+003
 -3.8367331E+003
 -3.4152780E+003
 -3.0491941E+003
 -2.7098690E+003
 -2.3694404E+003
 -2.0016489E+003
 -1.5678804E+003
 -1.0517539E+003
 -2.8251773E+002
  5.8994002E+002
  3.2447486E+003
  5.4817780E+002
  4.1025130E+002
  2.2120618E+003
  2.5664868E+003
  4.0027748E+002
  3.7582587E+002
 -7.1893876E+001
 -2.1994139E+002
 -4.2252773E+002
 -5.2927280E+002
 -5.9210239E+002
 -6.4001019E+002
 -6.7036190E+002
 -6.8807814E+002
 -6.9747839E+002
 -6.9940249E+002
 -6.9505176E+002
 -6.8476959E+002
 -6.6748606E+002
 -6.4131856E+002
 -6.0387475E+002
 -5.5261188E+002
 -4.8527412E+002
 -4.0020620E+002
 -2.9707307E+002
 -1.7560441E+002
 -3.8859082E+001
  1.2643305E+002
  3.1731472E+002
  7.6078348E+002
 -1.2336832E+001
  1.6956182E+003
  1.7490175E+003
  2.3030556E+003
  2.1447298E+003
  2.0524470E+003
  1.8659935E+003
  1.5617295E+003
  1.2058346E+003
  8.2843802E+002
  4.6930862E+002
  1.4247584E+002
 -1.4412323E+002
 -3.8310926E+002
 -5.6515285E+002
 -6.7640876E+002
 -6.9072035E+002
 -5.9063433E+002
 -4.1595749E+002
 -2.4500487E+002
 -4.2704073E+001
 -2.8428210E+001
  1.5807775E+001
  2.1620240E+001
 -5.2721493E+004
 -2.9578057E+004
 -1.3287313E+004
 -1.0525342E+004
 -8.8337854E+003
 -7.3469967E+003
 -6.0464665E+003
 -5.1114414E+003
 -4.3709286E+003
 -3.7886775E+003
 -3.3139308E+003
 -2.9031846E+003
 -2.5219795E+003
 -2.1387787E+003
 -1.7236150E+003
 -1.2381283E+003
 -6.5143416E+002
  1.5127133E+002
  1.0199923E+003
  2.8001803E+003
  9.0272875E+001
  5.8297436E+002
  1.8972660E+003
  3.4676211E+002
  3.5578245E+002
  3.7559871E+001
 -6.5085222E+001
 -2.2067323E+002
 -3.0575330E+002
 -3.7138703E+002
 -4.2752224E+002
 -4.6580566E+002
 -4.9006674E+002
 -5.0458041E+002
 -5.0969239E+002
 -5.0537404E+002
 -4.9057872E+002
 -4.6380280E+002
 -4.2352565E+002
 -3.6848717E+002
 -2.9763033E+002
 -2.1127388E+002
 -1.0663610E+002
  7.5309233E+000
  1.7130522E+002
  2.5969264E+002
  6.9730259E+002
  1.8342376E+002
  4.0917268E+003
  2.3427972E+003
  2.5965283E+003
  2.7374055E+003
  2.5839131E+003
  2.2769116E+003
  1.8033724E+003
  1.3153175E+003
  8.3133676E+002
  3.8186479E+002
 -2.3746756E+001
 -3.7835877E+002
 -6.6507737E+002
 -8.6094980E+002
 -9.5764817E+002
 -8.7931350E+002
 -5.2490210E+002
 -8.3528279E+001
  6.5072296E+001
  1.1580611E+002
  2.4742921E+001
  1.2275769E+001
 -5.7156958E+003
 -6.6942081E+003
 -7.2079457E+003
 -9.2783286E+003
 -7.4465778E+003
 -6.1749372E+003
 -5.0322521E+003
 -4.2358646E+003
 -3.6336133E+003
 -3.1479652E+003
 -2.7278833E+003
 -2.3358885E+003
 -1.9407824E+003
 -1.5133064E+003
 -1.0193247E+003
 -4.3064206E+002
  3.2065940E+002
  1.1790763E+003
  2.6330468E+003
  6.0129707E+001
  4.0593262E+002
  1.3883763E+003
  2.9438596E+002
  3.2264079E+002
  1.1683821E+002
  3.4833305E+001
 -9.4910007E+001
 -1.8328943E+002
 -2.4509730E+002
 -2.9193415E+002
 -3.2340774E+002
 -3.4403855E+002
 -3.5380056E+002
 -3.5178650E+002
 -3.3721472E+002
 -3.0922455E+002
 -2.6729871E+002
 -2.1127643E+002
 -1.4096230E+002
 -5.7488570E+001
  4.2170962E+001
  1.4653033E+002
  2.8700620E+002
  4.1130610E+002
  1.0808927E+003
  1.7771899E+003
  3.0870570E+003
  3.4390232E+003
  3.6596664E+003
  3.0454042E+003
  2.4584530E+003
  1.7909367E+003
  1.1615432E+003
  5.7670417E+002
  4.4394162E+001
 -4.3572591E+002
 -8.6158491E+002
 -1.1750802E+003
 -1.2785683E+003
 -1.0913437E+003
 -4.9694405E+002
 -2.5520831E+002
  1.6048943E+002
 -4.6723230E+003
 -3.1880649E+003
 -1.8063558E+004
 -7.2480851E+003
 -5.9737173E+003
 -4.5567606E+003
 -3.9226155E+003
 -3.3570610E+003
 -2.9187039E+003
 -2.5242046E+003
 -2.1530551E+003
 -1.7757332E+003
 -1.3681694E+003
 -9.0186406E+002
 -3.5703447E+002
  3.2805182E+002
  1.0653299E+003
  2.2587906E+003
  3.8707432E+001
  3.1176976E+002
  1.1118913E+003
  2.5718083E+002
  3.7024471E+002
  1.4629273E+002
  4.1685465E+001
 -4.9820778E+001
 -1.0460028E+002
 -1.5344771E+002
 -1.8960155E+002
 -2.1368182E+002
 -2.2564691E+002
 -2.2401242E+002
 -2.0881113E+002
 -1.8031134E+002
 -1.3884294E+002
 -8.5261088E+001
 -1.9780238E+001
  5.3689792E+001
  1.4111543E+002
  2.1909763E+002
  3.3398932E+002
  6.9373184E+002
  1.4587390E+003
  3.1524204E+003
  5.9526561E+003
  4.6379101E+003
  4.1187334E+003
  3.1222625E+003
  2.2488827E+003
  1.4408917E+003
  7.1992176E+002
  5.8611775E+001
 -5.5617037E+002
 -1.1267140E+003
 -1.6944268E+003
 -2.1748764E+003
 -3.3134571E+003
 -2.3929573E+002
 -4.2584315E+003
 -3.5016839E+003
 -4.5707921E+003
 -3.7987560E+003
 -3.4174435E+003
 -2.9924763E+003
 -2.6357885E+003
 -2.3001790E+003
 -1.9756680E+003
 -1.6416868E+003
 -1.2806055E+003
 -8.6969469E+002
 -3.9624162E+002
  1.9245553E+002
  8.1372494E+002
  1.8505717E+003
  2.4307664E+001
  3.3254770E+002
  1.0247421E+003
  3.0812700E+002
  2.2879495E+002
  1.4245800E+002
  6.1146889E+001
  2.6426765E+000
 -4.4658774E+001
 -8.6872700E+001
 -1.1305064E+002
 -1.2425086E+002
 -1.2172004E+002
 -1.0621179E+002
 -7.8805297E+001
 -4.0600092E+001
  6.7128797E+000
  6.1443460E+001
  1.1992171E+002
  1.7364890E+002
  2.3361493E+002
  8.0905157E+001
  6.2004625E+003
  7.2829209E+003
  6.9882686E+003
  5.1841283E+003
  3.7764214E+003
  2.6036424E+003
  1.6404303E+003
  8.0003119E+002
  2.9331735E+001
 -7.2907946E+002
 -1.4657136E+003
 -2.1800866E+003
 -2.0434192E+003
 -6.7759108E+002
  2.3853317E+002
 -3.2293154E+003
 -2.9005370E+003
 -3.1147266E+003
 -2.8319515E+003
 -2.5885246E+003
 -2.3235103E+003
 -2.0670522E+003
 -1.8070135E+003
 -1.5356327E+003
 -1.2405440E+003
 -9.0842318E+002
 -5.2303331E+002
 -6.3914168E+001
  4.5399898E+002
  1.3020671E+003
  2.7032917E+002
  4.3780021E+002
  2.5018419E+002
  3.0029257E+002
  2.1689490E+002
  1.6929898E+002
  8.5242013E+001
  2.5315007E+001
 -1.4294956E+001
 -3.8498969E+001
 -4.7681183E+001
 -4.4137960E+001
 -2.9468095E+001
 -5.2839940E+000
  2.6794469E+001
  6.3779852E+001
  1.0323187E+002
  1.3515115E+002
  1.5362078E+002
  3.2543771E+004
  1.4225304E+004
  9.4709205E+003
  5.9455208E+003
  4.1342495E+003
  2.7564636E+003
  1.7129763E+003
  8.1462660E+002
 -2.0953778E+001
 -8.7641195E+002
 -1.8868761E+003
 -3.2379556E+003
 -6.4987160E+003
  4.2841327E+002
  3.4455505E+001
 -3.1379880E+003
 -2.5434417E+003
 -2.4289674E+003
 -2.3160088E+003
 -2.1732316E+003
 -2.0100129E+003
 -1.8350767E+003
 -1.6502713E+003
 -1.4526922E+003
 -1.2386714E+003
 -9.9610734E+002
 -7.3601054E+002
 -3.7418319E+002
 -1.2086617E+002
  7.1461054E+002
  2.1119727E+002
  2.4683104E+002
  8.2066245E+002
  2.4568508E+002
  3.4480253E+002
  1.9140195E+002
  1.2345291E+002
  6.4727773E+001
  3.2813409E+001
  1.3780258E+001
  7.0382988E+000
  1.0209049E+001
  2.2233569E+001
  4.1664171E+001
  6.6723585E+001
  8.8243731E+001
  1.0148728E+002
  2.0459788E+001
  3.0192440E+004
  1.3894022E+004
  8.8207262E+003
  5.6540686E+003
  3.9113266E+003
  2.6253169E+003
  1.6296270E+003
  7.7273663E+002
 -6.2049485E+001
 -8.4065121E+002
 -2.1329313E+003
 -2.4403646E+003
 -7.0839289E+003
 -1.9431481E+003
 -1.5387115E+003
 -1.8837053E+003
 -1.8094178E+003
 -1.7866461E+003
 -1.7061425E+003
 -1.6135511E+003
 -1.5055858E+003
 -1.3878900E+003
 -1.2586395E+003
 -1.1245141E+003
 -9.6372323E+002
 -8.6747645E+002
 -5.1256968E+002
 -7.6789142E+002
  3.0441308E+001
  2.4541545E+002
  7.5997043E+002
  2.4592075E+002
  1.9325439E+002
  1.2861221E+002
  8.9711866E+001
  6.0783389E+001
  4.8428748E+001
  4.1335920E+001
  4.2029305E+001
  5.0471348E+001
  6.9912249E+001
  9.2700882E+001
  1.9751201E+002
  2.2068546E+001
  1.1192663E+003
  5.4217704E+003
  5.4803573E+003
  4.2852150E+003
  3.1728852E+003
  2.2273834E+003
  1.4132918E+003
  6.7511043E+002
 -2.8612631E+001
 -7.7595777E+002
 -1.5308802E+003
 -2.7480388E+003
 -4.2724294E+003
 -4.4356585E+002
 -1.1922626E+003
 -1.2446736E+003
 -1.3958314E+003
 -1.4193189E+003
 -1.4255267E+003
 -1.4043524E+003
 -1.3719139E+003
 -1.3325368E+003
 -1.2904885E+003
 -1.2538774E+003
 -1.2204748E+003
 -1.2568545E+003
 -1.3174505E+003
 -2.3570826E+003
  1.6313173E+002
  2.4905150E+002
  1.6595024E+002
  1.8208345E+002
  1.1769183E+002
  1.0792988E+002
  8.3879368E+001
  6.3212460E+001
  5.4267894E+001
  5.1930551E+001
  6.1512924E+001
  5.2862438E+001
  1.0233806E+002
 -1.5197115E+003
  2.9972569E+003
  2.6206763E+003
  2.7782119E+003
  2.2441855E+003
  1.6964224E+003
  1.1166712E+003
  5.5552883E+002
  3.0808730E+000
 -5.3809779E+002
 -1.0614204E+003
 -1.4378827E+003
 -1.2517649E+003
  2.5451635E+002
  6.8957800E+002
 -1.9462611E+002
 -6.3661430E+002
 -8.5440695E+002
 -1.0000668E+003
 -1.1005732E+003
 -1.1635522E+003
 -1.2088648E+003
 -1.2447113E+003
 -1.2794752E+003
 -1.3191383E+003
 -1.3729316E+003
 -1.4402327E+003
 -1.5598481E+003
 -1.5409572E+003
 -1.7392362E+003
 -1.4541812E+002
 -3.8268778E+002
  1.3190617E+002
  1.0769025E+002
  3.6131133E+002
  1.3457392E+002
  1.2219994E+002
  1.1562393E+002
  7.5007580E+001
  5.8089225E+001
  4.8769208E+001
  4.0497406E+001
  4.3199874E+001
  7.6207317E+000
 -2.1242973E+003
 -6.4000647E+003
 -1.6452732E+003
  1.1607440E+002
  1.3597655E+003
  1.4952587E+003
  1.4399510E+003
  1.1605243E+003
  8.0889401E+002
  4.2268374E+002
  3.2931517E+001
 -3.3721961E+002
 -6.5866970E+002
 -8.7628268E+002
 -8.8224247E+002
 -6.8278294E+002
 -6.3981441E+000
 -3.2081641E+002
 -4.9858884E+002
 -6.7648570E+002
 -8.0879209E+002
 -9.2238797E+002
 -1.0219964E+003
 -1.1190437E+003
 -1.2208291E+003
 -1.3358360E+003
 -1.4684956E+003
 -1.6403448E+003
 -1.8088639E+003
 -2.1926397E+003
 -2.0119593E+003
 -3.3616098E+003
  1.0461320E+001
 -1.5275796E+000
  2.0852385E+002
  2.0298462E+002
  6.4177843E+001
  5.4499087E+001
  3.8439185E+001
  2.9193724E+001
  2.6492560E+001
  9.4773621E+000
  2.4883510E+002
 -7.3627197E+003
 -2.5224770E+003
 -1.8268965E+003
 -3.3922797E+003
 -1.6797572E+003
 -5.3672480E+002
  3.1035640E+002
  7.1050273E+002
  7.9583363E+002
  7.1559929E+002
  5.3012216E+002
  2.9428145E+002
  4.2965923E+001
 -1.9368855E+002
 -3.8166386E+002
 -4.5811314E+002
 -3.5605342E+002
 -8.3191217E+001
  3.9774459E+002
  3.8330081E+002
 -8.3636426E+001
  3.3908575E+001
 -1.6599244E+002
 -3.8155136E+002
 -5.4262374E+002
 -6.9347898E+002
 -8.3847347E+002
 -9.8827033E+002
 -1.1498457E+003
 -1.3314232E+003
 -1.5375638E+003
 -1.7901577E+003
 -2.0679146E+003
 -2.5661447E+003
 -2.9725362E+003
 -5.9252142E+003
 -2.5155868E+001
 -1.9028250E+001
  3.8068367E+001
  2.7772271E+001
  6.4442835E+000
  7.1385584E+000
  1.0235612E+002
 -2.5926562E+003
 -1.2038555E+003
  8.6753987E+001
 -1.3989611E+003
 -1.0373369E+003
 -1.5231222E+003
 -1.4310685E+003
 -1.7484607E+003
 -1.7502126E+003
 -1.9537959E+003
 -1.9930934E+003
 -2.1722924E+003
 -2.2416033E+003
 -2.4373216E+003
 -2.4933436E+003
 -2.7118932E+003
 -2.9213429E+003
 -3.2939952E+003
 -3.2504928E+003
 -3.1509906E+003
 -5.6673365E+003
 -3.7860858E+003
 -3.1375462E+003
 -2.5961261E+003
 -1.6911954E+003
 -8.4951009E+002
 -2.1343027E+002
  1.6955140E+002
  3.4673931E+002
  3.7207826E+002
  3.0385487E+002
  1.8080292E+002
  3.6489887E+001
 -1.0011055E+002
 -1.9744434E+002
 -2.2621083E+002
 -1.6940366E+002
 -2.0058181E+001
  1.6848333E+002
  4.0076415E+002
  2.3389650E+002
  4.5912069E+002
  5.9662067E+001
 -1.0872209E+002
 -2.9545713E+002
 -4.6876936E+002
 -6.5068569E+002
 -8.4527966E+002
 -1.0598433E+003
 -1.2993550E+003
 -1.5721695E+003
 -1.8796395E+003
 -2.2514614E+003
 -2.6130601E+003
 -3.0908953E+003
 -2.6278316E+003
 -1.8044616E+003
 -7.9904444E+001
 -7.7667277E+001
 -2.6596741E+003
 -1.3958465E+003
  4.0748691E+001
 -1.4637587E+003
 -1.9727384E+003
 -1.7162439E+003
 -1.4945091E+003
 -1.5226590E+003
 -1.6146806E+003
 -1.7528018E+003
 -1.9132730E+003
 -2.0930602E+003
 -2.2864280E+003
 -2.5314247E+003
 -2.6877074E+003
 -3.1015898E+003
 -3.0474469E+003
 -2.5444117E+003
 -2.1064952E+003
 -1.5556678E+003
 -9.7097221E+002
 -4.9361271E+002
 -1.5669087E+002
  4.0473778E+001
  1.2637862E+002
  1.3224841E+002
  8.8739462E+001
  2.2075223E+001
 -4.3305061E+001
 -8.5119611E+001
 -8.3818525E+001
 -2.7616098E+001
  7.7600577E+001
  2.0474845E+002
  2.2582078E+002
  2.4955328E+002
  1.2725348E+002
  5.1877427E+002
  2.8264917E+002
  1.3642977E+002
 -5.0670715E+001
 -2.3822651E+002
 -4.4862802E+002
 -6.8305782E+002
 -9.4410563E+002
 -1.2363736E+003
 -1.5642495E+003
 -1.9319584E+003
 -2.3400871E+003
 -2.7729582E+003
 -3.3093987E+003
 -3.8665628E+003
 -5.9719994E+003
  1.1046690E+002
 -3.8436337E+003
 -1.5621752E+003
 -6.4763590E+002
 -1.9355892E+003
 -1.5605756E+003
 -1.7056588E+003
 -1.6712244E+003
 -1.5913384E+003
 -1.5897254E+003
 -1.6452595E+003
 -1.7377054E+003
 -1.8530195E+003
 -1.9831877E+003
 -2.1270583E+003
 -2.2598151E+003
 -2.4153795E+003
 -2.4355861E+003
 -2.3871849E+003
 -2.1798912E+003
 -1.8168101E+003
 -1.4101713E+003
 -9.9798317E+002
 -6.3004987E+002
 -3.4690213E+002
 -1.5357994E+002
 -4.0494002E+001
  1.0680199E+001
  1.9903190E+001
  6.8925986E+000
 -1.0246445E+001
 -1.5190421E+001
  3.7796725E+000
  5.4818496E+001
  1.2862442E+002
  2.4030485E+002
  3.3933083E+002
  7.6434811E+002
 -1.6788302E+001
  3.9341935E+002
  3.3318317E+002
  2.1622837E+002
  1.5229430E+001
 -2.2419914E+002
 -4.9372122E+002
 -7.9725848E+002
 -1.1372686E+003
 -1.5175201E+003
 -1.9389527E+003
 -2.4099794E+003
 -2.9016500E+003
 -3.4659334E+003
 -3.4847004E+003
 -4.0048779E+003
  1.0222329E+002
 -5.6172294E+002
  7.1893067E+000
 -3.7012341E+003
 -1.8631120E+003
  8.4456018E+001
 -1.8891727E+003
 -2.6725984E+003
 -2.2297690E+003
 -1.9786576E+003
 -1.8711176E+003
 -1.7258302E+003
 -1.6430534E+003
 -1.6267599E+003
 -1.6063010E+003
 -1.6015014E+003
 -1.6371281E+003
 -1.6981807E+003
 -1.7771077E+003
 -1.8665300E+003
 -1.9567161E+003
 -2.0438977E+003
 -2.0958714E+003
 -2.1152112E+003
 -2.0289340E+003
 -1.8376241E+003
 -1.5827201E+003
 -1.2798467E+003
 -9.6923513E+002
 -6.8417441E+002
 -4.4704383E+002
 -2.6834628E+002
 -1.4547302E+002
 -6.9092432E+001
 -2.6469918E+001
 -4.0929306E+000
  1.1037231E+001
  3.0104947E+001
  6.1780135E+001
  1.0940950E+002
  1.7463162E+002
  2.4436254E+002
  3.1686540E+002
  2.9681701E+002
  2.0420643E+002
  3.9087115E+001
 -9.6527505E+000
  1.3612221E+003
  7.8383585E+002
  5.5310197E+002
  2.9415011E+002
  3.3556086E+001
 -2.7024927E+002
 -6.1399861E+002
 -9.9851891E+002
 -1.4265964E+003
 -1.9055868E+003
 -2.4312397E+003
 -3.0476320E+003
 -3.5992098E+003
 -4.7107588E+003
 -3.9873795E+003
 -7.7062108E+003
  1.2471173E+002
 -4.1708133E+003
 -1.9849715E+003
  1.2716719E+002
 -1.9905791E+003
 -2.7507586E+003
 -2.3431125E+003
 -1.9839670E+003
 -2.1185109E+003
 -2.0812549E+003
 -1.8914516E+003
 -1.7902951E+003
 -1.7057292E+003
 -1.6477935E+003
 -1.6089754E+003
 -1.5862107E+003
 -1.5844332E+003
 -1.6026756E+003
 -1.6406237E+003
 -1.6907341E+003
 -1.7460711E+003
 -1.7996662E+003
 -1.8397165E+003
 -1.8568190E+003
 -1.8251240E+003
 -1.7399017E+003
 -1.5934058E+003
 -1.3911971E+003
 -1.1585464E+003
 -9.1705257E+002
 -6.8850756E+002
 -4.8922424E+002
 -3.2742354E+002
 -2.0422356E+002
 -1.1513475E+002
 -5.2584883E+001
 -7.6870323E+000
  2.8368263E+001
  6.3281155E+001
  1.0262387E+002
  1.4910847E+002
  2.0261172E+002
  2.5749241E+002
  3.2921343E+002
  3.9707570E+002
  6.6487544E+002
  3.2161411E+002
  7.6820075E+002
  8.1239595E+002
  6.1485647E+002
  3.3438319E+002
 -9.1448818E+000
 -3.8952844E+002
 -8.1534644E+002
 -1.2880374E+003
 -1.8144245E+003
 -2.4024490E+003
 -3.0841476E+003
 -3.8796321E+003
 -5.0462320E+003
 -6.8293410E+003
 -1.2600498E+004
  1.8362647E+002
 -3.0634406E+003
 -1.3918280E+003
  1.0809800E+002
 -1.6373388E+003
 -1.1702936E+003
 -1.7889546E+003
 -1.7227644E+003
 -2.2254765E+003
 -2.0924919E+003
 -2.1742244E+003
 -3.6311649E+003
 -2.6375333E+003
 -2.1328824E+003
 -2.2353567E+003
 -2.1603473E+003
 -2.0262517E+003
 -1.9338685E+003
 -1.8918395E+003
 -1.8250363E+003
 -1.7326153E+003
 -1.6623001E+003
 -1.6073213E+003
 -1.5703437E+003
 -1.5491805E+003
 -1.5422328E+003
 -1.5505489E+003
 -1.5708590E+003
 -1.5989299E+003
 -1.6287766E+003
 -1.6532982E+003
 -1.6648545E+003
 -1.6525903E+003
 -1.6087544E+003
 -1.5229000E+003
 -1.3946184E+003
 -1.2318968E+003
 -1.0457371E+003
 -8.5160097E+002
 -6.6382190E+002
 -4.9369702E+002
 -3.4804979E+002
 -2.2895597E+002
 -1.3470905E+002
 -6.1037393E+001
 -2.4058302E+000
  4.6920756E+001
  9.1969012E+001
  1.3637178E+002
  1.8181093E+002
  2.2783180E+002
  2.7343272E+002
  3.1168523E+002
  3.1852650E+002
  2.9300376E+002
  8.6295408E+000
  1.4381900E+001
 -2.0634403E+000
  2.4935317E+003
  1.3802394E+003
  1.0509614E+003
  6.6147250E+002
  2.9842441E+002
 -1.2079946E+002
 -5.8533781E+002
 -1.0965988E+003
 -1.6596088E+003
 -2.2880852E+003
 -2.9984064E+003
 -3.8506174E+003
 -4.8429799E+003
 -5.9903228E+003
 -6.8534991E+003
 -6.6066693E+003
 -5.2434532E+003
  1.4849067E+002
 -3.0212327E+003
 -1.4353734E+003
  6.3376961E+001
 -1.7738568E+003
 -1.2117951E+003
 -1.6859680E+003
 -2.5658057E+003
 -2.0540849E+003
 -1.7320834E+003
 -1.7527849E+003
 -1.8720076E+003
 -1.9872207E+003
 -2.2772671E+003
 -2.2629322E+003
 -2.1276743E+003
 -2.0256346E+003
 -1.9862353E+003
 -1.9192724E+003
 -1.8555093E+003
 -1.7951268E+003
 -1.7249918E+003
 -1.6601840E+003
 -1.6003847E+003
 -1.5535934E+003
 -1.5188891E+003
 -1.4963723E+003
 -1.4859015E+003
 -1.4857576E+003
 -1.4936493E+003
 -1.5055431E+003
 -1.5164686E+003
 -1.5207199E+003
 -1.5117994E+003
 -1.4834287E+003
 -1.4290339E+003
 -1.3456339E+003
 -1.2330624E+003
 -1.0954036E+003
 -9.4109237E+002
 -7.7983649E+002
 -6.2138412E+002
 -4.7372564E+002
 -3.4212784E+002
 -2.2890297E+002
 -1.3374483E+002
 -5.4462567E+001
  1.2197380E+001
  6.9756228E+001
  1.2131420E+002
  1.6903017E+002
  2.1366294E+002
  2.5505000E+002
  2.9020624E+002
  3.1873567E+002
  3.3447793E+002
  3.5016394E+002
  3.1444054E+002
  6.2879003E+002
  1.2357794E+003
  1.3333842E+003
  1.0425630E+003
  6.5644641E+002
  1.9143818E+002
 -3.0836196E+002
 -8.5275223E+002
 -1.4422621E+003
 -2.0836603E+003
 -2.7966399E+003
 -3.5820518E+003
 -4.4986098E+003
 -5.5092013E+003
 -6.8772508E+003
 -7.1386820E+003
 -1.3970890E+004
 -4.8318058E+003
  3.0555825E+002
 -4.2092786E+003
 -1.9403142E+003
  2.1795173E+002
 -1.9208736E+003
 -2.2933146E+003
 -2.1026049E+003
 -1.8223654E+003
 -1.7841701E+003
 -1.9377184E+003
 -1.9163181E+003
 -1.8147576E+003
 -1.8031928E+003
 -1.8438551E+003
 -1.9396224E+003
 -1.9773983E+003
 -2.0141348E+003
 -1.9746027E+003
 -1.9216647E+003
 -1.8670363E+003
 -1.8078036E+003
 -1.7481248E+003
 -1.6900941E+003
 -1.6343421E+003
 -1.5782091E+003
 -1.5282895E+003
 -1.4863777E+003
 -1.4543464E+003
 -1.4320714E+003
 -1.4187810E+003
 -1.4130991E+003
 -1.4124120E+003
 -1.4131582E+003
 -1.4109769E+003
 -1.4010494E+003
 -1.3786110E+003
 -1.3392500E+003
 -1.2797609E+003
 -1.1983583E+003
 -1.0958595E+003
 -9.7573096E+002
 -8.4331199E+002
 -7.0524516E+002
 -5.6814778E+002
 -4.3767661E+002
 -3.1785087E+002
 -2.1080435E+002
 -1.1692885E+002
 -3.5276501E+001
  3.5901808E+001
  9.8591533E+001
  1.5451441E+002
  2.0465962E+002
  2.4922124E+002
  2.8682099E+002
  3.1732175E+002
  3.3519635E+002
  3.6037607E+002
  3.3432407E+002
  5.0188468E+002
  3.9577083E+001
  3.7022666E+003
  2.0209664E+003
  1.5763369E+003
  1.0359464E+003
  5.5345524E+002
  1.0786906E+001
 -5.6415357E+002
 -1.1709334E+003
 -1.8134364E+003
 -2.4982107E+003
 -3.2352315E+003
 -4.0395359E+003
 -4.8665259E+003
 -5.7576676E+003
 -6.5474080E+003
 -7.9164432E+003
 -5.1082415E+003
 -9.9745007E+003
 -5.4980313E+003
 -4.2582922E+003
 -4.0824898E+003
 -3.9448519E+003
 -3.6334050E+003
 -3.2629777E+003
 -3.2686381E+003
 -3.0426156E+003
 -3.0801228E+003
 -2.9689184E+003
 -3.1244707E+003
 -2.8862887E+003
 -2.7853743E+003
 -4.1017088E+003
 -2.9888402E+003
 -2.3138436E+003
 -2.2561187E+003
 -2.1147246E+003
 -1.9384667E+003
 -1.8840937E+003
 -1.8426423E+003
 -1.8367696E+003
 -1.8073443E+003
 -1.7858706E+003
 -1.8046347E+003
 -1.8314508E+003
 -1.8669778E+003
 -1.8634979E+003
 -1.8352406E+003
 -1.7923299E+003
 -1.7447736E+003
 -1.6950456E+003
 -1.6429927E+003
 -1.5909229E+003
 -1.5393495E+003
 -1.4910463E+003
 -1.4471537E+003
 -1.4099484E+003
 -1.3803467E+003
 -1.3586279E+003
 -1.3441629E+003
 -1.3353891E+003
 -1.3297464E+003
 -1.3237576E+003
 -1.3131786E+003
 -1.2938624E+003
 -1.2621940E+003
 -1.2153935E+003
 -1.1520497E+003
 -1.0719738E+003
 -9.7652129E+002
 -8.6830103E+002
 -7.5119380E+002
 -6.2966970E+002
 -5.0826929E+002
 -3.9097713E+002
 -2.8079631E+002
 -1.7954637E+002
 -8.7902302E+001
 -5.6250662E+000
  6.8088391E+001
  1.3420686E+002
  1.9346094E+002
  2.4602212E+002
  2.9120598E+002
  3.2735843E+002
  3.5223723E+002
  3.6304131E+002
  3.6267396E+002
  3.6663706E+002
  4.3256799E+002
  9.6174820E+002
  1.7234710E+003
  1.8850747E+003
  1.4864658E+003
  9.6119022E+002
  3.6193156E+002
 -2.4365861E+002
 -8.6375182E+002
 -1.4987089E+003
 -2.1525350E+003
 -2.8281998E+003
 -3.5207376E+003
 -4.2188157E+003
 -4.8779262E+003
 -5.4375858E+003
 -5.8733605E+003
 -5.6644157E+003
 -4.4283572E+003
 -4.0596357E+003
 -3.5549215E+003
 -3.2600056E+003
 -3.0683657E+003
 -2.9000166E+003
 -2.9375721E+003
 -2.7090181E+003
 -2.4139579E+003
 -2.2059284E+003
 -2.0797345E+003
 -1.9729779E+003
 -1.8838699E+003
 -1.8437007E+003
 -1.8037338E+003
 -1.7692789E+003
 -1.7491507E+003
 -1.7414234E+003
 -1.7458279E+003
 -1.7439271E+003
 -1.7341733E+003
 -1.7089519E+003
 -1.6727026E+003
 -1.6301926E+003
 -1.5840480E+003
 -1.5366056E+003
 -1.4889658E+003
 -1.4427358E+003
 -1.3989965E+003
 -1.3595739E+003
 -1.3257322E+003
 -1.2984570E+003
 -1.2779920E+003
 -1.2638414E+003
 -1.2545132E+003
 -1.2474967E+003
 -1.2388115E+003
 -1.2242365E+003
 -1.1992766E+003
 -1.1608208E+003
 -1.1081276E+003
 -1.0410305E+003
 -9.6110614E+002
 -8.6987780E+002
 -7.6979708E+002
 -6.6348229E+002
 -5.5396429E+002
 -4.4427182E+002
 -3.3715846E+002
 -2.3480943E+002
 -1.3868634E+002
 -4.9515936E+001
  3.2582041E+001
  1.0786700E+002
  1.7668014E+002
  2.3914014E+002
  2.9475912E+002
  3.4226382E+002
  3.7916291E+002
  4.0075836E+002
  4.0260326E+002
  3.7399062E+002
  3.1114361E+002
  1.6138231E+002
 -1.5128518E+002
 -1.1402077E+002
  7.0755255E+001
  4.9391420E+003
  2.7335200E+003
  2.1163839E+003
  1.3723651E+003
  7.3467756E+002
  9.1017578E+001
 -5.4145646E+002
 -1.1659008E+003
 -1.7858254E+003
 -2.4008820E+003
 -3.0034625E+003
 -3.5731797E+003
 -4.0755344E+003
 -4.4952529E+003
 -4.6422271E+003
 -4.3964870E+003
 -4.1639224E+003
 -3.7134679E+003
 -3.4172549E+003
 -3.1554341E+003
 -2.9590114E+003
 -2.8284839E+003
 -2.6656359E+003
 -2.5306574E+003
 -2.3522580E+003
 -2.1902610E+003
 -2.0616715E+003
 -1.9530016E+003
 -1.8721332E+003
 -1.8071974E+003
 -1.7603365E+003
 -1.7222149E+003
 -1.6924360E+003
 -1.6725373E+003
 -1.6572640E+003
 -1.6428203E+003
 -1.6217777E+003
 -1.5932778E+003
 -1.5579500E+003
 -1.5178130E+003
 -1.4748953E+003
 -1.4305578E+003
 -1.3862540E+003
 -1.3431835E+003
 -1.3027820E+003
 -1.2663045E+003
 -1.2350035E+003
 -1.2097759E+003
 -1.1910824E+003
 -1.1786622E+003
 -1.1714612E+003
 -1.1665843E+003
 -1.1602357E+003
 -1.1453269E+003
 -1.1171749E+003
 -1.0740208E+003
 -1.0147363E+003
 -9.4327953E+002
 -8.6127327E+002
 -7.7223788E+002
 -6.7750084E+002
 -5.7899233E+002
 -4.7842516E+002
 -3.7768536E+002
 -2.7856634E+002
 -1.8259235E+002
 -9.0873558E+001
 -4.0612310E+000
  7.7596955E+001
  1.5410418E+002
  2.2551270E+002
  2.9161893E+002
  3.5177970E+002
  4.0401306E+002
  4.4561455E+002
  4.7064730E+002
  4.6514010E+002
  4.1374588E+002
  3.3838467E+002
  3.3398274E+002
 -6.2075450E+001
  1.1961314E+003
  2.3717735E+003
  2.5629303E+003
  1.8073893E+003
  1.1108015E+003
  4.1204700E+002
 -2.2671204E+002
 -8.3815878E+002
 -1.4237559E+003
 -1.9854762E+003
 -2.5157290E+003
 -2.9988212E+003
 -3.4152378E+003
 -3.7122630E+003
 -3.8612443E+003
 -3.8353532E+003
 -3.6198527E+003
 -3.4093806E+003
 -3.1771976E+003
 -2.9836361E+003
 -2.8190712E+003
 -2.6734650E+003
 -2.5504573E+003
 -2.4081561E+003
 -2.2639269E+003
 -2.1294965E+003
 -2.0118622E+003
 -1.9140430E+003
 -1.8312459E+003
 -1.7650517E+003
 -1.7099827E+003
 -1.6647249E+003
 -1.6277187E+003
 -1.5970431E+003
 -1.5706548E+003
 -1.5446202E+003
 -1.5165459E+003
 -1.4844156E+003
 -1.4481719E+003
 -1.4086741E+003
 -1.3670429E+003
 -1.3244934E+003
 -1.2821194E+003
 -1.2410964E+003
 -1.2025941E+003
 -1.1678826E+003
 -1.1381726E+003
 -1.1145750E+003
 -1.0978871E+003
 -1.0884918E+003
 -1.0856249E+003
 -1.0880731E+003
 -1.0884490E+003
 -1.0810998E+003
 -1.0539104E+003
 -1.0019171E+003
 -9.3531835E+002
 -8.5437245E+002
 -7.6937647E+002
 -6.8000405E+002
 -5.8910654E+002
 -4.9654257E+002
 -4.0304383E+002
 -3.0946758E+002
 -2.1682326E+002
 -1.2611355E+002
 -3.8152483E+001
  4.6547083E+001
  1.2775567E+002
  2.0543959E+002
  2.7959007E+002
  3.5012146E+002
  4.1632749E+002
  4.7753125E+002
  5.2857453E+002
  5.6716960E+002
  5.7937204E+002
  5.3361814E+002
  3.2701975E+002
  5.8653439E+001
 -2.4120153E+002
  7.0278631E+003
  3.4197278E+003
  2.3430328E+003
  1.3943097E+003
  6.9705453E+002
  5.3068865E+001
 -5.3433608E+002
 -1.0859337E+003
 -1.6012177E+003
 -2.0755325E+003
 -2.4978210E+003
 -2.8484646E+003
 -3.1082764E+003
 -3.2482165E+003
 -3.2649645E+003
 -3.2019096E+003
 -3.0698150E+003
 -2.9266418E+003
 -2.7824341E+003
 -2.6490061E+003
 -2.5263140E+003
 -2.4045501E+003
 -2.2863313E+003
 -2.1671959E+003
 -2.0528752E+003
 -1.9489394E+003
 -1.8565679E+003
 -1.7770107E+003
 -1.7083259E+003
 -1.6498103E+003
 -1.5994806E+003
 -1.5559241E+003
 -1.5177509E+003
 -1.4829567E+003
 -1.4495651E+003
 -1.4154931E+003
 -1.3796206E+003
 -1.3415436E+003
 -1.3015153E+003
 -1.2601640E+003
 -1.2182609E+003
 -1.1767003E+003
 -1.1364543E+003
 -1.0986299E+003
 -1.0644406E+003
 -1.0352341E+003
 -1.0124094E+003
 -9.9746823E+002
 -9.9158082E+002
 -9.9585705E+002
 -1.0082881E+003
 -1.0299706E+003
 -1.0326770E+003
 -1.0008605E+003
 -9.4884534E+002
 -8.6401566E+002
 -7.7520726E+002
 -6.7925058E+002
 -5.9024657E+002
 -5.0222462E+002
 -4.1498187E+002
 -3.2774521E+002
 -2.4030779E+002
 -1.5312561E+002
 -6.6880869E+001
  1.7834418E+001
  1.0064507E+002
  1.8144263E+002
  2.6028914E+002
  3.3733726E+002
  4.1263172E+002
  4.8655335E+002
  5.5808067E+002
  6.3130983E+002
  6.9171660E+002
  7.4066188E+002
  6.1278379E+002
  2.8184958E+002
  1.9938773E+002
  5.8590524E+003
  2.8411040E+003
  2.5110892E+003
  1.5340774E+003
  9.0314587E+002
  2.8420781E+002
 -2.6825360E+002
 -7.8381682E+002
 -1.2580586E+003
 -1.6884078E+003
 -2.0658085E+003
 -2.3792000E+003
 -2.6142736E+003
 -2.7634939E+003
 -2.8272425E+003
 -2.8149118E+003
 -2.7571812E+003
 -2.6699555E+003
 -2.5720252E+003
 -2.4708867E+003
 -2.3694480E+003
 -2.2687863E+003
 -2.1663497E+003
 -2.0644295E+003
 -1.9656504E+003
 -1.8726791E+003
 -1.7876124E+003
 -1.7107946E+003
 -1.6423891E+003
 -1.5815067E+003
 -1.5273494E+003
 -1.4788758E+003
 -1.4348861E+003
 -1.3940643E+003
 -1.3549310E+003
 -1.3162378E+003
 -1.2770325E+003
 -1.2368648E+003
 -1.1957036E+003
 -1.1538187E+003
 -1.1116920E+003
 -1.0699556E+003
 -1.0294072E+003
 -9.9102506E+002
 -9.5602667E+002
 -9.2587234E+002
 -9.0240940E+002
 -8.8771438E+002
 -8.8487452E+002
 -8.9653090E+002
 -9.2716848E+002
 -9.7108378E+002
 -1.0356968E+003
 -1.0208256E+003
 -9.1108553E+002
 -8.1831558E+002
 -6.8565302E+002
 -5.8930310E+002
 -4.9826861E+002
 -4.1436864E+002
 -3.3347683E+002
 -2.5257944E+002
 -1.7089131E+002
 -8.8519049E+001
 -6.1057237E+000
  7.5725027E+001
  1.5675891E+002
  2.3707707E+002
  3.1696842E+002
  3.9677852E+002
  4.7688792E+002
  5.5763005E+002
  6.4125802E+002
  7.2831804E+002
  8.5003182E+002
  1.0434565E+003
  1.7502882E+003
  8.0970208E+001
  3.4600043E+003
  3.0259129E+003
  2.1779907E+003
  1.6246487E+003
  1.0159752E+003
  4.7065559E+002
 -4.4818107E+001
 -5.2133834E+002
 -9.5938410E+002
 -1.3537783E+003
 -1.6985021E+003
 -1.9858170E+003
 -2.2090047E+003
 -2.3635219E+003
 -2.4514412E+003
 -2.4829108E+003
 -2.4692466E+003
 -2.4262364E+003
 -2.3646345E+003
 -2.2924932E+003
 -2.2141113E+003
 -2.1312399E+003
 -2.0457022E+003
 -1.9587473E+003
 -1.8724820E+003
 -1.7890759E+003
 -1.7100702E+003
 -1.6365111E+003
 -1.5686603E+003
 -1.5064872E+003
 -1.4495618E+003
 -1.3972829E+003
 -1.3488796E+003
 -1.3034227E+003
 -1.2599420E+003
 -1.2175087E+003
 -1.1754059E+003
 -1.1331691E+003
 -1.0905976E+003
 -1.0477156E+003
 -1.0047316E+003
 -9.6203077E+002
 -9.2019241E+002
 -8.8005210E+002
 -8.4275099E+002
 -8.0989225E+002
 -7.8345012E+002
 -7.6642155E+002
 -7.6239058E+002
 -7.7867857E+002
 -8.2908022E+002
 -9.1699816E+002
 -1.1068460E+003
 -9.1311376E+002
 -8.9720484E+002
 -7.7520367E+002
 -5.9416367E+002
 -4.8569330E+002
 -3.9816199E+002
 -3.2386212E+002
 -2.5175940E+002
 -1.7849744E+002
 -1.0212208E+002
 -2.3800777E+001
  5.5239204E+001
  1.3442033E+002
  2.1357705E+002
  2.9313479E+002
  3.7375851E+002
  4.5593617E+002
  5.4072564E+002
  6.2633669E+002
  7.1968008E+002
  7.9868070E+002
  9.4526964E+002
  8.6396561E+002
  1.5136865E+003
  2.8800009E+003
  2.3964337E+003
  2.0976267E+003
  1.5956926E+003
  1.1102596E+003
  6.1382936E+002
  1.4360151E+002
 -2.9842355E+002
 -7.0402416E+002
 -1.0689826E+003
 -1.3882392E+003
 -1.6571225E+003
 -1.8716949E+003
 -2.0306134E+003
 -2.1359285E+003
 -2.1932259E+003
 -2.2117421E+003
 -2.2004437E+003
 -2.1679385E+003
 -2.1205624E+003
 -2.0627147E+003
 -1.9973837E+003
 -1.9265631E+003
 -1.8522716E+003
 -1.7764422E+003
 -1.7008966E+003
 -1.6271967E+003
 -1.5564376E+003
 -1.4893423E+003
 -1.4262225E+003
 -1.3671190E+003
 -1.3118188E+003
 -1.2599075E+003
 -1.2108181E+003
 -1.1638876E+003
 -1.1184521E+003
 -1.0739149E+003
 -1.0298067E+003
 -9.8580081E+002
 -9.4171033E+002
 -8.9748718E+002
 -8.5324021E+002
 -8.0929005E+002
 -7.6622628E+002
 -7.2511527E+002
 -6.8732267E+002
 -6.5566218E+002
 -6.3114897E+002
 -6.2319001E+002
 -6.1914680E+002
 -6.9791009E+002
 -7.1260898E+002
 -1.6242763E+003
 -1.3236029E+003
 -9.5590811E+002
 -8.6326641E+002
 -3.5454546E+002
 -3.7496924E+002
 -2.8249022E+002
 -2.3204385E+002
 -1.7210644E+002
 -1.0651622E+002
 -3.5397106E+001
  3.9683402E+001
  1.1652231E+002
  1.9310485E+002
  2.6998146E+002
  3.4815356E+002
  4.2881162E+002
  5.1316738E+002
  6.0149580E+002
  6.9573442E+002
  7.8732952E+002
  8.8649374E+002
  9.2914886E+002
  1.0111885E+003
  7.5975709E+002
  2.0167360E+003
  2.2128274E+003
  1.9942912E+003
  1.6302142E+003
  1.1886371E+003
  7.4113744E+002
  3.0067486E+002
 -1.1113741E+002
 -4.8960626E+002
 -8.2978224E+002
 -1.1284150E+003
 -1.3825543E+003
 -1.5902965E+003
 -1.7512879E+003
 -1.8674356E+003
 -1.9429952E+003
 -1.9836428E+003
 -1.9959793E+003
 -1.9860731E+003
 -1.9590868E+003
 -1.9189996E+003
 -1.8687973E+003
 -1.8109004E+003
 -1.7473588E+003
 -1.6800985E+003
 -1.6109074E+003
 -1.5413508E+003
 -1.4727313E+003
 -1.4060320E+003
 -1.3419458E+003
 -1.2808738E+003
 -1.2229595E+003
 -1.1681131E+003
 -1.1160495E+003
 -1.0663454E+003
 -1.0184999E+003
 -9.7199608E+002
 -9.2634109E+002
 -8.8108603E+002
 -8.3583578E+002
 -7.9026457E+002
 -7.4415464E+002
 -6.9747757E+002
 -6.5052526E+002
 -6.0394525E+002
 -5.5943341E+002
 -5.1833232E+002
 -4.8548518E+002
 -4.5883584E+002
 -4.4892247E+002
 -4.3159265E+002
 -3.6792655E+002
 -1.6104888E+002
  1.5904118E+002
  3.5689180E+000
 -2.8863464E+002
 -1.5152017E+002
 -1.4548033E+002
 -9.5149031E+001
 -4.3742966E+001
  2.7627197E+001
  1.0339932E+002
  1.7787998E+002
  2.5153876E+002
  3.2500784E+002
  4.0063806E+002
  4.8033322E+002
  5.6566586E+002
  6.5872956E+002
  7.5917810E+002
  8.7276902E+002
  9.7471261E+002
  1.0398347E+003
  8.6873407E+002
 -5.4525728E+001
 -3.7344679E+001
  1.9207583E+003
  2.0379941E+003
  1.7357893E+003
  1.2993465E+003
  8.5144749E+002
  4.3165441E+002
  4.1843706E+001
 -3.1330566E+002
 -6.3221404E+002
 -9.1304700E+002
 -1.1544437E+003
 -1.3556180E+003
 -1.5168641E+003
 -1.6398162E+003
 -1.7274615E+003
 -1.7839053E+003
 -1.8136778E+003
 -1.8212851E+003
 -1.8107305E+003
 -1.7853785E+003
 -1.7479983E+003
 -1.7009047E+003
 -1.6461640E+003
 -1.5856862E+003
 -1.5212676E+003
 -1.4545752E+003
 -1.3870990E+003
 -1.3201172E+003
 -1.2546556E+003
 -1.1914702E+003
 -1.1310316E+003
 -1.0735337E+003
 -1.0189226E+003
 -9.6694504E+002
 -9.1720790E+002
 -8.6923028E+002
 -8.2247555E+002
 -7.7636506E+002
 -7.3028038E+002
 -6.8357785E+002
 -6.3563768E+002
 -5.8594881E+002
 -5.3431236E+002
 -4.8114507E+002
 -4.2684635E+002
 -3.7641773E+002
 -3.2915626E+002
 -2.9437845E+002
 -2.5148245E+002
 -2.0319433E+002
 -3.1729116E+002
 -4.0219541E+000
 -2.4123503E+001
 -5.5404466E+001
 -4.6066529E+001
  1.6204594E+001
  8.3628629E+001
  1.6193930E+002
  2.4059539E+002
  3.0997150E+002
  3.7791039E+002
  4.4903106E+002
  5.2608361E+002
  6.1105745E+002
  7.0589822E+002
  8.1721207E+002
  9.4285866E+002
  1.1317330E+003
  1.3704119E+003
  2.1608991E+003
 -1.8625757E+002
 -1.8553156E+002
  4.6451124E+003
  2.6455355E+003
  1.9610215E+003
  1.3909449E+003
  9.4102407E+002
  5.3013563E+002
  1.6079684E+002
 -1.7345224E+002
 -4.7267611E+002
 -7.3713894E+002
 -9.6654838E+002
 -1.1609019E+003
 -1.3207458E+003
 -1.4474372E+003
 -1.5431713E+003
 -1.6107933E+003
 -1.6535329E+003
 -1.6746441E+003
 -1.6771694E+003
 -1.6638067E+003
 -1.6369081E+003
 -1.5985667E+003
 -1.5507150E+003
 -1.4952162E+003
 -1.4339047E+003
 -1.3685811E+003
 -1.3009749E+003
 -1.2326806E+003
 -1.1650898E+003
 -1.0993188E+003
 -1.0361611E+003
 -9.7606742E+002
 -9.1916305E+002
 -8.6530696E+002
 -8.1415999E+002
 -7.6524300E+002
 -7.1796754E+002
 -6.7161986E+002
 -6.2534172E+002
 -5.7812764E+002
 -5.2885801E+002
 -4.7640367E+002
 -4.1970921E+002
 -3.5846783E+002
 -2.9405095E+002
 -2.2207911E+002
 -1.6214576E+002
 -1.1342614E+002
 -6.5162579E+001
 -1.1682267E+002
 -2.2949446E+001
 -8.7506060E-001
 -3.4708963E+000
  1.7663182E+001
  1.3608178E+002
  2.4466585E+002
  3.1232013E+002
  3.6911193E+002
  4.2722595E+002
  4.9201166E+002
  5.6392333E+002
  6.4591792E+002
  7.3914631E+002
  8.5269506E+002
  9.8048773E+002
  1.1999756E+003
  1.2951844E+003
  2.1044175E+003
  4.2218055E+003
  2.2185018E+003
  2.0495430E+003
  1.3928825E+003
  9.8778381E+002
  5.8900933E+002
  2.4438140E+002
 -6.8485072E+001
 -3.4791626E+002
 -5.9627251E+002
 -8.1371846E+002
 -1.0006996E+003
 -1.1577911E+003
 -1.2860383E+003
 -1.3869740E+003
 -1.4625578E+003
 -1.5149994E+003
 -1.5465802E+003
 -1.5594945E+003
 -1.5557716E+003
 -1.5372727E+003
 -1.5057471E+003
 -1.4629186E+003
 -1.4105628E+003
 -1.3505552E+003
 -1.2848713E+003
 -1.2155379E+003
 -1.1445419E+003
 -1.0737021E+003
 -1.0045526E+003
 -9.3822821E+002
 -8.7541119E+002
 -8.1635820E+002
 -7.6096522E+002
 -7.0888504E+002
 -6.5962000E+002
 -6.1252831E+002
 -5.6679636E+002
 -5.2133755E+002
 -4.7473075E+002
 -4.2526217E+002
 -3.7101036E+002
 -3.0999949E+002
 -2.3962302E+002
 -1.6023096E+002
 -8.2599263E+001
  1.6597758E+000
  4.9775964E+001
  2.6613263E+001
 -2.8567373E+001
  8.0587336E+001
  1.6737336E+002
  2.9175535E+002
  3.9135950E+002
  4.2652807E+002
  4.7316373E+002
  5.2644875E+002
  5.9232401E+002
  6.6846806E+002
  7.5586740E+002
  8.5960378E+002
  9.7944579E+002
  1.1581511E+003
  1.2852160E+003
  1.8927648E+003
  2.6014590E+003
  2.4651030E+003
  1.7520409E+003
  1.3856706E+003
  9.6125502E+002
  6.1208564E+002
  2.9133638E+002
  4.4087839E+000
 -2.5456972E+002
 -4.8621279E+002
 -6.9137705E+002
 -8.7038440E+002
 -1.0236860E+003
 -1.1519464E+003
 -1.2561290E+003
 -1.3374552E+003
 -1.3973189E+003
 -1.4371752E+003
 -1.4584528E+003
 -1.4625131E+003
 -1.4506658E+003
 -1.4242348E+003
 -1.3846541E+003
 -1.3335650E+003
 -1.2728839E+003
 -1.2048120E+003
 -1.1317678E+003
 -1.0562420E+003
 -9.8062504E+002
 -9.0695789E+002
 -8.3677426E+002
 -7.7099315E+002
 -7.0989434E+002
 -6.5331301E+002
 -6.0080864E+002
 -5.5181794E+002
 -5.0574375E+002
 -4.6172781E+002
 -4.1848405E+002
 -3.7420298E+002
 -3.2644878E+002
 -2.7238365E+002
 -2.0872833E+002
 -1.3316534E+002
 -3.1967458E+001
  9.6345600E+001
  3.7472974E+002
  5.1074188E+001
  3.9354757E+001
  7.3606774E+002
  5.0923455E+002
  4.8490863E+002
  5.0393919E+002
  5.5055241E+002
  6.0985342E+002
  6.7968763E+002
  7.5744833E+002
  8.4522136E+002
  9.3770114E+002
  1.0638185E+003
  1.2167319E+003
  1.6697406E+003
  3.1985140E+003
  1.8780661E+003
  1.7321304E+003
  1.2347780E+003
  9.1270920E+002
  5.9119290E+002
  3.0852999E+002
  4.8240673E+001
 -1.8824672E+002
 -4.0270477E+002
 -5.9516809E+002
 -7.6578083E+002
 -9.1462201E+002
 -1.0419345E+003
 -1.1481369E+003
 -1.2338107E+003
 -1.2996397E+003
 -1.3463429E+003
 -1.3746240E+003
 -1.3851599E+003
 -1.3786429E+003
 -1.3558744E+003
 -1.3179015E+003
 -1.2661634E+003
 -1.2026098E+003
 -1.1297279E+003
 -1.0504667E+003
 -9.6804741E+002
 -8.8558603E+002
 -8.0587798E+002
 -7.3095606E+002
 -6.6188171E+002
 -5.9892636E+002
 -5.4160913E+002
 -4.8920947E+002
 -4.4114230E+002
 -3.9684244E+002
 -3.5576315E+002
 -3.1665912E+002
 -2.7714244E+002
 -2.3396291E+002
 -1.8346593E+002
 -1.1964576E+002
 -4.2828590E+001
  5.7192910E+001
  1.0633368E+002
  1.2968252E+002
  6.4869494E+002
  4.3363212E+002
  5.0384595E+002
  5.1084440E+002
  5.6140295E+002
  6.1728998E+002
  6.8231245E+002
  7.5131737E+002
  8.1928644E+002
  8.8574016E+002
  9.1993477E+002
  8.9340445E+002
  6.1682455E+002
 -1.7828041E+002
 -2.5816636E+002
  2.8614637E+003
  1.8752061E+003
  1.4284812E+003
  1.0972424E+003
  8.1015963E+002
  5.4597101E+002
  2.9932213E+002
  6.9345540E+001
 -1.4424000E+002
 -3.4110909E+002
 -5.2082869E+002
 -6.8294323E+002
 -8.2708889E+002
 -9.5303222E+002
 -1.0606726E+003
 -1.1500081E+003
 -1.2210821E+003
 -1.2739281E+003
 -1.3085354E+003
 -1.3248556E+003
 -1.3228686E+003
 -1.3027192E+003
 -1.2649167E+003
 -1.2105818E+003
 -1.1416536E+003
 -1.0610184E+003
 -9.7236936E+002
 -8.7983903E+002
 -7.8782774E+002
 -6.9999984E+002
 -6.1912761E+002
 -5.4668901E+002
 -4.8228123E+002
 -4.2494790E+002
 -3.7337451E+002
 -3.2658381E+002
 -2.8490779E+002
 -2.4823591E+002
 -2.1528752E+002
 -1.8373000E+002
 -1.4921976E+002
 -1.0610031E+002
 -5.0936928E+001
  3.6836774E+001
  1.4545820E+002
  4.9435398E+002
  2.7473463E+001
  3.9215003E+002
  4.5599726E+002
  4.5650624E+002
  5.0806524E+002
  5.5747116E+002
  6.1790283E+002
  6.8096596E+002
  7.4379534E+002
  8.0294228E+002
  8.4340068E+002
  8.6151423E+002
  8.0322444E+002
  6.6213344E+002
  2.4584961E+002
 -4.9037713E+001
  1.2365130E+002
  2.3864415E+002
 -7.5882802E+001
  9.7182219E+002
  1.2054632E+003
  1.0853548E+003
  9.0500902E+002
  6.9204058E+002
  4.8159219E+002
  2.7401720E+002
  7.3907948E+001
 -1.1690795E+002
 -2.9667485E+002
 -4.6409173E+002
 -6.1807637E+002
 -7.5775914E+002
 -8.8243393E+002
 -9.9151308E+002
 -1.0844659E+003
 -1.1607500E+003
 -1.2197484E+003
 -1.2607290E+003
 -1.2828521E+003
 -1.2852519E+003
 -1.2672127E+003
 -1.2284710E+003
 -1.1696004E+003
 -1.0924602E+003
 -1.0003313E+003
 -8.9797489E+002
 -7.9131304E+002
 -6.8575775E+002
 -5.8718706E+002
 -4.9946411E+002
 -4.2331186E+002
 -3.5872555E+002
 -3.0268340E+002
 -2.5256029E+002
 -2.0738479E+002
 -1.6721659E+002
 -1.3531624E+002
 -1.1245156E+002
 -9.3007671E+001
 -7.2907879E+001
 -4.3010242E+001
 -4.4944232E+000
  6.9837669E+001
  1.0470823E+002
  3.4515662E+002
  3.7816878E+002
  3.7637179E+002
  4.3005464E+002
  4.8338563E+002
  5.4883789E+002
  6.1416973E+002
  6.7956472E+002
  7.4208866E+002
  7.9759162E+002
  8.4467890E+002
  8.6201608E+002
  8.1805993E+002
  5.8226621E+002
 -1.5381144E+002
 -8.3069530E+001
  2.1773451E+001
  1.1522466E+002
  4.4212129E+002
  7.6387360E+002
  8.6463597E+002
  8.2868968E+002
  7.1983919E+002
  5.7714323E+002
  4.1278405E+002
  2.4164759E+002
  6.9066414E+001
 -1.0060402E+002
 -2.6460172E+002
 -4.2078797E+002
 -5.6751422E+002
 -7.0343937E+002
 -8.2743317E+002
 -9.3848137E+002
 -1.0355929E+003
 -1.1177033E+003
 -1.1835843E+003
 -1.2317752E+003
 -1.2605647E+003
 -1.2680620E+003
 -1.2524065E+003
 -1.2121514E+003
 -1.1469136E+003
 -1.0580640E+003
 -9.4981205E+002
 -8.2846236E+002
 -7.0095781E+002
 -5.7718606E+002
 -4.6341538E+002
 -3.6602245E+002
 -2.8905599E+002
 -2.2587015E+002
 -1.7398086E+002
 -1.2750625E+002
 -8.1935155E+001
 -4.3519040E+001
 -1.9641161E+001
 -6.3815398E+000
 -4.8814932E+000
 -2.9023214E+000
  4.5909168E+000
  2.8076253E+001
  5.6889632E+001
  1.1563976E+002
  1.3990864E+002
  1.7636119E+002
  2.9069862E+002
  3.7549664E+002
  4.5928812E+002
  5.3671557E+002
  6.1126325E+002
  6.8120197E+002
  7.4577641E+002
  8.0573645E+002
  8.6039263E+002
  9.3233694E+002
  1.0385954E+003
  1.4861705E+003
 -1.7967341E+002
  5.5158476E-001
  2.1612728E+002
  3.6178399E+002
  5.3398986E+002
  6.3761022E+002
  6.4302834E+002
  5.8158656E+002
  4.7884288E+002
  3.5202223E+002
  2.1032140E+002
  6.1401561E+001
 -9.0007102E+001
 -2.4033794E+002
 -3.8694965E+002
 -5.2775560E+002
 -6.6105383E+002
 -7.8538078E+002
 -8.9938915E+002
 -1.0017233E+003
 -1.0908878E+003
 -1.1651107E+003
 -1.2222198E+003
 -1.2595619E+003
 -1.2740125E+003
 -1.2621682E+003
 -1.2208258E+003
 -1.1478700E+003
 -1.0439102E+003
 -9.1240922E+002
 -7.6280177E+002
 -6.0940904E+002
 -4.5717611E+002
 -3.2336989E+002
 -2.2046938E+002
 -1.3908019E+002
 -8.4752805E+001
 -4.0155996E+001
 -3.4463539E-001
  4.6152041E+001
  1.0386297E+002
  1.2974090E+002
  1.1209775E+002
  8.7998125E+001
  5.4699991E+001
  4.2278219E+001
  4.1876252E+001
  5.5662443E+001
  6.8293047E+001
  8.0469251E+001
 -2.3463868E+002
 -2.4230056E+002
  2.0909579E+001
  2.1217434E+002
  3.3151071E+002
  4.3750185E+002
  5.2904904E+002
  6.1257312E+002
  6.8817773E+002
  7.5479346E+002
  8.1790640E+002
  8.6531771E+002
  9.7414950E+002
  9.4465853E+002
  1.5242831E+003
  9.4736462E+001
  2.1496850E+002
  3.3850544E+002
  4.4882836E+002
  5.1111643E+002
  5.2133616E+002
  4.8248215E+002
  4.0701082E+002
  3.0544175E+002
  1.8643717E+002
  5.6163765E+001
 -8.0473297E+001
 -2.1980012E+002
 -3.5891807E+002
 -4.9550734E+002
 -6.2764211E+002
 -7.5365023E+002
 -8.7197513E+002
 -9.8102770E+002
 -1.0790166E+003
 -1.1637545E+003
 -1.2324340E+003
 -1.2814427E+003
 -1.3062483E+003
 -1.3014053E+003
 -1.2610760E+003
 -1.1798065E+003
 -1.0546603E+003
 -8.9321991E+002
 -7.0768304E+002
 -5.0792063E+002
 -3.2461190E+002
 -1.5120108E+002
 -2.2761697E+001
  2.9726206E+001
  7.5577350E+001
  9.9764419E+001
  1.2678457E+002
  1.5983308E+002
  2.7007771E+002
  2.2673730E+002
  2.2429340E+002
  1.8803071E+002
  1.0175409E+002
  6.3556408E+001
  4.7373172E+001
  4.2589798E+001
  4.3702470E+001
  2.8040387E+001
 -1.9355461E+002
 -2.3107657E+002
 -1.1801413E+002
  3.6708629E+001
  1.7807388E+002
  3.1184337E+002
  4.2639142E+002
  5.3007345E+002
  6.2201137E+002
  7.0286926E+002
  7.7227830E+002
  8.2737521E+002
  8.7655582E+002
  8.9947105E+002
  9.8758999E+002
  1.0176217E+003
  1.1046192E+002
  2.2925517E+002
  3.1337619E+002
  3.8998724E+002
  4.3793200E+002
  4.4788899E+002
  4.2018419E+002
  3.6089610E+002
  2.7670033E+002
  1.7375580E+002
  5.7336949E+001
 -6.8252805E+001
 -1.9946620E+002
 -3.3341546E+002
 -4.6771416E+002
 -6.0035879E+002
 -7.2960588E+002
 -8.5383809E+002
 -9.7140227E+002
 -1.0804046E+003
 -1.1784513E+003
 -1.2623314E+003
 -1.3275494E+003
 -1.3680668E+003
 -1.3761985E+003
 -1.3419142E+003
 -1.2561729E+003
 -1.1118325E+003
 -8.9931848E+002
 -6.4151206E+002
 -4.1147477E+002
 -1.7682312E+002
  7.3836784E+001
  1.3397178E+002
  2.2649875E+002
  2.3015499E+002
  2.2287120E+002
  2.2836749E+002
  2.2021318E+002
  6.5278955E+002
  5.8822656E+002
  4.5243472E+002
  3.2694972E+002
  8.5823135E+001
  6.4525097E+001
  3.8137040E+001
  3.0591100E+001
  2.1616877E+001
  6.5440876E+000
 -1.3036159E+002
 -1.7740777E+001
 -2.4938907E+002
 -9.3405866E+001
  1.3517281E+001
  1.6900867E+002
  3.0367499E+002
  4.2961735E+002
  5.4206552E+002
  6.4258892E+002
  7.2979146E+002
  8.0089374E+002
  8.5269128E+002
  8.7523767E+002
  8.8028800E+002
  8.4433179E+002
  8.4704626E+002
 -3.4031555E+001
  2.0457064E+002
  2.9897873E+002
  3.6911563E+002
  4.0453778E+002
  4.1144007E+002
  3.8927821E+002
  3.3967892E+002
  2.6668143E+002
  1.7462352E+002
  6.7684545E+001
 -5.0392318E+001
 -1.7639154E+002
 -3.0756015E+002
 -4.4157408E+002
 -5.7647318E+002
 -7.1057804E+002
 -8.4237361E+002
 -9.7034651E+002
 -1.0927610E+003
 -1.2073348E+003
 -1.3108120E+003
 -1.3984264E+003
 -1.4625220E+003
 -1.4925834E+003
 -1.4764777E+003
 -1.3865121E+003
 -1.2029131E+003
 -9.4510732E+002
 -6.4702110E+002
 -2.3332533E+002
 -5.6291574E+001
  4.8072743E+002
  6.1780908E+002
  4.9804470E+002
  4.7644611E+002
  4.0749053E+002
  3.2044981E+002
  1.6248459E+001
 -6.7733704E+000
 -5.4515109E+001
  1.8332777E+001
  3.2103745E+001
  2.3787470E+001
  1.4219769E+001
  3.1671808E+000
  2.7583821E+000
 -6.9877994E+002
 -2.0585679E+002
 -1.9299401E+002
  1.2958642E+001
  1.6051203E+002
  3.1060890E+002
  4.4415183E+002
  5.6668914E+002
  6.7672064E+002
  7.7233732E+002
  8.5031667E+002
  9.0144617E+002
  9.1022728E+002
  8.3730921E+002
  7.3372820E+002
  5.8516690E+002
 -1.6670479E+001
  4.3795631E+002
  3.3387660E+002
  3.6985631E+002
  3.9622515E+002
  4.0451684E+002
  3.8535812E+002
  3.4190519E+002
  2.7573002E+002
  1.9035169E+002
  8.9197507E+001
 -2.4598796E+001
 -1.4813963E+002
 -2.7885624E+002
 -4.1454615E+002
 -5.5337989E+002
 -6.9385916E+002
 -8.3473296E+002
 -9.7485905E+002
 -1.1129706E+003
 -1.2473545E+003
 -1.3752443E+003
 -1.4922160E+003
 -1.5914130E+003
 -1.6579218E+003
 -1.6717172E+003
 -1.6407897E+003
 -1.4747494E+003
 -1.0836685E+003
 -3.4358735E+002
 -2.3072470E+002
 -1.2298827E+001
 -1.4206490E+001
 -1.4217569E+001
  1.6892631E+001
  8.7600027E+000
  1.0433194E+001
  3.5421038E+000
 -3.2448962E+000
 -1.1842640E+003
 -5.0371623E+002
 -2.1715614E+002
 -2.6935291E+000
  1.7076376E+002
  3.2802741E+002
  4.7131043E+002
  6.0344898E+002
  7.2461222E+002
  8.3452720E+002
  9.2543704E+002
  9.9149517E+002
  1.0180609E+003
  9.3561294E+002
  6.4517862E+002
 -9.9833348E+000
  1.2353698E+002
  2.7890361E+002
  3.9116390E+002
  4.1781245E+002
  4.2347014E+002
  4.0732661E+002
  3.6671384E+002
  3.0381327E+002
  2.2188461E+002
  1.2336632E+002
  1.0951097E+001
 -1.1271141E+002
 -2.4517528E+002
 -3.8437048E+002
 -5.2863758E+002
 -6.7674145E+002
 -8.2783956E+002
 -9.8138093E+002
 -1.1369430E+003
 -1.2938568E+003
 -1.4508182E+003
 -1.6044102E+003
 -1.7485752E+003
 -1.8786877E+003
 -1.9473062E+003
 -1.9044918E+003
 -1.6213558E+003
 -1.4327418E+003
 -5.7442230E+002
  1.3869423E+002
  3.5259532E+000
  3.6482307E+000
 -2.8293615E+000
 -2.3236356E-002
  2.6196731E+000
 -2.9908964E-001
 -1.0616229E+001
 -7.2080067E+000
 -6.1727289E+002
 -7.8327777E+002
 -6.2539687E+002
 -3.9819673E+002
 -1.8151471E+002
  1.8118028E+001
  1.9726409E+002
  3.5919098E+002
  5.0964047E+002
  6.5070396E+002
  7.8479424E+002
  9.1075210E+002
  1.0345532E+003
  1.1312171E+003
  1.2030882E+003
  1.0254119E+003
  5.1399445E+002
  3.4877405E+002
  1.4577066E+002
  3.3583203E+002
  3.9625315E+002
  4.4257616E+002
  4.6237738E+002
  4.5298866E+002
  4.1284983E+002
  3.5104273E+002
  2.7009979E+002
  1.7149036E+002
  5.7717245E+001
 -6.8480797E+001
 -2.0475745E+002
 -3.4911984E+002
 -5.0005273E+002
 -6.5662421E+002
 -8.1849123E+002
 -9.8588818E+002
 -1.1595100E+003
 -1.3404815E+003
 -1.5294272E+003
 -1.7272421E+003
 -1.9267993E+003
 -2.1213192E+003
 -2.3412119E+003
 -2.5754716E+003
 -3.6671932E+003
 -6.4432808E+002
 -2.1634040E+000
 -3.5794887E+000
 -6.9790375E-001
 -9.6737903E+000
 -4.7750417E+000
 -5.9397757E+000
 -8.7619043E+002
 -8.4597307E+002
 -6.9374602E+002
 -5.2687939E+002
 -3.2822183E+002
 -1.2030718E+002
  6.5739891E+001
  2.3933192E+002
  4.0242577E+002
  5.5695581E+002
  7.0599169E+002
  8.5048649E+002
  9.9657169E+002
  1.1399886E+003
  1.3302128E+003
  1.5636589E+003
  2.6965260E+003
  2.6697888E+002
  2.9553690E+002
  7.6194723E+002
  5.3259631E+002
  5.6045808E+002
  5.2873054E+002
  4.7917330E+002
  4.1850559E+002
  3.3616629E+002
  2.3446398E+002
  1.1690056E+002
 -1.4143915E+001
 -1.5625954E+002
 -3.0729215E+002
 -4.6582602E+002
 -6.3120004E+002
 -8.0361287E+002
 -9.8411710E+002
 -1.1748491E+003
 -1.3785674E+003
 -1.6008580E+003
 -1.8422009E+003
 -2.1252573E+003
 -2.3791181E+003
 -2.6730839E+003
 -2.0539209E+003
 -8.6621196E+002
 -1.3514374E+000
  2.1416975E+000
  1.8977232E+000
 -9.3704369E+002
 -9.1226659E+002
 -7.6134922E+002
 -5.7570571E+002
 -4.0863395E+002
 -2.2912294E+002
 -5.0554613E+001
  1.2549314E+002
  2.9300031E+002
  4.5392166E+002
  6.1024695E+002
  7.6473427E+002
  9.1894455E+002
  1.0792063E+003
  1.2202493E+003
  1.4516551E+003
  1.3206882E+003
  2.0225573E+003
  3.9506689E+002
  2.0393898E+002
  6.4841419E+002
  5.7852429E+002
  5.7410576E+002
  5.0689064E+002
  4.2032105E+002
  3.1349130E+002
  1.8981295E+002
  5.1179930E+001
 -9.8814182E+001
 -2.5797647E+002
 -4.2474749E+002
 -5.9873765E+002
 -7.8060241E+002
 -9.7222039E+002
 -1.1767616E+003
 -1.3996519E+003
 -1.6472275E+003
 -1.9362491E+003
 -2.2685271E+003
 -2.7668109E+003
 -3.3446216E+003
 -5.6223208E+003
  4.6185399E+002
 -1.0183434E+003
 -9.8873574E+002
 -8.3038803E+002
 -6.4371291E+002
 -4.8034938E+002
 -3.0959711E+002
 -1.4133029E+002
  2.7570046E+001
  1.9235197E+002
  3.5308480E+002
  5.1009294E+002
  6.6553240E+002
  8.2259714E+002
  9.8571439E+002
  1.1584123E+003
  1.3441378E+003
  1.4204819E+003
  1.3972736E+003
 -9.2733957E+001
 -1.5628230E+002
  4.0529235E+002
  1.4007228E+003
  7.4320933E+002
  6.9828016E+002
  6.1116478E+002
  5.2332994E+002
  4.1041107E+002
  2.7690655E+002
  1.2818633E+002
 -3.2336911E+001
 -2.0101704E+002
 -3.7645168E+002
 -5.5838425E+002
 -7.4784816E+002
 -9.4733599E+002
 -1.1605515E+003
 -1.3952262E+003
 -1.6558486E+003
 -1.9757333E+003
 -2.3077218E+003
 -2.9359892E+003
 -3.0302206E+003
 -5.1365488E+003
 -7.8519986E+002
 -1.8316849E+003
 -8.9738261E+002
 -7.4648097E+002
 -5.3776150E+002
 -3.7346073E+002
 -2.0963454E+002
 -4.9790693E+001
  1.0818401E+002
  2.6380778E+002
  4.1671243E+002
  5.6775978E+002
  7.1917348E+002
  8.7416712E+002
  1.0413105E+003
  1.2259933E+003
  1.4862849E+003
  1.8499460E+003
  3.0734528E+003
 -8.9774345E+001
  5.3673221E+002
  2.5229020E+002
  8.3439285E+002
  7.2431599E+002
  6.6187217E+002
  5.2704527E+002
  3.8139254E+002
  2.1592087E+002
  4.2563805E+001
 -1.3738243E+002
 -3.2161731E+002
 -5.1045983E+002
 -7.0518797E+002
 -9.0830348E+002
 -1.1244087E+003
 -1.3590698E+003
 -1.6261876E+003
 -1.9255406E+003
 -2.3282606E+003
 -2.6607688E+003
 -3.4853274E+003
 -3.5077992E+003
 -2.5560831E+002
 -8.5188780E+002
 -5.4554686E+002
 -6.4437373E+002
 -9.3729109E+002
 -7.2844408E+002
 -5.9380090E+002
 -4.1701879E+002
 -2.6225965E+002
 -1.0768317E+002
  4.2861313E+001
  1.9158132E+002
  3.3788662E+002
  4.8222117E+002
  6.2510925E+002
  7.6902465E+002
  9.1453299E+002
  1.0772296E+003
  1.2324236E+003
  1.5358876E+003
  1.5399818E+003
  2.7484377E+003
 -2.3571980E+002
  6.5507618E+002
  1.3754467E+003
  9.1204461E+002
  8.1710416E+002
  6.5878282E+002
  4.9734834E+002
  3.1472356E+002
  1.2299121E+002
 -6.9091607E+001
 -2.6213022E+002
 -4.5672446E+002
 -6.5403393E+002
 -8.5668810E+002
 -1.0681862E+003
 -1.2958303E+003
 -1.5434288E+003
 -1.8433024E+003
 -2.1481796E+003
 -2.7403542E+003
 -2.8124591E+003
 -4.8214228E+003
 -4.8627135E+002
 -1.5119392E+003
 -6.6592502E+002
 -7.3257520E+002
 -6.6809324E+002
 -5.6532061E+002
 -4.2736836E+002
 -2.8985065E+002
 -1.4546128E+002
 -3.1306567E+000
  1.3804938E+002
  2.7712096E+002
  4.1409554E+002
  5.4894963E+002
  6.8225486E+002
  8.1446908E+002
  9.4836968E+002
  1.0815501E+003
  1.2335355E+003
  1.3487015E+003
  1.6037547E+003
  1.6351358E+003
  9.4158858E+002
  1.0930221E+003
  9.7193681E+002
  8.5263604E+002
  6.4447867E+002
  4.1502821E+002
  2.0588371E+002
  4.5448374E-001
 -2.0144937E+002
 -4.0018277E+002
 -5.9770661E+002
 -7.9579667E+002
 -9.9739812E+002
 -1.2067858E+003
 -1.4299146E+003
 -1.6773170E+003
 -1.9629972E+003
 -2.3541903E+003
 -2.9587919E+003
 -4.7375742E+003
 -1.9734733E+002
 -6.6522733E+002
 -4.4210309E+002
 -5.0019782E+002
 -7.5032133E+002
 -6.4063836E+002
 -5.6249613E+002
 -4.9246355E+002
 -4.0435601E+002
 -2.8664770E+002
 -1.5996693E+002
 -2.9137538E+001
  1.0338150E+002
  2.3504351E+002
  3.6488719E+002
  4.9235695E+002
  6.1738961E+002
  7.3993918E+002
  8.6020136E+002
  9.7631335E+002
  1.0894297E+003
  1.1864969E+003
  1.2820434E+003
  1.2947303E+003
  1.3606305E+003
  1.1767782E+003
  1.1465565E+003
  9.9280301E+002
  7.5485444E+002
  5.1952801E+002
  2.8462361E+002
  6.4558469E+001
 -1.4335504E+002
 -3.4513134E+002
 -5.4072265E+002
 -7.3145109E+002
 -9.1872370E+002
 -1.1044577E+003
 -1.2914321E+003
 -1.4788751E+003
 -1.6739683E+003
 -1.8309799E+003
 -1.8999632E+003
 -1.4202212E+003
  1.0842456E+002
 -1.4107077E+002
 -3.7767678E+002
 -1.0958468E+003
 -5.0917825E+002
 -5.8212603E+002
 -5.6295112E+002
 -5.0126894E+002
 -4.3381382E+002
 -3.5663088E+002
 -2.6211082E+002
 -1.5474523E+002
 -3.6582552E+001
  8.6296467E+001
  2.1059060E+002
  3.3396797E+002
  4.5499862E+002
  5.7310185E+002
  6.8816985E+002
  8.0028640E+002
  9.0850848E+002
  1.0120457E+003
  1.1014355E+003
  1.1752688E+003
  1.2034510E+003
  1.1832500E+003
  9.4104907E+002
  9.0850204E+002
  1.9628809E+003
  9.4951865E+002
  5.9893674E+002
  3.3805585E+002
  1.2052306E+002
 -9.3053359E+001
 -2.9565795E+002
 -4.8876983E+002
 -6.7051151E+002
 -8.4138525E+002
 -1.0016139E+003
 -1.1496010E+003
 -1.2823792E+003
 -1.3809534E+003
 -1.4289504E+003
 -1.3608304E+003
 -1.0724932E+003
 -3.0561406E+002
  2.8557136E+002
  7.5041754E+002
  4.7821127E+002
  9.2799031E+002
  6.3842820E+002
  3.8581051E+000
  1.9684529E+003
 -5.7377722E+001
 -1.1664524E+002
 -4.5651080E+002
 -3.0000707E+002
 -3.6493847E+002
 -5.4413472E+002
 -4.8994373E+002
 -4.5369164E+002
 -4.2286411E+002
 -3.8000629E+002
 -3.0934699E+002
 -2.2952549E+002
 -1.3690117E+002
 -3.1697565E+001
  8.1914909E+001
  1.9997607E+002
  3.1866319E+002
  4.3524962E+002
  5.4804703E+002
  6.5684281E+002
  7.6204744E+002
  8.6398438E+002
  9.6288031E+002
  1.0561734E+003
  1.1429872E+003
  1.2032305E+003
  1.1929911E+003
  1.0081017E+003
 -4.6125345E+001
  7.1053197E+002
  5.0697217E+002
  6.0352441E+002
  3.6785360E+002
  1.6698499E+002
 -5.0020207E+001
 -2.5682435E+002
 -4.4774309E+002
 -6.2051014E+002
 -7.7473110E+002
 -9.1029301E+002
 -1.0250117E+003
 -1.1115985E+003
 -1.1590309E+003
 -1.1422401E+003
 -1.0188284E+003
 -7.3055271E+002
 -3.3659725E+002
  3.9959212E+001
  3.4776634E+002
  5.5543925E+002
  9.7268071E+002
  8.6288705E+002
  1.8828805E+003
  9.5757015E+002
  1.2028621E+003
  7.9047603E+002
  1.0018033E+003
  6.8104194E+002
  7.0285369E+002
  6.0214388E+002
  3.8530752E+001
  5.8266304E+002
  3.7629082E+002
 -2.5705702E+002
 -6.2148735E+002
 -3.1352929E+002
 -3.8912587E+002
 -4.0558160E+002
 -3.8435423E+002
 -3.5808016E+002
 -3.2133178E+002
 -2.6748318E+002
 -2.0049807E+002
 -1.1794779E+002
 -2.3083039E+001
  8.2723231E+001
  1.9603036E+002
  3.1317311E+002
  4.2923017E+002
  5.4022692E+002
  6.4515149E+002
  7.4417832E+002
  8.3902071E+002
  9.3145089E+002
  1.0211211E+003
  1.1111757E+003
  1.1924990E+003
  1.3029908E+003
  1.4005846E+003
  2.2122745E+003
 -6.7407389E+001
  2.3045146E+002
  8.6782725E+002
  5.5130599E+002
  4.4403102E+002
  2.1215417E+002
 -1.8080157E+001
 -2.3340205E+002
 -4.2536452E+002
 -5.8868352E+002
 -7.2671026E+002
 -8.4009723E+002
 -9.2745998E+002
 -9.8372342E+002
 -9.9883109E+002
 -9.5784345E+002
 -8.4184195E+002
 -6.4203525E+002
 -3.6992567E+002
 -9.2328332E+001
  1.4670784E+002
  3.7593851E+002
  6.0133342E+002
  7.2940655E+002
  6.7198260E+002
  6.7515931E+002
  6.4203028E+002
  7.4189348E+002
  8.6887044E+002
  2.4757677E+003
  3.1268702E+002
 -7.9266944E+001
 -4.6583031E+001
 -7.6858748E+001
 -2.4366591E+002
 -2.6530438E+002
 -2.8313880E+002
 -2.9118111E+002
 -3.0133451E+002
 -2.9659524E+002
 -2.6783299E+002
 -2.2803300E+002
 -1.7404408E+002
 -1.0369332E+002
 -1.8943076E+001
  7.9842186E+001
  1.8894255E+002
  3.0690232E+002
  4.2666992E+002
  5.4335787E+002
  6.5176327E+002
  7.4790721E+002
  8.3570881E+002
  9.1865381E+002
  1.0006968E+003
  1.0829980E+003
  1.1683812E+003
  1.2361041E+003
  1.3625105E+003
  1.2188211E+003
  1.6815968E+003
  6.6382348E+002
  8.3388965E+002
  5.2289235E+002
  2.7328059E+002
  1.0378242E+001
 -2.3800123E+002
 -4.2946966E+002
 -5.8289399E+002
 -7.0296418E+002
 -7.9608612E+002
 -8.6161615E+002
 -8.9668332E+002
 -8.9495073E+002
 -8.4776201E+002
 -7.4708429E+002
 -5.9219912E+002
 -4.0102023E+002
 -1.9753397E+002
 -2.1806436E+000
  1.7802081E+002
  3.2595519E+002
  4.1388711E+002
  4.7992944E+002
  5.0559235E+002
  5.5638496E+002
  6.7539820E+002
  8.5722311E+002
  1.2298959E+003
  9.0962425E+002
  2.0430617E+003
  9.8756944E+002
  1.1207606E+003
  7.4897497E+002
  9.8617271E+002
  6.2262329E+002
  7.8538658E+002
  4.8736271E+002
  6.4572354E+002
  3.5591986E+002
  4.9709552E+002
  2.2137308E+002
  3.3450753E+002
  8.5922133E+001
 -7.6234459E+001
 -1.6769320E+002
 -2.0268893E+002
 -2.2478111E+002
 -2.3037528E+002
 -2.1886460E+002
 -1.9329127E+002
 -1.5176807E+002
 -9.5032344E+001
 -2.2497557E+001
  6.7137373E+001
  1.7071729E+002
  2.8952135E+002
  4.1310521E+002
  5.4592128E+002
  6.7168417E+002
  7.7421716E+002
  8.5976890E+002
  9.3147106E+002
  9.9946544E+002
  1.0689542E+003
  1.1444966E+003
  1.2281716E+003
  1.3191424E+003
  1.3198610E+003
  1.2197992E+003
 -7.0376779E+001
  7.1989880E+002
  7.1460816E+002
  3.4365823E+002
 -3.2780324E+001
 -2.8490981E+002
 -4.7650633E+002
 -6.0731521E+002
 -7.0784899E+002
 -7.7937232E+002
 -8.2639502E+002
 -8.4647965E+002
 -8.3600415E+002
 -7.9051516E+002
 -7.0751678E+002
 -5.8969565E+002
 -4.4588290E+002
 -2.9128359E+002
 -1.3848368E+002
  2.2963326E+000
  1.2335100E+002
  2.1709938E+002
  2.7898992E+002
  3.3751303E+002
  4.0329843E+002
  4.9645057E+002
  6.2537348E+002
  7.8198112E+002
  8.1965799E+002
  6.5017581E+002
  5.8270634E+002
  4.7110870E+002
  3.7161696E+002
  2.6962953E+002
  1.6358184E+002
  4.6278122E+001
 -3.7959375E+001
 -1.0650264E+002
 -1.5016537E+002
 -1.6776743E+002
 -1.7095710E+002
 -1.5939840E+002
 -1.3234058E+002
 -9.0421275E+001
 -3.2610593E+001
  4.2815748E+001
  1.3638494E+002
  2.5284225E+002
  3.7450875E+002
  5.1905540E+002
  6.6010857E+002
  8.0367235E+002
  9.1889166E+002
  9.8259216E+002
  1.0319817E+003
  1.0784442E+003
  1.1311330E+003
  1.1971345E+003
  1.2796455E+003
  1.4248608E+003
  1.6467917E+003
  2.5822809E+003
 -7.3475965E+001
  5.5371966E+002
  5.2692152E+002
 -4.7424172E+001
 -4.2593688E+002
 -5.6639077E+002
 -6.7234632E+002
 -7.3850282E+002
 -7.8821541E+002
 -8.1779811E+002
 -8.2676953E+002
 -8.1190178E+002
 -7.7084316E+002
 -7.0293770E+002
 -6.1079365E+002
 -5.0102240E+002
 -3.8212874E+002
 -2.6325031E+002
 -1.5180009E+002
 -5.4401654E+001
  2.5911894E+001
  9.4014170E+001
  1.5436099E+002
  2.1963604E+002
  2.9565617E+002
  3.8607954E+002
  4.5091943E+002
  4.5380152E+002
  4.4213735E+002
  3.7547155E+002
  3.1503853E+002
  2.4481655E+002
  1.7290912E+002
  9.8545207E+001
  2.8529498E+001
 -3.7097439E+001
 -8.4913153E+001
 -1.1422291E+002
 -1.2867117E+002
 -1.2811911E+002
 -1.1416980E+002
 -8.6803817E+001
 -4.5111355E+001
  1.2613656E+001
  8.8656478E+001
  1.8832649E+002
  3.1121604E+002
  4.7907224E+002
  5.9233987E+002
  8.0896035E+002
  1.0429451E+003
  1.1012329E+003
  1.1230544E+003
  1.1332393E+003
  1.1528113E+003
  1.1803533E+003
  1.2310989E+003
  1.2823334E+003
  1.4553540E+003
  1.3819095E+003
  2.2484220E+003
  5.9461279E+002
 -7.5903155E+002
 -7.0733999E+002
 -7.3358132E+002
 -7.5847243E+002
 -7.9119858E+002
 -8.1538029E+002
 -8.3021237E+002
 -8.3068785E+002
 -8.1395886E+002
 -7.7801296E+002
 -7.2274815E+002
 -6.5032724E+002
 -5.6509485E+002
 -4.7306826E+002
 -3.8043811E+002
 -2.9284665E+002
 -2.1417938E+002
 -1.4601077E+002
 -8.7103570E+001
 -3.1785803E+001
  2.4847650E+001
  8.7079109E+001
  1.4835449E+002
  2.0004199E+002
  2.2652662E+002
  2.1660483E+002
  1.9702750E+002
  1.6273507E+002
  1.2420944E+002
  8.0920429E+001
  3.5674992E+001
 -9.3479555E+000
 -4.7715228E+001
 -7.7563549E+001
 -9.6353622E+001
 -1.0301668E+002
 -9.8505442E+001
 -8.2745240E+001
 -5.5445847E+001
 -1.5648845E+001
  3.8688391E+001
  1.1196239E+002
  2.1291392E+002
  3.4953693E+002
  5.4343053E+002
  6.8195230E+002
  7.3159938E+002
  1.2544821E+003
  1.3223803E+003
  1.2724077E+003
  1.2344857E+003
  1.2127988E+003
  1.2159922E+003
  1.2329438E+003
  1.2784805E+003
  1.2986282E+003
  1.4430376E+003
  1.3269017E+003
 -1.2369279E+003
 -9.6070456E+002
 -8.7886099E+002
 -8.5171892E+002
 -8.4776781E+002
 -8.5319531E+002
 -8.5654969E+002
 -8.5187725E+002
 -8.3518853E+002
 -8.0453749E+002
 -7.5975155E+002
 -7.0246835E+002
 -6.3594819E+002
 -5.6447844E+002
 -4.9271082E+002
 -4.2478745E+002
 -3.6372609E+002
 -3.1053473E+002
 -2.6375156E+002
 -2.1968767E+002
 -1.7404975E+002
 -1.2477841E+002
 -7.3121714E+001
 -2.8984977E+001
  1.8445824E+000
  1.9777629E+001
  2.2549893E+001
  1.7967326E+001
  6.5435669E+000
 -9.5742924E+000
 -2.9149054E+001
 -4.9645269E+001
 -6.8556613E+001
 -8.2507182E+001
 -8.9598509E+001
 -8.9006859E+001
 -8.0132098E+001
 -6.2821554E+001
 -3.6523417E+001
 -9.6677413E-001
  4.7106435E+001
  1.0421360E+002
  2.0403746E+002
  2.9680295E+002
  8.6865298E+002
  6.6815891E+002
  7.1671299E+002
  2.7933951E+003
  1.6205215E+003
  1.4277533E+003
  1.2979489E+003
  1.2552242E+003
  1.2304781E+003
  1.2261479E+003
  1.2271983E+003
  1.2446703E+003
  1.2334295E+003
  1.2027362E+003
 -1.6459061E+003
 -9.8416854E+002
 -1.0033329E+003
 -9.0804983E+002
 -8.9880929E+002
 -8.9199728E+002
 -8.9123044E+002
 -8.8500021E+002
 -8.7040703E+002
 -8.4520590E+002
 -8.0927275E+002
 -7.6391088E+002
 -7.1172602E+002
 -6.5620361E+002
 -6.0113604E+002
 -5.4998825E+002
 -5.0531540E+002
 -4.6826810E+002
 -4.3738354E+002
 -4.0949710E+002
 -3.7684190E+002
 -3.3569198E+002
 -2.9063079E+002
 -2.4239525E+002
 -2.0078898E+002
 -1.6779705E+002
 -1.4092173E+002
 -1.2097024E+002
 -1.0586394E+002
 -9.6331735E+001
 -9.2601771E+001
 -9.2660496E+001
 -9.3954582E+001
 -9.3980028E+001
 -9.0791388E+001
 -8.3096635E+001
 -7.0229661E+001
 -5.1763489E+001
 -2.7281970E+001
  2.9914391E+000
  4.0470944E+001
  7.8386346E+001
  1.3268245E+002
  9.2874017E+001
  4.6942279E+001
  1.8508156E+003
  1.3211454E+003
  1.4517943E+003
  1.3108813E+003
  1.2710396E+003
  1.2295999E+003
  1.2048339E+003
  1.1867088E+003
  1.1618707E+003
  1.1384517E+003
  1.0408518E+003
 -1.6098460E+003
 -1.1038987E+003
 -9.9063296E+002
 -9.4011031E+002
 -9.3080318E+002
 -9.2927555E+002
 -9.3022800E+002
 -9.2681794E+002
 -9.1615912E+002
 -8.9664058E+002
 -8.6823061E+002
 -8.3216751E+002
 -7.9083747E+002
 -7.4745608E+002
 -7.0560798E+002
 -6.6876686E+002
 -6.3950130E+002
 -6.1946304E+002
 -6.0940986E+002
 -6.0135552E+002
 -5.8968404E+002
 -5.6044960E+002
 -5.0478488E+002
 -4.5204128E+002
 -3.9702233E+002
 -3.4667305E+002
 -3.0184000E+002
 -2.5490093E+002
 -2.1209418E+002
 -1.7782726E+002
 -1.5207359E+002
 -1.3428636E+002
 -1.2070994E+002
 -1.0875896E+002
 -9.6404486E+001
 -8.2389745E+001
 -6.5953391E+001
 -4.6625595E+001
 -2.4342438E+001
  1.3546002E+000
  2.7244140E+001
  5.7715158E+001
  5.5921553E+001
  1.0608377E+002
  1.0172987E+001
  1.2886338E+003
  1.4916831E+003
  1.3412674E+003
  1.3237479E+003
  1.2602335E+003
  1.2185507E+003
  1.1792216E+003
  1.1431629E+003
  1.1019180E+003
  1.0539555E+003
  9.6090843E+002
  1.8322350E+002
  1.1195556E+002
 -6.5354555E+002
 -8.6411866E+002
 -9.1926600E+002
 -9.4082761E+002
 -9.5242051E+002
 -9.6496991E+002
 -9.7334003E+002
 -9.7595544E+002
 -9.7075305E+002
 -9.5697859E+002
 -9.3484413E+002
 -9.0571213E+002
 -8.7200325E+002
 -8.3712470E+002
 -8.0511521E+002
 -7.7972359E+002
 -7.6475838E+002
 -7.6210511E+002
 -7.7345994E+002
 -8.0579296E+002
 -8.1615499E+002
 -7.7621885E+002
 -7.3691689E+002
 -6.5398548E+002
 -5.8826990E+002
 -5.2527250E+002
 -4.5195167E+002
 -3.8503851E+002
 -3.1188720E+002
 -2.4860713E+002
 -2.0470734E+002
 -1.7161758E+002
 -1.4586422E+002
 -1.2387034E+002
 -1.0367924E+002
 -8.4088017E+001
 -6.4477500E+001
 -4.4604936E+001
 -2.4003658E+001
 -3.4159418E+000
  1.7790468E+001
  3.2755034E+001
  6.1402240E+001
  3.2441694E+001
  1.3964328E+003
  1.3813539E+003
  1.3716838E+003
  1.2981814E+003
  1.2510527E+003
  1.1985978E+003
  1.1516123E+003
  1.1045372E+003
  1.0511105E+003
  9.9609030E+002
  8.9912835E+002
 -4.4001698E+002
 -6.9341980E+002
 -8.0672113E+002
 -8.8851172E+002
 -9.3793965E+002
 -9.7665721E+002
 -1.0034338E+003
 -1.0225068E+003
 -1.0327846E+003
 -1.0339397E+003
 -1.0256599E+003
 -1.0084731E+003
 -9.8382450E+002
 -9.5439933E+002
 -9.2397122E+002
 -8.9746581E+002
 -8.8074225E+002
 -8.7639359E+002
 -8.9156446E+002
 -9.3178177E+002
 -9.9776195E+002
 -1.1139790E+003
 -1.1210089E+003
 -9.3328040E+002
 -8.7332045E+002
 -7.8012057E+002
 -6.9387511E+002
 -6.4350031E+002
 -5.2204231E+002
 -3.9282783E+002
 -3.0615289E+002
 -2.4498143E+002
 -2.0160526E+002
 -1.6687229E+002
 -1.3717864E+002
 -1.1039732E+002
 -8.5880784E+001
 -6.3536181E+001
 -4.3112467E+001
 -2.5041339E+001
 -5.8543968E+000
  1.1485462E+001
  2.2523316E+001
  3.1051523E+001
  1.4089914E+003
  1.4811092E+003
  1.3419467E+003
  1.3008095E+003
  1.2306687E+003
  1.1774476E+003
  1.1235120E+003
  1.0699222E+003
  1.0102887E+003
  9.5065042E+002
  8.5811334E+002
 -5.4757514E+002
 -6.6494876E+002
 -7.8928684E+002
 -8.8425302E+002
 -9.5538119E+002
 -1.0092958E+003
 -1.0505586E+003
 -1.0800951E+003
 -1.0988069E+003
 -1.1065187E+003
 -1.1032579E+003
 -1.0894982E+003
 -1.0667842E+003
 -1.0377249E+003
 -1.0071129E+003
 -9.8112520E+002
 -9.6619979E+002
 -9.7255302E+002
 -9.8893753E+002
 -1.0472010E+003
 -1.1942101E+003
 -1.5115856E+003
 -1.1552196E+003
 -1.2588348E+003
 -1.0405029E+003
 -9.5150014E+002
 -8.8659506E+002
 -7.2704670E+002
 -6.8394672E+002
 -4.3772736E+002
 -3.3481224E+002
 -2.6867287E+002
 -2.2254012E+002
 -1.8352390E+002
 -1.4766148E+002
 -1.1468783E+002
 -8.5273984E+001
 -5.9943149E+001
 -3.9565683E+001
 -2.3511674E+001
 -1.0151724E+001
 -4.0324343E+000
  1.5169320E+001
  2.0703400E+003
  1.3500260E+003
  1.4091180E+003
  1.2653294E+003
  1.2128976E+003
  1.1513427E+003
  1.0969381E+003
  1.0393469E+003
  9.7590102E+002
  9.1409385E+002
  8.2697479E+002
 -5.7476628E+002
 -6.8661382E+002
 -7.9560671E+002
 -9.0338621E+002
 -9.8827277E+002
 -1.0562256E+003
 -1.1089333E+003
 -1.1486931E+003
 -1.1757740E+003
 -1.1901015E+003
 -1.1912992E+003
 -1.1796073E+003
 -1.1558231E+003
 -1.1230155E+003
 -1.0852153E+003
 -1.0524811E+003
 -1.0354185E+003
 -1.0448013E+003
 -1.0616295E+003
 -1.1306939E+003
 -1.0703351E+003
 -2.7161088E+003
 -2.2388058E+003
 -1.3113309E+003
 -1.2579246E+003
 -1.1433078E+003
 -1.0525823E+003
 -1.2283647E+003
 -1.0220692E+003
 -3.5161780E+002
 -3.2642437E+002
 -2.6337345E+002
 -2.3589645E+002
 -1.9521171E+002
 -1.5508129E+002
 -1.1613402E+002
 -8.1589162E+001
 -5.3839465E+001
 -3.2187345E+001
 -2.7180986E+001
 -1.9627803E+001
  2.1173189E+003
  1.4686144E+003
  1.3258662E+003
  1.2332039E+003
  1.1782828E+003
  1.1252990E+003
  1.0721421E+003
  1.0134347E+003
  9.4625691E+002
  8.7902202E+002
  7.9633145E+002
 -5.0343911E+002
 -6.6428565E+002
 -8.1517649E+002
 -9.4053193E+002
 -1.0392371E+003
 -1.1177043E+003
 -1.1808035E+003
 -1.2298586E+003
 -1.2655497E+003
 -1.2868406E+003
 -1.2923527E+003
 -1.2811993E+003
 -1.2545150E+003
 -1.2118959E+003
 -1.1602239E+003
 -1.1110018E+003
 -1.0859817E+003
 -1.0884039E+003
 -1.1715616E+003
 -7.4218075E+002
 -8.5940120E+002
 -3.2949209E+002
  1.4692848E+002
  7.4743719E+001
 -2.4560307E+002
 -2.7879607E+002
 -2.6340981E+002
 -2.1531428E+002
 -1.6212508E+002
 -1.1095024E+002
 -6.6826308E+001
 -3.3327097E+001
 -4.2959310E+000
 -6.1082310E+000
 -2.0108145E+002
 -9.0252073E+001
  9.0148337E+002
  1.1556232E+003
  1.1905122E+003
  1.1760382E+003
  1.1394458E+003
  1.1003078E+003
  1.0526588E+003
  9.9509326E+002
  9.2139656E+002
  8.4506446E+002
  7.5590965E+002
 -3.6400890E+002
 -6.8797439E+002
 -8.5797353E+002
 -1.0043071E+003
 -1.1084499E+003
 -1.1960508E+003
 -1.2662624E+003
 -1.3245421E+003
 -1.3696450E+003
 -1.3993523E+003
 -1.4103138E+003
 -1.3996875E+003
 -1.3667684E+003
 -1.3132725E+003
 -1.2317293E+003
 -1.1122775E+003
 -1.1284911E+003
 -1.0427047E+003
 -1.8888830E+003
 -5.8986520E+002
 -3.1562070E+002
  6.9250048E+002
  1.0371024E+003
  1.0704087E+003
  1.1249105E+003
  1.1195901E+003
  1.1086477E+003
  1.0815692E+003
  1.0442494E+003
  9.8949302E+002
  9.0794261E+002
  7.9001496E+002
  6.6240829E+002
  1.2212863E+002
 -6.4246173E+002
 -9.5011745E+002
 -1.0981493E+003
 -1.2044895E+003
 -1.2881816E+003
 -1.3646199E+003
 -1.4320044E+003
 -1.4890926E+003
 -1.5306961E+003
 -1.5494318E+003
 -1.5394939E+003
 -1.4995657E+003
 -1.4368687E+003
 -1.3331482E+003
 -1.1687721E+003
 -9.0006297E+002
 -1.0054494E+003
 -6.7474834E+002
  1.3375603E+003
  9.3851375E+002
  1.0952542E+003
  1.0736513E+003
  1.0909358E+003
  1.0861466E+003
  1.0766931E+003
  1.0510547E+003
  1.0100810E+003
  9.2550469E+002
  7.9976680E+002
  5.0262180E+002
  1.9790261E+002
 -1.4376425E+003
 -1.2133759E+003
 -1.2446334E+003
 -1.3103647E+003
 -1.3907655E+003
 -1.4709603E+003
 -1.5500575E+003
 -1.6237124E+003
 -1.6840047E+003
 -1.7188787E+003
 -1.7145388E+003
 -1.6754701E+003
 -1.5731490E+003
 -1.5488841E+003
 -7.8097480E+002
 -9.6638276E+002
 -7.5213402E+002
  1.4783439E+003
  1.0747343E+003
  1.0455903E+003
  1.0476632E+003
  1.0648586E+003
  1.0760975E+003
  1.0823336E+003
  1.0844835E+003
  1.0662065E+003
  9.9794964E+002
  7.4394069E+002
 -1.2208048E+002
 -1.5177629E+003
 -1.2105607E+003
 -1.3715664E+003
 -1.4044994E+003
 -1.4934089E+003
 -1.5791532E+003
 -1.6735458E+003
 -1.7713049E+003
 -1.8635888E+003
 -1.9251186E+003
 -1.8904278E+003
 -1.8709519E+003
 -1.7173050E+003
 -2.4674249E+003
 -8.5655530E+002
 -1.5264607E+002
 -1.3885798E+002
 -8.8827601E+001
  6.5605047E+002
  8.7734245E+002
  9.6601897E+002
  1.0133515E+003
  1.0437199E+003
  1.0701940E+003
  1.0958000E+003
  1.1236601E+003
  1.1801438E+003
  1.2844699E+003
  1.7756825E+003
 -2.0414686E+002
 -1.1531242E+003
 -1.3784528E+003
 -1.4037787E+003
 -1.5030344E+003
 -1.5829483E+003
 -1.6822029E+003
 -1.7958899E+003
 -1.9234514E+003
 -2.0684620E+003
 -2.2173229E+003
 -2.2797693E+003
 -1.9921511E+003
 -1.7481394E+003
 -1.3890827E+003
  4.6702486E+002
  7.3778622E+002
  8.4725181E+002
  9.3191608E+002
  9.8444576E+002
  1.0288997E+003
  1.0646847E+003
  1.1062613E+003
  1.1411059E+003
  1.2555813E+003
  1.2084057E+003
  1.8325963E+003
 -1.2774690E+003
 -1.4076533E+003
 -1.5016365E+003
 -1.5741029E+003
 -1.6660469E+003
 -1.7688095E+003
 -1.8969850E+003
 -2.0744931E+003
 -2.2867493E+003
 -2.5371655E+003
 -2.4974563E+003
 -1.9922895E+003
 -2.0721663E+003
  6.6402375E+002
  7.6138779E+002
  8.5928655E+002
  9.2124122E+002
  9.7422569E+002
  1.0176072E+003
  1.0600887E+003
  1.1019678E+003
  1.1574125E+003
  1.1991022E+003
  1.3224352E+003
  1.3227002E+003
 -1.3400121E+003
 -1.5606879E+003
 -1.5607662E+003
 -1.6565768E+003
 -1.7289238E+003
 -1.8285675E+003
 -1.9604909E+003
 -2.1435783E+003
 -2.4962817E+003
 -3.1427555E+003
 -5.4304720E+003
 -1.3060958E+003
  7.7834418E+002
  8.8057731E+002
  8.7526064E+002
  9.3166573E+002
  9.6819926E+002
  1.0105807E+003
  1.0517833E+003
  1.0965248E+003
  1.1413350E+003
  1.2006317E+003
  1.2436303E+003
  1.3159048E+003
 -2.0370104E+003
 -1.5146612E+003
 -1.7021782E+003
 -1.7023162E+003
 -1.7809979E+003
 -1.8535701E+003
 -1.9691239E+003
 -2.0727387E+003
 -2.4455890E+003
 -2.1722884E+003
 -4.0439869E+003
  1.2137381E+003
  8.4278962E+002
  9.3963538E+002
  9.2564302E+002
  9.6594252E+002
  1.0013269E+003
  1.0425109E+003
  1.0846051E+003
  1.1300126E+003
  1.1754776E+003
  1.2217562E+003
  1.2596023E+003
 -1.9706416E+003
 -1.6816933E+003
 -1.7104207E+003
 -1.7579806E+003
 -1.8100375E+003
 -1.8625740E+003
 -1.9135702E+003
 -2.0018950E+003
 -1.9800503E+003
 -2.2281094E+003
 -1.7148423E+003
  1.2656419E+003
  9.3656676E+002
  9.1051120E+002
  9.1991770E+002
  9.5352788E+002
  9.9055854E+002
  1.0305420E+003
  1.0720020E+003
  1.1140227E+003
  1.1576446E+003
  1.1952497E+003
  1.2417719E+003
  3.6194230E+002
  3.5829465E+002
 -9.9187904E+002
 -1.5050112E+003
 -1.7217756E+003
 -1.8076274E+003
 -1.8447518E+003
 -1.8605395E+003
 -1.8683358E+003
 -1.8563363E+003
 -1.8364883E+003
 -1.6811084E+003
 -1.2538397E+003
 -1.2741287E+002
 -8.0340577E+001
  5.6458296E+002
  7.6529117E+002
  8.4671551E+002
  8.9665011E+002
  9.3660071E+002
  9.7719562E+002
  1.0174022E+003
  1.0580249E+003
  1.0986667E+003
  1.1396644E+003
  1.1767033E+003
  1.2224686E+003
  4.4521946E+002
 -1.0599761E+003
 -1.6740316E+003
 -1.8544973E+003
 -1.9087559E+003
 -1.8976581E+003
 -1.8679745E+003
 -1.8325919E+003
 -1.7913614E+003
 -1.6689931E+003
 -1.3661891E+003
  7.7593668E+001
  3.9268038E+002
  6.3057920E+002
  7.3685200E+002
  8.1843115E+002
  8.7339588E+002
  9.2141810E+002
  9.6338696E+002
  1.0040290E+003
  1.0439396E+003
  1.0833401E+003
  1.1233232E+003
  1.1594119E+003
  1.2069527E+003
  6.3127058E+002
 -2.5939473E+003
 -2.2734564E+003
 -2.1414289E+003
 -2.0605330E+003
 -1.9706495E+003
 -1.8813110E+003
 -1.7954684E+003
 -1.7764507E+003
 -1.8142836E+003
 -2.6787845E+003
  8.1330840E+001
  5.4140936E+002
  6.5473651E+002
  7.4315778E+002
  8.1202124E+002
  8.6422023E+002
  9.0978101E+002
  9.5154055E+002
  9.9123308E+002
  1.0301099E+003
  1.0683701E+003
  1.1074049E+003
  1.1431784E+003
  1.1914849E+003
 -3.4409666E+003
 -2.4541342E+003
 -2.4593535E+003
 -2.2072790E+003
 -2.0511503E+003
 -1.8849436E+003
 -1.7180064E+003
 -1.6642002E+003
 -1.3761554E+003
 -2.0067642E+003
  6.7279402E+002
  7.2181605E+002
  7.7365432E+002
  8.1788213E+002
  8.6240278E+002
  9.0259911E+002
  9.4156288E+002
  9.7936375E+002
  1.0166392E+003
  1.0534798E+003
  1.0914720E+003
  1.1267210E+003
  1.1757053E+003
 -3.0995220E+003
 -2.9097920E+003
 -2.6032787E+003
 -2.3748300E+003
 -2.1178507E+003
 -1.8684743E+003
 -1.6355665E+003
 -1.3638806E+003
 -1.2441682E+003
 -7.7291821E+002
  7.3515857E+002
  8.0926791E+002
  7.9235885E+002
  8.3295932E+002
  8.6160640E+002
  8.9740354E+002
  9.3262481E+002
  9.6812354E+002
  1.0033520E+003
  1.0383591E+003
  1.0748666E+003
  1.1092448E+003
  1.1585817E+003
 -3.4777938E+003
 -3.1137391E+003
 -2.8423901E+003
 -2.5109982E+003
 -2.1872574E+003
 -1.8519252E+003
 -1.5121419E+003
 -1.1702280E+003
 -8.2605435E+002
 -3.4866878E+002
  1.1123726E+003
  7.6969666E+002
  8.4812900E+002
  8.2935950E+002
  8.6154092E+002
  8.9044251E+002
  9.2398990E+002
  9.5708418E+002
  9.9008995E+002
  1.0226698E+003
  1.0569387E+003
  1.0897526E+003
  1.1390790E+003
 -3.7731192E+003
 -3.4120919E+003
 -3.0651593E+003
 -2.6705675E+003
 -2.2587786E+003
 -1.8367794E+003
 -1.4084982E+003
 -9.5274205E+002
 -5.2064998E+002
  1.1983498E+002
  1.1367626E+003
  8.4444182E+002
  8.1768142E+002
  8.2368851E+002
  8.5158837E+002
  8.8241818E+002
  9.1484876E+002
  9.4645949E+002
  9.7695659E+002
  1.0062717E+003
  1.0369806E+003
  1.0667953E+003
  1.1153411E+003
 -4.1804655E+003
 -3.7341053E+003
 -3.3361942E+003
 -2.8407692E+003
 -2.3435663E+003
 -1.8308710E+003
 -1.3181545E+003
 -7.6198171E+002
 -2.4359654E+002
  5.3539790E+002
 -1.2156880E+002
 -7.6243975E+001
  5.0016252E+002
  6.8323149E+002
  7.5628276E+002
  8.0184014E+002
  8.3772785E+002
  8.7326112E+002
  9.0639018E+002
  9.3704640E+002
  9.6471871E+002
  9.8951832E+002
  1.0143416E+003
  1.0388122E+003
  1.0846487E+003
 -4.5473662E+003
 -4.2011426E+003
 -3.6274551E+003
 -3.0427269E+003
 -2.4298023E+003
 -1.8398396E+003
 -1.2379949E+003
 -6.2610769E+002
  4.6144222E+001
  8.5672766E+002
  3.3507986E+002
  5.5397662E+002
  6.4985922E+002
  7.2750385E+002
  7.8011320E+002
  8.2663313E+002
  8.6564462E+002
  9.0059102E+002
  9.3052097E+002
  9.5514440E+002
  9.7363076E+002
  9.8889124E+002
  1.0014875E+003
  1.0399998E+003
 -5.5486708E+003
 -4.6499838E+003
 -4.0580827E+003
 -3.2031038E+003
 -2.5295860E+003
 -1.8424717E+003
 -1.2027439E+003
 -4.5844218E+002
  7.7083399E+001
  1.5795510E+003
  4.6968555E+002
  5.6104795E+002
  6.5073330E+002
  7.1600771E+002
  7.7249587E+002
  8.2020266E+002
  8.6289640E+002
  8.9948824E+002
  9.2946144E+002
  9.5098535E+002
  9.6227403E+002
  9.6221226E+002
  9.5666532E+002
  9.7440654E+002
 -5.7154460E+003
 -5.9910722E+003
 -4.1495606E+003
 -3.4535181E+003
 -2.5517217E+003
 -1.8463614E+003
 -1.1667083E+003
 -4.6090038E+002
  2.9550997E+002
  1.7470283E+003
  5.3954901E+002
  6.3201462E+002
  6.5642134E+002
  7.2054029E+002
  7.7016959E+002
  8.2055344E+002
  8.6568227E+002
  9.0541416E+002
  9.3663925E+002
  9.5712277E+002
  9.6117862E+002
  9.4187449E+002
  8.8253212E+002
  8.4252198E+002
 -1.4341807E+004
 -4.6972989E+003
 -5.1025792E+003
 -3.2675455E+003
 -2.5441378E+003
 -1.7795993E+003
 -1.1487075E+003
 -5.3936359E+002
  5.5838595E+000
  4.2255356E+002
  7.8650704E+001
  3.9350366E+001
  7.9744546E+002
  6.0172837E+002
  6.9171328E+002
  7.1653593E+002
  7.7313835E+002
  8.2423737E+002
  8.7462174E+002
  9.1919141E+002
  9.5632592E+002
  9.7830631E+002
  9.8330890E+002
  9.5038926E+002
  8.7304797E+002
  6.3804664E+002
 -1.3780234E+004
 -5.4105039E+003
 -4.4422030E+003
 -2.9813611E+003
 -2.3041253E+003
 -1.6518453E+003
 -1.1004086E+003
 -5.7521837E+002
 -6.8908972E+001
  3.7590064E+002
  8.3885569E+002
  7.9136321E+002
  6.4681648E+002
  6.6861701E+002
  7.1402720E+002
  7.7244823E+002
  8.3118991E+002
  8.8836070E+002
  9.4143234E+002
  9.8750837E+002
  1.0259058E+003
  1.0419668E+003
  1.0022070E+003
  7.9690369E+002
 -9.2381691E+001
  1.7602151E+003
 -4.7059833E+003
 -2.3511493E+003
 -2.5240090E+003
 -1.8831766E+003
 -1.4717948E+003
 -1.0103234E+003
 -5.8208266E+002
 -1.1716350E+002
  2.0836550E+002
  1.0483012E+003
 -1.0757508E+002
 -6.4540037E+001
  3.6221247E+002
  5.3469062E+002
  6.2535858E+002
  7.0187080E+002
  7.7092324E+002
  8.3990855E+002
  9.0640555E+002
  9.6947218E+002
  1.0291198E+003
  1.0821641E+003
  1.1573770E+003
  1.2736725E+003
  1.8926688E+003
 -1.5351103E+002
  3.5310876E+003
 -1.0985166E+003
 -1.6337315E+003
 -1.7405952E+003
 -1.5438937E+003
 -1.2523135E+003
 -9.2165626E+002
 -5.7586480E+002
 -2.1733106E+002
  1.7910301E+002
  7.4981562E+002
  1.9555478E+002
  4.1228816E+002
  5.0274793E+002
  6.0636962E+002
  6.8878114E+002
  7.7158196E+002
  8.5039217E+002
  9.2826051E+002
  1.0014895E+003
  1.0754392E+003
  1.1258631E+003
  1.2317631E+003
  1.1045164E+003
  1.7168751E+003
  1.4343713E+002
 -8.1839921E+002
 -1.2194224E+003
 -1.3416843E+003
 -1.2630189E+003
 -1.0801217E+003
 -8.4415055E+002
 -5.8616244E+002
 -3.2754605E+002
 -9.5673225E+001
  5.8188649E+001
 -8.1922501E+001
 -9.5639527E+001
  3.9531465E+002
  3.7961894E+002
  5.0753561E+002
  5.9043798E+002
  6.8406581E+002
  7.7320421E+002
  8.6325051E+002
  9.5221522E+002
  1.0415192E+003
  1.1204513E+003
  1.1979890E+003
  1.2068208E+003
  1.2383692E+003
  9.0187366E+002
 -2.9574910E+002
 -1.1015190E+003
 -1.0621754E+003
 -1.1796131E+003
 -1.0875350E+003
 -9.6061120E+002
 -7.8790751E+002
 -6.0172571E+002
 -4.1410835E+002
 -2.4685633E+002
 -1.1367603E+002
 -9.5815488E+001
  4.3027635E+002
  4.1405184E+002
  4.8976675E+002
  5.8122456E+002
  6.7818093E+002
  7.7620398E+002
  8.7585280E+002
  9.7834709E+002
  1.0828851E+003
  1.1935868E+003
  1.2843970E+003
  1.3172799E+003
  1.0795006E+003
 -8.6942190E+001
 -2.9416754E+003
 -7.4747024E+002
 -1.3127847E+003
 -1.0360939E+003
 -9.9851308E+002
 -8.7437636E+002
 -7.5039750E+002
 -6.1307476E+002
 -4.8176523E+002
 -3.6607964E+002
 -2.9866747E+002
 -2.0950897E+002
 -2.8688053E+002
 -1.4196946E+002
 -5.7313451E+001
 -4.2702131E+001
  2.0956290E+002
  3.4968882E+002
  4.6051266E+002
  5.6705175E+002
  6.7129458E+002
  7.7736203E+002
  8.8628151E+002
  1.0001052E+003
  1.1245589E+003
  1.2603226E+003
  1.4526186E+003
  1.7116021E+003
  2.6184413E+003
 -2.2842547E+002
 -1.8513373E+003
 -1.8395149E+003
 -1.0424589E+003
 -1.0126012E+003
 -8.9668531E+002
 -8.1533393E+002
 -7.1854361E+002
 -6.2208883E+002
 -5.3024646E+002
 -4.5646324E+002
 -3.9361162E+002
 -3.9014411E+002
 -2.3826339E+002
 -3.2316329E+002
  2.2914852E+001
  6.9769733E+001
  1.9555119E+002
  3.2219276E+002
  4.3895310E+002
  5.5149093E+002
  6.6335177E+002
  7.7547342E+002
  8.9157891E+002
  1.0126271E+003
  1.1515176E+003
  1.2880059E+003
  1.5481689E+003
  1.5619617E+003
  2.5764867E+003
  1.1808955E+003
 -5.5191838E+002
  5.4411586E+002
 -9.5080002E+002
 -8.3994412E+002
 -8.8674904E+002
 -8.1253555E+002
 -7.5806913E+002
 -6.9044050E+002
 -6.2475347E+002
 -5.6481462E+002
 -5.1935406E+002
 -4.9515105E+002
 -5.0623340E+002
 -5.7442120E+002
 -8.6365238E+002
 -1.2813113E+002
 -1.3688428E+002
  1.1431785E+001
  1.6691055E+002
  2.9811236E+002
  4.2168034E+002
  5.3878734E+002
  6.5419641E+002
  7.7041923E+002
  8.8963554E+002
  1.0159546E+003
  1.1496450E+003
  1.3083766E+003
  1.4503982E+003
  1.7084598E+003
  1.7922632E+003
 -8.1675233E+002
 -8.0209656E+002
 -7.3790584E+002
 -7.7533229E+002
 -7.5582692E+002
 -7.4143679E+002
 -7.0374083E+002
 -6.6299266E+002
 -6.2097138E+002
 -5.8530247E+002
 -5.6135887E+002
 -5.6027273E+002
 -5.7898685E+002
 -6.6357399E+002
 -7.0153389E+002
 -1.3824806E+003
 -3.4287629E+002
 -2.0293438E+002
 -2.2666895E+002
 -1.1680149E+002
  2.8838230E+001
  1.5721682E+002
  2.8661174E+002
  4.0890598E+002
  5.2775028E+002
  6.4461563E+002
  7.6189505E+002
  8.8200269E+002
  1.0066988E+003
  1.1406171E+003
  1.2781224E+003
  1.4414382E+003
  1.5721970E+003
  1.7625487E+003
 -1.0070619E+003
 -6.7991186E+002
 -6.3389324E+002
 -6.7099972E+002
 -6.8137424E+002
 -6.7381752E+002
 -6.5803634E+002
 -6.3494546E+002
 -6.1159221E+002
 -5.9290557E+002
 -5.8451452E+002
 -5.9250116E+002
 -6.1990158E+002
 -6.8993939E+002
 -7.5282806E+002
 -8.9899767E+002
 -5.9295452E+002
 -4.1293040E+002
 -1.3940486E+003
  2.6287200E+001
 -3.2306437E+002
 -3.2503476E+002
 -2.3724622E+002
 -1.0425583E+002
  2.2391059E+001
  1.5431379E+002
  2.7927981E+002
  4.0062020E+002
  5.1842077E+002
  6.3456886E+002
  7.5078722E+002
  8.6887958E+002
  9.9105639E+002
  1.1179208E+003
  1.2535096E+003
  1.3919478E+003
  1.5312171E+003
  1.6634529E+003
  1.7422452E+002
 -3.2833118E+002
 -5.3158110E+002
 -5.8884877E+002
 -6.1523168E+002
 -6.2197378E+002
 -6.1741824E+002
 -6.0786957E+002
 -5.9728299E+002
 -5.9031435E+002
 -5.9108386E+002
 -6.0355446E+002
 -6.3173626E+002
 -6.7381884E+002
 -7.2818077E+002
 -8.0254436E+002
 -8.0451373E+002
 -9.0313795E+002
 -7.4332283E+002
 -2.9118305E+002
 -1.8912675E+003
  1.1525995E+002
 -2.4619341E+002
 -9.8035772E+002
 -3.8279158E+002
 -2.6256753E+002
 -1.0303444E+002
  2.6637810E+001
  1.5454792E+002
  2.7695122E+002
  3.9544298E+002
  5.1084445E+002
  6.2444611E+002
  7.3764033E+002
  8.5212062E+002
  9.6904750E+002
  1.0917265E+003
  1.2160952E+003
  1.3579517E+003
  1.4771727E+003
  1.6553829E+003
 -2.6012921E+002
 -4.5379381E+002
 -4.8303299E+002
 -5.4295028E+002
 -5.6730386E+002
 -5.7969693E+002
 -5.8280209E+002
 -5.8152711E+002
 -5.7945524E+002
 -5.7986778E+002
 -5.8584586E+002
 -6.0005849E+002
 -6.2394848E+002
 -6.5821956E+002
 -7.0210528E+002
 -7.3942356E+002
 -7.7754811E+002
 -8.7174016E+002
 -9.2306098E+002
 -1.0977908E+003
 -9.3558544E+002
 -1.5997190E+003
 -9.5906289E+002
 -9.3649542E+002
 -8.6654957E+002
 -7.3851583E+002
 -7.9257273E+002
  7.3769844E+001
 -1.9747030E+003
  1.3968326E+002
  8.3985764E+001
 -1.3827268E+003
 -4.8450021E+002
 -2.6024032E+002
 -6.0967804E+002
 -3.7574383E+002
 -2.4396545E+002
 -9.4307178E+001
  3.4859738E+001
  1.5971857E+002
  2.7848199E+002
  3.9337386E+002
  5.0505976E+002
  6.1467700E+002
  7.2337864E+002
  8.3225623E+002
  9.4342275E+002
  1.0566476E+003
  1.1822638E+003
  1.2972594E+003
  1.4768223E+003
  1.5880366E+003
 -1.2174034E+002
 -9.9043207E+002
 -5.2486731E+002
 -4.8962295E+002
 -4.9729347E+002
 -5.1619052E+002
 -5.3423077E+002
 -5.4595087E+002
 -5.5245537E+002
 -5.5606874E+002
 -5.5909439E+002
 -5.6386057E+002
 -5.7244029E+002
 -5.8648427E+002
 -6.0698499E+002
 -6.3407000E+002
 -6.6500109E+002
 -7.0033492E+002
 -7.4143147E+002
 -7.7974075E+002
 -8.3138189E+002
 -9.2280799E+002
 -9.3699662E+002
 -8.4266336E+002
 -8.5292515E+002
 -8.9245574E+002
 -1.1850821E+003
 -1.0440837E+003
 -1.8969555E+003
 -1.1261216E+003
 -1.2259469E+003
 -9.8654631E+002
 -1.0958654E+003
 -9.1638068E+002
 -9.0415516E+002
 -8.4064156E+002
 -7.7019425E+002
 -7.9218091E+002
 -6.6213001E+002
 -7.5131256E+002
 -6.0830183E+002
 -7.3130923E+002
 -5.9971717E+002
 -7.2809947E+002
 -6.5516101E+002
 -7.8880188E+002
 -7.0607997E+002
 -7.1671677E+002
 -1.1518329E+003
 -7.9200691E+002
 -6.1945834E+002
 -5.0142491E+002
 -3.4754578E+002
 -2.0585845E+002
 -7.4761971E+001
  5.0860041E+001
  1.6993137E+002
  2.8421251E+002
  3.9439291E+002
  5.0135153E+002
  6.0588749E+002
  7.0870791E+002
  8.1104757E+002
  9.1250712E+002
  1.0200762E+003
  1.1184797E+003
  1.2880016E+003
  1.2981012E+003
  1.9724017E+003
 -7.4959303E+002
 -6.0703050E+002
 -4.7933293E+002
 -4.8850117E+002
 -4.9605114E+002
 -5.0775650E+002
 -5.1739135E+002
 -5.2504847E+002
 -5.3114638E+002
 -5.3701503E+002
 -5.4404149E+002
 -5.5355520E+002
 -5.6657242E+002
 -5.8364096E+002
 -6.0442703E+002
 -6.2839738E+002
 -6.5424970E+002
 -6.8133408E+002
 -7.1197152E+002
 -7.4610441E+002
 -7.6438973E+002
 -7.5928341E+002
 -7.5935741E+002
 -7.5582727E+002
 -8.0509457E+002
 -9.1671189E+002
 -9.8314131E+002
 -9.1429942E+002
 -9.1906013E+002
 -8.8938270E+002
 -8.8502288E+002
 -8.5127368E+002
 -8.2998423E+002
 -7.9730268E+002
 -7.6646908E+002
 -7.3037343E+002
 -7.4739089E+002
 -6.7660614E+002
 -5.3718885E+002
 -4.2146320E+002
 -2.9732953E+002
 -1.6877153E+002
 -4.5524010E+001
  7.2256306E+001
  1.8533325E+002
  2.9392466E+002
  3.9866509E+002
  5.0008429E+002
  5.9870871E+002
  6.9497960E+002
  7.8920431E+002
  8.8149334E+002
  9.7180748E+002
  1.0603324E+003
  1.1556934E+003
  1.2859850E+003
  1.6388823E+003
  1.6388013E+002
 -2.8715072E+002
 -4.5316908E+002
 -4.6535849E+002
 -4.7479389E+002
 -4.8263708E+002
 -4.9116676E+002
 -4.9911059E+002
 -5.0648794E+002
 -5.1377073E+002
 -5.2174605E+002
 -5.3118309E+002
 -5.4265451E+002
 -5.5633882E+002
 -5.7201718E+002
 -5.8897487E+002
 -6.0644273E+002
 -6.2354578E+002
 -6.3926071E+002
 -6.5083723E+002
 -6.5688855E+002
 -6.5010181E+002
 -6.3220502E+002
 -6.2668948E+002
 -6.4842537E+002
 -6.8802303E+002
 -7.2401364E+002
 -7.7260346E+002
 -8.2453274E+002
 -8.9804528E+002
 -8.9879660E+002
 -9.8629385E+002
 -9.5459490E+002
 -8.5068917E+002
 -7.9080318E+002
 -7.3605302E+002
 -6.5763049E+002
 -5.7825672E+002
 -4.7831709E+002
 -3.6079204E+002
 -2.4367757E+002
 -1.2664461E+002
 -1.1858521E+001
  9.8758542E+001
  2.0513772E+002
  3.0753831E+002
  4.0624978E+002
  5.0161250E+002
  5.9389832E+002
  6.8325325E+002
  7.6951433E+002
  8.5196825E+002
  9.2803051E+002
  9.9230244E+002
  1.0220372E+003
  9.7279482E+002
  6.7280496E+002
 -2.5461421E+002
 -3.2965675E+002
 -8.7543218E+002
 -5.7593321E+002
 -4.7031406E+002
 -4.5138593E+002
 -4.5060062E+002
 -4.5700991E+002
 -4.6532366E+002
 -4.7379354E+002
 -4.8191637E+002
 -4.8984616E+002
 -4.9799455E+002
 -5.0678765E+002
 -5.1648769E+002
 -5.2708645E+002
 -5.3822096E+002
 -5.4921368E+002
 -5.5905859E+002
 -5.6660851E+002
 -5.7020303E+002
 -5.6766861E+002
 -5.5512127E+002
 -5.3223669E+002
 -5.0235969E+002
 -4.7628603E+002
 -4.6194516E+002
 -4.7659491E+002
 -5.1752078E+002
 -5.9750990E+002
 -7.6558491E+002
 -8.2878441E+002
 -1.0182820E+003
 -9.5500821E+002
 -1.0883358E+003
 -9.1562397E+002
 -8.3302285E+002
 -7.1909067E+002
 -6.2345184E+002
 -5.2307218E+002
 -4.1392696E+002
 -3.0333700E+002
 -1.9127812E+002
 -8.1198936E+001
  2.5894733E+001
  1.2936087E+002
  2.2896139E+002
  3.2483526E+002
  4.1719118E+002
  5.0621227E+002
  5.9201405E+002
  6.7457626E+002
  7.5363686E+002
  8.2835163E+002
  8.9658330E+002
  9.5222901E+002
  9.7784466E+002
  9.2330247E+002
  6.5466159E+002
 -2.3409162E+002
 -1.0317254E+003
 -5.6915331E+002
 -4.4332308E+002
 -4.1710635E+002
 -4.2050198E+002
 -4.2931086E+002
 -4.3937371E+002
 -4.4882970E+002
 -4.5755283E+002
 -4.6570880E+002
 -4.7360373E+002
 -4.8148121E+002
 -4.8942579E+002
 -4.9727696E+002
 -5.0458324E+002
 -5.1056543E+002
 -5.1412951E+002
 -5.1374516E+002
 -5.0739768E+002
 -4.9235538E+002
 -4.6591116E+002
 -4.2532043E+002
 -3.7187965E+002
 -3.0103065E+002
 -2.5149458E+002
 -2.2706621E+002
 -3.2611618E+002
 -3.0744806E+002
 -7.0845255E+002
 -1.0098066E+003
 -9.4355806E+002
 -1.5510020E+003
 -1.8063352E+003
 -6.8154988E+002
 -8.9891839E+002
 -6.8466158E+002
 -5.9022441E+002
 -4.6810137E+002
 -3.5762820E+002
 -2.4543069E+002
 -1.3741153E+002
 -3.2939093E+001
  6.7395410E+001
  1.6381349E+002
  2.5649911E+002
  3.4565639E+002
  4.3146715E+002
  5.1402935E+002
  5.9335561E+002
  6.6938186E+002
  7.4201231E+002
  8.1110701E+002
  8.7705416E+002
  9.4013573E+002
  1.0141163E+003
  1.1163436E+003
  1.4855663E+003
 -2.6127226E+002
  1.3715969E+002
 -1.7896688E+002
 -3.2824008E+002
 -3.6162898E+002
 -3.8490410E+002
 -4.0105104E+002
 -4.1401853E+002
 -4.2464599E+002
 -4.3375805E+002
 -4.4183770E+002
 -4.4923009E+002
 -4.5610762E+002
 -4.6245234E+002
 -4.6801445E+002
 -4.7227015E+002
 -4.7438251E+002
 -4.7313184E+002
 -4.6683554E+002
 -4.5317270E+002
 -4.2903483E+002
 -3.9031103E+002
 -3.3170902E+002
 -2.4711738E+002
 -1.4128968E+002
 -6.3391043E+000
  1.0130316E+002
  4.6004383E+001
  1.2272361E+002
  2.0471531E+002
  1.5372858E+002
 -3.0620737E+002
 -1.2539523E+003
 -6.1841996E+002
 -5.5301667E+002
 -4.0946181E+002
 -2.9830448E+002
 -1.8484238E+002
 -7.9642150E+001
  1.9266089E+001
  1.1278409E+002
  2.0203295E+002
  2.8756484E+002
  3.6982641E+002
  4.4899409E+002
  5.2507938E+002
  5.9800579E+002
  6.6754938E+002
  7.3407283E+002
  7.9676620E+002
  8.6221460E+002
  9.1781089E+002
  1.0394498E+003
  1.0202282E+003
  1.6160497E+003
  1.4936337E+002
 -1.8258106E+002
 -2.4503084E+002
 -3.2133831E+002
 -3.5426359E+002
 -3.7642595E+002
 -3.9089107E+002
 -4.0200547E+002
 -4.1098252E+002
 -4.1865282E+002
 -4.2536826E+002
 -4.3126434E+002
 -4.3626026E+002
 -4.4005784E+002
 -4.4210789E+002
 -4.4156124E+002
 -4.3719323E+002
 -4.2728719E+002
 -4.0941070E+002
 -3.8025590E+002
 -3.3448492E+002
 -2.6576052E+002
 -1.5276544E+002
  2.4727052E+001
  4.6198658E+002
  1.4206135E+002
 -3.5824232E+002
 -4.9746938E+002
 -4.6752771E+002
 -3.6095670E+002
 -2.3505762E+002
 -1.1687998E+002
 -1.5612525E+001
  7.6619559E+001
  1.6262384E+002
  2.4393592E+002
  3.2192499E+002
  3.9709107E+002
  4.6959963E+002
  5.3931975E+002
  6.0593930E+002
  6.6914456E+002
  7.2857437E+002
  7.8512255E+002
  8.3828848E+002
  8.9888633E+002
  9.4816363E+002
  1.0654862E+003
  1.1200894E+003
  1.2833594E+002
 -1.8732851E+002
 -2.3808597E+002
 -3.0917933E+002
 -3.3795328E+002
 -3.5827686E+002
 -3.7130525E+002
 -3.8139591E+002
 -3.8951743E+002
 -3.9640936E+002
 -4.0232245E+002
 -4.0731798E+002
 -4.1126480E+002
 -4.1384886E+002
 -4.1454205E+002
 -4.1256325E+002
 -4.0678452E+002
 -3.9569464E+002
 -3.7692710E+002
 -3.4799567E+002
 -3.0187373E+002
 -2.4024294E+002
 -1.2134416E+002
 -4.4265344E+001
  3.3608350E+002
 -5.0680712E+002
 -4.6185918E+002
 -3.1213354E+002
 -1.5108224E+002
 -3.7410314E+001
  5.7199328E+001
  1.4113813E+002
  2.1692489E+002
  2.8925875E+002
  3.5908337E+002
  4.2702138E+002
  4.9299906E+002
  5.5664945E+002
  6.1735309E+002
  6.7429653E+002
  7.2676267E+002
  7.7386179E+002
  8.1691861E+002
  8.5351674E+002
  8.9966481E+002
  9.3455111E+002
  1.0208942E+003
 -6.3596190E+001
 -1.7152443E+002
 -3.0884890E+002
 -3.1837841E+002
 -3.3554043E+002
 -3.4573537E+002
 -3.5499512E+002
 -3.6261720E+002
 -3.6929684E+002
 -3.7512958E+002
 -3.8019207E+002
 -3.8441710E+002
 -3.8763105E+002
 -3.8952854E+002
 -3.8965103E+002
 -3.8734721E+002
 -3.8173436E+002
 -3.7157656E+002
 -3.5532443E+002
 -3.3030955E+002
 -2.9458563E+002
 -2.3871814E+002
 -1.7279464E+002
 -4.8127510E+001
  9.1119889E+001
 -4.2016376E+002
 -3.8668713E+002
 -2.8434921E+001
  5.6246482E+001
  1.4832519E+002
  2.1132915E+002
  2.7538524E+002
  3.3685803E+002
  3.9818176E+002
  4.5889588E+002
  5.1873000E+002
  5.7693947E+002
  6.3249698E+002
  6.8404018E+002
  7.2982518E+002
  7.6804206E+002
  7.9642807E+002
  8.1526173E+002
  8.2372108E+002
  8.3282201E+002
  8.5181779E+002
 -1.0359425E+003
 -4.9330521E+002
 -3.8170153E+002
 -3.3828984E+002
 -3.3470785E+002
 -3.3554085E+002
 -3.3998618E+002
 -3.4487948E+002
 -3.4989693E+002
 -3.5462488E+002
 -3.5889577E+002
 -3.6252670E+002
 -3.6531259E+002
 -3.6698340E+002
 -3.6718214E+002
 -3.6544935E+002
 -3.6118407E+002
 -3.5370085E+002
 -3.4192643E+002
 -3.2541325E+002
 -3.0040055E+002
 -2.7355059E+002
 -2.0993058E+002
 -2.0143843E+002
  9.3986561E+000
  2.4848624E+002
  1.8739118E+002
  2.1161239E+002
  2.4266597E+002
  2.8705037E+002
  3.3442099E+002
  3.8511382E+002
  4.3774220E+002
  4.9168961E+002
  5.4608139E+002
  5.9987923E+002
  6.5168176E+002
  6.9949118E+002
  7.4060664E+002
  7.7135700E+002
  7.8726933E+002
  7.8350842E+002
  7.5918523E+002
  7.1260448E+002
  6.6552428E+002
 -5.7106414E+002
 -4.7574958E+002
 -3.5536285E+002
 -3.3955012E+002
 -3.2536727E+002
 -3.2345676E+002
 -3.2421805E+002
 -3.2715254E+002
 -3.3076668E+002
 -3.3458861E+002
 -3.3823868E+002
 -3.4148245E+002
 -3.4410977E+002
 -3.4590952E+002
 -3.4664951E+002
 -3.4606796E+002
 -3.4391323E+002
 -3.3989050E+002
 -3.3409875E+002
 -3.2589815E+002
 -3.1906107E+002
 -3.0431563E+002
 -3.2490869E+002
 -2.2629233E+002
 -4.3341515E+002
  7.0130504E+002
  3.4667507E+002
  3.4264259E+002
  3.3094237E+002
  3.5806722E+002
  3.9073597E+002
  4.3130367E+002
  4.7603130E+002
  5.2403347E+002
  5.7403387E+002
  6.2483143E+002
  6.7481285E+002
  7.2173118E+002
  7.6175813E+002
  7.8961861E+002
  7.9762712E+002
  7.7277036E+002
  6.9474721E+002
  5.9620971E+002
  4.5297953E+002
  1.1396999E+002
 -2.1200838E+002
 -3.2189964E+002
 -3.1562765E+002
 -3.1067807E+002
 -3.0680925E+002
 -3.0681293E+002
 -3.0861716E+002
 -3.1147547E+002
 -3.1471896E+002
 -3.1799362E+002
 -3.2105580E+002
 -3.2373572E+002
 -3.2589797E+002
 -3.2743544E+002
 -3.2828037E+002
 -3.2844889E+002
 -3.2810255E+002
 -3.2777058E+002
 -3.2838797E+002
 -3.3288500E+002
 -3.4419329E+002
 -3.8331341E+002
 -4.7250279E+002
 -8.3987882E+002
  3.9591682E+001
  7.6858835E+000
  4.0941544E+002
  3.9602995E+002
  4.0664340E+002
  4.0528433E+002
  4.1746482E+002
  4.4100458E+002
  4.7289021E+002
  5.1118297E+002
  5.5434878E+002
  6.0120827E+002
  6.5059955E+002
  7.0109220E+002
  7.5050196E+002
  7.9557195E+002
  8.2841086E+002
  8.3744229E+002
  8.1989177E+002
  7.2382222E+002
  5.0172186E+002
 -1.8335999E+000
 -6.0510143E+002
 -4.0688034E+002
 -3.1763368E+002
 -2.9924359E+002
 -2.8967162E+002
 -2.8711237E+002
 -2.8724052E+002
 -2.8910556E+002
 -2.9177951E+002
 -2.9482839E+002
 -2.9796231E+002
 -3.0101399E+002
 -3.0388086E+002
 -3.0651309E+002
 -3.0891579E+002
 -3.1117415E+002
 -3.1349978E+002
 -3.1633090E+002
 -3.2043795E+002
 -3.2734228E+002
 -3.3917404E+002
 -3.6134669E+002
 -3.9699118E+002
 -4.4865492E+002
 -5.0035837E+002
 -5.1898606E+002
 -4.0048335E+002
  6.9346793E+002
  4.6476534E+002
  5.1553900E+002
  4.6630556E+002
  4.6248798E+002
  4.6613302E+002
  4.8255823E+002
  5.0815548E+002
  5.4143117E+002
  5.8097450E+002
  6.2584858E+002
  6.7528902E+002
  7.2847085E+002
  7.8407167E+002
  8.3933386E+002
  8.9243893E+002
  9.2094910E+002
  8.8892119E+002
  7.3412689E+002
  4.1608118E+002
  2.4249921E+002
 -6.6784841E+002
 -3.6963777E+002
 -2.9288482E+002
 -2.6779991E+002
 -2.6414265E+002
 -2.6409357E+002
 -2.6611069E+002
 -2.6873619E+002
 -2.7172544E+002
 -2.7485157E+002
 -2.7801627E+002
 -2.8115819E+002
 -2.8426206E+002
 -2.8735883E+002
 -2.9054276E+002
 -2.9399986E+002
 -2.9805755E+002
 -3.0324868E+002
 -3.1044348E+002
 -3.2088385E+002
 -3.3664898E+002
 -3.5958356E+002
 -3.9260177E+002
 -4.4104802E+002
 -4.9189258E+002
 -5.1454781E+002
 -5.4143182E+002
 -5.5517696E+002
  1.1877516E+003
  6.2453373E+002
  5.8264992E+002
  5.1885735E+002
  5.0577655E+002
  5.0290163E+002
  5.1463769E+002
  5.3575585E+002
  5.6538806E+002
  6.0226076E+002
  6.4590413E+002
  6.9623092E+002
  7.5349781E+002
  8.1800575E+002
  8.8928355E+002
  9.6252551E+002
  1.0632678E+003
  1.1677933E+003
  1.7337858E+003
  2.8650015E+002
  7.9590914E+001
 -1.1788066E+002
 -2.0765915E+002
 -2.2433085E+002
 -2.3396158E+002
 -2.3976676E+002
 -2.4427111E+002
 -2.4805742E+002
 -2.5152527E+002
 -2.5484005E+002
 -2.5809250E+002
 -2.6134106E+002
 -2.6465067E+002
 -2.6811790E+002
 -2.7189617E+002
 -2.7622612E+002
 -2.8147278E+002
 -2.8817821E+002
 -2.9710105E+002
 -3.0930864E+002
 -3.2601719E+002
 -3.4876078E+002
 -3.7903231E+002
 -4.1455239E+002
 -4.5212932E+002
 -4.9151569E+002
 -5.4135677E+002
 -5.7818993E+002
 -5.8607759E+002
 -2.4417455E+001
  4.0557935E+002
  4.9423266E+002
  6.4747130E+002
  5.7664255E+002
  5.5223647E+002
  5.3051473E+002
  5.2807437E+002
  5.3647460E+002
  5.5506951E+002
  5.8202757E+002
  6.1677681E+002
  6.5926762E+002
  7.1011369E+002
  7.7139697E+002
  8.4453694E+002
  9.3881737E+002
  1.0351998E+003
  1.1567577E+003
  9.1918683E+002
  4.3246473E+002
  9.0421740E+001
 -1.1297343E+002
 -1.4601072E+002
 -1.8989162E+002
 -2.0649451E+002
 -2.1694905E+002
 -2.2310757E+002
 -2.2770690E+002
 -2.3147211E+002
 -2.3488920E+002
 -2.3817102E+002
 -2.4146210E+002
 -2.4488115E+002
 -2.4856522E+002
 -2.5269707E+002
 -2.5753232E+002
 -2.6342786E+002
 -2.7086827E+002
 -2.8049550E+002
 -2.9309294E+002
 -3.0959470E+002
 -3.3094967E+002
 -3.5764061E+002
 -3.8988492E+002
 -4.2665859E+002
 -4.6850734E+002
 -5.1656713E+002
 -5.8362296E+002
 -6.2905324E+002
 -6.5229910E+002
  1.3010201E+003
  7.8174907E+002
  6.5621369E+002
  5.8580040E+002
  5.5721025E+002
  5.4256429E+002
  5.4046274E+002
  5.4873772E+002
  5.6585550E+002
  5.9091400E+002
  6.2357067E+002
  6.6414252E+002
  7.1399766E+002
  7.7553343E+002
  8.5563655E+002
  9.6030875E+002
  1.1347482E+003
  1.3896957E+003
  2.3893259E+003
 -1.3126878E+002
  7.2921298E+001
 -1.0285710E+002
 -1.3346357E+002
 -1.7226882E+002
 -1.8752449E+002
 -1.9763164E+002
 -2.0363356E+002
 -2.0812470E+002
 -2.1177054E+002
 -2.1506569E+002
 -2.1823859E+002
 -2.2145339E+002
 -2.2484553E+002
 -2.2856361E+002
 -2.3279283E+002
 -2.3777617E+002
 -2.4383241E+002
 -2.5137195E+002
 -2.6090098E+002
 -2.7302155E+002
 -2.8838657E+002
 -3.0762742E+002
 -3.3119868E+002
 -3.5948050E+002
 -3.9254634E+002
 -4.3499220E+002
 -4.8319647E+002
 -5.8278511E+002
 -6.5469760E+002
 -1.4005478E+003
 -4.4941432E+002
  3.7726861E+002
  8.1732380E+002
  6.2202240E+002
  6.3510588E+002
  5.9810645E+002
  5.7031291E+002
  5.4891510E+002
  5.4139204E+002
  5.4267880E+002
  5.5208428E+002
  5.6874044E+002
  5.9220136E+002
  6.2245764E+002
  6.5977637E+002
  7.0616025E+002
  7.6152012E+002
  8.4137295E+002
  9.1863581E+002
  1.1559923E+003
  1.0702565E+003
  2.2716639E+003
 -3.6097801E+001
 -8.7865627E+001
 -1.6324585E+002
 -1.6750779E+002
 -1.7660768E+002
 -1.8151366E+002
 -1.8584938E+002
 -1.8931285E+002
 -1.9242789E+002
 -1.9535637E+002
 -1.9826316E+002
 -2.0126559E+002
 -2.0448287E+002
 -2.0804965E+002
 -2.1213311E+002
 -2.1694518E+002
 -2.2275283E+002
 -2.2988374E+002
 -2.3872628E+002
 -2.4971756E+002
 -2.6331411E+002
 -2.7995890E+002
 -3.0002585E+002
 -3.2404043E+002
 -3.5260178E+002
 -3.8809472E+002
 -4.3160576E+002
 -4.9911596E+002
 -5.6184929E+002
 -6.8900102E+002
 -3.6879389E+002
 -9.8263089E+002
 -3.4468170E+002
 -3.5484140E+002
 -4.7307367E+001
 -2.7295913E+002
  4.8765684E+001
  2.5746514E+002
  4.1851897E+002
  5.2183337E+002
  5.5106743E+002
  5.3828114E+002
  5.3427019E+002
  5.3052401E+002
  5.3095851E+002
  5.3687313E+002
  5.4817142E+002
  5.6481129E+002
  5.8675852E+002
  6.1408228E+002
  6.4716325E+002
  6.8645866E+002
  7.3409842E+002
  7.8916426E+002
  8.6674402E+002
  9.3181655E+002
  1.1414799E+003
  1.3035123E+003
 -5.5482611E+002
 -2.5778696E+002
 -1.9158496E+002
 -1.6913958E+002
 -1.6668070E+002
 -1.6682027E+002
 -1.6873326E+002
 -1.7091048E+002
 -1.7325678E+002
 -1.7567235E+002
 -1.7819030E+002
 -1.8086247E+002
 -1.8376985E+002
 -1.8701820E+002
 -1.9074385E+002
 -1.9511797E+002
 -2.0034976E+002
 -2.0668646E+002
 -2.1440780E+002
 -2.2381291E+002
 -2.3519983E+002
 -2.4884060E+002
 -2.6498634E+002
 -2.8387733E+002
 -3.0593166E+002
 -3.3157114E+002
 -3.6174622E+002
 -3.9319476E+002
 -4.2300043E+002
 -4.3591203E+002
 -3.6925798E+002
 -1.7150584E+002
 -5.4871443E+001
  1.5849947E+002
  3.0966510E+002
  4.0162977E+002
  4.5702779E+002
  4.8539986E+002
  4.9773327E+002
  5.0672166E+002
  5.1530998E+002
  5.2565717E+002
  5.3891766E+002
  5.5558155E+002
  5.7591375E+002
  6.0004436E+002
  6.2798947E+002
  6.5969099E+002
  6.9447066E+002
  7.3152841E+002
  7.6433318E+002
  7.8660236E+002
  7.4273116E+002
  5.2044974E+002
 -1.4729822E+002
 -2.4716448E+002
 -2.6599111E+002
 -2.2433400E+002
 -1.6952100E+002
 -1.5983460E+002
 -1.5246259E+002
 -1.5113938E+002
 -1.5122773E+002
 -1.5240439E+002
 -1.5401000E+002
 -1.5589192E+002
 -1.5796310E+002
 -1.6022452E+002
 -1.6271555E+002
 -1.6550906E+002
 -1.6870577E+002
 -1.7243296E+002
 -1.7684244E+002
 -1.8210616E+002
 -1.8840767E+002
 -1.9592818E+002
 -2.0482709E+002
 -2.1522131E+002
 -2.2716340E+002
 -2.4063182E+002
 -2.5545483E+002
 -2.7118462E+002
 -2.8638515E+002
 -2.9804816E+002
 -3.0146557E+002
 -2.7413975E+002
 -1.9721946E+002
 -1.1028221E+002
  2.1077004E+001
  1.3548245E+002
  2.5736291E+002
  3.4823364E+002
  4.0517140E+002
  4.4174385E+002
  4.6608311E+002
  4.8332995E+002
  4.9772810E+002
  5.1155306E+002
  5.2625079E+002
  5.4267762E+002
  5.6126996E+002
  5.8215384E+002
  6.0512353E+002
  6.2946147E+002
  6.5356552E+002
  6.7393218E+002
  6.8333794E+002
  6.7105155E+002
  6.0703051E+002
  4.7020161E+002
  2.0506067E+002
  4.9588679E+001
 -9.3136138E+001
 -1.4083734E+002
 -1.3775956E+002
 -1.3526332E+002
 -1.3320651E+002
 -1.3288523E+002
 -1.3341530E+002
 -1.3450992E+002
 -1.3592048E+002
 -1.3754836E+002
 -1.3935719E+002
 -1.4135898E+002
 -1.4359667E+002
 -1.4613715E+002
 -1.4906581E+002
 -1.5248134E+002
 -1.5648877E+002
 -1.6118899E+002
 -1.6666388E+002
 -1.7295645E+002
 -1.8004513E+002
 -1.8781124E+002
 -1.9598449E+002
 -2.0404927E+002
 -2.1104133E+002
 -2.1520574E+002
 -2.1386579E+002
 -2.0046563E+002
 -1.6902857E+002
 -1.1431635E+002
 -3.1682813E+001
  5.6649489E+001
  1.5535123E+002
  2.4292577E+002
  3.1576377E+002
  3.7173234E+002
  4.1194613E+002
  4.4101085E+002
  4.6295507E+002
  4.8073789E+002
  4.9655063E+002
  5.1185482E+002
  5.2760148E+002
  5.4432303E+002
  5.6216700E+002
  5.8083893E+002
  5.9949332E+002
  6.1620102E+002
  6.2787436E+002
  6.2710195E+002
  6.0579177E+002
  5.3933196E+002
  4.1996263E+002
  2.1073421E+002
 -2.4176638E+002
 -1.6314037E+002
 -1.2466507E+002
 -1.1921291E+002
 -1.1526309E+002
 -1.1391722E+002
 -1.1352429E+002
 -1.1389651E+002
 -1.1468471E+002
 -1.1573606E+002
 -1.1695297E+002
 -1.1829767E+002
 -1.1976671E+002
 -1.2138158E+002
 -1.2318045E+002
 -1.2521192E+002
 -1.2752856E+002
 -1.3017868E+002
 -1.3319517E+002
 -1.3658046E+002
 -1.4028632E+002
 -1.4418707E+002
 -1.4804221E+002
 -1.5144120E+002
 -1.5371624E+002
 -1.5380439E+002
 -1.5012242E+002
 -1.4000168E+002
 -1.2024605E+002
 -8.6524647E+001
 -3.6853063E+001
  2.4856127E+001
  9.7565248E+001
  1.7116040E+002
  2.4219622E+002
  3.0395478E+002
  3.5396565E+002
  3.9308854E+002
  4.2321314E+002
  4.4671319E+002
  4.6574588E+002
  4.8206373E+002
  4.9701304E+002
  5.1154671E+002
  5.2625012E+002
  5.4133185E+002
  5.5659944E+002
  5.7133893E+002
  5.8436152E+002
  5.9321453E+002
  5.9565591E+002
  5.8068652E+002
  5.2925875E+002
  3.8593949E+002
 -6.6943842E+001
 -2.0021346E+002
 -1.2236682E+002
 -1.0443752E+002
 -9.5601801E+001
 -9.3980887E+001
 -9.3332405E+001
 -9.3477756E+001
 -9.3932563E+001
 -9.4602081E+001
 -9.5384383E+001
 -9.6230565E+001
 -9.7113941E+001
 -9.8028766E+001
 -9.8982605E+001
 -9.9991220E+001
 -1.0107295E+002
 -1.0224236E+002
 -1.0350206E+002
 -1.0483201E+002
 -1.0617531E+002
 -1.0741957E+002
 -1.0837250E+002
 -1.0872923E+002
 -1.0802816E+002
 -1.0559042E+002
 -1.0045246E+002
 -9.1235166E+001
 -7.6189636E+001
 -5.3128452E+001
 -2.0390308E+001
  2.2619968E+001
  7.5165838E+001
  1.3313806E+002
  1.9346670E+002
  2.5106959E+002
  3.0290980E+002
  3.4709436E+002
  3.8318878E+002
  4.1202857E+002
  4.3496232E+002
  4.5347495E+002
  4.6895404E+002
  4.8259035E+002
  4.9532315E+002
  5.0779600E+002
  5.2032417E+002
  5.3285759E+002
  5.4507053E+002
  5.5623413E+002
  5.6649313E+002
  5.7457371E+002
  5.9372972E+002
  6.3015146E+002
  8.7795502E+002
 -9.0378180E+001
  2.9647185E+001
 -3.9403762E+001
 -6.4027866E+001
 -6.9230939E+001
 -7.1151318E+001
 -7.2250064E+001
 -7.3070413E+001
 -7.3770255E+001
 -7.4401120E+001
 -7.4969257E+001
 -7.5470313E+001
 -7.5898673E+001
 -7.6251751E+001
 -7.6528877E+001
 -7.6728928E+001
 -7.6846363E+001
 -7.6865852E+001
 -7.6755065E+001
 -7.6455206E+001
 -7.5868761E+001
 -7.4843911E+001
 -7.3154930E+001
 -7.0477860E+001
 -6.6360744E+001
 -6.0190767E+001
 -5.1154428E+001
 -3.8232626E+001
 -2.0210790E+001
  4.0828926E+000
  3.5535214E+001
  7.4184964E+001
  1.1880455E+002
  1.6755411E+002
  2.1738254E+002
  2.6564157E+002
  3.0979958E+002
  3.4828607E+002
  3.8053208E+002
  4.0673496E+002
  4.2763335E+002
  4.4424507E+002
  4.5769301E+002
  4.6907536E+002
  4.7936351E+002
  4.8929360E+002
  4.9931527E+002
  5.0948022E+002
  5.1980663E+002
  5.2938166E+002
  5.4104421E+002
  5.4711093E+002
  5.8921366E+002
  5.4976745E+002
  8.4109695E+002
  2.3583042E+001
 -2.9030905E+001
 -3.3742025E+001
 -4.5407963E+001
 -4.8984545E+001
 -5.1466596E+001
 -5.2776138E+001
 -5.3678603E+001
 -5.4260343E+001
 -5.4620423E+001
 -5.4781739E+001
 -5.4758278E+001
 -5.4550496E+001
 -5.4152199E+001
 -5.3549289E+001
 -5.2717778E+001
 -5.1619666E+001
 -5.0197166E+001
 -4.8365030E+001
 -4.6000836E+001
 -4.2933132E+001
 -3.8927442E+001
 -3.3670439E+001
 -2.6753568E+001
 -1.7657814E+001
 -5.7496775E+000
  9.7055500E+000
  2.9468426E+001
  5.4203386E+001
  8.4233210E+001
  1.1933952E+002
  1.5865809E+002
  2.0056495E+002
  2.4316567E+002
  2.8433666E+002
  3.2229154E+002
  3.5571744E+002
  3.8390467E+002
  4.0673954E+002
  4.2458849E+002
  4.3818228E+002
  4.4850235E+002
  4.5666309E+002
  4.6375929E+002
  4.7071914E+002
  4.7812018E+002
  4.8616165E+002
  4.9455644E+002
  5.0326152E+002
  5.1076972E+002
  5.2202891E+002
  5.2190070E+002
  5.6153782E+002
  5.3305282E+002
  1.2972137E+001
 -6.2275875E+000
 -1.9169515E+001
 -2.4718616E+001
 -2.9125698E+001
 -3.1454518E+001
 -3.2983330E+001
 -3.3874638E+001
 -3.4348988E+001
 -3.4465694E+001
 -3.4277634E+001
 -3.3801471E+001
 -3.3039658E+001
 -3.1980121E+001
 -3.0598322E+001
 -2.8855884E+001
 -2.6697979E+001
 -2.4049065E+001
 -2.0807196E+001
 -1.6836979E+001
 -1.1961417E+001
 -5.9531024E+000
  1.4743134E+000
  1.0672790E+001
  2.2061025E+001
  3.6115211E+001
  5.3337182E+001
  7.4194396E+001
  9.9013222E+001
  1.2785715E+002
  1.6039526E+002
  1.9582945E+002
  2.3297071E+002
  2.7030077E+002
  3.0624713E+002
  3.3933285E+002
  3.6838252E+002
  3.9262356E+002
  4.1172367E+002
  4.2579737E+002
  4.3539665E+002
  4.4147725E+002
  4.4530736E+002
  4.4830481E+002
  4.5169654E+002
  4.5632154E+002
  4.6237776E+002
  4.6946199E+002
  4.7652124E+002
  4.8280010E+002
  4.8490989E+002
  4.8679791E+002
  4.7809223E+002
  4.7494473E+002
  5.3380999E+000
 -3.9274657E+000
 -3.6270140E+000
 -8.4707870E+000
 -1.0464180E+001
 -1.2506505E+001
 -1.3733386E+001
 -1.4525252E+001
 -1.4779813E+001
 -1.4617072E+001
 -1.4059780E+001
 -1.3130416E+001
 -1.1826540E+001
 -1.0130451E+001
 -8.0081083E+000
 -5.4095845E+000
 -2.2674618E+000
  1.5058426E+000
  6.0219063E+000
  1.1420913E+001
  1.7876604E+001
  2.5600856E+001
  3.4846802E+001
  4.5908642E+001
  5.9115482E+001
  7.4814638E+001
  9.3339990E+001
  1.1495921E+002
  1.3980346E+002
  1.6778340E+002
  1.9852084E+002
  2.3131730E+002
  2.6516469E+002
  2.9884352E+002
  3.3102181E+002
  3.6040545E+002
  3.8585282E+002
  4.0647683E+002
  4.2172755E+002
  4.3148101E+002
  4.3613448E+002
  4.3670748E+002
  4.3482943E+002
  4.3241329E+002
  4.3143076E+002
  4.3307257E+002
  4.3760416E+002
  4.4425180E+002
  4.5125747E+002
  4.5617541E+002
  4.5631541E+002
  4.4453434E+002
  4.1682048E+002
  3.7431814E+002
 -4.7887818E+000
  1.3817875E+001
  8.9681045E+000
  8.2851136E+000
  7.0727663E+000
  6.0828277E+000
  4.8322307E+000
  4.3726157E+000
  4.3551518E+000
  4.8445700E+000
  5.7839596E+000
  7.1660104E+000
  8.9937778E+000
  1.1292736E+001
  1.4105757E+001
  1.7492990E+001
  2.1531710E+001
  2.6317746E+001
  3.1967699E+001
  3.8621603E+001
  4.6445402E+001
  5.5632449E+001
  6.6402944E+001
  7.8999804E+001
  9.3678800E+001
  1.1069050E+002
  1.3025115E+002
  1.5250188E+002
  1.7745717E+002
  2.0495161E+002
  2.3459452E+002
  2.6574703E+002
  2.9753449E+002
  3.2888325E+002
  3.5859334E+002
  3.8541601E+002
  4.0814284E+002
  4.2569355E+002
  4.3722281E+002
  4.4225859E+002
  4.4096692E+002
  4.3441620E+002
  4.2474097E+002
  4.1521720E+002
  4.0853389E+002
  4.0691863E+002
  4.1072427E+002
  4.1861266E+002
  4.2834471E+002
  4.3521200E+002
  4.3637724E+002
  4.2110147E+002
  3.8492223E+002
  2.7270112E+002
  2.5715984E+001
  1.5512508E+001
  2.6034430E+001
  2.5863079E+001
  2.3627319E+001
  2.3100086E+001
  2.2722364E+001
  2.3021106E+001
  2.3844166E+001
  2.5185276E+001
  2.7014408E+001
  2.9342395E+001
  3.2201519E+001
  3.5645332E+001
  3.9744000E+001
  4.4583448E+001
  5.0265536E+001
  5.6909252E+001
  6.4652033E+001
  7.3650568E+001
  8.4080301E+001
  9.6132731E+001
  1.1000931E+002
  1.2591057E+002
  1.4401891E+002
  1.6447403E+002
  1.8734090E+002
  2.1257239E+002
  2.3997089E+002
  2.6915589E+002
  2.9954371E+002
  3.3034245E+002
  3.6056544E+002
  3.8905597E+002
  4.1452527E+002
  4.3560607E+002
  4.5092206E+002
  4.5917760E+002
  4.5936638E+002
  4.5106150E+002
  4.3524223E+002
  4.1509375E+002
  3.9463044E+002
  3.8047187E+002
  3.7530608E+002
  3.7966879E+002
  3.9144750E+002
  4.0701798E+002
  4.2345957E+002
  4.3273386E+002
  4.1829967E+002
  3.3564504E+002
 -3.3895799E+001
  9.2594030E+001
  3.8151016E+001
  5.2175403E+001
  4.0307180E+001
  4.2373320E+001
  4.0602407E+001
  4.0588396E+001
  4.1099774E+001
  4.2331803E+001
  4.4089823E+001
  4.6363342E+001
  4.9159029E+001
  5.2525731E+001
  5.6530116E+001
  6.1254279E+001
  6.6792497E+001
  7.3251566E+001
  8.0751542E+001
  8.9426486E+001
  9.9424343E+001
  1.1090539E+002
  1.2403854E+002
  1.3899464E+002
  1.5593607E+002
  1.7500156E+002
  1.9628610E+002
  2.1981603E+002
  2.4552078E+002
  2.7320375E+002
  3.0251523E+002
  3.3292959E+002
  3.6372761E+002
  3.9398182E+002
  4.2254286E+002
  4.4803297E+002
  4.6884300E+002
  4.8319472E+002
  4.8920199E+002
  4.8487438E+002
  4.6873586E+002
  4.4063997E+002
  4.0365232E+002
  3.6964638E+002
  3.4351871E+002
  3.3429397E+002
  3.4129326E+002
  3.6010198E+002
  3.8592422E+002
  4.1353263E+002
  4.5251874E+002
  5.0610874E+002
  7.6497520E+002
 -5.7134345E+001
 -7.5103938E+001
  3.7231920E+001
  5.5219637E+001
  6.4843267E+001
  5.9548810E+001
  5.7714133E+001
  5.7489871E+001
  5.8537190E+001
  6.0250757E+001
  6.2484037E+001
  6.5187082E+001
  6.8406073E+001
  7.2212609E+001
  7.6695543E+001
  8.1950637E+001
  8.8080713E+001
  9.5196606E+001
  1.0341874E+002
  1.1287790E+002
  1.2371485E+002
  1.3607843E+002
  1.5012158E+002
  1.6599505E+002
  1.8383805E+002
  2.0376576E+002
  2.2585329E+002
  2.5011664E+002
  2.7649111E+002
  3.0480837E+002
  3.3477218E+002
  3.6593293E+002
  3.9765767E+002
  4.2909092E+002
  4.5910405E+002
  4.8622155E+002
  5.0858537E+002
  5.2384048E+002
  5.2936242E+002
  5.2219962E+002
  4.9817847E+002
  4.5453582E+002
  3.9735437E+002
  3.2936821E+002
  2.8872941E+002
  2.7653308E+002
  2.9159156E+002
  3.2212570E+002
  3.6204965E+002
  3.9675072E+002
  4.5580372E+002
  4.2128923E+002
  6.8251816E+002
  2.7789626E+002
  9.7929228E+001
  9.5149376E+001
  7.2816062E+001
  7.2921776E+001
  7.3090022E+001
  7.5258421E+001
  7.7657864E+001
  8.0405173E+001
  8.3500458E+001
  8.7067029E+001
  9.1224381E+001
  9.6089244E+001
  1.0177221E+002
  1.0838312E+002
  1.1603534E+002
  1.2484881E+002
  1.3495143E+002
  1.4647873E+002
  1.5957197E+002
  1.7437451E+002
  1.9102619E+002
  2.0965565E+002
  2.3037041E+002
  2.5324481E+002
  2.7830607E+002
  3.0551860E+002
  3.3476648E+002
  3.6583316E+002
  3.9837421E+002
  4.3188057E+002
  4.6562113E+002
  4.9854667E+002
  5.2917963E+002
  5.5538274E+002
  5.7450576E+002
  5.8259775E+002
  5.7560311E+002
  5.4738634E+002
  4.8477190E+002
  3.7222481E+002
  2.8866225E+002
  2.0767538E+002
  1.9407962E+002
  2.2509116E+002
  2.7826404E+002
  3.3363836E+002
  3.8879573E+002
  4.1872438E+002
  4.5770369E+002
  3.6304073E+002
  2.5423953E+002
  1.5061054E+002
  7.9155197E+001
  8.2277365E+001
  8.3366392E+001
  8.7850560E+001
  9.1490753E+001
  9.4784403E+001
  9.7983190E+001
  1.0135094E+002
  1.0513946E+002
  1.0952965E+002
  1.1466514E+002
  1.2066590E+002
  1.2764415E+002
  1.3571269E+002
  1.4498964E+002
  1.5560023E+002
  1.6767666E+002
  1.8135630E+002
  1.9677846E+002
  2.1407976E+002
  2.3338813E+002
  2.5481547E+002
  2.7844934E+002
  3.0434389E+002
  3.3251017E+002
  3.6290558E+002
  3.9541956E+002
  4.2985341E+002
  4.6587577E+002
  5.0296299E+002
  5.4028956E+002
  5.7646255E+002
  6.0944934E+002
  6.3555459E+002
  6.5163381E+002
  6.4994427E+002
  6.2794029E+002
  5.5869955E+002
  4.2749597E+002
  1.4689804E+002
  4.5100674E+001
  6.1965724E+001
  1.4130100E+002
  2.2691453E+002
  3.1471075E+002
  3.8787315E+002
  4.3196608E+002
  3.8832925E+002
 -1.8351653E+001
 -7.1361538E+001
  1.6695772E+000
  5.7491496E+001
  7.8910624E+001
  9.3796687E+001
  1.0298028E+002
  1.0809349E+002
  1.1209729E+002
  1.1539366E+002
  1.1878985E+002
  1.2260920E+002
  1.2708992E+002
  1.3237553E+002
  1.3858195E+002
  1.4581467E+002
  1.5418143E+002
  1.6379666E+002
  1.7478312E+002
  1.8727141E+002
  2.0139821E+002
  2.1730342E+002
  2.3512644E+002
  2.5500176E+002
  2.7705397E+002
  3.0139290E+002
  3.2810930E+002
  3.5727171E+002
  3.8892447E+002
  4.2308640E+002
  4.5974023E+002
  4.9881889E+002
  5.4009906E+002
  5.8312328E+002
  6.2708087E+002
  6.6953239E+002
  7.0862392E+002
  7.3664710E+002
  7.5961739E+002
  7.3798762E+002
  7.3954193E+002
  2.0836062E+002
  2.0784272E+002
 -1.9855404E+002
 -9.5919316E+001
  3.1415765E+001
  1.7732866E+002
  3.0096206E+002
  4.2440237E+002
  5.3486715E+002
  9.4113229E+002
 -4.6684895E+001
 -1.0145774E+001
 -8.8515027E+001
  3.2553822E+001
  8.3090283E+001
  1.1233283E+002
  1.2018517E+002
  1.2679579E+002
  1.2990495E+002
  1.3277290E+002
  1.3577942E+002
  1.3941955E+002
  1.4384293E+002
  1.4916491E+002
  1.5547114E+002
  1.6285078E+002
  1.7140139E+002
  1.8123227E+002
  1.9246410E+002
  2.0522769E+002
  2.1966183E+002
  2.3591074E+002
  2.5412105E+002
  2.7443866E+002
  2.9700576E+002
  3.2195872E+002
  3.4942804E+002
  3.7954142E+002
  4.1243284E+002
  4.4825570E+002
  4.8720917E+002
  5.2952318E+002
  5.7555463E+002
  6.2524335E+002
  6.7859167E+002
  7.3475781E+002
  7.8748485E+002
  8.2182165E+002
  8.7971046E+002
  8.8026219E+002
  1.4138524E+003
  6.3956008E+002
 -3.1446507E+002
 -1.2914079E+003
 -3.4570569E+002
 -6.8635522E+001
  1.5105420E+002
  2.9492253E+002
  4.5355576E+002
  4.7619486E+002
  7.8813824E+002
 -1.1940262E+002
  7.5970033E+001
  1.3192191E+002
  1.3412905E+002
  1.4636232E+002
  1.4701933E+002
  1.4845733E+002
  1.4981782E+002
  1.5215939E+002
  1.5543394E+002
  1.5969920E+002
  1.6496879E+002
  1.7128643E+002
  1.7871528E+002
  1.8734069E+002
  1.9726669E+002
  2.0861327E+002
  2.2151347E+002
  2.3611085E+002
  2.5255690E+002
  2.7100866E+002
  2.9162639E+002
  3.1457190E+002
  3.4000821E+002
  3.6810211E+002
  3.9903234E+002
  4.3300637E+002
  4.7029647E+002
  5.1128769E+002
  5.5659302E+002
  6.0699564E+002
  6.6422550E+002
  7.2821385E+002
  7.9947001E+002
  8.8859639E+002
  9.6378973E+002
  9.5185556E+002
  9.6287736E+002
  7.6824791E+002
 -7.1581810E+002
 -1.7649894E+002
 -6.4254630E+001
  1.6733436E+002
  3.2988429E+002
  4.3997008E+002
  5.0232629E+002
 -9.9680383E+000
 -1.4243611E+002
  2.6447442E+002
  1.4413241E+002
  1.9402805E+002
  1.7143606E+002
  1.6945322E+002
  1.6600425E+002
  1.6605435E+002
  1.6755555E+002
  1.7047479E+002
  1.7454851E+002
  1.7972485E+002
  1.8598927E+002
  1.9338248E+002
  2.0197892E+002
  2.1188036E+002
  2.2320879E+002
  2.3610220E+002
  2.5071140E+002
  2.6719765E+002
  2.8573067E+002
  3.0648684E+002
  3.2964783E+002
  3.5540058E+002
  3.8394012E+002
  4.1547813E+002
  4.5026462E+002
  4.8862845E+002
  5.3107634E+002
  5.7842676E+002
  6.3218613E+002
  6.9423043E+002
  7.7201149E+002
  8.6338813E+002
  9.5206078E+002
  1.0263973E+003
  1.0159755E+003
  1.0423169E+003
 -4.2487598E+002
 -1.8529600E+002
  2.7277685E+001
  2.0339072E+002
  3.9823397E+002
  5.9202383E+002
  1.1958111E+003
  1.3741640E+001
 -3.5462685E+002
  5.7467874E+002
  2.9863755E+002
  2.3109539E+002
  1.9687076E+002
  1.8677435E+002
  1.8137374E+002
  1.8059225E+002
  1.8164941E+002
  1.8434924E+002
  1.8830091E+002
  1.9338954E+002
  1.9956207E+002
  2.0684541E+002
  2.1531183E+002
  2.2506698E+002
  2.3623945E+002
  2.4897532E+002
  2.6343511E+002
  2.7979191E+002
  2.9822996E+002
  3.1894309E+002
  3.4213299E+002
  3.6800751E+002
  3.9678058E+002
  4.2867639E+002
  4.6394115E+002
  5.0288565E+002
  5.4594963E+002
  5.9396953E+002
  6.4844224E+002
  7.1262983E+002
  7.8774685E+002
  9.1845038E+002
  1.1335199E+003
  1.9086194E+003
  7.8687790E+002
 -2.8919181E+002
 -7.4118759E+001
  8.9462624E+001
  2.5045152E+002
  4.4542764E+002
  4.8824300E+002
  9.3142458E+002
  5.1752059E+002
  2.8795498E+002
  2.0875451E+002
  2.0729256E+002
  1.9549504E+002
  1.9423691E+002
  1.9300116E+002
  1.9425397E+002
  1.9693621E+002
  2.0092004E+002
  2.0596349E+002
  2.1202252E+002
  2.1912442E+002
  2.2735605E+002
  2.3683656E+002
  2.4770699E+002
  2.6012477E+002
  2.7426202E+002
  2.9030512E+002
  3.0845444E+002
  3.2892315E+002
  3.5193456E+002
  3.7771808E+002
  4.0650123E+002
  4.3850740E+002
  4.7393617E+002
  5.1301532E+002
  5.5585290E+002
  6.0328554E+002
  6.5446899E+002
  7.1946843E+002
  7.7393501E+002
  8.7049511E+002
  6.5837973E+002
  6.3220324E+002
  3.8830998E+001
  6.0589524E+000
 -1.5191929E+001
  4.6629935E+001
  1.7081223E+002
  3.1245518E+002
  4.1791742E+002
  5.1344591E+002
  2.3774882E+001
 -2.6232233E+002
 -1.2393034E+002
  2.1817883E+002
  1.8999518E+002
  2.1008437E+002
  2.0355709E+002
  2.0394319E+002
  2.0509780E+002
  2.0827382E+002
  2.1244477E+002
  2.1752123E+002
  2.2343745E+002
  2.3027432E+002
  2.3815216E+002
  2.4721696E+002
  2.5762769E+002
  2.6955505E+002
  2.8318319E+002
  2.9871213E+002
  3.1635954E+002
  3.3636051E+002
  3.5896500E+002
  3.8442979E+002
  4.1300748E+002
  4.4491266E+002
  4.8031860E+002
  5.1922557E+002
  5.6165850E+002
  6.0663155E+002
  6.5630823E+002
  7.0009664E+002
  7.9652283E+002
  8.4007241E+002
  1.5164101E+003
 -1.7975081E+000
 -4.1031107E+001
  3.6689937E+001
  1.2116406E+002
  2.2620184E+002
  3.7321557E+002
  5.5768626E+002
  1.1371695E+003
  4.7737683E+001
  3.9328470E+002
  1.8821567E+002
  2.4961603E+002
  2.1846559E+002
  2.1346368E+002
  2.1153988E+002
  2.1444570E+002
  2.1841324E+002
  2.2309088E+002
  2.2822741E+002
  2.3393567E+002
  2.4038543E+002
  2.4776320E+002
  2.5625252E+002
  2.6603233E+002
  2.7728482E+002
  2.9020355E+002
  3.0500049E+002
  3.2191059E+002
  3.4119388E+002
  3.6313379E+002
  3.8803077E+002
  4.1618261E+002
  4.4785083E+002
  4.8317755E+002
  5.2204867E+002
  5.6423948E+002
  6.0738469E+002
  6.5308428E+002
  6.8779958E+002
  7.2469833E+002
  5.8802972E+002
  3.9526643E+002
  7.0562613E+001
  1.0272853E+002
  1.7492063E+002
  2.4984972E+002
  3.8610622E+002
  3.9741781E+002
  8.5038324E+002
  9.4581398E+002
  4.1188037E+002
  2.9949652E+002
  2.1574397E+002
  2.1405249E+002
  2.1577658E+002
  2.2229458E+002
  2.2790697E+002
  2.3326874E+002
  2.3836853E+002
  2.4370237E+002
  2.4957245E+002
  2.5626528E+002
  2.6399862E+002
  2.7296479E+002
  2.8334844E+002
  2.9534557E+002
  3.0917528E+002
  3.2508780E+002
  3.4336918E+002
  3.6434377E+002
  3.8837159E+002
  4.1584149E+002
  4.4712584E+002
  4.8251855E+002
  5.2196151E+002
  5.6443218E+002
  6.1019841E+002
  6.4409978E+002
  6.8894978E+002
  6.9710723E+002
  1.2224533E+003
  4.0360088E+001
  1.6096823E+001
  1.6646521E+001
  1.0048089E+002
  1.5238832E+002
  2.0364842E+002
  2.6786657E+002
  3.1791254E+002
  4.1376953E+002
  3.5171320E+002
  1.0648193E+003
  3.1946135E+002
  1.3264362E+002
  1.9010592E+002
  1.9909563E+002
  2.1929891E+002
  2.2985661E+002
  2.3808396E+002
  2.4358668E+002
  2.4835298E+002
  2.5292893E+002
  2.5794535E+002
  2.6372721E+002
  2.7051269E+002
  2.7847975E+002
  2.8779843E+002
  2.9865468E+002
  3.1126686E+002
  3.2589540E+002
  3.4285035E+002
  3.6249673E+002
  3.8526841E+002
  4.1165899E+002
  4.4230578E+002
  4.7769580E+002
  5.1893392E+002
  5.6398845E+002
  6.1418656E+002
  6.5733467E+002
  6.8996246E+002
  5.0074795E+002
  3.3490115E+002
  8.6433669E+001
  1.8252089E+002
  1.9062247E+002
  2.3374720E+002
  2.6921764E+002
  3.0317174E+002
  2.9250701E+002
  3.8274125E+001
 -1.5283673E+002
  4.3829870E+001
  1.3306714E+002
  1.9519994E+002
  2.2482489E+002
  2.4242916E+002
  2.4998298E+002
  2.5509569E+002
  2.5844320E+002
  2.6175025E+002
  2.6554452E+002
  2.7018691E+002
  2.7584412E+002
  2.8264271E+002
  2.9071031E+002
  3.0020745E+002
  3.1134165E+002
  3.2437663E+002
  3.3963860E+002
  3.5752790E+002
  3.7852712E+002
  4.0326960E+002
  4.3248868E+002
  4.6763987E+002
  5.0944306E+002
  5.6419836E+002
  6.2259436E+002
  6.9592469E+002
  6.3865433E+002
  5.7830368E+002
  2.2336197E+002
  3.3392048E+002
  2.0761979E+002
  2.5173747E+002
  2.4740402E+002
  2.8487247E+002
  3.2487528E+002
  5.8842587E+002
  1.9406882E+001
 -3.8993523E+001
 -1.0301365E+002
  1.3278574E+002
  2.0460631E+002
  2.5264657E+002
  2.5940213E+002
  2.6684515E+002
  2.6775622E+002
  2.6874216E+002
  2.7002439E+002
  2.7230093E+002
  2.7562640E+002
  2.8003365E+002
  2.8553548E+002
  2.9219188E+002
  3.0012248E+002
  3.0951554E+002
  3.2063061E+002
  3.3380234E+002
  3.4944408E+002
  3.6807360E+002
  3.9031162E+002
  4.1712765E+002
  4.4952185E+002
  4.9145353E+002
  5.4360293E+002
  6.4082176E+002
  7.9326863E+002
  1.4437380E+003
  3.0717166E+002
  5.3485965E+002
  3.0592002E+002
  2.7547375E+002
  2.5088954E+002
  2.6863635E+002
  2.3064409E+002
  3.6648354E+002
 -6.2965843E+001
  2.0566679E+002
  3.0510547E+002
  2.7926388E+002
  2.9400444E+002
  2.8534798E+002
  2.8151936E+002
  2.7834420E+002
  2.7735994E+002
  2.7798310E+002
  2.7998741E+002
  2.8312627E+002
  2.8727271E+002
  2.9239791E+002
  2.9857415E+002
  3.0596695E+002
  3.1482858E+002
  3.2549652E+002
  3.3837998E+002
  3.5400311E+002
  3.7285861E+002
  3.9600703E+002
  4.2305343E+002
  4.6011409E+002
  4.9278677E+002
  5.8754385E+002
  5.0354687E+002
  9.3731890E+002
  1.4890081E+001
  3.4511191E+001
  2.7275038E+002
  2.9084816E+002
  2.6821269E+002
  2.4633215E+002
  2.1264436E+002
  2.0513734E+002
  1.3358467E+001
 -3.3743260E+002
  6.7851705E+002
  2.8468396E+002
  3.8545702E+002
  3.1883606E+002
  3.0647185E+002
  2.9236525E+002
  2.8615143E+002
  2.8298306E+002
  2.8231526E+002
  2.8320968E+002
  2.8521213E+002
  2.8802897E+002
  2.9155117E+002
  2.9580802E+002
  3.0094825E+002
  3.0722244E+002
  3.1496825E+002
  3.2460725E+002
  3.3659539E+002
  3.5150931E+002
  3.6954972E+002
  3.9190480E+002
  4.1465957E+002
  4.4656794E+002
  4.4366882E+002
  5.0926865E+002
  3.0383846E+002
  3.1848444E+002
  3.9166960E+002
  3.0973263E+002
  2.7130350E+002
  2.2686133E+002
  1.9959041E+002
  2.7689834E+002
  3.7436131E+001
 -5.7357807E+002
  1.2991007E+003
  5.0290210E+002
  4.3493603E+002
  3.3571052E+002
  3.1733692E+002
  2.9766614E+002
  2.9051495E+002
  2.8626952E+002
  2.8507647E+002
  2.8533307E+002
  2.8647976E+002
  2.8807731E+002
  2.8996714E+002
  2.9215653E+002
  2.9479487E+002
  2.9814219E+002
  3.0255401E+002
  3.0845917E+002
  3.1635349E+002
  3.2667311E+002
  3.3993400E+002
  3.5569090E+002
  3.7475186E+002
  3.8833438E+002
  3.9174448E+002
  3.2989226E+002
  2.0478872E+001
  7.9232980E+002
  3.8213633E+002
  3.7928351E+002
  2.5599696E+002
  1.9328108E+002
  1.1301940E+002
  1.0659408E+002
  2.8552884E+002
  5.3484375E+002
  3.1400841E+002
  3.4802312E+002
  3.0486836E+002
  2.9902913E+002
  2.8993044E+002
  2.8718934E+002
  2.8622252E+002
  2.8660683E+002
  2.8727779E+002
  2.8783204E+002
  2.8807954E+002
  2.8805428E+002
  2.8793049E+002
  2.8799752E+002
  2.8864071E+002
  2.9034101E+002
  2.9361940E+002
  2.9911970E+002
  3.0702478E+002
  3.1856326E+002
  3.3081660E+002
  3.5723531E+002
  3.7664483E+002
  5.9941929E+002
 -4.3054222E+000
  1.0749881E+003
  5.4339374E+002
  3.7337763E+002
  2.3779917E+002
  1.3239009E+002
  6.8132667E+001
  8.6289808E+000
 -4.5779888E+002
  4.9041932E+001
  3.3725110E+002
  2.8750163E+002
  3.0639536E+002
  2.9016188E+002
  2.8686511E+002
  2.8525216E+002
  2.8626342E+002
  2.8749994E+002
  2.8820230E+002
  2.8788296E+002
  2.8646332E+002
  2.8404862E+002
  2.8087403E+002
  2.7727312E+002
  2.7367426E+002
  2.7062354E+002
  2.6875423E+002
  2.6889454E+002
  2.7149491E+002
  2.7821831E+002
  2.8329914E+002
  3.0822097E+002
  2.6834423E+002
  3.8485379E+002
  4.5044717E+001
  2.1011012E+001
  5.2376232E+002
  4.2635944E+002
  3.3055945E+002
  1.8906051E+002
  5.0295807E+001
 -1.0979865E+002
  3.4659254E+001
 -3.8113373E+002
  3.6984575E+002
  2.7085367E+002
  3.4279868E+002
  2.9025307E+002
  2.8159698E+002
  2.7801525E+002
  2.8153270E+002
  2.8575964E+002
  2.8897704E+002
  2.9012137E+002
  2.8903436E+002
  2.8584149E+002
  2.8080289E+002
  2.7424355E+002
  2.6654127E+002
  2.5816237E+002
  2.4969834E+002
  2.4196710E+002
  2.3594499E+002
  2.3307342E+002
  2.3396145E+002
  2.4152795E+002
  2.2955719E+002
  2.2991557E+002
  7.5613546E+000
  9.6240622E+002
  5.1771833E+002
  4.8109005E+002
  2.8674303E+002
  1.3600080E+002
  7.6914553E+000
 -2.4010905E+002
  1.4146930E+003
  4.4953195E+002
  3.6939216E+002
  2.5866986E+002
  2.5969315E+002
  2.6348742E+002
  2.7655810E+002
  2.8638765E+002
  2.9249538E+002
  2.9426521E+002
  2.9229801E+002
  2.8706770E+002
  2.7908284E+002
  2.6875512E+002
  2.5648528E+002
  2.4271754E+002
  2.2805629E+002
  2.1339091E+002
  2.0005707E+002
  1.9036236E+002
  1.8553560E+002
  1.9667480E+002
  2.1693377E+002
  3.5352530E+002
  3.1232017E+001
  1.5036826E+003
  6.5186189E+002
  4.6589656E+002
  2.5230781E+002
  8.7203115E+001
 -5.6107074E+001
 -2.3023010E+002
  9.4815757E+002
  6.1537601E+002
  1.8937987E+002
  2.0107255E+002
  2.0840429E+002
  2.4700193E+002
  2.7323876E+002
  2.9133777E+002
  3.0012619E+002
  3.0223432E+002
  2.9880389E+002
  2.9107366E+002
  2.7970799E+002
  2.6521328E+002
  2.4792117E+002
  2.2816621E+002
  2.0636736E+002
  1.8349699E+002
  1.6059979E+002
  1.4184128E+002
  1.2796348E+002
  1.3344844E+002
  1.2010059E+002
  1.2601466E+002
 -2.1118145E+001
  4.9081009E+002
  5.2040525E+002
  5.8608157E+002
  3.6958956E+002
  1.9729583E+002
  3.0695108E+001
 -9.5389447E+001
 -2.3395178E+001
 -3.9843304E+002
 -3.2231327E+002
 -2.2149159E+002
  4.8969433E+001
  1.6382668E+002
  2.3577846E+002
  2.8081938E+002
  3.0431846E+002
  3.1493844E+002
  3.1553340E+002
  3.0973572E+002
  2.9870076E+002
  2.8347856E+002
  2.6446563E+002
  2.4183889E+002
  2.1559628E+002
  1.8593245E+002
  1.5286938E+002
  1.1904312E+002
  8.2434624E+001
  6.4766115E+001
  3.8603594E+001
  1.9045162E+002
  4.8236249E+001
  1.5226894E+003
  8.0490264E+002
  5.2364952E+002
  3.0305818E+002
  1.1069009E+002
 -8.5122720E+001
 -4.6697494E+002
 -1.6236549E+001
 -1.1164407E+002
  4.1865552E+001
  1.3998645E+002
  2.5653185E+002
  3.0472594E+002
  3.3281675E+002
  3.3827180E+002
  3.3598271E+002
  3.2573234E+002
  3.1057880E+002
  2.9102111E+002
  2.6735049E+002
  2.3934304E+002
  2.0658936E+002
  1.6842959E+002
  1.2464921E+002
  7.4243197E+001
  2.2296417E+001
 -3.8042947E+001
 -8.3139065E+001
 -8.9771542E+001
  5.7096356E+002
  7.3462821E+002
  6.9236209E+002
  5.5235431E+002
  3.9405624E+002
  2.2419743E+002
  3.7750873E+001
 -6.9787427E+001
 -4.1408491E+002
 -5.5310346E+001
 -9.6878301E+001
  2.3079599E+002
  2.9808510E+002
  3.7193399E+002
  3.7125762E+002
  3.7507499E+002
  3.6284675E+002
  3.4705825E+002
  3.2670789E+002
  3.0271328E+002
  2.7455472E+002
  2.4163936E+002
  2.0288753E+002
  1.5704560E+002
  1.0151099E+002
  3.6509106E+001
 -4.8934302E+001
 -1.1986419E+002
 -2.7733809E+002
 -2.8185347E+002
  7.6450114E+002
  6.6962440E+002
  6.1446352E+002
  5.5602967E+002
  4.2558659E+002
  2.6880647E+002
  1.1767684E+002
 -2.9167925E+000
 -1.3230180E+002
 -4.9774990E+001
 -1.0502355E+002
  1.7980757E+002
  5.0309903E+002
  4.2324148E+002
  4.4578258E+002
  4.1631415E+002
  3.9623136E+002
  3.7191059E+002
  3.4673843E+002
  3.1848821E+002
  2.8655081E+002
  2.4970365E+002
  2.0653968E+002
  1.5449599E+002
  9.1387905E+001
  7.3800773E+000
 -8.8783016E+001
 -2.7118752E+002
 -2.8623445E+002
 -7.5302208E+002
  6.7503591E+002
  6.1597121E+002
  5.4786592E+002
  4.6648882E+002
  3.7968015E+002
  2.7265968E+002
  1.4505898E+002
  1.4176118E+001
 -1.1248149E+002
 -2.2972929E+002
 -1.4472918E+002
 -5.2036419E+002
  1.2969395E+003
  5.6581870E+002
  6.0566441E+002
  5.0158626E+002
  4.6511793E+002
  4.2808045E+002
  3.9923383E+002
  3.6943724E+002
  3.3807011E+002
  3.0339416E+002
  2.6416966E+002
  2.1872715E+002
  1.6424704E+002
  9.7530460E+001
  8.2048977E+000
 -1.0498666E+002
 -3.1854123E+002
 -5.9275969E+002
 -1.8765396E+003
  5.2473942E+002
  6.9244049E+002
  4.6442213E+002
  4.2001949E+002
  3.4227320E+002
  2.5571495E+002
  1.4961460E+002
  3.0552946E+001
 -1.0917478E+002
 -2.7071797E+002
 -2.5034194E+002
  2.0348174E+003
  6.9114611E+002
  7.1489534E+002
  5.3207253E+002
  4.9877495E+002
  4.5745666E+002
  4.2634613E+002
  3.9411866E+002
  3.6085886E+002
  3.2477045E+002
  2.8489355E+002
  2.3969525E+002
  1.8698069E+002
  1.2310447E+002
  4.2717822E+001
 -6.3231042E+001
 -2.0823540E+002
 -3.6875339E+002
 -5.4889796E+002
 -2.1719688E+002
 -7.5742781E+002
 -1.4216737E+002
 -3.0005634E+002
  2.5551129E+001
  1.5585901E+002
  3.1362892E+002
  3.2791242E+002
  3.0321522E+002
  2.2759208E+002
  1.3820670E+002
  4.4220096E+001
 -7.3944826E+001
 -2.3632586E+002
 -2.6230870E+002
  6.5171429E+002
  5.0933461E+002
  5.3315400E+002
  5.4867245E+002
  5.1615718E+002
  4.8502551E+002
  4.5258705E+002
  4.2024640E+002
  3.8625310E+002
  3.4999297E+002
  3.1086992E+002
  2.6826553E+002
  2.2062057E+002
  1.6589063E+002
  1.0102605E+002
  2.4370864E+001
 -6.2757710E+001
 -1.5787622E+002
 -2.2545458E+002
 -1.4097260E+002
  2.3931296E+001
  1.5141992E+002
  2.4553625E+002
  2.5503746E+002
  2.2052110E+002
  1.4506699E+002
  2.4095855E+001
 -3.2341989E+001
 -1.6692962E+002
 -2.1102256E+002
  7.6967326E+002
  5.1080195E+002
  5.9701268E+002
  5.3982710E+002
  5.1032342E+002
  4.7853153E+002
  4.4787704E+002
  4.1403269E+002
  3.7795459E+002
  3.4045526E+002
  3.0169413E+002
  2.6165090E+002
  2.1856309E+002
  1.7174535E+002
  1.2344545E+002
  7.6419587E+001
  4.2853628E+001
  5.3608610E+001
  1.0058641E+002
  1.4992418E+002
  2.1940809E+002
  2.5998520E+002
  2.4495067E+002
  1.5661931E+002
  5.6060119E+001
 -1.3835267E+002
 -6.3552301E+001
 -1.0748039E+002
  1.7087562E+003
  7.9570393E+002
  6.7651280E+002
  5.4015118E+002
  5.3028343E+002
  5.0558995E+002
  4.7741099E+002
  4.4375205E+002
  4.0783925E+002
  3.7100159E+002
  3.3689473E+002
  3.0514982E+002
  2.7571141E+002
  2.4633974E+002
  2.1771639E+002
  2.0432564E+002
  2.0649783E+002
  2.3440482E+002
  3.0796286E+002
  3.3656235E+002
  2.7928880E+002
  3.3251075E+002
  1.8341905E+002
  2.7932836E+002
  7.4445113E+001
 -3.6568005E+000
  1.7737286E+003
  6.7122121E+002
  3.8396232E+002
  5.4323507E+002
  5.4607274E+002
  5.3831797E+002
  5.1350706E+002
  4.7801979E+002
  4.3728688E+002
  4.0015587E+002
  3.6793855E+002
  3.4770758E+002
  3.3150678E+002
  3.1136311E+002
  3.0251139E+002
  3.0906224E+002
  3.6382626E+002
  4.0623759E+002
  5.1554666E+002
  3.8568473E+002
  3.8657845E+002
  6.8401254E+002
  2.4864438E+002
  4.8787872E+001
 -3.7671133E+002
  3.3895279E+002
  5.0081860E+002
  5.8687280E+002
  5.9536238E+002
  5.5186927E+002
  5.1176706E+002
  4.6868859E+002
  4.2130572E+002
  3.9193303E+002
  3.8046429E+002
  3.9614225E+002
  3.9686872E+002
  3.6193468E+002
  3.5787638E+002
  4.9572777E+002
  4.1618613E+002
  1.2333494E+003
  8.5576065E+002
  7.0551527E+001
  1.2021509E+002
 -1.1817654E+002
  2.4121443E+002
  7.6382291E+002
  7.8833075E+002
  6.2294549E+002
  6.3389365E+002
  5.7524328E+002
  4.8096916E+002
  4.3217130E+002
  3.9468166E+002
  3.8699240E+002
  4.7253628E+002
  3.8974605E+002
  4.2335489E+002
  3.4717551E+002
  8.4334532E+002
  2.2661244E+002
  8.5194772E+000
 -4.3291179E+002
  6.4233803E+002
  1.2355920E+003
  6.0906066E+002
  7.9278939E+002
  6.7782276E+002
  5.5238706E+002
  5.2032225E+002
  4.1125844E+002
  3.7328228E+002
  3.2065143E+002
  7.4858112E+002
  6.8370511E+002
  3.7597034E+002
  5.5499788E+000
  1.0239659E+000
  1.5794567E+003
  3.0161989E+003
  1.6680308E+003
  5.2424661E+002
  9.6466510E+002
  8.1190926E+002
  4.5978462E+002
  3.7646745E+002
  2.6184864E+002
 -3.2532681E+001
 -5.8233126E+001
 -1.2685838E+003
 -7.9084679E+002
 -2.2294292E+002
 -1.3615042E+002
SCALARS Stress_xy double
LOOKUP_TABLE default
 -3.5092067E+003
 -3.6642091E+003
 -1.3125353E+003
 -1.1080473E+003
 -7.7979108E+002
 -8.3561729E+002
  7.3573251E+002
  8.1442589E+002
  1.3676542E+003
  1.1126444E+003
  3.8302884E+003
  3.4377222E+003
  9.2772849E+001
 -2.3679095E+002
 -4.0082727E+002
 -9.0962351E+001
 -6.7769498E+002
 -2.0577620E+002
 -8.1738858E+002
 -2.6321266E+002
 -9.5359789E+002
 -2.9670018E+002
 -1.0655830E+003
 -3.3081042E+002
 -1.1721905E+003
 -3.6033755E+002
 -1.2705476E+003
 -3.9766726E+002
 -1.3853090E+003
 -4.1421714E+002
 -1.4899183E+003
 -5.4062947E+002
 -1.7894785E+003
 -4.8134203E+002
 -2.0727571E+003
 -1.6434625E+003
 -1.4433639E+003
 -5.4064019E+002
 -5.1959753E+002
  3.6190235E+002
  6.5254616E+002
  2.0661673E+003
  3.5933760E+003
  2.7584395E+003
  3.3543374E+003
  1.6183821E+003
  5.4037856E+003
  3.2803960E+003
 -6.2336948E+002
 -8.8600785E+002
 -1.2479295E+003
 -1.5394901E+003
 -1.7919127E+003
 -2.0156564E+003
 -2.2160230E+003
 -2.3988570E+003
 -2.5587910E+003
 -2.7103469E+003
 -2.7607917E+003
 -2.4002379E+003
 -1.2046036E+003
 -6.5179498E+002
 -3.9381199E+002
 -1.3924971E+002
  4.7379354E+002
  1.6944409E+003
  3.6687843E+003
  4.2036837E+003
  5.5055484E+003
  5.4976457E+003
  3.0785181E+003
  4.5501735E+003
  1.1558944E+003
 -3.0151178E+002
 -2.0374396E+002
 -7.1853301E+002
 -1.2415735E+003
 -1.5877828E+003
 -1.9427420E+003
 -2.2637574E+003
 -2.5518951E+003
 -2.8041791E+003
 -3.0152867E+003
 -3.1720848E+003
 -3.2251424E+003
 -3.0667768E+003
 -2.5575462E+003
 -1.9731881E+003
 -1.3165346E+003
 -8.8855891E+002
 -4.1780025E+002
  3.5069086E+002
  1.5974621E+003
  2.8276049E+003
  4.2881626E+003
  5.7292395E+003
  8.2734117E+003
  7.5988884E+003
  6.3427969E+003
 -3.5554738E+002
 -6.3721719E+002
 -1.0265842E+003
 -1.4805107E+003
 -1.7806022E+003
 -2.1887577E+003
 -2.5521456E+003
 -2.8821263E+003
 -3.1632747E+003
 -3.3894095E+003
 -3.5366894E+003
 -3.5599076E+003
 -3.3970661E+003
 -3.0507535E+003
 -2.5313737E+003
 -2.0322486E+003
 -1.5175388E+003
 -9.1143833E+002
 -6.7586360E+001
  1.0256926E+003
  2.3554112E+003
  3.7435020E+003
  5.2096205E+003
  6.5587025E+003
  7.4114368E+003
  1.3962217E+004
 -1.0509620E+003
 -9.6548369E+002
 -1.3386671E+003
 -1.8174530E+003
 -2.2458671E+003
 -2.6441510E+003
 -2.9866128E+003
 -3.2777312E+003
 -3.5119877E+003
 -3.6729209E+003
 -3.7303711E+003
 -3.6582071E+003
 -3.4428028E+003
 -3.1251108E+003
 -2.7099762E+003
 -2.2072426E+003
 -1.5531103E+003
 -6.9633705E+002
  3.7443707E+002
  1.5646987E+003
  2.7942971E+003
  3.7890765E+003
  4.5187190E+003
  3.8593811E+003
  7.7605407E+003
  8.2660188E+003
  7.3794686E+003
  9.2284248E+003
  3.6340619E+003
 -7.3545668E+002
 -3.7908463E+002
 -5.3872408E+002
 -7.3586118E+002
 -1.1742093E+003
 -1.7094111E+003
 -2.1768138E+003
 -2.5700561E+003
 -2.8993181E+003
 -3.1813864E+003
 -3.4233410E+003
 -3.6181486E+003
 -3.7493023E+003
 -3.7971728E+003
 -3.7502485E+003
 -3.5941577E+003
 -3.3192388E+003
 -2.8868082E+003
 -2.2577682E+003
 -1.4105578E+003
 -3.7537687E+002
  7.6396457E+002
  1.8580142E+003
  2.7611420E+003
  3.3430323E+003
  4.5027273E+003
  6.5348360E+003
  7.7547302E+003
  7.7741225E+003
  5.9508282E+003
  4.6050122E+003
  5.8966420E+003
  2.4687108E+003
 -3.8537604E+002
 -3.5254094E+002
 -5.5288726E+002
 -1.0281812E+003
 -1.5559304E+003
 -2.0014573E+003
 -2.3416229E+003
 -2.6195461E+003
 -2.8731468E+003
 -3.1186354E+003
 -3.3552182E+003
 -3.5725285E+003
 -3.7551497E+003
 -3.8803419E+003
 -3.9153734E+003
 -3.8077069E+003
 -3.4971469E+003
 -2.9350036E+003
 -2.1113003E+003
 -1.0804980E+003
  6.4762850E+001
  1.2051223E+003
  2.2426249E+003
  3.2780478E+003
  4.4622512E+003
  5.7596453E+003
  6.4307651E+003
  6.9388104E+003
  6.4416292E+003
  5.2788474E+003
  3.5312401E+003
  2.6338893E+003
  2.6189644E+003
  7.4822764E+002
 -1.9054755E+002
 -3.3566179E+001
  1.5735218E+002
  1.7116015E+002
 -2.4134119E+002
 -8.3841641E+002
 -1.3682627E+003
 -1.7201850E+003
 -1.9400377E+003
 -2.1310314E+003
 -2.3422395E+003
 -2.5862569E+003
 -2.8609778E+003
 -3.1598024E+003
 -3.4713113E+003
 -3.7718195E+003
 -4.0120104E+003
 -4.1103256E+003
 -3.9667965E+003
 -3.4997200E+003
 -2.7124747E+003
 -1.6570597E+003
 -4.6536958E+002
  7.8455735E+002
  2.0537895E+003
  3.3002028E+003
  4.4992491E+003
  5.4690107E+003
  6.1134466E+003
  6.1070648E+003
  5.4856742E+003
  4.8675483E+003
  3.9481447E+003
  2.5209487E+003
  1.2609590E+003
  8.7221472E+002
  2.7036619E+002
 -2.7550427E+002
  1.0255207E+002
  3.6333442E+002
  6.9242222E+002
  3.0939094E+002
 -5.7742460E+002
 -1.1340844E+003
 -1.2571865E+003
 -1.3039437E+003
 -1.4031731E+003
 -1.5780830E+003
 -1.8191685E+003
 -2.1188040E+003
 -2.4746146E+003
 -2.8859609E+003
 -3.3409553E+003
 -3.7924245E+003
 -4.1337781E+003
 -4.2017665E+003
 -3.8695440E+003
 -3.0884227E+003
 -2.0633127E+003
 -8.4786857E+002
  4.6498074E+002
  1.8341264E+003
  3.2386666E+003
  4.4392161E+003
  5.2456121E+003
  5.4999285E+003
  5.2563707E+003
  4.7018257E+003
  3.9139426E+003
  2.9934043E+003
  2.2147983E+003
  1.4301332E+003
  3.8106864E+002
 -3.1456544E+002
 -1.4926053E+002
 -7.1263352E+002
 -4.6089513E+002
  8.2128796E+002
  1.4540918E+003
  7.2020361E+002
 -5.6766465E+002
 -6.1952545E+002
 -4.3959219E+002
 -3.5456480E+002
 -4.2681836E+002
 -5.9649568E+002
 -8.3751301E+002
 -1.1376773E+003
 -1.5032517E+003
 -1.9507870E+003
 -2.4953156E+003
 -3.1246493E+003
 -3.7331920E+003
 -4.0859557E+003
 -3.8686328E+003
 -3.1659673E+003
 -2.0513276E+003
 -1.1188206E+003
 -7.6159772E+001
  1.3948358E+003
  2.8870168E+003
  4.1531502E+003
  4.8169211E+003
  4.7324212E+003
  4.1212099E+003
  3.2966551E+003
  2.5396191E+003
  1.9222534E+003
  1.3366700E+003
  7.3061842E+002
  1.3424223E+002
 -4.5709065E+002
 -8.5604960E+002
 -1.1433293E+003
 -9.5292134E+002
  3.1101595E+003
  2.6578996E+003
  6.3923958E+002
  5.4930100E+002
  9.3945995E+002
  8.7926116E+002
  7.4252002E+002
  5.3164882E+002
  2.9552460E+002
  3.1889337E+001
 -2.7419778E+002
 -6.5547732E+002
 -1.1594510E+003
 -1.8307896E+003
 -2.6740022E+003
 -3.3871134E+003
 -3.4465766E+003
 -2.2938243E+003
 -1.6583665E+003
 -1.2165790E+003
 -8.2499201E+002
 -4.8673021E+001
  1.7530824E+003
  3.2899438E+003
  3.9224443E+003
  3.5409129E+003
  2.4178925E+003
  1.3532302E+003
  7.1468321E+002
  4.2086920E+002
  2.3887510E+002
 -1.1741730E+001
 -3.8454886E+002
 -7.6876961E+002
 -1.1223812E+003
 -1.3260839E+003
 -1.3067974E+003
 -1.1333019E+003
  5.0965265E+002
  2.0874590E+003
  2.7982752E+003
  2.5136934E+003
  2.2310603E+003
  1.9299869E+003
  1.6790943E+003
  1.4686830E+003
  1.2904510E+003
  1.1223559E+003
  9.2862038E+002
  6.5658069E+002
  2.0652040E+002
 -5.1888037E+002
 -1.7046898E+003
 -2.0252811E+003
 -8.1171953E+002
  1.4360311E+003
 -1.1289081E+003
 -3.8278552E+003
 -2.0663505E+003
 -1.9319923E+002
  1.4193554E+003
  2.5305271E+003
  1.5250538E+003
 -2.3271529E+002
 -1.3837149E+003
 -1.4910257E+003
 -1.1312870E+003
 -8.2047267E+002
 -7.3843860E+002
 -8.6728529E+002
 -1.1554955E+003
 -1.4539303E+003
 -1.8760880E+003
 -1.6667193E+003
 -1.1278843E+003
 -4.5055835E+002
  3.1879236E+003
  4.0558646E+003
  4.7037685E+003
  3.7529709E+003
  3.3098147E+003
  2.9189592E+003
  2.6816650E+003
  2.5438729E+003
  2.4985361E+003
  2.5279923E+003
  2.6195475E+003
  2.7360677E+003
  2.8675982E+003
  2.7695957E+003
  2.5649003E+003
  2.2891135E+002
  4.5304285E+003
  5.6487649E+003
 -7.9753459E+002
 -6.6421856E+003
 -8.3223676E+003
 -7.1717825E+003
 -3.7415550E+003
  3.7640765E+002
 -9.8454947E+002
 -4.4671002E+003
 -4.8546196E+003
 -3.5802355E+003
 -2.3079421E+003
 -1.5179696E+003
 -1.1872664E+003
 -1.1936154E+003
 -1.4094311E+003
 -1.7446357E+003
 -2.0898562E+003
 -2.2770733E+003
 -2.5597560E+003
  5.8854528E+003
  4.3819009E+003
  4.7628322E+003
  4.1647227E+003
  3.8146838E+003
  3.5363519E+003
  3.4023304E+003
  3.3909200E+003
  3.5046291E+003
  3.7461476E+003
  4.1264159E+003
  4.6742812E+003
  5.4251066E+003
  6.4842032E+003
  8.1300321E+003
  9.7637104E+003
  2.1683721E+004
  7.1612010E+003
 -8.2621549E+002
 -6.5728608E+003
 -1.9699646E+004
 -1.6349141E+004
 -7.3639708E+003
  1.5634625E+003
 -1.0443382E+004
 -1.1122905E+004
 -7.6128481E+003
 -4.4093912E+003
 -2.5307572E+003
 -1.5849464E+003
 -1.2288666E+003
 -1.2400770E+003
 -1.4625868E+003
 -1.8229103E+003
 -2.1314012E+003
 -2.6870800E+003
 -2.6092640E+003
 -2.2504930E+003
 -8.5671227E+002
 -1.7103984E+004
 -2.9078346E+003
 -7.2898557E+003
 -1.3678168E+004
 -6.1148346E+003
 -3.5398106E+003
 -3.4549907E+003
 -1.5586066E+003
 -3.2947889E+003
 -1.9354251E+003
  3.9688179E+003
  6.6384116E+003
  3.6829097E+003
  1.9854222E+003
  4.4061569E+003
  3.1877144E+003
  3.0306436E+003
  2.5413877E+003
  3.6081890E+003
  3.7615138E+003
  3.7652419E+003
  3.7376953E+003
  3.7806930E+003
  3.9231917E+003
  4.1879649E+003
  4.5918910E+003
  5.1744512E+003
  5.9405065E+003
  7.1078394E+003
  8.2921910E+003
  1.1379998E+004
  1.1174209E+004
  1.0892487E+004
 -1.1152130E+004
 -1.6988759E+004
 -3.3268475E+004
 -1.9616215E+004
 -1.7876800E+004
 -1.1421758E+004
 -6.1094849E+003
 -2.9683511E+003
 -1.5851181E+003
 -9.7113833E+002
 -8.5762642E+002
 -1.0066331E+003
 -1.3010122E+003
 -1.6714192E+003
 -2.1331180E+003
 -2.6458496E+003
 -3.3215175E+003
 -4.4943360E+003
  1.2913808E+003
 -1.0698110E+003
 -1.7282165E+003
 -3.8085064E+003
 -5.3927128E+003
 -4.2045195E+003
 -3.0411826E+003
 -2.1976649E+003
 -1.7076935E+003
 -1.1881498E+003
 -3.0887860E+002
 -1.4989790E+003
 -1.2242561E+003
  4.7452376E+003
  9.1832131E+003
  5.0464214E+003
  4.3810104E+003
  5.3711434E+003
  3.9078221E+003
  3.9851407E+003
  2.5480847E+003
  2.1884877E+003
  2.5804176E+003
  3.0873739E+003
  3.3861370E+003
  3.6091563E+003
  3.8353078E+003
  4.1179053E+003
  4.4884507E+003
  4.9711613E+003
  5.5827101E+003
  6.3462961E+003
  7.2201243E+003
  8.1684985E+003
  8.5008720E+003
  5.0852555E+003
 -1.2918227E+003
 -5.4722208E+004
 -3.6487722E+004
 -1.7683022E+004
 -9.3554109E+002
 -1.3816390E+003
 -1.1790867E+002
 -1.8859195E+001
  1.9070636E+000
 -2.4435031E+002
 -5.7837994E+002
 -9.4821222E+002
 -1.3542099E+003
 -1.8344482E+003
 -2.3537715E+003
 -2.8926852E+003
 -3.7617653E+003
 -4.0234571E+003
 -3.9359324E+003
 -1.5234120E+003
 -1.3631316E+003
 -2.3785894E+003
 -3.0578880E+003
 -3.0271931E+003
 -2.5235069E+003
 -2.0859331E+003
 -1.1382418E+003
 -6.6973210E+002
 -4.8734344E+002
 -5.5149134E+002
 -6.8256510E+002
 -6.8555369E+002
 -6.3618488E+002
 -7.1496093E+002
 -2.5871661E+003
 -2.9973612E+003
  8.4388502E+003
  1.0333300E+004
  5.9461564E+003
  5.7379264E+003
  6.2768983E+003
  4.2400545E+003
  3.7071666E+003
  2.9312154E+003
  2.4455377E+003
  2.1285595E+003
  1.8388400E+003
  2.0407181E+003
  2.4669525E+003
  2.8980370E+003
  3.2756927E+003
  3.6341995E+003
  4.0086202E+003
  4.4238751E+003
  4.8903180E+003
  5.4038316E+003
  5.9166320E+003
  6.3444371E+003
  6.3258614E+003
  5.3818649E+003
  2.5886311E+003
  1.4934028E+003
  3.8253759E+003
  7.5387180E+002
  1.5603930E+003
  1.2235873E+003
  1.0968842E+003
  4.3893568E+002
 -6.7514650E+001
 -4.3780039E+002
 -8.5332456E+002
 -1.3410860E+003
 -2.0127143E+003
 -2.8904369E+003
 -4.7984773E+003
 -5.0744925E+003
 -4.5496634E+003
 -2.7085221E+002
 -1.3916787E+003
 -7.3714630E+002
 -9.7929114E+002
 -1.0385105E+003
 -1.4612088E+003
 -1.8143302E+003
 -1.7286795E+003
 -1.3799045E+003
 -7.8314731E+002
 -2.0504835E+002
  2.3541151E+002
  2.5599859E+002
  3.4314689E+002
  9.7355431E+002
  7.2727870E+002
  5.0214363E+002
 -5.4900664E+002
  7.9856963E+002
  2.8313186E+002
  1.0420412E+003
  2.7459088E+002
  1.0524962E+003
  3.3811520E+002
  1.0194984E+003
  3.1146095E+002
  9.4954545E+002
  2.9156479E+002
  8.8833190E+002
  2.7040052E+002
  8.5218034E+002
  2.5887647E+002
  8.3852119E+002
  2.5467324E+002
  8.3416485E+002
  2.5367238E+002
  8.3394156E+002
  2.4521435E+002
  8.4342667E+002
  2.5853583E+002
  9.6052976E+002
  2.2902063E+002
  1.1933935E+003
  5.3361124E+002
  2.1966748E+003
  4.0450360E+002
  3.7071759E+003
  3.7955677E+003
  3.4656528E+003
  2.6827823E+003
  2.9822235E+003
  2.2278841E+003
  2.0492190E+003
  1.7774799E+003
  1.5460549E+003
  1.3469465E+003
  1.3584150E+003
  1.5657852E+003
  1.9488451E+003
  2.3950943E+003
  2.8363424E+003
  3.2573466E+003
  3.6661255E+003
  4.0684908E+003
  4.4571334E+003
  4.7994421E+003
  5.0248489E+003
  4.9854276E+003
  4.4522780E+003
  3.2113439E+003
  1.6114136E+003
  9.2981214E+002
  1.5316860E+003
  2.1711163E+003
  1.6456550E+003
  8.3625658E+002
  6.0234637E+002
  2.3667061E+002
 -1.8627921E+002
 -6.8879896E+002
 -1.3324410E+003
 -2.2002922E+003
 -3.3043012E+003
 -4.3093417E+003
 -8.7058448E+003
 -5.8841470E+002
 -1.0359018E+003
 -1.1394059E+003
 -8.9199263E+002
 -6.6819451E+002
 -3.3122739E+002
  8.3759113E+001
  4.9991594E+002
  9.1194966E+002
  1.2016818E+003
  1.4927335E+003
  1.8764898E+003
  2.3742348E+003
  2.6525485E+003
  2.1237522E+003
  2.0094044E+003
  2.0564518E+003
  2.0496169E+003
  1.9446400E+003
  1.8040191E+003
  1.6815042E+003
  1.6085261E+003
  1.5887261E+003
  1.5897140E+003
  1.5899360E+003
  1.6095441E+003
  1.7048330E+003
  2.0274216E+003
  2.5080327E+003
  2.4584948E+003
  5.6262774E+002
  7.3101508E+001
  4.6890422E+002
  6.3069128E+002
  5.8185225E+002
  5.9920864E+002
  6.0460211E+002
  6.6475055E+002
  8.0734836E+002
  1.0831062E+003
  1.4640566E+003
  1.9023457E+003
  2.3494823E+003
  2.7775894E+003
  3.1737217E+003
  3.5263725E+003
  3.8130282E+003
  3.9906016E+003
  3.9842201E+003
  3.6887341E+003
  2.9966300E+003
  1.9466788E+003
  7.7953446E+002
  6.3545691E+002
  9.1414707E+002
  1.2384825E+003
  3.1314283E+003
  3.5387734E+003
  2.3173488E+003
  1.5100820E+003
  1.0323794E+003
  5.8494059E+002
  1.1982587E+002
 -4.3193433E+002
 -9.6574854E+002
 -1.4625260E+003
 -1.1056715E+003
 -3.3926726E+003
 -4.3977277E+003
 -3.6670842E+003
 -2.7630640E+003
 -3.5891174E+002
 -1.8731976E+003
 -7.3813253E+002
 -1.5137879E+003
 -3.8887329E+002
 -1.1950303E+003
 -3.6538569E+002
 -9.4092143E+002
 -2.7065125E+002
 -6.9743147E+002
 -2.0091403E+002
 -4.7391869E+002
 -1.2958585E+002
 -2.7474285E+002
 -5.6972549E+001
 -1.1853685E+002
  7.7813628E+000
 -9.5731052E+000
  5.9684994E+001
 -3.8519711E+002
 -5.7880545E+002
 -7.9848158E+002
 -2.5434645E+002
  4.8258046E+002
  1.1666339E+003
  1.6131373E+003
  1.8965880E+003
  2.0946407E+003
  2.2888454E+003
  2.5118079E+003
  2.8263609E+003
  3.1265143E+003
  3.1598272E+003
  3.1194813E+003
  2.9301096E+003
  2.8218524E+003
  2.7015101E+003
  2.5102582E+003
  2.2725717E+003
  2.0693204E+003
  1.9839413E+003
  1.9772177E+003
  1.9967496E+003
  1.9892057E+003
  1.9490717E+003
  1.8962698E+003
  1.8425284E+003
  1.6042670E+003
  8.2481109E+002
  7.9091798E+001
 -6.8952515E+002
 -8.4700476E+002
 -6.8442102E+002
 -4.9061799E+002
 -3.2783462E+002
 -1.5291018E+002
  4.2359067E+001
  2.9594540E+002
  6.1872837E+002
  1.0053554E+003
  1.4276090E+003
  1.8532525E+003
  2.2547256E+003
  2.6103672E+003
  2.8987396E+003
  3.0914672E+003
  3.1476259E+003
  3.0137235E+003
  2.6373381E+003
  2.0075437E+003
  1.2254401E+003
  6.0273152E+002
  4.3492933E+002
  5.4844752E+002
  4.4998271E+002
  5.3732186E+002
  2.2749586E+003
  2.5120563E+003
  2.2857729E+003
  1.7981464E+003
  1.4369302E+003
  9.2609007E+002
  4.4684701E+002
  6.7190500E+000
 -3.3947266E+002
 -1.1654053E+003
 -2.7021876E+003
 -4.4404534E+003
 -4.2246977E+003
 -3.4892906E+003
 -2.8490618E+003
 -2.3296482E+003
 -1.8425275E+003
 -1.3868965E+003
 -9.6769581E+002
 -6.0745203E+002
 -3.4295787E+002
 -1.3055981E+002
  9.3853397E+000
  2.7602793E+001
  5.1655433E+001
  3.4708362E+001
  6.2137937E+001
  4.4157163E+001
  5.3584963E+002
 -3.7907456E+002
 -2.4532911E+002
  5.7125083E+002
  2.0286850E+003
  2.8902931E+003
  3.1549317E+003
  3.1478153E+003
  3.1022057E+003
  3.1033299E+003
  3.1940889E+003
  3.3505734E+003
  3.5015455E+003
  3.5888724E+003
  3.5321553E+003
  3.4586780E+003
  3.3524813E+003
  3.1901751E+003
  2.8994307E+003
  2.5165221E+003
  2.2120130E+003
  2.0594915E+003
  2.0964775E+003
  2.1534932E+003
  2.1381614E+003
  1.9996298E+003
  1.7812856E+003
  1.4388666E+003
  9.3618848E+002
  2.4008824E+002
 -6.2133513E+002
 -1.1835856E+003
 -1.4143582E+003
 -1.3684751E+003
 -1.1867713E+003
 -9.5692718E+002
 -7.0933355E+002
 -4.3684150E+002
 -1.3199672E+002
  2.1337868E+002
  5.9283540E+002
  9.8908242E+002
  1.3783984E+003
  1.7365299E+003
  2.0403283E+003
  2.2661961E+003
  2.3874616E+003
  2.3737882E+003
  2.1963574E+003
  1.8428967E+003
  1.3455878E+003
  8.1103905E+002
  4.0479689E+002
  2.3103437E+002
  3.0521534E+002
  5.8008310E+002
  1.9878152E+003
  3.9293576E+003
  3.1553049E+003
  2.7115345E+003
  2.1856849E+003
  1.6014610E+003
  1.0914744E+003
  5.7163172E+002
 -1.1450520E+002
 -1.1341463E+003
 -2.5600062E+003
 -3.6220704E+003
 -4.1830880E+003
 -4.0060686E+003
 -3.5361883E+003
 -2.9794013E+003
 -2.4014234E+003
 -1.8267429E+003
 -1.2905603E+003
 -8.3053100E+002
 -4.6974080E+002
 -2.0975181E+002
 -3.7909724E+001
  4.2130812E+001
  5.0366994E+001
  2.9485492E+001
  4.1404181E+001
  5.4176778E+002
  1.3386457E+003
 -4.3280941E+002
  2.3450871E+003
  4.4316122E+003
  4.7860746E+003
  4.4264691E+003
  4.0134335E+003
  3.6935247E+003
  3.5058458E+003
  3.4363509E+003
  3.4569853E+003
  3.5179630E+003
  3.5618536E+003
  3.5872604E+003
  3.5790943E+003
  3.5509885E+003
  3.4483923E+003
  3.1411035E+003
  2.5083710E+003
  1.8942058E+003
  1.8521215E+003
  1.9750986E+003
  2.0228045E+003
  2.0248790E+003
  1.9167972E+003
  1.4756661E+003
  1.0207398E+003
  5.2122567E+002
 -1.1467072E+002
 -8.2892246E+002
 -1.3634773E+003
 -1.6060454E+003
 -1.6240815E+003
 -1.4966349E+003
 -1.2870064E+003
 -1.0333197E+003
 -7.5056640E+002
 -4.4009967E+002
 -1.0420730E+002
  2.4999438E+002
  6.0828395E+002
  9.5168802E+002
  1.2592731E+003
  1.5098714E+003
  1.6823595E+003
  1.7558656E+003
  1.7118838E+003
  1.5403544E+003
  1.2506436E+003
  8.8480479E+002
  5.1890794E+002
  2.3842106E+002
  7.2880462E+001
  1.7147521E+001
  1.2573182E+002
  1.7072634E+002
  4.4130809E+002
  2.1577577E+003
  3.3940586E+003
  3.6856591E+003
  2.6594072E+003
  2.0785437E+003
  1.5467408E+003
  8.7459231E+002
 -3.6301306E+001
 -1.1947753E+003
 -2.4292073E+003
 -3.5192222E+003
 -4.0828242E+003
 -4.1737811E+003
 -3.8811380E+003
 -3.3747977E+003
 -2.7600214E+003
 -2.1068947E+003
 -1.4758096E+003
 -9.2544825E+002
 -4.9974650E+002
 -2.1335542E+002
 -5.3706278E+001
  1.7072710E+001
  3.1728267E+001
  2.1597306E+001
  5.9818674E+003
 -2.1356657E+003
  1.5505666E+003
  7.1968297E+003
  7.5391773E+003
  6.0042760E+003
  4.8931901E+003
  4.1379118E+003
  3.6703073E+003
  3.3698241E+003
  3.2033023E+003
  3.1422831E+003
  3.1513582E+003
  3.1973966E+003
  3.2539390E+003
  3.3209478E+003
  3.3833213E+003
  3.4091069E+003
  3.2867490E+003
  2.6202821E+003
  1.5532101E+003
  1.2039121E+003
  1.2881378E+003
  1.2066052E+003
  1.2452628E+003
  1.3731324E+003
  1.0924521E+003
  7.7798439E+002
  6.8216340E+002
 -1.6364153E+002
 -8.4689234E+002
 -1.2255270E+003
 -1.4573639E+003
 -1.5488789E+003
 -1.4915691E+003
 -1.3421025E+003
 -1.1363404E+003
 -8.9027697E+002
 -6.1432880E+002
 -3.1646368E+002
 -6.0989352E+000
  3.0289006E+002
  5.9359596E+002
  8.4794241E+002
  1.0480151E+003
  1.1769873E+003
  1.2204615E+003
  1.1692813E+003
  1.0244282E+003
  8.0329910E+002
  5.4336947E+002
  2.9767415E+002
  1.1436249E+002
  1.1901989E+001
 -2.5132853E+001
 -1.6757971E+001
 -9.2067053E+000
  1.5853984E+003
  3.8109548E+003
  3.4488831E+003
  2.7285043E+003
  2.5334783E+003
  1.9809313E+003
  1.1216398E+003
  8.5831019E+000
 -1.2369337E+003
 -2.4558900E+003
 -3.4196131E+003
 -4.0150180E+003
 -4.1782299E+003
 -3.9856159E+003
 -3.5311655E+003
 -2.9099414E+003
 -2.2031644E+003
 -1.4945898E+003
 -8.7169908E+002
 -4.0788031E+002
 -1.3223163E+002
 -2.5950881E+001
 -2.2326686E+000
 -5.4552710E+000
 -4.6658821E+000
  1.7526680E+004
  1.4384335E+004
  1.3751124E+004
  7.6525532E+003
  5.1777283E+003
  3.8190085E+003
  3.2889879E+003
  2.9230322E+003
  2.6525167E+003
  2.4785101E+003
  2.4085245E+003
  2.4176824E+003
  2.4771084E+003
  2.5699004E+003
  2.6787466E+003
  2.8128967E+003
  2.8825944E+003
  3.0616243E+003
  2.3905544E+003
  1.4578380E+003
  2.8128615E+002
  6.4331440E+002
  4.0497225E+002
  3.5542163E+002
  8.2808621E+002
  1.3373065E+003
  9.3185188E+002
  9.8151651E+002
  2.7515225E+002
 -3.9603012E+002
 -6.7029433E+002
 -1.0445711E+003
 -1.1833472E+003
 -1.2166600E+003
 -1.1692629E+003
 -1.0425797E+003
 -8.6602190E+002
 -6.5602487E+002
 -4.1857250E+002
 -1.6698095E+002
  8.3500135E+001
  3.1671758E+002
  5.1688119E+002
  6.6956974E+002
  7.6237140E+002
  7.8615247E+002
  7.3760631E+002
  6.2262497E+002
  4.5913193E+002
  2.7765667E+002
  1.1546205E+002
  8.7231758E+000
 -2.2541031E+001
 -4.0006134E+001
 -1.5783182E+002
 -1.6110612E+002
  4.6291293E+003
  5.3482888E+003
  3.9849331E+003
  3.2238244E+003
  2.4783983E+003
  1.3540128E+003
  2.7029031E+001
 -1.3651256E+003
 -2.5718081E+003
 -3.4661153E+003
 -3.9786378E+003
 -4.1271570E+003
 -3.9550761E+003
 -3.5257141E+003
 -2.8997213E+003
 -2.1457906E+003
 -1.3548274E+003
 -6.5508577E+002
 -1.7486347E+002
  2.7343119E+001
  4.7341521E+001
 -3.3470433E+001
 -5.0623608E+001
 -2.7223242E+001
  9.9034152E+003
  4.4395377E+003
  8.1190348E+003
  1.6936951E+003
  1.0550770E+003
  1.2154100E+003
  1.5421575E+003
  1.5133395E+003
  1.3804724E+003
  1.3043929E+003
  1.3057741E+003
  1.3653918E+003
  1.4621264E+003
  1.5807030E+003
  1.7086278E+003
  1.8368200E+003
  1.9030986E+003
  1.9249180E+003
  1.1829065E+003
  8.1927878E+002
  1.2142906E+003
  6.7727537E+002
  9.6818165E+002
  1.5754351E+003
  6.9948443E+002
  3.0965124E+002
 -3.6396300E+002
 -5.5399661E+002
 -7.7038719E+002
 -8.0549479E+002
 -7.7691147E+002
 -7.0516852E+002
 -5.7738296E+002
 -4.1550213E+002
 -2.3295127E+002
 -4.6599240E+001
  1.2594427E+002
  2.7120095E+002
  3.7871108E+002
  4.3966067E+002
  4.4829759E+002
  4.0406382E+002
  3.1367888E+002
  1.9277125E+002
  6.3152517E+001
 -4.5131754E+001
 -1.2172652E+002
 -1.1851608E+002
 -1.8087893E+002
 -4.7150695E+002
 -4.5165855E+002
  2.9705384E+003
  3.6064118E+003
  3.8291682E+003
  2.7967911E+003
  1.5994011E+003
 -1.0337464E+002
 -1.6468481E+003
 -2.8238963E+003
 -3.5608722E+003
 -3.9262437E+003
 -3.9887340E+003
 -3.7969123E+003
 -3.3778540E+003
 -2.7558086E+003
 -1.9602121E+003
 -1.0844945E+003
 -3.0517860E+002
  1.7698319E+002
  3.1073874E+002
  8.3752336E+001
 -6.8779214E+001
 -6.1708847E+001
 -2.4736147E+001
 -2.4058313E+004
 -2.2439303E+004
 -1.1204384E+004
 -8.8840251E+003
 -4.8543477E+003
 -1.9386259E+003
 -6.1634253E+002
 -4.4791585E+002
 -3.3122813E+002
 -2.0475051E+002
 -5.8425229E+001
  9.2075868E+001
  2.4102896E+002
  3.8290392E+002
  5.1189383E+002
  6.0798692E+002
  6.3825195E+002
  4.5196122E+002
  3.3681802E+001
 -4.0513104E+002
  1.5517578E+003
  1.0774181E+003
  1.4136411E+003
  5.0840736E+002
  2.7521357E+002
 -1.8402711E+002
 -2.8405497E+002
 -4.1875262E+002
 -4.2520021E+002
 -3.9936655E+002
 -3.2302409E+002
 -2.0917733E+002
 -8.9369877E+001
  1.8975676E+001
  1.0855616E+002
  1.7215333E+002
  2.0357725E+002
  1.9836620E+002
  1.5629024E+002
  8.3053689E+001
 -1.0018768E+001
 -1.0578990E+002
 -1.9092562E+002
 -2.4075833E+002
 -2.9826664E+002
 -2.8598614E+002
 -2.2814051E+002
  1.6071333E+003
  4.2827077E+003
  3.9122847E+003
  3.4642190E+003
  1.5850514E+003
 -5.2550132E+002
 -2.2264775E+003
 -3.1952344E+003
 -3.6207140E+003
 -3.7428485E+003
 -3.6840131E+003
 -3.4680235E+003
 -3.0725874E+003
 -2.4720571E+003
 -1.6768920E+003
 -6.6006913E+002
  3.3030774E+002
  6.8851109E+002
  3.2016633E+002
 -8.3487695E+000
 -7.9490115E+001
 -2.7191738E+001
 -1.5379526E+001
 -2.9599624E+004
 -1.4996856E+004
 -1.2764521E+004
 -8.9957657E+003
 -3.5721794E+003
 -3.4021884E+003
 -2.7410880E+003
 -2.2646294E+003
 -1.8387659E+003
 -1.5195301E+003
 -1.2651284E+003
 -1.0637280E+003
 -9.0156508E+002
 -7.7218565E+002
 -6.7900392E+002
 -6.3152976E+002
 -6.6540077E+002
 -5.2152418E+002
 -1.7847724E+002
  1.0421217E+003
  8.0563487E+002
  1.0626828E+003
  4.4204389E+002
  3.3309490E+002
  4.3439007E+001
 -5.6110744E+001
 -1.5927241E+002
 -1.5243425E+002
 -1.0176393E+002
 -5.3732170E+001
 -1.2218731E+001
  2.0248735E+001
  4.1806334E+001
  4.5626949E+001
  2.6724657E+001
 -1.6121380E+001
 -7.9318038E+001
 -1.5447598E+002
 -2.3045051E+002
 -2.9584372E+002
 -3.3987200E+002
 -3.6226209E+002
 -2.5458232E+002
 -7.5292902E+001
  1.8144332E+003
  3.7569384E+003
  3.4710616E+003
  1.1893358E+003
 -1.6598079E+003
 -3.1971818E+003
 -3.5164250E+003
 -3.4171720E+003
 -3.2519911E+003
 -3.0849956E+003
 -2.8917835E+003
 -2.5782354E+003
 -2.0176186E+003
 -1.1954951E+003
 -3.3224383E+002
  7.6955257E+002
  1.3260329E+003
  3.2163439E+002
 -2.9989525E+002
 -5.3903860E+003
 -8.3936260E+003
 -1.6468224E+004
 -7.6302737E+003
 -6.4258607E+003
 -4.9311077E+003
 -3.9775399E+003
 -3.3278112E+003
 -2.8748938E+003
 -2.5540070E+003
 -2.3217898E+003
 -2.1500961E+003
 -2.0136512E+003
 -1.8906418E+003
 -1.7307403E+003
 -1.4997550E+003
 -8.7864667E+002
 -3.3594594E+002
  7.4412991E+002
  6.2148727E+002
  8.9810575E+002
  4.8425600E+002
  4.1096624E+002
  7.7563238E+001
  1.0171077E+002
  8.1942572E+001
  4.8404993E+001
  1.3809699E+001
 -5.1914520E+000
 -2.2636414E+001
 -4.4008150E+001
 -7.5877551E+001
 -1.2224477E+002
 -1.8077561E+002
 -2.4508599E+002
 -3.0618818E+002
 -3.5597325E+002
 -3.7940918E+002
 -3.6341507E+002
 -2.1850764E+002
 -8.5444052E+001
  1.1876753E+003
  2.4080200E+003
  4.7312281E+003
 -4.5420940E+002
 -4.1951922E+003
 -4.0917637E+003
 -3.2311218E+003
 -2.6188409E+003
 -2.2453179E+003
 -2.0647966E+003
 -1.9728280E+003
 -1.8586523E+003
 -1.4422493E+003
 -4.2420613E+002
  1.2441794E+003
  2.8496360E+003
  2.2847573E+003
 -6.8798465E+003
 -7.9884610E+003
 -7.9622735E+003
 -5.8376898E+003
 -5.0827327E+003
 -4.3844458E+003
 -3.9540960E+003
 -3.6380742E+003
 -3.4212608E+003
 -3.2616698E+003
 -3.1235147E+003
 -2.9599892E+003
 -2.6767441E+003
 -2.2030962E+003
 -1.2136569E+003
 -3.6859876E+002
  5.4084674E+002
  6.0914935E+002
  9.4102585E+002
  4.7591838E+002
  4.6146194E+002
  2.9120982E+002
  1.6395078E+002
  9.0064409E+001
  1.9693364E+001
 -3.3408593E+001
 -7.3566714E+001
 -1.1763462E+002
 -1.7052474E+002
 -2.2921673E+002
 -2.8712117E+002
 -3.3673590E+002
 -3.7023091E+002
 -3.7494928E+002
 -3.4146154E+002
 -2.0394424E+002
 -6.6055274E+001
  7.8571714E+003
 -1.7822930E+003
 -6.7968361E+003
 -6.4295352E+003
 -2.9986166E+003
 -1.6899677E+003
 -8.9612559E+002
 -6.1609855E+002
 -5.6560939E+002
 -6.5377608E+002
 -7.7761183E+002
 -8.2931343E+002
  2.2768127E+001
  1.7519247E+003
  2.1222185E+003
  3.1745679E+002
 -3.6237571E+003
 -5.7467678E+003
 -5.6288520E+003
 -5.2833160E+003
 -4.9405270E+003
 -4.6488043E+003
 -4.4373892E+003
 -4.2856667E+003
 -4.1697525E+003
 -4.0478701E+003
 -3.8664865E+003
 -3.5089874E+003
 -2.8902438E+003
 -1.5500557E+003
 -5.1794721E+002
  9.2530443E+002
  7.1153844E+002
  5.7498610E+002
  4.9033154E+002
  3.2444221E+002
  2.0864791E+002
  7.7864498E+001
  4.2658919E+000
 -4.7795137E+001
 -1.0678624E+002
 -1.7109227E+002
 -2.3359994E+002
 -2.8932588E+002
 -3.3038481E+002
 -3.5017329E+002
 -3.3828207E+002
 -3.0496066E+002
 -1.9242390E+002
 -8.3174171E+001
 -1.1839966E+004
 -3.6040672E+003
 -1.6195006E+003
  1.0551405E+003
  1.4740039E+003
  1.6571885E+003
  1.5222311E+003
  1.3032172E+003
  1.0073110E+003
  7.6803627E+002
  2.7957515E+002
  9.6654280E+002
  3.9957362E+003
  3.5861363E+003
 -2.2683205E+003
 -3.0034790E+003
 -3.7949174E+003
 -4.6565789E+003
 -5.0081549E+003
 -5.0151822E+003
 -4.9790211E+003
 -4.9256574E+003
 -4.8847858E+003
 -4.8407061E+003
 -4.7602972E+003
 -4.5896448E+003
 -4.2253492E+003
 -3.6015635E+003
 -2.0669534E+003
 -5.2999903E+002
  3.2398438E+002
  4.1527144E+002
  7.2594957E+002
  4.5471369E+002
  4.0898513E+002
  1.3823679E+002
  1.0542196E+002
  2.9189274E+001
 -5.5882426E+001
 -1.3529820E+002
 -2.0589589E+002
 -2.6168070E+002
 -2.9885643E+002
 -3.1003911E+002
 -2.8679337E+002
 -2.3571451E+002
 -1.5068778E+002
 -6.7665444E+001
  1.3772248E+004
  9.2413294E+003
  9.2168702E+003
  6.2594458E+003
  5.3512032E+003
  4.4188952E+003
  3.7754998E+003
  3.2306026E+003
  2.8030493E+003
  2.4165374E+003
  2.2270491E+003
  1.6332127E+003
  1.0558220E+003
 -1.4420079E+003
 -2.5226980E+003
 -3.9377142E+003
 -4.4124395E+003
 -4.8074737E+003
 -4.9980844E+003
 -5.1340595E+003
 -5.2233795E+003
 -5.2728477E+003
 -5.2495581E+003
 -5.1243012E+003
 -4.7513574E+003
 -4.2645009E+003
 -2.7598555E+003
 -1.4820800E+003
  3.9243456E+002
  4.5271014E+002
  6.9931569E+002
  3.3104208E+002
  2.7887952E+002
  1.2012304E+002
  9.4175754E+000
 -8.0309641E+001
 -1.5104835E+002
 -2.1558755E+002
 -2.5110837E+002
 -2.6147019E+002
 -2.4111171E+002
 -1.9603436E+002
 -1.8704350E+002
 -1.1505564E+002
  1.1421140E+004
  1.2230709E+004
  1.3519942E+004
  9.7871691E+003
  8.0571796E+003
  6.5944077E+003
  5.6056253E+003
  4.8499478E+003
  4.3081539E+003
  3.8300977E+003
  3.6369879E+003
  1.9603025E+003
 -1.6888651E+003
 -3.0718197E+002
 -1.6269631E+003
 -3.0239091E+003
 -3.8099984E+003
 -4.3940220E+003
 -4.8059390E+003
 -5.1096508E+003
 -5.3346994E+003
 -5.4834989E+003
 -5.5375543E+003
 -5.4492110E+003
 -5.1644348E+003
 -4.5387920E+003
 -3.4085279E+003
 -2.5849713E+003
  6.3285834E+002
  4.4425063E+002
  3.1187099E+002
  2.0746480E+002
  6.9796210E+001
  1.2697078E+001
 -9.6009316E+001
 -1.5945239E+002
 -1.9153717E+002
 -1.9864683E+002
 -2.0197032E+002
 -1.5090609E+002
 -9.7149235E+001
  2.2378162E+003
  6.4813129E+003
  1.0341137E+004
  1.0013589E+004
  8.7951503E+003
  7.6328199E+003
  6.6551318E+003
  5.8719706E+003
  5.2326983E+003
  4.6627167E+003
  3.9272685E+003
  2.4266186E+003
  1.7360458E+002
 -6.0047459E+002
 -2.5470464E+003
 -2.6390794E+002
 -9.9924863E+002
 -2.2431067E+003
 -3.1704612E+003
 -3.9020061E+003
 -4.4651038E+003
 -4.9123313E+003
 -5.2598828E+003
 -5.5098075E+003
 -5.6448547E+003
 -5.6317502E+003
 -5.4183470E+003
 -4.9104754E+003
 -4.1579435E+003
 -2.5841758E+003
 -7.3047637E+002
 -1.4348803E+003
  2.0423659E+002
  2.0185943E+002
  3.0266423E+002
  1.1446583E+002
  8.5680491E+001
 -1.7074347E+001
 -9.0867509E+001
 -1.0957414E+002
 -1.3221257E+002
 -1.3242869E+002
 -8.0717842E+001
 -1.3517780E+001
  5.9645090E+003
  6.0265529E+003
  3.4201104E+003
  4.2981530E+003
  6.8010928E+003
  8.1110560E+003
  8.0926595E+003
  7.5521779E+003
  6.8841754E+003
  6.2144553E+003
  5.5560732E+003
  4.8292647E+003
  3.8216934E+003
  2.3227710E+003
  6.0569124E+002
 -3.2934740E+002
 -4.1687734E+001
 -6.0669232E+002
 -1.6668227E+003
 -2.5828358E+003
 -3.3713199E+003
 -4.0333869E+003
 -4.5903275E+003
 -5.0432575E+003
 -5.3876597E+003
 -5.6122386E+003
 -5.6833057E+003
 -5.6095536E+003
 -5.2613276E+003
 -5.1896338E+003
 -4.0314359E+003
 -2.6844680E+003
  2.0287461E+002
  8.6671187E+001
  9.2594146E+001
  9.8729160E+001
  4.1680050E-001
 -2.9194921E+001
 -6.0346704E+001
 -5.6371013E+001
 -3.7512764E+001
 -1.8607808E+001
  3.5313059E+003
  5.4267276E+003
  3.8475301E+003
  3.8131684E+003
  3.6639014E+003
  1.6595914E+003
  3.0915421E+003
  4.6898725E+003
  6.1170905E+003
  6.7552657E+003
  6.7895680E+003
  6.4856624E+003
  6.0072571E+003
  5.4024398E+003
  4.6369090E+003
  3.6373585E+003
  2.4467727E+003
  1.3136791E+003
  5.2975940E+002
  3.7833552E+002
 -3.0347043E+001
  9.0714917E+001
 -3.5490328E+002
 -1.1493685E+003
 -2.0446026E+003
 -2.8138528E+003
 -3.5457289E+003
 -4.1824472E+003
 -4.7215049E+003
 -5.1522997E+003
 -5.4623420E+003
 -5.6398566E+003
 -5.6552344E+003
 -5.5522795E+003
 -5.1487807E+003
 -4.6372429E+003
 -5.2569657E+003
  1.2016108E+002
  2.5712550E+001
  1.0922653E+001
 -2.1159388E+001
 -1.2037550E+001
 -1.4677554E+001
  1.4586444E+003
  1.8964508E+003
  9.8785015E+002
  5.3707961E+002
  1.0317591E+003
  5.6205446E+002
  7.9828100E+002
  2.4499184E+002
  7.1120782E+002
  2.2565140E+002
  6.8883891E+002
  1.9376090E+002
  7.3286270E+002
  2.1424442E+002
  8.7393381E+002
  2.2415561E+002
  1.1061799E+003
  4.1745586E+002
  1.7413290E+003
  3.7908915E+002
  2.7055748E+003
  2.1886067E+003
  2.8634054E+003
  2.5545760E+003
  2.1314449E+003
  1.7097619E+003
  2.1952708E+003
  3.4321690E+003
  4.6141304E+003
  5.4208934E+003
  5.7671878E+003
  5.7448700E+003
  5.4580649E+003
  4.9642275E+003
  4.2776951E+003
  3.4133528E+003
  2.4378208E+003
  1.4858458E+003
  7.6745134E+002
  5.2810974E+002
  5.3687438E+002
  4.8970365E+002
 -2.2083540E+002
 -6.4674075E+002
 -1.4667672E+003
 -2.2478206E+003
 -3.0235212E+003
 -3.7166358E+003
 -4.3225205E+003
 -4.8274288E+003
 -5.2213802E+003
 -5.4963556E+003
 -5.6320399E+003
 -5.6358026E+003
 -5.2988371E+003
 -5.2190374E+003
 -4.4598220E+003
 -3.3543633E+003
 -2.8257248E+003
  1.4415604E+003
  2.4765845E+003
  1.4211416E+003
  6.5298647E+002
  1.7518549E+003
  1.2829448E+003
  1.4140639E+003
  1.1768944E+003
  1.3967505E+003
  1.3541264E+003
  1.3151240E+003
  1.3279386E+003
  1.4295067E+003
  1.6336327E+003
  1.9988136E+003
  2.4796763E+003
  2.7191709E+003
  1.9268958E+003
  1.4453178E+003
  1.3686693E+003
  1.3350313E+003
  1.7716530E+003
  2.6090449E+003
  3.5510834E+003
  4.3067220E+003
  4.7577279E+003
  4.8947907E+003
  4.7593649E+003
  4.3950716E+003
  3.8377187E+003
  3.1312100E+003
  2.3474393E+003
  1.6086554E+003
  1.0397475E+003
  7.7385452E+002
  5.7782781E+002
  3.8422187E+002
  2.3208744E+002
  1.5666845E+002
 -1.3777871E+002
 -8.5550436E+002
 -1.7025548E+003
 -2.4787598E+003
 -3.2085916E+003
 -3.8635545E+003
 -4.4290475E+003
 -4.8983722E+003
 -5.2680393E+003
 -5.5424398E+003
 -5.7039857E+003
 -5.8448027E+003
 -5.9564504E+003
 -5.9038864E+003
 -5.8685630E+003
  1.9960691E+003
  2.9731374E+003
  1.9367909E+003
  1.5739046E+003
  2.1324605E+003
  1.7516180E+003
  1.9086703E+003
  1.4682766E+003
  1.3412576E+003
  1.4225613E+003
  1.5331897E+003
  1.5925012E+003
  1.6652407E+003
  1.7838957E+003
  1.9642418E+003
  2.1756969E+003
  2.2975342E+003
  2.0936590E+003
  1.7641428E+003
  1.2961918E+003
  1.0379300E+003
  1.1090273E+003
  1.4628807E+003
  2.0770624E+003
  2.7920359E+003
  3.4309083E+003
  3.8742607E+003
  4.0773515E+003
  4.0424060E+003
  3.7942860E+003
  3.3687620E+003
  2.8142288E+003
  2.1995258E+003
  1.6106664E+003
  1.1409459E+003
  8.2849401E+002
  6.6899768E+002
  7.1883340E+002
  2.9653812E+002
  1.5920245E+002
 -4.4384107E+002
 -1.1436192E+003
 -1.9082298E+003
 -2.6638844E+003
 -3.3522538E+003
 -3.9634591E+003
 -4.4933337E+003
 -4.9475932E+003
 -5.3431932E+003
 -5.7222627E+003
 -6.1384110E+003
 -6.5197408E+003
 -6.7274442E+003
 -4.9469897E+003
 -1.2506625E+003
 -3.6542157E+003
  2.1984263E+003
  2.7849842E+003
  1.8036517E+003
  8.0624496E+002
  2.3396203E+003
  1.8268185E+003
  2.0562179E+003
  1.7872347E+003
  1.7928099E+003
  1.6683524E+003
  1.6080614E+003
  1.5771714E+003
  1.4954477E+003
  1.5364339E+003
  1.6321089E+003
  1.7322253E+003
  1.8302373E+003
  1.9393486E+003
  2.0520729E+003
  2.1264339E+003
  2.0796654E+003
  1.8793162E+003
  1.4972800E+003
  1.1557198E+003
  9.6169317E+002
  9.8490537E+002
  1.2523780E+003
  1.7041980E+003
  2.2434520E+003
  2.7540904E+003
  3.1427380E+003
  3.3562897E+003
  3.3788714E+003
  3.2203471E+003
  2.9082789E+003
  2.4849601E+003
  2.0065793E+003
  1.5363178E+003
  1.1351200E+003
  8.1372084E+002
  6.3089104E+002
  5.0474774E+002
  3.8719683E+002
  3.7847661E+002
  7.6334784E+002
  1.0648072E+003
  3.8792559E+002
 -4.8383536E+002
 -1.3069272E+003
 -2.0787218E+003
 -2.7872885E+003
 -3.4331826E+003
 -4.0035004E+003
 -4.5099858E+003
 -4.9900003E+003
 -5.4699620E+003
 -6.1065598E+003
 -6.6704316E+003
 -8.4978315E+003
 -8.0424155E+003
 -6.5658941E+003
  2.4447498E+003
  2.8819074E+003
  1.7718430E+003
  8.5587578E+002
  2.2985948E+003
  1.8449923E+003
  2.0345625E+003
  1.9327103E+003
  2.3443321E+003
  1.8247550E+003
  1.5549252E+003
  1.5655221E+003
  1.5605398E+003
  1.5477589E+003
  1.5193772E+003
  1.5303900E+003
  1.5761828E+003
  1.6604690E+003
  1.7569615E+003
  1.8501104E+003
  1.9306755E+003
  1.9821010E+003
  1.9712470E+003
  1.8644335E+003
  1.6410651E+003
  1.3602008E+003
  1.0849655E+003
  9.2024378E+002
  9.2600516E+002
  1.1085443E+003
  1.4348958E+003
  1.8360506E+003
  2.2321885E+003
  2.5524439E+003
  2.7487356E+003
  2.7988430E+003
  2.7031246E+003
  2.4797537E+003
  2.1609512E+003
  1.7889283E+003
  1.4105596E+003
  1.0649713E+003
  7.9060145E+002
  6.0635280E+002
  5.3732995E+002
  5.9276928E+002
  8.8803315E+002
  7.6867321E+002
  8.6263496E+001
 -6.7543718E+002
 -1.4237852E+003
 -2.1761248E+003
 -2.8421142E+003
 -3.4306419E+003
 -3.9537958E+003
 -4.4378129E+003
 -4.9438806E+003
 -5.4863769E+003
 -6.3122892E+003
 -6.9280470E+003
 -8.4256287E+003
 -1.2867645E+004
  1.6976778E+003
  2.1244129E+003
  1.0873310E+003
  6.1640057E+002
  1.2284542E+003
  6.4872411E+002
  1.0714475E+003
  3.8657777E+002
  1.2894905E+003
  3.3638681E+002
  1.6670963E+003
  1.2735709E+003
  1.6959100E+003
  1.6990328E+003
  2.2507664E+003
  1.8373954E+003
  1.7433701E+003
  1.7431814E+003
  1.7203313E+003
  1.5411489E+003
  1.4495836E+003
  1.4437754E+003
  1.4508335E+003
  1.4705125E+003
  1.5005585E+003
  1.5554768E+003
  1.6287631E+003
  1.7092224E+003
  1.7820336E+003
  1.8325412E+003
  1.8429749E+003
  1.7932051E+003
  1.6670826E+003
  1.4715898E+003
  1.2352115E+003
  1.0224320E+003
  8.9033631E+002
  8.7986220E+002
  1.0014644E+003
  1.2321351E+003
  1.5260770E+003
  1.8267875E+003
  2.0811564E+003
  2.2491637E+003
  2.3083376E+003
  2.2537394E+003
  2.0956460E+003
  1.8563602E+003
  1.5664163E+003
  1.2598499E+003
  9.6965155E+002
  7.2568775E+002
  5.3359332E+002
  4.0051805E+002
  2.9036706E+002
  1.6958717E+002
  3.5722573E+002
  1.2979519E+003
  2.1005678E+003
  1.1760040E+003
  1.5448133E+002
 -7.3691941E+002
 -1.5205324E+003
 -2.2008128E+003
 -2.7947580E+003
 -3.2974830E+003
 -3.7400038E+003
 -4.1548946E+003
 -4.5936353E+003
 -5.0278544E+003
 -5.4902240E+003
 -6.1040278E+003
 -9.4255500E+003
 -1.2879158E+004
 -1.4139781E+004
  1.6786496E+003
  2.1983604E+003
  1.2037916E+003
  6.7144718E+002
  1.4761941E+003
  6.9881390E+002
  1.4889042E+003
  1.0200642E+003
  1.3482665E+003
  1.2038953E+003
  1.6112122E+003
  1.7439794E+003
  1.8914439E+003
  1.9121296E+003
  1.4711587E+003
  1.4860529E+003
  1.6216445E+003
  1.7266458E+003
  1.6312317E+003
  1.5930337E+003
  1.5129605E+003
  1.4380253E+003
  1.3815823E+003
  1.3623919E+003
  1.3731850E+003
  1.3972621E+003
  1.4357446E+003
  1.4867563E+003
  1.5475535E+003
  1.6092887E+003
  1.6603396E+003
  1.6870296E+003
  1.6747727E+003
  1.6106181E+003
  1.4895946E+003
  1.3204112E+003
  1.1317922E+003
  9.6196619E+002
  8.5285407E+002
  8.3306289E+002
  9.1032488E+002
  1.0708043E+003
  1.2833089E+003
  1.5079867E+003
  1.7052687E+003
  1.8431484E+003
  1.9013133E+003
  1.8723256E+003
  1.7606648E+003
  1.5805228E+003
  1.3528489E+003
  1.1024652E+003
  8.5496859E+002
  6.3533644E+002
  4.6185038E+002
  3.8941186E+002
  2.9037825E+002
  1.5261498E+002
  1.5080184E+003
  1.5170240E+003
  8.1286128E+002
 -4.5283195E+001
 -8.0426798E+002
 -1.5407977E+003
 -2.1259374E+003
 -2.5906514E+003
 -2.9620609E+003
 -3.2766533E+003
 -3.5655634E+003
 -3.8637582E+003
 -4.3440653E+003
 -5.6259649E+003
 -8.0995125E+003
 -9.2327756E+003
 -1.3180816E+004
 -1.4897057E+004
  2.4279866E+003
  2.6349335E+003
  1.4338418E+003
  7.7121227E+002
  1.8154464E+003
  1.5396980E+003
  1.4906787E+003
  1.3416319E+003
  1.7357442E+003
  1.7043992E+003
  1.2966981E+003
  1.2926475E+003
  1.5274520E+003
  1.7582152E+003
  1.8367752E+003
  1.7284399E+003
  1.6274669E+003
  1.4941432E+003
  1.5096547E+003
  1.5034597E+003
  1.4890027E+003
  1.4405036E+003
  1.3956688E+003
  1.3434635E+003
  1.3054605E+003
  1.2902941E+003
  1.2957729E+003
  1.3170818E+003
  1.3487978E+003
  1.3889290E+003
  1.4335939E+003
  1.4767117E+003
  1.5093781E+003
  1.5205703E+003
  1.4988805E+003
  1.4353398E+003
  1.3283634E+003
  1.1874969E+003
  1.0336891E+003
  8.9645878E+002
  8.0450593E+002
  7.7837716E+002
  8.2464563E+002
  9.3450576E+002
  1.0867146E+003
  1.2529068E+003
  1.4037429E+003
  1.5141386E+003
  1.5667039E+003
  1.5531782E+003
  1.4741704E+003
  1.3377184E+003
  1.1571308E+003
  9.4918362E+002
  7.3195748E+002
  5.2820348E+002
  3.5625475E+002
  2.5027247E+002
  1.6327503E+002
  9.2794909E+001
  1.8802356E+003
  3.2282146E+003
  2.0754335E+003
  8.8112286E+002
 -1.0730633E+002
 -8.8799563E+002
 -1.4602126E+003
 -1.8819302E+003
 -2.1808551E+003
 -2.4104766E+003
 -2.6188633E+003
 -2.8770121E+003
 -3.3669995E+003
 -4.1367671E+003
 -5.1659633E+003
 -5.1561681E+003
 -7.3021910E+003
 -6.4468291E+003
 -5.6220291E+003
 -3.6124182E+003
 -3.6663535E+002
 -1.8741599E+003
 -7.7093735E+002
 -1.1883404E+003
 -2.1528046E+002
 -6.5211913E+002
 -1.8516316E+002
 -2.7567312E+002
  6.6348907E+000
  2.3627411E+002
  3.8443131E+001
  7.8452115E+002
  9.7246997E+002
  9.0861243E+002
  9.4667308E+002
  1.4990289E+003
  1.1933455E+003
  1.2044226E+003
  1.3701240E+003
  1.4276728E+003
  1.4213510E+003
  1.4025668E+003
  1.5286497E+003
  1.6717138E+003
  1.7278662E+003
  1.6870837E+003
  1.5585587E+003
  1.4736593E+003
  1.4184476E+003
  1.3988810E+003
  1.3694329E+003
  1.3359582E+003
  1.2952224E+003
  1.2593059E+003
  1.2323425E+003
  1.2189821E+003
  1.2195418E+003
  1.2309103E+003
  1.2500330E+003
  1.2740304E+003
  1.3004440E+003
  1.3257119E+003
  1.3440653E+003
  1.3473430E+003
  1.3252923E+003
  1.2705778E+003
  1.1809309E+003
  1.0644312E+003
  9.3786100E+002
  8.2364819E+002
  7.4376324E+002
  7.1370748E+002
  7.3872881E+002
  8.1306369E+002
  9.2177900E+002
  1.0444100E+003
  1.1591344E+003
  1.2465094E+003
  1.2921067E+003
  1.2878189E+003
  1.2319224E+003
  1.1280848E+003
  9.8378778E+002
  8.0815113E+002
  6.1290789E+002
  4.0962734E+002
  2.2930538E+002
  5.8169079E+001
  2.0183083E+001
  1.6468802E+002
  2.1710317E+003
  2.2971095E+003
  1.5411496E+003
  5.0599562E+002
 -2.3856956E+002
 -8.4287828E+002
 -1.2005665E+003
 -1.4357387E+003
 -1.6134329E+003
 -1.7872796E+003
 -2.0233442E+003
 -2.3814954E+003
 -2.8860203E+003
 -3.3530772E+003
 -4.0072243E+003
 -5.0425251E+003
 -6.5238854E+003
 -5.2270836E+003
 -3.5731366E+003
 -2.3180759E+003
 -1.4511843E+003
 -7.3504610E+002
 -1.3670171E+002
  2.2529589E+002
  6.4025786E+001
  3.2659288E+002
  6.5785020E+002
  9.3029607E+002
  1.0240900E+003
  1.1579955E+003
  1.2706441E+003
  1.3149643E+003
  1.3806759E+003
  1.4686286E+003
  1.5577034E+003
  1.5983395E+003
  1.5684644E+003
  1.5023965E+003
  1.4209496E+003
  1.3613077E+003
  1.3157484E+003
  1.2809530E+003
  1.2466908E+003
  1.2144287E+003
  1.1851773E+003
  1.1628762E+003
  1.1491178E+003
  1.1433820E+003
  1.1435792E+003
  1.1471149E+003
  1.1523377E+003
  1.1587980E+003
  1.1664661E+003
  1.1738478E+003
  1.1744332E+003
  1.1597754E+003
  1.1175025E+003
  1.0455359E+003
  9.4785688E+002
  8.4011826E+002
  7.4138058E+002
  6.6994055E+002
  6.3803802E+002
  6.4960646E+002
  7.0020267E+002
  7.7871456E+002
  8.6997359E+002
  9.5763518E+002
  1.0267395E+003
  1.0655896E+003
  1.0667773E+003
  1.0273564E+003
  9.4826671E+002
  8.3294103E+002
  6.8521522E+002
  5.0705454E+002
  3.0401485E+002
  9.3058733E+001
 -7.3642711E+001
 -1.2131627E+002
 -3.4170397E+001
 -3.0080257E+000
  1.8495296E+002
  2.4494874E+003
  4.4050467E+003
  2.8422222E+003
  1.3181866E+003
  2.6649704E+002
 -2.7209206E+002
 -5.4050725E+002
 -7.3241538E+002
 -8.9354075E+002
 -1.0662308E+003
 -1.2896397E+003
 -1.5989689E+003
 -1.9969221E+003
 -2.5318702E+003
 -3.3126662E+003
 -4.4100452E+003
 -4.8149619E+003
 -4.7499205E+003
 -3.8816456E+003
 -2.8755609E+003
 -1.9846405E+003
 -1.2612799E+003
 -7.2038708E+002
 -4.2160732E+002
 -1.6691046E+002
  9.6233494E+000
  3.0355805E+002
  5.5467613E+002
  7.7353246E+002
  9.4459976E+002
  1.0832909E+003
  1.1964518E+003
  1.2863093E+003
  1.3717124E+003
  1.4391676E+003
  1.4701443E+003
  1.4580177E+003
  1.4097823E+003
  1.3506366E+003
  1.2931877E+003
  1.2460925E+003
  1.2064829E+003
  1.1727697E+003
  1.1429622E+003
  1.1177122E+003
  1.0974121E+003
  1.0820050E+003
  1.0701310E+003
  1.0594095E+003
  1.0473775E+003
  1.0328943E+003
  1.0177076E+003
  1.0067341E+003
  1.0037638E+003
  1.0083738E+003
  1.0024960E+003
  9.7783516E+002
  9.1828114E+002
  8.3366608E+002
  7.3616992E+002
  6.4665638E+002
  5.8166243E+002
  5.5079806E+002
  5.5591189E+002
  5.9244298E+002
  6.5128905E+002
  7.2082668E+002
  7.8876653E+002
  8.4376172E+002
  8.7657000E+002
  8.8072247E+002
  8.5274269E+002
  7.9192858E+002
  6.9974039E+002
  5.7785101E+002
  4.2287594E+002
  2.2191976E+002
 -1.7810137E+001
 -2.0812361E+002
 -2.7217585E+002
 -2.6438669E+002
 -9.0998983E+001
  2.8101475E+003
  2.9140584E+003
  1.5758697E+003
  5.9789398E+002
  3.5965403E+002
  1.2717703E+002
 -6.2499294E+001
 -2.4752725E+002
 -4.4852198E+002
 -6.9459186E+002
 -1.0143707E+003
 -1.4422412E+003
 -2.0193654E+003
 -2.7658380E+003
 -3.5088005E+003
 -4.1063059E+003
 -4.1046782E+003
 -3.6928103E+003
 -3.0125931E+003
 -2.2927070E+003
 -1.6514183E+003
 -1.1468106E+003
 -7.6866155E+002
 -5.0954760E+002
 -2.3754998E+002
  3.2060903E+001
  3.0706350E+002
  5.4587865E+002
  7.4999643E+002
  9.1802506E+002
  1.0528995E+003
  1.1638109E+003
  1.2515764E+003
  1.3139563E+003
  1.3444860E+003
  1.3411858E+003
  1.3117150E+003
  1.2668075E+003
  1.2190413E+003
  1.1746409E+003
  1.1364552E+003
  1.1040268E+003
  1.0768125E+003
  1.0540308E+003
  1.0349871E+003
  1.0183392E+003
  1.0019296E+003
  9.8286325E+002
  9.5807159E+002
  9.2547366E+002
  8.8734125E+002
  8.5359821E+002
  8.4011995E+002
  8.4452414E+002
  8.6555587E+002
  8.4749699E+002
  8.0080706E+002
  7.1426645E+002
  6.1871674E+002
  5.3436759E+002
  4.7690702E+002
  4.5201566E+002
  4.5795502E+002
  4.8872687E+002
  5.3622709E+002
  5.9133009E+002
  6.4498915E+002
  6.8895433E+002
  7.1623755E+002
  7.2137043E+002
  7.0050211E+002
  6.5162446E+002
  5.7466669E+002
  4.7241707E+002
  3.4655239E+002
  1.7686850E+002
 -1.0595998E+002
 -4.5829441E+002
 -4.5129015E+002
 -1.9410812E+002
  3.7532343E+003
  4.8618428E+003
  2.1947762E+003
  1.2695930E+003
  1.1338120E+003
  7.9994319E+002
  5.6369990E+002
  3.1713890E+002
  6.8088333E+001
 -2.1941487E+002
 -5.7427090E+002
 -1.0264938E+003
 -1.5931103E+003
 -2.2429393E+003
 -2.8886980E+003
 -3.3244828E+003
 -3.4812702E+003
 -3.2950679E+003
 -2.8816668E+003
 -2.3630144E+003
 -1.8481880E+003
 -1.3955239E+003
 -1.0258580E+003
 -7.0758045E+002
 -4.2533984E+002
 -1.4551342E+002
  1.2125260E+002
  3.6846237E+002
  5.8433712E+002
  7.6663592E+002
  9.1661898E+002
  1.0360284E+003
  1.1272262E+003
  1.1895491E+003
  1.2221664E+003
  1.2266682E+003
  1.2082775E+003
  1.1757061E+003
  1.1371010E+003
  1.0989487E+003
  1.0645781E+003
  1.0353347E+003
  1.0110923E+003
  9.9107094E+002
  9.7386518E+002
  9.5750804E+002
  9.3941692E+002
  9.1646817E+002
  8.8498681E+002
  8.4131603E+002
  7.8273247E+002
  7.2015122E+002
  6.8435011E+002
  7.1580413E+002
  7.2319440E+002
  7.3470813E+002
  6.6196266E+002
  5.7532155E+002
  4.7550942E+002
  3.9739603E+002
  3.5451340E+002
  3.4396337E+002
  3.5835676E+002
  3.9056642E+002
  4.3293620E+002
  4.7852245E+002
  5.2127352E+002
  5.5592736E+002
  5.7770049E+002
  5.8209128E+002
  5.6485877E+002
  5.2174570E+002
  4.5028279E+002
  3.4921916E+002
  2.3369071E+002
  1.0748813E+002
 -7.2177356E+001
 -5.3893659E+002
 -6.7574844E+002
 -2.8330045E+002
  2.0328849E+003
  2.4725116E+003
  2.4079690E+003
  1.7523568E+003
  1.4353601E+003
  1.0791352E+003
  7.8179736E+002
  4.8297983E+002
  1.5947078E+002
 -2.2052328E+002
 -6.7633391E+002
 -1.2076408E+003
 -1.7812952E+003
 -2.3161059E+003
 -2.7243974E+003
 -2.9091891E+003
 -2.8647585E+003
 -2.6270508E+003
 -2.2746054E+003
 -1.8808150E+003
 -1.4986932E+003
 -1.1498613E+003
 -8.3736684E+002
 -5.4486582E+002
 -2.6777574E+002
 -3.8321326E+000
  2.3926838E+002
  4.5579949E+002
  6.4143129E+002
  7.9491388E+002
  9.1706365E+002
  1.0087716E+003
  1.0710924E+003
  1.1054289E+003
  1.1147206E+003
  1.1040892E+003
  1.0799939E+003
  1.0492173E+003
  1.0172291E+003
  9.8775206E+002
  9.6260727E+002
  9.4216092E+002
  9.2561812E+002
  9.1134990E+002
  8.9712675E+002
  8.8043790E+002
  8.5863850E+002
  8.2897999E+002
  7.8713582E+002
  7.2765927E+002
  6.3677671E+002
  5.6096041E+002
  5.5916420E+002
  6.8957851E+002
  5.9385433E+002
  5.2223031E+002
  3.9266538E+002
  2.8439963E+002
  2.3108784E+002
  2.2001925E+002
  2.3289047E+002
  2.6311661E+002
  3.0215305E+002
  3.4324111E+002
  3.8160949E+002
  4.1459289E+002
  4.4014299E+002
  4.5579515E+002
  4.5812790E+002
  4.4224513E+002
  4.0237080E+002
  3.2723516E+002
  2.1548656E+002
  3.6987232E+001
 -8.9107020E+001
 -4.2611268E+002
 -1.2067733E+003
 -1.2886108E+003
  5.0373164E+002
  1.8954537E+003
  2.5874201E+003
  2.2139061E+003
  1.8097217E+003
  1.4402003E+003
  1.1138243E+003
  7.9787748E+002
  4.5936871E+002
  7.4853829E+001
 -3.6634212E+002
 -8.5633773E+002
 -1.3624700E+003
 -1.8309060E+003
 -2.1933203E+003
 -2.4032047E+003
 -2.4385053E+003
 -2.3200939E+003
 -2.0906907E+003
 -1.8001805E+003
 -1.4885542E+003
 -1.1806276E+003
 -8.8480924E+002
 -6.0324338E+002
 -3.3410757E+002
 -8.0093789E+001
  1.5455662E+002
  3.6429662E+002
  5.4520913E+002
  6.9528148E+002
  8.1416097E+002
  9.0273951E+002
  9.6261168E+002
  9.9624781E+002
  1.0072606E+003
  1.0004575E+003
  9.8150843E+002
  9.5607178E+002
  9.2907010E+002
  9.0407634E+002
  8.8314837E+002
  8.6683532E+002
  8.5436590E+002
  8.4391285E+002
  8.3308430E+002
  8.1958537E+002
  8.0214820E+002
  7.8033141E+002
  7.5550921E+002
  7.2192332E+002
  6.8093940E+002
  5.2825033E+002
  6.7261555E+002
  5.8820699E+002
  2.8010066E+002
  1.2041044E+002
  9.2884286E+001
  3.6203363E+001
  5.8725373E+001
  8.7448251E+001
  1.3064953E+002
  1.8104186E+002
  2.3043909E+002
  2.7095397E+002
  3.0137342E+002
  3.2323327E+002
  3.3841058E+002
  3.4677517E+002
  3.4585578E+002
  3.3111719E+002
  2.9436151E+002
  2.2503166E+002
  9.0911662E+001
 -1.1224897E+002
 -4.7809541E+002
 -6.4496716E+002
 -5.5813609E+002
  6.0716927E+002
  1.5862331E+003
  2.4352265E+003
  2.2332362E+003
  1.9098488E+003
  1.5985397E+003
  1.3141551E+003
  1.0192858E+003
  6.9398311E+002
  3.2462003E+002
 -9.0191598E+001
 -5.3771530E+002
 -9.8972217E+002
 -1.4047358E+003
 -1.7389615E+003
 -1.9555562E+003
 -2.0400554E+003
 -1.9992839E+003
 -1.8582426E+003
 -1.6488339E+003
 -1.4009990E+003
 -1.1366653E+003
 -8.6952569E+002
 -6.0645140E+002
 -3.5241910E+002
 -1.1181768E+002
  1.1009277E+002
  3.0839684E+002
  4.7918110E+002
  6.2021649E+002
  7.3098163E+002
  8.1234977E+002
  8.6634642E+002
  8.9596845E+002
  9.0512204E+002
  8.9848752E+002
  8.8117120E+002
  8.5823639E+002
  8.3414362E+002
  8.1232223E+002
  7.9486312E+002
  7.8238711E+002
  7.7403397E+002
  7.6762540E+002
  7.6025005E+002
  7.4932158E+002
  7.3491065E+002
  7.1917425E+002
  7.1397946E+002
  7.1244944E+002
  7.9623786E+002
  7.6207445E+002
  1.2513697E+003
  5.2832332E+002
 -8.5854663E+001
 -4.2698104E+002
 -1.8824962E+002
 -1.9667376E+002
 -7.5249678E+001
 -2.1743699E+001
  5.1457986E+001
  1.2531856E+002
  1.8301422E+002
  2.2034836E+002
  2.3880484E+002
  2.4607866E+002
  2.4843875E+002
  2.4803188E+002
  2.4268826E+002
  2.2832276E+002
  1.9846549E+002
  1.4360870E+002
  3.8216255E+001
 -1.5826081E+002
 -5.8135736E+002
 -7.0182459E+002
 -3.9454939E+002
  1.0142903E+003
  1.8282887E+003
  2.2269745E+003
  1.8988767E+003
  1.7701237E+003
  1.6065865E+003
  1.4127120E+003
  1.1700366E+003
  8.7829390E+002
  5.3723050E+002
  1.5478508E+002
 -2.5277455E+002
 -6.5991056E+002
 -1.0347250E+003
 -1.3441593E+003
 -1.5624442E+003
 -1.6759139E+003
 -1.6862048E+003
 -1.6070605E+003
 -1.4592093E+003
 -1.2643904E+003
 -1.0414516E+003
 -8.0463931E+002
 -5.6446566E+002
 -3.2883429E+002
 -1.0465003E+002
  1.0193293E+002
  2.8559453E+002
  4.4242518E+002
  5.7024118E+002
  6.6863782E+002
  7.3879494E+002
  7.8315025E+002
  8.0509949E+002
  8.0873855E+002
  7.9862329E+002
  7.7950815E+002
  7.5601946E+002
  7.3230550E+002
  7.1166108E+002
  6.9619036E+002
  6.8651240E+002
  6.8160209E+002
  6.7875974E+002
  6.7379256E+002
  6.6261596E+002
  6.4361400E+002
  6.2378378E+002
  6.1197733E+002
  6.3517528E+002
  6.7788000E+002
  7.9590824E+002
  1.2879024E+003
 -4.4772246E+002
 -1.9337148E+002
 -3.0563226E+002
 -1.2361676E+002
 -9.4076710E+001
  1.5684583E+001
  9.9439406E+001
  1.6878604E+002
  1.9639952E+002
  1.9494893E+002
  1.8143903E+002
  1.6889479E+002
  1.5869191E+002
  1.4741357E+002
  1.3047060E+002
  1.0557345E+002
  6.8616529E+001
  1.4526258E+001
 -7.4575658E+001
 -3.1851516E+002
 -5.9040768E+002
 -4.3244214E+002
  1.0173969E+003
  1.6112837E+003
  1.4989837E+003
  1.4625353E+003
  1.5767442E+003
  1.5707454E+003
  1.4663244E+003
  1.2824278E+003
  1.0293051E+003
  7.2041657E+002
  3.7043785E+002
 -1.5001135E+000
 -3.7194752E+002
 -7.1460608E+002
 -1.0040288E+003
 -1.2196990E+003
 -1.3499704E+003
 -1.3931923E+003
 -1.3567629E+003
 -1.2540666E+003
 -1.1010436E+003
 -9.1334830E+002
 -7.0488345E+002
 -4.8739140E+002
 -2.7089440E+002
 -6.4005933E+001
  1.2590269E+002
  2.9295986E+002
  4.3310755E+002
  5.4433320E+002
  6.2663903E+002
  6.8175836E+002
  7.1271644E+002
  7.2336383E+002
  7.1798126E+002
  7.0100792E+002
  6.7686141E+002
  6.4979572E+002
  6.2369372E+002
  6.0178071E+002
  5.8620648E+002
  5.7760259E+002
  5.7467336E+002
  5.7409688E+002
  5.7048465E+002
  5.5510169E+002
  5.2437907E+002
  4.7832594E+002
  4.4722630E+002
  4.0378294E+002
  3.9497192E+002
  5.0748321E+002
 -1.6817380E+002
 -9.9148831E+001
 -6.8401931E+001
  4.7839102E+000
  1.2319381E+002
  1.8391793E+002
  1.9583366E+002
  1.6566503E+002
  1.2767261E+002
  9.9723016E+001
  8.1621534E+001
  6.2212413E+001
  3.7675234E+001
  4.7063123E+000
 -2.1324253E+001
 -7.5891690E+001
 -4.6214028E+001
 -3.8352687E+002
 -1.2886545E+003
 -1.2157481E+003
  2.6709397E+003
  3.0880150E+003
  1.5537473E+003
  1.2961533E+003
  1.5631053E+003
  1.5684388E+003
  1.5307433E+003
  1.3822309E+003
  1.1612127E+003
  8.7970811E+002
  5.5809829E+002
  2.1605334E+002
 -1.2457528E+002
 -4.4148862E+002
 -7.1380740E+002
 -9.2478738E+002
 -1.0638824E+003
 -1.1278212E+003
 -1.1200997E+003
 -1.0494138E+003
 -9.2757907E+002
 -7.6767077E+002
 -5.8271760E+002
 -3.8504459E+002
 -1.8594663E+002
  4.4995843E+000
  1.7776404E+002
  3.2726867E+002
  4.4877880E+002
  5.4058764E+002
  6.0338617E+002
  6.3980768E+002
  6.5376880E+002
  6.4975442E+002
  6.3227568E+002
  6.0558254E+002
  5.7365018E+002
  5.4026104E+002
  5.0903982E+002
  4.8317321E+002
  4.6497631E+002
  4.5518822E+002
  4.5219684E+002
  4.5156421E+002
  4.4661747E+002
  4.2913306E+002
  3.6989548E+002
  2.8504964E+002
  1.8374595E+002
  1.3599746E+002
  2.0817803E+002
 -2.4735113E+001
 -1.8813057E+001
 -2.6631827E+000
  1.0427257E+002
  2.4122423E+002
  2.4310690E+002
  1.5467187E+002
  7.8465287E+001
  4.8112996E+001
  2.4848141E+001
 -4.8464351E+000
 -4.5648739E+001
 -9.2818561E+001
 -1.5152343E+002
 -1.8044076E+002
 -2.7710287E+002
 -3.7213035E+002
 -4.7191403E+002
  1.2674440E+003
  1.5458721E+003
  1.6512248E+003
  1.5656846E+003
  1.6576217E+003
  1.6075707E+003
  1.4829800E+003
  1.2779161E+003
  1.0167659E+003
  7.1724705E+002
  3.9934297E+002
  8.2721300E+001
 -2.1322757E+002
 -4.7088014E+002
 -6.7589789E+002
 -8.1863884E+002
 -8.9485693E+002
 -9.0561805E+002
 -8.5649700E+002
 -7.5641542E+002
 -6.1644944E+002
 -4.4883937E+002
 -2.6621452E+002
 -8.0949861E+001
  9.5505609E+001
  2.5336061E+002
  3.8522010E+002
  4.8666551E+002
  5.5648232E+002
  5.9643031E+002
  6.1055381E+002
  6.0411192E+002
  5.8254072E+002
  5.5062422E+002
  5.1224253E+002
  4.7059992E+002
  4.2878021E+002
  3.8998626E+002
  3.5754947E+002
  3.3403791E+002
  3.2047935E+002
  3.1535469E+002
  3.1233966E+002
  3.0091491E+002
  2.7053907E+002
  2.3007248E+002
  5.8813465E+001
 -8.7981351E+001
 -2.6329380E+001
 -5.8294468E+001
  9.7639038E+001
  3.3803662E+002
  2.6446067E+002
  1.0933304E+002
  5.5404475E+001
  3.0689200E+001
  6.1095979E-001
 -4.4985096E+001
 -1.0394900E+002
 -1.7759406E+002
 -2.5420275E+002
 -3.4360651E+002
 -3.5221486E+002
 -1.2210026E+002
  2.1030735E+002
  2.2701809E+002
  8.8623261E+002
  1.4600831E+003
  1.6493117E+003
  1.7294706E+003
  1.6954547E+003
  1.5714844E+003
  1.3759627E+003
  1.1278552E+003
  8.4552015E+002
  5.4700956E+002
  2.5003542E+002
 -2.8481251E+001
 -2.7325020E+002
 -4.7164595E+002
 -6.1462463E+002
 -6.9730500E+002
 -7.1908117E+002
 -6.8332960E+002
 -5.9685294E+002
 -4.6922488E+002
 -3.1211388E+002
 -1.3856590E+002
  3.7847822E+001
  2.0407874E+002
  3.4879956E+002
  4.6358833E+002
  5.4380801E+002
  5.8900511E+002
  6.0256874E+002
  5.9061830E+002
  5.6054349E+002
  5.1915465E+002
  4.7158135E+002
  4.2091098E+002
  3.6899756E+002
  3.1757741E+002
  2.6954494E+002
  2.2821316E+002
  1.9699690E+002
  1.7729781E+002
  1.6744233E+002
  1.6311347E+002
  1.4347390E+002
  8.3222740E+001
 -6.0066047E+001
 -2.8229917E+002
 -2.8528565E+002
  5.6707238E+002
  5.3391235E+002
  2.1084433E+002
  8.7660354E+001
  6.8485678E+001
  1.0782724E+001
 -5.0862632E+001
 -1.2984413E+002
 -2.1714827E+002
 -3.2113605E+002
 -3.9255357E+002
 -4.9422627E+002
 -1.1231394E+002
  7.9053464E+002
 -2.8978444E+002
  2.5970164E+002
  1.2285514E+003
  1.6754268E+003
  1.7786562E+003
  1.7559378E+003
  1.6331786E+003
  1.4442436E+003
  1.2070079E+003
  9.3932879E+002
  6.5751698E+002
  3.7743410E+002
  1.1404057E+002
 -1.1910430E+002
 -3.1054858E+002
 -4.5160307E+002
 -5.3682863E+002
 -5.6429583E+002
 -5.3563536E+002
 -4.5594555E+002
 -3.3360226E+002
 -1.7994250E+002
 -8.7022582E+000
  1.6494792E+002
  3.2582970E+002
  4.6054873E+002
  5.5925694E+002
  6.1709453E+002
  6.3466009E+002
  6.1764261E+002
  5.7550940E+002
  5.1859572E+002
  4.5598293E+002
  3.9311503E+002
  3.3167175E+002
  2.7082048E+002
  2.1040964E+002
  1.5190616E+002
  1.0048022E+002
  5.9838229E+001
  3.2552439E+001
  1.6983351E+001
  6.7679228E+000
  6.6861711E-001
 -6.1878153E+001
 -2.0283630E+002
 -2.3402806E+002
  2.2341535E+002
  2.3504598E+002
  2.0515233E+002
  1.1752514E+002
  5.3971577E+001
 -3.0568564E+001
 -1.2023897E+002
 -2.1421066E+002
 -3.0234699E+002
 -3.7698896E+002
 -4.0294954E+002
 -2.3721228E+002
  1.6012852E+002
  2.0865220E+002
  9.2089303E+002
 -1.7822949E+003
  3.6455534E+002
  1.3612512E+003
  1.6342053E+003
  1.7920955E+003
  1.7638198E+003
  1.6524800E+003
  1.4726555E+003
  1.2485528E+003
  9.9584874E+002
  7.3012093E+002
  4.6571111E+002
  2.1617783E+002
 -6.1440374E+000
 -1.9055705E+002
 -3.2847603E+002
 -4.1384341E+002
 -4.4347971E+002
 -4.1739077E+002
 -3.3906570E+002
 -2.1575239E+002
 -5.8591519E+001
  1.1764701E+002
  2.9553474E+002
  4.5689464E+002
  5.8536834E+002
  6.6921552E+002
  7.0304657E+002
  6.8913027E+002
  6.3668271E+002
  5.5913896E+002
  4.7227939E+002
  3.8795435E+002
  3.1235929E+002
  2.4444669E+002
  1.7915611E+002
  1.1124884E+002
  4.3965055E+001
 -1.9010086E+001
 -6.7938185E+001
 -1.0258003E+002
 -1.2280105E+002
 -1.4150425E+002
 -1.4853343E+002
 -1.9740126E+002
 -3.7386453E+002
 -2.8085310E+002
  1.4707091E+001
  1.6838362E+002
  2.3571841E+002
  1.8149980E+002
  9.9311024E+001
  4.9896568E+000
 -9.1886267E+001
 -1.7971669E+002
 -2.4405587E+002
 -2.6554467E+002
 -2.2811636E+002
 -1.3039097E+002
 -3.5502886E+001
  1.0448707E+001
  6.6324245E+002
 -1.3790697E+002
 -7.2217612E+002
 -9.8244646E+002
 -6.1589802E+002
  6.3437707E+002
  1.2574942E+003
  1.5931166E+003
  1.7161545E+003
  1.7161585E+003
  1.6189099E+003
  1.4571805E+003
  1.2501019E+003
  1.0148006E+003
  7.6593333E+002
  5.1710962E+002
  2.8092576E+002
  6.8932167E+001
 -1.0860292E+002
 -2.4297881E+002
 -3.2739153E+002
 -3.5732094E+002
 -3.3102674E+002
 -2.5019702E+002
 -1.2073158E+002
  4.6513768E+001
  2.3542401E+002
  4.2543876E+002
  5.9392766E+002
  7.2027219E+002
  7.8973854E+002
  7.9738087E+002
  7.4707946E+002
  6.5193399E+002
  5.3419212E+002
  4.1375956E+002
  3.0869358E+002
  2.2539282E+002
  1.5961074E+002
  9.7472600E+001
  2.9418910E+001
 -5.0527729E+001
 -1.2068298E+002
 -1.7792385E+002
 -2.1122306E+002
 -2.3380299E+002
 -2.4435598E+002
 -2.8277539E+002
 -2.5608627E+002
 -1.8864674E+002
  8.4271783E+001
  1.6863427E+002
  2.6520248E+002
  2.2052925E+002
  1.3754778E+002
  3.6166381E+001
 -6.4672706E+001
 -1.4920540E+002
 -1.9766148E+002
 -1.8226130E+002
 -9.2755304E+001
 -6.5199905E+001
 -2.2523802E+002
 -2.1000986E+002
  9.0304315E+001
 -1.8683346E+001
 -2.7333185E+002
 -6.7849687E+002
 -3.5702151E+002
  3.7347181E+002
  1.0610636E+003
  1.4217842E+003
  1.5837385E+003
  1.6087304E+003
  1.5387315E+003
  1.4002067E+003
  1.2147623E+003
  9.9932809E+002
  7.6862518E+002
  5.3578929E+002
  3.1284539E+002
  1.1082756E+002
 -6.0220124E+001
 -1.9134273E+002
 -2.7487288E+002
 -3.0478907E+002
 -2.7732447E+002
 -1.9192435E+002
 -5.2575721E+001
  1.3061443E+002
  3.4013017E+002
  5.5103005E+002
  7.3407438E+002
  8.6177383E+002
  9.1695009E+002
  8.9286839E+002
  7.9936949E+002
  6.5708299E+002
  4.8935211E+002
  3.3477061E+002
  2.1071158E+002
  1.2658105E+002
  7.4279082E+001
  3.0378534E+001
 -3.9330097E+001
 -1.1396154E+002
 -1.9819725E+002
 -2.4812626E+002
 -2.7915409E+002
 -2.8719621E+002
 -2.9013447E+002
 -2.9230690E+002
 -2.0031746E+002
 -5.8410820E+001
  8.5894068E+001
  2.2532940E+002
  2.9461911E+002
  2.3702127E+002
  1.5722987E+002
  5.1751720E+001
 -5.5076139E+001
 -1.5080793E+002
 -2.0618117E+002
 -2.2938662E+002
 -1.2687411E+002
 -2.5087295E+002
 -8.3490352E+002
 -8.1166643E+002
 -8.0978650E+001
 -2.3483439E+002
 -2.9001388E+002
 -7.1004409E+001
  3.9830250E+002
  8.7883464E+002
  1.2307729E+003
  1.4144592E+003
  1.4680483E+003
  1.4251636E+003
  1.3123356E+003
  1.1502760E+003
  9.5612284E+002
  7.4440082E+002
  5.2790962E+002
  3.1819068E+002
  1.2584207E+002
 -3.9287208E+001
 -1.6798541E+002
 -2.5169185E+002
 -2.8274303E+002
 -2.5500466E+002
 -1.6504505E+002
 -1.4034180E+001
  1.8970749E+002
  4.2775301E+002
  6.7000084E+002
  8.7642409E+002
  1.0079426E+003
  1.0390455E+003
  9.7840807E+002
  8.3407836E+002
  6.2596302E+002
  4.1599172E+002
  2.2807242E+002
  9.5291134E+001
  1.3807117E+001
 -1.3917055E+001
 -2.0053970E+001
 -6.0132388E+001
 -1.7707869E+002
 -2.3228155E+002
 -2.8091238E+002
 -2.8029033E+002
 -2.7169371E+002
 -2.5866086E+002
 -2.3726993E+002
 -1.4013505E+002
 -5.5112383E+001
  1.0551659E+002
  2.9020522E+002
  2.0622269E+002
  2.5073548E+002
  2.8074232E+002
  2.3856079E+002
  1.5568945E+002
  4.9903376E+001
 -6.7858902E+001
 -1.8309535E+002
 -2.8701043E+002
 -3.4242479E+002
 -4.2010698E+002
 -4.1864021E+002
 -3.5236865E+002
 -5.2858524E+001
 -9.5294901E+001
 -8.2770490E+001
  1.1525973E+002
  4.3622322E+002
  7.9305087E+002
  1.0782874E+003
  1.2539343E+003
  1.3206185E+003
  1.2982333E+003
  1.2076939E+003
  1.0676923E+003
  8.9430254E+002
  7.0143181E+002
  5.0126860E+002
  3.0472648E+002
  1.2182635E+002
 -3.7942405E+001
 -1.6529224E+002
 -2.5089903E+002
 -2.8541589E+002
 -2.6001711E+002
 -1.6772848E+002
 -5.6599394E+000
  2.2117229E+002
  4.9518231E+002
  7.7996176E+002
  1.0208668E+003
  1.1556123E+003
  1.1555840E+003
  1.0176890E+003
  8.1607105E+002
  5.7128823E+002
  2.8113691E+002
  9.2909337E+001
 -2.0295245E+001
 -9.7113988E+001
 -1.4596319E+002
 -9.0804323E+001
 -1.4900398E+002
 -1.9040854E+002
 -1.3819690E+002
 -1.5604904E+002
 -1.9658902E+002
 -1.7418683E+002
 -1.7916756E+002
 -1.5897624E+002
 -9.1479840E+001
 -2.7527704E+001
  3.4574005E+002
  3.3647478E+002
  3.2783080E+002
  2.7470532E+002
  2.7817093E+002
  2.6927196E+002
  2.2263857E+002
  1.4103698E+002
  3.4212199E+001
 -9.2028465E+001
 -2.3318646E+002
 -3.8043310E+002
 -5.0994274E+002
 -5.9818762E+002
 -4.3558740E+002
 -1.3517001E+002
  4.6014578E+001
  6.3973289E+001
  1.1933077E+002
  2.6159211E+002
  5.0221050E+002
  7.6040839E+002
  9.8029668E+002
  1.1259796E+003
  1.1887880E+003
  1.1757491E+003
  1.1007625E+003
  9.7881081E+002
  8.2397042E+002
  6.4885406E+002
  4.6462921E+002
  2.8125793E+002
  1.0787662E+002
 -4.6728229E+001
 -1.7357468E+002
 -2.6293458E+002
 -3.0393625E+002
 -2.8475120E+002
 -1.9410041E+002
 -2.4178981E+001
  2.2598046E+002
  5.4135010E+002
  8.8487326E+002
  1.1811484E+003
  1.3253752E+003
  1.2153712E+003
  9.7044079E+002
  6.8832840E+002
  3.2293448E+002
  6.4584063E+001
 -1.1705959E+001
 -5.8178354E+001
 -1.1054960E+002
 -1.8815255E+002
 -1.9501666E+002
 -4.1310638E+002
 -1.7585657E+002
 -6.1696151E+000
  1.4178481E+002
  1.7704288E+000
 -5.2996521E+001
 -8.7809149E+001
 -8.6260510E+001
 -4.4137956E+001
 -9.3712951E+000
  2.3649560E+002
  6.8367261E+001
  4.1387405E+002
  5.1625722E+002
  4.0993468E+002
  3.2726354E+002
  2.6603150E+002
  1.9974968E+002
  1.1557961E+002
  1.0788814E+001
 -1.1679912E+002
 -2.7179593E+002
 -4.5613641E+002
 -6.3700813E+002
 -7.4444032E+002
 -4.9772133E+002
 -1.8203975E+002
  7.7633850E+001
  1.3971704E+002
  2.3579442E+002
  3.8913096E+002
  5.7743935E+002
  7.6547071E+002
  9.2683517E+002
  1.0368368E+003
  1.0843872E+003
  1.0704645E+003
  1.0033833E+003
  8.9428408E+002
  7.5475281E+002
  5.9569167E+002
  4.2687119E+002
  2.5694142E+002
  9.3765161E+001
 -5.5030951E+001
 -1.8132666E+002
 -2.7561267E+002
 -3.2603605E+002
 -3.1765428E+002
 -2.3332056E+002
 -5.8727690E+001
  2.1101910E+002
  5.7446265E+002
  9.7973337E+002
  1.3345295E+003
  1.4977949E+003
  1.3790781E+003
  7.3140703E+002
  2.3572991E+002
 -1.4645420E+002
 -5.9832864E+001
 -1.8204237E+001
 -4.1676409E+001
 -4.6765600E+001
 -1.3681759E+002
 -1.5499797E+002
 -3.9347284E+002
  1.0265427E+002
  5.1406347E+001
  1.6150350E+001
 -2.7091827E+001
 -2.8095791E+001
 -1.5166188E+001
  1.3105784E+000
  6.1037609E+002
  7.0134819E+002
  6.8633683E+002
  4.5441536E+002
  3.4558773E+002
  2.4548124E+002
  1.6401610E+002
  7.7003509E+001
 -2.2199485E+001
 -1.4041047E+002
 -2.8606829E+002
 -4.8509461E+002
 -7.0816204E+002
 -8.8352318E+002
 -6.6065218E+002
 -3.2620803E+002
  2.1807673E+002
  3.9228097E+002
  4.0715262E+002
  5.1903033E+002
  6.6207220E+002
  7.9369883E+002
  9.0891895E+002
  9.8483760E+002
  1.0116997E+003
  9.8970631E+002
  9.2396521E+002
  8.2252502E+002
  6.9476963E+002
  5.4991125E+002
  3.9612722E+002
  2.4045520E+002
  8.9117048E+001
 -5.1888072E+001
 -1.7593283E+002
 -2.7459205E+002
 -3.3602859E+002
 -3.4314795E+002
 -2.7121742E+002
 -9.1723310E+001
  2.0674702E+002
  6.0295178E+002
  1.1514721E+003
  1.6540980E+003
  1.7808195E+003
  1.0420246E+003
  4.1095155E+002
 -1.7686993E+001
 -3.6320005E+002
 -2.8589050E+001
 -7.8982927E+000
  5.8006348E+000
  1.5794156E+000
  1.4161373E+000
  2.3483403E+000
  1.2730988E+003
  7.6901429E+002
  5.5391884E+002
  4.2504518E+002
  2.9014330E+002
  1.9108039E+002
  1.0303877E+002
  1.8317510E+001
 -7.4538937E+001
 -1.8043808E+002
 -3.0089902E+002
 -4.5458724E+002
 -7.4141234E+002
 -1.0953149E+003
 -8.3963009E+002
 -2.4851022E+002
  2.4756027E+002
  4.8260005E+002
  6.8005247E+002
  7.3856160E+002
  8.4125445E+002
  9.2456363E+002
  9.6710464E+002
  9.7118915E+002
  9.3734833E+002
  8.6803289E+002
  7.6944743E+002
  6.5006109E+002
  5.1774378E+002
  3.7901877E+002
  2.3912127E+002
  1.0237444E+002
 -2.7204282E+001
 -1.4502173E+002
 -2.4461950E+002
 -3.1568849E+002
 -3.4076998E+002
 -2.9119894E+002
 -1.1494629E+002
  2.4991412E+002
  7.5118747E+002
  1.2121125E+003
  1.8101720E+003
  2.4059150E+003
  8.0102018E+002
 -2.8200265E+002
  2.3123989E+001
 -3.3709867E+000
  1.1319213E+000
 -1.4049560E+001
 -1.8827002E+000
  7.0474602E+000
  1.2192404E+001
  1.1482323E+001
  1.4913900E+003
  1.3759551E+003
  9.4645576E+002
  5.3431782E+002
  4.1018534E+002
  2.9520942E+002
  1.9095553E+002
  9.6360831E+001
  1.3240508E+001
 -6.7254554E+001
 -1.5426286E+002
 -2.6293503E+002
 -3.8199301E+002
 -4.9419866E+002
 -6.0611686E+002
 -1.1000944E+003
 -1.1587628E+003
 -5.0881229E+002
  2.4829107E+002
  5.8239449E+002
  6.7125280E+002
  7.7454848E+002
  9.2379109E+002
  9.6897526E+002
  9.7930691E+002
  9.6269491E+002
  9.1704242E+002
  8.3902691E+002
  7.3854912E+002
  6.2441928E+002
  5.0331980E+002
  3.8008505E+002
  2.5809266E+002
  1.3965967E+002
  2.6684912E+001
 -7.8525904E+001
 -1.7208728E+002
 -2.4640008E+002
 -2.8715809E+002
 -2.6378881E+002
 -1.3143182E+002
  2.7951956E+002
  1.1082757E+003
  2.3447787E+003
  3.6860480E+003
  3.0774982E+003
  4.7833236E-001
 -6.3015234E+000
 -3.0756254E+000
  2.5606249E+000
  6.0991411E+000
  9.4495618E+000
  1.4740117E+003
  1.4562822E+003
  1.1885916E+003
  8.3459883E+002
  5.2015877E+002
  2.9552436E+002
  1.6771034E+002
  6.4968633E+001
 -2.4329219E+001
 -1.0447371E+002
 -1.7951443E+002
 -2.6458256E+002
 -3.7091892E+002
 -5.8281694E+002
 -7.4795886E+002
 -1.1167876E+003
 -2.0554910E+003
 -2.0634020E+003
  7.0643567E+002
  9.4825016E+002
  1.0387025E+003
  1.0772259E+003
  1.0399804E+003
  1.0101179E+003
  9.9809172E+002
  9.3189595E+002
  8.3803120E+002
  7.3113359E+002
  6.1964665E+002
  5.0861736E+002
  4.0148823E+002
  2.9975542E+002
  2.0375065E+002
  1.1336674E+002
  2.8760790E+001
 -4.8720076E+001
 -1.1492851E+002
 -1.5900521E+002
 -1.5976841E+002
 -5.7623057E+001
  1.5987806E+002
  1.1291877E+003
  2.2593448E+003
  2.2381255E+003
  2.7893352E-001
  7.6574210E-003
  4.9502078E+000
  1.5903323E+003
  1.5748356E+003
  1.3046949E+003
  9.7147798E+002
  6.8039629E+002
  4.0918198E+002
  2.0189450E+002
  4.8663439E+001
 -6.5951118E+001
 -1.6106983E+002
 -2.4348812E+002
 -3.1964718E+002
 -3.9172177E+002
 -5.0228371E+002
 -6.5861564E+002
 -1.2588809E+003
 -1.5258766E+003
 -1.3594192E+003
  4.8998607E+002
  8.7911160E+002
  1.1569804E+003
  9.8142339E+002
  1.1421629E+003
  1.0826509E+003
  9.8057345E+002
  8.6354229E+002
  7.4795645E+002
  6.3598525E+002
  5.3373222E+002
  4.4305557E+002
  3.6352440E+002
  2.9345681E+002
  2.3111031E+002
  1.7487653E+002
  1.2451872E+002
  7.9406664E+001
  5.2322487E+001
  3.7592398E+001
  1.6757541E+002
  2.6815453E+002
  1.2880697E+003
  3.7042487E+003
  2.8197211E+003
  1.7080028E+003
  1.7606071E+003
  1.4130433E+003
  1.0731873E+003
  7.9922559E+002
  5.3002752E+002
  2.9190930E+002
  9.1033873E+001
 -6.8804873E+001
 -1.9745623E+002
 -3.0485126E+002
 -3.9851890E+002
 -4.8080082E+002
 -5.5588841E+002
 -6.2164900E+002
 -6.9679289E+002
 -9.7364072E+002
 -1.2016269E+003
 -6.0711123E+002
 -3.3729396E+002
  6.5963320E+002
  1.6009445E+003
  1.3782365E+003
  1.3611127E+003
  1.2004204E+003
  1.0476145E+003
  9.1921225E+002
  7.8913208E+002
  6.7299743E+002
  5.7722115E+002
  5.0278235E+002
  4.4615667E+002
  4.0369279E+002
  3.7243250E+002
  3.5011412E+002
  3.3414924E+002
  3.2450984E+002
  3.1633019E+002
  3.3911329E+002
  3.5485726E+002
  7.4076350E+002
  1.1886090E+003
  1.2329547E+003
  2.0119522E+003
  2.0125765E+003
  1.3200720E+003
  1.1368462E+003
  8.5206690E+002
  6.1200662E+002
  3.7800590E+002
  1.6449432E+002
 -2.4680983E+001
 -1.8710016E+002
 -3.2608239E+002
 -4.4802311E+002
 -5.5720745E+002
 -6.6067234E+002
 -7.4180792E+002
 -8.4512196E+002
 -7.9806435E+002
 -1.0692267E+003
 -2.0616939E+003
 -1.8336671E+003
  7.4986549E+002
  1.1926427E+003
  1.5917639E+003
  1.2411356E+003
  1.1803036E+003
  1.0124790E+003
  8.5904661E+002
  7.2823588E+002
  6.3712104E+002
  5.7777612E+002
  5.4267929E+002
  5.2608667E+002
  5.2517483E+002
  5.3727764E+002
  5.5903499E+002
  5.8613824E+002
  6.1240539E+002
  6.2825891E+002
  6.1346654E+002
  5.4043156E+002
  3.0014545E+002
  6.6331064E+001
  4.0211801E+002
  1.3094905E+003
  1.3759886E+003
  1.0268210E+003
  1.4252026E+003
  9.3475791E+002
  8.4299331E+002
  6.3906752E+002
  4.4096281E+002
  2.3769681E+002
  4.3639191E+001
 -1.3640233E+002
 -2.9904726E+002
 -4.4546893E+002
 -5.7906386E+002
 -7.0587601E+002
 -8.2575385E+002
 -9.5436685E+002
 -1.0344388E+003
 -1.2260697E+003
 -1.1347451E+003
 -9.0457053E+002
 -4.4783522E+002
  8.5077286E+002
  1.8624173E+003
  1.5011911E+003
  1.3828031E+003
  1.1484498E+003
  9.4780078E+002
  7.9990677E+002
  7.1181646E+002
  6.6659833E+002
  6.4698668E+002
  6.4991459E+002
  6.7401474E+002
  7.1594726E+002
  7.7094845E+002
  8.3065359E+002
  8.8781772E+002
  9.0051386E+002
  8.6287168E+002
  3.9642388E+002
 -4.7359673E+002
 -9.3107806E+002
  1.4069788E+003
  1.6108210E+003
  1.2111279E+003
  1.4567845E+003
  1.1571566E+003
  8.7846535E+002
  6.5216712E+002
  4.8419446E+002
  3.0389231E+002
  1.2059017E+002
 -6.1120715E+001
 -2.3494871E+002
 -3.9727835E+002
 -5.4745568E+002
 -6.8778005E+002
 -8.2233841E+002
 -9.5628031E+002
 -1.0926607E+003
 -1.2171515E+003
 -1.3043986E+003
 -9.1267844E+002
 -2.4339644E+002
  1.8905335E+003
  1.8925482E+003
  1.6712434E+003
  1.3702462E+003
  1.0649734E+003
  8.7909224E+002
  8.1135470E+002
  7.6845465E+002
  7.5063100E+002
  7.6248977E+002
  8.0308591E+002
  8.6627973E+002
  9.4310995E+002
  1.0251387E+003
  1.0906396E+003
  1.1378176E+003
  1.0193937E+003
  9.1102695E+002
 -2.2888044E+002
 -2.8001227E+003
  3.0824457E+002
  1.0100948E+003
  1.1072457E+003
  8.0710392E+002
  1.2297123E+003
  1.0156656E+003
  1.0591033E+003
  9.8045107E+002
  7.7202720E+002
  5.6720022E+002
  3.8492707E+002
  2.1074291E+002
  3.3879999E+001
 -1.4294658E+002
 -3.1464938E+002
 -4.7672057E+002
 -6.2712492E+002
 -7.6661579E+002
 -8.9813780E+002
 -1.0230551E+003
 -1.1461120E+003
 -1.2484857E+003
 -1.2724966E+003
 -7.9609604E+002
 -2.9158535E+002
  1.9760655E+003
  2.0159508E+003
  1.5084440E+003
  1.0824102E+003
  1.0324835E+003
  9.4609684E+002
  8.7469526E+002
  8.3894239E+002
  8.4994220E+002
  8.9886274E+002
  9.7335901E+002
  1.0588561E+003
  1.1401190E+003
  1.2016744E+003
  1.2114108E+003
  1.1454804E+003
  9.0065764E+002
  2.9552065E+002
 -1.1591720E+003
 -1.4863371E+003
 -2.9248217E+003
  1.0450491E+003
  1.1920947E+003
  9.5676081E+002
  1.2121590E+003
  1.0749440E+003
  9.6479638E+002
  9.0053489E+002
  8.0866956E+002
  6.6959934E+002
  5.0068892E+002
  3.2826887E+002
  1.5488667E+002
 -2.2000880E+001
 -2.0024494E+002
 -3.7386074E+002
 -5.3647299E+002
 -6.8425089E+002
 -8.1644643E+002
 -9.3508570E+002
 -1.0374223E+003
 -1.1190826E+003
 -1.1521300E+003
 -1.2332166E+003
 -9.4222627E+002
 -4.9778695E+002
  2.2392027E+003
  2.1876345E+003
  1.5346143E+003
  1.2590589E+003
  1.0945424E+003
  9.4909266E+002
  8.9273413E+002
  8.9847845E+002
  9.5356615E+002
  1.0323430E+003
  1.1128494E+003
  1.1750776E+003
  1.1974483E+003
  1.1520064E+003
  9.8637667E+002
  5.9146605E+002
 -2.5995823E+002
 -1.3234395E+003
 -1.4634480E+003
 -5.6623336E+002
 -4.1767362E+002
  1.8648183E+002
  4.5233219E+002
  4.3812258E+002
  4.0896365E+002
  1.1897198E+003
  1.2058405E+003
  1.8622563E+002
  6.6598036E+002
  7.8250210E+002
  5.7986028E+002
  9.2804909E+002
  8.3552692E+002
  9.2781425E+002
  9.4527367E+002
  8.7190066E+002
  7.8823495E+002
  7.0228730E+002
  5.8874626E+002
  4.5159764E+002
  2.9717685E+002
  1.2886032E+002
 -5.0249027E+001
 -2.3478608E+002
 -4.1450471E+002
 -5.7961091E+002
 -7.2341149E+002
 -8.4449856E+002
 -9.4496158E+002
 -1.0285285E+003
 -1.0797926E+003
 -1.0450862E+003
 -9.8712061E+002
 -8.6531613E+002
 -4.8136228E+002
  1.0961534E+003
  1.4062114E+003
  1.4638810E+003
  1.1069400E+003
  9.6930502E+002
  8.8838129E+002
  9.0313143E+002
  9.6778655E+002
  1.0496564E+003
  1.1162729E+003
  1.1449114E+003
  1.1135477E+003
  9.9155160E+002
  7.2901095E+002
  2.5365082E+002
 -4.1253750E+002
 -1.0449441E+003
 -1.2666151E+003
 -8.9868236E+002
 -2.7134641E+002
 -9.4883809E+001
  2.8348184E+002
  5.5432803E+002
  5.2049047E+002
  5.3049117E+002
  1.6062178E+002
  5.5809295E+002
  2.1705422E+002
  7.0554680E+002
  3.5353467E+002
  8.5301561E+002
  2.9654149E+002
  1.1747550E+003
  5.6320184E+002
  6.3632599E+002
  7.0535552E+002
  6.5394967E+002
  8.7751042E+002
  8.3686915E+002
  8.0608938E+002
  8.1300965E+002
  8.0290919E+002
  7.6240713E+002
  6.9914265E+002
  6.2255701E+002
  5.3211597E+002
  4.2191524E+002
  2.8786327E+002
  1.2951168E+002
 -5.3718819E+001
 -2.4901374E+002
 -4.4072585E+002
 -6.1156917E+002
 -7.5226566E+002
 -8.5987742E+002
 -9.4251584E+002
 -1.0037403E+003
 -1.0997775E+003
 -1.0921053E+003
 -1.1460280E+003
 -1.6137083E+003
 -1.2578215E+003
  3.7920212E+002
  1.2359020E+003
  1.2470602E+003
  1.0696290E+003
  8.9892736E+002
  8.3028454E+002
  8.6541989E+002
  9.5505365E+002
  1.0416010E+003
  1.0895049E+003
  1.0787250E+003
  9.9373115E+002
  8.1238310E+002
  5.0623136E+002
  6.6307916E+001
 -4.5485496E+002
 -8.9284093E+002
 -1.0429711E+003
 -8.9193817E+002
 -6.4595515E+002
 -3.8737334E+002
 -7.4264048E+001
  4.2826916E+002
  6.7020733E+002
  8.1154358E+002
  9.1697829E+002
  1.0509361E+003
  1.0151996E+003
  1.8501145E+003
  1.9758397E+003
 -7.2829082E+001
  2.8110172E+002
  4.5244341E+002
  3.1784107E+002
  6.1741640E+002
  6.3380762E+002
  7.2691323E+002
  7.7072710E+002
  7.4818755E+002
  7.2000848E+002
  6.9523832E+002
  6.5710640E+002
  6.0827394E+002
  5.5186688E+002
  4.8670152E+002
  4.0542008E+002
  3.0093894E+002
  1.5379217E+002
 -3.0935612E+001
 -2.4590167E+002
 -4.5645173E+002
 -6.3841961E+002
 -7.7724857E+002
 -8.7412226E+002
 -9.3098034E+002
 -9.8051712E+002
 -1.0223503E+003
 -1.3682640E+003
 -1.3855548E+003
 -1.1012321E+003
  1.1897103E+003
  1.2817049E+003
  1.0381674E+003
  7.9705078E+002
  7.3696718E+002
  8.0832389E+002
  9.3712672E+002
  1.0303952E+003
  1.0522347E+003
  1.0011428E+003
  8.7400318E+002
  6.6206154E+002
  3.5924111E+002
 -2.0035557E+001
 -4.1758039E+002
 -7.3635058E+002
 -8.9039822E+002
 -8.5923181E+002
 -6.9329189E+002
 -4.5108164E+002
 -1.1278862E+002
  2.0422176E+002
  4.9591015E+002
  6.6511656E+002
  7.2195035E+002
  7.0519968E+002
  4.9401975E+002
  8.5664750E+002
  9.7501344E+002
  8.3062296E+002
  6.9365958E+002
  1.3698422E+002
  5.0288635E+002
  1.8824772E+002
  4.4866077E+002
  1.1835646E+002
  4.1783054E+002
  1.2563086E+002
  4.3045604E+002
  1.0982615E+002
  4.9317535E+002
  1.9679654E+002
  6.0088894E+002
  7.1262832E+002
  7.0082236E+002
  6.9578590E+002
  7.0948479E+002
  7.0452048E+002
  6.7873065E+002
  6.3940068E+002
  5.9636376E+002
  5.5416664E+002
  5.1292510E+002
  4.7378531E+002
  4.3431047E+002
  3.9351912E+002
  3.2466145E+002
  2.1935537E+002
  2.1475980E+001
 -2.2101415E+002
 -4.6631903E+002
 -6.6255907E+002
 -8.0189188E+002
 -8.8890334E+002
 -9.3468324E+002
 -9.4247591E+002
 -9.2563024E+002
 -1.0496760E+003
 -1.0948606E+003
 -5.4046355E+002
  1.2689458E+003
  1.1162706E+003
  7.2952582E+002
  5.7049124E+002
  7.5448209E+002
  9.4836383E+002
  1.0274014E+003
  1.0109820E+003
  9.2178640E+002
  7.6826178E+002
  5.5054164E+002
  2.7345815E+002
 -4.2325511E+001
 -3.5380251E+002
 -6.0229578E+002
 -7.3730291E+002
 -7.4395796E+002
 -6.3881661E+002
 -4.4169744E+002
 -1.8956828E+002
  9.2989302E+001
  3.2092272E+002
  4.6946844E+002
  5.1909324E+002
  4.7232822E+002
  4.5767411E+002
  6.2021506E+002
  1.0246020E+003
  1.0354252E+003
  9.3156007E+002
  8.5007742E+002
  8.1779553E+002
  8.2316391E+002
  8.6248681E+002
  8.8047556E+002
  8.4068393E+002
  8.0554819E+002
  7.5318931E+002
  7.0709240E+002
  6.6447628E+002
  6.1280411E+002
  5.5499638E+002
  4.9679135E+002
  4.4357710E+002
  4.0215843E+002
  3.7335346E+002
  3.5627533E+002
  3.4434812E+002
  3.6723086E+002
  2.9397110E+002
  1.2797352E+002
 -1.8446203E+002
 -4.6915121E+002
 -6.8093480E+002
 -8.1542424E+002
 -9.0340691E+002
 -9.4272515E+002
 -9.8000255E+002
 -8.8478129E+002
 -1.0412284E+003
 -1.7898231E+003
 -1.5118009E+003
  1.0090630E+003
  6.7343081E+002
  4.9383249E+002
  7.8789427E+002
  9.8378230E+002
  1.0126347E+003
  9.4966506E+002
  8.3453523E+002
  6.7271380E+002
  4.6863052E+002
  2.2902885E+002
 -2.7913113E+001
 -2.7185983E+002
 -4.6642730E+002
 -5.8156682E+002
 -6.0298227E+002
 -5.3396822E+002
 -3.9200871E+002
 -1.9922459E+002
  3.5647260E+000
  1.8583269E+002
  3.1312769E+002
  3.7881156E+002
  4.1578455E+002
  5.0054258E+002
  7.1269801E+002
  8.9663378E+002
  1.0515876E+003
  1.0775438E+003
  1.0569827E+003
  1.0355501E+003
  1.0259354E+003
  1.0152937E+003
  9.8924121E+002
  9.4241224E+002
  8.6505755E+002
  7.8470233E+002
  7.0558539E+002
  6.2786718E+002
  5.5003316E+002
  4.7073294E+002
  3.9250875E+002
  3.2122300E+002
  2.6424884E+002
  2.3862036E+002
  2.2216807E+002
  2.3095325E+002
  3.1064048E+002
  5.4823966E+002
  3.2343850E+002
 -1.0111425E+002
 -4.7211832E+002
 -6.6414519E+002
 -7.9796038E+002
 -8.8833593E+002
 -9.5931325E+002
 -9.7335245E+002
 -1.0904936E+003
 -9.8282820E+002
 -7.8025670E+002
  3.8315089E+001
  9.7950854E+001
  6.6979139E+002
  9.7853820E+002
  9.1579919E+002
  8.4660268E+002
  7.2416014E+002
  5.7855119E+002
  4.0451034E+002
  2.1049271E+002
  9.7080431E+000
 -1.7705350E+002
 -3.2652693E+002
 -4.1914438E+002
 -4.4485121E+002
 -4.0476292E+002
 -3.0900775E+002
 -1.7645612E+002
 -2.8036005E+001
  1.1159622E+002
  2.2892474E+002
  3.2456476E+002
  4.2025391E+002
  5.5189578E+002
  7.2092831E+002
  9.1850461E+002
  1.0543549E+003
  1.1318943E+003
  1.1549009E+003
  1.1506509E+003
  1.1316505E+003
  1.0990482E+003
  1.0468828E+003
  9.7170648E+002
  8.8283012E+002
  7.8445600E+002
  6.8467983E+002
  5.8570922E+002
  4.8693180E+002
  3.8792113E+002
  2.8963443E+002
  1.9310937E+002
  1.0831730E+002
  3.4387974E+001
  5.4822966E+001
 -8.1273678E+001
  2.7700316E+001
  6.7108934E+002
  6.6202929E+002
 -1.3034523E+002
 -3.6573451E+002
 -5.7710900E+002
 -7.1972594E+002
 -8.3361436E+002
 -9.0939214E+002
 -9.5307222E+002
 -9.7018862E+002
 -6.6857011E+002
 -1.5816566E+002
  1.3900275E+002
  4.8692021E+002
  7.6591219E+002
  7.3831899E+002
  6.7627755E+002
  5.8990660E+002
  4.8060085E+002
  3.5208857E+002
  2.0978808E+002
  6.4375430E+001
 -7.0038501E+001
 -1.7835050E+002
 -2.4818831E+002
 -2.7289839E+002
 -2.5289535E+002
 -1.9519980E+002
 -1.1057421E+002
 -1.1248727E+001
  9.4707306E+001
  2.0376535E+002
  3.1788946E+002
  4.4614227E+002
  5.9051361E+002
  7.5293008E+002
  9.0622899E+002
  1.0372884E+003
  1.1227810E+003
  1.1660183E+003
  1.1718533E+003
  1.1496483E+003
  1.1039053E+003
  1.0379038E+003
  9.5487696E+002
  8.5777221E+002
  7.5286705E+002
  6.4404320E+002
  5.3383132E+002
  4.2301742E+002
  3.1143464E+002
  1.9842676E+002
  8.3365352E+001
 -3.6317965E+001
 -1.6527347E+002
 -2.8719655E+002
 -6.0846794E+002
 -4.1438463E+002
  8.6557731E+002
  1.9623512E+003
  4.1227565E+002
 -1.4018412E+002
 -3.8567071E+002
 -6.0066142E+002
 -7.2746012E+002
 -8.0869652E+002
 -8.2388415E+002
 -7.5199497E+002
 -4.1820620E+002
 -1.5858879E+002
  3.2939795E+002
  4.1994562E+002
  4.8187093E+002
  4.6739227E+002
  4.7681469E+002
  4.4102402E+002
  3.8687537E+002
  3.1219228E+002
  2.2559504E+002
  1.3503468E+002
  5.0502436E+001
 -1.8441002E+001
 -6.4279714E+001
 -8.3217515E+001
 -7.5894546E+001
 -4.6921488E+001
 -2.6570010E+000
  5.3727989E+001
  1.2523839E+002
  2.2008184E+002
  3.4450531E+002
  4.8190396E+002
  6.2853447E+002
  7.6356964E+002
  8.8739594E+002
  9.9080330E+002
  1.0708931E+003
  1.1162285E+003
  1.1268297E+003
  1.1011873E+003
  1.0488014E+003
  9.7727497E+002
  8.9207272E+002
  7.9672560E+002
  6.9345291E+002
  5.8488919E+002
  4.7316603E+002
  3.5986341E+002
  2.4535034E+002
  1.3086038E+002
  1.0950407E+001
 -1.0092729E+002
 -2.6187311E+002
 -2.8733602E+002
 -3.3394211E+002
  7.1006346E+002
  5.4430558E+002
  1.5854797E+002
 -2.6489121E+002
 -4.6308465E+002
 -6.0570192E+002
 -6.7077294E+002
 -6.6071650E+002
 -5.5706330E+002
 -3.0202378E+002
 -7.9457307E+001
  9.2035285E+002
  2.6607288E+002
  1.1335984E+002
  2.4438838E+002
  2.8062556E+002
  3.1163069E+002
  3.1042001E+002
  2.9205741E+002
  2.6058622E+002
  2.2354095E+002
  1.8723952E+002
  1.5719290E+002
  1.3710110E+002
  1.2860194E+002
  1.3094082E+002
  1.4089760E+002
  1.5348694E+002
  1.6751618E+002
  1.9761053E+002
  2.6891150E+002
  3.8517766E+002
  5.4554309E+002
  6.6700091E+002
  7.6197987E+002
  8.3278781E+002
  9.0197752E+002
  9.6640966E+002
  1.0185462E+003
  1.0249418E+003
  9.9524033E+002
  9.3767935E+002
  8.6747608E+002
  7.8980815E+002
  7.0447321E+002
  6.1103080E+002
  5.1060496E+002
  4.0552726E+002
  2.9838263E+002
  1.9167903E+002
  8.6365079E+001
 -1.2300208E+001
 -1.0568146E+002
 -1.5338996E+002
 -1.3491937E+002
  1.2385720E+002
 -8.9175725E+001
  1.1606963E+002
  2.3302168E+001
 -2.0919198E+002
 -3.8412594E+002
 -4.8841512E+002
 -5.3438086E+002
 -5.0920585E+002
 -4.1297448E+002
 -2.1141094E+002
 -6.1488946E+001
  8.9737678E+002
  2.5413504E+002
  3.2242800E+002
  9.5664593E+001
  1.4352849E+001
  8.0100024E+001
  1.5850408E+002
  2.2166770E+002
  2.6804648E+002
  2.9874193E+002
  3.1872209E+002
  3.3226722E+002
  3.4273158E+002
  3.5176267E+002
  3.5953668E+002
  3.6560522E+002
  3.7017736E+002
  3.7233251E+002
  3.6722534E+002
  3.4618779E+002
  3.1558730E+002
  3.3919455E+002
  4.8455486E+002
  6.0286240E+002
  7.1610992E+002
  7.2632785E+002
  7.2095621E+002
  7.4333783E+002
  8.0610645E+002
  8.4917363E+002
  8.7253630E+002
  8.3088842E+002
  7.7156590E+002
  7.1317658E+002
  6.5458411E+002
  5.8820556E+002
  5.1141150E+002
  4.2521712E+002
  3.3278826E+002
  2.3852461E+002
  1.4648859E+002
  6.1435093E+001
 -1.4446582E+001
 -6.6461489E+001
 -8.7249834E+001
 -6.8178105E+001
 -2.9973402E+001
 -1.2878528E+002
 -2.0333185E+002
 -2.6408724E+002
 -3.3814323E+002
 -3.9478864E+002
 -4.1635487E+002
 -3.8688661E+002
 -3.0421041E+002
 -1.5258585E+002
 -4.0393800E+001
  2.3429011E+002
  2.7725880E+002
  1.7957885E+002
  2.2794038E+001
  3.7144359E+001
  1.0502275E+002
  1.8760251E+002
  2.6559137E+002
  3.3674795E+002
  4.0177401E+002
  4.6222945E+002
  5.1801238E+002
  5.6687954E+002
  6.0477558E+002
  6.2837523E+002
  6.3837459E+002
  6.4307272E+002
  6.4386903E+002
  6.1831398E+002
  5.3696625E+002
  4.4968247E+002
  5.2309131E+002
  8.4298537E+002
  7.7175228E+002
  6.2852765E+002
  5.3419334E+002
  5.0279573E+002
  5.3946653E+002
  6.7385752E+002
  6.5982146E+002
  5.9824407E+002
  5.4734579E+002
  5.2297125E+002
  4.9525135E+002
  4.5434568E+002
  3.9854042E+002
  3.3075638E+002
  2.5538632E+002
  1.7774019E+002
  1.0614070E+002
  4.0950088E+001
 -1.0393929E+001
 -4.0086212E+001
 -5.8738479E+001
 -9.3195554E+001
 -3.1610751E+002
 -3.7130437E+002
 -3.0263588E+002
 -2.9780278E+002
 -3.1463825E+002
 -3.2059765E+002
 -2.9419789E+002
 -2.2890250E+002
 -1.1244457E+002
 -2.9007853E+001
  2.5745430E+001
  8.0791570E+001
  7.1919591E+001
  2.5877145E+001
  3.9862944E+001
  1.0855212E+002
  2.0141834E+002
  3.0184032E+002
  4.0454982E+002
  5.0830297E+002
  6.1174431E+002
  7.1158300E+002
  8.0154637E+002
  8.7272900E+002
  9.1534073E+002
  9.2919874E+002
  9.3010913E+002
  9.5703526E+002
  1.0016782E+003
  9.4672049E+002
  6.9335062E+002
  9.3571022E+002
  9.1427540E+002
  5.4764168E+002
  3.2275529E+002
  2.6349165E+002
  1.9546349E+002
  1.5009124E+002
  2.3330414E+002
  3.2842570E+002
  2.5448987E+002
  2.9614975E+002
  3.2541685E+002
  3.3395480E+002
  3.1720327E+002
  2.8200120E+002
  2.3379466E+002
  1.7775314E+002
  1.1921468E+002
  6.4331424E+001
  2.7302293E+001
  9.0646615E-001
 -2.6953012E+001
 -5.0265061E+002
 -5.1046830E+002
 -3.9345971E+002
 -2.4750895E+002
 -2.3963127E+002
 -2.3685250E+002
 -2.4397917E+002
 -2.2964522E+002
 -1.8465030E+002
 -9.2297900E+001
 -2.3880291E+001
 -1.9524360E+001
 -4.2489199E+001
 -4.7105362E+001
 -8.7949059E+000
  5.7192129E+001
  1.4639955E+002
  2.5141854E+002
  3.6860396E+002
  4.9655063E+002
  6.3375606E+002
  7.7666530E+002
  9.1904538E+002
  1.0515370E+003
  1.1595391E+003
  1.2266250E+003
  1.2353447E+003
  1.2058281E+003
  1.2286705E+003
  1.3550720E+003
  1.6339203E+003
  1.3577212E+003
  2.0850269E+003
  8.5326421E+002
  6.7430590E+001
  1.3012993E+002
  4.7297975E+001
  6.0238462E+001
 -9.4479724E+001
 -4.6395109E+002
 -7.8722249E+001
 -2.6632763E+001
  8.9317411E+001
  1.3841508E+002
  1.5760088E+002
  1.5476844E+002
  1.3877578E+002
  1.1451512E+002
  8.6530707E+001
  5.4485833E+001
  3.6915005E+001
  2.1536657E+001
 -1.2980115E+003
 -4.5675391E+002
 -1.5962087E+002
 -1.9003425E+002
 -1.5333677E+002
 -1.6653239E+002
 -1.8126104E+002
 -1.9086974E+002
 -1.7216166E+002
 -9.4217079E+001
 -2.4659102E+001
 -6.2301339E+001
 -1.5363093E+002
 -1.4986035E+002
 -2.5078865E+001
  9.7864884E+001
  2.1064492E+002
  3.2639460E+002
  4.5621336E+002
  6.0496506E+002
  7.7247256E+002
  9.5222979E+002
  1.1341015E+003
  1.3075772E+003
  1.4579823E+003
  1.5502886E+003
  1.5719102E+003
  1.4986206E+003
  1.3571393E+003
  1.6431387E+003
  1.5453559E+003
  1.5443512E+003
  2.1924067E+003
 -5.8973918E+002
 -1.4498932E+002
 -1.1677845E+002
  1.7749864E+001
  3.2002730E+001
  4.6239295E+001
  4.5273061E+001
  4.0975998E+001
  3.2774976E+001
  2.6269173E+001
  1.2772267E+001
  1.5032119E+001
 -1.1776393E+003
 -3.9747955E+002
 -5.7752665E+002
 -3.6751394E+002
 -1.7143400E+002
 -1.1990517E+002
 -9.7598832E+001
 -1.0017468E+002
 -1.2865340E+002
 -1.6892054E+002
 -1.9548770E+002
 -1.2845906E+002
 -4.9169099E+001
 -2.3633211E+002
 -3.0796498E+002
 -2.1226323E+002
  3.1366294E+001
  1.7650066E+002
  2.9784861E+002
  4.1767207E+002
  5.5569580E+002
  7.2187096E+002
  9.1924448E+002
  1.1380529E+003
  1.3556943E+003
  1.5582901E+003
  1.7421692E+003
  1.8940995E+003
  1.8409456E+003
  1.8169622E+003
  1.5707608E+003
  2.0989353E+003
  1.0322985E+003
  4.5614640E+002
 -3.9313897E+002
 -6.7087359E+002
 -6.0090963E+002
 -2.6385466E+002
 -1.2647814E+002
 -6.2227433E+001
 -4.5787615E+001
 -7.0595839E+001
 -1.4400509E+002
 -2.4090078E+002
 -2.0079112E+002
 -6.7615871E+001
 -2.1432996E+002
 -3.1502436E+002
 -8.8912931E+001
  1.4626968E+002
  2.7897256E+002
  3.9773037E+002
  5.2003092E+002
  6.6061476E+002
  8.3988315E+002
  1.0697271E+003
  1.3370204E+003
  1.6012275E+003
  1.8046157E+003
  1.9844765E+003
  2.1468384E+003
  2.2580332E+003
  1.7903142E+003
  1.7278799E+003
  1.9058002E+003
 -4.3551975E+002
 -5.7902572E+002
 -5.2676346E+002
 -2.7782161E+002
 -1.3790143E+002
 -4.5150172E+001
 -3.1506373E+000
 -4.4736368E+000
 -6.6770026E+001
 -2.8712517E+002
 -3.7222469E+002
 -2.8374393E+002
 -7.8511897E+002
 -8.2234165E+002
 -1.3541784E+002
  2.4268275E+002
  3.5552247E+002
  5.1195243E+002
  6.3383181E+002
  7.7213632E+002
  9.5361300E+002
  1.2136747E+003
  1.5581861E+003
  1.9089268E+003
  2.1603052E+003
  2.1411946E+003
  2.4208081E+003
  1.8942865E+003
  1.4495071E+003
  1.3313847E+003
 -9.4902376E+002
 -4.4972518E+002
 -2.7842358E+002
 -2.4013620E+002
 -1.2334004E+002
 -4.4336174E+001
  1.1718498E+001
  3.9935045E+001
  3.0559454E+001
 -1.3272456E+002
 -3.8750920E+002
 -2.8468960E+002
 -2.6508682E+002
 -1.1207324E+002
  2.0005202E+002
  4.7377007E+002
  6.3978485E+002
  7.8136746E+002
  9.0615861E+002
  1.0630786E+003
  1.3367549E+003
  1.7705352E+003
  2.2594706E+003
  2.6776494E+003
  2.6106194E+003
  3.0594771E+003
  1.3677265E+003
  2.6689708E+002
 -8.1294118E+002
 -2.5955542E+002
 -4.1124013E+002
 -3.2358996E+002
 -2.3815923E+002
 -1.9704446E+002
 -1.3030348E+002
 -6.5431035E+001
 -1.0577879E+001
 -8.1614505E+000
  3.9589192E+001
 -2.4797696E+002
 -1.0217802E+003
 -9.8989654E+002
  2.2744571E+001
  8.5355117E+001
  3.5029713E+002
  6.2085245E+002
  8.2798994E+002
  9.8370814E+002
  1.1035960E+003
  1.2123678E+003
  1.3990204E+003
  1.9707497E+003
  2.8262901E+003
  3.2368564E+003
  3.1938676E+003
  3.1178601E+003
 -2.6821619E+002
 -4.3140492E+002
 -4.5909698E+002
 -3.0807730E+002
 -2.3114594E+002
 -1.6293177E+002
 -1.0779963E+002
 -7.9786553E+001
 -7.0577544E+001
 -1.8496929E+002
 -3.2458140E+002
 -3.7203545E+002
  8.6398446E+001
  2.9306980E+002
  6.0395701E+002
  8.4408272E+002
  1.0686297E+003
  1.2559545E+003
  1.4071887E+003
  1.4988794E+003
  1.5755936E+003
  1.7845270E+003
  3.0338819E+003
  3.8585900E+003
  3.3892433E+003
 -1.1704223E+002
 -3.1461113E+002
 -4.5376450E+002
 -3.7347960E+002
 -2.8063098E+002
 -2.0743792E+002
 -1.6002924E+002
 -1.3927259E+002
 -1.5663160E+002
 -2.2426785E+002
 -2.0961696E+002
 -4.4854610E+001
  1.4403768E+002
  5.2113909E+002
  8.5733844E+002
  1.0770390E+003
  1.3339598E+003
  1.5803770E+003
  1.7790730E+003
  2.0123199E+003
  2.0392036E+003
  2.6460412E+003
  4.7250195E+003
  5.1547818E+003
 -9.8150611E+001
 -3.3488228E+002
 -4.4806814E+002
 -3.7574074E+002
 -3.0075658E+002
 -2.3857450E+002
 -1.9754238E+002
 -1.8012978E+002
 -1.8171090E+002
 -1.8627125E+002
 -1.0885526E+002
 -5.1209939E+001
  5.0349685E+002
  7.1303966E+002
  9.9574244E+002
  1.2539838E+003
  1.6003324E+003
  1.8822837E+003
  2.1707984E+003
  2.3670145E+003
  2.8736691E+003
  2.6355610E+003
  2.1423087E+003
 -3.2899417E+002
 -3.9523489E+002
 -3.9966982E+002
 -3.2061647E+002
 -2.8906007E+002
 -2.4540348E+002
 -2.1512437E+002
 -1.9392171E+002
 -1.7630242E+002
 -1.4672078E+002
 -8.0987603E+001
 -1.8150071E+001
  1.1667062E+003
  6.8639195E+002
  9.1892997E+002
  1.4739505E+003
  1.8377546E+003
  2.1433874E+003
  2.3774227E+003
  2.5843763E+003
  2.7328062E+003
  1.8738403E+003
  3.4916809E+002
 -7.9034400E+002
 -3.4629878E+002
 -2.2827784E+002
 -2.7849023E+002
 -2.5638339E+002
 -2.4125259E+002
 -2.1719595E+002
 -1.9356046E+002
 -1.6405403E+002
 -1.2501569E+002
 -6.1153170E+001
 -1.7490833E+001
  1.0847504E+003
 -3.1919890E+001
  2.3087509E+002
  5.6603835E+002
  1.1911819E+003
  1.7214772E+003
  2.0995711E+003
  2.3325726E+003
  2.4505065E+003
  2.4297275E+003
  2.3721792E+003
  1.5609259E+003
  8.0578778E+002
 -6.9809684E+002
 -2.1615737E+002
 -3.4933605E+002
 -2.7557451E+002
 -2.2767792E+002
 -2.4526127E+002
 -2.4789154E+002
 -2.3605090E+002
 -2.1619878E+002
 -1.8962217E+002
 -1.5507869E+002
 -1.1205002E+002
 -5.3734054E+001
 -1.3608951E+001
 -1.4879970E+001
  1.3449472E+002
  9.8116197E+002
  1.6106881E+003
  2.0496886E+003
  2.3475579E+003
  2.5014883E+003
  2.4682697E+003
  2.1995319E+003
  1.8139244E+003
  1.2779232E+003
  5.6623848E+002
 -2.3155138E+002
 -3.6436624E+002
 -4.0032766E+002
 -2.9897698E+002
 -2.7524779E+002
 -2.5843804E+002
 -2.4115423E+002
 -2.1771183E+002
 -1.8825105E+002
 -1.5072824E+002
 -1.0664762E+002
 -5.0200294E+001
 -1.3138717E+001
 -1.4530906E+003
 -1.0123147E+003
  8.0717475E+002
  1.9215004E+003
  2.2463468E+003
  2.5697910E+003
  2.6553206E+003
  2.5786569E+003
  2.1727861E+003
  1.7876153E+003
  2.0630138E+003
  1.4804856E+003
 -8.2557679E+001
 -2.6273673E+002
 -3.8673139E+002
 -3.5686020E+002
 -3.1372010E+002
 -2.7896350E+002
 -2.5087403E+002
 -2.2260230E+002
 -1.9038211E+002
 -1.5123287E+002
 -1.0631247E+002
 -5.0042321E+001
 -1.3047046E+001
 -8.2020556E+001
  6.6380726E+002
  1.7502260E+003
  2.3772107E+003
  2.6956469E+003
  2.8159638E+003
  2.6738518E+003
  2.4740069E+003
  1.7403930E+003
  1.0602333E+003
 -9.2734197E+001
 -2.3019160E+002
 -3.7528744E+002
 -3.6548658E+002
 -3.2819738E+002
 -2.8875880E+002
 -2.5713962E+002
 -2.2742430E+002
 -1.9508227E+002
 -1.5582697E+002
 -1.1032031E+002
 -5.2256374E+001
 -1.3790209E+001
  2.2825911E+002
  7.8055309E+002
  1.7464501E+003
  2.4048804E+003
  2.7879620E+003
  2.8998213E+003
  2.7680010E+003
  2.4326664E+003
  1.4568757E+003
  3.9611174E+002
 -6.8525856E+001
 -2.6523657E+002
 -3.6723929E+002
 -3.3913830E+002
 -3.0839712E+002
 -2.7930859E+002
 -2.5395195E+002
 -2.2954673E+002
 -2.0127854E+002
 -1.6433585E+002
 -1.1869687E+002
 -5.7044984E+001
 -1.5219210E+001
  2.5293482E+002
  9.3280181E+002
  1.8613877E+003
  2.4787631E+003
  2.8441480E+003
  2.9264995E+003
  2.7323161E+003
  2.2776116E+003
  1.2316941E+003
  4.1803863E+002
 -2.8359896E+002
 -3.2576118E+002
 -3.2100864E+002
 -2.6830956E+002
 -2.6628876E+002
 -2.5215506E+002
 -2.4204168E+002
 -2.2861042E+002
 -2.0920331E+002
 -1.7757209E+002
 -1.3273914E+002
 -6.5290765E+001
 -1.7785682E+001
  2.9496710E+002
  1.0319737E+003
  2.0263905E+003
  2.5995181E+003
  2.8882036E+003
  2.8857856E+003
  2.6184671E+003
  2.1094330E+003
  1.1359857E+003
  3.3703351E+002
 -6.9490959E+002
 -2.7503201E+002
 -1.5674002E+002
 -2.1023479E+002
 -2.0940719E+002
 -2.2082340E+002
 -2.2480777E+002
 -2.2647322E+002
 -2.1985845E+002
 -1.9737268E+002
 -1.5499225E+002
 -7.8874014E+001
 -2.1918053E+001
  3.5061030E+002
  1.1741623E+003
  2.2716946E+003
  2.7650349E+003
  2.9084154E+003
  2.7664217E+003
  2.4259988E+003
  1.9325075E+003
  1.0276745E+003
  3.4419150E+002
 -6.2718487E+002
 -1.8911633E+002
 -2.9191324E+002
 -1.9959140E+002
 -1.4138715E+002
 -1.5719627E+002
 -1.7448757E+002
 -1.9037495E+002
 -2.0750357E+002
 -2.2361146E+002
 -2.3370681E+002
 -2.2550859E+002
 -1.8963947E+002
 -1.0130334E+002
 -3.0016412E+001
  3.6903095E+002
  1.5091765E+003
  2.6692017E+003
  2.9879346E+003
  2.8568507E+003
  2.5126465E+003
  2.0984952E+003
  1.6769205E+003
  9.5778389E+002
  2.6350919E+002
 -1.9605327E+002
 -2.9680675E+002
 -2.9530039E+002
 -1.8417851E+002
 -1.5635289E+002
 -1.5342532E+002
 -1.6663669E+002
 -1.8890443E+002
 -2.1796144E+002
 -2.4774317E+002
 -2.6212431E+002
 -2.4114599E+002
 -1.3777250E+002
 -4.1117345E+001
  8.6347560E+002
  2.0117384E+003
  3.4228370E+003
  3.1704410E+003
  2.6167553E+003
  2.0534182E+003
  1.5607461E+003
  1.2307527E+003
  8.5962369E+002
  5.6112701E+002
 -7.2724415E+001
 -1.9502638E+002
 -2.6804473E+002
 -2.0767927E+002
 -1.5730918E+002
 -1.3714626E+002
 -1.4251351E+002
 -1.6580464E+002
 -2.0357389E+002
 -2.5372870E+002
 -3.0035142E+002
 -3.1642308E+002
 -2.0098624E+002
 -7.5311147E+001
  9.2304064E+002
  3.8167699E+003
  4.3109390E+003
  2.9661001E+003
  2.0110154E+003
  1.3515782E+003
  8.8543314E+002
  4.8330395E+002
  4.0850649E+002
  1.0653167E+003
 -5.6582219E+001
 -1.8471417E+002
 -2.3313521E+002
 -1.7769180E+002
 -1.3291754E+002
 -1.1037256E+002
 -1.1260742E+002
 -1.3588700E+002
 -1.7689822E+002
 -2.3783428E+002
 -3.2127842E+002
 -4.0403936E+002
 -2.9780049E+002
 -1.0046186E+002
  5.9887867E+003
  5.9783519E+003
  4.2308218E+003
  1.7691470E+003
  1.0931993E+003
  4.8048840E+002
  1.4445293E+002
 -8.3550337E+001
 -7.1338319E+001
  3.4915203E+002
  4.2708567E+002
  1.1015219E+003
 -1.8276102E+002
 -1.9988044E+002
 -1.7184670E+002
 -1.0995504E+002
 -8.6792080E+001
 -7.0819727E+001
 -7.7380030E+001
 -1.0351763E+002
 -1.4534000E+002
 -2.0297439E+002
 -2.8020497E+002
 -4.8259648E+002
 -4.9725671E+002
 -3.3795662E+002
  1.8249420E+004
  6.8624280E+003
  6.4636085E+002
  6.9620116E+002
 -1.1264110E+002
 -3.0337256E+002
 -4.9020911E+002
 -4.9455231E+002
 -1.8864825E+002
  1.6798782E+002
  2.4891608E+002
 -4.6953334E+002
 -1.5836990E+002
 -4.4010881E+001
 -5.4429202E+001
 -3.1312552E+001
 -3.0118644E+001
 -4.2478296E+001
 -7.6500811E+001
 -1.3038585E+002
 -1.8881661E+002
 -2.2874709E+002
 -3.4490652E+002
 -5.0849229E+002
 -3.4584540E+002
  5.8465525E+003
  2.9597124E+003
 -4.2238664E+002
 -4.9096029E+002
 -7.6796933E+002
 -8.8197305E+002
 -9.3161985E+002
 -8.4607766E+002
 -5.8797363E+002
 -1.8851509E+002
  1.3060476E+001
 -4.2597582E+002
 -1.2277501E+002
 -1.8842575E+002
 -1.0970673E+002
 -3.1286533E+001
 -9.2390742E+000
  2.4350676E+000
  2.9918204E+000
 -1.4206794E+001
 -5.9952069E+001
 -1.3371352E+002
 -2.6314938E+002
 -3.0608030E+002
 -5.3546841E+002
 -1.2056647E+003
 -1.0590443E+003
  4.6723531E+002
  1.6611856E+003
  3.8185524E+002
 -5.2192038E+002
 -8.7334949E+002
 -1.0876721E+003
 -1.1719438E+003
 -1.1175592E+003
 -9.9005239E+002
 -5.6661041E+002
  1.7220156E+002
 -1.3358762E+002
 -2.1438236E+002
 -1.7971023E+002
 -5.8564720E+001
 -7.9979612E+000
  1.5062940E+001
  1.9014631E+001
  2.8861148E+000
 -4.1914112E+001
 -1.4677076E+002
 -3.1531598E+002
 -6.3366185E+002
 -7.2001715E+002
 -5.5356741E+002
  1.6883525E+003
  1.6166391E+003
  1.2464622E+003
  7.0329165E+001
 -6.0617883E+002
 -1.0194785E+003
 -1.2141395E+003
 -1.2587145E+003
 -1.1557337E+003
 -8.8109554E+002
 -2.6997417E+002
  6.1726839E+000
  5.2306673E+002
 -1.2786064E+002
 -1.7272608E+002
 -1.5176717E+002
 -6.8410520E+001
 -2.1086016E+001
  6.8884591E+000
  1.4940405E+001
  5.2975013E+000
 -2.8862595E+001
 -1.1261323E+002
 -2.8849594E+002
 -7.2344778E+002
 -8.2989695E+002
 -4.9005030E+002
  1.2675661E+002
  1.5499804E+003
  1.4802782E+003
  4.7929872E+002
 -3.2874535E+002
 -8.4949176E+002
 -1.1410997E+003
 -1.2480952E+003
 -1.1849873E+003
 -9.3258190E+002
 -5.4911876E+002
 -2.7491692E+002
 -2.7817882E+002
 -1.3244001E+002
 -7.6099906E+001
 -6.6779766E+001
 -3.5939166E+001
 -1.9381519E+001
 -1.2209559E+001
 -1.7233669E+001
 -3.8735919E+001
 -8.0932939E+001
 -1.5647767E+002
 -4.1416908E+002
 -7.1128177E+002
 -5.0874167E+002
  2.2768443E+003
  1.6064946E+003
  1.3767589E+003
  3.9026898E+002
 -2.0648103E+002
 -7.2565567E+002
 -1.0292168E+003
 -1.1703959E+003
 -1.1550208E+003
 -1.0116888E+003
 -8.0976347E+002
 -5.4941585E+002
 -3.7106116E+002
 -1.7209174E+002
 -2.3747327E+002
 -5.3815590E+001
 -9.6270089E+001
 -7.9261066E+001
 -6.6270229E+001
 -7.0410979E+001
 -6.7432284E+001
 -6.3676137E+001
 -6.3786374E+001
 -7.4907760E+001
 -8.7394142E+001
 -1.5372315E+002
 -1.3047218E+002
 -5.1509863E+002
 -1.5897188E+003
 -1.4719537E+003
  2.0993422E+003
  1.9091933E+003
  3.1082204E+002
  2.7084990E+002
 -3.0002026E+002
 -6.5252171E+002
 -9.3329959E+002
 -1.0752582E+003
 -1.1017811E+003
 -1.0427853E+003
 -9.1683462E+002
 -8.7822863E+002
 -6.5071539E+002
 -4.7644850E+002
  1.0471656E+001
 -2.6863230E+001
 -8.9092062E+001
 -9.9559367E+001
 -9.9896732E+001
 -1.0922319E+002
 -1.1929919E+002
 -1.2739838E+002
 -1.3814645E+002
 -1.5368741E+002
 -1.9290120E+002
 -2.3308495E+002
 -4.2758545E+002
 -5.8855182E+002
 -6.0441879E+002
 -2.4884702E+003
  6.2424454E+002
  2.5558989E+002
  7.8515964E+002
  2.2645138E+002
 -5.0646030E+001
 -3.4595340E+002
 -6.3085751E+002
 -8.4585517E+002
 -9.7750938E+002
 -1.0255682E+003
 -1.0080799E+003
 -9.6787527E+002
 -9.2337167E+002
 -9.5415129E+002
 -1.2143495E+003
  1.2825787E+002
  2.0722129E+002
  5.4093253E+001
 -6.7733468E+001
 -1.2050835E+002
 -1.5196571E+002
 -1.7239138E+002
 -1.9052560E+002
 -2.0674624E+002
 -2.2340969E+002
 -2.4590775E+002
 -2.8066632E+002
 -3.4178969E+002
 -4.4562977E+002
 -3.7638067E+002
 -8.0958238E+001
  1.0539967E+003
  1.0251414E+003
  7.1509578E+002
  1.9399807E+002
 -1.1848809E+002
 -3.7350439E+002
 -5.8868602E+002
 -7.6126065E+002
 -8.7333277E+002
 -9.2515734E+002
 -9.2740636E+002
 -9.0213044E+002
 -8.5975526E+002
 -8.6522506E+002
 -8.8491200E+002
 -1.4992913E+003
 -1.3731698E+003
  3.4440681E+002
  3.9591015E+002
  2.0533261E+002
  1.1711176E+001
 -9.4924075E+001
 -1.6895428E+002
 -2.1583306E+002
 -2.4894204E+002
 -2.7394518E+002
 -2.9431605E+002
 -3.1213855E+002
 -3.2898369E+002
 -3.4880950E+002
 -3.6570804E+002
 -3.5969503E+002
 -2.0584706E+002
 -8.9162533E+001
 -1.6993495E+002
  1.4055694E+002
  2.1288160E+002
  1.2784689E+002
 -1.3009613E+002
 -3.4399886E+002
 -5.2708968E+002
 -6.6806163E+002
 -7.6298130E+002
 -8.1017651E+002
 -8.1583165E+002
 -7.9299153E+002
 -7.5442052E+002
 -7.5916050E+002
 -7.4694449E+002
 -1.0876453E+003
 -9.4661367E+002
 -8.2224357E+002
 -1.3318328E+003
 -5.5969028E+002
  5.2221280E+002
  6.3034542E+002
  3.8256089E+002
  1.4704597E+002
 -2.1075464E+001
 -1.4932471E+002
 -2.3417547E+002
 -2.9258452E+002
 -3.3347707E+002
 -3.6309831E+002
 -3.8444971E+002
 -3.9831143E+002
 -4.0296684E+002
 -3.9350667E+002
 -3.5740933E+002
 -2.8379390E+002
 -1.4613986E+002
 -3.5716140E+001
 -1.6038855E+002
  1.0205804E+002
  1.3889065E+002
  5.1826484E+001
 -1.1481497E+002
 -2.9522279E+002
 -4.5057037E+002
 -5.7064931E+002
 -6.5103858E+002
 -6.9171384E+002
 -6.9720144E+002
 -6.7708624E+002
 -6.4932215E+002
 -6.3065376E+002
 -6.7714711E+002
 -8.1652512E+002
 -9.0532559E+002
 -1.0317502E+003
 -8.6506857E+002
 -7.5469311E+002
 -1.3122680E+003
 -9.6886349E+002
  8.7575304E+002
  9.6928670E+002
  4.3648980E+002
  2.6710673E+002
  4.7012372E+001
 -1.0813050E+002
 -2.2940706E+002
 -3.1649239E+002
 -3.7882046E+002
 -4.2295516E+002
 -4.5376579E+002
 -4.7342002E+002
 -4.8126507E+002
 -4.7298281E+002
 -4.3787625E+002
 -3.5950528E+002
 -2.3723835E+002
 -1.0290381E+002
 -1.2580854E+001
  7.4195467E+002
  4.9429867E+002
  2.3277865E+002
  6.8045799E+001
 -8.8801370E+001
 -2.4154261E+002
 -3.7405533E+002
 -4.7641761E+002
 -5.4488993E+002
 -5.7982239E+002
 -5.8539856E+002
 -5.7044869E+002
 -5.4807189E+002
 -5.4080975E+002
 -5.6858309E+002
 -6.2057004E+002
 -6.2963376E+002
 -6.8984268E+002
 -6.0377076E+002
 -6.2472832E+002
 -6.2465134E+002
 -5.3166899E+002
 -4.9138394E+002
 -1.2108411E+002
 -5.5015739E+002
 -3.8578165E+002
 -5.2832676E+002
 -3.7084192E+002
 -1.2115109E+003
 -1.1325663E+003
  6.8947931E+002
  9.6055341E+002
  6.0038987E+002
  6.0170270E+002
  5.6252722E+002
  1.6476071E+002
  5.7084122E+001
 -9.8688413E+001
 -2.2541919E+002
 -3.3105802E+002
 -4.1162166E+002
 -4.7144004E+002
 -5.1415195E+002
 -5.4283335E+002
 -5.5864818E+002
 -5.6058480E+002
 -5.4337556E+002
 -4.9801621E+002
 -4.0052072E+002
 -2.2509592E+002
 -3.0464784E+001
 -8.0757230E+000
  8.8356878E+002
  6.9639064E+002
  3.6707164E+002
  3.7512940E+002
  2.2694383E+002
  8.0775287E+001
 -6.6229026E+001
 -1.9595200E+002
 -3.0717145E+002
 -3.9286857E+002
 -4.5059380E+002
 -4.8067401E+002
 -4.8680164E+002
 -4.7599191E+002
 -4.5904200E+002
 -4.4794444E+002
 -4.4843074E+002
 -4.5097037E+002
 -4.5502557E+002
 -4.1042198E+002
 -3.2544863E+002
 -3.5164103E+002
 -5.5748916E+002
 -5.6685168E+002
 -5.2949869E+002
 -2.9646379E+002
 -4.4267351E+002
 -5.8307926E+002
 -5.1288533E+002
 -4.9287508E+002
 -1.3875076E+002
 -4.1180576E+002
 -1.6428591E+002
 -3.7341814E+002
 -1.2522634E+002
 -3.0503975E+002
 -1.0643520E+002
 -2.1316590E+002
 -6.6191344E+001
 -9.0233415E+001
 -2.6451637E+001
  2.0063953E+001
  1.1290728E+001
  1.1348960E+002
  6.5868688E+001
  2.4863976E+002
  6.7662149E+001
  4.0997451E+002
  3.8369538E+002
  4.0119285E+002
  3.0005116E+002
  1.9979690E+002
  5.5660624E+000
 -1.4252336E+002
 -2.5434304E+002
 -3.5686232E+002
 -4.4374950E+002
 -5.1346045E+002
 -5.6631475E+002
 -6.0387066E+002
 -6.2745906E+002
 -6.3760459E+002
 -6.3281577E+002
 -6.1181456E+002
 -5.6347512E+002
 -4.9237080E+002
 -3.0720752E+002
  1.2631615E+001
  2.1218769E+002
 -4.8311091E+002
 -1.5150249E+001
  1.0450015E+002
  1.5006594E+002
  4.4719438E+001
 -6.1826638E+001
 -1.6636544E+002
 -2.5466138E+002
 -3.2397131E+002
 -3.7139913E+002
 -3.9707751E+002
 -4.0354538E+002
 -3.9589163E+002
 -3.8085395E+002
 -3.6450214E+002
 -3.4864553E+002
 -3.3085718E+002
 -2.9843719E+002
 -2.5575490E+002
 -2.3477215E+002
 -2.7174382E+002
 -2.9992274E+002
 -3.2231535E+002
 -2.3372196E+002
 -1.3791615E+002
 -1.9403047E+002
 -5.3432034E+002
 -6.5786169E+002
 -6.5147332E+002
 -6.1460511E+002
 -5.2886749E+002
 -3.7489478E+002
 -2.1292212E+002
 -2.8245031E+001
  1.1943330E+002
  2.3437077E+002
  2.7711855E+002
  1.1115580E+002
  3.5196881E+000
 -6.4266195E+001
 -1.8114456E+002
 -3.0012746E+002
 -4.0050186E+002
 -4.8525233E+002
 -5.5721277E+002
 -6.1524385E+002
 -6.5910931E+002
 -6.8908432E+002
 -7.0543742E+002
 -7.0751724E+002
 -6.9502134E+002
 -6.6345443E+002
 -6.2317150E+002
 -5.3843215E+002
 -5.2978571E+002
 -1.3556117E+002
  7.6068951E+002
  6.3583511E+001
  1.3129286E+002
  1.2649160E+002
  5.9359019E+001
 -3.8676745E+000
 -7.8383470E+001
 -1.5102012E+002
 -2.1656880E+002
 -2.6975353E+002
 -3.0769785E+002
 -3.2944822E+002
 -3.3623927E+002
 -3.3105800E+002
 -3.1771792E+002
 -2.9932335E+002
 -2.7695536E+002
 -2.4851696E+002
 -2.1369196E+002
 -1.7697865E+002
 -1.5109250E+002
 -1.4158123E+002
 -1.4681961E+002
 -1.1590829E+002
 -7.2592080E+001
 -6.7871285E+001
 -1.8979241E+002
 -3.4785642E+002
 -5.3912089E+002
 -6.3899992E+002
 -6.0208248E+002
 -5.9831377E+002
 -5.4620876E+002
 -2.7177956E+002
 -1.2346933E+002
 -6.5418392E+001
  9.9029986E+000
  1.1781046E+001
 -4.1552152E+001
 -1.5137820E+002
 -2.5371958E+002
 -3.4794067E+002
 -4.4388080E+002
 -5.3087560E+002
 -6.0441632E+002
 -6.6461110E+002
 -7.1184811E+002
 -7.4616506E+002
 -7.6750735E+002
 -7.7532274E+002
 -7.6834065E+002
 -7.4401194E+002
 -7.0054382E+002
 -6.3328944E+002
 -5.5162990E+002
 -4.5581343E+002
 -3.1722168E+002
  8.1838992E-001
  2.1142004E+001
  9.3241670E+002
  9.1801259E+002
  3.2135961E+002
  1.0091263E+002
 -2.9760106E+001
 -5.9284459E+001
 -1.0036227E+002
 -1.4344458E+002
 -1.8818028E+002
 -2.2756320E+002
 -2.5776960E+002
 -2.7672892E+002
 -2.8442245E+002
 -2.8223433E+002
 -2.7217956E+002
 -2.5596877E+002
 -2.3421382E+002
 -2.0688391E+002
 -1.7439382E+002
 -1.3983324E+002
 -1.0632391E+002
 -7.3348644E+001
 -2.9939322E+001
  1.4727264E+001
  4.3884075E+001
  7.9220558E+000
 -8.8148950E+001
 -2.0057500E+002
 -3.0309154E+002
 -3.0154262E+002
 -2.9841116E+002
 -4.1278982E+002
 -5.8062603E+002
 -5.4895929E+002
 -4.4921265E+002
 -3.8803786E+002
 -2.4567650E+002
 -1.9989699E+002
 -2.4465593E+002
 -3.1297959E+002
 -3.9745963E+002
 -4.8702676E+002
 -5.7258703E+002
 -6.4910633E+002
 -7.1280577E+002
 -7.6289926E+002
 -8.0005707E+002
 -8.2492428E+002
 -8.3755222E+002
 -8.3708912E+002
 -8.2125854E+002
 -7.8645901E+002
 -7.2603282E+002
 -6.3467557E+002
 -4.9487349E+002
 -2.9924264E+002
 -8.3363479E+001
 -9.0358365E+001
 -9.0598486E+000
 -5.8134642E+002
 -2.3496949E+002
 -1.8988363E+002
 -1.1763767E+002
 -1.0727675E+002
 -1.1070869E+002
 -1.3350149E+002
 -1.6330274E+002
 -1.9353444E+002
 -2.1898356E+002
 -2.3704061E+002
 -2.4686745E+002
 -2.4890767E+002
 -2.4420933E+002
 -2.3379227E+002
 -2.1828179E+002
 -1.9789992E+002
 -1.7288589E+002
 -1.4300633E+002
 -1.0671036E+002
 -5.9114610E+001
  2.4616621E+000
  7.1889717E+001
  9.0362158E+001
  5.4614486E+001
 -6.1593430E+001
 -5.9402861E+001
 -2.0580951E+001
  2.5457398E+002
 -5.1561348E+001
 -1.0192581E+002
 -4.8317849E+002
 -1.2327213E+003
 -7.8319881E+002
 -8.3976786E+002
 -4.6086984E+002
 -4.5348835E+002
 -4.2577806E+002
 -4.5941190E+002
 -5.2559284E+002
 -6.0793136E+002
 -6.8810532E+002
 -7.5680940E+002
 -8.1092786E+002
 -8.5083332E+002
 -8.7794891E+002
 -8.9353492E+002
 -8.9805989E+002
 -8.9068780E+002
 -8.6914172E+002
 -8.2799450E+002
 -7.6243096E+002
 -6.5306824E+002
 -5.1922735E+002
 -2.5792571E+002
 -2.6506440E+002
 -8.0118070E+002
 -8.4162496E+002
 -4.7601862E+002
 -3.4262726E+002
 -2.9585090E+002
 -1.3975271E+002
 -1.0467770E+002
 -9.6175222E+001
 -1.1264421E+002
 -1.3743595E+002
 -1.6449896E+002
 -1.8890368E+002
 -2.0829215E+002
 -2.2171934E+002
 -2.2931347E+002
 -2.3174542E+002
 -2.2981403E+002
 -2.2412582E+002
 -2.1492735E+002
 -2.0180544E+002
 -1.8330881E+002
 -1.5569890E+002
 -1.1417608E+002
 -5.1457189E+001
  2.4661624E+001
  9.7551959E+001
 -4.5232895E+001
 -1.9131214E+002
 -1.8029567E+001
  5.2235574E+001
  3.5673563E+002
 -8.7233684E+002
 -7.6708479E+002
 -1.3157556E+003
 -7.5456952E+002
 -6.9348593E+002
 -5.7216360E+002
 -5.7695239E+002
 -6.3552625E+002
 -7.1834577E+002
 -7.9519260E+002
 -8.5550996E+002
 -8.9875770E+002
 -9.2741096E+002
 -9.4395424E+002
 -9.5031189E+002
 -9.4749215E+002
 -9.3531687E+002
 -9.1173552E+002
 -8.7315526E+002
 -8.1124814E+002
 -7.2493196E+002
 -5.9130017E+002
 -5.0559874E+002
 -4.1367568E+002
 -3.3021699E+002
  1.8436139E+002
 -3.7870560E+001
 -6.7730347E+001
 -4.6736983E+001
 -3.8159598E+001
 -5.5288321E+001
 -8.0554426E+001
 -1.1015436E+002
 -1.3940966E+002
 -1.6602161E+002
 -1.8860824E+002
 -2.0678709E+002
 -2.2083766E+002
 -2.3145404E+002
 -2.3946690E+002
 -2.4560337E+002
 -2.5021167E+002
 -2.5298195E+002
 -2.5217804E+002
 -2.4494515E+002
 -2.2431552E+002
 -1.9199209E+002
 -1.3258532E+002
 -1.2401270E+002
 -3.4458800E+002
 -3.9724375E+002
 -1.1787702E+003
 -9.6074381E+002
 -7.7195114E+002
 -6.4933670E+002
 -6.5210189E+002
 -7.2989146E+002
 -8.2573474E+002
 -8.9706499E+002
 -9.4502239E+002
 -9.7490520E+002
 -9.9096663E+002
 -9.9633189E+002
 -9.9339502E+002
 -9.8379040E+002
 -9.6823756E+002
 -9.4615367E+002
 -9.1498278E+002
 -8.7018572E+002
 -8.0570640E+002
 -7.1826043E+002
 -6.2741980E+002
 -3.9984372E+002
 -1.1220404E+002
 -1.0981033E+002
  1.6044561E+002
  1.9556279E+002
  1.1537520E+002
  4.6447613E+001
 -3.4183825E+000
 -4.7009366E+001
 -8.5217718E+001
 -1.1948073E+002
 -1.4983244E+002
 -1.7647964E+002
 -1.9979690E+002
 -2.2045896E+002
 -2.3936067E+002
 -2.5750203E+002
 -2.7581984E+002
 -2.9500648E+002
 -3.1513051E+002
 -3.3556275E+002
 -3.5323326E+002
 -3.6659183E+002
 -3.5902110E+002
 -3.6049720E+002
 -2.9529103E+002
 -2.0269645E+002
 -8.4740553E+002
 -7.7400482E+002
 -6.4439668E+002
 -6.7560425E+002
 -8.3905679E+002
 -9.3547481E+002
 -9.9045649E+002
 -1.0211531E+003
 -1.0361152E+003
 -1.0390982E+003
 -1.0332715E+003
 -1.0210578E+003
 -1.0046746E+003
 -9.8598710E+002
 -9.6607026E+002
 -9.4464154E+002
 -9.1783828E+002
 -8.7946458E+002
 -8.0821193E+002
 -6.8612518E+002
 -3.7680667E+002
 -1.3006419E+002
  5.1640080E+002
  4.3887011E+002
  3.8928090E+002
  1.9260570E+002
  1.0491375E+002
  2.9847214E+001
 -2.3705787E+001
 -6.8617392E+001
 -1.0670053E+002
 -1.4033006E+002
 -1.7059600E+002
 -1.9852486E+002
 -2.2510738E+002
 -2.5142990E+002
 -2.7864292E+002
 -3.0788459E+002
 -3.4015804E+002
 -3.7610118E+002
 -4.1578604E+002
 -4.5766155E+002
 -4.9857847E+002
 -5.2365372E+002
 -5.1185180E+002
 -3.1360140E+002
 -1.0132043E+002
 -6.6522032E+002
 -6.5700048E+002
 -7.9617263E+002
 -9.7386438E+002
 -1.0299110E+003
 -1.0614849E+003
 -1.0763479E+003
 -1.0778397E+003
 -1.0695451E+003
 -1.0536021E+003
 -1.0324862E+003
 -1.0088545E+003
 -9.8571778E+002
 -9.6601519E+002
 -9.5174711E+002
 -9.4101478E+002
 -9.2503921E+002
 -8.7107354E+002
 -7.4461063E+002
 -4.1910305E+002
 -1.3360663E+002
  7.6101746E+002
  3.6751612E+002
  2.5429373E+002
  1.6943876E+002
  9.6723981E+001
  3.2967667E+001
 -1.9471749E+001
 -6.3719619E+001
 -1.0228519E+002
 -1.3710635E+002
 -1.6957468E+002
 -2.0082901E+002
 -2.3194562E+002
 -2.6403634E+002
 -2.9826662E+002
 -3.3581641E+002
 -3.7779048E+002
 -4.2506898E+002
 -4.7801808E+002
 -5.3582558E+002
 -5.9492960E+002
 -6.4171367E+002
 -6.4669965E+002
 -4.1110547E+002
 -8.2156318E+001
 -5.6338828E+002
 -8.0410492E+002
 -1.0620763E+003
 -1.0568845E+003
 -1.0991292E+003
 -1.1017897E+003
 -1.0975436E+003
 -1.0814019E+003
 -1.0578794E+003
 -1.0287661E+003
 -9.9727649E+002
 -9.6738981E+002
 -9.4381592E+002
 -9.3106319E+002
 -9.3064825E+002
 -9.3668122E+002
 -9.1506266E+002
 -8.2743629E+002
 -4.8713194E+002
 -1.5602261E+002
 -5.0287975E+002
 -8.9090193E+001
  1.9725202E+001
  8.5993974E+001
  4.6761147E+001
  8.6700044E+000
 -3.2506312E+001
 -6.9972388E+001
 -1.0525127E+002
 -1.3886637E+002
 -1.7174513E+002
 -2.0469282E+002
 -2.3857963E+002
 -2.7433591E+002
 -3.1295515E+002
 -3.5542319E+002
 -4.0267371E+002
 -4.5521187E+002
 -5.1356432E+002
 -5.7489100E+002
 -6.4190138E+002
 -6.8405511E+002
 -7.6075765E+002
 -6.1647868E+002
 -4.4218942E+002
 -5.9368290E+002
 -7.2577562E+002
 -9.4498840E+002
 -1.0534928E+003
 -1.0879545E+003
 -1.1014151E+003
 -1.0951438E+003
 -1.0770173E+003
 -1.0489463E+003
 -1.0136097E+003
 -9.7406742E+002
 -9.3506067E+002
 -9.0308907E+002
 -8.8524412E+002
 -8.8573719E+002
 -9.1006862E+002
 -9.2685999E+002
 -8.9611795E+002
 -5.8780115E+002
 -2.6519754E+002
  4.1754863E+001
  4.4983431E+001
  2.5813847E+001
  8.6267428E+000
 -6.2177541E+000
 -2.8732041E+001
 -5.4631793E+001
 -8.2968557E+001
 -1.1266840E+002
 -1.4341767E+002
 -1.7521263E+002
 -2.0832524E+002
 -2.4321750E+002
 -2.8048757E+002
 -3.2079491E+002
 -3.6476894E+002
 -4.1283665E+002
 -4.6509628E+002
 -5.2059181E+002
 -5.7801374E+002
 -6.3022809E+002
 -6.7904325E+002
 -6.8799873E+002
 -7.1608255E+002
 -9.4095999E+002
 -4.2330498E+002
 -1.6777910E+002
 -5.1741045E+002
 -7.5618652E+002
 -9.0285016E+002
 -1.0098038E+003
 -1.0602039E+003
 -1.0787145E+003
 -1.0774311E+003
 -1.0608930E+003
 -1.0321336E+003
 -9.9316418E+002
 -9.4667877E+002
 -8.9724742E+002
 -8.5314244E+002
 -8.2625750E+002
 -8.2327790E+002
 -8.4551977E+002
 -9.1739426E+002
 -1.0093210E+003
 -6.6986177E+002
 -1.9307572E+002
  5.9402805E+002
  1.8935701E+002
  3.1681978E+001
 -5.0757924E+001
 -5.4254008E+001
 -6.3759147E+001
 -7.6824193E+001
 -9.6617905E+001
 -1.2076643E+002
 -1.4820864E+002
 -1.7814958E+002
 -2.1032556E+002
 -2.4476731E+002
 -2.8169310E+002
 -3.2137545E+002
 -3.6399860E+002
 -4.0948723E+002
 -4.5721882E+002
 -5.0578818E+002
 -5.5207525E+002
 -5.9205064E+002
 -6.1649078E+002
 -6.2064809E+002
 -6.1074272E+002
 -7.5215126E+002
 -9.2889574E+002
 -9.9158498E+002
 -5.3011089E+002
 -7.5899524E+002
 -9.2939509E+002
 -9.0846142E+002
 -9.8278790E+002
 -1.0228035E+003
 -1.0470823E+003
 -1.0510779E+003
 -1.0395984E+003
 -1.0137483E+003
 -9.7496240E+002
 -9.2472059E+002
 -8.6642574E+002
 -8.0765071E+002
 -7.6809530E+002
 -7.7410666E+002
 -8.1555549E+002
 -8.1435630E+002
 -9.2568561E+002
 -8.7415309E+002
 -3.7024670E+002
 -4.1565075E+002
 -1.7115472E+002
 -1.4781844E+002
 -1.0299761E+002
 -9.2110996E+001
 -8.5266086E+001
 -9.1377635E+001
 -1.0564725E+002
 -1.2621619E+002
 -1.5108979E+002
 -1.7917644E+002
 -2.0985386E+002
 -2.4285456E+002
 -2.7808369E+002
 -3.1547480E+002
 -3.5483729E+002
 -3.9567927E+002
 -4.3701536E+002
 -4.7709634E+002
 -5.1338602E+002
 -5.4244090E+002
 -5.6226302E+002
 -5.7965659E+002
 -6.4190642E+002
 -7.5939433E+002
 -8.6977584E+002
 -9.4543726E+002
 -9.3845486E+002
 -1.0205017E+003
 -8.4037175E+002
 -8.6622344E+002
 -9.1678950E+002
 -9.4819977E+002
 -9.8725809E+002
 -1.0124873E+003
 -1.0233973E+003
 -1.0188477E+003
 -9.9950902E+002
 -9.6561857E+002
 -9.1754739E+002
 -8.5602413E+002
 -7.8670621E+002
 -7.2109923E+002
 -7.3339891E+002
 -8.9004180E+002
 -1.2298601E+003
 -1.6827362E+003
 -1.2975896E+003
 -2.9721399E+002
 -2.2905822E+002
 -2.1034971E+002
 -1.1717324E+002
 -9.5636636E+001
 -8.6917037E+001
 -9.3334943E+001
 -1.0735135E+002
 -1.2717905E+002
 -1.5093828E+002
 -1.7766593E+002
 -2.0672793E+002
 -2.3775657E+002
 -2.7048590E+002
 -3.0463385E+002
 -3.3977739E+002
 -3.7523424E+002
 -4.0995808E+002
 -4.4253859E+002
 -4.7141623E+002
 -4.9588361E+002
 -5.1877507E+002
 -5.5244353E+002
 -6.0993605E+002
 -6.9752699E+002
 -8.0108423E+002
 -9.1557468E+002
 -1.0134246E+003
 -9.9886531E+002
 -5.0419897E+002
 -7.5220629E+002
 -8.8452051E+002
 -8.9570407E+002
 -8.1847566E+002
 -8.7730978E+002
 -9.1257157E+002
 -9.5165835E+002
 -9.8116999E+002
 -9.9883475E+002
 -1.0026671E+003
 -9.9249003E+002
 -9.6828666E+002
 -9.2969773E+002
 -8.7650920E+002
 -8.0664553E+002
 -7.3202536E+002
 -6.4628331E+002
 -8.6001152E+002
 -1.1329303E+003
 -1.0364060E+003
  1.1461168E+002
 -2.9782071E+001
 -6.5480069E+001
 -6.1857885E+001
 -5.9064158E+001
 -6.9053173E+001
 -8.3545785E+001
 -1.0226605E+002
 -1.2387875E+002
 -1.4789579E+002
 -1.7384304E+002
 -2.0139201E+002
 -2.3025690E+002
 -2.6014975E+002
 -2.9071070E+002
 -3.2144474E+002
 -3.5167543E+002
 -3.8055910E+002
 -4.0723442E+002
 -4.3127954E+002
 -4.5371902E+002
 -4.7870081E+002
 -5.1329293E+002
 -5.6555030E+002
 -6.3687655E+002
 -7.2485361E+002
 -8.2599704E+002
 -9.7519074E+002
 -1.1592004E+003
 -1.0879772E+003
 -1.4179724E+003
 -1.0236614E+003
 -8.5915125E+002
 -8.2154588E+002
 -8.3649202E+002
 -8.8101681E+002
 -9.2197337E+002
 -9.5652326E+002
 -9.8038099E+002
 -9.9236702E+002
 -9.9221277E+002
 -9.8052588E+002
 -9.5715241E+002
 -9.2434138E+002
 -8.7259648E+002
 -8.2915654E+002
 -6.9154820E+002
 -8.5160900E+002
 -1.7055298E+003
 -1.1996893E+003
 -5.8988265E+001
  8.7181767E+001
  9.0474248E+001
  3.3798574E+001
 -1.0645176E+001
 -4.1859096E+001
 -6.8915726E+001
 -9.3779399E+001
 -1.1831655E+002
 -1.4315934E+002
 -1.6862362E+002
 -1.9475145E+002
 -2.2144519E+002
 -2.4848761E+002
 -2.7554708E+002
 -3.0217360E+002
 -3.2782017E+002
 -3.5192862E+002
 -3.7414281E+002
 -3.9472300E+002
 -4.1515291E+002
 -4.3851607E+002
 -4.6900738E+002
 -5.1017176E+002
 -5.6256640E+002
 -6.2797887E+002
 -6.9941346E+002
 -8.1649107E+002
 -8.7499494E+002
 -1.2975276E+003
 -1.4440784E+003
 -1.3107837E+003
 -1.1719398E+003
 -8.5176839E+002
 -7.4490262E+002
 -7.6756669E+002
 -7.8980996E+002
 -8.1952424E+002
 -8.6152397E+002
 -9.0458400E+002
 -9.4138362E+002
 -9.6922103E+002
 -9.8700255E+002
 -9.9504521E+002
 -9.9440191E+002
 -9.8737786E+002
 -9.7429228E+002
 -9.6336771E+002
 -9.3092881E+002
 -9.5111681E+002
 -7.3758805E+002
 -4.8895254E+002
  2.8681589E+002
  2.3367613E+002
  1.9624502E+002
  7.8984171E+001
  2.3233175E+001
 -2.3453796E+001
 -5.7345615E+001
 -8.6666654E+001
 -1.1312660E+002
 -1.3842929E+002
 -1.6324625E+002
 -1.8791833E+002
 -2.1249791E+002
 -2.3686361E+002
 -2.6075989E+002
 -2.8383942E+002
 -3.0572268E+002
 -3.2610861E+002
 -3.4496233E+002
 -3.6277946E+002
 -3.8081441E+002
 -4.0107582E+002
 -4.2573860E+002
 -4.5634343E+002
 -4.9231094E+002
 -5.3263716E+002
 -5.6888144E+002
 -6.0855191E+002
 -5.5481825E+002
 -7.9031214E+002
 -7.8509015E+002
 -5.8129974E+002
 -5.8946256E+002
 -1.1569554E+002
 -5.9541934E+002
 -1.1732841E+002
 -8.3824809E+002
 -5.2838726E+002
 -1.0041861E+003
 -8.7918231E+002
 -8.1075132E+002
 -7.6611523E+002
 -7.8920701E+002
 -8.2332584E+002
 -8.6280979E+002
 -9.0238506E+002
 -9.3742449E+002
 -9.6507027E+002
 -9.8440628E+002
 -9.9584453E+002
 -1.0007166E+003
 -1.0018404E+003
 -1.0002911E+003
 -1.0051669E+003
 -9.8647624E+002
 -1.0134007E+003
 -5.1986937E+002
  5.6618417E+002
  3.8530490E+002
  1.8771304E+002
  1.1903138E+002
  6.6465640E+001
  1.9315376E+001
 -2.1013722E+001
 -5.4870551E+001
 -8.4119479E+001
 -1.1049950E+002
 -1.3518007E+002
 -1.5887509E+002
 -1.8194051E+002
 -2.0448538E+002
 -2.2644561E+002
 -2.4764252E+002
 -2.6783850E+002
 -2.8680795E+002
 -3.0443749E+002
 -3.2085764E+002
 -3.3657502E+002
 -3.5252981E+002
 -3.6995814E+002
 -3.9001367E+002
 -4.1316137E+002
 -4.3885304E+002
 -4.6491819E+002
 -4.8971670E+002
 -5.0701732E+002
 -5.7032353E+002
 -7.2315909E+002
 -9.7476714E+002
 -1.0067522E+003
 -1.0613793E+003
 -1.1685361E+003
 -1.0915145E+003
 -9.6868594E+002
 -8.7811240E+002
 -8.3951126E+002
 -8.3491182E+002
 -8.5517689E+002
 -8.8458344E+002
 -9.1579275E+002
 -9.4416285E+002
 -9.6679460E+002
 -9.8235590E+002
 -9.9075282E+002
 -9.9275581E+002
 -9.8947701E+002
 -9.8177657E+002
 -9.6656352E+002
 -9.3228908E+002
 -8.1281900E+002
 -4.3586396E+002
  5.7218258E+001
  1.5167027E+002
  7.3412823E+002
 -2.5556042E+002
 -5.2169971E+001
 -8.9034832E+000
  1.8543740E+001
 -7.1748882E+000
 -3.3337242E+001
 -6.1226786E+001
 -8.7002066E+001
 -1.1126501E+002
 -1.3423818E+002
 -1.5629284E+002
 -1.7760829E+002
 -1.9823806E+002
 -2.1812313E+002
 -2.3713677E+002
 -2.5513259E+002
 -2.7200709E+002
 -2.8777633E+002
 -3.0265829E+002
 -3.1713415E+002
 -3.3194350E+002
 -3.4797384E+002
 -3.6604409E+002
 -3.8670461E+002
 -4.1019401E+002
 -4.3722459E+002
 -4.7047105E+002
 -5.2525555E+002
 -6.2915863E+002
 -8.0472168E+002
 -9.5692443E+002
 -1.1009769E+003
 -1.1800403E+003
 -1.1941189E+003
 -1.1655859E+003
 -1.0726728E+003
 -9.8349563E+002
 -9.2776064E+002
 -9.0649314E+002
 -9.0825818E+002
 -9.2287003E+002
 -9.4181603E+002
 -9.5963223E+002
 -9.7288742E+002
 -9.7961057E+002
 -9.7881224E+002
 -9.6983650E+002
 -9.5158819E+002
 -9.2067568E+002
 -8.6974263E+002
 -7.7697202E+002
 -6.0523909E+002
 -2.8456430E+002
  2.0337801E+001
  1.3797283E+002
  1.7231321E+001
  1.8076167E+000
 -1.5704031E+001
 -2.2457186E+001
 -3.4192989E+001
 -5.2247284E+001
 -7.2695632E+001
 -9.3920886E+001
 -1.1501417E+002
 -1.3568043E+002
 -1.5581635E+002
 -1.7537454E+002
 -1.9429311E+002
 -2.1248402E+002
 -2.2984770E+002
 -2.4630621E+002
 -2.6184944E+002
 -2.7658937E+002
 -2.9081215E+002
 -3.0501088E+002
 -3.1988106E+002
 -3.3627434E+002
 -3.5514862E+002
 -3.7761039E+002
 -4.0527621E+002
 -4.4117332E+002
 -4.9217828E+002
 -5.7029535E+002
 -6.8788116E+002
 -8.3561323E+002
 -9.9997944E+002
 -1.1257520E+003
 -1.2071537E+003
 -1.2345923E+003
 -1.2005050E+003
 -1.1365842E+003
 -1.0664078E+003
 -1.0125442E+003
 -9.8158133E+002
 -9.6998882E+002
 -9.7043145E+002
 -9.7595590E+002
 -9.8107353E+002
 -9.8198809E+002
 -9.7619509E+002
 -9.6188283E+002
 -9.3715133E+002
 -8.9875838E+002
 -8.4098434E+002
 -7.5269084E+002
 -6.2117007E+002
 -4.4180891E+002
 -2.9733667E+002
 -1.7896269E+002
 -1.2209650E+002
  2.1867678E+002
  6.5607166E+001
 -6.9506063E+000
 -4.5661641E+001
 -5.6436874E+001
 -7.0128242E+001
 -8.5350117E+001
 -1.0258688E+002
 -1.2067615E+002
 -1.3907613E+002
 -1.5738975E+002
 -1.7538951E+002
 -1.9291266E+002
 -2.0983847E+002
 -2.2608422E+002
 -2.4162476E+002
 -2.5652441E+002
 -2.7097531E+002
 -2.8533425E+002
 -3.0014999E+002
 -3.1617769E+002
 -3.3439209E+002
 -3.5603772E+002
 -3.8279476E+002
 -4.1715249E+002
 -4.6310962E+002
 -5.2666611E+002
 -6.1465383E+002
 -7.2957912E+002
 -8.6600257E+002
 -1.0011321E+003
 -1.1181414E+003
 -1.1953096E+003
 -1.2256719E+003
 -1.2155389E+003
 -1.1753233E+003
 -1.1254243E+003
 -1.0808774E+003
 -1.0492105E+003
 -1.0303872E+003
 -1.0203054E+003
 -1.0137062E+003
 -1.0058540E+003
 -9.9311856E+002
 -9.7292299E+002
 -9.4325548E+002
 -9.0180361E+002
 -8.4500961E+002
 -7.6655835E+002
 -6.5855560E+002
 -5.1234647E+002
 -3.3830485E+002
 -2.2568178E+002
 -2.1855775E+002
 -1.3167743E+002
 -1.4406053E+002
 -5.6721935E+001
 -6.4336140E+001
 -6.3095185E+001
 -7.3987110E+001
 -8.3509316E+001
 -9.6399203E+001
 -1.1109488E+002
 -1.2714708E+002
 -1.4384647E+002
 -1.6076787E+002
 -1.7760299E+002
 -1.9414895E+002
 -2.1027375E+002
 -2.2591564E+002
 -2.4109564E+002
 -2.5594121E+002
 -2.7071508E+002
 -2.8584523E+002
 -3.0195331E+002
 -3.1988437E+002
 -3.4074965E+002
 -3.6600736E+002
 -3.9760974E+002
 -4.3822382E+002
 -4.9137501E+002
 -5.6108255E+002
 -6.5030293E+002
 -7.5845543E+002
 -8.7803958E+002
 -9.9708659E+002
 -1.0984657E+003
 -1.1709119E+003
 -1.2085321E+003
 -1.2128607E+003
 -1.1938451E+003
 -1.1631013E+003
 -1.1313600E+003
 -1.1046771E+003
 -1.0842831E+003
 -1.0679188E+003
 -1.0517830E+003
 -1.0320477E+003
 -1.0056853E+003
 -9.7066917E+002
 -9.2560462E+002
 -8.6920035E+002
 -7.9886022E+002
 -7.1231151E+002
 -6.0091742E+002
 -4.8030273E+002
 -3.1135083E+002
 -2.8679455E+002
 -5.4862253E+002
 -4.8542398E+002
 -7.6451009E+001
 -7.0886174E+001
 -8.2485252E+001
 -7.3274421E+001
 -8.1786541E+001
 -9.1715015E+001
 -1.0440180E+002
 -1.1850298E+002
 -1.3371106E+002
 -1.4954892E+002
 -1.6569101E+002
 -1.8187733E+002
 -1.9792488E+002
 -2.1372142E+002
 -2.2923605E+002
 -2.4453440E+002
 -2.5979892E+002
 -2.7535220E+002
 -2.9168254E+002
 -3.0947166E+002
 -3.2962729E+002
 -3.5332648E+002
 -3.8207526E+002
 -4.1777831E+002
 -4.6276417E+002
 -5.1962331E+002
 -5.9062467E+002
 -6.7659410E+002
 -7.7535315E+002
 -8.8098788E+002
 -9.8371267E+002
 -1.0734286E+003
 -1.1412348E+003
 -1.1830362E+003
 -1.2001914E+003
 -1.1980299E+003
 -1.1843624E+003
 -1.1661494E+003
 -1.1476976E+003
 -1.1299713E+003
 -1.1112789E+003
 -1.0885541E+003
 -1.0586736E+003
 -1.0194062E+003
 -9.6977425E+002
 -9.0991101E+002
 -8.4034222E+002
 -7.6188633E+002
 -6.7351699E+002
 -5.8004695E+002
 -4.7176810E+002
 -4.0930444E+002
 -3.1908724E+002
 -2.3721559E+002
  3.2286295E+001
 -1.2009802E+001
 -4.7435546E+001
 -6.6968297E+001
 -8.0620732E+001
 -9.5161581E+001
 -1.0974549E+002
 -1.2478274E+002
 -1.4021596E+002
 -1.5599310E+002
 -1.7199083E+002
 -1.8806996E+002
 -2.0410479E+002
 -2.2002183E+002
 -2.3582802E+002
 -2.5163217E+002
 -2.6766349E+002
 -2.8429022E+002
 -3.0204003E+002
 -3.2162247E+002
 -3.4395397E+002
 -3.7018383E+002
 -4.0171462E+002
 -4.4019306E+002
 -4.8741774E+002
 -5.4507543E+002
 -6.1422689E+002
 -6.9454496E+002
 -7.8358573E+002
 -8.7640356E+002
 -9.6629409E+002
 -1.0459060E+003
 -1.1095231E+003
 -1.1542298E+003
 -1.1805190E+003
 -1.1918527E+003
 -1.1929442E+003
 -1.1881022E+003
 -1.1797446E+003
 -1.1678446E+003
 -1.1502770E+003
 -1.1238641E+003
 -1.0857040E+003
 -1.0342789E+003
 -9.7003372E+002
 -8.9519478E+002
 -8.1310027E+002
 -7.2738730E+002
 -6.4175359E+002
 -5.5929701E+002
 -4.8156421E+002
 -4.1403814E+002
 -2.5809747E+002
 -6.4748109E+001
  9.6833220E-001
  2.8422170E+000
 -2.3461758E+001
 -5.4031081E+001
 -7.7208762E+001
 -9.6548019E+001
 -1.1403224E+002
 -1.3065042E+002
 -1.4693261E+002
 -1.6321369E+002
 -1.7960541E+002
 -1.9607390E+002
 -2.1254339E+002
 -2.2897665E+002
 -2.4541824E+002
 -2.6201711E+002
 -2.7904035E+002
 -2.9688557E+002
 -3.1609434E+002
 -3.3736636E+002
 -3.6157168E+002
 -3.8975533E+002
 -4.2312218E+002
 -4.6297891E+002
 -5.1059682E+002
 -5.6695693E+002
 -6.3236329E+002
 -7.0599170E+002
 -7.8552537E+002
 -8.6715222E+002
 -9.4599733E+002
 -1.0171707E+003
 -1.0767813E+003
 -1.1229109E+003
 -1.1558880E+003
 -1.1778138E+003
 -1.1915922E+003
 -1.1996018E+003
 -1.2025977E+003
 -1.1991534E+003
 -1.1859098E+003
 -1.1586613E+003
 -1.1139436E+003
 -1.0506810E+003
 -9.7093133E+002
 -8.7962467E+002
 -7.8326457E+002
 -6.8864707E+002
 -6.0143306E+002
 -5.2714785E+002
 -4.5992222E+002
 -3.8599973E+002
 -2.1151597E+002
 -7.6578942E+001
  6.7983332E+000
  3.4160241E-001
 -2.0966987E+001
 -5.1299134E+001
 -7.7345284E+001
 -9.9434331E+001
 -1.1914167E+002
 -1.3706591E+002
 -1.5424302E+002
 -1.7133166E+002
 -1.8853970E+002
 -2.0582661E+002
 -2.2311510E+002
 -2.4038647E+002
 -2.5772018E+002
 -2.7530308E+002
 -2.9343230E+002
 -3.1251902E+002
 -3.3309441E+002
 -3.5581505E+002
 -3.8146301E+002
 -4.1093316E+002
 -4.4519605E+002
 -4.8521999E+002
 -5.3183398E+002
 -5.8552096E+002
 -6.4615740E+002
 -7.1275784E+002
 -7.8333550E+002
 -8.5498797E+002
 -9.2430265E+002
 -9.8797065E+002
 -1.0435247E+003
 -1.0898416E+003
 -1.1272830E+003
 -1.1573586E+003
 -1.1819297E+003
 -1.2021790E+003
 -1.2175656E+003
 -1.2251314E+003
 -1.2196031E+003
 -1.1945895E+003
 -1.1450318E+003
 -1.0695229E+003
 -9.7205407E+002
 -8.6115736E+002
 -7.4734553E+002
 -6.4023833E+002
 -5.4663990E+002
 -4.7158621E+002
 -4.1391536E+002
 -3.5970580E+002
 -2.1402462E+002
 -6.2367157E+001
  3.2123247E+000
 -1.8542980E+000
 -3.3647139E+001
 -6.1139146E+001
 -8.2355057E+001
 -1.0628275E+002
 -1.2640494E+002
 -1.4451784E+002
 -1.6228201E+002
 -1.8041557E+002
 -1.9882861E+002
 -2.1731580E+002
 -2.3573271E+002
 -2.5407401E+002
 -2.7246058E+002
 -2.9112075E+002
 -3.1037643E+002
 -3.3063877E+002
 -3.5240834E+002
 -3.7627423E+002
 -4.0290601E+002
 -4.3303095E+002
 -4.6738818E+002
 -5.0665043E+002
 -5.5130722E+002
 -6.0151332E+002
 -6.5692467E+002
 -7.1656943E+002
 -7.7881812E+002
 -8.4151678E+002
 -9.0229556E+002
 -9.5901996E+002
 -1.0102393E+003
 -1.0555092E+003
 -1.0954335E+003
 -1.1313680E+003
 -1.1648003E+003
 -1.1964296E+003
 -1.2250271E+003
 -1.2463255E+003
 -1.2525356E+003
 -1.2337566E+003
 -1.1810663E+003
 -1.0921437E+003
 -9.7307941E+002
 -8.3772727E+002
 -7.0259756E+002
 -5.8100921E+002
 -4.7883483E+002
 -3.9829565E+002
 -3.3757178E+002
 -3.3709932E+002
 -2.6119459E+002
 -1.5051567E+002
 -9.4401979E+001
 -6.2646205E+001
 -6.6571351E+001
 -9.4164025E+001
 -1.1841176E+002
 -1.3552159E+002
 -1.5230998E+002
 -1.7080351E+002
 -1.9046338E+002
 -2.1057393E+002
 -2.3060274E+002
 -2.5036064E+002
 -2.6989171E+002
 -2.8938787E+002
 -3.0912928E+002
 -3.2945911E+002
 -3.5077613E+002
 -3.7353406E+002
 -3.9823892E+002
 -4.2543771E+002
 -4.5569265E+002
 -4.8953578E+002
 -5.2740044E+002
 -5.6953021E+002
 -6.1587459E+002
 -6.6599268E+002
 -7.1899859E+002
 -7.7358871E+002
 -8.2818055E+002
 -8.8116747E+002
 -9.3124380E+002
 -9.7772376E+002
 -1.0207400E+003
 -1.0612364E+003
 -1.1007134E+003
 -1.1407422E+003
 -1.1822207E+003
 -1.2241662E+003
 -1.2618388E+003
 -1.2850055E+003
 -1.2778293E+003
 -1.2256839E+003
 -1.1208546E+003
 -9.7330914E+002
 -8.0632488E+002
 -6.4591214E+002
 -5.1088102E+002
 -4.0737175E+002
 -3.2769037E+002
 -2.5778387E+002
 -2.3287458E+002
 -2.3831392E+002
 -1.4416508E+002
 -6.1602701E+001
 -2.7944347E+001
 -7.3572998E+001
 -1.2245747E+002
 -1.3307098E+002
 -1.4247204E+002
 -1.5890417E+002
 -1.7938609E+002
 -2.0168239E+002
 -2.2405468E+002
 -2.4586032E+002
 -2.6701027E+002
 -2.8770769E+002
 -3.0826000E+002
 -3.2900946E+002
 -3.5031225E+002
 -3.7254008E+002
 -3.9608540E+002
 -4.2136166E+002
 -4.4879313E+002
 -4.7879093E+002
 -5.1171323E+002
 -5.4780971E+002
 -5.8715431E+002
 -6.2957649E+002
 -6.7460821E+002
 -7.2147079E+002
 -7.6912627E+002
 -8.1641062E+002
 -8.6224619E+002
 -9.0590447E+002
 -9.4725469E+002
 -9.8691364E+002
 -1.0262071E+003
 -1.0669105E+003
 -1.1108369E+003
 -1.1594453E+003
 -1.2130948E+003
 -1.2686659E+003
 -1.3145459E+003
 -1.3287661E+003
 -1.2796157E+003
 -1.1563011E+003
 -9.7048329E+002
 -7.6062635E+002
 -5.7112434E+002
 -4.2855952E+002
 -3.3487375E+002
 -2.9158504E+002
 -2.3427690E+002
 -2.6617255E+002
 -5.0012537E+002
 -4.2573416E+002
  1.1523591E+002
 -7.3403610E+001
 -1.5424050E+002
 -1.5869017E+002
 -1.3232672E+002
 -1.4290874E+002
 -1.6268419E+002
 -1.8867249E+002
 -2.1485715E+002
 -2.3986882E+002
 -2.6335429E+002
 -2.8569265E+002
 -3.0736007E+002
 -3.2881246E+002
 -3.5044239E+002
 -3.7259705E+002
 -3.9559945E+002
 -4.1976553E+002
 -4.4541011E+002
 -4.7284028E+002
 -5.0233548E+002
 -5.3411495E+002
 -5.6829484E+002
 -6.0484004E+002
 -6.4351965E+002
 -6.8387933E+002
 -7.2524718E+002
 -7.6678979E+002
 -8.0763071E+002
 -8.4703277E+002
 -8.8462856E+002
 -9.2065843E+002
 -9.5613110E+002
 -9.9278631E+002
 -1.0327472E+003
 -1.0779686E+003
 -1.1298614E+003
 -1.1901945E+003
 -1.2606964E+003
 -1.3353267E+003
 -1.3807308E+003
 -1.3556351E+003
 -1.2057506E+003
 -9.5846161E+002
 -6.9057244E+002
 -4.6921959E+002
 -3.2747247E+002
 -2.6364723E+002
 -2.5455748E+002
 -3.2061467E+002
 -3.0787103E+002
 -2.2444484E+002
 -3.9819774E+002
 -1.9035246E+002
 -1.1999951E+002
 -1.0989032E+002
 -1.3314824E+002
 -1.6695539E+002
 -2.0108531E+002
 -2.3173490E+002
 -2.5879971E+002
 -2.8330052E+002
 -3.0629546E+002
 -3.2858132E+002
 -3.5071320E+002
 -3.7308286E+002
 -3.9598442E+002
 -4.1966204E+002
 -4.4433825E+002
 -4.7022547E+002
 -4.9752253E+002
 -5.2639867E+002
 -5.5696780E+002
 -5.8925624E+002
 -6.2316877E+002
 -6.5845974E+002
 -6.9471813E+002
 -7.3137788E+002
 -7.6776501E+002
 -8.0319301E+002
 -8.3711465E+002
 -8.6933336E+002
 -9.0026483E+002
 -9.3119965E+002
 -9.6436732E+002
 -1.0025219E+003
 -1.0477690E+003
 -1.1005695E+003
 -1.1599331E+003
 -1.2320532E+003
 -1.3282084E+003
 -1.4350320E+003
 -1.4176463E+003
 -1.2455143E+003
 -9.2291700E+002
 -5.7045318E+002
 -3.3280926E+002
 -2.1549409E+002
 -1.8525217E+002
 -2.0971721E+002
 -3.3089379E+002
 -3.3156442E+002
 -1.8202273E+002
 -3.7917658E+001
 -4.0897379E+001
 -2.2167502E+001
 -7.3947600E+001
 -1.2729831E+002
 -1.7992716E+002
 -2.2145323E+002
 -2.5422436E+002
 -2.8132149E+002
 -3.0551858E+002
 -3.2841419E+002
 -3.5091324E+002
 -3.7352462E+002
 -3.9654088E+002
 -4.2014239E+002
 -4.4445911E+002
 -4.6960461E+002
 -4.9568852E+002
 -5.2281330E+002
 -5.5106025E+002
 -5.8046899E+002
 -6.1101376E+002
 -6.4258037E+002
 -6.7494751E+002
 -7.0777756E+002
 -7.4062259E+002
 -7.7295343E+002
 -8.0422196E+002
 -8.3397260E+002
 -8.6202343E+002
 -8.8874477E+002
 -9.1547033E+002
 -9.4499681E+002
 -9.8134275E+002
 -1.0281323E+003
 -1.0841621E+003
 -1.1428914E+003
 -1.1930856E+003
 -1.2753724E+003
 -1.4170454E+003
 -1.5719025E+003
 -1.3387611E+003
 -8.2736931E+002
 -3.9317112E+002
 -1.7111507E+002
 -1.2765742E+002
 -1.4045286E+002
 -1.6826316E+002
 -2.2642931E+002
 -2.9042127E+002
 -1.9989001E+002
  1.0689711E+002
  3.1633399E+001
  3.0400870E+001
 -6.8105405E+001
 -1.5001150E+002
 -2.1302981E+002
 -2.5362147E+002
 -2.8261225E+002
 -3.0664443E+002
 -3.2907963E+002
 -3.5121382E+002
 -3.7366953E+002
 -3.9669906E+002
 -4.2038762E+002
 -4.4473969E+002
 -4.6974145E+002
 -4.9538921E+002
 -5.2169612E+002
 -5.4868426E+002
 -5.7636976E+002
 -6.0474574E+002
 -6.3376615E+002
 -6.6333227E+002
 -6.9328298E+002
 -7.2338926E+002
 -7.5335372E+002
 -7.8281714E+002
 -8.1138045E+002
 -8.3865777E+002
 -8.6440252E+002
 -8.8875136E+002
 -9.1268815E+002
 -9.3897065E+002
 -9.7395229E+002
 -1.0251415E+003
 -1.0971565E+003
 -1.1725388E+003
 -1.2306373E+003
 -1.1855553E+003
 -1.3716389E+003
 -1.2408837E+003
 -1.0383108E+003
 -6.1794214E+002
 -1.0920821E+002
 -1.0366072E+002
 -1.1309724E+002
 -1.8037560E+002
 -2.2296926E+002
 -3.2883692E+002
 -6.2347751E+002
 -5.4122344E+002
 -1.7859397E+002
 -5.7689719E+001
 -4.1156434E+001
 -1.2421176E+002
 -2.2223010E+002
 -2.7008236E+002
 -2.9466541E+002
 -3.1322738E+002
 -3.3222123E+002
 -3.5220932E+002
 -3.7348127E+002
 -3.9599323E+002
 -4.1963349E+002
 -4.4419582E+002
 -4.6947076E+002
 -4.9528877E+002
 -5.2153641E+002
 -5.4814762E+002
 -5.7508568E+002
 -6.0232447E+002
 -6.2983408E+002
 -6.5757230E+002
 -6.8548197E+002
 -7.1349223E+002
 -7.4152056E+002
 -7.6947003E+002
 -7.9721725E+002
 -8.2459070E+002
 -8.5135925E+002
 -8.7725583E+002
 -9.0215867E+002
 -9.2646518E+002
 -9.5173723E+002
 -9.8371248E+002
 -1.0403688E+003
 -1.1366739E+003
 -1.2536769E+003
 -1.3915458E+003
 -1.3751699E+003
 -1.6931435E+003
 -7.3973535E+002
 -5.4475576E+002
 -9.9757494E+002
 -3.0088919E+002
 -2.1037655E+002
 -2.1656654E+002
 -2.3947661E+002
 -4.2572570E+002
 -5.1205993E+002
 -4.4483298E+002
  2.6296762E+000
 -8.2518506E+001
 -2.6893732E+002
 -3.3662499E+002
 -3.3279943E+002
 -3.2994643E+002
 -3.3938075E+002
 -3.5431459E+002
 -3.7284775E+002
 -3.9388049E+002
 -4.1703345E+002
 -4.4178236E+002
 -4.6761494E+002
 -4.9409887E+002
 -5.2092898E+002
 -5.4791287E+002
 -5.7493754E+002
 -6.0193521E+002
 -6.2885942E+002
 -6.5567402E+002
 -6.8235411E+002
 -7.0889702E+002
 -7.3533953E+002
 -7.6177534E+002
 -7.8836238E+002
 -8.1530448E+002
 -8.4279773E+002
 -8.7093907E+002
 -8.9968587E+002
 -9.2878694E+002
 -9.5837826E+002
 -9.8905693E+002
 -1.0220257E+003
 -1.0659538E+003
 -1.2049337E+003
 -1.4376185E+003
 -1.5986016E+003
 -1.7085105E+003
 -1.7471464E+003
 -4.1832736E+002
 -4.6190656E+002
 -4.3078277E+002
 -3.4775437E+002
 -3.4566879E+002
 -3.9183179E+002
 -4.6758406E+002
 -2.6993811E+002
  1.6750762E+001
 -2.6194922E+002
 -5.2587903E+002
 -4.1601546E+002
 -3.5148906E+002
 -3.4558277E+002
 -3.5490042E+002
 -3.7059893E+002
 -3.8929921E+002
 -4.1137125E+002
 -4.3616580E+002
 -4.6281398E+002
 -4.9046514E+002
 -5.1850617E+002
 -5.4655699E+002
 -5.7440826E+002
 -6.0194820E+002
 -6.2911003E+002
 -6.5584487E+002
 -6.8211718E+002
 -7.0791836E+002
 -7.3329445E+002
 -7.5838433E+002
 -7.8346280E+002
 -8.0897539E+002
 -8.3554165E+002
 -8.6388437E+002
 -8.9469016E+002
 -9.2836065E+002
 -9.6522051E+002
 -1.0047202E+003
 -1.0497390E+003
 -1.1012748E+003
 -1.1543905E+003
 -1.1721601E+003
 -1.4851912E+003
 -1.8401873E+003
 -1.7412170E+003
 -4.0056965E+000
 -2.8425479E+002
 -4.7439547E+002
 -5.0376499E+002
 -4.8811702E+002
 -5.4535648E+002
 -8.5378137E+002
 -7.2711495E+002
  4.4824391E+002
 -6.0504160E+002
 -5.5595131E+002
 -2.9990610E+002
 -3.2006718E+002
 -3.3975136E+002
 -3.6347731E+002
 -3.8036532E+002
 -4.0084082E+002
 -4.2540504E+002
 -4.5324194E+002
 -4.8276796E+002
 -5.1282879E+002
 -5.4272883E+002
 -5.7213760E+002
 -6.0092319E+002
 -6.2903485E+002
 -6.5643674E+002
 -6.8308598E+002
 -7.0894105E+002
 -7.3399148E+002
 -7.5830379E+002
 -7.8208246E+002
 -8.0574444E+002
 -8.3000147E+002
 -8.5591783E+002
 -8.8489556E+002
 -9.1842005E+002
 -9.5781627E+002
 -1.0033346E+003
 -1.0572554E+003
 -1.1140786E+003
 -1.2024664E+003
 -1.3190946E+003
 -1.5795158E+003
 -2.1258682E+003
 -2.0587068E+003
  4.5812955E+001
 -2.7334049E+002
 -4.9790538E+002
 -5.4254480E+002
 -7.1224943E+002
 -7.1445330E+002
 -5.7284231E+002
 -2.3953639E+002
 -1.3570336E+002
 -1.2310451E+002
 -2.9210783E+002
 -3.4881332E+002
 -3.6896347E+002
 -3.8383647E+002
 -4.0693519E+002
 -4.3620487E+002
 -4.6880497E+002
 -5.0220881E+002
 -5.3509866E+002
 -5.6694879E+002
 -5.9767248E+002
 -6.2733335E+002
 -6.5599721E+002
 -6.8367451E+002
 -7.1031994E+002
 -7.3586293E+002
 -7.6025617E+002
 -7.8353804E+002
 -8.0591100E+002
 -8.2784367E+002
 -8.5020147E+002
 -8.7441170E+002
 -9.0255049E+002
 -9.3728440E+002
 -9.8078561E+002
 -1.0348054E+003
 -1.0956290E+003
 -1.1787528E+003
 -1.2231449E+003
 -1.4022852E+003
 -1.3108759E+003
 -1.1138727E+003
  1.9227924E+002
  4.1232582E+001
 -7.3301744E+001
 -3.4496898E+002
 -5.0004528E+002
 -5.5349243E+002
 -5.9625463E+002
 -5.7652965E+002
 -2.8694241E+002
  3.8297336E+002
  3.0154229E+000
 -2.0339851E+002
 -3.9041868E+002
 -3.7670909E+002
 -3.6510488E+002
 -3.7787599E+002
 -4.0761253E+002
 -4.4519274E+002
 -4.8441413E+002
 -5.2229886E+002
 -5.5793085E+002
 -5.9140298E+002
 -6.2311340E+002
 -6.5342326E+002
 -6.8253606E+002
 -7.1049152E+002
 -7.3720862E+002
 -7.6254716E+002
 -7.8637602E+002
 -8.0864636E+002
 -8.2947491E+002
 -8.4925261E+002
 -8.6880177E+002
 -8.8962638E+002
 -9.1425206E+002
 -9.4655054E+002
 -9.9073542E+002
 -1.0495383E+003
 -1.1157380E+003
 -1.1896923E+003
 -1.2777873E+003
 -1.3569436E+003
 -1.5004596E+003
 -5.5056544E+002
 -4.3495112E+001
 -1.7138654E+002
 -3.8162691E+002
 -5.4450709E+002
 -5.8167331E+002
 -6.1291419E+002
 -8.6731119E+002
 -6.9531921E+002
 -5.2328093E+002
 -5.9334733E+002
 -5.2226260E+002
 -3.4634035E+002
 -3.3581823E+002
 -3.5872937E+002
 -4.0607763E+002
 -4.5597355E+002
 -5.0288395E+002
 -5.4464973E+002
 -5.8201121E+002
 -6.1617648E+002
 -6.4821660E+002
 -6.7879575E+002
 -7.0820304E+002
 -7.3644096E+002
 -7.6332976E+002
 -7.8860405E+002
 -8.1199825E+002
 -8.3332266E+002
 -8.5253745E+002
 -8.6983528E+002
 -8.8577484E+002
 -9.0150271E+002
 -9.1932163E+002
 -9.4346633E+002
 -9.8196284E+002
 -1.0394006E+003
 -1.1201224E+003
 -1.1558752E+003
 -1.2254863E+003
 -1.0368239E+003
 -7.5685906E+002
 -1.4277345E+002
 -2.8418206E+002
 -4.6026553E+002
 -5.7588865E+002
 -7.0613198E+002
 -6.0993091E+002
 -4.2810424E+002
 -1.1149795E+003
 -5.6494753E+002
 -3.0108222E+002
 -2.3648493E+002
 -2.7103872E+002
 -3.3796890E+002
 -4.1114514E+002
 -4.7529862E+002
 -5.2775807E+002
 -5.7072238E+002
 -6.0755042E+002
 -6.4088752E+002
 -6.7236477E+002
 -7.0278303E+002
 -7.3236309E+002
 -7.6095000E+002
 -7.8817606E+002
 -8.1358635E+002
 -8.3673526E+002
 -8.5725986E+002
 -8.7493396E+002
 -8.8971032E+002
 -9.0175882E+002
 -9.1155841E+002
 -9.2023817E+002
 -9.3048743E+002
 -9.5098445E+002
 -9.9876564E+002
 -1.0877597E+003
 -1.1630628E+003
 -1.1607880E+003
 -1.2249998E+003
 -5.2638751E+002
 -1.7714365E+001
 -4.5639731E+001
 -1.7041345E+002
 -3.7870888E+002
 -5.0574979E+002
 -5.9052420E+002
 -6.6424823E+002
 -5.0499200E+002
 -1.9054756E+002
 -7.9249313E+002
 -1.9300037E+001
 -2.0219426E+001
 -1.0829819E+002
 -2.2098323E+002
 -3.4084140E+002
 -4.3910073E+002
 -5.1068147E+002
 -5.6161810E+002
 -6.0051574E+002
 -6.3360512E+002
 -6.6435730E+002
 -6.9443093E+002
 -7.2440584E+002
 -7.5419756E+002
 -7.8333963E+002
 -8.1117523E+002
 -8.3699657E+002
 -8.6014363E+002
 -8.8007190E+002
 -8.9639310E+002
 -9.0888096E+002
 -9.1743471E+002
 -9.2196409E+002
 -9.2216059E+002
 -9.1796405E+002
 -9.0898756E+002
 -9.2018530E+002
 -9.9336729E+002
 -1.2115682E+003
 -1.0040889E+003
 -5.9234843E+002
 -7.3107631E+001
 -2.7812073E+002
 -4.6633129E+002
 -5.3866316E+002
 -5.5280558E+002
 -5.1193753E+002
 -3.5916940E+002
 -1.8416008E+002
  6.4915867E+001
 -2.6239254E+001
 -6.1856591E+001
 -2.4741324E+002
 -3.9860068E+002
 -5.0460628E+002
 -5.6516568E+002
 -6.0256797E+002
 -6.3112394E+002
 -6.5756079E+002
 -6.8447411E+002
 -7.1279064E+002
 -7.4243224E+002
 -7.7277420E+002
 -8.0288936E+002
 -8.3174233E+002
 -8.5832137E+002
 -8.8172908E+002
 -9.0124537E+002
 -9.1636352E+002
 -9.2681777E+002
 -9.3248682E+002
 -9.3343641E+002
 -9.2884935E+002
 -9.1791641E+002
 -8.9228766E+002
 -8.4651532E+002
 -8.1120703E+002
 -9.6835548E+002
 -9.8505318E+002
 -3.5357364E+002
 -2.3385354E+002
 -3.8227383E+002
 -5.3088461E+002
 -5.5367086E+002
 -5.3661615E+002
 -4.6504562E+002
 -5.0267250E+002
 -3.2688406E+002
 -1.9353036E+002
 -1.1119084E+002
 -1.6730835E+002
 -3.6262002E+002
 -5.3484873E+002
 -6.0594989E+002
 -6.2840588E+002
 -6.4140968E+002
 -6.5647295E+002
 -6.7530603E+002
 -6.9848941E+002
 -7.2555408E+002
 -7.5556615E+002
 -7.8719264E+002
 -8.1894918E+002
 -8.4936543E+002
 -8.7709897E+002
 -9.0100386E+002
 -9.2017778E+002
 -9.3402671E+002
 -9.4226736E+002
 -9.4515901E+002
 -9.4282932E+002
 -9.3777991E+002
 -9.2570822E+002
 -9.2347376E+002
 -8.6775825E+002
 -9.0255294E+002
 -1.3037173E+003
 -1.2407525E+003
 -4.6062979E+002
 -4.3541366E+002
 -5.1699751E+002
 -5.4839507E+002
 -5.5592318E+002
 -4.3262206E+002
 -2.8652664E+002
  3.6687482E+001
 -2.0954648E+002
 -6.1537424E+002
 -7.3634448E+002
 -7.0198636E+002
 -6.7230923E+002
 -6.6492714E+002
 -6.6901773E+002
 -6.8261348E+002
 -7.0368708E+002
 -7.3101092E+002
 -7.6273660E+002
 -7.9678884E+002
 -8.3108195E+002
 -8.6370857E+002
 -8.9300769E+002
 -9.1758497E+002
 -9.3634057E+002
 -9.4850503E+002
 -9.5381780E+002
 -9.5236707E+002
 -9.4583749E+002
 -9.3381534E+002
 -9.2957909E+002
 -9.1048239E+002
 -9.8422783E+002
 -8.2180789E+002
 -6.0432660E+002
 -2.9233940E+002
 -1.6797940E+002
 -3.3597591E+002
 -4.9383704E+002
 -5.4241349E+002
 -5.3210562E+002
 -4.6626591E+002
 -2.9312932E+002
 -8.5808554E+001
  7.2654620E+001
 -4.6911400E+002
 -1.0926517E+003
 -8.4544862E+002
 -7.1038937E+002
 -6.7521269E+002
 -6.6237298E+002
 -6.6471871E+002
 -6.7651102E+002
 -6.9825414E+002
 -7.2809532E+002
 -7.6343114E+002
 -8.0135482E+002
 -8.3920392E+002
 -8.7469995E+002
 -9.0593442E+002
 -9.3129857E+002
 -9.4944849E+002
 -9.5934719E+002
 -9.6039926E+002
 -9.5261166E+002
 -9.3675466E+002
 -9.1400564E+002
 -8.8619933E+002
 -8.5431743E+002
 -8.4483726E+002
 -5.8741160E+002
 -1.6730581E+002
 -1.7647295E+002
 -4.8256352E+002
 -6.4934762E+002
 -5.9349214E+002
 -5.1761621E+002
 -3.8979727E+002
 -3.0231107E+002
 -1.6254547E+002
  1.2554268E+003
 -1.1522903E+003
 -1.1875300E+003
 -5.8670464E+002
 -6.5171753E+002
 -6.3200905E+002
 -6.4228285E+002
 -6.4306885E+002
 -6.5642154E+002
 -6.8156764E+002
 -7.1680519E+002
 -7.5798737E+002
 -8.0133296E+002
 -8.4368003E+002
 -8.8256042E+002
 -9.1597635E+002
 -9.4218992E+002
 -9.5959184E+002
 -9.6670936E+002
 -9.6236265E+002
 -9.4589551E+002
 -9.1732388E+002
 -8.7645140E+002
 -8.2100229E+002
 -7.3104708E+002
 -6.0946234E+002
 -3.7687320E+002
 -1.7977334E+002
 -4.1031444E+002
 -5.9223216E+002
 -7.0435552E+002
 -5.9178234E+002
 -4.9539933E+002
 -2.9177115E+002
 -1.4916418E+002
 -7.2476024E+002
 -4.2336444E+002
 -3.7203619E+002
 -5.7222653E+002
 -6.1166390E+002
 -6.1170611E+002
 -6.0685196E+002
 -6.2221202E+002
 -6.5446108E+002
 -6.9846581E+002
 -7.4785915E+002
 -7.9793358E+002
 -8.4533146E+002
 -8.8773155E+002
 -9.2332180E+002
 -9.5039580E+002
 -9.6710627E+002
 -9.7139154E+002
 -9.6123201E+002
 -9.3480599E+002
 -8.9187726E+002
 -8.3054771E+002
 -7.5771989E+002
 -6.4135157E+002
 -5.0678058E+002
 -5.0780981E+002
 -3.1258591E+002
 -8.3410902E+002
 -6.1624876E+002
 -5.9144835E+002
 -5.5847387E+002
 -4.1959815E+002
 -1.7011237E+002
  4.0569116E+000
  8.2690396E+001
 -2.0149427E+002
 -4.9029448E+002
 -6.6674858E+002
 -6.2604177E+002
 -5.6569217E+002
 -5.5284481E+002
 -5.7405898E+002
 -6.1955433E+002
 -6.7619064E+002
 -7.3580165E+002
 -7.9313127E+002
 -8.4530584E+002
 -8.9067500E+002
 -9.2799655E+002
 -9.5583747E+002
 -9.7219890E+002
 -9.7441011E+002
 -9.5913767E+002
 -9.2353446E+002
 -8.6462659E+002
 -7.8709114E+002
 -6.8236418E+002
 -6.1693585E+002
 -4.4986936E+002
 -2.8854966E+002
 -6.6038893E+002
 -2.6485140E+002
 -5.9891361E+002
 -6.4008818E+002
 -5.4889182E+002
 -4.6796996E+002
 -2.9378920E+002
 -5.2979417E+001
  7.6553508E+001
 -1.6825113E+002
 -6.6227408E+002
 -1.0065128E+003
 -8.5848921E+002
 -5.6171767E+002
 -4.8579377E+002
 -4.7151135E+002
 -5.1651311E+002
 -5.8240396E+002
 -6.5548465E+002
 -7.2584459E+002
 -7.8943391E+002
 -8.4476288E+002
 -8.9154567E+002
 -9.2951375E+002
 -9.5777526E+002
 -9.7439330E+002
 -9.7610027E+002
 -9.5830282E+002
 -9.1556437E+002
 -8.4372066E+002
 -7.4340289E+002
 -6.1796059E+002
 -4.8965466E+002
 -3.0364956E+002
 -9.8009399E+001
 -6.6474867E+002
 -8.4088619E+002
 -8.0210337E+002
 -5.0987872E+002
 -3.5259512E+002
 -1.4999055E+002
 -4.7921344E+001
 -2.2691050E+003
 -1.1500144E+003
 -6.0700202E+002
 -4.0074842E+002
 -3.3342406E+002
 -3.7880797E+002
 -4.5995650E+002
 -5.5401361E+002
 -6.4394016E+002
 -7.2283896E+002
 -7.8924189E+002
 -8.4435594E+002
 -8.8979614E+002
 -9.2652863E+002
 -9.5440048E+002
 -9.7180458E+002
 -9.7528886E+002
 -9.5895761E+002
 -9.1499342E+002
 -8.3361868E+002
 -7.1412775E+002
 -5.6373029E+002
 -4.1747511E+002
 -3.5130749E+002
 -2.0092184E+002
 -1.2032298E+003
 -7.9289503E+002
 -6.0886342E+002
 -4.4729751E+002
 -2.1192819E+002
 -1.8597343E+001
  6.1176041E+001
 -4.5047959E+002
 -4.3097713E+002
 -1.4782458E+002
 -1.2083932E+002
 -1.9361070E+002
 -3.0244240E+002
 -4.2719630E+002
 -5.4818998E+002
 -6.5019306E+002
 -7.3090415E+002
 -7.9375756E+002
 -8.4354693E+002
 -8.8385516E+002
 -9.1670165E+002
 -9.4265030E+002
 -9.6075023E+002
 -9.6796171E+002
 -9.5839030E+002
 -9.2081816E+002
 -8.4303974E+002
 -7.0125813E+002
 -5.2781808E+002
 -3.1191444E+002
 -1.8745323E+002
 -6.8712358E+002
 -9.0231312E+002
 -9.4099535E+002
 -7.1512579E+002
 -4.2938761E+002
 -3.0390453E+002
 -1.4285938E+002
  6.5217066E+001
  1.1526623E+002
  9.0216453E+002
 -2.3270036E+001
 -7.2043566E+001
 -7.1293770E+001
 -1.3539448E+002
 -2.7863628E+002
 -4.4005013E+002
 -5.7847405E+002
 -6.8031775E+002
 -7.5091985E+002
 -8.0145753E+002
 -8.4003333E+002
 -8.7111824E+002
 -8.9697869E+002
 -9.1861166E+002
 -9.3589136E+002
 -9.4712481E+002
 -9.4769326E+002
 -9.2763999E+002
 -8.6429038E+002
 -7.3578790E+002
 -4.9289029E+002
 -2.8371172E+002
 -7.2557492E+001
 -1.5986327E+003
 -9.8603160E+002
 -5.6412294E+002
 -2.9232715E+002
 -1.1741179E+002
  3.4921493E+001
  2.7933937E+002
  3.0544293E+002
 -1.2673827E+002
 -1.1571477E+002
 -1.3773660E+002
 -3.2077649E+002
 -5.1189826E+002
 -6.5340826E+002
 -7.3213675E+002
 -7.7701859E+002
 -8.0694924E+002
 -8.2982981E+002
 -8.4848156E+002
 -8.6445364E+002
 -8.7865185E+002
 -8.9163607E+002
 -9.0381669E+002
 -9.1281889E+002
 -9.1610190E+002
 -8.8472331E+002
 -7.9933440E+002
 -4.7030090E+002
 -2.3461085E+002
 -1.5933732E+003
 -1.3351247E+003
 -9.4401823E+002
 -5.0984701E+002
 -3.2408666E+002
 -1.1713667E+002
  9.9240450E+001
  2.1164625E+002
  2.0565315E+002
 -8.0548495E+001
 -4.5346409E+001
 -1.5292617E+002
 -4.0594920E+002
 -6.6861217E+002
 -7.6292960E+002
 -7.8630661E+002
 -7.9453334E+002
 -8.0219381E+002
 -8.0832843E+002
 -8.1356135E+002
 -8.1769686E+002
 -8.2112096E+002
 -8.2483873E+002
 -8.3039474E+002
 -8.4017848E+002
 -8.5434791E+002
 -8.6975394E+002
 -8.6116813E+002
 -5.4714958E+002
 -4.4279124E+001
 -1.2729460E+003
 -1.1571449E+003
 -1.0361443E+003
 -7.7717424E+002
 -4.4529821E+002
 -1.6802445E+002
  2.7342167E+001
  2.0377418E+002
  2.5666352E+002
  1.2336181E+002
 -4.3201161E+001
 -1.0999664E+002
 -7.0710485E+002
 -8.9181897E+002
 -8.4676826E+002
 -8.0129950E+002
 -7.8892467E+002
 -7.7929715E+002
 -7.7282859E+002
 -7.6611892E+002
 -7.5810401E+002
 -7.4820876E+002
 -7.3710983E+002
 -7.2768727E+002
 -7.2074505E+002
 -7.3113477E+002
 -7.3426771E+002
 -8.5561799E+002
 -7.9909824E+002
 -6.8625515E+002
 -1.1467416E+003
 -1.0504054E+003
 -9.4504838E+002
 -7.6938073E+002
 -5.5054232E+002
 -2.9848197E+002
 -6.7962240E+001
  1.1539804E+002
  2.8168476E+002
  3.4227698E+002
  2.2944236E+002
  6.7208684E+002
 -3.1041637E+002
 -1.0751355E+003
 -1.0064610E+003
 -7.6114873E+002
 -7.7339340E+002
 -7.4953921E+002
 -7.3791370E+002
 -7.2379770E+002
 -7.0949556E+002
 -6.9066280E+002
 -6.6636631E+002
 -6.3722771E+002
 -6.0487629E+002
 -5.7266999E+002
 -5.4071596E+002
 -5.2382963E+002
 -5.1170465E+002
 -5.7354441E+002
 -1.3861669E+003
 -1.0080266E+003
 -9.5513034E+002
 -8.0938064E+002
 -7.4213738E+002
 -5.9267094E+002
 -3.9015071E+002
 -1.6920952E+002
  3.2574169E+001
  2.4357189E+002
  4.0706981E+002
  4.1941026E+002
 -2.4572482E+003
 -1.0307428E+003
 -4.5986688E+002
 -6.8688818E+002
 -6.9776537E+002
 -6.9631776E+002
 -6.7908355E+002
 -6.6766486E+002
 -6.5049137E+002
 -6.2366964E+002
 -5.8563669E+002
 -5.3789260E+002
 -4.8282339E+002
 -4.2107101E+002
 -3.5490416E+002
 -2.7451907E+002
 -2.0366579E+002
 -8.2735738E+001
 -5.6736656E+002
 -8.2268176E+002
 -6.9384406E+002
 -6.7525083E+002
 -3.4251002E+001
 -7.8160721E+002
 -5.3201679E+002
 -8.6742579E+002
 -7.0320495E+002
 -6.2607082E+002
 -4.6241245E+002
 -2.5676903E+002
 -2.9886838E+001
  1.7495947E+002
  3.6406319E+002
  4.4831432E+002
 -1.4936953E+003
 -1.3130501E+002
 -3.8745134E+002
 -6.9820494E+002
 -6.5455075E+002
 -6.2037970E+002
 -6.1462642E+002
 -6.1340280E+002
 -5.9971583E+002
 -5.6708737E+002
 -5.1651417E+002
 -4.5258961E+002
 -3.8004894E+002
 -3.0151367E+002
 -2.1790203E+002
 -1.3472907E+002
 -7.4060989E+001
 -1.8403910E+002
 -5.0521468E+002
 -9.1136789E+002
 -1.0329440E+003
 -1.0646900E+003
 -9.1863202E+002
 -7.2701310E+002
 -5.5618208E+002
 -3.9328634E+002
 -1.1913340E+002
  9.9610417E+001
  2.5391687E+002
  3.5580581E+002
 -7.9947707E+002
 -9.8104907E+002
 -8.1367307E+002
 -5.3231014E+002
 -5.3035973E+002
 -5.5362625E+002
 -5.7754833E+002
 -5.6954227E+002
 -5.3027194E+002
 -4.6681451E+002
 -3.8939301E+002
 -3.0776351E+002
 -2.2924062E+002
 -1.5522951E+002
 -9.9469747E+001
 -1.0143189E+002
 -2.1551593E+002
 -4.8654099E+002
 -7.7579442E+002
 -9.5984098E+002
 -9.6875792E+002
 -8.8036004E+002
 -7.2204569E+002
 -4.5645850E+002
 -2.1175549E+002
  3.8444948E+001
  1.0216355E+002
  1.7240569E+002
 -2.1368520E+003
 -9.7233626E+002
 -3.9220845E+002
 -3.3964627E+002
 -4.3075991E+002
 -5.3342457E+002
 -5.8048944E+002
 -5.6974405E+002
 -5.1786120E+002
 -4.3830326E+002
 -3.4767164E+002
 -2.6412332E+002
 -1.9783600E+002
 -1.5699813E+002
 -1.3487869E+002
 -1.6299786E+002
 -2.6310301E+002
 -4.2185959E+002
 -6.9130527E+002
 -9.5971176E+002
 -8.7061531E+002
 -7.5487613E+002
 -5.2899714E+002
 -3.7238506E+002
 -8.9930764E+001
  1.3330476E+002
 -1.5208799E+003
  5.5289852E+001
  8.9367911E+001
 -1.5598069E+002
 -4.4095905E+002
 -5.9897986E+002
 -6.3796615E+002
 -6.0294289E+002
 -5.2484638E+002
 -4.2798783E+002
 -3.2213607E+002
 -2.3452109E+002
 -2.0245306E+002
 -1.9394708E+002
 -2.0455631E+002
 -2.3373021E+002
 -3.4626774E+002
 -4.4758023E+002
 -6.5645229E+002
 -8.0195746E+002
 -6.0574298E+002
 -7.0501789E+002
 -3.5223527E+002
 -8.6788288E+001
  2.6006271E+002
  2.9429064E+001
 -3.0338190E+002
 -6.5756012E+002
 -8.0306827E+002
 -7.4432352E+002
 -6.2210032E+002
 -5.2884642E+002
 -4.2364554E+002
 -3.0366033E+002
 -2.0091788E+002
 -1.7629113E+002
 -2.8300682E+002
 -3.3801134E+002
 -2.9860046E+002
 -5.1077540E+002
 -5.5728229E+002
 -9.4754152E+002
 -5.6798741E+002
 -2.3489999E+002
 -4.2524714E+002
 -1.7018303E+002
 -8.7927246E+001
 -4.9726039E+002
 -1.2621203E+003
 -1.0879913E+003
 -7.3824664E+002
 -6.2597706E+002
 -5.0701961E+002
 -4.0029810E+002
 -3.2446147E+002
 -1.9786478E+002
 -2.2827046E+002
 -2.8330887E+002
 -3.3516716E+002
 -3.0250512E+002
 -7.1986475E+002
 -5.0199848E+002
 -6.7404692E+002
  2.5129042E+002
 -1.2907111E+002
 -2.1430422E+003
 -2.2293735E+003
 -1.0092836E+003
 -6.0918752E+002
 -4.6609208E+002
 -3.2142490E+002
 -2.3635353E+002
 -2.5520166E+002
 -2.2131902E+002
 -4.7585141E+002
 -2.1176763E+002
 -1.7377159E+002
 -2.1117769E+002
 -4.4867812E+002
 -2.2869506E+003
 -2.1251286E+003
 -1.1129211E+003
 -2.9250453E+002
 -6.9774802E+002
 -2.8375501E+002
 -8.6858343E+001
 -7.7048493E+001
 -1.4152722E+002
 -1.4004779E+002
 -4.1850195E+002
  2.7731207E+003
  1.7362701E+002
  1.6124680E+002
 -5.1443367E+002
SCALARS Stress_yz double
LOOKUP_TABLE default
  0.0000000E+000
  0.0000000E+000
  0.0000000E+000
  0.0000000E+000
  0.0000000E+000
  0.0000000E+000
  0.0000000E+000
  0.0000000E+000
  0.0000000E+000
  0.0000000E+000
  0.0000000E+000
  0.0000000E+000
  0.0000000E+000
  0.0000000E+000
  0.0000000E+000
  0.0000000E+000
  0.0000000E+000
  0.0000000E+000
  0.0000000E+000
  0.0000000E+000
  0.0000000E+000
  0.0000000E+000
  0.0000000E+000
  0.0000000E+000
  0.0000000E+000
  0.0000000E+000
  0.0000000E+000
  0.0000000E+000
  0.0000000E+000
  0.0000000E+000
  0.0000000E+000
  0.0000000E+000
  0.0000000E+000
  0.0000000E+000
  0.0000000E+000
  0.0000000E+000
  0.0000000E+000
  0.0000000E+000
  0.0000000E+000
  0.0000000E+000
  0.0000000E+000
  0.0000000E+000
  0.0000000E+000
  0.0000000E+000
  0.0000000E+000
  0.0000000E+000
  0.0000000E+000
  0.0000000E+000
  0.0000000E+000
  0.0000000E+000
  0.0000000E+000
  0.0000000E+000
  0.0000000E+000
  0.0000000E+000
  0.0000000E+000
  0.0000000E+000
  0.0000000E+000
  0.0000000E+000
  0.0000000E+000
  0.0000000E+000
  0.0000000E+000
  0.0000000E+000
  0.0000000E+000
  0.0000000E+000
  0.0000000E+000
  0.0000000E+000
  0.0000000E+000
  0.0000000E+000
  0.0000000E+000
  0.0000000E+000
  0.0000000E+000
  0.0000000E+000
  0.0000000E+000
  0.0000000E+000
  0.0000000E+000
  0.0000000E+000
  0.0000000E+000
  0.0000000E+000
  0.0000000E+000
  0.0000000E+000
  0.0000000E+000
  0.0000000E+000
  0.0000000E+000
  0.0000000E+000
  0.0000000E+000
  0.0000000E+000
  0.0000000E+000
  0.0000000E+000
  0.0000000E+000
  0.0000000E+000
  0.0000000E+000
  0.0000000E+000
  0.0000000E+000
  0.0000000E+000
  0.0000000E+000
  0.0000000E+000
  0.0000000E+000
  0.0000000E+000
  0.0000000E+000
  0.0000000E+000
  0.0000000E+000
  0.0000000E+000
  0.0000000E+000
  0.0000000E+000
  0.0000000E+000
  0.0000000E+000
  0.0000000E+000
  0.0000000E+000
  0.0000000E+000
  0.0000000E+000
  0.0000000E+000
  0.0000000E+000
  0.0000000E+000
  0.0000000E+000
  0.0000000E+000
  0.0000000E+000
  0.0000000E+000
  0.0000000E+000
  0.0000000E+000
  0.0000000E+000
  0.0000000E+000
  0.0000000E+000
  0.0000000E+000
  0.0000000E+000
  0.0000000E+000
  0.0000000E+000
  0.0000000E+000
  0.0000000E+000
  0.0000000E+000
  0.0000000E+000
  0.0000000E+000
  0.0000000E+000
  0.0000000E+000
  0.0000000E+000
  0.0000000E+000
  0.0000000E+000
  0.0000000E+000
  0.0000000E+000
  0.0000000E+000
  0.0000000E+000
  0.0000000E+000
  0.0000000E+000
  0.0000000E+000
  0.0000000E+000
  0.0000000E+000
  0.0000000E+000
  0.0000000E+000
  0.0000000E+000
  0.0000000E+000
  0.0000000E+000
  0.0000000E+000
  0.0000000E+000
  0.0000000E+000
  0.0000000E+000
  0.0000000E+000
  0.0000000E+000
  0.0000000E+000
  0.0000000E+000
  0.0000000E+000
  0.0000000E+000
  0.0000000E+000
  0.0000000E+000
  0.0000000E+000
  0.0000000E+000
  0.0000000E+000
  0.0000000E+000
  0.0000000E+000
  0.0000000E+000
  0.0000000E+000
  0.0000000E+000
  0.0000000E+000
  0.0000000E+000
  0.0000000E+000
  0.0000000E+000
  0.0000000E+000
  0.0000000E+000
  0.0000000E+000
  0.0000000E+000
  0.0000000E+000
  0.0000000E+000
  0.0000000E+000
  0.0000000E+000
  0.0000000E+000
  0.0000000E+000
  0.0000000E+000
  0.0000000E+000
  0.0000000E+000
  0.0000000E+000
  0.0000000E+000
  0.0000000E+000
  0.0000000E+000
  0.0000000E+000
  0.0000000E+000
  0.0000000E+000
  0.0000000E+000
  0.0000000E+000
  0.0000000E+000
  0.0000000E+000
  0.0000000E+000
  0.0000000E+000
  0.0000000E+000
  0.0000000E+000
  0.0000000E+000
  0.0000000E+000
  0.0000000E+000
  0.0000000E+000
  0.0000000E+000
  0.0000000E+000
  0.0000000E+000
  0.0000000E+000
  0.0000000E+000
  0.0000000E+000
  0.0000000E+000
  0.0000000E+000
  0.0000000E+000
  0.0000000E+000
  0.0000000E+000
  0.0000000E+000
  0.0000000E+000
  0.0000000E+000
  0.0000000E+000
  0.0000000E+000
  0.0000000E+000
  0.0000000E+000
  0.0000000E+000
  0.0000000E+000
  0.0000000E+000
  0.0000000E+000
  0.0000000E+000
  0.0000000E+000
  0.0000000E+000
  0.0000000E+000
  0.0000000E+000
  0.0000000E+000
  0.0000000E+000
  0.0000000E+000
  0.0000000E+000
  0.0000000E+000
  0.0000000E+000
  0.0000000E+000
  0.0000000E+000
  0.0000000E+000
  0.0000000E+000
  0.0000000E+000
  0.0000000E+000
  0.0000000E+000
  0.0000000E+000
  0.0000000E+000
  0.0000000E+000
  0.0000000E+000
  0.0000000E+000
  0.0000000E+000
  0.0000000E+000
  0.0000000E+000
  0.0000000E+000
  0.0000000E+000
  0.0000000E+000
  0.0000000E+000
  0.0000000E+000
  0.0000000E+000
  0.0000000E+000
  0.0000000E+000
  0.0000000E+000
  0.0000000E+000
  0.0000000E+000
  0.0000000E+000
  0.0000000E+000
  0.0000000E+000
  0.0000000E+000
  0.0000000E+000
  0.0000000E+000
  0.0000000E+000
  0.0000000E+000
  0.0000000E+000
  0.0000000E+000
  0.0000000E+000
  0.0000000E+000
  0.0000000E+000
  0.0000000E+000
  0.0000000E+000
  0.0000000E+000
  0.0000000E+000
  0.0000000E+000
  0.0000000E+000
  0.0000000E+000
  0.0000000E+000
  0.0000000E+000
  0.0000000E+000
  0.0000000E+000
  0.0000000E+000
  0.0000000E+000
  0.0000000E+000
  0.0000000E+000
  0.0000000E+000
  0.0000000E+000
  0.0000000E+000
  0.0000000E+000
  0.0000000E+000
  0.0000000E+000
  0.0000000E+000
  0.0000000E+000
  0.0000000E+000
  0.0000000E+000
  0.0000000E+000
  0.0000000E+000
  0.0000000E+000
  0.0000000E+000
  0.0000000E+000
  0.0000000E+000
  0.0000000E+000
  0.0000000E+000
  0.0000000E+000
  0.0000000E+000
  0.0000000E+000
  0.0000000E+000
  0.0000000E+000
  0.0000000E+000
  0.0000000E+000
  0.0000000E+000
  0.0000000E+000
  0.0000000E+000
  0.0000000E+000
  0.0000000E+000
  0.0000000E+000
  0.0000000E+000
  0.0000000E+000
  0.0000000E+000
  0.0000000E+000
  0.0000000E+000
  0.0000000E+000
  0.0000000E+000
  0.0000000E+000
  0.0000000E+000
  0.0000000E+000
  0.0000000E+000
  0.0000000E+000
  0.0000000E+000
  0.0000000E+000
  0.0000000E+000
  0.0000000E+000
  0.0000000E+000
  0.0000000E+000
  0.0000000E+000
  0.0000000E+000
  0.0000000E+000
  0.0000000E+000
  0.0000000E+000
  0.0000000E+000
  0.0000000E+000
  0.0000000E+000
  0.0000000E+000
  0.0000000E+000
  0.0000000E+000
  0.0000000E+000
  0.0000000E+000
  0.0000000E+000
  0.0000000E+000
  0.0000000E+000
  0.0000000E+000
  0.0000000E+000
  0.0000000E+000
  0.0000000E+000
  0.0000000E+000
  0.0000000E+000
  0.0000000E+000
  0.0000000E+000
  0.0000000E+000
  0.0000000E+000
  0.0000000E+000
  0.0000000E+000
  0.0000000E+000
  0.0000000E+000
  0.0000000E+000
  0.0000000E+000
  0.0000000E+000
  0.0000000E+000
  0.0000000E+000
  0.0000000E+000
  0.0000000E+000
  0.0000000E+000
  0.0000000E+000
  0.0000000E+000
  0.0000000E+000
  0.0000000E+000
  0.0000000E+000
  0.0000000E+000
  0.0000000E+000
  0.0000000E+000
  0.0000000E+000
  0.0000000E+000
  0.0000000E+000
  0.0000000E+000
  0.0000000E+000
  0.0000000E+000
  0.0000000E+000
  0.0000000E+000
  0.0000000E+000
  0.0000000E+000
  0.0000000E+000
  0.0000000E+000
  0.0000000E+000
  0.0000000E+000
  0.0000000E+000
  0.0000000E+000
  0.0000000E+000
  0.0000000E+000
  0.0000000E+000
  0.0000000E+000
  0.0000000E+000
  0.0000000E+000
  0.0000000E+000
  0.0000000E+000
  0.0000000E+000
  0.0000000E+000
  0.0000000E+000
  0.0000000E+000
  0.0000000E+000
  0.0000000E+000
  0.0000000E+000
  0.0000000E+000
  0.0000000E+000
  0.0000000E+000
  0.0000000E+000
  0.0000000E+000
  0.0000000E+000
  0.0000000E+000
  0.0000000E+000
  0.0000000E+000
  0.0000000E+000
  0.0000000E+000
  0.0000000E+000
  0.0000000E+000
  0.0000000E+000
  0.0000000E+000
  0.0000000E+000
  0.0000000E+000
  0.0000000E+000
  0.0000000E+000
  0.0000000E+000
  0.0000000E+000
  0.0000000E+000
  0.0000000E+000
  0.0000000E+000
  0.0000000E+000
  0.0000000E+000
  0.0000000E+000
  0.0000000E+000
  0.0000000E+000
  0.0000000E+000
  0.0000000E+000
  0.0000000E+000
  0.0000000E+000
  0.0000000E+000
  0.0000000E+000
  0.0000000E+000
  0.0000000E+000
  0.0000000E+000
  0.0000000E+000
  0.0000000E+000
  0.0000000E+000
  0.0000000E+000
  0.0000000E+000
  0.0000000E+000
  0.0000000E+000
  0.0000000E+000
  0.0000000E+000
  0.0000000E+000
  0.0000000E+000
  0.0000000E+000
  0.0000000E+000
  0.0000000E+000
  0.0000000E+000
  0.0000000E+000
  0.0000000E+000
  0.0000000E+000
  0.0000000E+000
  0.0000000E+000
  0.0000000E+000
  0.0000000E+000
  0.0000000E+000
  0.0000000E+000
  0.0000000E+000
  0.0000000E+000
  0.0000000E+000
  0.0000000E+000
  0.0000000E+000
  0.0000000E+000
  0.0000000E+000
  0.0000000E+000
  0.0000000E+000
  0.0000000E+000
  0.0000000E+000
  0.0000000E+000
  0.0000000E+000
  0.0000000E+000
  0.0000000E+000
  0.0000000E+000
  0.0000000E+000
  0.0000000E+000
  0.0000000E+000
  0.0000000E+000
  0.0000000E+000
  0.0000000E+000
  0.0000000E+000
  0.0000000E+000
  0.0000000E+000
  0.0000000E+000
  0.0000000E+000
  0.0000000E+000
  0.0000000E+000
  0.0000000E+000
  0.0000000E+000
  0.0000000E+000
  0.0000000E+000
  0.0000000E+000
  0.0000000E+000
  0.0000000E+000
  0.0000000E+000
  0.0000000E+000
  0.0000000E+000
  0.0000000E+000
  0.0000000E+000
  0.0000000E+000
  0.0000000E+000
  0.0000000E+000
  0.0000000E+000
  0.0000000E+000
  0.0000000E+000
  0.0000000E+000
  0.0000000E+000
  0.0000000E+000
  0.0000000E+000
  0.0000000E+000
  0.0000000E+000
  0.0000000E+000
  0.0000000E+000
  0.0000000E+000
  0.0000000E+000
  0.0000000E+000
  0.0000000E+000
  0.0000000E+000
  0.0000000E+000
  0.0000000E+000
  0.0000000E+000
  0.0000000E+000
  0.0000000E+000
  0.0000000E+000
  0.0000000E+000
  0.0000000E+000
  0.0000000E+000
  0.0000000E+000
  0.0000000E+000
  0.0000000E+000
  0.0000000E+000
  0.0000000E+000
  0.0000000E+000
  0.0000000E+000
  0.0000000E+000
  0.0000000E+000
  0.0000000E+000
  0.0000000E+000
  0.0000000E+000
  0.0000000E+000
  0.0000000E+000
  0.0000000E+000
  0.0000000E+000
  0.0000000E+000
  0.0000000E+000
  0.0000000E+000
  0.0000000E+000
  0.0000000E+000
  0.0000000E+000
  0.0000000E+000
  0.0000000E+000
  0.0000000E+000
  0.0000000E+000
  0.0000000E+000
  0.0000000E+000
  0.0000000E+000
  0.0000000E+000
  0.0000000E+000
  0.0000000E+000
  0.0000000E+000
  0.0000000E+000
  0.0000000E+000
  0.0000000E+000
  0.0000000E+000
  0.0000000E+000
  0.0000000E+000
  0.0000000E+000
  0.0000000E+000
  0.0000000E+000
  0.0000000E+000
  0.0000000E+000
  0.0000000E+000
  0.0000000E+000
  0.0000000E+000
  0.0000000E+000
  0.0000000E+000
  0.0000000E+000
  0.0000000E+000
  0.0000000E+000
  0.0000000E+000
  0.0000000E+000
  0.0000000E+000
  0.0000000E+000
  0.0000000E+000
  0.0000000E+000
  0.0000000E+000
  0.0000000E+000
  0.0000000E+000
  0.0000000E+000
  0.0000000E+000
  0.0000000E+000
  0.0000000E+000
  0.0000000E+000
  0.0000000E+000
  0.0000000E+000
  0.0000000E+000
  0.0000000E+000
  0.0000000E+000
  0.0000000E+000
  0.0000000E+000
  0.0000000E+000
  0.0000000E+000
  0.0000000E+000
  0.0000000E+000
  0.0000000E+000
  0.0000000E+000
  0.0000000E+000
  0.0000000E+000
  0.0000000E+000
  0.0000000E+000
  0.0000000E+000
  0.0000000E+000
  0.0000000E+000
  0.0000000E+000
  0.0000000E+000
  0.0000000E+000
  0.0000000E+000
  0.0000000E+000
  0.0000000E+000
  0.0000000E+000
  0.0000000E+000
  0.0000000E+000
  0.0000000E+000
  0.0000000E+000
  0.0000000E+000
  0.0000000E+000
  0.0000000E+000
  0.0000000E+000
  0.0000000E+000
  0.0000000E+000
  0.0000000E+000
  0.0000000E+000
  0.0000000E+000
  0.0000000E+000
  0.0000000E+000
  0.0000000E+000
  0.0000000E+000
  0.0000000E+000
  0.0000000E+000
  0.0000000E+000
  0.0000000E+000
  0.0000000E+000
  0.0000000E+000
  0.0000000E+000
  0.0000000E+000
  0.0000000E+000
  0.0000000E+000
  0.0000000E+000
  0.0000000E+000
  0.0000000E+000
  0.0000000E+000
  0.0000000E+000
  0.0000000E+000
  0.0000000E+000
  0.0000000E+000
  0.0000000E+000
  0.0000000E+000
  0.0000000E+000
  0.0000000E+000
  0.0000000E+000
  0.0000000E+000
  0.0000000E+000
  0.0000000E+000
  0.0000000E+000
  0.0000000E+000
  0.0000000E+000
  0.0000000E+000
  0.0000000E+000
  0.0000000E+000
  0.0000000E+000
  0.0000000E+000
  0.0000000E+000
  0.0000000E+000
  0.0000000E+000
  0.0000000E+000
  0.0000000E+000
  0.0000000E+000
  0.0000000E+000
  0.0000000E+000
  0.0000000E+000
  0.0000000E+000
  0.0000000E+000
  0.0000000E+000
  0.0000000E+000
  0.0000000E+000
  0.0000000E+000
  0.0000000E+000
  0.0000000E+000
  0.0000000E+000
  0.0000000E+000
  0.0000000E+000
  0.0000000E+000
  0.0000000E+000
  0.0000000E+000
  0.0000000E+000
  0.0000000E+000
  0.0000000E+000
  0.0000000E+000
  0.0000000E+000
  0.0000000E+000
  0.0000000E+000
  0.0000000E+000
  0.0000000E+000
  0.0000000E+000
  0.0000000E+000
  0.0000000E+000
  0.0000000E+000
  0.0000000E+000
  0.0000000E+000
  0.0000000E+000
  0.0000000E+000
  0.0000000E+000
  0.0000000E+000
  0.0000000E+000
  0.0000000E+000
  0.0000000E+000
  0.0000000E+000
  0.0000000E+000
  0.0000000E+000
  0.0000000E+000
  0.0000000E+000
  0.0000000E+000
  0.0000000E+000
  0.0000000E+000
  0.0000000E+000
  0.0000000E+000
  0.0000000E+000
  0.0000000E+000
  0.0000000E+000
  0.0000000E+000
  0.0000000E+000
  0.0000000E+000
  0.0000000E+000
  0.0000000E+000
  0.0000000E+000
  0.0000000E+000
  0.0000000E+000
  0.0000000E+000
  0.0000000E+000
  0.0000000E+000
  0.0000000E+000
  0.0000000E+000
  0.0000000E+000
  0.0000000E+000
  0.0000000E+000
  0.0000000E+000
  0.0000000E+000
  0.0000000E+000
  0.0000000E+000
  0.0000000E+000
  0.0000000E+000
  0.0000000E+000
  0.0000000E+000
  0.0000000E+000
  0.0000000E+000
  0.0000000E+000
  0.0000000E+000
  0.0000000E+000
  0.0000000E+000
  0.0000000E+000
  0.0000000E+000
  0.0000000E+000
  0.0000000E+000
  0.0000000E+000
  0.0000000E+000
  0.0000000E+000
  0.0000000E+000
  0.0000000E+000
  0.0000000E+000
  0.0000000E+000
  0.0000000E+000
  0.0000000E+000
  0.0000000E+000
  0.0000000E+000
  0.0000000E+000
  0.0000000E+000
  0.0000000E+000
  0.0000000E+000
  0.0000000E+000
  0.0000000E+000
  0.0000000E+000
  0.0000000E+000
  0.0000000E+000
  0.0000000E+000
  0.0000000E+000
  0.0000000E+000
  0.0000000E+000
  0.0000000E+000
  0.0000000E+000
  0.0000000E+000
  0.0000000E+000
  0.0000000E+000
  0.0000000E+000
  0.0000000E+000
  0.0000000E+000
  0.0000000E+000
  0.0000000E+000
  0.0000000E+000
  0.0000000E+000
  0.0000000E+000
  0.0000000E+000
  0.0000000E+000
  0.0000000E+000
  0.0000000E+000
  0.0000000E+000
  0.0000000E+000
  0.0000000E+000
  0.0000000E+000
  0.0000000E+000
  0.0000000E+000
  0.0000000E+000
  0.0000000E+000
  0.0000000E+000
  0.0000000E+000
  0.0000000E+000
  0.0000000E+000
  0.0000000E+000
  0.0000000E+000
  0.0000000E+000
  0.0000000E+000
  0.0000000E+000
  0.0000000E+000
  0.0000000E+000
  0.0000000E+000
  0.0000000E+000
  0.0000000E+000
  0.0000000E+000
  0.0000000E+000
  0.0000000E+000
  0.0000000E+000
  0.0000000E+000
  0.0000000E+000
  0.0000000E+000
  0.0000000E+000
  0.0000000E+000
  0.0000000E+000
  0.0000000E+000
  0.0000000E+000
  0.0000000E+000
  0.0000000E+000
  0.0000000E+000
  0.0000000E+000
  0.0000000E+000
  0.0000000E+000
  0.0000000E+000
  0.0000000E+000
  0.0000000E+000
  0.0000000E+000
  0.0000000E+000
  0.0000000E+000
  0.0000000E+000
  0.0000000E+000
  0.0000000E+000
  0.0000000E+000
  0.0000000E+000
  0.0000000E+000
  0.0000000E+000
  0.0000000E+000
  0.0000000E+000
  0.0000000E+000
  0.0000000E+000
  0.0000000E+000
  0.0000000E+000
  0.0000000E+000
  0.0000000E+000
  0.0000000E+000
  0.0000000E+000
  0.0000000E+000
  0.0000000E+000
  0.0000000E+000
  0.0000000E+000
  0.0000000E+000
  0.0000000E+000
  0.0000000E+000
  0.0000000E+000
  0.0000000E+000
  0.0000000E+000
  0.0000000E+000
  0.0000000E+000
  0.0000000E+000
  0.0000000E+000
  0.0000000E+000
  0.0000000E+000
  0.0000000E+000
  0.0000000E+000
  0.0000000E+000
  0.0000000E+000
  0.0000000E+000
  0.0000000E+000
  0.0000000E+000
  0.0000000E+000
  0.0000000E+000
  0.0000000E+000
  0.0000000E+000
  0.0000000E+000
  0.0000000E+000
  0.0000000E+000
  0.0000000E+000
  0.0000000E+000
  0.0000000E+000
  0.0000000E+000
  0.0000000E+000
  0.0000000E+000
  0.0000000E+000
  0.0000000E+000
  0.0000000E+000
  0.0000000E+000
  0.0000000E+000
  0.0000000E+000
  0.0000000E+000
  0.0000000E+000
  0.0000000E+000
  0.0000000E+000
  0.0000000E+000
  0.0000000E+000
  0.0000000E+000
  0.0000000E+000
  0.0000000E+000
  0.0000000E+000
  0.0000000E+000
  0.0000000E+000
  0.0000000E+000
  0.0000000E+000
  0.0000000E+000
  0.0000000E+000
  0.0000000E+000
  0.0000000E+000
  0.0000000E+000
  0.0000000E+000
  0.0000000E+000
  0.0000000E+000
  0.0000000E+000
  0.0000000E+000
  0.0000000E+000
  0.0000000E+000
  0.0000000E+000
  0.0000000E+000
  0.0000000E+000
  0.0000000E+000
  0.0000000E+000
  0.0000000E+000
  0.0000000E+000
  0.0000000E+000
  0.0000000E+000
  0.0000000E+000
  0.0000000E+000
  0.0000000E+000
  0.0000000E+000
  0.0000000E+000
  0.0000000E+000
  0.0000000E+000
  0.0000000E+000
  0.0000000E+000
  0.0000000E+000
  0.0000000E+000
  0.0000000E+000
  0.0000000E+000
  0.0000000E+000
  0.0000000E+000
  0.0000000E+000
  0.0000000E+000
  0.0000000E+000
  0.0000000E+000
  0.0000000E+000
  0.0000000E+000
  0.0000000E+000
  0.0000000E+000
  0.0000000E+000
  0.0000000E+000
  0.0000000E+000
  0.0000000E+000
  0.0000000E+000
  0.0000000E+000
  0.0000000E+000
  0.0000000E+000
  0.0000000E+000
  0.0000000E+000
  0.0000000E+000
  0.0000000E+000
  0.0000000E+000
  0.0000000E+000
  0.0000000E+000
  0.0000000E+000
  0.0000000E+000
  0.0000000E+000
  0.0000000E+000
  0.0000000E+000
  0.0000000E+000
  0.0000000E+000
  0.0000000E+000
  0.0000000E+000
  0.0000000E+000
  0.0000000E+000
  0.0000000E+000
  0.0000000E+000
  0.0000000E+000
  0.0000000E+000
  0.0000000E+000
  0.0000000E+000
  0.0000000E+000
  0.0000000E+000
  0.0000000E+000
  0.0000000E+000
  0.0000000E+000
  0.0000000E+000
  0.0000000E+000
  0.0000000E+000
  0.0000000E+000
  0.0000000E+000
  0.0000000E+000
  0.0000000E+000
  0.0000000E+000
  0.0000000E+000
  0.0000000E+000
  0.0000000E+000
  0.0000000E+000
  0.0000000E+000
  0.0000000E+000
  0.0000000E+000
  0.0000000E+000
  0.0000000E+000
  0.0000000E+000
  0.0000000E+000
  0.0000000E+000
  0.0000000E+000
  0.0000000E+000
  0.0000000E+000
  0.0000000E+000
  0.0000000E+000
  0.0000000E+000
  0.0000000E+000
  0.0000000E+000
  0.0000000E+000
  0.0000000E+000
  0.0000000E+000
  0.0000000E+000
  0.0000000E+000
  0.0000000E+000
  0.0000000E+000
  0.0000000E+000
  0.0000000E+000
  0.0000000E+000
  0.0000000E+000
  0.0000000E+000
  0.0000000E+000
  0.0000000E+000
  0.0000000E+000
  0.0000000E+000
  0.0000000E+000
  0.0000000E+000
  0.0000000E+000
  0.0000000E+000
  0.0000000E+000
  0.0000000E+000
  0.0000000E+000
  0.0000000E+000
  0.0000000E+000
  0.0000000E+000
  0.0000000E+000
  0.0000000E+000
  0.0000000E+000
  0.0000000E+000
  0.0000000E+000
  0.0000000E+000
  0.0000000E+000
  0.0000000E+000
  0.0000000E+000
  0.0000000E+000
  0.0000000E+000
  0.0000000E+000
  0.0000000E+000
  0.0000000E+000
  0.0000000E+000
  0.0000000E+000
  0.0000000E+000
  0.0000000E+000
  0.0000000E+000
  0.0000000E+000
  0.0000000E+000
  0.0000000E+000
  0.0000000E+000
  0.0000000E+000
  0.0000000E+000
  0.0000000E+000
  0.0000000E+000
  0.0000000E+000
  0.0000000E+000
  0.0000000E+000
  0.0000000E+000
  0.0000000E+000
  0.0000000E+000
  0.0000000E+000
  0.0000000E+000
  0.0000000E+000
  0.0000000E+000
  0.0000000E+000
  0.0000000E+000
  0.0000000E+000
  0.0000000E+000
  0.0000000E+000
  0.0000000E+000
  0.0000000E+000
  0.0000000E+000
  0.0000000E+000
  0.0000000E+000
  0.0000000E+000
  0.0000000E+000
  0.0000000E+000
  0.0000000E+000
  0.0000000E+000
  0.0000000E+000
  0.0000000E+000
  0.0000000E+000
  0.0000000E+000
  0.0000000E+000
  0.0000000E+000
  0.0000000E+000
  0.0000000E+000
  0.0000000E+000
  0.0000000E+000
  0.0000000E+000
  0.0000000E+000
  0.0000000E+000
  0.0000000E+000
  0.0000000E+000
  0.0000000E+000
  0.0000000E+000
  0.0000000E+000
  0.0000000E+000
  0.0000000E+000
  0.0000000E+000
  0.0000000E+000
  0.0000000E+000
  0.0000000E+000
  0.0000000E+000
  0.0000000E+000
  0.0000000E+000
  0.0000000E+000
  0.0000000E+000
  0.0000000E+000
  0.0000000E+000
  0.0000000E+000
  0.0000000E+000
  0.0000000E+000
  0.0000000E+000
  0.0000000E+000
  0.0000000E+000
  0.0000000E+000
  0.0000000E+000
  0.0000000E+000
  0.0000000E+000
  0.0000000E+000
  0.0000000E+000
  0.0000000E+000
  0.0000000E+000
  0.0000000E+000
  0.0000000E+000
  0.0000000E+000
  0.0000000E+000
  0.0000000E+000
  0.0000000E+000
  0.0000000E+000
  0.0000000E+000
  0.0000000E+000
  0.0000000E+000
  0.0000000E+000
  0.0000000E+000
  0.0000000E+000
  0.0000000E+000
  0.0000000E+000
  0.0000000E+000
  0.0000000E+000
  0.0000000E+000
  0.0000000E+000
  0.0000000E+000
  0.0000000E+000
  0.0000000E+000
  0.0000000E+000
  0.0000000E+000
  0.0000000E+000
  0.0000000E+000
  0.0000000E+000
  0.0000000E+000
  0.0000000E+000
  0.0000000E+000
  0.0000000E+000
  0.0000000E+000
  0.0000000E+000
  0.0000000E+000
  0.0000000E+000
  0.0000000E+000
  0.0000000E+000
  0.0000000E+000
  0.0000000E+000
  0.0000000E+000
  0.0000000E+000
  0.0000000E+000
  0.0000000E+000
  0.0000000E+000
  0.0000000E+000
  0.0000000E+000
  0.0000000E+000
  0.0000000E+000
  0.0000000E+000
  0.0000000E+000
  0.0000000E+000
  0.0000000E+000
  0.0000000E+000
  0.0000000E+000
  0.0000000E+000
  0.0000000E+000
  0.0000000E+000
  0.0000000E+000
  0.0000000E+000
  0.0000000E+000
  0.0000000E+000
  0.0000000E+000
  0.0000000E+000
  0.0000000E+000
  0.0000000E+000
  0.0000000E+000
  0.0000000E+000
  0.0000000E+000
  0.0000000E+000
  0.0000000E+000
  0.0000000E+000
  0.0000000E+000
  0.0000000E+000
  0.0000000E+000
  0.0000000E+000
  0.0000000E+000
  0.0000000E+000
  0.0000000E+000
  0.0000000E+000
  0.0000000E+000
  0.0000000E+000
  0.0000000E+000
  0.0000000E+000
  0.0000000E+000
  0.0000000E+000
  0.0000000E+000
  0.0000000E+000
  0.0000000E+000
  0.0000000E+000
  0.0000000E+000
  0.0000000E+000
  0.0000000E+000
  0.0000000E+000
  0.0000000E+000
  0.0000000E+000
  0.0000000E+000
  0.0000000E+000
  0.0000000E+000
  0.0000000E+000
  0.0000000E+000
  0.0000000E+000
  0.0000000E+000
  0.0000000E+000
  0.0000000E+000
  0.0000000E+000
  0.0000000E+000
  0.0000000E+000
  0.0000000E+000
  0.0000000E+000
  0.0000000E+000
  0.0000000E+000
  0.0000000E+000
  0.0000000E+000
  0.0000000E+000
  0.0000000E+000
  0.0000000E+000
  0.0000000E+000
  0.0000000E+000
  0.0000000E+000
  0.0000000E+000
  0.0000000E+000
  0.0000000E+000
  0.0000000E+000
  0.0000000E+000
  0.0000000E+000
  0.0000000E+000
  0.0000000E+000
  0.0000000E+000
  0.0000000E+000
  0.0000000E+000
  0.0000000E+000
  0.0000000E+000
  0.0000000E+000
  0.0000000E+000
  0.0000000E+000
  0.0000000E+000
  0.0000000E+000
  0.0000000E+000
  0.0000000E+000
  0.0000000E+000
  0.0000000E+000
  0.0000000E+000
  0.0000000E+000
  0.0000000E+000
  0.0000000E+000
  0.0000000E+000
  0.0000000E+000
  0.0000000E+000
  0.0000000E+000
  0.0000000E+000
  0.0000000E+000
  0.0000000E+000
  0.0000000E+000
  0.0000000E+000
  0.0000000E+000
  0.0000000E+000
  0.0000000E+000
  0.0000000E+000
  0.0000000E+000
  0.0000000E+000
  0.0000000E+000
  0.0000000E+000
  0.0000000E+000
  0.0000000E+000
  0.0000000E+000
  0.0000000E+000
  0.0000000E+000
  0.0000000E+000
  0.0000000E+000
  0.0000000E+000
  0.0000000E+000
  0.0000000E+000
  0.0000000E+000
  0.0000000E+000
  0.0000000E+000
  0.0000000E+000
  0.0000000E+000
  0.0000000E+000
  0.0000000E+000
  0.0000000E+000
  0.0000000E+000
  0.0000000E+000
  0.0000000E+000
  0.0000000E+000
  0.0000000E+000
  0.0000000E+000
  0.0000000E+000
  0.0000000E+000
  0.0000000E+000
  0.0000000E+000
  0.0000000E+000
  0.0000000E+000
  0.0000000E+000
  0.0000000E+000
  0.0000000E+000
  0.0000000E+000
  0.0000000E+000
  0.0000000E+000
  0.0000000E+000
  0.0000000E+000
  0.0000000E+000
  0.0000000E+000
  0.0000000E+000
  0.0000000E+000
  0.0000000E+000
  0.0000000E+000
  0.0000000E+000
  0.0000000E+000
  0.0000000E+000
  0.0000000E+000
  0.0000000E+000
  0.0000000E+000
  0.0000000E+000
  0.0000000E+000
  0.0000000E+000
  0.0000000E+000
  0.0000000E+000
  0.0000000E+000
  0.0000000E+000
  0.0000000E+000
  0.0000000E+000
  0.0000000E+000
  0.0000000E+000
  0.0000000E+000
  0.0000000E+000
  0.0000000E+000
  0.0000000E+000
  0.0000000E+000
  0.0000000E+000
  0.0000000E+000
  0.0000000E+000
  0.0000000E+000
  0.0000000E+000
  0.0000000E+000
  0.0000000E+000
  0.0000000E+000
  0.0000000E+000
  0.0000000E+000
  0.0000000E+000
  0.0000000E+000
  0.0000000E+000
  0.0000000E+000
  0.0000000E+000
  0.0000000E+000
  0.0000000E+000
  0.0000000E+000
  0.0000000E+000
  0.0000000E+000
  0.0000000E+000
  0.0000000E+000
  0.0000000E+000
  0.0000000E+000
  0.0000000E+000
  0.0000000E+000
  0.0000000E+000
  0.0000000E+000
  0.0000000E+000
  0.0000000E+000
  0.0000000E+000
  0.0000000E+000
  0.0000000E+000
  0.0000000E+000
  0.0000000E+000
  0.0000000E+000
  0.0000000E+000
  0.0000000E+000
  0.0000000E+000
  0.0000000E+000
  0.0000000E+000
  0.0000000E+000
  0.0000000E+000
  0.0000000E+000
  0.0000000E+000
  0.0000000E+000
  0.0000000E+000
  0.0000000E+000
  0.0000000E+000
  0.0000000E+000
  0.0000000E+000
  0.0000000E+000
  0.0000000E+000
  0.0000000E+000
  0.0000000E+000
  0.0000000E+000
  0.0000000E+000
  0.0000000E+000
  0.0000000E+000
  0.0000000E+000
  0.0000000E+000
  0.0000000E+000
  0.0000000E+000
  0.0000000E+000
  0.0000000E+000
  0.0000000E+000
  0.0000000E+000
  0.0000000E+000
  0.0000000E+000
  0.0000000E+000
  0.0000000E+000
  0.0000000E+000
  0.0000000E+000
  0.0000000E+000
  0.0000000E+000
  0.0000000E+000
  0.0000000E+000
  0.0000000E+000
  0.0000000E+000
  0.0000000E+000
  0.0000000E+000
  0.0000000E+000
  0.0000000E+000
  0.0000000E+000
  0.0000000E+000
  0.0000000E+000
  0.0000000E+000
  0.0000000E+000
  0.0000000E+000
  0.0000000E+000
  0.0000000E+000
  0.0000000E+000
  0.0000000E+000
  0.0000000E+000
  0.0000000E+000
  0.0000000E+000
  0.0000000E+000
  0.0000000E+000
  0.0000000E+000
  0.0000000E+000
  0.0000000E+000
  0.0000000E+000
  0.0000000E+000
  0.0000000E+000
  0.0000000E+000
  0.0000000E+000
  0.0000000E+000
  0.0000000E+000
  0.0000000E+000
  0.0000000E+000
  0.0000000E+000
  0.0000000E+000
  0.0000000E+000
  0.0000000E+000
  0.0000000E+000
  0.0000000E+000
  0.0000000E+000
  0.0000000E+000
  0.0000000E+000
  0.0000000E+000
  0.0000000E+000
  0.0000000E+000
  0.0000000E+000
  0.0000000E+000
  0.0000000E+000
  0.0000000E+000
  0.0000000E+000
  0.0000000E+000
  0.0000000E+000
  0.0000000E+000
  0.0000000E+000
  0.0000000E+000
  0.0000000E+000
  0.0000000E+000
  0.0000000E+000
  0.0000000E+000
  0.0000000E+000
  0.0000000E+000
  0.0000000E+000
  0.0000000E+000
  0.0000000E+000
  0.0000000E+000
  0.0000000E+000
  0.0000000E+000
  0.0000000E+000
  0.0000000E+000
  0.0000000E+000
  0.0000000E+000
  0.0000000E+000
  0.0000000E+000
  0.0000000E+000
  0.0000000E+000
  0.0000000E+000
  0.0000000E+000
  0.0000000E+000
  0.0000000E+000
  0.0000000E+000
  0.0000000E+000
  0.0000000E+000
  0.0000000E+000
  0.0000000E+000
  0.0000000E+000
  0.0000000E+000
  0.0000000E+000
  0.0000000E+000
  0.0000000E+000
  0.0000000E+000
  0.0000000E+000
  0.0000000E+000
  0.0000000E+000
  0.0000000E+000
  0.0000000E+000
  0.0000000E+000
  0.0000000E+000
  0.0000000E+000
  0.0000000E+000
  0.0000000E+000
  0.0000000E+000
  0.0000000E+000
  0.0000000E+000
  0.0000000E+000
  0.0000000E+000
  0.0000000E+000
  0.0000000E+000
  0.0000000E+000
  0.0000000E+000
  0.0000000E+000
  0.0000000E+000
  0.0000000E+000
  0.0000000E+000
  0.0000000E+000
  0.0000000E+000
  0.0000000E+000
  0.0000000E+000
  0.0000000E+000
  0.0000000E+000
  0.0000000E+000
  0.0000000E+000
  0.0000000E+000
  0.0000000E+000
  0.0000000E+000
  0.0000000E+000
  0.0000000E+000
  0.0000000E+000
  0.0000000E+000
  0.0000000E+000
  0.0000000E+000
  0.0000000E+000
  0.0000000E+000
  0.0000000E+000
  0.0000000E+000
  0.0000000E+000
  0.0000000E+000
  0.0000000E+000
  0.0000000E+000
  0.0000000E+000
  0.0000000E+000
  0.0000000E+000
  0.0000000E+000
  0.0000000E+000
  0.0000000E+000
  0.0000000E+000
  0.0000000E+000
  0.0000000E+000
  0.0000000E+000
  0.0000000E+000
  0.0000000E+000
  0.0000000E+000
  0.0000000E+000
  0.0000000E+000
  0.0000000E+000
  0.0000000E+000
  0.0000000E+000
  0.0000000E+000
  0.0000000E+000
  0.0000000E+000
  0.0000000E+000
  0.0000000E+000
  0.0000000E+000
  0.0000000E+000
  0.0000000E+000
  0.0000000E+000
  0.0000000E+000
  0.0000000E+000
  0.0000000E+000
  0.0000000E+000
  0.0000000E+000
  0.0000000E+000
  0.0000000E+000
  0.0000000E+000
  0.0000000E+000
  0.0000000E+000
  0.0000000E+000
  0.0000000E+000
  0.0000000E+000
  0.0000000E+000
  0.0000000E+000
  0.0000000E+000
  0.0000000E+000
  0.0000000E+000
  0.0000000E+000
  0.0000000E+000
  0.0000000E+000
  0.0000000E+000
  0.0000000E+000
  0.0000000E+000
  0.0000000E+000
  0.0000000E+000
  0.0000000E+000
  0.0000000E+000
  0.0000000E+000
  0.0000000E+000
  0.0000000E+000
  0.0000000E+000
  0.0000000E+000
  0.0000000E+000
  0.0000000E+000
  0.0000000E+000
  0.0000000E+000
  0.0000000E+000
  0.0000000E+000
  0.0000000E+000
  0.0000000E+000
  0.0000000E+000
  0.0000000E+000
  0.0000000E+000
  0.0000000E+000
  0.0000000E+000
  0.0000000E+000
  0.0000000E+000
  0.0000000E+000
  0.0000000E+000
  0.0000000E+000
  0.0000000E+000
  0.0000000E+000
  0.0000000E+000
  0.0000000E+000
  0.0000000E+000
  0.0000000E+000
  0.0000000E+000
  0.0000000E+000
  0.0000000E+000
  0.0000000E+000
  0.0000000E+000
  0.0000000E+000
  0.0000000E+000
  0.0000000E+000
  0.0000000E+000
  0.0000000E+000
  0.0000000E+000
  0.0000000E+000
  0.0000000E+000
  0.0000000E+000
  0.0000000E+000
  0.0000000E+000
  0.0000000E+000
  0.0000000E+000
  0.0000000E+000
  0.0000000E+000
  0.0000000E+000
  0.0000000E+000
  0.0000000E+000
  0.0000000E+000
  0.0000000E+000
  0.0000000E+000
  0.0000000E+000
  0.0000000E+000
  0.0000000E+000
  0.0000000E+000
  0.0000000E+000
  0.0000000E+000
  0.0000000E+000
  0.0000000E+000
  0.0000000E+000
  0.0000000E+000
  0.0000000E+000
  0.0000000E+000
  0.0000000E+000
  0.0000000E+000
  0.0000000E+000
  0.0000000E+000
  0.0000000E+000
  0.0000000E+000
  0.0000000E+000
  0.0000000E+000
  0.0000000E+000
  0.0000000E+000
  0.0000000E+000
  0.0000000E+000
  0.0000000E+000
  0.0000000E+000
  0.0000000E+000
  0.0000000E+000
  0.0000000E+000
  0.0000000E+000
  0.0000000E+000
  0.0000000E+000
  0.0000000E+000
  0.0000000E+000
  0.0000000E+000
  0.0000000E+000
  0.0000000E+000
  0.0000000E+000
  0.0000000E+000
  0.0000000E+000
  0.0000000E+000
  0.0000000E+000
  0.0000000E+000
  0.0000000E+000
  0.0000000E+000
  0.0000000E+000
  0.0000000E+000
  0.0000000E+000
  0.0000000E+000
  0.0000000E+000
  0.0000000E+000
  0.0000000E+000
  0.0000000E+000
  0.0000000E+000
  0.0000000E+000
  0.0000000E+000
  0.0000000E+000
  0.0000000E+000
  0.0000000E+000
  0.0000000E+000
  0.0000000E+000
  0.0000000E+000
  0.0000000E+000
  0.0000000E+000
  0.0000000E+000
  0.0000000E+000
  0.0000000E+000
  0.0000000E+000
  0.0000000E+000
  0.0000000E+000
  0.0000000E+000
  0.0000000E+000
  0.0000000E+000
  0.0000000E+000
  0.0000000E+000
  0.0000000E+000
  0.0000000E+000
  0.0000000E+000
  0.0000000E+000
  0.0000000E+000
  0.0000000E+000
  0.0000000E+000
  0.0000000E+000
  0.0000000E+000
  0.0000000E+000
  0.0000000E+000
  0.0000000E+000
  0.0000000E+000
  0.0000000E+000
  0.0000000E+000
  0.0000000E+000
  0.0000000E+000
  0.0000000E+000
  0.0000000E+000
  0.0000000E+000
  0.0000000E+000
  0.0000000E+000
  0.0000000E+000
  0.0000000E+000
  0.0000000E+000
  0.0000000E+000
  0.0000000E+000
  0.0000000E+000
  0.0000000E+000
  0.0000000E+000
  0.0000000E+000
  0.0000000E+000
  0.0000000E+000
  0.0000000E+000
  0.0000000E+000
  0.0000000E+000
  0.0000000E+000
  0.0000000E+000
  0.0000000E+000
  0.0000000E+000
  0.0000000E+000
  0.0000000E+000
  0.0000000E+000
  0.0000000E+000
  0.0000000E+000
  0.0000000E+000
  0.0000000E+000
  0.0000000E+000
  0.0000000E+000
  0.0000000E+000
  0.0000000E+000
  0.0000000E+000
  0.0000000E+000
  0.0000000E+000
  0.0000000E+000
  0.0000000E+000
  0.0000000E+000
  0.0000000E+000
  0.0000000E+000
  0.0000000E+000
  0.0000000E+000
  0.0000000E+000
  0.0000000E+000
  0.0000000E+000
  0.0000000E+000
  0.0000000E+000
  0.0000000E+000
  0.0000000E+000
  0.0000000E+000
  0.0000000E+000
  0.0000000E+000
  0.0000000E+000
  0.0000000E+000
  0.0000000E+000
  0.0000000E+000
  0.0000000E+000
  0.0000000E+000
  0.0000000E+000
  0.0000000E+000
  0.0000000E+000
  0.0000000E+000
  0.0000000E+000
  0.0000000E+000
  0.0000000E+000
  0.0000000E+000
  0.0000000E+000
  0.0000000E+000
  0.0000000E+000
  0.0000000E+000
  0.0000000E+000
  0.0000000E+000
  0.0000000E+000
  0.0000000E+000
  0.0000000E+000
  0.0000000E+000
  0.0000000E+000
  0.0000000E+000
  0.0000000E+000
  0.0000000E+000
  0.0000000E+000
  0.0000000E+000
  0.0000000E+000
  0.0000000E+000
  0.0000000E+000
  0.0000000E+000
  0.0000000E+000
  0.0000000E+000
  0.0000000E+000
  0.0000000E+000
  0.0000000E+000
  0.0000000E+000
  0.0000000E+000
  0.0000000E+000
  0.0000000E+000
  0.0000000E+000
  0.0000000E+000
  0.0000000E+000
  0.0000000E+000
  0.0000000E+000
  0.0000000E+000
  0.0000000E+000
  0.0000000E+000
  0.0000000E+000
  0.0000000E+000
  0.0000000E+000
  0.0000000E+000
  0.0000000E+000
  0.0000000E+000
  0.0000000E+000
  0.0000000E+000
  0.0000000E+000
  0.0000000E+000
  0.0000000E+000
  0.0000000E+000
  0.0000000E+000
  0.0000000E+000
  0.0000000E+000
  0.0000000E+000
  0.0000000E+000
  0.0000000E+000
  0.0000000E+000
  0.0000000E+000
  0.0000000E+000
  0.0000000E+000
  0.0000000E+000
  0.0000000E+000
  0.0000000E+000
  0.0000000E+000
  0.0000000E+000
  0.0000000E+000
  0.0000000E+000
  0.0000000E+000
  0.0000000E+000
  0.0000000E+000
  0.0000000E+000
  0.0000000E+000
  0.0000000E+000
  0.0000000E+000
  0.0000000E+000
  0.0000000E+000
  0.0000000E+000
  0.0000000E+000
  0.0000000E+000
  0.0000000E+000
  0.0000000E+000
  0.0000000E+000
  0.0000000E+000
  0.0000000E+000
  0.0000000E+000
  0.0000000E+000
  0.0000000E+000
  0.0000000E+000
  0.0000000E+000
  0.0000000E+000
  0.0000000E+000
  0.0000000E+000
  0.0000000E+000
  0.0000000E+000
  0.0000000E+000
  0.0000000E+000
  0.0000000E+000
  0.0000000E+000
  0.0000000E+000
  0.0000000E+000
  0.0000000E+000
  0.0000000E+000
  0.0000000E+000
  0.0000000E+000
  0.0000000E+000
  0.0000000E+000
  0.0000000E+000
  0.0000000E+000
  0.0000000E+000
  0.0000000E+000
  0.0000000E+000
  0.0000000E+000
  0.0000000E+000
  0.0000000E+000
  0.0000000E+000
  0.0000000E+000
  0.0000000E+000
  0.0000000E+000
  0.0000000E+000
  0.0000000E+000
  0.0000000E+000
  0.0000000E+000
  0.0000000E+000
  0.0000000E+000
  0.0000000E+000
  0.0000000E+000
  0.0000000E+000
  0.0000000E+000
  0.0000000E+000
  0.0000000E+000
  0.0000000E+000
  0.0000000E+000
  0.0000000E+000
  0.0000000E+000
  0.0000000E+000
  0.0000000E+000
  0.0000000E+000
  0.0000000E+000
  0.0000000E+000
  0.0000000E+000
  0.0000000E+000
  0.0000000E+000
  0.0000000E+000
  0.0000000E+000
  0.0000000E+000
  0.0000000E+000
  0.0000000E+000
  0.0000000E+000
  0.0000000E+000
  0.0000000E+000
  0.0000000E+000
  0.0000000E+000
  0.0000000E+000
  0.0000000E+000
  0.0000000E+000
  0.0000000E+000
  0.0000000E+000
  0.0000000E+000
  0.0000000E+000
  0.0000000E+000
  0.0000000E+000
  0.0000000E+000
  0.0000000E+000
  0.0000000E+000
  0.0000000E+000
  0.0000000E+000
  0.0000000E+000
  0.0000000E+000
  0.0000000E+000
  0.0000000E+000
  0.0000000E+000
  0.0000000E+000
  0.0000000E+000
  0.0000000E+000
  0.0000000E+000
  0.0000000E+000
  0.0000000E+000
  0.0000000E+000
  0.0000000E+000
  0.0000000E+000
  0.0000000E+000
  0.0000000E+000
  0.0000000E+000
  0.0000000E+000
  0.0000000E+000
  0.0000000E+000
  0.0000000E+000
  0.0000000E+000
  0.0000000E+000
  0.0000000E+000
  0.0000000E+000
  0.0000000E+000
  0.0000000E+000
  0.0000000E+000
  0.0000000E+000
  0.0000000E+000
  0.0000000E+000
  0.0000000E+000
  0.0000000E+000
  0.0000000E+000
  0.0000000E+000
  0.0000000E+000
  0.0000000E+000
  0.0000000E+000
  0.0000000E+000
  0.0000000E+000
  0.0000000E+000
  0.0000000E+000
  0.0000000E+000
  0.0000000E+000
  0.0000000E+000
  0.0000000E+000
  0.0000000E+000
  0.0000000E+000
  0.0000000E+000
  0.0000000E+000
  0.0000000E+000
  0.0000000E+000
  0.0000000E+000
  0.0000000E+000
  0.0000000E+000
  0.0000000E+000
  0.0000000E+000
  0.0000000E+000
  0.0000000E+000
  0.0000000E+000
  0.0000000E+000
  0.0000000E+000
  0.0000000E+000
  0.0000000E+000
  0.0000000E+000
  0.0000000E+000
  0.0000000E+000
  0.0000000E+000
  0.0000000E+000
  0.0000000E+000
  0.0000000E+000
  0.0000000E+000
  0.0000000E+000
  0.0000000E+000
  0.0000000E+000
  0.0000000E+000
  0.0000000E+000
  0.0000000E+000
  0.0000000E+000
  0.0000000E+000
  0.0000000E+000
  0.0000000E+000
  0.0000000E+000
  0.0000000E+000
  0.0000000E+000
  0.0000000E+000
  0.0000000E+000
  0.0000000E+000
  0.0000000E+000
  0.0000000E+000
  0.0000000E+000
  0.0000000E+000
  0.0000000E+000
  0.0000000E+000
  0.0000000E+000
  0.0000000E+000
  0.0000000E+000
  0.0000000E+000
  0.0000000E+000
  0.0000000E+000
  0.0000000E+000
  0.0000000E+000
  0.0000000E+000
  0.0000000E+000
  0.0000000E+000
  0.0000000E+000
  0.0000000E+000
  0.0000000E+000
  0.0000000E+000
  0.0000000E+000
  0.0000000E+000
  0.0000000E+000
  0.0000000E+000
  0.0000000E+000
  0.0000000E+000
  0.0000000E+000
  0.0000000E+000
  0.0000000E+000
  0.0000000E+000
  0.0000000E+000
  0.0000000E+000
  0.0000000E+000
  0.0000000E+000
  0.0000000E+000
  0.0000000E+000
  0.0000000E+000
  0.0000000E+000
  0.0000000E+000
  0.0000000E+000
  0.0000000E+000
  0.0000000E+000
  0.0000000E+000
  0.0000000E+000
  0.0000000E+000
  0.0000000E+000
  0.0000000E+000
  0.0000000E+000
  0.0000000E+000
  0.0000000E+000
  0.0000000E+000
  0.0000000E+000
  0.0000000E+000
  0.0000000E+000
  0.0000000E+000
  0.0000000E+000
  0.0000000E+000
  0.0000000E+000
  0.0000000E+000
  0.0000000E+000
  0.0000000E+000
  0.0000000E+000
  0.0000000E+000
  0.0000000E+000
  0.0000000E+000
  0.0000000E+000
  0.0000000E+000
  0.0000000E+000
  0.0000000E+000
  0.0000000E+000
  0.0000000E+000
  0.0000000E+000
  0.0000000E+000
  0.0000000E+000
  0.0000000E+000
  0.0000000E+000
  0.0000000E+000
  0.0000000E+000
  0.0000000E+000
  0.0000000E+000
  0.0000000E+000
  0.0000000E+000
  0.0000000E+000
  0.0000000E+000
  0.0000000E+000
  0.0000000E+000
  0.0000000E+000
  0.0000000E+000
  0.0000000E+000
  0.0000000E+000
  0.0000000E+000
  0.0000000E+000
  0.0000000E+000
  0.0000000E+000
  0.0000000E+000
  0.0000000E+000
  0.0000000E+000
  0.0000000E+000
  0.0000000E+000
  0.0000000E+000
  0.0000000E+000
  0.0000000E+000
  0.0000000E+000
  0.0000000E+000
  0.0000000E+000
  0.0000000E+000
  0.0000000E+000
  0.0000000E+000
  0.0000000E+000
  0.0000000E+000
  0.0000000E+000
  0.0000000E+000
  0.0000000E+000
  0.0000000E+000
  0.0000000E+000
  0.0000000E+000
  0.0000000E+000
  0.0000000E+000
  0.0000000E+000
  0.0000000E+000
  0.0000000E+000
  0.0000000E+000
  0.0000000E+000
  0.0000000E+000
  0.0000000E+000
  0.0000000E+000
  0.0000000E+000
  0.0000000E+000
  0.0000000E+000
  0.0000000E+000
  0.0000000E+000
  0.0000000E+000
  0.0000000E+000
  0.0000000E+000
  0.0000000E+000
  0.0000000E+000
  0.0000000E+000
  0.0000000E+000
  0.0000000E+000
  0.0000000E+000
  0.0000000E+000
  0.0000000E+000
  0.0000000E+000
  0.0000000E+000
  0.0000000E+000
  0.0000000E+000
  0.0000000E+000
  0.0000000E+000
  0.0000000E+000
  0.0000000E+000
  0.0000000E+000
  0.0000000E+000
  0.0000000E+000
  0.0000000E+000
  0.0000000E+000
  0.0000000E+000
  0.0000000E+000
  0.0000000E+000
  0.0000000E+000
  0.0000000E+000
  0.0000000E+000
  0.0000000E+000
  0.0000000E+000
  0.0000000E+000
  0.0000000E+000
  0.0000000E+000
  0.0000000E+000
  0.0000000E+000
  0.0000000E+000
  0.0000000E+000
  0.0000000E+000
  0.0000000E+000
  0.0000000E+000
  0.0000000E+000
  0.0000000E+000
  0.0000000E+000
  0.0000000E+000
  0.0000000E+000
  0.0000000E+000
  0.0000000E+000
  0.0000000E+000
  0.0000000E+000
  0.0000000E+000
  0.0000000E+000
  0.0000000E+000
  0.0000000E+000
  0.0000000E+000
  0.0000000E+000
  0.0000000E+000
  0.0000000E+000
  0.0000000E+000
  0.0000000E+000
  0.0000000E+000
  0.0000000E+000
  0.0000000E+000
  0.0000000E+000
  0.0000000E+000
  0.0000000E+000
  0.0000000E+000
  0.0000000E+000
  0.0000000E+000
  0.0000000E+000
  0.0000000E+000
  0.0000000E+000
  0.0000000E+000
  0.0000000E+000
  0.0000000E+000
  0.0000000E+000
  0.0000000E+000
  0.0000000E+000
  0.0000000E+000
  0.0000000E+000
  0.0000000E+000
  0.0000000E+000
  0.0000000E+000
  0.0000000E+000
  0.0000000E+000
  0.0000000E+000
  0.0000000E+000
  0.0000000E+000
  0.0000000E+000
  0.0000000E+000
  0.0000000E+000
  0.0000000E+000
  0.0000000E+000
  0.0000000E+000
  0.0000000E+000
  0.0000000E+000
  0.0000000E+000
  0.0000000E+000
  0.0000000E+000
  0.0000000E+000
  0.0000000E+000
  0.0000000E+000
  0.0000000E+000
  0.0000000E+000
  0.0000000E+000
  0.0000000E+000
  0.0000000E+000
  0.0000000E+000
  0.0000000E+000
  0.0000000E+000
  0.0000000E+000
  0.0000000E+000
  0.0000000E+000
  0.0000000E+000
  0.0000000E+000
  0.0000000E+000
  0.0000000E+000
  0.0000000E+000
  0.0000000E+000
  0.0000000E+000
  0.0000000E+000
  0.0000000E+000
  0.0000000E+000
  0.0000000E+000
  0.0000000E+000
  0.0000000E+000
  0.0000000E+000
  0.0000000E+000
  0.0000000E+000
  0.0000000E+000
  0.0000000E+000
  0.0000000E+000
  0.0000000E+000
  0.0000000E+000
  0.0000000E+000
  0.0000000E+000
  0.0000000E+000
  0.0000000E+000
  0.0000000E+000
  0.0000000E+000
  0.0000000E+000
  0.0000000E+000
  0.0000000E+000
  0.0000000E+000
  0.0000000E+000
  0.0000000E+000
  0.0000000E+000
  0.0000000E+000
  0.0000000E+000
  0.0000000E+000
  0.0000000E+000
  0.0000000E+000
  0.0000000E+000
  0.0000000E+000
  0.0000000E+000
  0.0000000E+000
  0.0000000E+000
  0.0000000E+000
  0.0000000E+000
  0.0000000E+000
  0.0000000E+000
  0.0000000E+000
  0.0000000E+000
  0.0000000E+000
  0.0000000E+000
  0.0000000E+000
  0.0000000E+000
  0.0000000E+000
  0.0000000E+000
  0.0000000E+000
  0.0000000E+000
  0.0000000E+000
  0.0000000E+000
  0.0000000E+000
  0.0000000E+000
  0.0000000E+000
  0.0000000E+000
  0.0000000E+000
  0.0000000E+000
  0.0000000E+000
  0.0000000E+000
  0.0000000E+000
  0.0000000E+000
  0.0000000E+000
  0.0000000E+000
  0.0000000E+000
  0.0000000E+000
  0.0000000E+000
  0.0000000E+000
  0.0000000E+000
  0.0000000E+000
  0.0000000E+000
  0.0000000E+000
  0.0000000E+000
  0.0000000E+000
  0.0000000E+000
  0.0000000E+000
  0.0000000E+000
  0.0000000E+000
  0.0000000E+000
  0.0000000E+000
  0.0000000E+000
  0.0000000E+000
  0.0000000E+000
  0.0000000E+000
  0.0000000E+000
  0.0000000E+000
  0.0000000E+000
  0.0000000E+000
  0.0000000E+000
  0.0000000E+000
  0.0000000E+000
  0.0000000E+000
  0.0000000E+000
  0.0000000E+000
  0.0000000E+000
  0.0000000E+000
  0.0000000E+000
  0.0000000E+000
  0.0000000E+000
  0.0000000E+000
  0.0000000E+000
  0.0000000E+000
  0.0000000E+000
  0.0000000E+000
  0.0000000E+000
  0.0000000E+000
  0.0000000E+000
  0.0000000E+000
  0.0000000E+000
  0.0000000E+000
  0.0000000E+000
  0.0000000E+000
  0.0000000E+000
  0.0000000E+000
  0.0000000E+000
  0.0000000E+000
  0.0000000E+000
  0.0000000E+000
  0.0000000E+000
  0.0000000E+000
  0.0000000E+000
  0.0000000E+000
  0.0000000E+000
  0.0000000E+000
  0.0000000E+000
  0.0000000E+000
  0.0000000E+000
  0.0000000E+000
  0.0000000E+000
  0.0000000E+000
  0.0000000E+000
  0.0000000E+000
  0.0000000E+000
  0.0000000E+000
  0.0000000E+000
  0.0000000E+000
  0.0000000E+000
  0.0000000E+000
  0.0000000E+000
  0.0000000E+000
  0.0000000E+000
  0.0000000E+000
  0.0000000E+000
  0.0000000E+000
  0.0000000E+000
  0.0000000E+000
  0.0000000E+000
  0.0000000E+000
  0.0000000E+000
  0.0000000E+000
  0.0000000E+000
  0.0000000E+000
  0.0000000E+000
  0.0000000E+000
  0.0000000E+000
  0.0000000E+000
  0.0000000E+000
  0.0000000E+000
  0.0000000E+000
  0.0000000E+000
  0.0000000E+000
  0.0000000E+000
  0.0000000E+000
  0.0000000E+000
  0.0000000E+000
  0.0000000E+000
  0.0000000E+000
  0.0000000E+000
  0.0000000E+000
  0.0000000E+000
  0.0000000E+000
  0.0000000E+000
  0.0000000E+000
  0.0000000E+000
  0.0000000E+000
  0.0000000E+000
  0.0000000E+000
  0.0000000E+000
  0.0000000E+000
  0.0000000E+000
  0.0000000E+000
  0.0000000E+000
  0.0000000E+000
  0.0000000E+000
  0.0000000E+000
  0.0000000E+000
  0.0000000E+000
  0.0000000E+000
  0.0000000E+000
  0.0000000E+000
  0.0000000E+000
  0.0000000E+000
  0.0000000E+000
  0.0000000E+000
  0.0000000E+000
  0.0000000E+000
  0.0000000E+000
  0.0000000E+000
  0.0000000E+000
  0.0000000E+000
  0.0000000E+000
  0.0000000E+000
  0.0000000E+000
  0.0000000E+000
  0.0000000E+000
  0.0000000E+000
  0.0000000E+000
  0.0000000E+000
  0.0000000E+000
  0.0000000E+000
  0.0000000E+000
  0.0000000E+000
  0.0000000E+000
  0.0000000E+000
  0.0000000E+000
  0.0000000E+000
  0.0000000E+000
  0.0000000E+000
  0.0000000E+000
  0.0000000E+000
  0.0000000E+000
  0.0000000E+000
  0.0000000E+000
  0.0000000E+000
  0.0000000E+000
  0.0000000E+000
  0.0000000E+000
  0.0000000E+000
  0.0000000E+000
  0.0000000E+000
  0.0000000E+000
  0.0000000E+000
  0.0000000E+000
  0.0000000E+000
  0.0000000E+000
  0.0000000E+000
  0.0000000E+000
  0.0000000E+000
  0.0000000E+000
  0.0000000E+000
  0.0000000E+000
  0.0000000E+000
  0.0000000E+000
  0.0000000E+000
  0.0000000E+000
  0.0000000E+000
  0.0000000E+000
  0.0000000E+000
  0.0000000E+000
  0.0000000E+000
  0.0000000E+000
  0.0000000E+000
  0.0000000E+000
  0.0000000E+000
  0.0000000E+000
  0.0000000E+000
  0.0000000E+000
  0.0000000E+000
  0.0000000E+000
  0.0000000E+000
  0.0000000E+000
  0.0000000E+000
  0.0000000E+000
  0.0000000E+000
  0.0000000E+000
  0.0000000E+000
  0.0000000E+000
  0.0000000E+000
  0.0000000E+000
  0.0000000E+000
  0.0000000E+000
  0.0000000E+000
  0.0000000E+000
  0.0000000E+000
  0.0000000E+000
  0.0000000E+000
  0.0000000E+000
  0.0000000E+000
  0.0000000E+000
  0.0000000E+000
  0.0000000E+000
  0.0000000E+000
  0.0000000E+000
  0.0000000E+000
  0.0000000E+000
  0.0000000E+000
  0.0000000E+000
  0.0000000E+000
  0.0000000E+000
  0.0000000E+000
  0.0000000E+000
  0.0000000E+000
  0.0000000E+000
  0.0000000E+000
  0.0000000E+000
  0.0000000E+000
  0.0000000E+000
  0.0000000E+000
  0.0000000E+000
  0.0000000E+000
  0.0000000E+000
  0.0000000E+000
  0.0000000E+000
  0.0000000E+000
  0.0000000E+000
  0.0000000E+000
  0.0000000E+000
  0.0000000E+000
  0.0000000E+000
  0.0000000E+000
  0.0000000E+000
  0.0000000E+000
  0.0000000E+000
  0.0000000E+000
  0.0000000E+000
  0.0000000E+000
  0.0000000E+000
  0.0000000E+000
  0.0000000E+000
  0.0000000E+000
  0.0000000E+000
  0.0000000E+000
  0.0000000E+000
  0.0000000E+000
  0.0000000E+000
  0.0000000E+000
  0.0000000E+000
  0.0000000E+000
  0.0000000E+000
  0.0000000E+000
  0.0000000E+000
  0.0000000E+000
  0.0000000E+000
  0.0000000E+000
  0.0000000E+000
  0.0000000E+000
  0.0000000E+000
  0.0000000E+000
  0.0000000E+000
  0.0000000E+000
  0.0000000E+000
  0.0000000E+000
  0.0000000E+000
  0.0000000E+000
  0.0000000E+000
  0.0000000E+000
  0.0000000E+000
  0.0000000E+000
  0.0000000E+000
  0.0000000E+000
  0.0000000E+000
  0.0000000E+000
  0.0000000E+000
  0.0000000E+000
  0.0000000E+000
  0.0000000E+000
  0.0000000E+000
  0.0000000E+000
  0.0000000E+000
  0.0000000E+000
  0.0000000E+000
  0.0000000E+000
  0.0000000E+000
  0.0000000E+000
  0.0000000E+000
  0.0000000E+000
  0.0000000E+000
  0.0000000E+000
  0.0000000E+000
  0.0000000E+000
  0.0000000E+000
  0.0000000E+000
  0.0000000E+000
  0.0000000E+000
  0.0000000E+000
  0.0000000E+000
  0.0000000E+000
  0.0000000E+000
  0.0000000E+000
  0.0000000E+000
  0.0000000E+000
  0.0000000E+000
  0.0000000E+000
  0.0000000E+000
  0.0000000E+000
  0.0000000E+000
  0.0000000E+000
  0.0000000E+000
  0.0000000E+000
  0.0000000E+000
  0.0000000E+000
  0.0000000E+000
  0.0000000E+000
  0.0000000E+000
  0.0000000E+000
  0.0000000E+000
  0.0000000E+000
  0.0000000E+000
  0.0000000E+000
  0.0000000E+000
  0.0000000E+000
  0.0000000E+000
  0.0000000E+000
  0.0000000E+000
  0.0000000E+000
  0.0000000E+000
  0.0000000E+000
  0.0000000E+000
  0.0000000E+000
  0.0000000E+000
  0.0000000E+000
  0.0000000E+000
  0.0000000E+000
  0.0000000E+000
  0.0000000E+000
  0.0000000E+000
  0.0000000E+000
  0.0000000E+000
  0.0000000E+000
  0.0000000E+000
  0.0000000E+000
  0.0000000E+000
  0.0000000E+000
  0.0000000E+000
  0.0000000E+000
  0.0000000E+000
  0.0000000E+000
  0.0000000E+000
  0.0000000E+000
  0.0000000E+000
  0.0000000E+000
  0.0000000E+000
  0.0000000E+000
  0.0000000E+000
  0.0000000E+000
  0.0000000E+000
  0.0000000E+000
  0.0000000E+000
  0.0000000E+000
  0.0000000E+000
  0.0000000E+000
  0.0000000E+000
  0.0000000E+000
  0.0000000E+000
  0.0000000E+000
  0.0000000E+000
  0.0000000E+000
  0.0000000E+000
  0.0000000E+000
  0.0000000E+000
  0.0000000E+000
  0.0000000E+000
  0.0000000E+000
  0.0000000E+000
  0.0000000E+000
  0.0000000E+000
  0.0000000E+000
  0.0000000E+000
  0.0000000E+000
  0.0000000E+000
  0.0000000E+000
  0.0000000E+000
  0.0000000E+000
  0.0000000E+000
  0.0000000E+000
  0.0000000E+000
  0.0000000E+000
  0.0000000E+000
  0.0000000E+000
  0.0000000E+000
  0.0000000E+000
  0.0000000E+000
  0.0000000E+000
  0.0000000E+000
  0.0000000E+000
  0.0000000E+000
  0.0000000E+000
  0.0000000E+000
  0.0000000E+000
  0.0000000E+000
  0.0000000E+000
  0.0000000E+000
  0.0000000E+000
  0.0000000E+000
  0.0000000E+000
  0.0000000E+000
  0.0000000E+000
  0.0000000E+000
  0.0000000E+000
  0.0000000E+000
  0.0000000E+000
  0.0000000E+000
  0.0000000E+000
  0.0000000E+000
  0.0000000E+000
  0.0000000E+000
  0.0000000E+000
  0.0000000E+000
  0.0000000E+000
  0.0000000E+000
  0.0000000E+000
  0.0000000E+000
  0.0000000E+000
  0.0000000E+000
  0.0000000E+000
  0.0000000E+000
  0.0000000E+000
  0.0000000E+000
  0.0000000E+000
  0.0000000E+000
  0.0000000E+000
  0.0000000E+000
  0.0000000E+000
  0.0000000E+000
  0.0000000E+000
  0.0000000E+000
  0.0000000E+000
  0.0000000E+000
  0.0000000E+000
  0.0000000E+000
  0.0000000E+000
  0.0000000E+000
  0.0000000E+000
  0.0000000E+000
  0.0000000E+000
  0.0000000E+000
  0.0000000E+000
  0.0000000E+000
  0.0000000E+000
  0.0000000E+000
  0.0000000E+000
  0.0000000E+000
  0.0000000E+000
  0.0000000E+000
  0.0000000E+000
  0.0000000E+000
  0.0000000E+000
  0.0000000E+000
  0.0000000E+000
  0.0000000E+000
  0.0000000E+000
  0.0000000E+000
  0.0000000E+000
  0.0000000E+000
  0.0000000E+000
  0.0000000E+000
  0.0000000E+000
  0.0000000E+000
  0.0000000E+000
  0.0000000E+000
  0.0000000E+000
  0.0000000E+000
  0.0000000E+000
  0.0000000E+000
  0.0000000E+000
  0.0000000E+000
  0.0000000E+000
  0.0000000E+000
  0.0000000E+000
  0.0000000E+000
  0.0000000E+000
  0.0000000E+000
  0.0000000E+000
  0.0000000E+000
  0.0000000E+000
  0.0000000E+000
  0.0000000E+000
  0.0000000E+000
  0.0000000E+000
  0.0000000E+000
  0.0000000E+000
  0.0000000E+000
  0.0000000E+000
  0.0000000E+000
  0.0000000E+000
  0.0000000E+000
  0.0000000E+000
  0.0000000E+000
  0.0000000E+000
  0.0000000E+000
  0.0000000E+000
  0.0000000E+000
  0.0000000E+000
  0.0000000E+000
  0.0000000E+000
  0.0000000E+000
  0.0000000E+000
  0.0000000E+000
  0.0000000E+000
  0.0000000E+000
  0.0000000E+000
  0.0000000E+000
  0.0000000E+000
  0.0000000E+000
  0.0000000E+000
  0.0000000E+000
  0.0000000E+000
  0.0000000E+000
  0.0000000E+000
  0.0000000E+000
  0.0000000E+000
  0.0000000E+000
  0.0000000E+000
  0.0000000E+000
  0.0000000E+000
  0.0000000E+000
  0.0000000E+000
  0.0000000E+000
  0.0000000E+000
  0.0000000E+000
  0.0000000E+000
  0.0000000E+000
  0.0000000E+000
  0.0000000E+000
  0.0000000E+000
  0.0000000E+000
  0.0000000E+000
  0.0000000E+000
  0.0000000E+000
  0.0000000E+000
  0.0000000E+000
  0.0000000E+000
  0.0000000E+000
  0.0000000E+000
  0.0000000E+000
  0.0000000E+000
  0.0000000E+000
  0.0000000E+000
  0.0000000E+000
  0.0000000E+000
  0.0000000E+000
  0.0000000E+000
  0.0000000E+000
  0.0000000E+000
  0.0000000E+000
  0.0000000E+000
  0.0000000E+000
  0.0000000E+000
  0.0000000E+000
  0.0000000E+000
  0.0000000E+000
  0.0000000E+000
  0.0000000E+000
  0.0000000E+000
  0.0000000E+000
  0.0000000E+000
  0.0000000E+000
  0.0000000E+000
  0.0000000E+000
  0.0000000E+000
  0.0000000E+000
  0.0000000E+000
  0.0000000E+000
  0.0000000E+000
  0.0000000E+000
  0.0000000E+000
  0.0000000E+000
  0.0000000E+000
  0.0000000E+000
  0.0000000E+000
  0.0000000E+000
  0.0000000E+000
  0.0000000E+000
  0.0000000E+000
  0.0000000E+000
  0.0000000E+000
  0.0000000E+000
  0.0000000E+000
  0.0000000E+000
  0.0000000E+000
  0.0000000E+000
  0.0000000E+000
  0.0000000E+000
  0.0000000E+000
  0.0000000E+000
  0.0000000E+000
  0.0000000E+000
  0.0000000E+000
  0.0000000E+000
  0.0000000E+000
  0.0000000E+000
  0.0000000E+000
  0.0000000E+000
  0.0000000E+000
  0.0000000E+000
  0.0000000E+000
  0.0000000E+000
  0.0000000E+000
  0.0000000E+000
  0.0000000E+000
  0.0000000E+000
  0.0000000E+000
  0.0000000E+000
  0.0000000E+000
  0.0000000E+000
  0.0000000E+000
  0.0000000E+000
  0.0000000E+000
  0.0000000E+000
  0.0000000E+000
  0.0000000E+000
  0.0000000E+000
  0.0000000E+000
  0.0000000E+000
  0.0000000E+000
  0.0000000E+000
  0.0000000E+000
  0.0000000E+000
  0.0000000E+000
  0.0000000E+000
  0.0000000E+000
  0.0000000E+000
  0.0000000E+000
  0.0000000E+000
  0.0000000E+000
  0.0000000E+000
  0.0000000E+000
  0.0000000E+000
  0.0000000E+000
  0.0000000E+000
  0.0000000E+000
  0.0000000E+000
  0.0000000E+000
  0.0000000E+000
  0.0000000E+000
  0.0000000E+000
  0.0000000E+000
  0.0000000E+000
  0.0000000E+000
  0.0000000E+000
  0.0000000E+000
  0.0000000E+000
  0.0000000E+000
  0.0000000E+000
  0.0000000E+000
  0.0000000E+000
  0.0000000E+000
  0.0000000E+000
  0.0000000E+000
  0.0000000E+000
  0.0000000E+000
  0.0000000E+000
  0.0000000E+000
  0.0000000E+000
  0.0000000E+000
  0.0000000E+000
  0.0000000E+000
  0.0000000E+000
  0.0000000E+000
  0.0000000E+000
  0.0000000E+000
  0.0000000E+000
  0.0000000E+000
  0.0000000E+000
  0.0000000E+000
  0.0000000E+000
  0.0000000E+000
  0.0000000E+000
  0.0000000E+000
  0.0000000E+000
  0.0000000E+000
  0.0000000E+000
  0.0000000E+000
  0.0000000E+000
  0.0000000E+000
  0.0000000E+000
  0.0000000E+000
  0.0000000E+000
  0.0000000E+000
  0.0000000E+000
  0.0000000E+000
  0.0000000E+000
  0.0000000E+000
  0.0000000E+000
  0.0000000E+000
  0.0000000E+000
  0.0000000E+000
  0.0000000E+000
  0.0000000E+000
  0.0000000E+000
  0.0000000E+000
  0.0000000E+000
  0.0000000E+000
  0.0000000E+000
  0.0000000E+000
  0.0000000E+000
  0.0000000E+000
  0.0000000E+000
  0.0000000E+000
  0.0000000E+000
  0.0000000E+000
  0.0000000E+000
  0.0000000E+000
  0.0000000E+000
  0.0000000E+000
  0.0000000E+000
  0.0000000E+000
  0.0000000E+000
  0.0000000E+000
  0.0000000E+000
  0.0000000E+000
  0.0000000E+000
  0.0000000E+000
  0.0000000E+000
  0.0000000E+000
  0.0000000E+000
  0.0000000E+000
  0.0000000E+000
  0.0000000E+000
  0.0000000E+000
  0.0000000E+000
  0.0000000E+000
  0.0000000E+000
  0.0000000E+000
  0.0000000E+000
  0.0000000E+000
  0.0000000E+000
  0.0000000E+000
  0.0000000E+000
  0.0000000E+000
  0.0000000E+000
  0.0000000E+000
  0.0000000E+000
  0.0000000E+000
  0.0000000E+000
  0.0000000E+000
  0.0000000E+000
  0.0000000E+000
  0.0000000E+000
  0.0000000E+000
  0.0000000E+000
  0.0000000E+000
  0.0000000E+000
  0.0000000E+000
  0.0000000E+000
  0.0000000E+000
  0.0000000E+000
  0.0000000E+000
  0.0000000E+000
  0.0000000E+000
  0.0000000E+000
  0.0000000E+000
  0.0000000E+000
  0.0000000E+000
  0.0000000E+000
  0.0000000E+000
  0.0000000E+000
  0.0000000E+000
  0.0000000E+000
  0.0000000E+000
  0.0000000E+000
  0.0000000E+000
  0.0000000E+000
  0.0000000E+000
  0.0000000E+000
  0.0000000E+000
  0.0000000E+000
  0.0000000E+000
  0.0000000E+000
  0.0000000E+000
  0.0000000E+000
  0.0000000E+000
  0.0000000E+000
  0.0000000E+000
  0.0000000E+000
  0.0000000E+000
  0.0000000E+000
  0.0000000E+000
  0.0000000E+000
  0.0000000E+000
  0.0000000E+000
  0.0000000E+000
  0.0000000E+000
  0.0000000E+000
  0.0000000E+000
  0.0000000E+000
  0.0000000E+000
  0.0000000E+000
  0.0000000E+000
  0.0000000E+000
  0.0000000E+000
  0.0000000E+000
  0.0000000E+000
  0.0000000E+000
  0.0000000E+000
  0.0000000E+000
  0.0000000E+000
  0.0000000E+000
  0.0000000E+000
  0.0000000E+000
  0.0000000E+000
  0.0000000E+000
  0.0000000E+000
  0.0000000E+000
  0.0000000E+000
  0.0000000E+000
  0.0000000E+000
  0.0000000E+000
  0.0000000E+000
  0.0000000E+000
  0.0000000E+000
  0.0000000E+000
  0.0000000E+000
  0.0000000E+000
  0.0000000E+000
  0.0000000E+000
  0.0000000E+000
  0.0000000E+000
  0.0000000E+000
  0.0000000E+000
  0.0000000E+000
  0.0000000E+000
  0.0000000E+000
  0.0000000E+000
  0.0000000E+000
  0.0000000E+000
  0.0000000E+000
  0.0000000E+000
  0.0000000E+000
  0.0000000E+000
  0.0000000E+000
  0.0000000E+000
  0.0000000E+000
  0.0000000E+000
  0.0000000E+000
  0.0000000E+000
  0.0000000E+000
  0.0000000E+000
  0.0000000E+000
  0.0000000E+000
  0.0000000E+000
  0.0000000E+000
  0.0000000E+000
  0.0000000E+000
  0.0000000E+000
  0.0000000E+000
  0.0000000E+000
  0.0000000E+000
  0.0000000E+000
  0.0000000E+000
  0.0000000E+000
  0.0000000E+000
  0.0000000E+000
  0.0000000E+000
  0.0000000E+000
  0.0000000E+000
  0.0000000E+000
  0.0000000E+000
  0.0000000E+000
  0.0000000E+000
  0.0000000E+000
  0.0000000E+000
  0.0000000E+000
  0.0000000E+000
  0.0000000E+000
  0.0000000E+000
  0.0000000E+000
  0.0000000E+000
  0.0000000E+000
  0.0000000E+000
  0.0000000E+000
  0.0000000E+000
  0.0000000E+000
  0.0000000E+000
  0.0000000E+000
  0.0000000E+000
  0.0000000E+000
  0.0000000E+000
  0.0000000E+000
  0.0000000E+000
  0.0000000E+000
  0.0000000E+000
  0.0000000E+000
  0.0000000E+000
  0.0000000E+000
  0.0000000E+000
  0.0000000E+000
  0.0000000E+000
  0.0000000E+000
  0.0000000E+000
  0.0000000E+000
  0.0000000E+000
  0.0000000E+000
  0.0000000E+000
  0.0000000E+000
  0.0000000E+000
  0.0000000E+000
  0.0000000E+000
  0.0000000E+000
  0.0000000E+000
  0.0000000E+000
  0.0000000E+000
  0.0000000E+000
  0.0000000E+000
  0.0000000E+000
  0.0000000E+000
  0.0000000E+000
  0.0000000E+000
  0.0000000E+000
  0.0000000E+000
  0.0000000E+000
  0.0000000E+000
  0.0000000E+000
  0.0000000E+000
  0.0000000E+000
  0.0000000E+000
  0.0000000E+000
  0.0000000E+000
  0.0000000E+000
  0.0000000E+000
  0.0000000E+000
  0.0000000E+000
  0.0000000E+000
  0.0000000E+000
  0.0000000E+000
  0.0000000E+000
  0.0000000E+000
  0.0000000E+000
  0.0000000E+000
  0.0000000E+000
  0.0000000E+000
  0.0000000E+000
  0.0000000E+000
  0.0000000E+000
  0.0000000E+000
  0.0000000E+000
  0.0000000E+000
  0.0000000E+000
  0.0000000E+000
  0.0000000E+000
  0.0000000E+000
  0.0000000E+000
  0.0000000E+000
  0.0000000E+000
  0.0000000E+000
  0.0000000E+000
  0.0000000E+000
  0.0000000E+000
  0.0000000E+000
  0.0000000E+000
  0.0000000E+000
  0.0000000E+000
  0.0000000E+000
  0.0000000E+000
  0.0000000E+000
  0.0000000E+000
  0.0000000E+000
  0.0000000E+000
  0.0000000E+000
  0.0000000E+000
  0.0000000E+000
  0.0000000E+000
  0.0000000E+000
  0.0000000E+000
  0.0000000E+000
  0.0000000E+000
  0.0000000E+000
  0.0000000E+000
  0.0000000E+000
  0.0000000E+000
  0.0000000E+000
  0.0000000E+000
  0.0000000E+000
  0.0000000E+000
  0.0000000E+000
  0.0000000E+000
  0.0000000E+000
  0.0000000E+000
  0.0000000E+000
  0.0000000E+000
  0.0000000E+000
  0.0000000E+000
  0.0000000E+000
  0.0000000E+000
  0.0000000E+000
  0.0000000E+000
  0.0000000E+000
  0.0000000E+000
  0.0000000E+000
  0.0000000E+000
  0.0000000E+000
  0.0000000E+000
  0.0000000E+000
  0.0000000E+000
  0.0000000E+000
  0.0000000E+000
  0.0000000E+000
  0.0000000E+000
  0.0000000E+000
  0.0000000E+000
  0.0000000E+000
  0.0000000E+000
  0.0000000E+000
  0.0000000E+000
  0.0000000E+000
  0.0000000E+000
  0.0000000E+000
  0.0000000E+000
  0.0000000E+000
  0.0000000E+000
  0.0000000E+000
  0.0000000E+000
  0.0000000E+000
  0.0000000E+000
  0.0000000E+000
  0.0000000E+000
  0.0000000E+000
  0.0000000E+000
  0.0000000E+000
  0.0000000E+000
  0.0000000E+000
  0.0000000E+000
  0.0000000E+000
  0.0000000E+000
  0.0000000E+000
  0.0000000E+000
  0.0000000E+000
  0.0000000E+000
  0.0000000E+000
  0.0000000E+000
  0.0000000E+000
  0.0000000E+000
  0.0000000E+000
  0.0000000E+000
  0.0000000E+000
  0.0000000E+000
  0.0000000E+000
  0.0000000E+000
  0.0000000E+000
  0.0000000E+000
  0.0000000E+000
  0.0000000E+000
  0.0000000E+000
  0.0000000E+000
  0.0000000E+000
  0.0000000E+000
  0.0000000E+000
  0.0000000E+000
  0.0000000E+000
  0.0000000E+000
  0.0000000E+000
  0.0000000E+000
  0.0000000E+000
  0.0000000E+000
  0.0000000E+000
  0.0000000E+000
  0.0000000E+000
  0.0000000E+000
  0.0000000E+000
  0.0000000E+000
  0.0000000E+000
  0.0000000E+000
  0.0000000E+000
  0.0000000E+000
  0.0000000E+000
  0.0000000E+000
  0.0000000E+000
  0.0000000E+000
  0.0000000E+000
  0.0000000E+000
  0.0000000E+000
  0.0000000E+000
  0.0000000E+000
  0.0000000E+000
  0.0000000E+000
  0.0000000E+000
  0.0000000E+000
  0.0000000E+000
  0.0000000E+000
  0.0000000E+000
  0.0000000E+000
  0.0000000E+000
  0.0000000E+000
  0.0000000E+000
  0.0000000E+000
  0.0000000E+000
  0.0000000E+000
  0.0000000E+000
  0.0000000E+000
  0.0000000E+000
  0.0000000E+000
  0.0000000E+000
  0.0000000E+000
  0.0000000E+000
  0.0000000E+000
  0.0000000E+000
  0.0000000E+000
  0.0000000E+000
  0.0000000E+000
  0.0000000E+000
  0.0000000E+000
  0.0000000E+000
  0.0000000E+000
  0.0000000E+000
  0.0000000E+000
  0.0000000E+000
  0.0000000E+000
  0.0000000E+000
  0.0000000E+000
  0.0000000E+000
  0.0000000E+000
  0.0000000E+000
  0.0000000E+000
  0.0000000E+000
  0.0000000E+000
  0.0000000E+000
  0.0000000E+000
  0.0000000E+000
  0.0000000E+000
  0.0000000E+000
  0.0000000E+000
  0.0000000E+000
  0.0000000E+000
  0.0000000E+000
  0.0000000E+000
  0.0000000E+000
  0.0000000E+000
  0.0000000E+000
  0.0000000E+000
  0.0000000E+000
  0.0000000E+000
  0.0000000E+000
  0.0000000E+000
  0.0000000E+000
  0.0000000E+000
  0.0000000E+000
  0.0000000E+000
  0.0000000E+000
  0.0000000E+000
  0.0000000E+000
  0.0000000E+000
  0.0000000E+000
  0.0000000E+000
  0.0000000E+000
  0.0000000E+000
  0.0000000E+000
  0.0000000E+000
  0.0000000E+000
  0.0000000E+000
  0.0000000E+000
  0.0000000E+000
  0.0000000E+000
  0.0000000E+000
  0.0000000E+000
  0.0000000E+000
  0.0000000E+000
  0.0000000E+000
  0.0000000E+000
  0.0000000E+000
  0.0000000E+000
  0.0000000E+000
  0.0000000E+000
  0.0000000E+000
  0.0000000E+000
  0.0000000E+000
  0.0000000E+000
  0.0000000E+000
  0.0000000E+000
  0.0000000E+000
  0.0000000E+000
  0.0000000E+000
  0.0000000E+000
  0.0000000E+000
  0.0000000E+000
  0.0000000E+000
  0.0000000E+000
  0.0000000E+000
  0.0000000E+000
  0.0000000E+000
  0.0000000E+000
  0.0000000E+000
  0.0000000E+000
  0.0000000E+000
  0.0000000E+000
  0.0000000E+000
  0.0000000E+000
  0.0000000E+000
  0.0000000E+000
  0.0000000E+000
  0.0000000E+000
  0.0000000E+000
  0.0000000E+000
  0.0000000E+000
  0.0000000E+000
  0.0000000E+000
  0.0000000E+000
  0.0000000E+000
  0.0000000E+000
  0.0000000E+000
  0.0000000E+000
  0.0000000E+000
  0.0000000E+000
  0.0000000E+000
  0.0000000E+000
  0.0000000E+000
  0.0000000E+000
  0.0000000E+000
  0.0000000E+000
  0.0000000E+000
  0.0000000E+000
  0.0000000E+000
  0.0000000E+000
  0.0000000E+000
  0.0000000E+000
  0.0000000E+000
  0.0000000E+000
  0.0000000E+000
  0.0000000E+000
  0.0000000E+000
  0.0000000E+000
  0.0000000E+000
  0.0000000E+000
  0.0000000E+000
  0.0000000E+000
  0.0000000E+000
  0.0000000E+000
  0.0000000E+000
  0.0000000E+000
  0.0000000E+000
  0.0000000E+000
  0.0000000E+000
  0.0000000E+000
  0.0000000E+000
  0.0000000E+000
  0.0000000E+000
  0.0000000E+000
  0.0000000E+000
  0.0000000E+000
  0.0000000E+000
  0.0000000E+000
  0.0000000E+000
  0.0000000E+000
  0.0000000E+000
  0.0000000E+000
  0.0000000E+000
  0.0000000E+000
  0.0000000E+000
  0.0000000E+000
  0.0000000E+000
  0.0000000E+000
  0.0000000E+000
  0.0000000E+000
  0.0000000E+000
  0.0000000E+000
  0.0000000E+000
  0.0000000E+000
  0.0000000E+000
  0.0000000E+000
  0.0000000E+000
  0.0000000E+000
  0.0000000E+000
  0.0000000E+000
  0.0000000E+000
  0.0000000E+000
  0.0000000E+000
  0.0000000E+000
  0.0000000E+000
  0.0000000E+000
  0.0000000E+000
  0.0000000E+000
  0.0000000E+000
  0.0000000E+000
  0.0000000E+000
  0.0000000E+000
  0.0000000E+000
  0.0000000E+000
  0.0000000E+000
  0.0000000E+000
  0.0000000E+000
  0.0000000E+000
  0.0000000E+000
  0.0000000E+000
  0.0000000E+000
  0.0000000E+000
  0.0000000E+000
  0.0000000E+000
  0.0000000E+000
  0.0000000E+000
  0.0000000E+000
  0.0000000E+000
  0.0000000E+000
  0.0000000E+000
  0.0000000E+000
  0.0000000E+000
  0.0000000E+000
  0.0000000E+000
  0.0000000E+000
  0.0000000E+000
  0.0000000E+000
  0.0000000E+000
  0.0000000E+000
  0.0000000E+000
  0.0000000E+000
  0.0000000E+000
  0.0000000E+000
  0.0000000E+000
  0.0000000E+000
  0.0000000E+000
  0.0000000E+000
  0.0000000E+000
  0.0000000E+000
  0.0000000E+000
  0.0000000E+000
  0.0000000E+000
  0.0000000E+000
  0.0000000E+000
  0.0000000E+000
  0.0000000E+000
  0.0000000E+000
  0.0000000E+000
  0.0000000E+000
  0.0000000E+000
  0.0000000E+000
  0.0000000E+000
  0.0000000E+000
  0.0000000E+000
  0.0000000E+000
  0.0000000E+000
  0.0000000E+000
  0.0000000E+000
  0.0000000E+000
  0.0000000E+000
  0.0000000E+000
  0.0000000E+000
  0.0000000E+000
  0.0000000E+000
  0.0000000E+000
  0.0000000E+000
  0.0000000E+000
  0.0000000E+000
  0.0000000E+000
  0.0000000E+000
  0.0000000E+000
  0.0000000E+000
  0.0000000E+000
  0.0000000E+000
  0.0000000E+000
  0.0000000E+000
  0.0000000E+000
  0.0000000E+000
  0.0000000E+000
  0.0000000E+000
  0.0000000E+000
  0.0000000E+000
  0.0000000E+000
  0.0000000E+000
  0.0000000E+000
  0.0000000E+000
  0.0000000E+000
  0.0000000E+000
  0.0000000E+000
  0.0000000E+000
  0.0000000E+000
  0.0000000E+000
  0.0000000E+000
  0.0000000E+000
  0.0000000E+000
  0.0000000E+000
  0.0000000E+000
  0.0000000E+000
  0.0000000E+000
  0.0000000E+000
  0.0000000E+000
  0.0000000E+000
  0.0000000E+000
  0.0000000E+000
  0.0000000E+000
  0.0000000E+000
  0.0000000E+000
  0.0000000E+000
  0.0000000E+000
  0.0000000E+000
  0.0000000E+000
  0.0000000E+000
  0.0000000E+000
  0.0000000E+000
  0.0000000E+000
  0.0000000E+000
  0.0000000E+000
  0.0000000E+000
  0.0000000E+000
  0.0000000E+000
  0.0000000E+000
  0.0000000E+000
  0.0000000E+000
  0.0000000E+000
  0.0000000E+000
  0.0000000E+000
  0.0000000E+000
  0.0000000E+000
  0.0000000E+000
  0.0000000E+000
  0.0000000E+000
  0.0000000E+000
  0.0000000E+000
  0.0000000E+000
  0.0000000E+000
  0.0000000E+000
  0.0000000E+000
  0.0000000E+000
  0.0000000E+000
  0.0000000E+000
  0.0000000E+000
  0.0000000E+000
  0.0000000E+000
  0.0000000E+000
  0.0000000E+000
  0.0000000E+000
  0.0000000E+000
  0.0000000E+000
  0.0000000E+000
  0.0000000E+000
  0.0000000E+000
  0.0000000E+000
  0.0000000E+000
  0.0000000E+000
  0.0000000E+000
  0.0000000E+000
  0.0000000E+000
  0.0000000E+000
  0.0000000E+000
  0.0000000E+000
  0.0000000E+000
  0.0000000E+000
  0.0000000E+000
  0.0000000E+000
  0.0000000E+000
  0.0000000E+000
  0.0000000E+000
  0.0000000E+000
  0.0000000E+000
  0.0000000E+000
  0.0000000E+000
  0.0000000E+000
  0.0000000E+000
  0.0000000E+000
  0.0000000E+000
  0.0000000E+000
  0.0000000E+000
  0.0000000E+000
  0.0000000E+000
  0.0000000E+000
  0.0000000E+000
  0.0000000E+000
  0.0000000E+000
  0.0000000E+000
  0.0000000E+000
  0.0000000E+000
  0.0000000E+000
  0.0000000E+000
  0.0000000E+000
  0.0000000E+000
  0.0000000E+000
  0.0000000E+000
  0.0000000E+000
  0.0000000E+000
  0.0000000E+000
  0.0000000E+000
  0.0000000E+000
  0.0000000E+000
  0.0000000E+000
  0.0000000E+000
  0.0000000E+000
  0.0000000E+000
  0.0000000E+000
  0.0000000E+000
  0.0000000E+000
  0.0000000E+000
  0.0000000E+000
  0.0000000E+000
  0.0000000E+000
  0.0000000E+000
  0.0000000E+000
  0.0000000E+000
  0.0000000E+000
  0.0000000E+000
  0.0000000E+000
  0.0000000E+000
  0.0000000E+000
  0.0000000E+000
  0.0000000E+000
  0.0000000E+000
  0.0000000E+000
  0.0000000E+000
  0.0000000E+000
  0.0000000E+000
  0.0000000E+000
  0.0000000E+000
  0.0000000E+000
  0.0000000E+000
  0.0000000E+000
  0.0000000E+000
  0.0000000E+000
  0.0000000E+000
  0.0000000E+000
  0.0000000E+000
  0.0000000E+000
  0.0000000E+000
  0.0000000E+000
  0.0000000E+000
  0.0000000E+000
  0.0000000E+000
  0.0000000E+000
  0.0000000E+000
  0.0000000E+000
  0.0000000E+000
  0.0000000E+000
  0.0000000E+000
  0.0000000E+000
  0.0000000E+000
  0.0000000E+000
  0.0000000E+000
  0.0000000E+000
  0.0000000E+000
  0.0000000E+000
  0.0000000E+000
  0.0000000E+000
  0.0000000E+000
  0.0000000E+000
  0.0000000E+000
  0.0000000E+000
  0.0000000E+000
  0.0000000E+000
  0.0000000E+000
  0.0000000E+000
  0.0000000E+000
  0.0000000E+000
  0.0000000E+000
  0.0000000E+000
  0.0000000E+000
  0.0000000E+000
  0.0000000E+000
  0.0000000E+000
  0.0000000E+000
  0.0000000E+000
  0.0000000E+000
  0.0000000E+000
  0.0000000E+000
  0.0000000E+000
  0.0000000E+000
  0.0000000E+000
  0.0000000E+000
  0.0000000E+000
  0.0000000E+000
  0.0000000E+000
  0.0000000E+000
  0.0000000E+000
  0.0000000E+000
  0.0000000E+000
  0.0000000E+000
  0.0000000E+000
  0.0000000E+000
  0.0000000E+000
  0.0000000E+000
  0.0000000E+000
  0.0000000E+000
  0.0000000E+000
  0.0000000E+000
  0.0000000E+000
  0.0000000E+000
  0.0000000E+000
  0.0000000E+000
  0.0000000E+000
  0.0000000E+000
  0.0000000E+000
  0.0000000E+000
  0.0000000E+000
  0.0000000E+000
  0.0000000E+000
  0.0000000E+000
  0.0000000E+000
  0.0000000E+000
  0.0000000E+000
  0.0000000E+000
  0.0000000E+000
  0.0000000E+000
  0.0000000E+000
  0.0000000E+000
  0.0000000E+000
  0.0000000E+000
  0.0000000E+000
  0.0000000E+000
  0.0000000E+000
  0.0000000E+000
  0.0000000E+000
  0.0000000E+000
  0.0000000E+000
  0.0000000E+000
  0.0000000E+000
  0.0000000E+000
  0.0000000E+000
  0.0000000E+000
  0.0000000E+000
  0.0000000E+000
  0.0000000E+000
  0.0000000E+000
  0.0000000E+000
  0.0000000E+000
  0.0000000E+000
  0.0000000E+000
  0.0000000E+000
  0.0000000E+000
  0.0000000E+000
  0.0000000E+000
  0.0000000E+000
  0.0000000E+000
  0.0000000E+000
  0.0000000E+000
  0.0000000E+000
  0.0000000E+000
  0.0000000E+000
  0.0000000E+000
  0.0000000E+000
  0.0000000E+000
  0.0000000E+000
  0.0000000E+000
  0.0000000E+000
  0.0000000E+000
  0.0000000E+000
  0.0000000E+000
  0.0000000E+000
  0.0000000E+000
  0.0000000E+000
  0.0000000E+000
  0.0000000E+000
  0.0000000E+000
  0.0000000E+000
  0.0000000E+000
  0.0000000E+000
  0.0000000E+000
  0.0000000E+000
  0.0000000E+000
  0.0000000E+000
  0.0000000E+000
  0.0000000E+000
  0.0000000E+000
  0.0000000E+000
  0.0000000E+000
  0.0000000E+000
  0.0000000E+000
  0.0000000E+000
  0.0000000E+000
  0.0000000E+000
  0.0000000E+000
  0.0000000E+000
  0.0000000E+000
  0.0000000E+000
  0.0000000E+000
  0.0000000E+000
  0.0000000E+000
  0.0000000E+000
  0.0000000E+000
  0.0000000E+000
  0.0000000E+000
  0.0000000E+000
  0.0000000E+000
  0.0000000E+000
  0.0000000E+000
  0.0000000E+000
  0.0000000E+000
  0.0000000E+000
  0.0000000E+000
  0.0000000E+000
  0.0000000E+000
  0.0000000E+000
  0.0000000E+000
  0.0000000E+000
  0.0000000E+000
  0.0000000E+000
  0.0000000E+000
  0.0000000E+000
  0.0000000E+000
  0.0000000E+000
  0.0000000E+000
  0.0000000E+000
  0.0000000E+000
  0.0000000E+000
  0.0000000E+000
  0.0000000E+000
  0.0000000E+000
  0.0000000E+000
  0.0000000E+000
  0.0000000E+000
  0.0000000E+000
  0.0000000E+000
  0.0000000E+000
  0.0000000E+000
  0.0000000E+000
  0.0000000E+000
  0.0000000E+000
  0.0000000E+000
  0.0000000E+000
  0.0000000E+000
  0.0000000E+000
  0.0000000E+000
  0.0000000E+000
  0.0000000E+000
  0.0000000E+000
  0.0000000E+000
  0.0000000E+000
  0.0000000E+000
  0.0000000E+000
  0.0000000E+000
  0.0000000E+000
  0.0000000E+000
  0.0000000E+000
  0.0000000E+000
  0.0000000E+000
  0.0000000E+000
  0.0000000E+000
  0.0000000E+000
  0.0000000E+000
  0.0000000E+000
  0.0000000E+000
  0.0000000E+000
  0.0000000E+000
  0.0000000E+000
  0.0000000E+000
  0.0000000E+000
  0.0000000E+000
  0.0000000E+000
  0.0000000E+000
  0.0000000E+000
  0.0000000E+000
  0.0000000E+000
  0.0000000E+000
  0.0000000E+000
  0.0000000E+000
  0.0000000E+000
  0.0000000E+000
  0.0000000E+000
  0.0000000E+000
  0.0000000E+000
  0.0000000E+000
  0.0000000E+000
  0.0000000E+000
  0.0000000E+000
  0.0000000E+000
  0.0000000E+000
  0.0000000E+000
  0.0000000E+000
  0.0000000E+000
  0.0000000E+000
  0.0000000E+000
  0.0000000E+000
  0.0000000E+000
  0.0000000E+000
  0.0000000E+000
  0.0000000E+000
  0.0000000E+000
  0.0000000E+000
  0.0000000E+000
  0.0000000E+000
  0.0000000E+000
  0.0000000E+000
  0.0000000E+000
  0.0000000E+000
  0.0000000E+000
  0.0000000E+000
  0.0000000E+000
  0.0000000E+000
  0.0000000E+000
  0.0000000E+000
  0.0000000E+000
  0.0000000E+000
  0.0000000E+000
  0.0000000E+000
  0.0000000E+000
  0.0000000E+000
  0.0000000E+000
  0.0000000E+000
  0.0000000E+000
  0.0000000E+000
  0.0000000E+000
  0.0000000E+000
  0.0000000E+000
  0.0000000E+000
  0.0000000E+000
  0.0000000E+000
  0.0000000E+000
  0.0000000E+000
  0.0000000E+000
  0.0000000E+000
  0.0000000E+000
  0.0000000E+000
  0.0000000E+000
  0.0000000E+000
  0.0000000E+000
  0.0000000E+000
  0.0000000E+000
  0.0000000E+000
  0.0000000E+000
  0.0000000E+000
  0.0000000E+000
  0.0000000E+000
  0.0000000E+000
  0.0000000E+000
  0.0000000E+000
  0.0000000E+000
  0.0000000E+000
  0.0000000E+000
  0.0000000E+000
  0.0000000E+000
  0.0000000E+000
  0.0000000E+000
  0.0000000E+000
  0.0000000E+000
  0.0000000E+000
  0.0000000E+000
  0.0000000E+000
  0.0000000E+000
  0.0000000E+000
  0.0000000E+000
  0.0000000E+000
  0.0000000E+000
  0.0000000E+000
  0.0000000E+000
  0.0000000E+000
  0.0000000E+000
  0.0000000E+000
  0.0000000E+000
  0.0000000E+000
  0.0000000E+000
  0.0000000E+000
  0.0000000E+000
  0.0000000E+000
  0.0000000E+000
  0.0000000E+000
  0.0000000E+000
  0.0000000E+000
  0.0000000E+000
  0.0000000E+000
  0.0000000E+000
  0.0000000E+000
  0.0000000E+000
  0.0000000E+000
  0.0000000E+000
  0.0000000E+000
  0.0000000E+000
  0.0000000E+000
  0.0000000E+000
  0.0000000E+000
  0.0000000E+000
  0.0000000E+000
  0.0000000E+000
  0.0000000E+000
  0.0000000E+000
  0.0000000E+000
  0.0000000E+000
  0.0000000E+000
  0.0000000E+000
  0.0000000E+000
  0.0000000E+000
  0.0000000E+000
  0.0000000E+000
  0.0000000E+000
  0.0000000E+000
  0.0000000E+000
  0.0000000E+000
  0.0000000E+000
  0.0000000E+000
  0.0000000E+000
  0.0000000E+000
  0.0000000E+000
  0.0000000E+000
  0.0000000E+000
  0.0000000E+000
  0.0000000E+000
  0.0000000E+000
  0.0000000E+000
  0.0000000E+000
  0.0000000E+000
  0.0000000E+000
  0.0000000E+000
  0.0000000E+000
  0.0000000E+000
  0.0000000E+000
  0.0000000E+000
  0.0000000E+000
  0.0000000E+000
  0.0000000E+000
  0.0000000E+000
  0.0000000E+000
  0.0000000E+000
  0.0000000E+000
  0.0000000E+000
  0.0000000E+000
  0.0000000E+000
  0.0000000E+000
  0.0000000E+000
  0.0000000E+000
  0.0000000E+000
  0.0000000E+000
  0.0000000E+000
  0.0000000E+000
  0.0000000E+000
  0.0000000E+000
  0.0000000E+000
  0.0000000E+000
  0.0000000E+000
  0.0000000E+000
  0.0000000E+000
  0.0000000E+000
  0.0000000E+000
  0.0000000E+000
  0.0000000E+000
  0.0000000E+000
  0.0000000E+000
  0.0000000E+000
  0.0000000E+000
  0.0000000E+000
  0.0000000E+000
  0.0000000E+000
  0.0000000E+000
  0.0000000E+000
  0.0000000E+000
  0.0000000E+000
  0.0000000E+000
  0.0000000E+000
  0.0000000E+000
  0.0000000E+000
  0.0000000E+000
  0.0000000E+000
  0.0000000E+000
  0.0000000E+000
  0.0000000E+000
  0.0000000E+000
  0.0000000E+000
  0.0000000E+000
  0.0000000E+000
  0.0000000E+000
  0.0000000E+000
  0.0000000E+000
  0.0000000E+000
  0.0000000E+000
  0.0000000E+000
  0.0000000E+000
  0.0000000E+000
  0.0000000E+000
  0.0000000E+000
  0.0000000E+000
  0.0000000E+000
  0.0000000E+000
  0.0000000E+000
  0.0000000E+000
  0.0000000E+000
  0.0000000E+000
  0.0000000E+000
  0.0000000E+000
  0.0000000E+000
  0.0000000E+000
  0.0000000E+000
  0.0000000E+000
  0.0000000E+000
  0.0000000E+000
  0.0000000E+000
  0.0000000E+000
  0.0000000E+000
  0.0000000E+000
  0.0000000E+000
  0.0000000E+000
  0.0000000E+000
  0.0000000E+000
  0.0000000E+000
  0.0000000E+000
  0.0000000E+000
  0.0000000E+000
  0.0000000E+000
  0.0000000E+000
  0.0000000E+000
  0.0000000E+000
  0.0000000E+000
  0.0000000E+000
  0.0000000E+000
  0.0000000E+000
  0.0000000E+000
  0.0000000E+000
  0.0000000E+000
  0.0000000E+000
  0.0000000E+000
  0.0000000E+000
  0.0000000E+000
  0.0000000E+000
  0.0000000E+000
  0.0000000E+000
  0.0000000E+000
  0.0000000E+000
  0.0000000E+000
  0.0000000E+000
  0.0000000E+000
  0.0000000E+000
  0.0000000E+000
  0.0000000E+000
  0.0000000E+000
  0.0000000E+000
  0.0000000E+000
  0.0000000E+000
  0.0000000E+000
  0.0000000E+000
  0.0000000E+000
  0.0000000E+000
  0.0000000E+000
  0.0000000E+000
  0.0000000E+000
  0.0000000E+000
  0.0000000E+000
  0.0000000E+000
  0.0000000E+000
  0.0000000E+000
  0.0000000E+000
  0.0000000E+000
  0.0000000E+000
  0.0000000E+000
  0.0000000E+000
  0.0000000E+000
  0.0000000E+000
  0.0000000E+000
  0.0000000E+000
  0.0000000E+000
  0.0000000E+000
  0.0000000E+000
  0.0000000E+000
  0.0000000E+000
  0.0000000E+000
  0.0000000E+000
  0.0000000E+000
  0.0000000E+000
  0.0000000E+000
  0.0000000E+000
  0.0000000E+000
  0.0000000E+000
  0.0000000E+000
  0.0000000E+000
  0.0000000E+000
  0.0000000E+000
  0.0000000E+000
  0.0000000E+000
  0.0000000E+000
  0.0000000E+000
  0.0000000E+000
  0.0000000E+000
  0.0000000E+000
  0.0000000E+000
  0.0000000E+000
  0.0000000E+000
  0.0000000E+000
  0.0000000E+000
  0.0000000E+000
  0.0000000E+000
  0.0000000E+000
  0.0000000E+000
  0.0000000E+000
  0.0000000E+000
  0.0000000E+000
  0.0000000E+000
  0.0000000E+000
  0.0000000E+000
  0.0000000E+000
  0.0000000E+000
  0.0000000E+000
  0.0000000E+000
  0.0000000E+000
  0.0000000E+000
  0.0000000E+000
  0.0000000E+000
  0.0000000E+000
  0.0000000E+000
  0.0000000E+000
  0.0000000E+000
  0.0000000E+000
  0.0000000E+000
  0.0000000E+000
  0.0000000E+000
  0.0000000E+000
  0.0000000E+000
  0.0000000E+000
  0.0000000E+000
  0.0000000E+000
  0.0000000E+000
  0.0000000E+000
  0.0000000E+000
  0.0000000E+000
  0.0000000E+000
  0.0000000E+000
  0.0000000E+000
  0.0000000E+000
  0.0000000E+000
  0.0000000E+000
  0.0000000E+000
  0.0000000E+000
  0.0000000E+000
  0.0000000E+000
  0.0000000E+000
  0.0000000E+000
  0.0000000E+000
  0.0000000E+000
  0.0000000E+000
  0.0000000E+000
  0.0000000E+000
  0.0000000E+000
  0.0000000E+000
  0.0000000E+000
  0.0000000E+000
  0.0000000E+000
  0.0000000E+000
  0.0000000E+000
  0.0000000E+000
  0.0000000E+000
  0.0000000E+000
  0.0000000E+000
  0.0000000E+000
  0.0000000E+000
  0.0000000E+000
  0.0000000E+000
  0.0000000E+000
  0.0000000E+000
  0.0000000E+000
  0.0000000E+000
  0.0000000E+000
  0.0000000E+000
  0.0000000E+000
  0.0000000E+000
  0.0000000E+000
  0.0000000E+000
  0.0000000E+000
  0.0000000E+000
  0.0000000E+000
  0.0000000E+000
  0.0000000E+000
  0.0000000E+000
  0.0000000E+000
  0.0000000E+000
  0.0000000E+000
  0.0000000E+000
  0.0000000E+000
  0.0000000E+000
  0.0000000E+000
  0.0000000E+000
  0.0000000E+000
  0.0000000E+000
  0.0000000E+000
  0.0000000E+000
  0.0000000E+000
  0.0000000E+000
  0.0000000E+000
  0.0000000E+000
  0.0000000E+000
  0.0000000E+000
  0.0000000E+000
  0.0000000E+000
  0.0000000E+000
  0.0000000E+000
  0.0000000E+000
  0.0000000E+000
  0.0000000E+000
  0.0000000E+000
  0.0000000E+000
  0.0000000E+000
  0.0000000E+000
  0.0000000E+000
  0.0000000E+000
  0.0000000E+000
  0.0000000E+000
  0.0000000E+000
  0.0000000E+000
  0.0000000E+000
  0.0000000E+000
  0.0000000E+000
  0.0000000E+000
  0.0000000E+000
  0.0000000E+000
  0.0000000E+000
  0.0000000E+000
  0.0000000E+000
  0.0000000E+000
  0.0000000E+000
  0.0000000E+000
  0.0000000E+000
  0.0000000E+000
  0.0000000E+000
  0.0000000E+000
  0.0000000E+000
  0.0000000E+000
  0.0000000E+000
  0.0000000E+000
  0.0000000E+000
  0.0000000E+000
  0.0000000E+000
  0.0000000E+000
  0.0000000E+000
  0.0000000E+000
  0.0000000E+000
  0.0000000E+000
  0.0000000E+000
  0.0000000E+000
  0.0000000E+000
  0.0000000E+000
  0.0000000E+000
  0.0000000E+000
  0.0000000E+000
  0.0000000E+000
  0.0000000E+000
  0.0000000E+000
  0.0000000E+000
  0.0000000E+000
  0.0000000E+000
  0.0000000E+000
  0.0000000E+000
  0.0000000E+000
  0.0000000E+000
  0.0000000E+000
  0.0000000E+000
  0.0000000E+000
  0.0000000E+000
  0.0000000E+000
  0.0000000E+000
  0.0000000E+000
  0.0000000E+000
  0.0000000E+000
  0.0000000E+000
  0.0000000E+000
  0.0000000E+000
  0.0000000E+000
  0.0000000E+000
  0.0000000E+000
  0.0000000E+000
  0.0000000E+000
  0.0000000E+000
  0.0000000E+000
  0.0000000E+000
  0.0000000E+000
  0.0000000E+000
  0.0000000E+000
  0.0000000E+000
  0.0000000E+000
  0.0000000E+000
  0.0000000E+000
  0.0000000E+000
  0.0000000E+000
  0.0000000E+000
  0.0000000E+000
  0.0000000E+000
  0.0000000E+000
  0.0000000E+000
  0.0000000E+000
  0.0000000E+000
  0.0000000E+000
  0.0000000E+000
  0.0000000E+000
  0.0000000E+000
  0.0000000E+000
  0.0000000E+000
  0.0000000E+000
  0.0000000E+000
  0.0000000E+000
  0.0000000E+000
  0.0000000E+000
  0.0000000E+000
  0.0000000E+000
  0.0000000E+000
  0.0000000E+000
  0.0000000E+000
  0.0000000E+000
  0.0000000E+000
  0.0000000E+000
  0.0000000E+000
  0.0000000E+000
  0.0000000E+000
  0.0000000E+000
  0.0000000E+000
  0.0000000E+000
  0.0000000E+000
  0.0000000E+000
  0.0000000E+000
  0.0000000E+000
  0.0000000E+000
  0.0000000E+000
  0.0000000E+000
  0.0000000E+000
  0.0000000E+000
  0.0000000E+000
  0.0000000E+000
  0.0000000E+000
  0.0000000E+000
  0.0000000E+000
  0.0000000E+000
  0.0000000E+000
  0.0000000E+000
  0.0000000E+000
  0.0000000E+000
  0.0000000E+000
  0.0000000E+000
  0.0000000E+000
  0.0000000E+000
  0.0000000E+000
  0.0000000E+000
  0.0000000E+000
  0.0000000E+000
  0.0000000E+000
  0.0000000E+000
  0.0000000E+000
  0.0000000E+000
  0.0000000E+000
  0.0000000E+000
  0.0000000E+000
  0.0000000E+000
  0.0000000E+000
  0.0000000E+000
  0.0000000E+000
  0.0000000E+000
  0.0000000E+000
  0.0000000E+000
  0.0000000E+000
  0.0000000E+000
  0.0000000E+000
  0.0000000E+000
  0.0000000E+000
  0.0000000E+000
  0.0000000E+000
  0.0000000E+000
  0.0000000E+000
  0.0000000E+000
  0.0000000E+000
  0.0000000E+000
  0.0000000E+000
  0.0000000E+000
  0.0000000E+000
  0.0000000E+000
  0.0000000E+000
  0.0000000E+000
  0.0000000E+000
  0.0000000E+000
  0.0000000E+000
  0.0000000E+000
  0.0000000E+000
  0.0000000E+000
  0.0000000E+000
  0.0000000E+000
  0.0000000E+000
  0.0000000E+000
  0.0000000E+000
  0.0000000E+000
  0.0000000E+000
  0.0000000E+000
  0.0000000E+000
  0.0000000E+000
  0.0000000E+000
  0.0000000E+000
  0.0000000E+000
  0.0000000E+000
  0.0000000E+000
  0.0000000E+000
  0.0000000E+000
  0.0000000E+000
  0.0000000E+000
  0.0000000E+000
  0.0000000E+000
  0.0000000E+000
  0.0000000E+000
  0.0000000E+000
  0.0000000E+000
  0.0000000E+000
  0.0000000E+000
  0.0000000E+000
  0.0000000E+000
  0.0000000E+000
  0.0000000E+000
  0.0000000E+000
  0.0000000E+000
  0.0000000E+000
  0.0000000E+000
  0.0000000E+000
  0.0000000E+000
  0.0000000E+000
  0.0000000E+000
  0.0000000E+000
  0.0000000E+000
  0.0000000E+000
  0.0000000E+000
  0.0000000E+000
  0.0000000E+000
  0.0000000E+000
  0.0000000E+000
  0.0000000E+000
  0.0000000E+000
  0.0000000E+000
  0.0000000E+000
  0.0000000E+000
  0.0000000E+000
  0.0000000E+000
  0.0000000E+000
  0.0000000E+000
  0.0000000E+000
  0.0000000E+000
  0.0000000E+000
  0.0000000E+000
  0.0000000E+000
  0.0000000E+000
  0.0000000E+000
  0.0000000E+000
  0.0000000E+000
  0.0000000E+000
  0.0000000E+000
  0.0000000E+000
  0.0000000E+000
  0.0000000E+000
  0.0000000E+000
  0.0000000E+000
  0.0000000E+000
  0.0000000E+000
  0.0000000E+000
  0.0000000E+000
  0.0000000E+000
  0.0000000E+000
  0.0000000E+000
  0.0000000E+000
  0.0000000E+000
  0.0000000E+000
  0.0000000E+000
  0.0000000E+000
  0.0000000E+000
  0.0000000E+000
  0.0000000E+000
  0.0000000E+000
  0.0000000E+000
  0.0000000E+000
  0.0000000E+000
  0.0000000E+000
  0.0000000E+000
  0.0000000E+000
  0.0000000E+000
  0.0000000E+000
  0.0000000E+000
  0.0000000E+000
  0.0000000E+000
  0.0000000E+000
  0.0000000E+000
  0.0000000E+000
  0.0000000E+000
  0.0000000E+000
  0.0000000E+000
  0.0000000E+000
  0.0000000E+000
  0.0000000E+000
  0.0000000E+000
  0.0000000E+000
  0.0000000E+000
  0.0000000E+000
  0.0000000E+000
  0.0000000E+000
  0.0000000E+000
  0.0000000E+000
  0.0000000E+000
  0.0000000E+000
  0.0000000E+000
  0.0000000E+000
  0.0000000E+000
  0.0000000E+000
  0.0000000E+000
  0.0000000E+000
  0.0000000E+000
  0.0000000E+000
  0.0000000E+000
  0.0000000E+000
  0.0000000E+000
  0.0000000E+000
  0.0000000E+000
  0.0000000E+000
  0.0000000E+000
  0.0000000E+000
  0.0000000E+000
  0.0000000E+000
  0.0000000E+000
  0.0000000E+000
  0.0000000E+000
  0.0000000E+000
  0.0000000E+000
  0.0000000E+000
  0.0000000E+000
  0.0000000E+000
  0.0000000E+000
  0.0000000E+000
  0.0000000E+000
  0.0000000E+000
  0.0000000E+000
  0.0000000E+000
  0.0000000E+000
  0.0000000E+000
  0.0000000E+000
  0.0000000E+000
  0.0000000E+000
  0.0000000E+000
  0.0000000E+000
  0.0000000E+000
  0.0000000E+000
  0.0000000E+000
  0.0000000E+000
  0.0000000E+000
  0.0000000E+000
  0.0000000E+000
  0.0000000E+000
  0.0000000E+000
  0.0000000E+000
  0.0000000E+000
  0.0000000E+000
  0.0000000E+000
  0.0000000E+000
  0.0000000E+000
  0.0000000E+000
  0.0000000E+000
  0.0000000E+000
  0.0000000E+000
  0.0000000E+000
  0.0000000E+000
  0.0000000E+000
  0.0000000E+000
  0.0000000E+000
  0.0000000E+000
  0.0000000E+000
  0.0000000E+000
  0.0000000E+000
  0.0000000E+000
  0.0000000E+000
  0.0000000E+000
  0.0000000E+000
  0.0000000E+000
  0.0000000E+000
  0.0000000E+000
  0.0000000E+000
  0.0000000E+000
  0.0000000E+000
  0.0000000E+000
  0.0000000E+000
  0.0000000E+000
  0.0000000E+000
  0.0000000E+000
  0.0000000E+000
  0.0000000E+000
  0.0000000E+000
  0.0000000E+000
  0.0000000E+000
  0.0000000E+000
  0.0000000E+000
  0.0000000E+000
  0.0000000E+000
  0.0000000E+000
  0.0000000E+000
  0.0000000E+000
  0.0000000E+000
  0.0000000E+000
  0.0000000E+000
  0.0000000E+000
  0.0000000E+000
  0.0000000E+000
  0.0000000E+000
  0.0000000E+000
  0.0000000E+000
  0.0000000E+000
  0.0000000E+000
  0.0000000E+000
  0.0000000E+000
  0.0000000E+000
  0.0000000E+000
  0.0000000E+000
  0.0000000E+000
  0.0000000E+000
  0.0000000E+000
  0.0000000E+000
  0.0000000E+000
  0.0000000E+000
  0.0000000E+000
  0.0000000E+000
  0.0000000E+000
  0.0000000E+000
  0.0000000E+000
  0.0000000E+000
  0.0000000E+000
  0.0000000E+000
  0.0000000E+000
  0.0000000E+000
  0.0000000E+000
  0.0000000E+000
  0.0000000E+000
  0.0000000E+000
  0.0000000E+000
  0.0000000E+000
  0.0000000E+000
  0.0000000E+000
  0.0000000E+000
  0.0000000E+000
  0.0000000E+000
  0.0000000E+000
  0.0000000E+000
  0.0000000E+000
  0.0000000E+000
  0.0000000E+000
  0.0000000E+000
  0.0000000E+000
  0.0000000E+000
  0.0000000E+000
  0.0000000E+000
  0.0000000E+000
  0.0000000E+000
  0.0000000E+000
  0.0000000E+000
  0.0000000E+000
  0.0000000E+000
  0.0000000E+000
  0.0000000E+000
  0.0000000E+000
  0.0000000E+000
  0.0000000E+000
  0.0000000E+000
  0.0000000E+000
  0.0000000E+000
  0.0000000E+000
  0.0000000E+000
  0.0000000E+000
  0.0000000E+000
  0.0000000E+000
  0.0000000E+000
  0.0000000E+000
  0.0000000E+000
  0.0000000E+000
  0.0000000E+000
  0.0000000E+000
  0.0000000E+000
  0.0000000E+000
  0.0000000E+000
  0.0000000E+000
  0.0000000E+000
  0.0000000E+000
  0.0000000E+000
  0.0000000E+000
  0.0000000E+000
  0.0000000E+000
  0.0000000E+000
  0.0000000E+000
  0.0000000E+000
  0.0000000E+000
  0.0000000E+000
  0.0000000E+000
  0.0000000E+000
  0.0000000E+000
  0.0000000E+000
  0.0000000E+000
  0.0000000E+000
  0.0000000E+000
  0.0000000E+000
  0.0000000E+000
  0.0000000E+000
  0.0000000E+000
  0.0000000E+000
  0.0000000E+000
  0.0000000E+000
  0.0000000E+000
  0.0000000E+000
  0.0000000E+000
  0.0000000E+000
  0.0000000E+000
  0.0000000E+000
  0.0000000E+000
  0.0000000E+000
  0.0000000E+000
  0.0000000E+000
  0.0000000E+000
  0.0000000E+000
  0.0000000E+000
  0.0000000E+000
  0.0000000E+000
  0.0000000E+000
  0.0000000E+000
  0.0000000E+000
  0.0000000E+000
  0.0000000E+000
  0.0000000E+000
  0.0000000E+000
  0.0000000E+000
  0.0000000E+000
  0.0000000E+000
  0.0000000E+000
  0.0000000E+000
  0.0000000E+000
  0.0000000E+000
  0.0000000E+000
  0.0000000E+000
  0.0000000E+000
  0.0000000E+000
  0.0000000E+000
  0.0000000E+000
  0.0000000E+000
  0.0000000E+000
  0.0000000E+000
  0.0000000E+000
  0.0000000E+000
  0.0000000E+000
  0.0000000E+000
  0.0000000E+000
  0.0000000E+000
  0.0000000E+000
  0.0000000E+000
  0.0000000E+000
  0.0000000E+000
  0.0000000E+000
  0.0000000E+000
  0.0000000E+000
  0.0000000E+000
  0.0000000E+000
  0.0000000E+000
  0.0000000E+000
  0.0000000E+000
  0.0000000E+000
  0.0000000E+000
  0.0000000E+000
  0.0000000E+000
  0.0000000E+000
  0.0000000E+000
  0.0000000E+000
  0.0000000E+000
  0.0000000E+000
  0.0000000E+000
  0.0000000E+000
  0.0000000E+000
  0.0000000E+000
  0.0000000E+000
  0.0000000E+000
  0.0000000E+000
  0.0000000E+000
  0.0000000E+000
  0.0000000E+000
  0.0000000E+000
  0.0000000E+000
  0.0000000E+000
  0.0000000E+000
  0.0000000E+000
  0.0000000E+000
  0.0000000E+000
  0.0000000E+000
  0.0000000E+000
  0.0000000E+000
  0.0000000E+000
  0.0000000E+000
  0.0000000E+000
  0.0000000E+000
  0.0000000E+000
  0.0000000E+000
  0.0000000E+000
  0.0000000E+000
  0.0000000E+000
  0.0000000E+000
  0.0000000E+000
  0.0000000E+000
  0.0000000E+000
  0.0000000E+000
  0.0000000E+000
  0.0000000E+000
  0.0000000E+000
  0.0000000E+000
  0.0000000E+000
  0.0000000E+000
  0.0000000E+000
  0.0000000E+000
  0.0000000E+000
  0.0000000E+000
  0.0000000E+000
  0.0000000E+000
  0.0000000E+000
  0.0000000E+000
  0.0000000E+000
  0.0000000E+000
  0.0000000E+000
  0.0000000E+000
  0.0000000E+000
  0.0000000E+000
  0.0000000E+000
  0.0000000E+000
  0.0000000E+000
  0.0000000E+000
  0.0000000E+000
  0.0000000E+000
  0.0000000E+000
  0.0000000E+000
  0.0000000E+000
  0.0000000E+000
  0.0000000E+000
  0.0000000E+000
  0.0000000E+000
  0.0000000E+000
  0.0000000E+000
  0.0000000E+000
  0.0000000E+000
  0.0000000E+000
  0.0000000E+000
  0.0000000E+000
  0.0000000E+000
  0.0000000E+000
  0.0000000E+000
  0.0000000E+000
  0.0000000E+000
  0.0000000E+000
  0.0000000E+000
  0.0000000E+000
  0.0000000E+000
  0.0000000E+000
  0.0000000E+000
  0.0000000E+000
  0.0000000E+000
  0.0000000E+000
  0.0000000E+000
  0.0000000E+000
  0.0000000E+000
  0.0000000E+000
  0.0000000E+000
  0.0000000E+000
  0.0000000E+000
  0.0000000E+000
  0.0000000E+000
  0.0000000E+000
  0.0000000E+000
  0.0000000E+000
  0.0000000E+000
  0.0000000E+000
  0.0000000E+000
  0.0000000E+000
  0.0000000E+000
  0.0000000E+000
  0.0000000E+000
  0.0000000E+000
  0.0000000E+000
  0.0000000E+000
  0.0000000E+000
  0.0000000E+000
  0.0000000E+000
  0.0000000E+000
  0.0000000E+000
  0.0000000E+000
  0.0000000E+000
  0.0000000E+000
  0.0000000E+000
  0.0000000E+000
  0.0000000E+000
  0.0000000E+000
  0.0000000E+000
  0.0000000E+000
  0.0000000E+000
  0.0000000E+000
  0.0000000E+000
  0.0000000E+000
  0.0000000E+000
  0.0000000E+000
  0.0000000E+000
  0.0000000E+000
  0.0000000E+000
  0.0000000E+000
  0.0000000E+000
  0.0000000E+000
  0.0000000E+000
  0.0000000E+000
  0.0000000E+000
  0.0000000E+000
  0.0000000E+000
  0.0000000E+000
  0.0000000E+000
  0.0000000E+000
  0.0000000E+000
  0.0000000E+000
  0.0000000E+000
  0.0000000E+000
  0.0000000E+000
  0.0000000E+000
  0.0000000E+000
  0.0000000E+000
  0.0000000E+000
  0.0000000E+000
  0.0000000E+000
  0.0000000E+000
  0.0000000E+000
  0.0000000E+000
  0.0000000E+000
  0.0000000E+000
  0.0000000E+000
  0.0000000E+000
  0.0000000E+000
  0.0000000E+000
  0.0000000E+000
  0.0000000E+000
  0.0000000E+000
  0.0000000E+000
  0.0000000E+000
  0.0000000E+000
  0.0000000E+000
  0.0000000E+000
  0.0000000E+000
  0.0000000E+000
  0.0000000E+000
  0.0000000E+000
  0.0000000E+000
  0.0000000E+000
  0.0000000E+000
  0.0000000E+000
  0.0000000E+000
  0.0000000E+000
  0.0000000E+000
  0.0000000E+000
  0.0000000E+000
  0.0000000E+000
  0.0000000E+000
  0.0000000E+000
  0.0000000E+000
  0.0000000E+000
  0.0000000E+000
  0.0000000E+000
  0.0000000E+000
  0.0000000E+000
  0.0000000E+000
  0.0000000E+000
  0.0000000E+000
  0.0000000E+000
  0.0000000E+000
  0.0000000E+000
  0.0000000E+000
  0.0000000E+000
  0.0000000E+000
  0.0000000E+000
  0.0000000E+000
  0.0000000E+000
  0.0000000E+000
  0.0000000E+000
  0.0000000E+000
  0.0000000E+000
  0.0000000E+000
  0.0000000E+000
  0.0000000E+000
  0.0000000E+000
  0.0000000E+000
  0.0000000E+000
  0.0000000E+000
  0.0000000E+000
  0.0000000E+000
  0.0000000E+000
  0.0000000E+000
  0.0000000E+000
  0.0000000E+000
  0.0000000E+000
  0.0000000E+000
  0.0000000E+000
  0.0000000E+000
  0.0000000E+000
  0.0000000E+000
  0.0000000E+000
  0.0000000E+000
  0.0000000E+000
  0.0000000E+000
  0.0000000E+000
  0.0000000E+000
  0.0000000E+000
  0.0000000E+000
  0.0000000E+000
  0.0000000E+000
  0.0000000E+000
  0.0000000E+000
  0.0000000E+000
  0.0000000E+000
  0.0000000E+000
  0.0000000E+000
  0.0000000E+000
  0.0000000E+000
  0.0000000E+000
  0.0000000E+000
  0.0000000E+000
  0.0000000E+000
  0.0000000E+000
  0.0000000E+000
  0.0000000E+000
  0.0000000E+000
  0.0000000E+000
  0.0000000E+000
  0.0000000E+000
  0.0000000E+000
  0.0000000E+000
  0.0000000E+000
  0.0000000E+000
  0.0000000E+000
  0.0000000E+000
  0.0000000E+000
  0.0000000E+000
  0.0000000E+000
  0.0000000E+000
  0.0000000E+000
  0.0000000E+000
  0.0000000E+000
  0.0000000E+000
  0.0000000E+000
  0.0000000E+000
  0.0000000E+000
  0.0000000E+000
  0.0000000E+000
  0.0000000E+000
  0.0000000E+000
  0.0000000E+000
  0.0000000E+000
  0.0000000E+000
  0.0000000E+000
  0.0000000E+000
  0.0000000E+000
  0.0000000E+000
  0.0000000E+000
  0.0000000E+000
  0.0000000E+000
  0.0000000E+000
  0.0000000E+000
  0.0000000E+000
  0.0000000E+000
  0.0000000E+000
  0.0000000E+000
  0.0000000E+000
  0.0000000E+000
  0.0000000E+000
  0.0000000E+000
  0.0000000E+000
  0.0000000E+000
  0.0000000E+000
  0.0000000E+000
  0.0000000E+000
  0.0000000E+000
  0.0000000E+000
  0.0000000E+000
  0.0000000E+000
  0.0000000E+000
  0.0000000E+000
  0.0000000E+000
  0.0000000E+000
  0.0000000E+000
  0.0000000E+000
  0.0000000E+000
  0.0000000E+000
  0.0000000E+000
  0.0000000E+000
  0.0000000E+000
  0.0000000E+000
  0.0000000E+000
  0.0000000E+000
  0.0000000E+000
  0.0000000E+000
  0.0000000E+000
  0.0000000E+000
  0.0000000E+000
  0.0000000E+000
  0.0000000E+000
  0.0000000E+000
  0.0000000E+000
  0.0000000E+000
  0.0000000E+000
  0.0000000E+000
  0.0000000E+000
  0.0000000E+000
  0.0000000E+000
  0.0000000E+000
  0.0000000E+000
  0.0000000E+000
  0.0000000E+000
  0.0000000E+000
  0.0000000E+000
  0.0000000E+000
  0.0000000E+000
  0.0000000E+000
  0.0000000E+000
  0.0000000E+000
  0.0000000E+000
  0.0000000E+000
  0.0000000E+000
  0.0000000E+000
  0.0000000E+000
  0.0000000E+000
  0.0000000E+000
  0.0000000E+000
  0.0000000E+000
  0.0000000E+000
  0.0000000E+000
  0.0000000E+000
  0.0000000E+000
  0.0000000E+000
  0.0000000E+000
  0.0000000E+000
  0.0000000E+000
  0.0000000E+000
  0.0000000E+000
  0.0000000E+000
  0.0000000E+000
  0.0000000E+000
  0.0000000E+000
  0.0000000E+000
  0.0000000E+000
  0.0000000E+000
  0.0000000E+000
  0.0000000E+000
  0.0000000E+000
  0.0000000E+000
  0.0000000E+000
  0.0000000E+000
  0.0000000E+000
  0.0000000E+000
  0.0000000E+000
  0.0000000E+000
  0.0000000E+000
  0.0000000E+000
  0.0000000E+000
  0.0000000E+000
  0.0000000E+000
  0.0000000E+000
  0.0000000E+000
  0.0000000E+000
  0.0000000E+000
  0.0000000E+000
  0.0000000E+000
  0.0000000E+000
  0.0000000E+000
  0.0000000E+000
  0.0000000E+000
  0.0000000E+000
  0.0000000E+000
  0.0000000E+000
  0.0000000E+000
  0.0000000E+000
  0.0000000E+000
  0.0000000E+000
  0.0000000E+000
  0.0000000E+000
  0.0000000E+000
  0.0000000E+000
  0.0000000E+000
  0.0000000E+000
  0.0000000E+000
  0.0000000E+000
  0.0000000E+000
  0.0000000E+000
  0.0000000E+000
  0.0000000E+000
  0.0000000E+000
  0.0000000E+000
  0.0000000E+000
  0.0000000E+000
  0.0000000E+000
  0.0000000E+000
  0.0000000E+000
  0.0000000E+000
  0.0000000E+000
  0.0000000E+000
  0.0000000E+000
  0.0000000E+000
  0.0000000E+000
  0.0000000E+000
  0.0000000E+000
  0.0000000E+000
  0.0000000E+000
  0.0000000E+000
  0.0000000E+000
  0.0000000E+000
  0.0000000E+000
  0.0000000E+000
  0.0000000E+000
  0.0000000E+000
  0.0000000E+000
  0.0000000E+000
  0.0000000E+000
  0.0000000E+000
  0.0000000E+000
  0.0000000E+000
  0.0000000E+000
  0.0000000E+000
  0.0000000E+000
  0.0000000E+000
  0.0000000E+000
  0.0000000E+000
  0.0000000E+000
  0.0000000E+000
  0.0000000E+000
  0.0000000E+000
  0.0000000E+000
  0.0000000E+000
  0.0000000E+000
  0.0000000E+000
  0.0000000E+000
  0.0000000E+000
  0.0000000E+000
  0.0000000E+000
  0.0000000E+000
  0.0000000E+000
  0.0000000E+000
  0.0000000E+000
  0.0000000E+000
  0.0000000E+000
  0.0000000E+000
  0.0000000E+000
  0.0000000E+000
  0.0000000E+000
  0.0000000E+000
  0.0000000E+000
  0.0000000E+000
  0.0000000E+000
  0.0000000E+000
  0.0000000E+000
  0.0000000E+000
  0.0000000E+000
  0.0000000E+000
  0.0000000E+000
  0.0000000E+000
  0.0000000E+000
  0.0000000E+000
  0.0000000E+000
  0.0000000E+000
  0.0000000E+000
  0.0000000E+000
  0.0000000E+000
  0.0000000E+000
  0.0000000E+000
  0.0000000E+000
  0.0000000E+000
  0.0000000E+000
  0.0000000E+000
  0.0000000E+000
  0.0000000E+000
  0.0000000E+000
  0.0000000E+000
  0.0000000E+000
  0.0000000E+000
  0.0000000E+000
  0.0000000E+000
  0.0000000E+000
  0.0000000E+000
  0.0000000E+000
  0.0000000E+000
  0.0000000E+000
  0.0000000E+000
  0.0000000E+000
  0.0000000E+000
  0.0000000E+000
  0.0000000E+000
  0.0000000E+000
  0.0000000E+000
  0.0000000E+000
  0.0000000E+000
  0.0000000E+000
  0.0000000E+000
  0.0000000E+000
  0.0000000E+000
  0.0000000E+000
  0.0000000E+000
  0.0000000E+000
  0.0000000E+000
  0.0000000E+000
  0.0000000E+000
  0.0000000E+000
  0.0000000E+000
  0.0000000E+000
  0.0000000E+000
  0.0000000E+000
  0.0000000E+000
  0.0000000E+000
  0.0000000E+000
  0.0000000E+000
  0.0000000E+000
  0.0000000E+000
  0.0000000E+000
  0.0000000E+000
  0.0000000E+000
  0.0000000E+000
  0.0000000E+000
  0.0000000E+000
  0.0000000E+000
  0.0000000E+000
  0.0000000E+000
  0.0000000E+000
  0.0000000E+000
  0.0000000E+000
  0.0000000E+000
  0.0000000E+000
  0.0000000E+000
  0.0000000E+000
  0.0000000E+000
  0.0000000E+000
  0.0000000E+000
  0.0000000E+000
  0.0000000E+000
  0.0000000E+000
  0.0000000E+000
  0.0000000E+000
  0.0000000E+000
  0.0000000E+000
  0.0000000E+000
  0.0000000E+000
  0.0000000E+000
  0.0000000E+000
  0.0000000E+000
  0.0000000E+000
  0.0000000E+000
  0.0000000E+000
  0.0000000E+000
  0.0000000E+000
  0.0000000E+000
  0.0000000E+000
  0.0000000E+000
  0.0000000E+000
  0.0000000E+000
  0.0000000E+000
  0.0000000E+000
  0.0000000E+000
  0.0000000E+000
  0.0000000E+000
  0.0000000E+000
  0.0000000E+000
  0.0000000E+000
  0.0000000E+000
  0.0000000E+000
  0.0000000E+000
  0.0000000E+000
  0.0000000E+000
  0.0000000E+000
  0.0000000E+000
  0.0000000E+000
  0.0000000E+000
  0.0000000E+000
  0.0000000E+000
  0.0000000E+000
  0.0000000E+000
  0.0000000E+000
  0.0000000E+000
  0.0000000E+000
  0.0000000E+000
  0.0000000E+000
  0.0000000E+000
  0.0000000E+000
  0.0000000E+000
  0.0000000E+000
  0.0000000E+000
  0.0000000E+000
  0.0000000E+000
  0.0000000E+000
  0.0000000E+000
  0.0000000E+000
  0.0000000E+000
  0.0000000E+000
  0.0000000E+000
  0.0000000E+000
  0.0000000E+000
  0.0000000E+000
  0.0000000E+000
  0.0000000E+000
  0.0000000E+000
  0.0000000E+000
  0.0000000E+000
  0.0000000E+000
  0.0000000E+000
  0.0000000E+000
  0.0000000E+000
  0.0000000E+000
  0.0000000E+000
  0.0000000E+000
  0.0000000E+000
  0.0000000E+000
  0.0000000E+000
  0.0000000E+000
  0.0000000E+000
  0.0000000E+000
  0.0000000E+000
  0.0000000E+000
  0.0000000E+000
  0.0000000E+000
  0.0000000E+000
  0.0000000E+000
  0.0000000E+000
  0.0000000E+000
  0.0000000E+000
  0.0000000E+000
  0.0000000E+000
  0.0000000E+000
  0.0000000E+000
  0.0000000E+000
  0.0000000E+000
  0.0000000E+000
  0.0000000E+000
  0.0000000E+000
  0.0000000E+000
  0.0000000E+000
  0.0000000E+000
  0.0000000E+000
  0.0000000E+000
  0.0000000E+000
  0.0000000E+000
  0.0000000E+000
  0.0000000E+000
  0.0000000E+000
  0.0000000E+000
  0.0000000E+000
  0.0000000E+000
  0.0000000E+000
  0.0000000E+000
  0.0000000E+000
  0.0000000E+000
  0.0000000E+000
  0.0000000E+000
  0.0000000E+000
  0.0000000E+000
  0.0000000E+000
  0.0000000E+000
  0.0000000E+000
  0.0000000E+000
  0.0000000E+000
  0.0000000E+000
  0.0000000E+000
  0.0000000E+000
  0.0000000E+000
  0.0000000E+000
  0.0000000E+000
  0.0000000E+000
  0.0000000E+000
  0.0000000E+000
  0.0000000E+000
  0.0000000E+000
  0.0000000E+000
  0.0000000E+000
  0.0000000E+000
  0.0000000E+000
  0.0000000E+000
  0.0000000E+000
  0.0000000E+000
  0.0000000E+000
  0.0000000E+000
  0.0000000E+000
  0.0000000E+000
  0.0000000E+000
  0.0000000E+000
  0.0000000E+000
  0.0000000E+000
  0.0000000E+000
  0.0000000E+000
  0.0000000E+000
  0.0000000E+000
  0.0000000E+000
  0.0000000E+000
  0.0000000E+000
  0.0000000E+000
  0.0000000E+000
  0.0000000E+000
  0.0000000E+000
  0.0000000E+000
  0.0000000E+000
  0.0000000E+000
  0.0000000E+000
  0.0000000E+000
  0.0000000E+000
  0.0000000E+000
  0.0000000E+000
  0.0000000E+000
  0.0000000E+000
  0.0000000E+000
  0.0000000E+000
  0.0000000E+000
  0.0000000E+000
  0.0000000E+000
  0.0000000E+000
  0.0000000E+000
  0.0000000E+000
  0.0000000E+000
  0.0000000E+000
  0.0000000E+000
  0.0000000E+000
  0.0000000E+000
  0.0000000E+000
  0.0000000E+000
  0.0000000E+000
  0.0000000E+000
  0.0000000E+000
  0.0000000E+000
  0.0000000E+000
  0.0000000E+000
  0.0000000E+000
  0.0000000E+000
  0.0000000E+000
  0.0000000E+000
  0.0000000E+000
  0.0000000E+000
  0.0000000E+000
  0.0000000E+000
  0.0000000E+000
  0.0000000E+000
  0.0000000E+000
  0.0000000E+000
  0.0000000E+000
  0.0000000E+000
  0.0000000E+000
  0.0000000E+000
  0.0000000E+000
  0.0000000E+000
  0.0000000E+000
  0.0000000E+000
  0.0000000E+000
  0.0000000E+000
  0.0000000E+000
  0.0000000E+000
  0.0000000E+000
  0.0000000E+000
  0.0000000E+000
  0.0000000E+000
  0.0000000E+000
  0.0000000E+000
  0.0000000E+000
  0.0000000E+000
  0.0000000E+000
  0.0000000E+000
  0.0000000E+000
  0.0000000E+000
  0.0000000E+000
  0.0000000E+000
  0.0000000E+000
  0.0000000E+000
  0.0000000E+000
  0.0000000E+000
  0.0000000E+000
  0.0000000E+000
  0.0000000E+000
  0.0000000E+000
  0.0000000E+000
  0.0000000E+000
  0.0000000E+000
  0.0000000E+000
  0.0000000E+000
  0.0000000E+000
  0.0000000E+000
  0.0000000E+000
  0.0000000E+000
  0.0000000E+000
  0.0000000E+000
  0.0000000E+000
  0.0000000E+000
  0.0000000E+000
  0.0000000E+000
  0.0000000E+000
  0.0000000E+000
  0.0000000E+000
  0.0000000E+000
  0.0000000E+000
  0.0000000E+000
  0.0000000E+000
  0.0000000E+000
  0.0000000E+000
  0.0000000E+000
  0.0000000E+000
  0.0000000E+000
  0.0000000E+000
  0.0000000E+000
  0.0000000E+000
  0.0000000E+000
  0.0000000E+000
  0.0000000E+000
  0.0000000E+000
  0.0000000E+000
  0.0000000E+000
  0.0000000E+000
  0.0000000E+000
  0.0000000E+000
  0.0000000E+000
  0.0000000E+000
  0.0000000E+000
  0.0000000E+000
  0.0000000E+000
  0.0000000E+000
  0.0000000E+000
  0.0000000E+000
  0.0000000E+000
  0.0000000E+000
  0.0000000E+000
  0.0000000E+000
  0.0000000E+000
  0.0000000E+000
  0.0000000E+000
  0.0000000E+000
  0.0000000E+000
  0.0000000E+000
  0.0000000E+000
  0.0000000E+000
  0.0000000E+000
  0.0000000E+000
  0.0000000E+000
  0.0000000E+000
  0.0000000E+000
  0.0000000E+000
  0.0000000E+000
  0.0000000E+000
  0.0000000E+000
  0.0000000E+000
  0.0000000E+000
  0.0000000E+000
  0.0000000E+000
  0.0000000E+000
  0.0000000E+000
  0.0000000E+000
  0.0000000E+000
  0.0000000E+000
  0.0000000E+000
  0.0000000E+000
  0.0000000E+000
  0.0000000E+000
  0.0000000E+000
  0.0000000E+000
  0.0000000E+000
  0.0000000E+000
  0.0000000E+000
  0.0000000E+000
  0.0000000E+000
  0.0000000E+000
  0.0000000E+000
  0.0000000E+000
  0.0000000E+000
  0.0000000E+000
  0.0000000E+000
  0.0000000E+000
  0.0000000E+000
  0.0000000E+000
  0.0000000E+000
  0.0000000E+000
  0.0000000E+000
  0.0000000E+000
  0.0000000E+000
  0.0000000E+000
  0.0000000E+000
  0.0000000E+000
  0.0000000E+000
  0.0000000E+000
  0.0000000E+000
  0.0000000E+000
  0.0000000E+000
  0.0000000E+000
  0.0000000E+000
  0.0000000E+000
  0.0000000E+000
  0.0000000E+000
  0.0000000E+000
  0.0000000E+000
  0.0000000E+000
  0.0000000E+000
  0.0000000E+000
  0.0000000E+000
  0.0000000E+000
  0.0000000E+000
  0.0000000E+000
  0.0000000E+000
  0.0000000E+000
  0.0000000E+000
  0.0000000E+000
  0.0000000E+000
  0.0000000E+000
  0.0000000E+000
  0.0000000E+000
  0.0000000E+000
  0.0000000E+000
  0.0000000E+000
  0.0000000E+000
  0.0000000E+000
  0.0000000E+000
  0.0000000E+000
  0.0000000E+000
  0.0000000E+000
  0.0000000E+000
  0.0000000E+000
  0.0000000E+000
  0.0000000E+000
  0.0000000E+000
  0.0000000E+000
  0.0000000E+000
  0.0000000E+000
  0.0000000E+000
  0.0000000E+000
  0.0000000E+000
  0.0000000E+000
  0.0000000E+000
  0.0000000E+000
  0.0000000E+000
  0.0000000E+000
  0.0000000E+000
  0.0000000E+000
  0.0000000E+000
  0.0000000E+000
  0.0000000E+000
  0.0000000E+000
  0.0000000E+000
  0.0000000E+000
  0.0000000E+000
  0.0000000E+000
  0.0000000E+000
  0.0000000E+000
  0.0000000E+000
  0.0000000E+000
  0.0000000E+000
  0.0000000E+000
  0.0000000E+000
  0.0000000E+000
  0.0000000E+000
  0.0000000E+000
  0.0000000E+000
  0.0000000E+000
  0.0000000E+000
  0.0000000E+000
  0.0000000E+000
  0.0000000E+000
  0.0000000E+000
  0.0000000E+000
  0.0000000E+000
  0.0000000E+000
  0.0000000E+000
  0.0000000E+000
  0.0000000E+000
  0.0000000E+000
  0.0000000E+000
  0.0000000E+000
  0.0000000E+000
  0.0000000E+000
  0.0000000E+000
  0.0000000E+000
  0.0000000E+000
  0.0000000E+000
  0.0000000E+000
  0.0000000E+000
  0.0000000E+000
  0.0000000E+000
  0.0000000E+000
  0.0000000E+000
  0.0000000E+000
  0.0000000E+000
  0.0000000E+000
  0.0000000E+000
  0.0000000E+000
  0.0000000E+000
  0.0000000E+000
  0.0000000E+000
  0.0000000E+000
  0.0000000E+000
  0.0000000E+000
  0.0000000E+000
  0.0000000E+000
  0.0000000E+000
  0.0000000E+000
  0.0000000E+000
  0.0000000E+000
  0.0000000E+000
  0.0000000E+000
  0.0000000E+000
  0.0000000E+000
  0.0000000E+000
  0.0000000E+000
  0.0000000E+000
  0.0000000E+000
  0.0000000E+000
  0.0000000E+000
  0.0000000E+000
  0.0000000E+000
  0.0000000E+000
  0.0000000E+000
  0.0000000E+000
  0.0000000E+000
  0.0000000E+000
  0.0000000E+000
  0.0000000E+000
  0.0000000E+000
  0.0000000E+000
  0.0000000E+000
  0.0000000E+000
  0.0000000E+000
  0.0000000E+000
  0.0000000E+000
  0.0000000E+000
  0.0000000E+000
  0.0000000E+000
  0.0000000E+000
  0.0000000E+000
  0.0000000E+000
  0.0000000E+000
  0.0000000E+000
  0.0000000E+000
  0.0000000E+000
  0.0000000E+000
  0.0000000E+000
  0.0000000E+000
  0.0000000E+000
  0.0000000E+000
  0.0000000E+000
  0.0000000E+000
  0.0000000E+000
  0.0000000E+000
  0.0000000E+000
  0.0000000E+000
  0.0000000E+000
  0.0000000E+000
  0.0000000E+000
  0.0000000E+000
  0.0000000E+000
  0.0000000E+000
  0.0000000E+000
  0.0000000E+000
  0.0000000E+000
  0.0000000E+000
  0.0000000E+000
  0.0000000E+000
  0.0000000E+000
  0.0000000E+000
  0.0000000E+000
  0.0000000E+000
  0.0000000E+000
  0.0000000E+000
  0.0000000E+000
  0.0000000E+000
  0.0000000E+000
  0.0000000E+000
  0.0000000E+000
  0.0000000E+000
  0.0000000E+000
  0.0000000E+000
  0.0000000E+000
  0.0000000E+000
  0.0000000E+000
  0.0000000E+000
  0.0000000E+000
  0.0000000E+000
  0.0000000E+000
  0.0000000E+000
  0.0000000E+000
  0.0000000E+000
  0.0000000E+000
  0.0000000E+000
  0.0000000E+000
  0.0000000E+000
  0.0000000E+000
  0.0000000E+000
  0.0000000E+000
  0.0000000E+000
  0.0000000E+000
  0.0000000E+000
  0.0000000E+000
  0.0000000E+000
  0.0000000E+000
  0.0000000E+000
  0.0000000E+000
  0.0000000E+000
  0.0000000E+000
  0.0000000E+000
  0.0000000E+000
  0.0000000E+000
  0.0000000E+000
  0.0000000E+000
  0.0000000E+000
  0.0000000E+000
  0.0000000E+000
  0.0000000E+000
  0.0000000E+000
  0.0000000E+000
  0.0000000E+000
  0.0000000E+000
  0.0000000E+000
  0.0000000E+000
  0.0000000E+000
  0.0000000E+000
  0.0000000E+000
  0.0000000E+000
  0.0000000E+000
  0.0000000E+000
  0.0000000E+000
  0.0000000E+000
  0.0000000E+000
  0.0000000E+000
  0.0000000E+000
  0.0000000E+000
  0.0000000E+000
  0.0000000E+000
  0.0000000E+000
  0.0000000E+000
  0.0000000E+000
  0.0000000E+000
  0.0000000E+000
  0.0000000E+000
  0.0000000E+000
  0.0000000E+000
  0.0000000E+000
  0.0000000E+000
  0.0000000E+000
  0.0000000E+000
  0.0000000E+000
  0.0000000E+000
  0.0000000E+000
  0.0000000E+000
  0.0000000E+000
  0.0000000E+000
  0.0000000E+000
  0.0000000E+000
  0.0000000E+000
  0.0000000E+000
  0.0000000E+000
  0.0000000E+000
  0.0000000E+000
  0.0000000E+000
  0.0000000E+000
  0.0000000E+000
  0.0000000E+000
  0.0000000E+000
  0.0000000E+000
  0.0000000E+000
  0.0000000E+000
  0.0000000E+000
  0.0000000E+000
  0.0000000E+000
  0.0000000E+000
  0.0000000E+000
  0.0000000E+000
  0.0000000E+000
  0.0000000E+000
  0.0000000E+000
  0.0000000E+000
  0.0000000E+000
  0.0000000E+000
  0.0000000E+000
  0.0000000E+000
  0.0000000E+000
  0.0000000E+000
  0.0000000E+000
  0.0000000E+000
  0.0000000E+000
  0.0000000E+000
  0.0000000E+000
  0.0000000E+000
  0.0000000E+000
  0.0000000E+000
  0.0000000E+000
  0.0000000E+000
  0.0000000E+000
  0.0000000E+000
  0.0000000E+000
  0.0000000E+000
  0.0000000E+000
  0.0000000E+000
  0.0000000E+000
  0.0000000E+000
  0.0000000E+000
  0.0000000E+000
  0.0000000E+000
  0.0000000E+000
  0.0000000E+000
  0.0000000E+000
  0.0000000E+000
  0.0000000E+000
  0.0000000E+000
  0.0000000E+000
  0.0000000E+000
  0.0000000E+000
  0.0000000E+000
  0.0000000E+000
  0.0000000E+000
  0.0000000E+000
  0.0000000E+000
  0.0000000E+000
  0.0000000E+000
  0.0000000E+000
  0.0000000E+000
  0.0000000E+000
  0.0000000E+000
  0.0000000E+000
  0.0000000E+000
  0.0000000E+000
  0.0000000E+000
  0.0000000E+000
  0.0000000E+000
  0.0000000E+000
  0.0000000E+000
  0.0000000E+000
  0.0000000E+000
  0.0000000E+000
  0.0000000E+000
  0.0000000E+000
  0.0000000E+000
  0.0000000E+000
  0.0000000E+000
  0.0000000E+000
  0.0000000E+000
  0.0000000E+000
  0.0000000E+000
  0.0000000E+000
  0.0000000E+000
  0.0000000E+000
  0.0000000E+000
  0.0000000E+000
  0.0000000E+000
  0.0000000E+000
  0.0000000E+000
  0.0000000E+000
  0.0000000E+000
  0.0000000E+000
  0.0000000E+000
  0.0000000E+000
  0.0000000E+000
  0.0000000E+000
  0.0000000E+000
  0.0000000E+000
  0.0000000E+000
  0.0000000E+000
  0.0000000E+000
  0.0000000E+000
  0.0000000E+000
  0.0000000E+000
  0.0000000E+000
  0.0000000E+000
  0.0000000E+000
  0.0000000E+000
  0.0000000E+000
  0.0000000E+000
  0.0000000E+000
  0.0000000E+000
  0.0000000E+000
  0.0000000E+000
  0.0000000E+000
  0.0000000E+000
  0.0000000E+000
  0.0000000E+000
  0.0000000E+000
  0.0000000E+000
  0.0000000E+000
  0.0000000E+000
  0.0000000E+000
  0.0000000E+000
  0.0000000E+000
  0.0000000E+000
  0.0000000E+000
  0.0000000E+000
  0.0000000E+000
  0.0000000E+000
  0.0000000E+000
  0.0000000E+000
  0.0000000E+000
  0.0000000E+000
  0.0000000E+000
  0.0000000E+000
  0.0000000E+000
  0.0000000E+000
  0.0000000E+000
  0.0000000E+000
  0.0000000E+000
  0.0000000E+000
  0.0000000E+000
  0.0000000E+000
  0.0000000E+000
  0.0000000E+000
  0.0000000E+000
  0.0000000E+000
  0.0000000E+000
  0.0000000E+000
  0.0000000E+000
  0.0000000E+000
  0.0000000E+000
  0.0000000E+000
  0.0000000E+000
  0.0000000E+000
  0.0000000E+000
  0.0000000E+000
  0.0000000E+000
  0.0000000E+000
  0.0000000E+000
  0.0000000E+000
  0.0000000E+000
  0.0000000E+000
  0.0000000E+000
  0.0000000E+000
  0.0000000E+000
  0.0000000E+000
  0.0000000E+000
  0.0000000E+000
  0.0000000E+000
  0.0000000E+000
  0.0000000E+000
  0.0000000E+000
  0.0000000E+000
  0.0000000E+000
  0.0000000E+000
  0.0000000E+000
  0.0000000E+000
  0.0000000E+000
  0.0000000E+000
  0.0000000E+000
  0.0000000E+000
  0.0000000E+000
  0.0000000E+000
  0.0000000E+000
  0.0000000E+000
  0.0000000E+000
  0.0000000E+000
  0.0000000E+000
  0.0000000E+000
  0.0000000E+000
  0.0000000E+000
  0.0000000E+000
  0.0000000E+000
  0.0000000E+000
  0.0000000E+000
  0.0000000E+000
  0.0000000E+000
  0.0000000E+000
  0.0000000E+000
  0.0000000E+000
  0.0000000E+000
  0.0000000E+000
  0.0000000E+000
  0.0000000E+000
  0.0000000E+000
  0.0000000E+000
  0.0000000E+000
  0.0000000E+000
  0.0000000E+000
  0.0000000E+000
  0.0000000E+000
  0.0000000E+000
  0.0000000E+000
  0.0000000E+000
  0.0000000E+000
  0.0000000E+000
  0.0000000E+000
  0.0000000E+000
  0.0000000E+000
  0.0000000E+000
  0.0000000E+000
  0.0000000E+000
  0.0000000E+000
  0.0000000E+000
  0.0000000E+000
  0.0000000E+000
  0.0000000E+000
  0.0000000E+000
  0.0000000E+000
  0.0000000E+000
  0.0000000E+000
  0.0000000E+000
  0.0000000E+000
  0.0000000E+000
  0.0000000E+000
  0.0000000E+000
  0.0000000E+000
  0.0000000E+000
  0.0000000E+000
  0.0000000E+000
  0.0000000E+000
  0.0000000E+000
  0.0000000E+000
  0.0000000E+000
  0.0000000E+000
  0.0000000E+000
  0.0000000E+000
  0.0000000E+000
  0.0000000E+000
  0.0000000E+000
  0.0000000E+000
  0.0000000E+000
  0.0000000E+000
  0.0000000E+000
  0.0000000E+000
  0.0000000E+000
  0.0000000E+000
  0.0000000E+000
  0.0000000E+000
  0.0000000E+000
  0.0000000E+000
  0.0000000E+000
  0.0000000E+000
  0.0000000E+000
  0.0000000E+000
  0.0000000E+000
  0.0000000E+000
  0.0000000E+000
  0.0000000E+000
  0.0000000E+000
  0.0000000E+000
  0.0000000E+000
  0.0000000E+000
  0.0000000E+000
  0.0000000E+000
  0.0000000E+000
  0.0000000E+000
  0.0000000E+000
  0.0000000E+000
  0.0000000E+000
  0.0000000E+000
  0.0000000E+000
  0.0000000E+000
  0.0000000E+000
  0.0000000E+000
  0.0000000E+000
  0.0000000E+000
  0.0000000E+000
  0.0000000E+000
  0.0000000E+000
  0.0000000E+000
  0.0000000E+000
  0.0000000E+000
  0.0000000E+000
  0.0000000E+000
  0.0000000E+000
  0.0000000E+000
  0.0000000E+000
  0.0000000E+000
  0.0000000E+000
  0.0000000E+000
  0.0000000E+000
  0.0000000E+000
  0.0000000E+000
  0.0000000E+000
  0.0000000E+000
  0.0000000E+000
  0.0000000E+000
  0.0000000E+000
  0.0000000E+000
  0.0000000E+000
  0.0000000E+000
  0.0000000E+000
  0.0000000E+000
  0.0000000E+000
  0.0000000E+000
  0.0000000E+000
  0.0000000E+000
  0.0000000E+000
  0.0000000E+000
  0.0000000E+000
  0.0000000E+000
  0.0000000E+000
  0.0000000E+000
  0.0000000E+000
  0.0000000E+000
  0.0000000E+000
  0.0000000E+000
  0.0000000E+000
  0.0000000E+000
  0.0000000E+000
  0.0000000E+000
  0.0000000E+000
  0.0000000E+000
  0.0000000E+000
  0.0000000E+000
  0.0000000E+000
  0.0000000E+000
  0.0000000E+000
  0.0000000E+000
  0.0000000E+000
  0.0000000E+000
  0.0000000E+000
  0.0000000E+000
  0.0000000E+000
  0.0000000E+000
  0.0000000E+000
  0.0000000E+000
  0.0000000E+000
  0.0000000E+000
  0.0000000E+000
  0.0000000E+000
  0.0000000E+000
  0.0000000E+000
  0.0000000E+000
  0.0000000E+000
  0.0000000E+000
  0.0000000E+000
  0.0000000E+000
  0.0000000E+000
  0.0000000E+000
  0.0000000E+000
  0.0000000E+000
  0.0000000E+000
  0.0000000E+000
  0.0000000E+000
  0.0000000E+000
  0.0000000E+000
  0.0000000E+000
  0.0000000E+000
  0.0000000E+000
  0.0000000E+000
  0.0000000E+000
  0.0000000E+000
  0.0000000E+000
  0.0000000E+000
  0.0000000E+000
  0.0000000E+000
  0.0000000E+000
  0.0000000E+000
  0.0000000E+000
  0.0000000E+000
  0.0000000E+000
  0.0000000E+000
  0.0000000E+000
  0.0000000E+000
  0.0000000E+000
  0.0000000E+000
  0.0000000E+000
  0.0000000E+000
  0.0000000E+000
  0.0000000E+000
  0.0000000E+000
  0.0000000E+000
  0.0000000E+000
  0.0000000E+000
  0.0000000E+000
  0.0000000E+000
  0.0000000E+000
  0.0000000E+000
  0.0000000E+000
  0.0000000E+000
  0.0000000E+000
  0.0000000E+000
  0.0000000E+000
  0.0000000E+000
  0.0000000E+000
  0.0000000E+000
  0.0000000E+000
  0.0000000E+000
  0.0000000E+000
  0.0000000E+000
  0.0000000E+000
  0.0000000E+000
  0.0000000E+000
  0.0000000E+000
  0.0000000E+000
  0.0000000E+000
  0.0000000E+000
  0.0000000E+000
  0.0000000E+000
  0.0000000E+000
  0.0000000E+000
  0.0000000E+000
  0.0000000E+000
  0.0000000E+000
  0.0000000E+000
  0.0000000E+000
  0.0000000E+000
  0.0000000E+000
  0.0000000E+000
  0.0000000E+000
  0.0000000E+000
  0.0000000E+000
  0.0000000E+000
  0.0000000E+000
  0.0000000E+000
  0.0000000E+000
  0.0000000E+000
  0.0000000E+000
  0.0000000E+000
  0.0000000E+000
  0.0000000E+000
  0.0000000E+000
  0.0000000E+000
  0.0000000E+000
  0.0000000E+000
  0.0000000E+000
  0.0000000E+000
  0.0000000E+000
  0.0000000E+000
  0.0000000E+000
  0.0000000E+000
  0.0000000E+000
  0.0000000E+000
  0.0000000E+000
  0.0000000E+000
  0.0000000E+000
  0.0000000E+000
  0.0000000E+000
  0.0000000E+000
  0.0000000E+000
  0.0000000E+000
  0.0000000E+000
  0.0000000E+000
  0.0000000E+000
  0.0000000E+000
  0.0000000E+000
  0.0000000E+000
  0.0000000E+000
  0.0000000E+000
  0.0000000E+000
  0.0000000E+000
  0.0000000E+000
  0.0000000E+000
  0.0000000E+000
  0.0000000E+000
  0.0000000E+000
  0.0000000E+000
  0.0000000E+000
  0.0000000E+000
  0.0000000E+000
  0.0000000E+000
  0.0000000E+000
  0.0000000E+000
  0.0000000E+000
  0.0000000E+000
  0.0000000E+000
  0.0000000E+000
  0.0000000E+000
  0.0000000E+000
  0.0000000E+000
  0.0000000E+000
  0.0000000E+000
  0.0000000E+000
  0.0000000E+000
  0.0000000E+000
  0.0000000E+000
  0.0000000E+000
  0.0000000E+000
  0.0000000E+000
  0.0000000E+000
  0.0000000E+000
  0.0000000E+000
  0.0000000E+000
  0.0000000E+000
  0.0000000E+000
  0.0000000E+000
  0.0000000E+000
  0.0000000E+000
  0.0000000E+000
  0.0000000E+000
  0.0000000E+000
  0.0000000E+000
  0.0000000E+000
  0.0000000E+000
  0.0000000E+000
  0.0000000E+000
  0.0000000E+000
  0.0000000E+000
  0.0000000E+000
  0.0000000E+000
  0.0000000E+000
  0.0000000E+000
  0.0000000E+000
  0.0000000E+000
  0.0000000E+000
  0.0000000E+000
  0.0000000E+000
  0.0000000E+000
  0.0000000E+000
  0.0000000E+000
  0.0000000E+000
  0.0000000E+000
  0.0000000E+000
  0.0000000E+000
  0.0000000E+000
  0.0000000E+000
  0.0000000E+000
  0.0000000E+000
  0.0000000E+000
  0.0000000E+000
  0.0000000E+000
  0.0000000E+000
  0.0000000E+000
  0.0000000E+000
  0.0000000E+000
  0.0000000E+000
  0.0000000E+000
  0.0000000E+000
  0.0000000E+000
  0.0000000E+000
  0.0000000E+000
  0.0000000E+000
  0.0000000E+000
  0.0000000E+000
  0.0000000E+000
  0.0000000E+000
  0.0000000E+000
  0.0000000E+000
  0.0000000E+000
  0.0000000E+000
  0.0000000E+000
  0.0000000E+000
  0.0000000E+000
  0.0000000E+000
  0.0000000E+000
  0.0000000E+000
  0.0000000E+000
  0.0000000E+000
  0.0000000E+000
  0.0000000E+000
  0.0000000E+000
  0.0000000E+000
  0.0000000E+000
  0.0000000E+000
  0.0000000E+000
  0.0000000E+000
  0.0000000E+000
  0.0000000E+000
  0.0000000E+000
  0.0000000E+000
  0.0000000E+000
  0.0000000E+000
  0.0000000E+000
  0.0000000E+000
  0.0000000E+000
  0.0000000E+000
  0.0000000E+000
  0.0000000E+000
  0.0000000E+000
  0.0000000E+000
  0.0000000E+000
  0.0000000E+000
  0.0000000E+000
  0.0000000E+000
  0.0000000E+000
  0.0000000E+000
  0.0000000E+000
  0.0000000E+000
  0.0000000E+000
  0.0000000E+000
  0.0000000E+000
  0.0000000E+000
  0.0000000E+000
  0.0000000E+000
  0.0000000E+000
  0.0000000E+000
  0.0000000E+000
  0.0000000E+000
  0.0000000E+000
  0.0000000E+000
  0.0000000E+000
  0.0000000E+000
  0.0000000E+000
  0.0000000E+000
  0.0000000E+000
  0.0000000E+000
  0.0000000E+000
  0.0000000E+000
  0.0000000E+000
  0.0000000E+000
  0.0000000E+000
  0.0000000E+000
  0.0000000E+000
  0.0000000E+000
  0.0000000E+000
  0.0000000E+000
  0.0000000E+000
  0.0000000E+000
  0.0000000E+000
  0.0000000E+000
  0.0000000E+000
  0.0000000E+000
  0.0000000E+000
  0.0000000E+000
  0.0000000E+000
  0.0000000E+000
  0.0000000E+000
  0.0000000E+000
  0.0000000E+000
  0.0000000E+000
  0.0000000E+000
  0.0000000E+000
  0.0000000E+000
  0.0000000E+000
  0.0000000E+000
  0.0000000E+000
  0.0000000E+000
  0.0000000E+000
  0.0000000E+000
  0.0000000E+000
  0.0000000E+000
  0.0000000E+000
  0.0000000E+000
  0.0000000E+000
  0.0000000E+000
  0.0000000E+000
  0.0000000E+000
  0.0000000E+000
  0.0000000E+000
  0.0000000E+000
  0.0000000E+000
  0.0000000E+000
  0.0000000E+000
  0.0000000E+000
  0.0000000E+000
  0.0000000E+000
  0.0000000E+000
  0.0000000E+000
  0.0000000E+000
  0.0000000E+000
  0.0000000E+000
  0.0000000E+000
  0.0000000E+000
  0.0000000E+000
  0.0000000E+000
  0.0000000E+000
  0.0000000E+000
  0.0000000E+000
  0.0000000E+000
  0.0000000E+000
  0.0000000E+000
  0.0000000E+000
  0.0000000E+000
  0.0000000E+000
  0.0000000E+000
  0.0000000E+000
  0.0000000E+000
  0.0000000E+000
  0.0000000E+000
  0.0000000E+000
  0.0000000E+000
  0.0000000E+000
  0.0000000E+000
  0.0000000E+000
  0.0000000E+000
  0.0000000E+000
  0.0000000E+000
  0.0000000E+000
  0.0000000E+000
  0.0000000E+000
  0.0000000E+000
  0.0000000E+000
  0.0000000E+000
  0.0000000E+000
  0.0000000E+000
  0.0000000E+000
  0.0000000E+000
  0.0000000E+000
  0.0000000E+000
  0.0000000E+000
  0.0000000E+000
  0.0000000E+000
  0.0000000E+000
  0.0000000E+000
  0.0000000E+000
  0.0000000E+000
  0.0000000E+000
  0.0000000E+000
  0.0000000E+000
  0.0000000E+000
  0.0000000E+000
  0.0000000E+000
  0.0000000E+000
  0.0000000E+000
  0.0000000E+000
  0.0000000E+000
  0.0000000E+000
  0.0000000E+000
  0.0000000E+000
  0.0000000E+000
  0.0000000E+000
  0.0000000E+000
  0.0000000E+000
  0.0000000E+000
  0.0000000E+000
  0.0000000E+000
  0.0000000E+000
  0.0000000E+000
  0.0000000E+000
  0.0000000E+000
  0.0000000E+000
  0.0000000E+000
  0.0000000E+000
  0.0000000E+000
  0.0000000E+000
  0.0000000E+000
  0.0000000E+000
  0.0000000E+000
  0.0000000E+000
  0.0000000E+000
  0.0000000E+000
  0.0000000E+000
  0.0000000E+000
  0.0000000E+000
  0.0000000E+000
  0.0000000E+000
  0.0000000E+000
  0.0000000E+000
  0.0000000E+000
  0.0000000E+000
  0.0000000E+000
  0.0000000E+000
  0.0000000E+000
  0.0000000E+000
  0.0000000E+000
  0.0000000E+000
  0.0000000E+000
  0.0000000E+000
  0.0000000E+000
  0.0000000E+000
  0.0000000E+000
  0.0000000E+000
  0.0000000E+000
  0.0000000E+000
  0.0000000E+000
  0.0000000E+000
  0.0000000E+000
  0.0000000E+000
  0.0000000E+000
  0.0000000E+000
  0.0000000E+000
  0.0000000E+000
  0.0000000E+000
  0.0000000E+000
  0.0000000E+000
  0.0000000E+000
  0.0000000E+000
  0.0000000E+000
  0.0000000E+000
  0.0000000E+000
  0.0000000E+000
  0.0000000E+000
  0.0000000E+000
  0.0000000E+000
  0.0000000E+000
  0.0000000E+000
  0.0000000E+000
  0.0000000E+000
  0.0000000E+000
  0.0000000E+000
  0.0000000E+000
  0.0000000E+000
  0.0000000E+000
  0.0000000E+000
  0.0000000E+000
  0.0000000E+000
  0.0000000E+000
  0.0000000E+000
  0.0000000E+000
  0.0000000E+000
  0.0000000E+000
  0.0000000E+000
  0.0000000E+000
  0.0000000E+000
  0.0000000E+000
  0.0000000E+000
  0.0000000E+000
  0.0000000E+000
  0.0000000E+000
  0.0000000E+000
  0.0000000E+000
  0.0000000E+000
  0.0000000E+000
  0.0000000E+000
  0.0000000E+000
  0.0000000E+000
  0.0000000E+000
  0.0000000E+000
  0.0000000E+000
  0.0000000E+000
  0.0000000E+000
  0.0000000E+000
  0.0000000E+000
  0.0000000E+000
  0.0000000E+000
  0.0000000E+000
  0.0000000E+000
  0.0000000E+000
  0.0000000E+000
  0.0000000E+000
  0.0000000E+000
  0.0000000E+000
  0.0000000E+000
  0.0000000E+000
  0.0000000E+000
  0.0000000E+000
  0.0000000E+000
  0.0000000E+000
  0.0000000E+000
  0.0000000E+000
  0.0000000E+000
  0.0000000E+000
  0.0000000E+000
  0.0000000E+000
  0.0000000E+000
  0.0000000E+000
  0.0000000E+000
  0.0000000E+000
  0.0000000E+000
  0.0000000E+000
  0.0000000E+000
  0.0000000E+000
  0.0000000E+000
  0.0000000E+000
  0.0000000E+000
  0.0000000E+000
  0.0000000E+000
  0.0000000E+000
  0.0000000E+000
  0.0000000E+000
  0.0000000E+000
  0.0000000E+000
  0.0000000E+000
  0.0000000E+000
  0.0000000E+000
  0.0000000E+000
  0.0000000E+000
  0.0000000E+000
  0.0000000E+000
  0.0000000E+000
  0.0000000E+000
  0.0000000E+000
  0.0000000E+000
  0.0000000E+000
  0.0000000E+000
  0.0000000E+000
  0.0000000E+000
  0.0000000E+000
  0.0000000E+000
  0.0000000E+000
  0.0000000E+000
  0.0000000E+000
  0.0000000E+000
  0.0000000E+000
  0.0000000E+000
  0.0000000E+000
  0.0000000E+000
  0.0000000E+000
  0.0000000E+000
  0.0000000E+000
  0.0000000E+000
  0.0000000E+000
  0.0000000E+000
  0.0000000E+000
  0.0000000E+000
  0.0000000E+000
  0.0000000E+000
  0.0000000E+000
  0.0000000E+000
  0.0000000E+000
  0.0000000E+000
  0.0000000E+000
  0.0000000E+000
  0.0000000E+000
  0.0000000E+000
  0.0000000E+000
  0.0000000E+000
  0.0000000E+000
  0.0000000E+000
  0.0000000E+000
  0.0000000E+000
  0.0000000E+000
  0.0000000E+000
  0.0000000E+000
  0.0000000E+000
  0.0000000E+000
  0.0000000E+000
  0.0000000E+000
  0.0000000E+000
  0.0000000E+000
  0.0000000E+000
  0.0000000E+000
  0.0000000E+000
  0.0000000E+000
  0.0000000E+000
  0.0000000E+000
  0.0000000E+000
  0.0000000E+000
  0.0000000E+000
  0.0000000E+000
  0.0000000E+000
  0.0000000E+000
  0.0000000E+000
  0.0000000E+000
  0.0000000E+000
  0.0000000E+000
  0.0000000E+000
  0.0000000E+000
  0.0000000E+000
  0.0000000E+000
  0.0000000E+000
  0.0000000E+000
  0.0000000E+000
  0.0000000E+000
  0.0000000E+000
  0.0000000E+000
  0.0000000E+000
  0.0000000E+000
  0.0000000E+000
  0.0000000E+000
  0.0000000E+000
  0.0000000E+000
  0.0000000E+000
  0.0000000E+000
  0.0000000E+000
  0.0000000E+000
  0.0000000E+000
  0.0000000E+000
  0.0000000E+000
  0.0000000E+000
  0.0000000E+000
  0.0000000E+000
  0.0000000E+000
  0.0000000E+000
  0.0000000E+000
  0.0000000E+000
  0.0000000E+000
  0.0000000E+000
  0.0000000E+000
  0.0000000E+000
  0.0000000E+000
  0.0000000E+000
  0.0000000E+000
  0.0000000E+000
  0.0000000E+000
  0.0000000E+000
  0.0000000E+000
  0.0000000E+000
  0.0000000E+000
  0.0000000E+000
  0.0000000E+000
  0.0000000E+000
  0.0000000E+000
  0.0000000E+000
  0.0000000E+000
  0.0000000E+000
  0.0000000E+000
  0.0000000E+000
  0.0000000E+000
  0.0000000E+000
  0.0000000E+000
  0.0000000E+000
  0.0000000E+000
  0.0000000E+000
  0.0000000E+000
  0.0000000E+000
  0.0000000E+000
  0.0000000E+000
  0.0000000E+000
  0.0000000E+000
  0.0000000E+000
  0.0000000E+000
  0.0000000E+000
  0.0000000E+000
  0.0000000E+000
  0.0000000E+000
  0.0000000E+000
  0.0000000E+000
  0.0000000E+000
  0.0000000E+000
  0.0000000E+000
  0.0000000E+000
  0.0000000E+000
  0.0000000E+000
  0.0000000E+000
  0.0000000E+000
  0.0000000E+000
  0.0000000E+000
  0.0000000E+000
  0.0000000E+000
  0.0000000E+000
  0.0000000E+000
  0.0000000E+000
  0.0000000E+000
  0.0000000E+000
  0.0000000E+000
  0.0000000E+000
  0.0000000E+000
  0.0000000E+000
  0.0000000E+000
  0.0000000E+000
  0.0000000E+000
  0.0000000E+000
  0.0000000E+000
  0.0000000E+000
  0.0000000E+000
  0.0000000E+000
  0.0000000E+000
  0.0000000E+000
  0.0000000E+000
  0.0000000E+000
  0.0000000E+000
  0.0000000E+000
  0.0000000E+000
  0.0000000E+000
  0.0000000E+000
  0.0000000E+000
  0.0000000E+000
  0.0000000E+000
  0.0000000E+000
  0.0000000E+000
  0.0000000E+000
  0.0000000E+000
  0.0000000E+000
  0.0000000E+000
  0.0000000E+000
  0.0000000E+000
  0.0000000E+000
  0.0000000E+000
  0.0000000E+000
  0.0000000E+000
  0.0000000E+000
  0.0000000E+000
  0.0000000E+000
  0.0000000E+000
  0.0000000E+000
  0.0000000E+000
  0.0000000E+000
  0.0000000E+000
  0.0000000E+000
  0.0000000E+000
  0.0000000E+000
  0.0000000E+000
  0.0000000E+000
  0.0000000E+000
  0.0000000E+000
  0.0000000E+000
  0.0000000E+000
  0.0000000E+000
  0.0000000E+000
  0.0000000E+000
  0.0000000E+000
  0.0000000E+000
  0.0000000E+000
  0.0000000E+000
  0.0000000E+000
  0.0000000E+000
  0.0000000E+000
  0.0000000E+000
  0.0000000E+000
  0.0000000E+000
  0.0000000E+000
  0.0000000E+000
  0.0000000E+000
  0.0000000E+000
  0.0000000E+000
  0.0000000E+000
  0.0000000E+000
  0.0000000E+000
  0.0000000E+000
  0.0000000E+000
  0.0000000E+000
  0.0000000E+000
  0.0000000E+000
  0.0000000E+000
  0.0000000E+000
  0.0000000E+000
  0.0000000E+000
  0.0000000E+000
  0.0000000E+000
  0.0000000E+000
  0.0000000E+000
  0.0000000E+000
  0.0000000E+000
  0.0000000E+000
  0.0000000E+000
  0.0000000E+000
  0.0000000E+000
  0.0000000E+000
  0.0000000E+000
  0.0000000E+000
  0.0000000E+000
  0.0000000E+000
  0.0000000E+000
  0.0000000E+000
  0.0000000E+000
  0.0000000E+000
  0.0000000E+000
  0.0000000E+000
  0.0000000E+000
  0.0000000E+000
  0.0000000E+000
  0.0000000E+000
  0.0000000E+000
  0.0000000E+000
  0.0000000E+000
  0.0000000E+000
  0.0000000E+000
  0.0000000E+000
  0.0000000E+000
  0.0000000E+000
  0.0000000E+000
  0.0000000E+000
  0.0000000E+000
  0.0000000E+000
  0.0000000E+000
  0.0000000E+000
  0.0000000E+000
  0.0000000E+000
  0.0000000E+000
  0.0000000E+000
  0.0000000E+000
  0.0000000E+000
  0.0000000E+000
  0.0000000E+000
  0.0000000E+000
  0.0000000E+000
  0.0000000E+000
  0.0000000E+000
  0.0000000E+000
  0.0000000E+000
  0.0000000E+000
  0.0000000E+000
  0.0000000E+000
  0.0000000E+000
  0.0000000E+000
  0.0000000E+000
  0.0000000E+000
  0.0000000E+000
  0.0000000E+000
  0.0000000E+000
  0.0000000E+000
  0.0000000E+000
  0.0000000E+000
  0.0000000E+000
  0.0000000E+000
  0.0000000E+000
  0.0000000E+000
  0.0000000E+000
  0.0000000E+000
  0.0000000E+000
  0.0000000E+000
  0.0000000E+000
  0.0000000E+000
  0.0000000E+000
  0.0000000E+000
  0.0000000E+000
  0.0000000E+000
  0.0000000E+000
  0.0000000E+000
  0.0000000E+000
  0.0000000E+000
  0.0000000E+000
  0.0000000E+000
  0.0000000E+000
  0.0000000E+000
  0.0000000E+000
  0.0000000E+000
  0.0000000E+000
  0.0000000E+000
  0.0000000E+000
  0.0000000E+000
  0.0000000E+000
  0.0000000E+000
  0.0000000E+000
  0.0000000E+000
  0.0000000E+000
  0.0000000E+000
  0.0000000E+000
  0.0000000E+000
  0.0000000E+000
  0.0000000E+000
  0.0000000E+000
  0.0000000E+000
  0.0000000E+000
  0.0000000E+000
  0.0000000E+000
  0.0000000E+000
  0.0000000E+000
  0.0000000E+000
  0.0000000E+000
  0.0000000E+000
  0.0000000E+000
  0.0000000E+000
  0.0000000E+000
  0.0000000E+000
  0.0000000E+000
  0.0000000E+000
  0.0000000E+000
  0.0000000E+000
  0.0000000E+000
  0.0000000E+000
  0.0000000E+000
  0.0000000E+000
  0.0000000E+000
  0.0000000E+000
  0.0000000E+000
  0.0000000E+000
  0.0000000E+000
  0.0000000E+000
  0.0000000E+000
  0.0000000E+000
  0.0000000E+000
  0.0000000E+000
  0.0000000E+000
  0.0000000E+000
  0.0000000E+000
  0.0000000E+000
  0.0000000E+000
  0.0000000E+000
  0.0000000E+000
  0.0000000E+000
  0.0000000E+000
  0.0000000E+000
  0.0000000E+000
  0.0000000E+000
  0.0000000E+000
  0.0000000E+000
  0.0000000E+000
  0.0000000E+000
  0.0000000E+000
  0.0000000E+000
  0.0000000E+000
  0.0000000E+000
  0.0000000E+000
  0.0000000E+000
  0.0000000E+000
  0.0000000E+000
  0.0000000E+000
  0.0000000E+000
  0.0000000E+000
  0.0000000E+000
  0.0000000E+000
  0.0000000E+000
  0.0000000E+000
  0.0000000E+000
  0.0000000E+000
  0.0000000E+000
  0.0000000E+000
  0.0000000E+000
  0.0000000E+000
  0.0000000E+000
  0.0000000E+000
  0.0000000E+000
  0.0000000E+000
  0.0000000E+000
  0.0000000E+000
  0.0000000E+000
  0.0000000E+000
  0.0000000E+000
  0.0000000E+000
  0.0000000E+000
  0.0000000E+000
  0.0000000E+000
  0.0000000E+000
  0.0000000E+000
  0.0000000E+000
  0.0000000E+000
  0.0000000E+000
  0.0000000E+000
  0.0000000E+000
  0.0000000E+000
  0.0000000E+000
  0.0000000E+000
  0.0000000E+000
  0.0000000E+000
  0.0000000E+000
  0.0000000E+000
  0.0000000E+000
  0.0000000E+000
  0.0000000E+000
  0.0000000E+000
  0.0000000E+000
  0.0000000E+000
  0.0000000E+000
  0.0000000E+000
  0.0000000E+000
  0.0000000E+000
  0.0000000E+000
  0.0000000E+000
  0.0000000E+000
  0.0000000E+000
  0.0000000E+000
  0.0000000E+000
  0.0000000E+000
  0.0000000E+000
  0.0000000E+000
  0.0000000E+000
  0.0000000E+000
  0.0000000E+000
  0.0000000E+000
  0.0000000E+000
  0.0000000E+000
  0.0000000E+000
  0.0000000E+000
  0.0000000E+000
  0.0000000E+000
  0.0000000E+000
  0.0000000E+000
  0.0000000E+000
  0.0000000E+000
  0.0000000E+000
  0.0000000E+000
  0.0000000E+000
  0.0000000E+000
  0.0000000E+000
  0.0000000E+000
  0.0000000E+000
  0.0000000E+000
  0.0000000E+000
  0.0000000E+000
  0.0000000E+000
  0.0000000E+000
  0.0000000E+000
  0.0000000E+000
  0.0000000E+000
  0.0000000E+000
  0.0000000E+000
  0.0000000E+000
  0.0000000E+000
  0.0000000E+000
  0.0000000E+000
  0.0000000E+000
  0.0000000E+000
  0.0000000E+000
  0.0000000E+000
  0.0000000E+000
  0.0000000E+000
  0.0000000E+000
  0.0000000E+000
  0.0000000E+000
  0.0000000E+000
  0.0000000E+000
  0.0000000E+000
  0.0000000E+000
  0.0000000E+000
  0.0000000E+000
  0.0000000E+000
  0.0000000E+000
  0.0000000E+000
  0.0000000E+000
  0.0000000E+000
  0.0000000E+000
  0.0000000E+000
  0.0000000E+000
  0.0000000E+000
  0.0000000E+000
  0.0000000E+000
  0.0000000E+000
  0.0000000E+000
  0.0000000E+000
  0.0000000E+000
  0.0000000E+000
  0.0000000E+000
  0.0000000E+000
  0.0000000E+000
  0.0000000E+000
  0.0000000E+000
  0.0000000E+000
  0.0000000E+000
  0.0000000E+000
  0.0000000E+000
  0.0000000E+000
  0.0000000E+000
  0.0000000E+000
  0.0000000E+000
  0.0000000E+000
  0.0000000E+000
  0.0000000E+000
  0.0000000E+000
  0.0000000E+000
  0.0000000E+000
  0.0000000E+000
  0.0000000E+000
  0.0000000E+000
  0.0000000E+000
  0.0000000E+000
  0.0000000E+000
  0.0000000E+000
  0.0000000E+000
  0.0000000E+000
  0.0000000E+000
  0.0000000E+000
  0.0000000E+000
  0.0000000E+000
  0.0000000E+000
  0.0000000E+000
  0.0000000E+000
  0.0000000E+000
  0.0000000E+000
  0.0000000E+000
  0.0000000E+000
  0.0000000E+000
  0.0000000E+000
  0.0000000E+000
  0.0000000E+000
  0.0000000E+000
  0.0000000E+000
  0.0000000E+000
  0.0000000E+000
  0.0000000E+000
  0.0000000E+000
  0.0000000E+000
  0.0000000E+000
  0.0000000E+000
  0.0000000E+000
  0.0000000E+000
  0.0000000E+000
  0.0000000E+000
  0.0000000E+000
  0.0000000E+000
  0.0000000E+000
  0.0000000E+000
  0.0000000E+000
  0.0000000E+000
  0.0000000E+000
  0.0000000E+000
  0.0000000E+000
  0.0000000E+000
  0.0000000E+000
  0.0000000E+000
  0.0000000E+000
  0.0000000E+000
  0.0000000E+000
  0.0000000E+000
  0.0000000E+000
  0.0000000E+000
  0.0000000E+000
  0.0000000E+000
  0.0000000E+000
  0.0000000E+000
  0.0000000E+000
  0.0000000E+000
  0.0000000E+000
  0.0000000E+000
  0.0000000E+000
  0.0000000E+000
  0.0000000E+000
  0.0000000E+000
  0.0000000E+000
  0.0000000E+000
  0.0000000E+000
  0.0000000E+000
  0.0000000E+000
  0.0000000E+000
  0.0000000E+000
  0.0000000E+000
  0.0000000E+000
  0.0000000E+000
  0.0000000E+000
  0.0000000E+000
  0.0000000E+000
  0.0000000E+000
  0.0000000E+000
  0.0000000E+000
  0.0000000E+000
  0.0000000E+000
  0.0000000E+000
  0.0000000E+000
  0.0000000E+000
  0.0000000E+000
  0.0000000E+000
  0.0000000E+000
  0.0000000E+000
  0.0000000E+000
  0.0000000E+000
  0.0000000E+000
  0.0000000E+000
  0.0000000E+000
  0.0000000E+000
  0.0000000E+000
  0.0000000E+000
  0.0000000E+000
  0.0000000E+000
  0.0000000E+000
  0.0000000E+000
  0.0000000E+000
  0.0000000E+000
  0.0000000E+000
  0.0000000E+000
  0.0000000E+000
  0.0000000E+000
  0.0000000E+000
  0.0000000E+000
  0.0000000E+000
  0.0000000E+000
  0.0000000E+000
  0.0000000E+000
  0.0000000E+000
  0.0000000E+000
  0.0000000E+000
  0.0000000E+000
  0.0000000E+000
  0.0000000E+000
  0.0000000E+000
  0.0000000E+000
  0.0000000E+000
  0.0000000E+000
  0.0000000E+000
  0.0000000E+000
  0.0000000E+000
  0.0000000E+000
  0.0000000E+000
  0.0000000E+000
  0.0000000E+000
  0.0000000E+000
  0.0000000E+000
  0.0000000E+000
  0.0000000E+000
  0.0000000E+000
  0.0000000E+000
  0.0000000E+000
  0.0000000E+000
  0.0000000E+000
  0.0000000E+000
  0.0000000E+000
  0.0000000E+000
  0.0000000E+000
  0.0000000E+000
  0.0000000E+000
  0.0000000E+000
  0.0000000E+000
  0.0000000E+000
  0.0000000E+000
  0.0000000E+000
  0.0000000E+000
  0.0000000E+000
  0.0000000E+000
  0.0000000E+000
  0.0000000E+000
  0.0000000E+000
  0.0000000E+000
  0.0000000E+000
  0.0000000E+000
  0.0000000E+000
  0.0000000E+000
  0.0000000E+000
  0.0000000E+000
  0.0000000E+000
  0.0000000E+000
  0.0000000E+000
  0.0000000E+000
  0.0000000E+000
  0.0000000E+000
  0.0000000E+000
  0.0000000E+000
  0.0000000E+000
  0.0000000E+000
  0.0000000E+000
  0.0000000E+000
  0.0000000E+000
  0.0000000E+000
  0.0000000E+000
  0.0000000E+000
  0.0000000E+000
  0.0000000E+000
  0.0000000E+000
  0.0000000E+000
  0.0000000E+000
  0.0000000E+000
  0.0000000E+000
  0.0000000E+000
  0.0000000E+000
  0.0000000E+000
  0.0000000E+000
  0.0000000E+000
  0.0000000E+000
  0.0000000E+000
  0.0000000E+000
  0.0000000E+000
  0.0000000E+000
  0.0000000E+000
  0.0000000E+000
  0.0000000E+000
  0.0000000E+000
  0.0000000E+000
  0.0000000E+000
  0.0000000E+000
  0.0000000E+000
  0.0000000E+000
  0.0000000E+000
  0.0000000E+000
  0.0000000E+000
  0.0000000E+000
  0.0000000E+000
  0.0000000E+000
  0.0000000E+000
  0.0000000E+000
  0.0000000E+000
  0.0000000E+000
  0.0000000E+000
  0.0000000E+000
  0.0000000E+000
  0.0000000E+000
  0.0000000E+000
  0.0000000E+000
  0.0000000E+000
  0.0000000E+000
  0.0000000E+000
  0.0000000E+000
  0.0000000E+000
  0.0000000E+000
  0.0000000E+000
  0.0000000E+000
  0.0000000E+000
  0.0000000E+000
  0.0000000E+000
  0.0000000E+000
  0.0000000E+000
  0.0000000E+000
  0.0000000E+000
  0.0000000E+000
  0.0000000E+000
  0.0000000E+000
  0.0000000E+000
  0.0000000E+000
  0.0000000E+000
  0.0000000E+000
  0.0000000E+000
  0.0000000E+000
  0.0000000E+000
  0.0000000E+000
  0.0000000E+000
  0.0000000E+000
  0.0000000E+000
  0.0000000E+000
  0.0000000E+000
  0.0000000E+000
  0.0000000E+000
  0.0000000E+000
  0.0000000E+000
  0.0000000E+000
  0.0000000E+000
  0.0000000E+000
  0.0000000E+000
  0.0000000E+000
  0.0000000E+000
  0.0000000E+000
  0.0000000E+000
  0.0000000E+000
  0.0000000E+000
  0.0000000E+000
  0.0000000E+000
  0.0000000E+000
  0.0000000E+000
  0.0000000E+000
  0.0000000E+000
  0.0000000E+000
  0.0000000E+000
  0.0000000E+000
  0.0000000E+000
  0.0000000E+000
  0.0000000E+000
  0.0000000E+000
  0.0000000E+000
  0.0000000E+000
  0.0000000E+000
  0.0000000E+000
  0.0000000E+000
  0.0000000E+000
  0.0000000E+000
  0.0000000E+000
  0.0000000E+000
  0.0000000E+000
  0.0000000E+000
  0.0000000E+000
  0.0000000E+000
  0.0000000E+000
  0.0000000E+000
  0.0000000E+000
  0.0000000E+000
  0.0000000E+000
  0.0000000E+000
  0.0000000E+000
  0.0000000E+000
  0.0000000E+000
  0.0000000E+000
  0.0000000E+000
  0.0000000E+000
  0.0000000E+000
  0.0000000E+000
  0.0000000E+000
  0.0000000E+000
  0.0000000E+000
  0.0000000E+000
  0.0000000E+000
  0.0000000E+000
  0.0000000E+000
  0.0000000E+000
  0.0000000E+000
  0.0000000E+000
  0.0000000E+000
  0.0000000E+000
  0.0000000E+000
  0.0000000E+000
  0.0000000E+000
  0.0000000E+000
  0.0000000E+000
  0.0000000E+000
  0.0000000E+000
  0.0000000E+000
  0.0000000E+000
  0.0000000E+000
  0.0000000E+000
  0.0000000E+000
  0.0000000E+000
  0.0000000E+000
  0.0000000E+000
  0.0000000E+000
  0.0000000E+000
  0.0000000E+000
  0.0000000E+000
  0.0000000E+000
  0.0000000E+000
  0.0000000E+000
  0.0000000E+000
  0.0000000E+000
  0.0000000E+000
  0.0000000E+000
  0.0000000E+000
  0.0000000E+000
  0.0000000E+000
  0.0000000E+000
  0.0000000E+000
  0.0000000E+000
  0.0000000E+000
  0.0000000E+000
  0.0000000E+000
  0.0000000E+000
  0.0000000E+000
  0.0000000E+000
  0.0000000E+000
  0.0000000E+000
  0.0000000E+000
  0.0000000E+000
  0.0000000E+000
  0.0000000E+000
  0.0000000E+000
  0.0000000E+000
  0.0000000E+000
  0.0000000E+000
  0.0000000E+000
  0.0000000E+000
  0.0000000E+000
  0.0000000E+000
  0.0000000E+000
  0.0000000E+000
  0.0000000E+000
  0.0000000E+000
  0.0000000E+000
  0.0000000E+000
  0.0000000E+000
  0.0000000E+000
  0.0000000E+000
  0.0000000E+000
  0.0000000E+000
  0.0000000E+000
  0.0000000E+000
  0.0000000E+000
  0.0000000E+000
  0.0000000E+000
  0.0000000E+000
  0.0000000E+000
  0.0000000E+000
  0.0000000E+000
  0.0000000E+000
  0.0000000E+000
  0.0000000E+000
  0.0000000E+000
  0.0000000E+000
  0.0000000E+000
  0.0000000E+000
  0.0000000E+000
  0.0000000E+000
  0.0000000E+000
  0.0000000E+000
  0.0000000E+000
  0.0000000E+000
  0.0000000E+000
  0.0000000E+000
  0.0000000E+000
  0.0000000E+000
  0.0000000E+000
  0.0000000E+000
  0.0000000E+000
  0.0000000E+000
  0.0000000E+000
  0.0000000E+000
  0.0000000E+000
  0.0000000E+000
  0.0000000E+000
  0.0000000E+000
  0.0000000E+000
  0.0000000E+000
  0.0000000E+000
  0.0000000E+000
  0.0000000E+000
  0.0000000E+000
  0.0000000E+000
  0.0000000E+000
  0.0000000E+000
  0.0000000E+000
  0.0000000E+000
  0.0000000E+000
  0.0000000E+000
  0.0000000E+000
  0.0000000E+000
  0.0000000E+000
  0.0000000E+000
  0.0000000E+000
  0.0000000E+000
  0.0000000E+000
  0.0000000E+000
  0.0000000E+000
  0.0000000E+000
  0.0000000E+000
  0.0000000E+000
  0.0000000E+000
  0.0000000E+000
  0.0000000E+000
  0.0000000E+000
  0.0000000E+000
  0.0000000E+000
  0.0000000E+000
  0.0000000E+000
  0.0000000E+000
  0.0000000E+000
  0.0000000E+000
  0.0000000E+000
  0.0000000E+000
  0.0000000E+000
  0.0000000E+000
  0.0000000E+000
  0.0000000E+000
  0.0000000E+000
  0.0000000E+000
  0.0000000E+000
  0.0000000E+000
  0.0000000E+000
  0.0000000E+000
  0.0000000E+000
  0.0000000E+000
  0.0000000E+000
  0.0000000E+000
  0.0000000E+000
  0.0000000E+000
  0.0000000E+000
  0.0000000E+000
  0.0000000E+000
  0.0000000E+000
  0.0000000E+000
  0.0000000E+000
  0.0000000E+000
  0.0000000E+000
  0.0000000E+000
  0.0000000E+000
  0.0000000E+000
  0.0000000E+000
  0.0000000E+000
  0.0000000E+000
  0.0000000E+000
  0.0000000E+000
  0.0000000E+000
  0.0000000E+000
  0.0000000E+000
  0.0000000E+000
  0.0000000E+000
  0.0000000E+000
  0.0000000E+000
  0.0000000E+000
  0.0000000E+000
  0.0000000E+000
  0.0000000E+000
  0.0000000E+000
  0.0000000E+000
  0.0000000E+000
  0.0000000E+000
  0.0000000E+000
  0.0000000E+000
  0.0000000E+000
  0.0000000E+000
  0.0000000E+000
  0.0000000E+000
  0.0000000E+000
  0.0000000E+000
  0.0000000E+000
  0.0000000E+000
  0.0000000E+000
  0.0000000E+000
  0.0000000E+000
  0.0000000E+000
  0.0000000E+000
  0.0000000E+000
  0.0000000E+000
  0.0000000E+000
  0.0000000E+000
  0.0000000E+000
  0.0000000E+000
  0.0000000E+000
  0.0000000E+000
  0.0000000E+000
  0.0000000E+000
  0.0000000E+000
  0.0000000E+000
  0.0000000E+000
  0.0000000E+000
  0.0000000E+000
  0.0000000E+000
  0.0000000E+000
  0.0000000E+000
  0.0000000E+000
  0.0000000E+000
  0.0000000E+000
  0.0000000E+000
  0.0000000E+000
  0.0000000E+000
  0.0000000E+000
  0.0000000E+000
  0.0000000E+000
  0.0000000E+000
  0.0000000E+000
  0.0000000E+000
  0.0000000E+000
  0.0000000E+000
  0.0000000E+000
  0.0000000E+000
  0.0000000E+000
  0.0000000E+000
  0.0000000E+000
  0.0000000E+000
  0.0000000E+000
  0.0000000E+000
  0.0000000E+000
  0.0000000E+000
  0.0000000E+000
  0.0000000E+000
  0.0000000E+000
  0.0000000E+000
  0.0000000E+000
  0.0000000E+000
  0.0000000E+000
  0.0000000E+000
  0.0000000E+000
  0.0000000E+000
  0.0000000E+000
  0.0000000E+000
  0.0000000E+000
  0.0000000E+000
  0.0000000E+000
  0.0000000E+000
  0.0000000E+000
  0.0000000E+000
  0.0000000E+000
  0.0000000E+000
  0.0000000E+000
  0.0000000E+000
  0.0000000E+000
  0.0000000E+000
  0.0000000E+000
  0.0000000E+000
  0.0000000E+000
  0.0000000E+000
  0.0000000E+000
  0.0000000E+000
  0.0000000E+000
  0.0000000E+000
  0.0000000E+000
  0.0000000E+000
  0.0000000E+000
  0.0000000E+000
  0.0000000E+000
  0.0000000E+000
  0.0000000E+000
  0.0000000E+000
  0.0000000E+000
  0.0000000E+000
  0.0000000E+000
  0.0000000E+000
  0.0000000E+000
  0.0000000E+000
  0.0000000E+000
  0.0000000E+000
  0.0000000E+000
  0.0000000E+000
  0.0000000E+000
  0.0000000E+000
  0.0000000E+000
  0.0000000E+000
  0.0000000E+000
  0.0000000E+000
  0.0000000E+000
  0.0000000E+000
  0.0000000E+000
  0.0000000E+000
  0.0000000E+000
  0.0000000E+000
  0.0000000E+000
  0.0000000E+000
  0.0000000E+000
  0.0000000E+000
  0.0000000E+000
  0.0000000E+000
  0.0000000E+000
  0.0000000E+000
  0.0000000E+000
  0.0000000E+000
  0.0000000E+000
  0.0000000E+000
  0.0000000E+000
  0.0000000E+000
  0.0000000E+000
  0.0000000E+000
  0.0000000E+000
  0.0000000E+000
  0.0000000E+000
  0.0000000E+000
  0.0000000E+000
  0.0000000E+000
  0.0000000E+000
  0.0000000E+000
  0.0000000E+000
  0.0000000E+000
  0.0000000E+000
  0.0000000E+000
  0.0000000E+000
  0.0000000E+000
  0.0000000E+000
  0.0000000E+000
  0.0000000E+000
  0.0000000E+000
  0.0000000E+000
  0.0000000E+000
  0.0000000E+000
  0.0000000E+000
  0.0000000E+000
  0.0000000E+000
  0.0000000E+000
  0.0000000E+000
  0.0000000E+000
  0.0000000E+000
  0.0000000E+000
  0.0000000E+000
  0.0000000E+000
  0.0000000E+000
  0.0000000E+000
  0.0000000E+000
  0.0000000E+000
  0.0000000E+000
  0.0000000E+000
  0.0000000E+000
  0.0000000E+000
  0.0000000E+000
  0.0000000E+000
  0.0000000E+000
  0.0000000E+000
  0.0000000E+000
  0.0000000E+000
  0.0000000E+000
  0.0000000E+000
  0.0000000E+000
  0.0000000E+000
  0.0000000E+000
  0.0000000E+000
  0.0000000E+000
  0.0000000E+000
  0.0000000E+000
  0.0000000E+000
  0.0000000E+000
  0.0000000E+000
  0.0000000E+000
  0.0000000E+000
  0.0000000E+000
  0.0000000E+000
  0.0000000E+000
  0.0000000E+000
  0.0000000E+000
  0.0000000E+000
  0.0000000E+000
  0.0000000E+000
  0.0000000E+000
  0.0000000E+000
  0.0000000E+000
  0.0000000E+000
  0.0000000E+000
  0.0000000E+000
  0.0000000E+000
  0.0000000E+000
  0.0000000E+000
  0.0000000E+000
  0.0000000E+000
  0.0000000E+000
  0.0000000E+000
  0.0000000E+000
  0.0000000E+000
  0.0000000E+000
  0.0000000E+000
  0.0000000E+000
  0.0000000E+000
  0.0000000E+000
  0.0000000E+000
  0.0000000E+000
  0.0000000E+000
  0.0000000E+000
  0.0000000E+000
  0.0000000E+000
  0.0000000E+000
  0.0000000E+000
  0.0000000E+000
  0.0000000E+000
  0.0000000E+000
  0.0000000E+000
  0.0000000E+000
  0.0000000E+000
  0.0000000E+000
  0.0000000E+000
  0.0000000E+000
  0.0000000E+000
  0.0000000E+000
  0.0000000E+000
  0.0000000E+000
  0.0000000E+000
  0.0000000E+000
  0.0000000E+000
  0.0000000E+000
  0.0000000E+000
  0.0000000E+000
  0.0000000E+000
  0.0000000E+000
  0.0000000E+000
  0.0000000E+000
  0.0000000E+000
  0.0000000E+000
  0.0000000E+000
  0.0000000E+000
  0.0000000E+000
  0.0000000E+000
  0.0000000E+000
  0.0000000E+000
  0.0000000E+000
  0.0000000E+000
  0.0000000E+000
  0.0000000E+000
  0.0000000E+000
  0.0000000E+000
  0.0000000E+000
  0.0000000E+000
  0.0000000E+000
  0.0000000E+000
  0.0000000E+000
  0.0000000E+000
  0.0000000E+000
  0.0000000E+000
  0.0000000E+000
  0.0000000E+000
  0.0000000E+000
  0.0000000E+000
  0.0000000E+000
  0.0000000E+000
  0.0000000E+000
  0.0000000E+000
  0.0000000E+000
  0.0000000E+000
  0.0000000E+000
  0.0000000E+000
  0.0000000E+000
  0.0000000E+000
  0.0000000E+000
  0.0000000E+000
  0.0000000E+000
  0.0000000E+000
  0.0000000E+000
  0.0000000E+000
  0.0000000E+000
  0.0000000E+000
  0.0000000E+000
  0.0000000E+000
  0.0000000E+000
  0.0000000E+000
  0.0000000E+000
  0.0000000E+000
  0.0000000E+000
  0.0000000E+000
  0.0000000E+000
  0.0000000E+000
  0.0000000E+000
  0.0000000E+000
  0.0000000E+000
  0.0000000E+000
  0.0000000E+000
  0.0000000E+000
  0.0000000E+000
  0.0000000E+000
  0.0000000E+000
  0.0000000E+000
  0.0000000E+000
  0.0000000E+000
  0.0000000E+000
  0.0000000E+000
  0.0000000E+000
  0.0000000E+000
  0.0000000E+000
  0.0000000E+000
  0.0000000E+000
  0.0000000E+000
  0.0000000E+000
  0.0000000E+000
  0.0000000E+000
  0.0000000E+000
  0.0000000E+000
  0.0000000E+000
  0.0000000E+000
  0.0000000E+000
  0.0000000E+000
  0.0000000E+000
  0.0000000E+000
  0.0000000E+000
  0.0000000E+000
  0.0000000E+000
  0.0000000E+000
  0.0000000E+000
  0.0000000E+000
  0.0000000E+000
  0.0000000E+000
  0.0000000E+000
  0.0000000E+000
  0.0000000E+000
  0.0000000E+000
  0.0000000E+000
  0.0000000E+000
  0.0000000E+000
  0.0000000E+000
  0.0000000E+000
  0.0000000E+000
  0.0000000E+000
  0.0000000E+000
  0.0000000E+000
  0.0000000E+000
  0.0000000E+000
  0.0000000E+000
  0.0000000E+000
  0.0000000E+000
  0.0000000E+000
  0.0000000E+000
  0.0000000E+000
  0.0000000E+000
  0.0000000E+000
  0.0000000E+000
  0.0000000E+000
  0.0000000E+000
  0.0000000E+000
  0.0000000E+000
  0.0000000E+000
  0.0000000E+000
  0.0000000E+000
  0.0000000E+000
  0.0000000E+000
  0.0000000E+000
  0.0000000E+000
  0.0000000E+000
  0.0000000E+000
  0.0000000E+000
  0.0000000E+000
  0.0000000E+000
  0.0000000E+000
  0.0000000E+000
  0.0000000E+000
  0.0000000E+000
  0.0000000E+000
  0.0000000E+000
  0.0000000E+000
  0.0000000E+000
  0.0000000E+000
  0.0000000E+000
  0.0000000E+000
  0.0000000E+000
  0.0000000E+000
  0.0000000E+000
  0.0000000E+000
  0.0000000E+000
  0.0000000E+000
  0.0000000E+000
  0.0000000E+000
  0.0000000E+000
  0.0000000E+000
  0.0000000E+000
  0.0000000E+000
  0.0000000E+000
  0.0000000E+000
  0.0000000E+000
  0.0000000E+000
  0.0000000E+000
  0.0000000E+000
  0.0000000E+000
  0.0000000E+000
  0.0000000E+000
  0.0000000E+000
  0.0000000E+000
  0.0000000E+000
  0.0000000E+000
  0.0000000E+000
  0.0000000E+000
  0.0000000E+000
  0.0000000E+000
  0.0000000E+000
  0.0000000E+000
  0.0000000E+000
  0.0000000E+000
  0.0000000E+000
  0.0000000E+000
  0.0000000E+000
  0.0000000E+000
  0.0000000E+000
  0.0000000E+000
  0.0000000E+000
  0.0000000E+000
  0.0000000E+000
  0.0000000E+000
  0.0000000E+000
  0.0000000E+000
  0.0000000E+000
  0.0000000E+000
  0.0000000E+000
  0.0000000E+000
  0.0000000E+000
  0.0000000E+000
  0.0000000E+000
  0.0000000E+000
  0.0000000E+000
  0.0000000E+000
  0.0000000E+000
  0.0000000E+000
  0.0000000E+000
  0.0000000E+000
  0.0000000E+000
  0.0000000E+000
  0.0000000E+000
  0.0000000E+000
  0.0000000E+000
  0.0000000E+000
  0.0000000E+000
  0.0000000E+000
  0.0000000E+000
  0.0000000E+000
  0.0000000E+000
  0.0000000E+000
  0.0000000E+000
  0.0000000E+000
  0.0000000E+000
  0.0000000E+000
  0.0000000E+000
  0.0000000E+000
  0.0000000E+000
  0.0000000E+000
  0.0000000E+000
  0.0000000E+000
  0.0000000E+000
  0.0000000E+000
  0.0000000E+000
  0.0000000E+000
  0.0000000E+000
  0.0000000E+000
  0.0000000E+000
  0.0000000E+000
  0.0000000E+000
  0.0000000E+000
  0.0000000E+000
  0.0000000E+000
  0.0000000E+000
  0.0000000E+000
  0.0000000E+000
  0.0000000E+000
  0.0000000E+000
  0.0000000E+000
  0.0000000E+000
  0.0000000E+000
  0.0000000E+000
  0.0000000E+000
  0.0000000E+000
  0.0000000E+000
  0.0000000E+000
  0.0000000E+000
  0.0000000E+000
  0.0000000E+000
  0.0000000E+000
  0.0000000E+000
  0.0000000E+000
  0.0000000E+000
  0.0000000E+000
  0.0000000E+000
  0.0000000E+000
  0.0000000E+000
  0.0000000E+000
  0.0000000E+000
  0.0000000E+000
  0.0000000E+000
  0.0000000E+000
  0.0000000E+000
  0.0000000E+000
  0.0000000E+000
  0.0000000E+000
  0.0000000E+000
  0.0000000E+000
  0.0000000E+000
  0.0000000E+000
  0.0000000E+000
  0.0000000E+000
  0.0000000E+000
  0.0000000E+000
  0.0000000E+000
  0.0000000E+000
  0.0000000E+000
  0.0000000E+000
  0.0000000E+000
  0.0000000E+000
  0.0000000E+000
  0.0000000E+000
  0.0000000E+000
  0.0000000E+000
  0.0000000E+000
  0.0000000E+000
  0.0000000E+000
  0.0000000E+000
  0.0000000E+000
  0.0000000E+000
  0.0000000E+000
  0.0000000E+000
  0.0000000E+000
  0.0000000E+000
  0.0000000E+000
  0.0000000E+000
  0.0000000E+000
  0.0000000E+000
  0.0000000E+000
  0.0000000E+000
  0.0000000E+000
  0.0000000E+000
  0.0000000E+000
  0.0000000E+000
  0.0000000E+000
  0.0000000E+000
  0.0000000E+000
  0.0000000E+000
  0.0000000E+000
  0.0000000E+000
  0.0000000E+000
  0.0000000E+000
  0.0000000E+000
  0.0000000E+000
  0.0000000E+000
  0.0000000E+000
  0.0000000E+000
  0.0000000E+000
  0.0000000E+000
  0.0000000E+000
  0.0000000E+000
  0.0000000E+000
  0.0000000E+000
  0.0000000E+000
  0.0000000E+000
  0.0000000E+000
  0.0000000E+000
  0.0000000E+000
  0.0000000E+000
  0.0000000E+000
  0.0000000E+000
  0.0000000E+000
  0.0000000E+000
  0.0000000E+000
  0.0000000E+000
  0.0000000E+000
  0.0000000E+000
  0.0000000E+000
  0.0000000E+000
  0.0000000E+000
  0.0000000E+000
  0.0000000E+000
  0.0000000E+000
  0.0000000E+000
  0.0000000E+000
  0.0000000E+000
  0.0000000E+000
  0.0000000E+000
  0.0000000E+000
  0.0000000E+000
  0.0000000E+000
  0.0000000E+000
  0.0000000E+000
  0.0000000E+000
  0.0000000E+000
  0.0000000E+000
  0.0000000E+000
  0.0000000E+000
  0.0000000E+000
  0.0000000E+000
  0.0000000E+000
  0.0000000E+000
  0.0000000E+000
  0.0000000E+000
  0.0000000E+000
  0.0000000E+000
  0.0000000E+000
  0.0000000E+000
  0.0000000E+000
  0.0000000E+000
  0.0000000E+000
  0.0000000E+000
  0.0000000E+000
  0.0000000E+000
  0.0000000E+000
  0.0000000E+000
  0.0000000E+000
  0.0000000E+000
  0.0000000E+000
  0.0000000E+000
  0.0000000E+000
  0.0000000E+000
  0.0000000E+000
  0.0000000E+000
  0.0000000E+000
  0.0000000E+000
  0.0000000E+000
  0.0000000E+000
  0.0000000E+000
  0.0000000E+000
  0.0000000E+000
  0.0000000E+000
  0.0000000E+000
  0.0000000E+000
  0.0000000E+000
  0.0000000E+000
  0.0000000E+000
  0.0000000E+000
  0.0000000E+000
  0.0000000E+000
  0.0000000E+000
  0.0000000E+000
  0.0000000E+000
  0.0000000E+000
  0.0000000E+000
  0.0000000E+000
  0.0000000E+000
  0.0000000E+000
  0.0000000E+000
  0.0000000E+000
  0.0000000E+000
  0.0000000E+000
  0.0000000E+000
  0.0000000E+000
  0.0000000E+000
  0.0000000E+000
  0.0000000E+000
  0.0000000E+000
  0.0000000E+000
  0.0000000E+000
  0.0000000E+000
  0.0000000E+000
  0.0000000E+000
  0.0000000E+000
  0.0000000E+000
  0.0000000E+000
  0.0000000E+000
  0.0000000E+000
  0.0000000E+000
  0.0000000E+000
  0.0000000E+000
  0.0000000E+000
  0.0000000E+000
  0.0000000E+000
  0.0000000E+000
  0.0000000E+000
  0.0000000E+000
  0.0000000E+000
  0.0000000E+000
  0.0000000E+000
  0.0000000E+000
  0.0000000E+000
SCALARS Stress_xz double
LOOKUP_TABLE default
  0.0000000E+000
  0.0000000E+000
  0.0000000E+000
  0.0000000E+000
  0.0000000E+000
  0.0000000E+000
  0.0000000E+000
  0.0000000E+000
  0.0000000E+000
  0.0000000E+000
  0.0000000E+000
  0.0000000E+000
  0.0000000E+000
  0.0000000E+000
  0.0000000E+000
  0.0000000E+000
  0.0000000E+000
  0.0000000E+000
  0.0000000E+000
  0.0000000E+000
  0.0000000E+000
  0.0000000E+000
  0.0000000E+000
  0.0000000E+000
  0.0000000E+000
  0.0000000E+000
  0.0000000E+000
  0.0000000E+000
  0.0000000E+000
  0.0000000E+000
  0.0000000E+000
  0.0000000E+000
  0.0000000E+000
  0.0000000E+000
  0.0000000E+000
  0.0000000E+000
  0.0000000E+000
  0.0000000E+000
  0.0000000E+000
  0.0000000E+000
  0.0000000E+000
  0.0000000E+000
  0.0000000E+000
  0.0000000E+000
  0.0000000E+000
  0.0000000E+000
  0.0000000E+000
  0.0000000E+000
  0.0000000E+000
  0.0000000E+000
  0.0000000E+000
  0.0000000E+000
  0.0000000E+000
  0.0000000E+000
  0.0000000E+000
  0.0000000E+000
  0.0000000E+000
  0.0000000E+000
  0.0000000E+000
  0.0000000E+000
  0.0000000E+000
  0.0000000E+000
  0.0000000E+000
  0.0000000E+000
  0.0000000E+000
  0.0000000E+000
  0.0000000E+000
  0.0000000E+000
  0.0000000E+000
  0.0000000E+000
  0.0000000E+000
  0.0000000E+000
  0.0000000E+000
  0.0000000E+000
  0.0000000E+000
  0.0000000E+000
  0.0000000E+000
  0.0000000E+000
  0.0000000E+000
  0.0000000E+000
  0.0000000E+000
  0.0000000E+000
  0.0000000E+000
  0.0000000E+000
  0.0000000E+000
  0.0000000E+000
  0.0000000E+000
  0.0000000E+000
  0.0000000E+000
  0.0000000E+000
  0.0000000E+000
  0.0000000E+000
  0.0000000E+000
  0.0000000E+000
  0.0000000E+000
  0.0000000E+000
  0.0000000E+000
  0.0000000E+000
  0.0000000E+000
  0.0000000E+000
  0.0000000E+000
  0.0000000E+000
  0.0000000E+000
  0.0000000E+000
  0.0000000E+000
  0.0000000E+000
  0.0000000E+000
  0.0000000E+000
  0.0000000E+000
  0.0000000E+000
  0.0000000E+000
  0.0000000E+000
  0.0000000E+000
  0.0000000E+000
  0.0000000E+000
  0.0000000E+000
  0.0000000E+000
  0.0000000E+000
  0.0000000E+000
  0.0000000E+000
  0.0000000E+000
  0.0000000E+000
  0.0000000E+000
  0.0000000E+000
  0.0000000E+000
  0.0000000E+000
  0.0000000E+000
  0.0000000E+000
  0.0000000E+000
  0.0000000E+000
  0.0000000E+000
  0.0000000E+000
  0.0000000E+000
  0.0000000E+000
  0.0000000E+000
  0.0000000E+000
  0.0000000E+000
  0.0000000E+000
  0.0000000E+000
  0.0000000E+000
  0.0000000E+000
  0.0000000E+000
  0.0000000E+000
  0.0000000E+000
  0.0000000E+000
  0.0000000E+000
  0.0000000E+000
  0.0000000E+000
  0.0000000E+000
  0.0000000E+000
  0.0000000E+000
  0.0000000E+000
  0.0000000E+000
  0.0000000E+000
  0.0000000E+000
  0.0000000E+000
  0.0000000E+000
  0.0000000E+000
  0.0000000E+000
  0.0000000E+000
  0.0000000E+000
  0.0000000E+000
  0.0000000E+000
  0.0000000E+000
  0.0000000E+000
  0.0000000E+000
  0.0000000E+000
  0.0000000E+000
  0.0000000E+000
  0.0000000E+000
  0.0000000E+000
  0.0000000E+000
  0.0000000E+000
  0.0000000E+000
  0.0000000E+000
  0.0000000E+000
  0.0000000E+000
  0.0000000E+000
  0.0000000E+000
  0.0000000E+000
  0.0000000E+000
  0.0000000E+000
  0.0000000E+000
  0.0000000E+000
  0.0000000E+000
  0.0000000E+000
  0.0000000E+000
  0.0000000E+000
  0.0000000E+000
  0.0000000E+000
  0.0000000E+000
  0.0000000E+000
  0.0000000E+000
  0.0000000E+000
  0.0000000E+000
  0.0000000E+000
  0.0000000E+000
  0.0000000E+000
  0.0000000E+000
  0.0000000E+000
  0.0000000E+000
  0.0000000E+000
  0.0000000E+000
  0.0000000E+000
  0.0000000E+000
  0.0000000E+000
  0.0000000E+000
  0.0000000E+000
  0.0000000E+000
  0.0000000E+000
  0.0000000E+000
  0.0000000E+000
  0.0000000E+000
  0.0000000E+000
  0.0000000E+000
  0.0000000E+000
  0.0000000E+000
  0.0000000E+000
  0.0000000E+000
  0.0000000E+000
  0.0000000E+000
  0.0000000E+000
  0.0000000E+000
  0.0000000E+000
  0.0000000E+000
  0.0000000E+000
  0.0000000E+000
  0.0000000E+000
  0.0000000E+000
  0.0000000E+000
  0.0000000E+000
  0.0000000E+000
  0.0000000E+000
  0.0000000E+000
  0.0000000E+000
  0.0000000E+000
  0.0000000E+000
  0.0000000E+000
  0.0000000E+000
  0.0000000E+000
  0.0000000E+000
  0.0000000E+000
  0.0000000E+000
  0.0000000E+000
  0.0000000E+000
  0.0000000E+000
  0.0000000E+000
  0.0000000E+000
  0.0000000E+000
  0.0000000E+000
  0.0000000E+000
  0.0000000E+000
  0.0000000E+000
  0.0000000E+000
  0.0000000E+000
  0.0000000E+000
  0.0000000E+000
  0.0000000E+000
  0.0000000E+000
  0.0000000E+000
  0.0000000E+000
  0.0000000E+000
  0.0000000E+000
  0.0000000E+000
  0.0000000E+000
  0.0000000E+000
  0.0000000E+000
  0.0000000E+000
  0.0000000E+000
  0.0000000E+000
  0.0000000E+000
  0.0000000E+000
  0.0000000E+000
  0.0000000E+000
  0.0000000E+000
  0.0000000E+000
  0.0000000E+000
  0.0000000E+000
  0.0000000E+000
  0.0000000E+000
  0.0000000E+000
  0.0000000E+000
  0.0000000E+000
  0.0000000E+000
  0.0000000E+000
  0.0000000E+000
  0.0000000E+000
  0.0000000E+000
  0.0000000E+000
  0.0000000E+000
  0.0000000E+000
  0.0000000E+000
  0.0000000E+000
  0.0000000E+000
  0.0000000E+000
  0.0000000E+000
  0.0000000E+000
  0.0000000E+000
  0.0000000E+000
  0.0000000E+000
  0.0000000E+000
  0.0000000E+000
  0.0000000E+000
  0.0000000E+000
  0.0000000E+000
  0.0000000E+000
  0.0000000E+000
  0.0000000E+000
  0.0000000E+000
  0.0000000E+000
  0.0000000E+000
  0.0000000E+000
  0.0000000E+000
  0.0000000E+000
  0.0000000E+000
  0.0000000E+000
  0.0000000E+000
  0.0000000E+000
  0.0000000E+000
  0.0000000E+000
  0.0000000E+000
  0.0000000E+000
  0.0000000E+000
  0.0000000E+000
  0.0000000E+000
  0.0000000E+000
  0.0000000E+000
  0.0000000E+000
  0.0000000E+000
  0.0000000E+000
  0.0000000E+000
  0.0000000E+000
  0.0000000E+000
  0.0000000E+000
  0.0000000E+000
  0.0000000E+000
  0.0000000E+000
  0.0000000E+000
  0.0000000E+000
  0.0000000E+000
  0.0000000E+000
  0.0000000E+000
  0.0000000E+000
  0.0000000E+000
  0.0000000E+000
  0.0000000E+000
  0.0000000E+000
  0.0000000E+000
  0.0000000E+000
  0.0000000E+000
  0.0000000E+000
  0.0000000E+000
  0.0000000E+000
  0.0000000E+000
  0.0000000E+000
  0.0000000E+000
  0.0000000E+000
  0.0000000E+000
  0.0000000E+000
  0.0000000E+000
  0.0000000E+000
  0.0000000E+000
  0.0000000E+000
  0.0000000E+000
  0.0000000E+000
  0.0000000E+000
  0.0000000E+000
  0.0000000E+000
  0.0000000E+000
  0.0000000E+000
  0.0000000E+000
  0.0000000E+000
  0.0000000E+000
  0.0000000E+000
  0.0000000E+000
  0.0000000E+000
  0.0000000E+000
  0.0000000E+000
  0.0000000E+000
  0.0000000E+000
  0.0000000E+000
  0.0000000E+000
  0.0000000E+000
  0.0000000E+000
  0.0000000E+000
  0.0000000E+000
  0.0000000E+000
  0.0000000E+000
  0.0000000E+000
  0.0000000E+000
  0.0000000E+000
  0.0000000E+000
  0.0000000E+000
  0.0000000E+000
  0.0000000E+000
  0.0000000E+000
  0.0000000E+000
  0.0000000E+000
  0.0000000E+000
  0.0000000E+000
  0.0000000E+000
  0.0000000E+000
  0.0000000E+000
  0.0000000E+000
  0.0000000E+000
  0.0000000E+000
  0.0000000E+000
  0.0000000E+000
  0.0000000E+000
  0.0000000E+000
  0.0000000E+000
  0.0000000E+000
  0.0000000E+000
  0.0000000E+000
  0.0000000E+000
  0.0000000E+000
  0.0000000E+000
  0.0000000E+000
  0.0000000E+000
  0.0000000E+000
  0.0000000E+000
  0.0000000E+000
  0.0000000E+000
  0.0000000E+000
  0.0000000E+000
  0.0000000E+000
  0.0000000E+000
  0.0000000E+000
  0.0000000E+000
  0.0000000E+000
  0.0000000E+000
  0.0000000E+000
  0.0000000E+000
  0.0000000E+000
  0.0000000E+000
  0.0000000E+000
  0.0000000E+000
  0.0000000E+000
  0.0000000E+000
  0.0000000E+000
  0.0000000E+000
  0.0000000E+000
  0.0000000E+000
  0.0000000E+000
  0.0000000E+000
  0.0000000E+000
  0.0000000E+000
  0.0000000E+000
  0.0000000E+000
  0.0000000E+000
  0.0000000E+000
  0.0000000E+000
  0.0000000E+000
  0.0000000E+000
  0.0000000E+000
  0.0000000E+000
  0.0000000E+000
  0.0000000E+000
  0.0000000E+000
  0.0000000E+000
  0.0000000E+000
  0.0000000E+000
  0.0000000E+000
  0.0000000E+000
  0.0000000E+000
  0.0000000E+000
  0.0000000E+000
  0.0000000E+000
  0.0000000E+000
  0.0000000E+000
  0.0000000E+000
  0.0000000E+000
  0.0000000E+000
  0.0000000E+000
  0.0000000E+000
  0.0000000E+000
  0.0000000E+000
  0.0000000E+000
  0.0000000E+000
  0.0000000E+000
  0.0000000E+000
  0.0000000E+000
  0.0000000E+000
  0.0000000E+000
  0.0000000E+000
  0.0000000E+000
  0.0000000E+000
  0.0000000E+000
  0.0000000E+000
  0.0000000E+000
  0.0000000E+000
  0.0000000E+000
  0.0000000E+000
  0.0000000E+000
  0.0000000E+000
  0.0000000E+000
  0.0000000E+000
  0.0000000E+000
  0.0000000E+000
  0.0000000E+000
  0.0000000E+000
  0.0000000E+000
  0.0000000E+000
  0.0000000E+000
  0.0000000E+000
  0.0000000E+000
  0.0000000E+000
  0.0000000E+000
  0.0000000E+000
  0.0000000E+000
  0.0000000E+000
  0.0000000E+000
  0.0000000E+000
  0.0000000E+000
  0.0000000E+000
  0.0000000E+000
  0.0000000E+000
  0.0000000E+000
  0.0000000E+000
  0.0000000E+000
  0.0000000E+000
  0.0000000E+000
  0.0000000E+000
  0.0000000E+000
  0.0000000E+000
  0.0000000E+000
  0.0000000E+000
  0.0000000E+000
  0.0000000E+000
  0.0000000E+000
  0.0000000E+000
  0.0000000E+000
  0.0000000E+000
  0.0000000E+000
  0.0000000E+000
  0.0000000E+000
  0.0000000E+000
  0.0000000E+000
  0.0000000E+000
  0.0000000E+000
  0.0000000E+000
  0.0000000E+000
  0.0000000E+000
  0.0000000E+000
  0.0000000E+000
  0.0000000E+000
  0.0000000E+000
  0.0000000E+000
  0.0000000E+000
  0.0000000E+000
  0.0000000E+000
  0.0000000E+000
  0.0000000E+000
  0.0000000E+000
  0.0000000E+000
  0.0000000E+000
  0.0000000E+000
  0.0000000E+000
  0.0000000E+000
  0.0000000E+000
  0.0000000E+000
  0.0000000E+000
  0.0000000E+000
  0.0000000E+000
  0.0000000E+000
  0.0000000E+000
  0.0000000E+000
  0.0000000E+000
  0.0000000E+000
  0.0000000E+000
  0.0000000E+000
  0.0000000E+000
  0.0000000E+000
  0.0000000E+000
  0.0000000E+000
  0.0000000E+000
  0.0000000E+000
  0.0000000E+000
  0.0000000E+000
  0.0000000E+000
  0.0000000E+000
  0.0000000E+000
  0.0000000E+000
  0.0000000E+000
  0.0000000E+000
  0.0000000E+000
  0.0000000E+000
  0.0000000E+000
  0.0000000E+000
  0.0000000E+000
  0.0000000E+000
  0.0000000E+000
  0.0000000E+000
  0.0000000E+000
  0.0000000E+000
  0.0000000E+000
  0.0000000E+000
  0.0000000E+000
  0.0000000E+000
  0.0000000E+000
  0.0000000E+000
  0.0000000E+000
  0.0000000E+000
  0.0000000E+000
  0.0000000E+000
  0.0000000E+000
  0.0000000E+000
  0.0000000E+000
  0.0000000E+000
  0.0000000E+000
  0.0000000E+000
  0.0000000E+000
  0.0000000E+000
  0.0000000E+000
  0.0000000E+000
  0.0000000E+000
  0.0000000E+000
  0.0000000E+000
  0.0000000E+000
  0.0000000E+000
  0.0000000E+000
  0.0000000E+000
  0.0000000E+000
  0.0000000E+000
  0.0000000E+000
  0.0000000E+000
  0.0000000E+000
  0.0000000E+000
  0.0000000E+000
  0.0000000E+000
  0.0000000E+000
  0.0000000E+000
  0.0000000E+000
  0.0000000E+000
  0.0000000E+000
  0.0000000E+000
  0.0000000E+000
  0.0000000E+000
  0.0000000E+000
  0.0000000E+000
  0.0000000E+000
  0.0000000E+000
  0.0000000E+000
  0.0000000E+000
  0.0000000E+000
  0.0000000E+000
  0.0000000E+000
  0.0000000E+000
  0.0000000E+000
  0.0000000E+000
  0.0000000E+000
  0.0000000E+000
  0.0000000E+000
  0.0000000E+000
  0.0000000E+000
  0.0000000E+000
  0.0000000E+000
  0.0000000E+000
  0.0000000E+000
  0.0000000E+000
  0.0000000E+000
  0.0000000E+000
  0.0000000E+000
  0.0000000E+000
  0.0000000E+000
  0.0000000E+000
  0.0000000E+000
  0.0000000E+000
  0.0000000E+000
  0.0000000E+000
  0.0000000E+000
  0.0000000E+000
  0.0000000E+000
  0.0000000E+000
  0.0000000E+000
  0.0000000E+000
  0.0000000E+000
  0.0000000E+000
  0.0000000E+000
  0.0000000E+000
  0.0000000E+000
  0.0000000E+000
  0.0000000E+000
  0.0000000E+000
  0.0000000E+000
  0.0000000E+000
  0.0000000E+000
  0.0000000E+000
  0.0000000E+000
  0.0000000E+000
  0.0000000E+000
  0.0000000E+000
  0.0000000E+000
  0.0000000E+000
  0.0000000E+000
  0.0000000E+000
  0.0000000E+000
  0.0000000E+000
  0.0000000E+000
  0.0000000E+000
  0.0000000E+000
  0.0000000E+000
  0.0000000E+000
  0.0000000E+000
  0.0000000E+000
  0.0000000E+000
  0.0000000E+000
  0.0000000E+000
  0.0000000E+000
  0.0000000E+000
  0.0000000E+000
  0.0000000E+000
  0.0000000E+000
  0.0000000E+000
  0.0000000E+000
  0.0000000E+000
  0.0000000E+000
  0.0000000E+000
  0.0000000E+000
  0.0000000E+000
  0.0000000E+000
  0.0000000E+000
  0.0000000E+000
  0.0000000E+000
  0.0000000E+000
  0.0000000E+000
  0.0000000E+000
  0.0000000E+000
  0.0000000E+000
  0.0000000E+000
  0.0000000E+000
  0.0000000E+000
  0.0000000E+000
  0.0000000E+000
  0.0000000E+000
  0.0000000E+000
  0.0000000E+000
  0.0000000E+000
  0.0000000E+000
  0.0000000E+000
  0.0000000E+000
  0.0000000E+000
  0.0000000E+000
  0.0000000E+000
  0.0000000E+000
  0.0000000E+000
  0.0000000E+000
  0.0000000E+000
  0.0000000E+000
  0.0000000E+000
  0.0000000E+000
  0.0000000E+000
  0.0000000E+000
  0.0000000E+000
  0.0000000E+000
  0.0000000E+000
  0.0000000E+000
  0.0000000E+000
  0.0000000E+000
  0.0000000E+000
  0.0000000E+000
  0.0000000E+000
  0.0000000E+000
  0.0000000E+000
  0.0000000E+000
  0.0000000E+000
  0.0000000E+000
  0.0000000E+000
  0.0000000E+000
  0.0000000E+000
  0.0000000E+000
  0.0000000E+000
  0.0000000E+000
  0.0000000E+000
  0.0000000E+000
  0.0000000E+000
  0.0000000E+000
  0.0000000E+000
  0.0000000E+000
  0.0000000E+000
  0.0000000E+000
  0.0000000E+000
  0.0000000E+000
  0.0000000E+000
  0.0000000E+000
  0.0000000E+000
  0.0000000E+000
  0.0000000E+000
  0.0000000E+000
  0.0000000E+000
  0.0000000E+000
  0.0000000E+000
  0.0000000E+000
  0.0000000E+000
  0.0000000E+000
  0.0000000E+000
  0.0000000E+000
  0.0000000E+000
  0.0000000E+000
  0.0000000E+000
  0.0000000E+000
  0.0000000E+000
  0.0000000E+000
  0.0000000E+000
  0.0000000E+000
  0.0000000E+000
  0.0000000E+000
  0.0000000E+000
  0.0000000E+000
  0.0000000E+000
  0.0000000E+000
  0.0000000E+000
  0.0000000E+000
  0.0000000E+000
  0.0000000E+000
  0.0000000E+000
  0.0000000E+000
  0.0000000E+000
  0.0000000E+000
  0.0000000E+000
  0.0000000E+000
  0.0000000E+000
  0.0000000E+000
  0.0000000E+000
  0.0000000E+000
  0.0000000E+000
  0.0000000E+000
  0.0000000E+000
  0.0000000E+000
  0.0000000E+000
  0.0000000E+000
  0.0000000E+000
  0.0000000E+000
  0.0000000E+000
  0.0000000E+000
  0.0000000E+000
  0.0000000E+000
  0.0000000E+000
  0.0000000E+000
  0.0000000E+000
  0.0000000E+000
  0.0000000E+000
  0.0000000E+000
  0.0000000E+000
  0.0000000E+000
  0.0000000E+000
  0.0000000E+000
  0.0000000E+000
  0.0000000E+000
  0.0000000E+000
  0.0000000E+000
  0.0000000E+000
  0.0000000E+000
  0.0000000E+000
  0.0000000E+000
  0.0000000E+000
  0.0000000E+000
  0.0000000E+000
  0.0000000E+000
  0.0000000E+000
  0.0000000E+000
  0.0000000E+000
  0.0000000E+000
  0.0000000E+000
  0.0000000E+000
  0.0000000E+000
  0.0000000E+000
  0.0000000E+000
  0.0000000E+000
  0.0000000E+000
  0.0000000E+000
  0.0000000E+000
  0.0000000E+000
  0.0000000E+000
  0.0000000E+000
  0.0000000E+000
  0.0000000E+000
  0.0000000E+000
  0.0000000E+000
  0.0000000E+000
  0.0000000E+000
  0.0000000E+000
  0.0000000E+000
  0.0000000E+000
  0.0000000E+000
  0.0000000E+000
  0.0000000E+000
  0.0000000E+000
  0.0000000E+000
  0.0000000E+000
  0.0000000E+000
  0.0000000E+000
  0.0000000E+000
  0.0000000E+000
  0.0000000E+000
  0.0000000E+000
  0.0000000E+000
  0.0000000E+000
  0.0000000E+000
  0.0000000E+000
  0.0000000E+000
  0.0000000E+000
  0.0000000E+000
  0.0000000E+000
  0.0000000E+000
  0.0000000E+000
  0.0000000E+000
  0.0000000E+000
  0.0000000E+000
  0.0000000E+000
  0.0000000E+000
  0.0000000E+000
  0.0000000E+000
  0.0000000E+000
  0.0000000E+000
  0.0000000E+000
  0.0000000E+000
  0.0000000E+000
  0.0000000E+000
  0.0000000E+000
  0.0000000E+000
  0.0000000E+000
  0.0000000E+000
  0.0000000E+000
  0.0000000E+000
  0.0000000E+000
  0.0000000E+000
  0.0000000E+000
  0.0000000E+000
  0.0000000E+000
  0.0000000E+000
  0.0000000E+000
  0.0000000E+000
  0.0000000E+000
  0.0000000E+000
  0.0000000E+000
  0.0000000E+000
  0.0000000E+000
  0.0000000E+000
  0.0000000E+000
  0.0000000E+000
  0.0000000E+000
  0.0000000E+000
  0.0000000E+000
  0.0000000E+000
  0.0000000E+000
  0.0000000E+000
  0.0000000E+000
  0.0000000E+000
  0.0000000E+000
  0.0000000E+000
  0.0000000E+000
  0.0000000E+000
  0.0000000E+000
  0.0000000E+000
  0.0000000E+000
  0.0000000E+000
  0.0000000E+000
  0.0000000E+000
  0.0000000E+000
  0.0000000E+000
  0.0000000E+000
  0.0000000E+000
  0.0000000E+000
  0.0000000E+000
  0.0000000E+000
  0.0000000E+000
  0.0000000E+000
  0.0000000E+000
  0.0000000E+000
  0.0000000E+000
  0.0000000E+000
  0.0000000E+000
  0.0000000E+000
  0.0000000E+000
  0.0000000E+000
  0.0000000E+000
  0.0000000E+000
  0.0000000E+000
  0.0000000E+000
  0.0000000E+000
  0.0000000E+000
  0.0000000E+000
  0.0000000E+000
  0.0000000E+000
  0.0000000E+000
  0.0000000E+000
  0.0000000E+000
  0.0000000E+000
  0.0000000E+000
  0.0000000E+000
  0.0000000E+000
  0.0000000E+000
  0.0000000E+000
  0.0000000E+000
  0.0000000E+000
  0.0000000E+000
  0.0000000E+000
  0.0000000E+000
  0.0000000E+000
  0.0000000E+000
  0.0000000E+000
  0.0000000E+000
  0.0000000E+000
  0.0000000E+000
  0.0000000E+000
  0.0000000E+000
  0.0000000E+000
  0.0000000E+000
  0.0000000E+000
  0.0000000E+000
  0.0000000E+000
  0.0000000E+000
  0.0000000E+000
  0.0000000E+000
  0.0000000E+000
  0.0000000E+000
  0.0000000E+000
  0.0000000E+000
  0.0000000E+000
  0.0000000E+000
  0.0000000E+000
  0.0000000E+000
  0.0000000E+000
  0.0000000E+000
  0.0000000E+000
  0.0000000E+000
  0.0000000E+000
  0.0000000E+000
  0.0000000E+000
  0.0000000E+000
  0.0000000E+000
  0.0000000E+000
  0.0000000E+000
  0.0000000E+000
  0.0000000E+000
  0.0000000E+000
  0.0000000E+000
  0.0000000E+000
  0.0000000E+000
  0.0000000E+000
  0.0000000E+000
  0.0000000E+000
  0.0000000E+000
  0.0000000E+000
  0.0000000E+000
  0.0000000E+000
  0.0000000E+000
  0.0000000E+000
  0.0000000E+000
  0.0000000E+000
  0.0000000E+000
  0.0000000E+000
  0.0000000E+000
  0.0000000E+000
  0.0000000E+000
  0.0000000E+000
  0.0000000E+000
  0.0000000E+000
  0.0000000E+000
  0.0000000E+000
  0.0000000E+000
  0.0000000E+000
  0.0000000E+000
  0.0000000E+000
  0.0000000E+000
  0.0000000E+000
  0.0000000E+000
  0.0000000E+000
  0.0000000E+000
  0.0000000E+000
  0.0000000E+000
  0.0000000E+000
  0.0000000E+000
  0.0000000E+000
  0.0000000E+000
  0.0000000E+000
  0.0000000E+000
  0.0000000E+000
  0.0000000E+000
  0.0000000E+000
  0.0000000E+000
  0.0000000E+000
  0.0000000E+000
  0.0000000E+000
  0.0000000E+000
  0.0000000E+000
  0.0000000E+000
  0.0000000E+000
  0.0000000E+000
  0.0000000E+000
  0.0000000E+000
  0.0000000E+000
  0.0000000E+000
  0.0000000E+000
  0.0000000E+000
  0.0000000E+000
  0.0000000E+000
  0.0000000E+000
  0.0000000E+000
  0.0000000E+000
  0.0000000E+000
  0.0000000E+000
  0.0000000E+000
  0.0000000E+000
  0.0000000E+000
  0.0000000E+000
  0.0000000E+000
  0.0000000E+000
  0.0000000E+000
  0.0000000E+000
  0.0000000E+000
  0.0000000E+000
  0.0000000E+000
  0.0000000E+000
  0.0000000E+000
  0.0000000E+000
  0.0000000E+000
  0.0000000E+000
  0.0000000E+000
  0.0000000E+000
  0.0000000E+000
  0.0000000E+000
  0.0000000E+000
  0.0000000E+000
  0.0000000E+000
  0.0000000E+000
  0.0000000E+000
  0.0000000E+000
  0.0000000E+000
  0.0000000E+000
  0.0000000E+000
  0.0000000E+000
  0.0000000E+000
  0.0000000E+000
  0.0000000E+000
  0.0000000E+000
  0.0000000E+000
  0.0000000E+000
  0.0000000E+000
  0.0000000E+000
  0.0000000E+000
  0.0000000E+000
  0.0000000E+000
  0.0000000E+000
  0.0000000E+000
  0.0000000E+000
  0.0000000E+000
  0.0000000E+000
  0.0000000E+000
  0.0000000E+000
  0.0000000E+000
  0.0000000E+000
  0.0000000E+000
  0.0000000E+000
  0.0000000E+000
  0.0000000E+000
  0.0000000E+000
  0.0000000E+000
  0.0000000E+000
  0.0000000E+000
  0.0000000E+000
  0.0000000E+000
  0.0000000E+000
  0.0000000E+000
  0.0000000E+000
  0.0000000E+000
  0.0000000E+000
  0.0000000E+000
  0.0000000E+000
  0.0000000E+000
  0.0000000E+000
  0.0000000E+000
  0.0000000E+000
  0.0000000E+000
  0.0000000E+000
  0.0000000E+000
  0.0000000E+000
  0.0000000E+000
  0.0000000E+000
  0.0000000E+000
  0.0000000E+000
  0.0000000E+000
  0.0000000E+000
  0.0000000E+000
  0.0000000E+000
  0.0000000E+000
  0.0000000E+000
  0.0000000E+000
  0.0000000E+000
  0.0000000E+000
  0.0000000E+000
  0.0000000E+000
  0.0000000E+000
  0.0000000E+000
  0.0000000E+000
  0.0000000E+000
  0.0000000E+000
  0.0000000E+000
  0.0000000E+000
  0.0000000E+000
  0.0000000E+000
  0.0000000E+000
  0.0000000E+000
  0.0000000E+000
  0.0000000E+000
  0.0000000E+000
  0.0000000E+000
  0.0000000E+000
  0.0000000E+000
  0.0000000E+000
  0.0000000E+000
  0.0000000E+000
  0.0000000E+000
  0.0000000E+000
  0.0000000E+000
  0.0000000E+000
  0.0000000E+000
  0.0000000E+000
  0.0000000E+000
  0.0000000E+000
  0.0000000E+000
  0.0000000E+000
  0.0000000E+000
  0.0000000E+000
  0.0000000E+000
  0.0000000E+000
  0.0000000E+000
  0.0000000E+000
  0.0000000E+000
  0.0000000E+000
  0.0000000E+000
  0.0000000E+000
  0.0000000E+000
  0.0000000E+000
  0.0000000E+000
  0.0000000E+000
  0.0000000E+000
  0.0000000E+000
  0.0000000E+000
  0.0000000E+000
  0.0000000E+000
  0.0000000E+000
  0.0000000E+000
  0.0000000E+000
  0.0000000E+000
  0.0000000E+000
  0.0000000E+000
  0.0000000E+000
  0.0000000E+000
  0.0000000E+000
  0.0000000E+000
  0.0000000E+000
  0.0000000E+000
  0.0000000E+000
  0.0000000E+000
  0.0000000E+000
  0.0000000E+000
  0.0000000E+000
  0.0000000E+000
  0.0000000E+000
  0.0000000E+000
  0.0000000E+000
  0.0000000E+000
  0.0000000E+000
  0.0000000E+000
  0.0000000E+000
  0.0000000E+000
  0.0000000E+000
  0.0000000E+000
  0.0000000E+000
  0.0000000E+000
  0.0000000E+000
  0.0000000E+000
  0.0000000E+000
  0.0000000E+000
  0.0000000E+000
  0.0000000E+000
  0.0000000E+000
  0.0000000E+000
  0.0000000E+000
  0.0000000E+000
  0.0000000E+000
  0.0000000E+000
  0.0000000E+000
  0.0000000E+000
  0.0000000E+000
  0.0000000E+000
  0.0000000E+000
  0.0000000E+000
  0.0000000E+000
  0.0000000E+000
  0.0000000E+000
  0.0000000E+000
  0.0000000E+000
  0.0000000E+000
  0.0000000E+000
  0.0000000E+000
  0.0000000E+000
  0.0000000E+000
  0.0000000E+000
  0.0000000E+000
  0.0000000E+000
  0.0000000E+000
  0.0000000E+000
  0.0000000E+000
  0.0000000E+000
  0.0000000E+000
  0.0000000E+000
  0.0000000E+000
  0.0000000E+000
  0.0000000E+000
  0.0000000E+000
  0.0000000E+000
  0.0000000E+000
  0.0000000E+000
  0.0000000E+000
  0.0000000E+000
  0.0000000E+000
  0.0000000E+000
  0.0000000E+000
  0.0000000E+000
  0.0000000E+000
  0.0000000E+000
  0.0000000E+000
  0.0000000E+000
  0.0000000E+000
  0.0000000E+000
  0.0000000E+000
  0.0000000E+000
  0.0000000E+000
  0.0000000E+000
  0.0000000E+000
  0.0000000E+000
  0.0000000E+000
  0.0000000E+000
  0.0000000E+000
  0.0000000E+000
  0.0000000E+000
  0.0000000E+000
  0.0000000E+000
  0.0000000E+000
  0.0000000E+000
  0.0000000E+000
  0.0000000E+000
  0.0000000E+000
  0.0000000E+000
  0.0000000E+000
  0.0000000E+000
  0.0000000E+000
  0.0000000E+000
  0.0000000E+000
  0.0000000E+000
  0.0000000E+000
  0.0000000E+000
  0.0000000E+000
  0.0000000E+000
  0.0000000E+000
  0.0000000E+000
  0.0000000E+000
  0.0000000E+000
  0.0000000E+000
  0.0000000E+000
  0.0000000E+000
  0.0000000E+000
  0.0000000E+000
  0.0000000E+000
  0.0000000E+000
  0.0000000E+000
  0.0000000E+000
  0.0000000E+000
  0.0000000E+000
  0.0000000E+000
  0.0000000E+000
  0.0000000E+000
  0.0000000E+000
  0.0000000E+000
  0.0000000E+000
  0.0000000E+000
  0.0000000E+000
  0.0000000E+000
  0.0000000E+000
  0.0000000E+000
  0.0000000E+000
  0.0000000E+000
  0.0000000E+000
  0.0000000E+000
  0.0000000E+000
  0.0000000E+000
  0.0000000E+000
  0.0000000E+000
  0.0000000E+000
  0.0000000E+000
  0.0000000E+000
  0.0000000E+000
  0.0000000E+000
  0.0000000E+000
  0.0000000E+000
  0.0000000E+000
  0.0000000E+000
  0.0000000E+000
  0.0000000E+000
  0.0000000E+000
  0.0000000E+000
  0.0000000E+000
  0.0000000E+000
  0.0000000E+000
  0.0000000E+000
  0.0000000E+000
  0.0000000E+000
  0.0000000E+000
  0.0000000E+000
  0.0000000E+000
  0.0000000E+000
  0.0000000E+000
  0.0000000E+000
  0.0000000E+000
  0.0000000E+000
  0.0000000E+000
  0.0000000E+000
  0.0000000E+000
  0.0000000E+000
  0.0000000E+000
  0.0000000E+000
  0.0000000E+000
  0.0000000E+000
  0.0000000E+000
  0.0000000E+000
  0.0000000E+000
  0.0000000E+000
  0.0000000E+000
  0.0000000E+000
  0.0000000E+000
  0.0000000E+000
  0.0000000E+000
  0.0000000E+000
  0.0000000E+000
  0.0000000E+000
  0.0000000E+000
  0.0000000E+000
  0.0000000E+000
  0.0000000E+000
  0.0000000E+000
  0.0000000E+000
  0.0000000E+000
  0.0000000E+000
  0.0000000E+000
  0.0000000E+000
  0.0000000E+000
  0.0000000E+000
  0.0000000E+000
  0.0000000E+000
  0.0000000E+000
  0.0000000E+000
  0.0000000E+000
  0.0000000E+000
  0.0000000E+000
  0.0000000E+000
  0.0000000E+000
  0.0000000E+000
  0.0000000E+000
  0.0000000E+000
  0.0000000E+000
  0.0000000E+000
  0.0000000E+000
  0.0000000E+000
  0.0000000E+000
  0.0000000E+000
  0.0000000E+000
  0.0000000E+000
  0.0000000E+000
  0.0000000E+000
  0.0000000E+000
  0.0000000E+000
  0.0000000E+000
  0.0000000E+000
  0.0000000E+000
  0.0000000E+000
  0.0000000E+000
  0.0000000E+000
  0.0000000E+000
  0.0000000E+000
  0.0000000E+000
  0.0000000E+000
  0.0000000E+000
  0.0000000E+000
  0.0000000E+000
  0.0000000E+000
  0.0000000E+000
  0.0000000E+000
  0.0000000E+000
  0.0000000E+000
  0.0000000E+000
  0.0000000E+000
  0.0000000E+000
  0.0000000E+000
  0.0000000E+000
  0.0000000E+000
  0.0000000E+000
  0.0000000E+000
  0.0000000E+000
  0.0000000E+000
  0.0000000E+000
  0.0000000E+000
  0.0000000E+000
  0.0000000E+000
  0.0000000E+000
  0.0000000E+000
  0.0000000E+000
  0.0000000E+000
  0.0000000E+000
  0.0000000E+000
  0.0000000E+000
  0.0000000E+000
  0.0000000E+000
  0.0000000E+000
  0.0000000E+000
  0.0000000E+000
  0.0000000E+000
  0.0000000E+000
  0.0000000E+000
  0.0000000E+000
  0.0000000E+000
  0.0000000E+000
  0.0000000E+000
  0.0000000E+000
  0.0000000E+000
  0.0000000E+000
  0.0000000E+000
  0.0000000E+000
  0.0000000E+000
  0.0000000E+000
  0.0000000E+000
  0.0000000E+000
  0.0000000E+000
  0.0000000E+000
  0.0000000E+000
  0.0000000E+000
  0.0000000E+000
  0.0000000E+000
  0.0000000E+000
  0.0000000E+000
  0.0000000E+000
  0.0000000E+000
  0.0000000E+000
  0.0000000E+000
  0.0000000E+000
  0.0000000E+000
  0.0000000E+000
  0.0000000E+000
  0.0000000E+000
  0.0000000E+000
  0.0000000E+000
  0.0000000E+000
  0.0000000E+000
  0.0000000E+000
  0.0000000E+000
  0.0000000E+000
  0.0000000E+000
  0.0000000E+000
  0.0000000E+000
  0.0000000E+000
  0.0000000E+000
  0.0000000E+000
  0.0000000E+000
  0.0000000E+000
  0.0000000E+000
  0.0000000E+000
  0.0000000E+000
  0.0000000E+000
  0.0000000E+000
  0.0000000E+000
  0.0000000E+000
  0.0000000E+000
  0.0000000E+000
  0.0000000E+000
  0.0000000E+000
  0.0000000E+000
  0.0000000E+000
  0.0000000E+000
  0.0000000E+000
  0.0000000E+000
  0.0000000E+000
  0.0000000E+000
  0.0000000E+000
  0.0000000E+000
  0.0000000E+000
  0.0000000E+000
  0.0000000E+000
  0.0000000E+000
  0.0000000E+000
  0.0000000E+000
  0.0000000E+000
  0.0000000E+000
  0.0000000E+000
  0.0000000E+000
  0.0000000E+000
  0.0000000E+000
  0.0000000E+000
  0.0000000E+000
  0.0000000E+000
  0.0000000E+000
  0.0000000E+000
  0.0000000E+000
  0.0000000E+000
  0.0000000E+000
  0.0000000E+000
  0.0000000E+000
  0.0000000E+000
  0.0000000E+000
  0.0000000E+000
  0.0000000E+000
  0.0000000E+000
  0.0000000E+000
  0.0000000E+000
  0.0000000E+000
  0.0000000E+000
  0.0000000E+000
  0.0000000E+000
  0.0000000E+000
  0.0000000E+000
  0.0000000E+000
  0.0000000E+000
  0.0000000E+000
  0.0000000E+000
  0.0000000E+000
  0.0000000E+000
  0.0000000E+000
  0.0000000E+000
  0.0000000E+000
  0.0000000E+000
  0.0000000E+000
  0.0000000E+000
  0.0000000E+000
  0.0000000E+000
  0.0000000E+000
  0.0000000E+000
  0.0000000E+000
  0.0000000E+000
  0.0000000E+000
  0.0000000E+000
  0.0000000E+000
  0.0000000E+000
  0.0000000E+000
  0.0000000E+000
  0.0000000E+000
  0.0000000E+000
  0.0000000E+000
  0.0000000E+000
  0.0000000E+000
  0.0000000E+000
  0.0000000E+000
  0.0000000E+000
  0.0000000E+000
  0.0000000E+000
  0.0000000E+000
  0.0000000E+000
  0.0000000E+000
  0.0000000E+000
  0.0000000E+000
  0.0000000E+000
  0.0000000E+000
  0.0000000E+000
  0.0000000E+000
  0.0000000E+000
  0.0000000E+000
  0.0000000E+000
  0.0000000E+000
  0.0000000E+000
  0.0000000E+000
  0.0000000E+000
  0.0000000E+000
  0.0000000E+000
  0.0000000E+000
  0.0000000E+000
  0.0000000E+000
  0.0000000E+000
  0.0000000E+000
  0.0000000E+000
  0.0000000E+000
  0.0000000E+000
  0.0000000E+000
  0.0000000E+000
  0.0000000E+000
  0.0000000E+000
  0.0000000E+000
  0.0000000E+000
  0.0000000E+000
  0.0000000E+000
  0.0000000E+000
  0.0000000E+000
  0.0000000E+000
  0.0000000E+000
  0.0000000E+000
  0.0000000E+000
  0.0000000E+000
  0.0000000E+000
  0.0000000E+000
  0.0000000E+000
  0.0000000E+000
  0.0000000E+000
  0.0000000E+000
  0.0000000E+000
  0.0000000E+000
  0.0000000E+000
  0.0000000E+000
  0.0000000E+000
  0.0000000E+000
  0.0000000E+000
  0.0000000E+000
  0.0000000E+000
  0.0000000E+000
  0.0000000E+000
  0.0000000E+000
  0.0000000E+000
  0.0000000E+000
  0.0000000E+000
  0.0000000E+000
  0.0000000E+000
  0.0000000E+000
  0.0000000E+000
  0.0000000E+000
  0.0000000E+000
  0.0000000E+000
  0.0000000E+000
  0.0000000E+000
  0.0000000E+000
  0.0000000E+000
  0.0000000E+000
  0.0000000E+000
  0.0000000E+000
  0.0000000E+000
  0.0000000E+000
  0.0000000E+000
  0.0000000E+000
  0.0000000E+000
  0.0000000E+000
  0.0000000E+000
  0.0000000E+000
  0.0000000E+000
  0.0000000E+000
  0.0000000E+000
  0.0000000E+000
  0.0000000E+000
  0.0000000E+000
  0.0000000E+000
  0.0000000E+000
  0.0000000E+000
  0.0000000E+000
  0.0000000E+000
  0.0000000E+000
  0.0000000E+000
  0.0000000E+000
  0.0000000E+000
  0.0000000E+000
  0.0000000E+000
  0.0000000E+000
  0.0000000E+000
  0.0000000E+000
  0.0000000E+000
  0.0000000E+000
  0.0000000E+000
  0.0000000E+000
  0.0000000E+000
  0.0000000E+000
  0.0000000E+000
  0.0000000E+000
  0.0000000E+000
  0.0000000E+000
  0.0000000E+000
  0.0000000E+000
  0.0000000E+000
  0.0000000E+000
  0.0000000E+000
  0.0000000E+000
  0.0000000E+000
  0.0000000E+000
  0.0000000E+000
  0.0000000E+000
  0.0000000E+000
  0.0000000E+000
  0.0000000E+000
  0.0000000E+000
  0.0000000E+000
  0.0000000E+000
  0.0000000E+000
  0.0000000E+000
  0.0000000E+000
  0.0000000E+000
  0.0000000E+000
  0.0000000E+000
  0.0000000E+000
  0.0000000E+000
  0.0000000E+000
  0.0000000E+000
  0.0000000E+000
  0.0000000E+000
  0.0000000E+000
  0.0000000E+000
  0.0000000E+000
  0.0000000E+000
  0.0000000E+000
  0.0000000E+000
  0.0000000E+000
  0.0000000E+000
  0.0000000E+000
  0.0000000E+000
  0.0000000E+000
  0.0000000E+000
  0.0000000E+000
  0.0000000E+000
  0.0000000E+000
  0.0000000E+000
  0.0000000E+000
  0.0000000E+000
  0.0000000E+000
  0.0000000E+000
  0.0000000E+000
  0.0000000E+000
  0.0000000E+000
  0.0000000E+000
  0.0000000E+000
  0.0000000E+000
  0.0000000E+000
  0.0000000E+000
  0.0000000E+000
  0.0000000E+000
  0.0000000E+000
  0.0000000E+000
  0.0000000E+000
  0.0000000E+000
  0.0000000E+000
  0.0000000E+000
  0.0000000E+000
  0.0000000E+000
  0.0000000E+000
  0.0000000E+000
  0.0000000E+000
  0.0000000E+000
  0.0000000E+000
  0.0000000E+000
  0.0000000E+000
  0.0000000E+000
  0.0000000E+000
  0.0000000E+000
  0.0000000E+000
  0.0000000E+000
  0.0000000E+000
  0.0000000E+000
  0.0000000E+000
  0.0000000E+000
  0.0000000E+000
  0.0000000E+000
  0.0000000E+000
  0.0000000E+000
  0.0000000E+000
  0.0000000E+000
  0.0000000E+000
  0.0000000E+000
  0.0000000E+000
  0.0000000E+000
  0.0000000E+000
  0.0000000E+000
  0.0000000E+000
  0.0000000E+000
  0.0000000E+000
  0.0000000E+000
  0.0000000E+000
  0.0000000E+000
  0.0000000E+000
  0.0000000E+000
  0.0000000E+000
  0.0000000E+000
  0.0000000E+000
  0.0000000E+000
  0.0000000E+000
  0.0000000E+000
  0.0000000E+000
  0.0000000E+000
  0.0000000E+000
  0.0000000E+000
  0.0000000E+000
  0.0000000E+000
  0.0000000E+000
  0.0000000E+000
  0.0000000E+000
  0.0000000E+000
  0.0000000E+000
  0.0000000E+000
  0.0000000E+000
  0.0000000E+000
  0.0000000E+000
  0.0000000E+000
  0.0000000E+000
  0.0000000E+000
  0.0000000E+000
  0.0000000E+000
  0.0000000E+000
  0.0000000E+000
  0.0000000E+000
  0.0000000E+000
  0.0000000E+000
  0.0000000E+000
  0.0000000E+000
  0.0000000E+000
  0.0000000E+000
  0.0000000E+000
  0.0000000E+000
  0.0000000E+000
  0.0000000E+000
  0.0000000E+000
  0.0000000E+000
  0.0000000E+000
  0.0000000E+000
  0.0000000E+000
  0.0000000E+000
  0.0000000E+000
  0.0000000E+000
  0.0000000E+000
  0.0000000E+000
  0.0000000E+000
  0.0000000E+000
  0.0000000E+000
  0.0000000E+000
  0.0000000E+000
  0.0000000E+000
  0.0000000E+000
  0.0000000E+000
  0.0000000E+000
  0.0000000E+000
  0.0000000E+000
  0.0000000E+000
  0.0000000E+000
  0.0000000E+000
  0.0000000E+000
  0.0000000E+000
  0.0000000E+000
  0.0000000E+000
  0.0000000E+000
  0.0000000E+000
  0.0000000E+000
  0.0000000E+000
  0.0000000E+000
  0.0000000E+000
  0.0000000E+000
  0.0000000E+000
  0.0000000E+000
  0.0000000E+000
  0.0000000E+000
  0.0000000E+000
  0.0000000E+000
  0.0000000E+000
  0.0000000E+000
  0.0000000E+000
  0.0000000E+000
  0.0000000E+000
  0.0000000E+000
  0.0000000E+000
  0.0000000E+000
  0.0000000E+000
  0.0000000E+000
  0.0000000E+000
  0.0000000E+000
  0.0000000E+000
  0.0000000E+000
  0.0000000E+000
  0.0000000E+000
  0.0000000E+000
  0.0000000E+000
  0.0000000E+000
  0.0000000E+000
  0.0000000E+000
  0.0000000E+000
  0.0000000E+000
  0.0000000E+000
  0.0000000E+000
  0.0000000E+000
  0.0000000E+000
  0.0000000E+000
  0.0000000E+000
  0.0000000E+000
  0.0000000E+000
  0.0000000E+000
  0.0000000E+000
  0.0000000E+000
  0.0000000E+000
  0.0000000E+000
  0.0000000E+000
  0.0000000E+000
  0.0000000E+000
  0.0000000E+000
  0.0000000E+000
  0.0000000E+000
  0.0000000E+000
  0.0000000E+000
  0.0000000E+000
  0.0000000E+000
  0.0000000E+000
  0.0000000E+000
  0.0000000E+000
  0.0000000E+000
  0.0000000E+000
  0.0000000E+000
  0.0000000E+000
  0.0000000E+000
  0.0000000E+000
  0.0000000E+000
  0.0000000E+000
  0.0000000E+000
  0.0000000E+000
  0.0000000E+000
  0.0000000E+000
  0.0000000E+000
  0.0000000E+000
  0.0000000E+000
  0.0000000E+000
  0.0000000E+000
  0.0000000E+000
  0.0000000E+000
  0.0000000E+000
  0.0000000E+000
  0.0000000E+000
  0.0000000E+000
  0.0000000E+000
  0.0000000E+000
  0.0000000E+000
  0.0000000E+000
  0.0000000E+000
  0.0000000E+000
  0.0000000E+000
  0.0000000E+000
  0.0000000E+000
  0.0000000E+000
  0.0000000E+000
  0.0000000E+000
  0.0000000E+000
  0.0000000E+000
  0.0000000E+000
  0.0000000E+000
  0.0000000E+000
  0.0000000E+000
  0.0000000E+000
  0.0000000E+000
  0.0000000E+000
  0.0000000E+000
  0.0000000E+000
  0.0000000E+000
  0.0000000E+000
  0.0000000E+000
  0.0000000E+000
  0.0000000E+000
  0.0000000E+000
  0.0000000E+000
  0.0000000E+000
  0.0000000E+000
  0.0000000E+000
  0.0000000E+000
  0.0000000E+000
  0.0000000E+000
  0.0000000E+000
  0.0000000E+000
  0.0000000E+000
  0.0000000E+000
  0.0000000E+000
  0.0000000E+000
  0.0000000E+000
  0.0000000E+000
  0.0000000E+000
  0.0000000E+000
  0.0000000E+000
  0.0000000E+000
  0.0000000E+000
  0.0000000E+000
  0.0000000E+000
  0.0000000E+000
  0.0000000E+000
  0.0000000E+000
  0.0000000E+000
  0.0000000E+000
  0.0000000E+000
  0.0000000E+000
  0.0000000E+000
  0.0000000E+000
  0.0000000E+000
  0.0000000E+000
  0.0000000E+000
  0.0000000E+000
  0.0000000E+000
  0.0000000E+000
  0.0000000E+000
  0.0000000E+000
  0.0000000E+000
  0.0000000E+000
  0.0000000E+000
  0.0000000E+000
  0.0000000E+000
  0.0000000E+000
  0.0000000E+000
  0.0000000E+000
  0.0000000E+000
  0.0000000E+000
  0.0000000E+000
  0.0000000E+000
  0.0000000E+000
  0.0000000E+000
  0.0000000E+000
  0.0000000E+000
  0.0000000E+000
  0.0000000E+000
  0.0000000E+000
  0.0000000E+000
  0.0000000E+000
  0.0000000E+000
  0.0000000E+000
  0.0000000E+000
  0.0000000E+000
  0.0000000E+000
  0.0000000E+000
  0.0000000E+000
  0.0000000E+000
  0.0000000E+000
  0.0000000E+000
  0.0000000E+000
  0.0000000E+000
  0.0000000E+000
  0.0000000E+000
  0.0000000E+000
  0.0000000E+000
  0.0000000E+000
  0.0000000E+000
  0.0000000E+000
  0.0000000E+000
  0.0000000E+000
  0.0000000E+000
  0.0000000E+000
  0.0000000E+000
  0.0000000E+000
  0.0000000E+000
  0.0000000E+000
  0.0000000E+000
  0.0000000E+000
  0.0000000E+000
  0.0000000E+000
  0.0000000E+000
  0.0000000E+000
  0.0000000E+000
  0.0000000E+000
  0.0000000E+000
  0.0000000E+000
  0.0000000E+000
  0.0000000E+000
  0.0000000E+000
  0.0000000E+000
  0.0000000E+000
  0.0000000E+000
  0.0000000E+000
  0.0000000E+000
  0.0000000E+000
  0.0000000E+000
  0.0000000E+000
  0.0000000E+000
  0.0000000E+000
  0.0000000E+000
  0.0000000E+000
  0.0000000E+000
  0.0000000E+000
  0.0000000E+000
  0.0000000E+000
  0.0000000E+000
  0.0000000E+000
  0.0000000E+000
  0.0000000E+000
  0.0000000E+000
  0.0000000E+000
  0.0000000E+000
  0.0000000E+000
  0.0000000E+000
  0.0000000E+000
  0.0000000E+000
  0.0000000E+000
  0.0000000E+000
  0.0000000E+000
  0.0000000E+000
  0.0000000E+000
  0.0000000E+000
  0.0000000E+000
  0.0000000E+000
  0.0000000E+000
  0.0000000E+000
  0.0000000E+000
  0.0000000E+000
  0.0000000E+000
  0.0000000E+000
  0.0000000E+000
  0.0000000E+000
  0.0000000E+000
  0.0000000E+000
  0.0000000E+000
  0.0000000E+000
  0.0000000E+000
  0.0000000E+000
  0.0000000E+000
  0.0000000E+000
  0.0000000E+000
  0.0000000E+000
  0.0000000E+000
  0.0000000E+000
  0.0000000E+000
  0.0000000E+000
  0.0000000E+000
  0.0000000E+000
  0.0000000E+000
  0.0000000E+000
  0.0000000E+000
  0.0000000E+000
  0.0000000E+000
  0.0000000E+000
  0.0000000E+000
  0.0000000E+000
  0.0000000E+000
  0.0000000E+000
  0.0000000E+000
  0.0000000E+000
  0.0000000E+000
  0.0000000E+000
  0.0000000E+000
  0.0000000E+000
  0.0000000E+000
  0.0000000E+000
  0.0000000E+000
  0.0000000E+000
  0.0000000E+000
  0.0000000E+000
  0.0000000E+000
  0.0000000E+000
  0.0000000E+000
  0.0000000E+000
  0.0000000E+000
  0.0000000E+000
  0.0000000E+000
  0.0000000E+000
  0.0000000E+000
  0.0000000E+000
  0.0000000E+000
  0.0000000E+000
  0.0000000E+000
  0.0000000E+000
  0.0000000E+000
  0.0000000E+000
  0.0000000E+000
  0.0000000E+000
  0.0000000E+000
  0.0000000E+000
  0.0000000E+000
  0.0000000E+000
  0.0000000E+000
  0.0000000E+000
  0.0000000E+000
  0.0000000E+000
  0.0000000E+000
  0.0000000E+000
  0.0000000E+000
  0.0000000E+000
  0.0000000E+000
  0.0000000E+000
  0.0000000E+000
  0.0000000E+000
  0.0000000E+000
  0.0000000E+000
  0.0000000E+000
  0.0000000E+000
  0.0000000E+000
  0.0000000E+000
  0.0000000E+000
  0.0000000E+000
  0.0000000E+000
  0.0000000E+000
  0.0000000E+000
  0.0000000E+000
  0.0000000E+000
  0.0000000E+000
  0.0000000E+000
  0.0000000E+000
  0.0000000E+000
  0.0000000E+000
  0.0000000E+000
  0.0000000E+000
  0.0000000E+000
  0.0000000E+000
  0.0000000E+000
  0.0000000E+000
  0.0000000E+000
  0.0000000E+000
  0.0000000E+000
  0.0000000E+000
  0.0000000E+000
  0.0000000E+000
  0.0000000E+000
  0.0000000E+000
  0.0000000E+000
  0.0000000E+000
  0.0000000E+000
  0.0000000E+000
  0.0000000E+000
  0.0000000E+000
  0.0000000E+000
  0.0000000E+000
  0.0000000E+000
  0.0000000E+000
  0.0000000E+000
  0.0000000E+000
  0.0000000E+000
  0.0000000E+000
  0.0000000E+000
  0.0000000E+000
  0.0000000E+000
  0.0000000E+000
  0.0000000E+000
  0.0000000E+000
  0.0000000E+000
  0.0000000E+000
  0.0000000E+000
  0.0000000E+000
  0.0000000E+000
  0.0000000E+000
  0.0000000E+000
  0.0000000E+000
  0.0000000E+000
  0.0000000E+000
  0.0000000E+000
  0.0000000E+000
  0.0000000E+000
  0.0000000E+000
  0.0000000E+000
  0.0000000E+000
  0.0000000E+000
  0.0000000E+000
  0.0000000E+000
  0.0000000E+000
  0.0000000E+000
  0.0000000E+000
  0.0000000E+000
  0.0000000E+000
  0.0000000E+000
  0.0000000E+000
  0.0000000E+000
  0.0000000E+000
  0.0000000E+000
  0.0000000E+000
  0.0000000E+000
  0.0000000E+000
  0.0000000E+000
  0.0000000E+000
  0.0000000E+000
  0.0000000E+000
  0.0000000E+000
  0.0000000E+000
  0.0000000E+000
  0.0000000E+000
  0.0000000E+000
  0.0000000E+000
  0.0000000E+000
  0.0000000E+000
  0.0000000E+000
  0.0000000E+000
  0.0000000E+000
  0.0000000E+000
  0.0000000E+000
  0.0000000E+000
  0.0000000E+000
  0.0000000E+000
  0.0000000E+000
  0.0000000E+000
  0.0000000E+000
  0.0000000E+000
  0.0000000E+000
  0.0000000E+000
  0.0000000E+000
  0.0000000E+000
  0.0000000E+000
  0.0000000E+000
  0.0000000E+000
  0.0000000E+000
  0.0000000E+000
  0.0000000E+000
  0.0000000E+000
  0.0000000E+000
  0.0000000E+000
  0.0000000E+000
  0.0000000E+000
  0.0000000E+000
  0.0000000E+000
  0.0000000E+000
  0.0000000E+000
  0.0000000E+000
  0.0000000E+000
  0.0000000E+000
  0.0000000E+000
  0.0000000E+000
  0.0000000E+000
  0.0000000E+000
  0.0000000E+000
  0.0000000E+000
  0.0000000E+000
  0.0000000E+000
  0.0000000E+000
  0.0000000E+000
  0.0000000E+000
  0.0000000E+000
  0.0000000E+000
  0.0000000E+000
  0.0000000E+000
  0.0000000E+000
  0.0000000E+000
  0.0000000E+000
  0.0000000E+000
  0.0000000E+000
  0.0000000E+000
  0.0000000E+000
  0.0000000E+000
  0.0000000E+000
  0.0000000E+000
  0.0000000E+000
  0.0000000E+000
  0.0000000E+000
  0.0000000E+000
  0.0000000E+000
  0.0000000E+000
  0.0000000E+000
  0.0000000E+000
  0.0000000E+000
  0.0000000E+000
  0.0000000E+000
  0.0000000E+000
  0.0000000E+000
  0.0000000E+000
  0.0000000E+000
  0.0000000E+000
  0.0000000E+000
  0.0000000E+000
  0.0000000E+000
  0.0000000E+000
  0.0000000E+000
  0.0000000E+000
  0.0000000E+000
  0.0000000E+000
  0.0000000E+000
  0.0000000E+000
  0.0000000E+000
  0.0000000E+000
  0.0000000E+000
  0.0000000E+000
  0.0000000E+000
  0.0000000E+000
  0.0000000E+000
  0.0000000E+000
  0.0000000E+000
  0.0000000E+000
  0.0000000E+000
  0.0000000E+000
  0.0000000E+000
  0.0000000E+000
  0.0000000E+000
  0.0000000E+000
  0.0000000E+000
  0.0000000E+000
  0.0000000E+000
  0.0000000E+000
  0.0000000E+000
  0.0000000E+000
  0.0000000E+000
  0.0000000E+000
  0.0000000E+000
  0.0000000E+000
  0.0000000E+000
  0.0000000E+000
  0.0000000E+000
  0.0000000E+000
  0.0000000E+000
  0.0000000E+000
  0.0000000E+000
  0.0000000E+000
  0.0000000E+000
  0.0000000E+000
  0.0000000E+000
  0.0000000E+000
  0.0000000E+000
  0.0000000E+000
  0.0000000E+000
  0.0000000E+000
  0.0000000E+000
  0.0000000E+000
  0.0000000E+000
  0.0000000E+000
  0.0000000E+000
  0.0000000E+000
  0.0000000E+000
  0.0000000E+000
  0.0000000E+000
  0.0000000E+000
  0.0000000E+000
  0.0000000E+000
  0.0000000E+000
  0.0000000E+000
  0.0000000E+000
  0.0000000E+000
  0.0000000E+000
  0.0000000E+000
  0.0000000E+000
  0.0000000E+000
  0.0000000E+000
  0.0000000E+000
  0.0000000E+000
  0.0000000E+000
  0.0000000E+000
  0.0000000E+000
  0.0000000E+000
  0.0000000E+000
  0.0000000E+000
  0.0000000E+000
  0.0000000E+000
  0.0000000E+000
  0.0000000E+000
  0.0000000E+000
  0.0000000E+000
  0.0000000E+000
  0.0000000E+000
  0.0000000E+000
  0.0000000E+000
  0.0000000E+000
  0.0000000E+000
  0.0000000E+000
  0.0000000E+000
  0.0000000E+000
  0.0000000E+000
  0.0000000E+000
  0.0000000E+000
  0.0000000E+000
  0.0000000E+000
  0.0000000E+000
  0.0000000E+000
  0.0000000E+000
  0.0000000E+000
  0.0000000E+000
  0.0000000E+000
  0.0000000E+000
  0.0000000E+000
  0.0000000E+000
  0.0000000E+000
  0.0000000E+000
  0.0000000E+000
  0.0000000E+000
  0.0000000E+000
  0.0000000E+000
  0.0000000E+000
  0.0000000E+000
  0.0000000E+000
  0.0000000E+000
  0.0000000E+000
  0.0000000E+000
  0.0000000E+000
  0.0000000E+000
  0.0000000E+000
  0.0000000E+000
  0.0000000E+000
  0.0000000E+000
  0.0000000E+000
  0.0000000E+000
  0.0000000E+000
  0.0000000E+000
  0.0000000E+000
  0.0000000E+000
  0.0000000E+000
  0.0000000E+000
  0.0000000E+000
  0.0000000E+000
  0.0000000E+000
  0.0000000E+000
  0.0000000E+000
  0.0000000E+000
  0.0000000E+000
  0.0000000E+000
  0.0000000E+000
  0.0000000E+000
  0.0000000E+000
  0.0000000E+000
  0.0000000E+000
  0.0000000E+000
  0.0000000E+000
  0.0000000E+000
  0.0000000E+000
  0.0000000E+000
  0.0000000E+000
  0.0000000E+000
  0.0000000E+000
  0.0000000E+000
  0.0000000E+000
  0.0000000E+000
  0.0000000E+000
  0.0000000E+000
  0.0000000E+000
  0.0000000E+000
  0.0000000E+000
  0.0000000E+000
  0.0000000E+000
  0.0000000E+000
  0.0000000E+000
  0.0000000E+000
  0.0000000E+000
  0.0000000E+000
  0.0000000E+000
  0.0000000E+000
  0.0000000E+000
  0.0000000E+000
  0.0000000E+000
  0.0000000E+000
  0.0000000E+000
  0.0000000E+000
  0.0000000E+000
  0.0000000E+000
  0.0000000E+000
  0.0000000E+000
  0.0000000E+000
  0.0000000E+000
  0.0000000E+000
  0.0000000E+000
  0.0000000E+000
  0.0000000E+000
  0.0000000E+000
  0.0000000E+000
  0.0000000E+000
  0.0000000E+000
  0.0000000E+000
  0.0000000E+000
  0.0000000E+000
  0.0000000E+000
  0.0000000E+000
  0.0000000E+000
  0.0000000E+000
  0.0000000E+000
  0.0000000E+000
  0.0000000E+000
  0.0000000E+000
  0.0000000E+000
  0.0000000E+000
  0.0000000E+000
  0.0000000E+000
  0.0000000E+000
  0.0000000E+000
  0.0000000E+000
  0.0000000E+000
  0.0000000E+000
  0.0000000E+000
  0.0000000E+000
  0.0000000E+000
  0.0000000E+000
  0.0000000E+000
  0.0000000E+000
  0.0000000E+000
  0.0000000E+000
  0.0000000E+000
  0.0000000E+000
  0.0000000E+000
  0.0000000E+000
  0.0000000E+000
  0.0000000E+000
  0.0000000E+000
  0.0000000E+000
  0.0000000E+000
  0.0000000E+000
  0.0000000E+000
  0.0000000E+000
  0.0000000E+000
  0.0000000E+000
  0.0000000E+000
  0.0000000E+000
  0.0000000E+000
  0.0000000E+000
  0.0000000E+000
  0.0000000E+000
  0.0000000E+000
  0.0000000E+000
  0.0000000E+000
  0.0000000E+000
  0.0000000E+000
  0.0000000E+000
  0.0000000E+000
  0.0000000E+000
  0.0000000E+000
  0.0000000E+000
  0.0000000E+000
  0.0000000E+000
  0.0000000E+000
  0.0000000E+000
  0.0000000E+000
  0.0000000E+000
  0.0000000E+000
  0.0000000E+000
  0.0000000E+000
  0.0000000E+000
  0.0000000E+000
  0.0000000E+000
  0.0000000E+000
  0.0000000E+000
  0.0000000E+000
  0.0000000E+000
  0.0000000E+000
  0.0000000E+000
  0.0000000E+000
  0.0000000E+000
  0.0000000E+000
  0.0000000E+000
  0.0000000E+000
  0.0000000E+000
  0.0000000E+000
  0.0000000E+000
  0.0000000E+000
  0.0000000E+000
  0.0000000E+000
  0.0000000E+000
  0.0000000E+000
  0.0000000E+000
  0.0000000E+000
  0.0000000E+000
  0.0000000E+000
  0.0000000E+000
  0.0000000E+000
  0.0000000E+000
  0.0000000E+000
  0.0000000E+000
  0.0000000E+000
  0.0000000E+000
  0.0000000E+000
  0.0000000E+000
  0.0000000E+000
  0.0000000E+000
  0.0000000E+000
  0.0000000E+000
  0.0000000E+000
  0.0000000E+000
  0.0000000E+000
  0.0000000E+000
  0.0000000E+000
  0.0000000E+000
  0.0000000E+000
  0.0000000E+000
  0.0000000E+000
  0.0000000E+000
  0.0000000E+000
  0.0000000E+000
  0.0000000E+000
  0.0000000E+000
  0.0000000E+000
  0.0000000E+000
  0.0000000E+000
  0.0000000E+000
  0.0000000E+000
  0.0000000E+000
  0.0000000E+000
  0.0000000E+000
  0.0000000E+000
  0.0000000E+000
  0.0000000E+000
  0.0000000E+000
  0.0000000E+000
  0.0000000E+000
  0.0000000E+000
  0.0000000E+000
  0.0000000E+000
  0.0000000E+000
  0.0000000E+000
  0.0000000E+000
  0.0000000E+000
  0.0000000E+000
  0.0000000E+000
  0.0000000E+000
  0.0000000E+000
  0.0000000E+000
  0.0000000E+000
  0.0000000E+000
  0.0000000E+000
  0.0000000E+000
  0.0000000E+000
  0.0000000E+000
  0.0000000E+000
  0.0000000E+000
  0.0000000E+000
  0.0000000E+000
  0.0000000E+000
  0.0000000E+000
  0.0000000E+000
  0.0000000E+000
  0.0000000E+000
  0.0000000E+000
  0.0000000E+000
  0.0000000E+000
  0.0000000E+000
  0.0000000E+000
  0.0000000E+000
  0.0000000E+000
  0.0000000E+000
  0.0000000E+000
  0.0000000E+000
  0.0000000E+000
  0.0000000E+000
  0.0000000E+000
  0.0000000E+000
  0.0000000E+000
  0.0000000E+000
  0.0000000E+000
  0.0000000E+000
  0.0000000E+000
  0.0000000E+000
  0.0000000E+000
  0.0000000E+000
  0.0000000E+000
  0.0000000E+000
  0.0000000E+000
  0.0000000E+000
  0.0000000E+000
  0.0000000E+000
  0.0000000E+000
  0.0000000E+000
  0.0000000E+000
  0.0000000E+000
  0.0000000E+000
  0.0000000E+000
  0.0000000E+000
  0.0000000E+000
  0.0000000E+000
  0.0000000E+000
  0.0000000E+000
  0.0000000E+000
  0.0000000E+000
  0.0000000E+000
  0.0000000E+000
  0.0000000E+000
  0.0000000E+000
  0.0000000E+000
  0.0000000E+000
  0.0000000E+000
  0.0000000E+000
  0.0000000E+000
  0.0000000E+000
  0.0000000E+000
  0.0000000E+000
  0.0000000E+000
  0.0000000E+000
  0.0000000E+000
  0.0000000E+000
  0.0000000E+000
  0.0000000E+000
  0.0000000E+000
  0.0000000E+000
  0.0000000E+000
  0.0000000E+000
  0.0000000E+000
  0.0000000E+000
  0.0000000E+000
  0.0000000E+000
  0.0000000E+000
  0.0000000E+000
  0.0000000E+000
  0.0000000E+000
  0.0000000E+000
  0.0000000E+000
  0.0000000E+000
  0.0000000E+000
  0.0000000E+000
  0.0000000E+000
  0.0000000E+000
  0.0000000E+000
  0.0000000E+000
  0.0000000E+000
  0.0000000E+000
  0.0000000E+000
  0.0000000E+000
  0.0000000E+000
  0.0000000E+000
  0.0000000E+000
  0.0000000E+000
  0.0000000E+000
  0.0000000E+000
  0.0000000E+000
  0.0000000E+000
  0.0000000E+000
  0.0000000E+000
  0.0000000E+000
  0.0000000E+000
  0.0000000E+000
  0.0000000E+000
  0.0000000E+000
  0.0000000E+000
  0.0000000E+000
  0.0000000E+000
  0.0000000E+000
  0.0000000E+000
  0.0000000E+000
  0.0000000E+000
  0.0000000E+000
  0.0000000E+000
  0.0000000E+000
  0.0000000E+000
  0.0000000E+000
  0.0000000E+000
  0.0000000E+000
  0.0000000E+000
  0.0000000E+000
  0.0000000E+000
  0.0000000E+000
  0.0000000E+000
  0.0000000E+000
  0.0000000E+000
  0.0000000E+000
  0.0000000E+000
  0.0000000E+000
  0.0000000E+000
  0.0000000E+000
  0.0000000E+000
  0.0000000E+000
  0.0000000E+000
  0.0000000E+000
  0.0000000E+000
  0.0000000E+000
  0.0000000E+000
  0.0000000E+000
  0.0000000E+000
  0.0000000E+000
  0.0000000E+000
  0.0000000E+000
  0.0000000E+000
  0.0000000E+000
  0.0000000E+000
  0.0000000E+000
  0.0000000E+000
  0.0000000E+000
  0.0000000E+000
  0.0000000E+000
  0.0000000E+000
  0.0000000E+000
  0.0000000E+000
  0.0000000E+000
  0.0000000E+000
  0.0000000E+000
  0.0000000E+000
  0.0000000E+000
  0.0000000E+000
  0.0000000E+000
  0.0000000E+000
  0.0000000E+000
  0.0000000E+000
  0.0000000E+000
  0.0000000E+000
  0.0000000E+000
  0.0000000E+000
  0.0000000E+000
  0.0000000E+000
  0.0000000E+000
  0.0000000E+000
  0.0000000E+000
  0.0000000E+000
  0.0000000E+000
  0.0000000E+000
  0.0000000E+000
  0.0000000E+000
  0.0000000E+000
  0.0000000E+000
  0.0000000E+000
  0.0000000E+000
  0.0000000E+000
  0.0000000E+000
  0.0000000E+000
  0.0000000E+000
  0.0000000E+000
  0.0000000E+000
  0.0000000E+000
  0.0000000E+000
  0.0000000E+000
  0.0000000E+000
  0.0000000E+000
  0.0000000E+000
  0.0000000E+000
  0.0000000E+000
  0.0000000E+000
  0.0000000E+000
  0.0000000E+000
  0.0000000E+000
  0.0000000E+000
  0.0000000E+000
  0.0000000E+000
  0.0000000E+000
  0.0000000E+000
  0.0000000E+000
  0.0000000E+000
  0.0000000E+000
  0.0000000E+000
  0.0000000E+000
  0.0000000E+000
  0.0000000E+000
  0.0000000E+000
  0.0000000E+000
  0.0000000E+000
  0.0000000E+000
  0.0000000E+000
  0.0000000E+000
  0.0000000E+000
  0.0000000E+000
  0.0000000E+000
  0.0000000E+000
  0.0000000E+000
  0.0000000E+000
  0.0000000E+000
  0.0000000E+000
  0.0000000E+000
  0.0000000E+000
  0.0000000E+000
  0.0000000E+000
  0.0000000E+000
  0.0000000E+000
  0.0000000E+000
  0.0000000E+000
  0.0000000E+000
  0.0000000E+000
  0.0000000E+000
  0.0000000E+000
  0.0000000E+000
  0.0000000E+000
  0.0000000E+000
  0.0000000E+000
  0.0000000E+000
  0.0000000E+000
  0.0000000E+000
  0.0000000E+000
  0.0000000E+000
  0.0000000E+000
  0.0000000E+000
  0.0000000E+000
  0.0000000E+000
  0.0000000E+000
  0.0000000E+000
  0.0000000E+000
  0.0000000E+000
  0.0000000E+000
  0.0000000E+000
  0.0000000E+000
  0.0000000E+000
  0.0000000E+000
  0.0000000E+000
  0.0000000E+000
  0.0000000E+000
  0.0000000E+000
  0.0000000E+000
  0.0000000E+000
  0.0000000E+000
  0.0000000E+000
  0.0000000E+000
  0.0000000E+000
  0.0000000E+000
  0.0000000E+000
  0.0000000E+000
  0.0000000E+000
  0.0000000E+000
  0.0000000E+000
  0.0000000E+000
  0.0000000E+000
  0.0000000E+000
  0.0000000E+000
  0.0000000E+000
  0.0000000E+000
  0.0000000E+000
  0.0000000E+000
  0.0000000E+000
  0.0000000E+000
  0.0000000E+000
  0.0000000E+000
  0.0000000E+000
  0.0000000E+000
  0.0000000E+000
  0.0000000E+000
  0.0000000E+000
  0.0000000E+000
  0.0000000E+000
  0.0000000E+000
  0.0000000E+000
  0.0000000E+000
  0.0000000E+000
  0.0000000E+000
  0.0000000E+000
  0.0000000E+000
  0.0000000E+000
  0.0000000E+000
  0.0000000E+000
  0.0000000E+000
  0.0000000E+000
  0.0000000E+000
  0.0000000E+000
  0.0000000E+000
  0.0000000E+000
  0.0000000E+000
  0.0000000E+000
  0.0000000E+000
  0.0000000E+000
  0.0000000E+000
  0.0000000E+000
  0.0000000E+000
  0.0000000E+000
  0.0000000E+000
  0.0000000E+000
  0.0000000E+000
  0.0000000E+000
  0.0000000E+000
  0.0000000E+000
  0.0000000E+000
  0.0000000E+000
  0.0000000E+000
  0.0000000E+000
  0.0000000E+000
  0.0000000E+000
  0.0000000E+000
  0.0000000E+000
  0.0000000E+000
  0.0000000E+000
  0.0000000E+000
  0.0000000E+000
  0.0000000E+000
  0.0000000E+000
  0.0000000E+000
  0.0000000E+000
  0.0000000E+000
  0.0000000E+000
  0.0000000E+000
  0.0000000E+000
  0.0000000E+000
  0.0000000E+000
  0.0000000E+000
  0.0000000E+000
  0.0000000E+000
  0.0000000E+000
  0.0000000E+000
  0.0000000E+000
  0.0000000E+000
  0.0000000E+000
  0.0000000E+000
  0.0000000E+000
  0.0000000E+000
  0.0000000E+000
  0.0000000E+000
  0.0000000E+000
  0.0000000E+000
  0.0000000E+000
  0.0000000E+000
  0.0000000E+000
  0.0000000E+000
  0.0000000E+000
  0.0000000E+000
  0.0000000E+000
  0.0000000E+000
  0.0000000E+000
  0.0000000E+000
  0.0000000E+000
  0.0000000E+000
  0.0000000E+000
  0.0000000E+000
  0.0000000E+000
  0.0000000E+000
  0.0000000E+000
  0.0000000E+000
  0.0000000E+000
  0.0000000E+000
  0.0000000E+000
  0.0000000E+000
  0.0000000E+000
  0.0000000E+000
  0.0000000E+000
  0.0000000E+000
  0.0000000E+000
  0.0000000E+000
  0.0000000E+000
  0.0000000E+000
  0.0000000E+000
  0.0000000E+000
  0.0000000E+000
  0.0000000E+000
  0.0000000E+000
  0.0000000E+000
  0.0000000E+000
  0.0000000E+000
  0.0000000E+000
  0.0000000E+000
  0.0000000E+000
  0.0000000E+000
  0.0000000E+000
  0.0000000E+000
  0.0000000E+000
  0.0000000E+000
  0.0000000E+000
  0.0000000E+000
  0.0000000E+000
  0.0000000E+000
  0.0000000E+000
  0.0000000E+000
  0.0000000E+000
  0.0000000E+000
  0.0000000E+000
  0.0000000E+000
  0.0000000E+000
  0.0000000E+000
  0.0000000E+000
  0.0000000E+000
  0.0000000E+000
  0.0000000E+000
  0.0000000E+000
  0.0000000E+000
  0.0000000E+000
  0.0000000E+000
  0.0000000E+000
  0.0000000E+000
  0.0000000E+000
  0.0000000E+000
  0.0000000E+000
  0.0000000E+000
  0.0000000E+000
  0.0000000E+000
  0.0000000E+000
  0.0000000E+000
  0.0000000E+000
  0.0000000E+000
  0.0000000E+000
  0.0000000E+000
  0.0000000E+000
  0.0000000E+000
  0.0000000E+000
  0.0000000E+000
  0.0000000E+000
  0.0000000E+000
  0.0000000E+000
  0.0000000E+000
  0.0000000E+000
  0.0000000E+000
  0.0000000E+000
  0.0000000E+000
  0.0000000E+000
  0.0000000E+000
  0.0000000E+000
  0.0000000E+000
  0.0000000E+000
  0.0000000E+000
  0.0000000E+000
  0.0000000E+000
  0.0000000E+000
  0.0000000E+000
  0.0000000E+000
  0.0000000E+000
  0.0000000E+000
  0.0000000E+000
  0.0000000E+000
  0.0000000E+000
  0.0000000E+000
  0.0000000E+000
  0.0000000E+000
  0.0000000E+000
  0.0000000E+000
  0.0000000E+000
  0.0000000E+000
  0.0000000E+000
  0.0000000E+000
  0.0000000E+000
  0.0000000E+000
  0.0000000E+000
  0.0000000E+000
  0.0000000E+000
  0.0000000E+000
  0.0000000E+000
  0.0000000E+000
  0.0000000E+000
  0.0000000E+000
  0.0000000E+000
  0.0000000E+000
  0.0000000E+000
  0.0000000E+000
  0.0000000E+000
  0.0000000E+000
  0.0000000E+000
  0.0000000E+000
  0.0000000E+000
  0.0000000E+000
  0.0000000E+000
  0.0000000E+000
  0.0000000E+000
  0.0000000E+000
  0.0000000E+000
  0.0000000E+000
  0.0000000E+000
  0.0000000E+000
  0.0000000E+000
  0.0000000E+000
  0.0000000E+000
  0.0000000E+000
  0.0000000E+000
  0.0000000E+000
  0.0000000E+000
  0.0000000E+000
  0.0000000E+000
  0.0000000E+000
  0.0000000E+000
  0.0000000E+000
  0.0000000E+000
  0.0000000E+000
  0.0000000E+000
  0.0000000E+000
  0.0000000E+000
  0.0000000E+000
  0.0000000E+000
  0.0000000E+000
  0.0000000E+000
  0.0000000E+000
  0.0000000E+000
  0.0000000E+000
  0.0000000E+000
  0.0000000E+000
  0.0000000E+000
  0.0000000E+000
  0.0000000E+000
  0.0000000E+000
  0.0000000E+000
  0.0000000E+000
  0.0000000E+000
  0.0000000E+000
  0.0000000E+000
  0.0000000E+000
  0.0000000E+000
  0.0000000E+000
  0.0000000E+000
  0.0000000E+000
  0.0000000E+000
  0.0000000E+000
  0.0000000E+000
  0.0000000E+000
  0.0000000E+000
  0.0000000E+000
  0.0000000E+000
  0.0000000E+000
  0.0000000E+000
  0.0000000E+000
  0.0000000E+000
  0.0000000E+000
  0.0000000E+000
  0.0000000E+000
  0.0000000E+000
  0.0000000E+000
  0.0000000E+000
  0.0000000E+000
  0.0000000E+000
  0.0000000E+000
  0.0000000E+000
  0.0000000E+000
  0.0000000E+000
  0.0000000E+000
  0.0000000E+000
  0.0000000E+000
  0.0000000E+000
  0.0000000E+000
  0.0000000E+000
  0.0000000E+000
  0.0000000E+000
  0.0000000E+000
  0.0000000E+000
  0.0000000E+000
  0.0000000E+000
  0.0000000E+000
  0.0000000E+000
  0.0000000E+000
  0.0000000E+000
  0.0000000E+000
  0.0000000E+000
  0.0000000E+000
  0.0000000E+000
  0.0000000E+000
  0.0000000E+000
  0.0000000E+000
  0.0000000E+000
  0.0000000E+000
  0.0000000E+000
  0.0000000E+000
  0.0000000E+000
  0.0000000E+000
  0.0000000E+000
  0.0000000E+000
  0.0000000E+000
  0.0000000E+000
  0.0000000E+000
  0.0000000E+000
  0.0000000E+000
  0.0000000E+000
  0.0000000E+000
  0.0000000E+000
  0.0000000E+000
  0.0000000E+000
  0.0000000E+000
  0.0000000E+000
  0.0000000E+000
  0.0000000E+000
  0.0000000E+000
  0.0000000E+000
  0.0000000E+000
  0.0000000E+000
  0.0000000E+000
  0.0000000E+000
  0.0000000E+000
  0.0000000E+000
  0.0000000E+000
  0.0000000E+000
  0.0000000E+000
  0.0000000E+000
  0.0000000E+000
  0.0000000E+000
  0.0000000E+000
  0.0000000E+000
  0.0000000E+000
  0.0000000E+000
  0.0000000E+000
  0.0000000E+000
  0.0000000E+000
  0.0000000E+000
  0.0000000E+000
  0.0000000E+000
  0.0000000E+000
  0.0000000E+000
  0.0000000E+000
  0.0000000E+000
  0.0000000E+000
  0.0000000E+000
  0.0000000E+000
  0.0000000E+000
  0.0000000E+000
  0.0000000E+000
  0.0000000E+000
  0.0000000E+000
  0.0000000E+000
  0.0000000E+000
  0.0000000E+000
  0.0000000E+000
  0.0000000E+000
  0.0000000E+000
  0.0000000E+000
  0.0000000E+000
  0.0000000E+000
  0.0000000E+000
  0.0000000E+000
  0.0000000E+000
  0.0000000E+000
  0.0000000E+000
  0.0000000E+000
  0.0000000E+000
  0.0000000E+000
  0.0000000E+000
  0.0000000E+000
  0.0000000E+000
  0.0000000E+000
  0.0000000E+000
  0.0000000E+000
  0.0000000E+000
  0.0000000E+000
  0.0000000E+000
  0.0000000E+000
  0.0000000E+000
  0.0000000E+000
  0.0000000E+000
  0.0000000E+000
  0.0000000E+000
  0.0000000E+000
  0.0000000E+000
  0.0000000E+000
  0.0000000E+000
  0.0000000E+000
  0.0000000E+000
  0.0000000E+000
  0.0000000E+000
  0.0000000E+000
  0.0000000E+000
  0.0000000E+000
  0.0000000E+000
  0.0000000E+000
  0.0000000E+000
  0.0000000E+000
  0.0000000E+000
  0.0000000E+000
  0.0000000E+000
  0.0000000E+000
  0.0000000E+000
  0.0000000E+000
  0.0000000E+000
  0.0000000E+000
  0.0000000E+000
  0.0000000E+000
  0.0000000E+000
  0.0000000E+000
  0.0000000E+000
  0.0000000E+000
  0.0000000E+000
  0.0000000E+000
  0.0000000E+000
  0.0000000E+000
  0.0000000E+000
  0.0000000E+000
  0.0000000E+000
  0.0000000E+000
  0.0000000E+000
  0.0000000E+000
  0.0000000E+000
  0.0000000E+000
  0.0000000E+000
  0.0000000E+000
  0.0000000E+000
  0.0000000E+000
  0.0000000E+000
  0.0000000E+000
  0.0000000E+000
  0.0000000E+000
  0.0000000E+000
  0.0000000E+000
  0.0000000E+000
  0.0000000E+000
  0.0000000E+000
  0.0000000E+000
  0.0000000E+000
  0.0000000E+000
  0.0000000E+000
  0.0000000E+000
  0.0000000E+000
  0.0000000E+000
  0.0000000E+000
  0.0000000E+000
  0.0000000E+000
  0.0000000E+000
  0.0000000E+000
  0.0000000E+000
  0.0000000E+000
  0.0000000E+000
  0.0000000E+000
  0.0000000E+000
  0.0000000E+000
  0.0000000E+000
  0.0000000E+000
  0.0000000E+000
  0.0000000E+000
  0.0000000E+000
  0.0000000E+000
  0.0000000E+000
  0.0000000E+000
  0.0000000E+000
  0.0000000E+000
  0.0000000E+000
  0.0000000E+000
  0.0000000E+000
  0.0000000E+000
  0.0000000E+000
  0.0000000E+000
  0.0000000E+000
  0.0000000E+000
  0.0000000E+000
  0.0000000E+000
  0.0000000E+000
  0.0000000E+000
  0.0000000E+000
  0.0000000E+000
  0.0000000E+000
  0.0000000E+000
  0.0000000E+000
  0.0000000E+000
  0.0000000E+000
  0.0000000E+000
  0.0000000E+000
  0.0000000E+000
  0.0000000E+000
  0.0000000E+000
  0.0000000E+000
  0.0000000E+000
  0.0000000E+000
  0.0000000E+000
  0.0000000E+000
  0.0000000E+000
  0.0000000E+000
  0.0000000E+000
  0.0000000E+000
  0.0000000E+000
  0.0000000E+000
  0.0000000E+000
  0.0000000E+000
  0.0000000E+000
  0.0000000E+000
  0.0000000E+000
  0.0000000E+000
  0.0000000E+000
  0.0000000E+000
  0.0000000E+000
  0.0000000E+000
  0.0000000E+000
  0.0000000E+000
  0.0000000E+000
  0.0000000E+000
  0.0000000E+000
  0.0000000E+000
  0.0000000E+000
  0.0000000E+000
  0.0000000E+000
  0.0000000E+000
  0.0000000E+000
  0.0000000E+000
  0.0000000E+000
  0.0000000E+000
  0.0000000E+000
  0.0000000E+000
  0.0000000E+000
  0.0000000E+000
  0.0000000E+000
  0.0000000E+000
  0.0000000E+000
  0.0000000E+000
  0.0000000E+000
  0.0000000E+000
  0.0000000E+000
  0.0000000E+000
  0.0000000E+000
  0.0000000E+000
  0.0000000E+000
  0.0000000E+000
  0.0000000E+000
  0.0000000E+000
  0.0000000E+000
  0.0000000E+000
  0.0000000E+000
  0.0000000E+000
  0.0000000E+000
  0.0000000E+000
  0.0000000E+000
  0.0000000E+000
  0.0000000E+000
  0.0000000E+000
  0.0000000E+000
  0.0000000E+000
  0.0000000E+000
  0.0000000E+000
  0.0000000E+000
  0.0000000E+000
  0.0000000E+000
  0.0000000E+000
  0.0000000E+000
  0.0000000E+000
  0.0000000E+000
  0.0000000E+000
  0.0000000E+000
  0.0000000E+000
  0.0000000E+000
  0.0000000E+000
  0.0000000E+000
  0.0000000E+000
  0.0000000E+000
  0.0000000E+000
  0.0000000E+000
  0.0000000E+000
  0.0000000E+000
  0.0000000E+000
  0.0000000E+000
  0.0000000E+000
  0.0000000E+000
  0.0000000E+000
  0.0000000E+000
  0.0000000E+000
  0.0000000E+000
  0.0000000E+000
  0.0000000E+000
  0.0000000E+000
  0.0000000E+000
  0.0000000E+000
  0.0000000E+000
  0.0000000E+000
  0.0000000E+000
  0.0000000E+000
  0.0000000E+000
  0.0000000E+000
  0.0000000E+000
  0.0000000E+000
  0.0000000E+000
  0.0000000E+000
  0.0000000E+000
  0.0000000E+000
  0.0000000E+000
  0.0000000E+000
  0.0000000E+000
  0.0000000E+000
  0.0000000E+000
  0.0000000E+000
  0.0000000E+000
  0.0000000E+000
  0.0000000E+000
  0.0000000E+000
  0.0000000E+000
  0.0000000E+000
  0.0000000E+000
  0.0000000E+000
  0.0000000E+000
  0.0000000E+000
  0.0000000E+000
  0.0000000E+000
  0.0000000E+000
  0.0000000E+000
  0.0000000E+000
  0.0000000E+000
  0.0000000E+000
  0.0000000E+000
  0.0000000E+000
  0.0000000E+000
  0.0000000E+000
  0.0000000E+000
  0.0000000E+000
  0.0000000E+000
  0.0000000E+000
  0.0000000E+000
  0.0000000E+000
  0.0000000E+000
  0.0000000E+000
  0.0000000E+000
  0.0000000E+000
  0.0000000E+000
  0.0000000E+000
  0.0000000E+000
  0.0000000E+000
  0.0000000E+000
  0.0000000E+000
  0.0000000E+000
  0.0000000E+000
  0.0000000E+000
  0.0000000E+000
  0.0000000E+000
  0.0000000E+000
  0.0000000E+000
  0.0000000E+000
  0.0000000E+000
  0.0000000E+000
  0.0000000E+000
  0.0000000E+000
  0.0000000E+000
  0.0000000E+000
  0.0000000E+000
  0.0000000E+000
  0.0000000E+000
  0.0000000E+000
  0.0000000E+000
  0.0000000E+000
  0.0000000E+000
  0.0000000E+000
  0.0000000E+000
  0.0000000E+000
  0.0000000E+000
  0.0000000E+000
  0.0000000E+000
  0.0000000E+000
  0.0000000E+000
  0.0000000E+000
  0.0000000E+000
  0.0000000E+000
  0.0000000E+000
  0.0000000E+000
  0.0000000E+000
  0.0000000E+000
  0.0000000E+000
  0.0000000E+000
  0.0000000E+000
  0.0000000E+000
  0.0000000E+000
  0.0000000E+000
  0.0000000E+000
  0.0000000E+000
  0.0000000E+000
  0.0000000E+000
  0.0000000E+000
  0.0000000E+000
  0.0000000E+000
  0.0000000E+000
  0.0000000E+000
  0.0000000E+000
  0.0000000E+000
  0.0000000E+000
  0.0000000E+000
  0.0000000E+000
  0.0000000E+000
  0.0000000E+000
  0.0000000E+000
  0.0000000E+000
  0.0000000E+000
  0.0000000E+000
  0.0000000E+000
  0.0000000E+000
  0.0000000E+000
  0.0000000E+000
  0.0000000E+000
  0.0000000E+000
  0.0000000E+000
  0.0000000E+000
  0.0000000E+000
  0.0000000E+000
  0.0000000E+000
  0.0000000E+000
  0.0000000E+000
  0.0000000E+000
  0.0000000E+000
  0.0000000E+000
  0.0000000E+000
  0.0000000E+000
  0.0000000E+000
  0.0000000E+000
  0.0000000E+000
  0.0000000E+000
  0.0000000E+000
  0.0000000E+000
  0.0000000E+000
  0.0000000E+000
  0.0000000E+000
  0.0000000E+000
  0.0000000E+000
  0.0000000E+000
  0.0000000E+000
  0.0000000E+000
  0.0000000E+000
  0.0000000E+000
  0.0000000E+000
  0.0000000E+000
  0.0000000E+000
  0.0000000E+000
  0.0000000E+000
  0.0000000E+000
  0.0000000E+000
  0.0000000E+000
  0.0000000E+000
  0.0000000E+000
  0.0000000E+000
  0.0000000E+000
  0.0000000E+000
  0.0000000E+000
  0.0000000E+000
  0.0000000E+000
  0.0000000E+000
  0.0000000E+000
  0.0000000E+000
  0.0000000E+000
  0.0000000E+000
  0.0000000E+000
  0.0000000E+000
  0.0000000E+000
  0.0000000E+000
  0.0000000E+000
  0.0000000E+000
  0.0000000E+000
  0.0000000E+000
  0.0000000E+000
  0.0000000E+000
  0.0000000E+000
  0.0000000E+000
  0.0000000E+000
  0.0000000E+000
  0.0000000E+000
  0.0000000E+000
  0.0000000E+000
  0.0000000E+000
  0.0000000E+000
  0.0000000E+000
  0.0000000E+000
  0.0000000E+000
  0.0000000E+000
  0.0000000E+000
  0.0000000E+000
  0.0000000E+000
  0.0000000E+000
  0.0000000E+000
  0.0000000E+000
  0.0000000E+000
  0.0000000E+000
  0.0000000E+000
  0.0000000E+000
  0.0000000E+000
  0.0000000E+000
  0.0000000E+000
  0.0000000E+000
  0.0000000E+000
  0.0000000E+000
  0.0000000E+000
  0.0000000E+000
  0.0000000E+000
  0.0000000E+000
  0.0000000E+000
  0.0000000E+000
  0.0000000E+000
  0.0000000E+000
  0.0000000E+000
  0.0000000E+000
  0.0000000E+000
  0.0000000E+000
  0.0000000E+000
  0.0000000E+000
  0.0000000E+000
  0.0000000E+000
  0.0000000E+000
  0.0000000E+000
  0.0000000E+000
  0.0000000E+000
  0.0000000E+000
  0.0000000E+000
  0.0000000E+000
  0.0000000E+000
  0.0000000E+000
  0.0000000E+000
  0.0000000E+000
  0.0000000E+000
  0.0000000E+000
  0.0000000E+000
  0.0000000E+000
  0.0000000E+000
  0.0000000E+000
  0.0000000E+000
  0.0000000E+000
  0.0000000E+000
  0.0000000E+000
  0.0000000E+000
  0.0000000E+000
  0.0000000E+000
  0.0000000E+000
  0.0000000E+000
  0.0000000E+000
  0.0000000E+000
  0.0000000E+000
  0.0000000E+000
  0.0000000E+000
  0.0000000E+000
  0.0000000E+000
  0.0000000E+000
  0.0000000E+000
  0.0000000E+000
  0.0000000E+000
  0.0000000E+000
  0.0000000E+000
  0.0000000E+000
  0.0000000E+000
  0.0000000E+000
  0.0000000E+000
  0.0000000E+000
  0.0000000E+000
  0.0000000E+000
  0.0000000E+000
  0.0000000E+000
  0.0000000E+000
  0.0000000E+000
  0.0000000E+000
  0.0000000E+000
  0.0000000E+000
  0.0000000E+000
  0.0000000E+000
  0.0000000E+000
  0.0000000E+000
  0.0000000E+000
  0.0000000E+000
  0.0000000E+000
  0.0000000E+000
  0.0000000E+000
  0.0000000E+000
  0.0000000E+000
  0.0000000E+000
  0.0000000E+000
  0.0000000E+000
  0.0000000E+000
  0.0000000E+000
  0.0000000E+000
  0.0000000E+000
  0.0000000E+000
  0.0000000E+000
  0.0000000E+000
  0.0000000E+000
  0.0000000E+000
  0.0000000E+000
  0.0000000E+000
  0.0000000E+000
  0.0000000E+000
  0.0000000E+000
  0.0000000E+000
  0.0000000E+000
  0.0000000E+000
  0.0000000E+000
  0.0000000E+000
  0.0000000E+000
  0.0000000E+000
  0.0000000E+000
  0.0000000E+000
  0.0000000E+000
  0.0000000E+000
  0.0000000E+000
  0.0000000E+000
  0.0000000E+000
  0.0000000E+000
  0.0000000E+000
  0.0000000E+000
  0.0000000E+000
  0.0000000E+000
  0.0000000E+000
  0.0000000E+000
  0.0000000E+000
  0.0000000E+000
  0.0000000E+000
  0.0000000E+000
  0.0000000E+000
  0.0000000E+000
  0.0000000E+000
  0.0000000E+000
  0.0000000E+000
  0.0000000E+000
  0.0000000E+000
  0.0000000E+000
  0.0000000E+000
  0.0000000E+000
  0.0000000E+000
  0.0000000E+000
  0.0000000E+000
  0.0000000E+000
  0.0000000E+000
  0.0000000E+000
  0.0000000E+000
  0.0000000E+000
  0.0000000E+000
  0.0000000E+000
  0.0000000E+000
  0.0000000E+000
  0.0000000E+000
  0.0000000E+000
  0.0000000E+000
  0.0000000E+000
  0.0000000E+000
  0.0000000E+000
  0.0000000E+000
  0.0000000E+000
  0.0000000E+000
  0.0000000E+000
  0.0000000E+000
  0.0000000E+000
  0.0000000E+000
  0.0000000E+000
  0.0000000E+000
  0.0000000E+000
  0.0000000E+000
  0.0000000E+000
  0.0000000E+000
  0.0000000E+000
  0.0000000E+000
  0.0000000E+000
  0.0000000E+000
  0.0000000E+000
  0.0000000E+000
  0.0000000E+000
  0.0000000E+000
  0.0000000E+000
  0.0000000E+000
  0.0000000E+000
  0.0000000E+000
  0.0000000E+000
  0.0000000E+000
  0.0000000E+000
  0.0000000E+000
  0.0000000E+000
  0.0000000E+000
  0.0000000E+000
  0.0000000E+000
  0.0000000E+000
  0.0000000E+000
  0.0000000E+000
  0.0000000E+000
  0.0000000E+000
  0.0000000E+000
  0.0000000E+000
  0.0000000E+000
  0.0000000E+000
  0.0000000E+000
  0.0000000E+000
  0.0000000E+000
  0.0000000E+000
  0.0000000E+000
  0.0000000E+000
  0.0000000E+000
  0.0000000E+000
  0.0000000E+000
  0.0000000E+000
  0.0000000E+000
  0.0000000E+000
  0.0000000E+000
  0.0000000E+000
  0.0000000E+000
  0.0000000E+000
  0.0000000E+000
  0.0000000E+000
  0.0000000E+000
  0.0000000E+000
  0.0000000E+000
  0.0000000E+000
  0.0000000E+000
  0.0000000E+000
  0.0000000E+000
  0.0000000E+000
  0.0000000E+000
  0.0000000E+000
  0.0000000E+000
  0.0000000E+000
  0.0000000E+000
  0.0000000E+000
  0.0000000E+000
  0.0000000E+000
  0.0000000E+000
  0.0000000E+000
  0.0000000E+000
  0.0000000E+000
  0.0000000E+000
  0.0000000E+000
  0.0000000E+000
  0.0000000E+000
  0.0000000E+000
  0.0000000E+000
  0.0000000E+000
  0.0000000E+000
  0.0000000E+000
  0.0000000E+000
  0.0000000E+000
  0.0000000E+000
  0.0000000E+000
  0.0000000E+000
  0.0000000E+000
  0.0000000E+000
  0.0000000E+000
  0.0000000E+000
  0.0000000E+000
  0.0000000E+000
  0.0000000E+000
  0.0000000E+000
  0.0000000E+000
  0.0000000E+000
  0.0000000E+000
  0.0000000E+000
  0.0000000E+000
  0.0000000E+000
  0.0000000E+000
  0.0000000E+000
  0.0000000E+000
  0.0000000E+000
  0.0000000E+000
  0.0000000E+000
  0.0000000E+000
  0.0000000E+000
  0.0000000E+000
  0.0000000E+000
  0.0000000E+000
  0.0000000E+000
  0.0000000E+000
  0.0000000E+000
  0.0000000E+000
  0.0000000E+000
  0.0000000E+000
  0.0000000E+000
  0.0000000E+000
  0.0000000E+000
  0.0000000E+000
  0.0000000E+000
  0.0000000E+000
  0.0000000E+000
  0.0000000E+000
  0.0000000E+000
  0.0000000E+000
  0.0000000E+000
  0.0000000E+000
  0.0000000E+000
  0.0000000E+000
  0.0000000E+000
  0.0000000E+000
  0.0000000E+000
  0.0000000E+000
  0.0000000E+000
  0.0000000E+000
  0.0000000E+000
  0.0000000E+000
  0.0000000E+000
  0.0000000E+000
  0.0000000E+000
  0.0000000E+000
  0.0000000E+000
  0.0000000E+000
  0.0000000E+000
  0.0000000E+000
  0.0000000E+000
  0.0000000E+000
  0.0000000E+000
  0.0000000E+000
  0.0000000E+000
  0.0000000E+000
  0.0000000E+000
  0.0000000E+000
  0.0000000E+000
  0.0000000E+000
  0.0000000E+000
  0.0000000E+000
  0.0000000E+000
  0.0000000E+000
  0.0000000E+000
  0.0000000E+000
  0.0000000E+000
  0.0000000E+000
  0.0000000E+000
  0.0000000E+000
  0.0000000E+000
  0.0000000E+000
  0.0000000E+000
  0.0000000E+000
  0.0000000E+000
  0.0000000E+000
  0.0000000E+000
  0.0000000E+000
  0.0000000E+000
  0.0000000E+000
  0.0000000E+000
  0.0000000E+000
  0.0000000E+000
  0.0000000E+000
  0.0000000E+000
  0.0000000E+000
  0.0000000E+000
  0.0000000E+000
  0.0000000E+000
  0.0000000E+000
  0.0000000E+000
  0.0000000E+000
  0.0000000E+000
  0.0000000E+000
  0.0000000E+000
  0.0000000E+000
  0.0000000E+000
  0.0000000E+000
  0.0000000E+000
  0.0000000E+000
  0.0000000E+000
  0.0000000E+000
  0.0000000E+000
  0.0000000E+000
  0.0000000E+000
  0.0000000E+000
  0.0000000E+000
  0.0000000E+000
  0.0000000E+000
  0.0000000E+000
  0.0000000E+000
  0.0000000E+000
  0.0000000E+000
  0.0000000E+000
  0.0000000E+000
  0.0000000E+000
  0.0000000E+000
  0.0000000E+000
  0.0000000E+000
  0.0000000E+000
  0.0000000E+000
  0.0000000E+000
  0.0000000E+000
  0.0000000E+000
  0.0000000E+000
  0.0000000E+000
  0.0000000E+000
  0.0000000E+000
  0.0000000E+000
  0.0000000E+000
  0.0000000E+000
  0.0000000E+000
  0.0000000E+000
  0.0000000E+000
  0.0000000E+000
  0.0000000E+000
  0.0000000E+000
  0.0000000E+000
  0.0000000E+000
  0.0000000E+000
  0.0000000E+000
  0.0000000E+000
  0.0000000E+000
  0.0000000E+000
  0.0000000E+000
  0.0000000E+000
  0.0000000E+000
  0.0000000E+000
  0.0000000E+000
  0.0000000E+000
  0.0000000E+000
  0.0000000E+000
  0.0000000E+000
  0.0000000E+000
  0.0000000E+000
  0.0000000E+000
  0.0000000E+000
  0.0000000E+000
  0.0000000E+000
  0.0000000E+000
  0.0000000E+000
  0.0000000E+000
  0.0000000E+000
  0.0000000E+000
  0.0000000E+000
  0.0000000E+000
  0.0000000E+000
  0.0000000E+000
  0.0000000E+000
  0.0000000E+000
  0.0000000E+000
  0.0000000E+000
  0.0000000E+000
  0.0000000E+000
  0.0000000E+000
  0.0000000E+000
  0.0000000E+000
  0.0000000E+000
  0.0000000E+000
  0.0000000E+000
  0.0000000E+000
  0.0000000E+000
  0.0000000E+000
  0.0000000E+000
  0.0000000E+000
  0.0000000E+000
  0.0000000E+000
  0.0000000E+000
  0.0000000E+000
  0.0000000E+000
  0.0000000E+000
  0.0000000E+000
  0.0000000E+000
  0.0000000E+000
  0.0000000E+000
  0.0000000E+000
  0.0000000E+000
  0.0000000E+000
  0.0000000E+000
  0.0000000E+000
  0.0000000E+000
  0.0000000E+000
  0.0000000E+000
  0.0000000E+000
  0.0000000E+000
  0.0000000E+000
  0.0000000E+000
  0.0000000E+000
  0.0000000E+000
  0.0000000E+000
  0.0000000E+000
  0.0000000E+000
  0.0000000E+000
  0.0000000E+000
  0.0000000E+000
  0.0000000E+000
  0.0000000E+000
  0.0000000E+000
  0.0000000E+000
  0.0000000E+000
  0.0000000E+000
  0.0000000E+000
  0.0000000E+000
  0.0000000E+000
  0.0000000E+000
  0.0000000E+000
  0.0000000E+000
  0.0000000E+000
  0.0000000E+000
  0.0000000E+000
  0.0000000E+000
  0.0000000E+000
  0.0000000E+000
  0.0000000E+000
  0.0000000E+000
  0.0000000E+000
  0.0000000E+000
  0.0000000E+000
  0.0000000E+000
  0.0000000E+000
  0.0000000E+000
  0.0000000E+000
  0.0000000E+000
  0.0000000E+000
  0.0000000E+000
  0.0000000E+000
  0.0000000E+000
  0.0000000E+000
  0.0000000E+000
  0.0000000E+000
  0.0000000E+000
  0.0000000E+000
  0.0000000E+000
  0.0000000E+000
  0.0000000E+000
  0.0000000E+000
  0.0000000E+000
  0.0000000E+000
  0.0000000E+000
  0.0000000E+000
  0.0000000E+000
  0.0000000E+000
  0.0000000E+000
  0.0000000E+000
  0.0000000E+000
  0.0000000E+000
  0.0000000E+000
  0.0000000E+000
  0.0000000E+000
  0.0000000E+000
  0.0000000E+000
  0.0000000E+000
  0.0000000E+000
  0.0000000E+000
  0.0000000E+000
  0.0000000E+000
  0.0000000E+000
  0.0000000E+000
  0.0000000E+000
  0.0000000E+000
  0.0000000E+000
  0.0000000E+000
  0.0000000E+000
  0.0000000E+000
  0.0000000E+000
  0.0000000E+000
  0.0000000E+000
  0.0000000E+000
  0.0000000E+000
  0.0000000E+000
  0.0000000E+000
  0.0000000E+000
  0.0000000E+000
  0.0000000E+000
  0.0000000E+000
  0.0000000E+000
  0.0000000E+000
  0.0000000E+000
  0.0000000E+000
  0.0000000E+000
  0.0000000E+000
  0.0000000E+000
  0.0000000E+000
  0.0000000E+000
  0.0000000E+000
  0.0000000E+000
  0.0000000E+000
  0.0000000E+000
  0.0000000E+000
  0.0000000E+000
  0.0000000E+000
  0.0000000E+000
  0.0000000E+000
  0.0000000E+000
  0.0000000E+000
  0.0000000E+000
  0.0000000E+000
  0.0000000E+000
  0.0000000E+000
  0.0000000E+000
  0.0000000E+000
  0.0000000E+000
  0.0000000E+000
  0.0000000E+000
  0.0000000E+000
  0.0000000E+000
  0.0000000E+000
  0.0000000E+000
  0.0000000E+000
  0.0000000E+000
  0.0000000E+000
  0.0000000E+000
  0.0000000E+000
  0.0000000E+000
  0.0000000E+000
  0.0000000E+000
  0.0000000E+000
  0.0000000E+000
  0.0000000E+000
  0.0000000E+000
  0.0000000E+000
  0.0000000E+000
  0.0000000E+000
  0.0000000E+000
  0.0000000E+000
  0.0000000E+000
  0.0000000E+000
  0.0000000E+000
  0.0000000E+000
  0.0000000E+000
  0.0000000E+000
  0.0000000E+000
  0.0000000E+000
  0.0000000E+000
  0.0000000E+000
  0.0000000E+000
  0.0000000E+000
  0.0000000E+000
  0.0000000E+000
  0.0000000E+000
  0.0000000E+000
  0.0000000E+000
  0.0000000E+000
  0.0000000E+000
  0.0000000E+000
  0.0000000E+000
  0.0000000E+000
  0.0000000E+000
  0.0000000E+000
  0.0000000E+000
  0.0000000E+000
  0.0000000E+000
  0.0000000E+000
  0.0000000E+000
  0.0000000E+000
  0.0000000E+000
  0.0000000E+000
  0.0000000E+000
  0.0000000E+000
  0.0000000E+000
  0.0000000E+000
  0.0000000E+000
  0.0000000E+000
  0.0000000E+000
  0.0000000E+000
  0.0000000E+000
  0.0000000E+000
  0.0000000E+000
  0.0000000E+000
  0.0000000E+000
  0.0000000E+000
  0.0000000E+000
  0.0000000E+000
  0.0000000E+000
  0.0000000E+000
  0.0000000E+000
  0.0000000E+000
  0.0000000E+000
  0.0000000E+000
  0.0000000E+000
  0.0000000E+000
  0.0000000E+000
  0.0000000E+000
  0.0000000E+000
  0.0000000E+000
  0.0000000E+000
  0.0000000E+000
  0.0000000E+000
  0.0000000E+000
  0.0000000E+000
  0.0000000E+000
  0.0000000E+000
  0.0000000E+000
  0.0000000E+000
  0.0000000E+000
  0.0000000E+000
  0.0000000E+000
  0.0000000E+000
  0.0000000E+000
  0.0000000E+000
  0.0000000E+000
  0.0000000E+000
  0.0000000E+000
  0.0000000E+000
  0.0000000E+000
  0.0000000E+000
  0.0000000E+000
  0.0000000E+000
  0.0000000E+000
  0.0000000E+000
  0.0000000E+000
  0.0000000E+000
  0.0000000E+000
  0.0000000E+000
  0.0000000E+000
  0.0000000E+000
  0.0000000E+000
  0.0000000E+000
  0.0000000E+000
  0.0000000E+000
  0.0000000E+000
  0.0000000E+000
  0.0000000E+000
  0.0000000E+000
  0.0000000E+000
  0.0000000E+000
  0.0000000E+000
  0.0000000E+000
  0.0000000E+000
  0.0000000E+000
  0.0000000E+000
  0.0000000E+000
  0.0000000E+000
  0.0000000E+000
  0.0000000E+000
  0.0000000E+000
  0.0000000E+000
  0.0000000E+000
  0.0000000E+000
  0.0000000E+000
  0.0000000E+000
  0.0000000E+000
  0.0000000E+000
  0.0000000E+000
  0.0000000E+000
  0.0000000E+000
  0.0000000E+000
  0.0000000E+000
  0.0000000E+000
  0.0000000E+000
  0.0000000E+000
  0.0000000E+000
  0.0000000E+000
  0.0000000E+000
  0.0000000E+000
  0.0000000E+000
  0.0000000E+000
  0.0000000E+000
  0.0000000E+000
  0.0000000E+000
  0.0000000E+000
  0.0000000E+000
  0.0000000E+000
  0.0000000E+000
  0.0000000E+000
  0.0000000E+000
  0.0000000E+000
  0.0000000E+000
  0.0000000E+000
  0.0000000E+000
  0.0000000E+000
  0.0000000E+000
  0.0000000E+000
  0.0000000E+000
  0.0000000E+000
  0.0000000E+000
  0.0000000E+000
  0.0000000E+000
  0.0000000E+000
  0.0000000E+000
  0.0000000E+000
  0.0000000E+000
  0.0000000E+000
  0.0000000E+000
  0.0000000E+000
  0.0000000E+000
  0.0000000E+000
  0.0000000E+000
  0.0000000E+000
  0.0000000E+000
  0.0000000E+000
  0.0000000E+000
  0.0000000E+000
  0.0000000E+000
  0.0000000E+000
  0.0000000E+000
  0.0000000E+000
  0.0000000E+000
  0.0000000E+000
  0.0000000E+000
  0.0000000E+000
  0.0000000E+000
  0.0000000E+000
  0.0000000E+000
  0.0000000E+000
  0.0000000E+000
  0.0000000E+000
  0.0000000E+000
  0.0000000E+000
  0.0000000E+000
  0.0000000E+000
  0.0000000E+000
  0.0000000E+000
  0.0000000E+000
  0.0000000E+000
  0.0000000E+000
  0.0000000E+000
  0.0000000E+000
  0.0000000E+000
  0.0000000E+000
  0.0000000E+000
  0.0000000E+000
  0.0000000E+000
  0.0000000E+000
  0.0000000E+000
  0.0000000E+000
  0.0000000E+000
  0.0000000E+000
  0.0000000E+000
  0.0000000E+000
  0.0000000E+000
  0.0000000E+000
  0.0000000E+000
  0.0000000E+000
  0.0000000E+000
  0.0000000E+000
  0.0000000E+000
  0.0000000E+000
  0.0000000E+000
  0.0000000E+000
  0.0000000E+000
  0.0000000E+000
  0.0000000E+000
  0.0000000E+000
  0.0000000E+000
  0.0000000E+000
  0.0000000E+000
  0.0000000E+000
  0.0000000E+000
  0.0000000E+000
  0.0000000E+000
  0.0000000E+000
  0.0000000E+000
  0.0000000E+000
  0.0000000E+000
  0.0000000E+000
  0.0000000E+000
  0.0000000E+000
  0.0000000E+000
  0.0000000E+000
  0.0000000E+000
  0.0000000E+000
  0.0000000E+000
  0.0000000E+000
  0.0000000E+000
  0.0000000E+000
  0.0000000E+000
  0.0000000E+000
  0.0000000E+000
  0.0000000E+000
  0.0000000E+000
  0.0000000E+000
  0.0000000E+000
  0.0000000E+000
  0.0000000E+000
  0.0000000E+000
  0.0000000E+000
  0.0000000E+000
  0.0000000E+000
  0.0000000E+000
  0.0000000E+000
  0.0000000E+000
  0.0000000E+000
  0.0000000E+000
  0.0000000E+000
  0.0000000E+000
  0.0000000E+000
  0.0000000E+000
  0.0000000E+000
  0.0000000E+000
  0.0000000E+000
  0.0000000E+000
  0.0000000E+000
  0.0000000E+000
  0.0000000E+000
  0.0000000E+000
  0.0000000E+000
  0.0000000E+000
  0.0000000E+000
  0.0000000E+000
  0.0000000E+000
  0.0000000E+000
  0.0000000E+000
  0.0000000E+000
  0.0000000E+000
  0.0000000E+000
  0.0000000E+000
  0.0000000E+000
  0.0000000E+000
  0.0000000E+000
  0.0000000E+000
  0.0000000E+000
  0.0000000E+000
  0.0000000E+000
  0.0000000E+000
  0.0000000E+000
  0.0000000E+000
  0.0000000E+000
  0.0000000E+000
  0.0000000E+000
  0.0000000E+000
  0.0000000E+000
  0.0000000E+000
  0.0000000E+000
  0.0000000E+000
  0.0000000E+000
  0.0000000E+000
  0.0000000E+000
  0.0000000E+000
  0.0000000E+000
  0.0000000E+000
  0.0000000E+000
  0.0000000E+000
  0.0000000E+000
  0.0000000E+000
  0.0000000E+000
  0.0000000E+000
  0.0000000E+000
  0.0000000E+000
  0.0000000E+000
  0.0000000E+000
  0.0000000E+000
  0.0000000E+000
  0.0000000E+000
  0.0000000E+000
  0.0000000E+000
  0.0000000E+000
  0.0000000E+000
  0.0000000E+000
  0.0000000E+000
  0.0000000E+000
  0.0000000E+000
  0.0000000E+000
  0.0000000E+000
  0.0000000E+000
  0.0000000E+000
  0.0000000E+000
  0.0000000E+000
  0.0000000E+000
  0.0000000E+000
  0.0000000E+000
  0.0000000E+000
  0.0000000E+000
  0.0000000E+000
  0.0000000E+000
  0.0000000E+000
  0.0000000E+000
  0.0000000E+000
  0.0000000E+000
  0.0000000E+000
  0.0000000E+000
  0.0000000E+000
  0.0000000E+000
  0.0000000E+000
  0.0000000E+000
  0.0000000E+000
  0.0000000E+000
  0.0000000E+000
  0.0000000E+000
  0.0000000E+000
  0.0000000E+000
  0.0000000E+000
  0.0000000E+000
  0.0000000E+000
  0.0000000E+000
  0.0000000E+000
  0.0000000E+000
  0.0000000E+000
  0.0000000E+000
  0.0000000E+000
  0.0000000E+000
  0.0000000E+000
  0.0000000E+000
  0.0000000E+000
  0.0000000E+000
  0.0000000E+000
  0.0000000E+000
  0.0000000E+000
  0.0000000E+000
  0.0000000E+000
  0.0000000E+000
  0.0000000E+000
  0.0000000E+000
  0.0000000E+000
  0.0000000E+000
  0.0000000E+000
  0.0000000E+000
  0.0000000E+000
  0.0000000E+000
  0.0000000E+000
  0.0000000E+000
  0.0000000E+000
  0.0000000E+000
  0.0000000E+000
  0.0000000E+000
  0.0000000E+000
  0.0000000E+000
  0.0000000E+000
  0.0000000E+000
  0.0000000E+000
  0.0000000E+000
  0.0000000E+000
  0.0000000E+000
  0.0000000E+000
  0.0000000E+000
  0.0000000E+000
  0.0000000E+000
  0.0000000E+000
  0.0000000E+000
  0.0000000E+000
  0.0000000E+000
  0.0000000E+000
  0.0000000E+000
  0.0000000E+000
  0.0000000E+000
  0.0000000E+000
  0.0000000E+000
  0.0000000E+000
  0.0000000E+000
  0.0000000E+000
  0.0000000E+000
  0.0000000E+000
  0.0000000E+000
  0.0000000E+000
  0.0000000E+000
  0.0000000E+000
  0.0000000E+000
  0.0000000E+000
  0.0000000E+000
  0.0000000E+000
  0.0000000E+000
  0.0000000E+000
  0.0000000E+000
  0.0000000E+000
  0.0000000E+000
  0.0000000E+000
  0.0000000E+000
  0.0000000E+000
  0.0000000E+000
  0.0000000E+000
  0.0000000E+000
  0.0000000E+000
  0.0000000E+000
  0.0000000E+000
  0.0000000E+000
  0.0000000E+000
  0.0000000E+000
  0.0000000E+000
  0.0000000E+000
  0.0000000E+000
  0.0000000E+000
  0.0000000E+000
  0.0000000E+000
  0.0000000E+000
  0.0000000E+000
  0.0000000E+000
  0.0000000E+000
  0.0000000E+000
  0.0000000E+000
  0.0000000E+000
  0.0000000E+000
  0.0000000E+000
  0.0000000E+000
  0.0000000E+000
  0.0000000E+000
  0.0000000E+000
  0.0000000E+000
  0.0000000E+000
  0.0000000E+000
  0.0000000E+000
  0.0000000E+000
  0.0000000E+000
  0.0000000E+000
  0.0000000E+000
  0.0000000E+000
  0.0000000E+000
  0.0000000E+000
  0.0000000E+000
  0.0000000E+000
  0.0000000E+000
  0.0000000E+000
  0.0000000E+000
  0.0000000E+000
  0.0000000E+000
  0.0000000E+000
  0.0000000E+000
  0.0000000E+000
  0.0000000E+000
  0.0000000E+000
  0.0000000E+000
  0.0000000E+000
  0.0000000E+000
  0.0000000E+000
  0.0000000E+000
  0.0000000E+000
  0.0000000E+000
  0.0000000E+000
  0.0000000E+000
  0.0000000E+000
  0.0000000E+000
  0.0000000E+000
  0.0000000E+000
  0.0000000E+000
  0.0000000E+000
  0.0000000E+000
  0.0000000E+000
  0.0000000E+000
  0.0000000E+000
  0.0000000E+000
  0.0000000E+000
  0.0000000E+000
  0.0000000E+000
  0.0000000E+000
  0.0000000E+000
  0.0000000E+000
  0.0000000E+000
  0.0000000E+000
  0.0000000E+000
  0.0000000E+000
  0.0000000E+000
  0.0000000E+000
  0.0000000E+000
  0.0000000E+000
  0.0000000E+000
  0.0000000E+000
  0.0000000E+000
  0.0000000E+000
  0.0000000E+000
  0.0000000E+000
  0.0000000E+000
  0.0000000E+000
  0.0000000E+000
  0.0000000E+000
  0.0000000E+000
  0.0000000E+000
  0.0000000E+000
  0.0000000E+000
  0.0000000E+000
  0.0000000E+000
  0.0000000E+000
  0.0000000E+000
  0.0000000E+000
  0.0000000E+000
  0.0000000E+000
  0.0000000E+000
  0.0000000E+000
  0.0000000E+000
  0.0000000E+000
  0.0000000E+000
  0.0000000E+000
  0.0000000E+000
  0.0000000E+000
  0.0000000E+000
  0.0000000E+000
  0.0000000E+000
  0.0000000E+000
  0.0000000E+000
  0.0000000E+000
  0.0000000E+000
  0.0000000E+000
  0.0000000E+000
  0.0000000E+000
  0.0000000E+000
  0.0000000E+000
  0.0000000E+000
  0.0000000E+000
  0.0000000E+000
  0.0000000E+000
  0.0000000E+000
  0.0000000E+000
  0.0000000E+000
  0.0000000E+000
  0.0000000E+000
  0.0000000E+000
  0.0000000E+000
  0.0000000E+000
  0.0000000E+000
  0.0000000E+000
  0.0000000E+000
  0.0000000E+000
  0.0000000E+000
  0.0000000E+000
  0.0000000E+000
  0.0000000E+000
  0.0000000E+000
  0.0000000E+000
  0.0000000E+000
  0.0000000E+000
  0.0000000E+000
  0.0000000E+000
  0.0000000E+000
  0.0000000E+000
  0.0000000E+000
  0.0000000E+000
  0.0000000E+000
  0.0000000E+000
  0.0000000E+000
  0.0000000E+000
  0.0000000E+000
  0.0000000E+000
  0.0000000E+000
  0.0000000E+000
  0.0000000E+000
  0.0000000E+000
  0.0000000E+000
  0.0000000E+000
  0.0000000E+000
  0.0000000E+000
  0.0000000E+000
  0.0000000E+000
  0.0000000E+000
  0.0000000E+000
  0.0000000E+000
  0.0000000E+000
  0.0000000E+000
  0.0000000E+000
  0.0000000E+000
  0.0000000E+000
  0.0000000E+000
  0.0000000E+000
  0.0000000E+000
  0.0000000E+000
  0.0000000E+000
  0.0000000E+000
  0.0000000E+000
  0.0000000E+000
  0.0000000E+000
  0.0000000E+000
  0.0000000E+000
  0.0000000E+000
  0.0000000E+000
  0.0000000E+000
  0.0000000E+000
  0.0000000E+000
  0.0000000E+000
  0.0000000E+000
  0.0000000E+000
  0.0000000E+000
  0.0000000E+000
  0.0000000E+000
  0.0000000E+000
  0.0000000E+000
  0.0000000E+000
  0.0000000E+000
  0.0000000E+000
  0.0000000E+000
  0.0000000E+000
  0.0000000E+000
  0.0000000E+000
  0.0000000E+000
  0.0000000E+000
  0.0000000E+000
  0.0000000E+000
  0.0000000E+000
  0.0000000E+000
  0.0000000E+000
  0.0000000E+000
  0.0000000E+000
  0.0000000E+000
  0.0000000E+000
  0.0000000E+000
  0.0000000E+000
  0.0000000E+000
  0.0000000E+000
  0.0000000E+000
  0.0000000E+000
  0.0000000E+000
  0.0000000E+000
  0.0000000E+000
  0.0000000E+000
  0.0000000E+000
  0.0000000E+000
  0.0000000E+000
  0.0000000E+000
  0.0000000E+000
  0.0000000E+000
  0.0000000E+000
  0.0000000E+000
  0.0000000E+000
  0.0000000E+000
  0.0000000E+000
  0.0000000E+000
  0.0000000E+000
  0.0000000E+000
  0.0000000E+000
  0.0000000E+000
  0.0000000E+000
  0.0000000E+000
  0.0000000E+000
  0.0000000E+000
  0.0000000E+000
  0.0000000E+000
  0.0000000E+000
  0.0000000E+000
  0.0000000E+000
  0.0000000E+000
  0.0000000E+000
  0.0000000E+000
  0.0000000E+000
  0.0000000E+000
  0.0000000E+000
  0.0000000E+000
  0.0000000E+000
  0.0000000E+000
  0.0000000E+000
  0.0000000E+000
  0.0000000E+000
  0.0000000E+000
  0.0000000E+000
  0.0000000E+000
  0.0000000E+000
  0.0000000E+000
  0.0000000E+000
  0.0000000E+000
  0.0000000E+000
  0.0000000E+000
  0.0000000E+000
  0.0000000E+000
  0.0000000E+000
  0.0000000E+000
  0.0000000E+000
  0.0000000E+000
  0.0000000E+000
  0.0000000E+000
  0.0000000E+000
  0.0000000E+000
  0.0000000E+000
  0.0000000E+000
  0.0000000E+000
  0.0000000E+000
  0.0000000E+000
  0.0000000E+000
  0.0000000E+000
  0.0000000E+000
  0.0000000E+000
  0.0000000E+000
  0.0000000E+000
  0.0000000E+000
  0.0000000E+000
  0.0000000E+000
  0.0000000E+000
  0.0000000E+000
  0.0000000E+000
  0.0000000E+000
  0.0000000E+000
  0.0000000E+000
  0.0000000E+000
  0.0000000E+000
  0.0000000E+000
  0.0000000E+000
  0.0000000E+000
  0.0000000E+000
  0.0000000E+000
  0.0000000E+000
  0.0000000E+000
  0.0000000E+000
  0.0000000E+000
  0.0000000E+000
  0.0000000E+000
  0.0000000E+000
  0.0000000E+000
  0.0000000E+000
  0.0000000E+000
  0.0000000E+000
  0.0000000E+000
  0.0000000E+000
  0.0000000E+000
  0.0000000E+000
  0.0000000E+000
  0.0000000E+000
  0.0000000E+000
  0.0000000E+000
  0.0000000E+000
  0.0000000E+000
  0.0000000E+000
  0.0000000E+000
  0.0000000E+000
  0.0000000E+000
  0.0000000E+000
  0.0000000E+000
  0.0000000E+000
  0.0000000E+000
  0.0000000E+000
  0.0000000E+000
  0.0000000E+000
  0.0000000E+000
  0.0000000E+000
  0.0000000E+000
  0.0000000E+000
  0.0000000E+000
  0.0000000E+000
  0.0000000E+000
  0.0000000E+000
  0.0000000E+000
  0.0000000E+000
  0.0000000E+000
  0.0000000E+000
  0.0000000E+000
  0.0000000E+000
  0.0000000E+000
  0.0000000E+000
  0.0000000E+000
  0.0000000E+000
  0.0000000E+000
  0.0000000E+000
  0.0000000E+000
  0.0000000E+000
  0.0000000E+000
  0.0000000E+000
  0.0000000E+000
  0.0000000E+000
  0.0000000E+000
  0.0000000E+000
  0.0000000E+000
  0.0000000E+000
  0.0000000E+000
  0.0000000E+000
  0.0000000E+000
  0.0000000E+000
  0.0000000E+000
  0.0000000E+000
  0.0000000E+000
  0.0000000E+000
  0.0000000E+000
  0.0000000E+000
  0.0000000E+000
  0.0000000E+000
  0.0000000E+000
  0.0000000E+000
  0.0000000E+000
  0.0000000E+000
  0.0000000E+000
  0.0000000E+000
  0.0000000E+000
  0.0000000E+000
  0.0000000E+000
  0.0000000E+000
  0.0000000E+000
  0.0000000E+000
  0.0000000E+000
  0.0000000E+000
  0.0000000E+000
  0.0000000E+000
  0.0000000E+000
  0.0000000E+000
  0.0000000E+000
  0.0000000E+000
  0.0000000E+000
  0.0000000E+000
  0.0000000E+000
  0.0000000E+000
  0.0000000E+000
  0.0000000E+000
  0.0000000E+000
  0.0000000E+000
  0.0000000E+000
  0.0000000E+000
  0.0000000E+000
  0.0000000E+000
  0.0000000E+000
  0.0000000E+000
  0.0000000E+000
  0.0000000E+000
  0.0000000E+000
  0.0000000E+000
  0.0000000E+000
  0.0000000E+000
  0.0000000E+000
  0.0000000E+000
  0.0000000E+000
  0.0000000E+000
  0.0000000E+000
  0.0000000E+000
  0.0000000E+000
  0.0000000E+000
  0.0000000E+000
  0.0000000E+000
  0.0000000E+000
  0.0000000E+000
  0.0000000E+000
  0.0000000E+000
  0.0000000E+000
  0.0000000E+000
  0.0000000E+000
  0.0000000E+000
  0.0000000E+000
  0.0000000E+000
  0.0000000E+000
  0.0000000E+000
  0.0000000E+000
  0.0000000E+000
  0.0000000E+000
  0.0000000E+000
  0.0000000E+000
  0.0000000E+000
  0.0000000E+000
  0.0000000E+000
  0.0000000E+000
  0.0000000E+000
  0.0000000E+000
  0.0000000E+000
  0.0000000E+000
  0.0000000E+000
  0.0000000E+000
  0.0000000E+000
  0.0000000E+000
  0.0000000E+000
  0.0000000E+000
  0.0000000E+000
  0.0000000E+000
  0.0000000E+000
  0.0000000E+000
  0.0000000E+000
  0.0000000E+000
  0.0000000E+000
  0.0000000E+000
  0.0000000E+000
  0.0000000E+000
  0.0000000E+000
  0.0000000E+000
  0.0000000E+000
  0.0000000E+000
  0.0000000E+000
  0.0000000E+000
  0.0000000E+000
  0.0000000E+000
  0.0000000E+000
  0.0000000E+000
  0.0000000E+000
  0.0000000E+000
  0.0000000E+000
  0.0000000E+000
  0.0000000E+000
  0.0000000E+000
  0.0000000E+000
  0.0000000E+000
  0.0000000E+000
  0.0000000E+000
  0.0000000E+000
  0.0000000E+000
  0.0000000E+000
  0.0000000E+000
  0.0000000E+000
  0.0000000E+000
  0.0000000E+000
  0.0000000E+000
  0.0000000E+000
  0.0000000E+000
  0.0000000E+000
  0.0000000E+000
  0.0000000E+000
  0.0000000E+000
  0.0000000E+000
  0.0000000E+000
  0.0000000E+000
  0.0000000E+000
  0.0000000E+000
  0.0000000E+000
  0.0000000E+000
  0.0000000E+000
  0.0000000E+000
  0.0000000E+000
  0.0000000E+000
  0.0000000E+000
  0.0000000E+000
  0.0000000E+000
  0.0000000E+000
  0.0000000E+000
  0.0000000E+000
  0.0000000E+000
  0.0000000E+000
  0.0000000E+000
  0.0000000E+000
  0.0000000E+000
  0.0000000E+000
  0.0000000E+000
  0.0000000E+000
  0.0000000E+000
  0.0000000E+000
  0.0000000E+000
  0.0000000E+000
  0.0000000E+000
  0.0000000E+000
  0.0000000E+000
  0.0000000E+000
  0.0000000E+000
  0.0000000E+000
  0.0000000E+000
  0.0000000E+000
  0.0000000E+000
  0.0000000E+000
  0.0000000E+000
  0.0000000E+000
  0.0000000E+000
  0.0000000E+000
  0.0000000E+000
  0.0000000E+000
  0.0000000E+000
  0.0000000E+000
  0.0000000E+000
  0.0000000E+000
  0.0000000E+000
  0.0000000E+000
  0.0000000E+000
  0.0000000E+000
  0.0000000E+000
  0.0000000E+000
  0.0000000E+000
  0.0000000E+000
  0.0000000E+000
  0.0000000E+000
  0.0000000E+000
  0.0000000E+000
  0.0000000E+000
  0.0000000E+000
  0.0000000E+000
  0.0000000E+000
  0.0000000E+000
  0.0000000E+000
  0.0000000E+000
  0.0000000E+000
  0.0000000E+000
  0.0000000E+000
  0.0000000E+000
  0.0000000E+000
  0.0000000E+000
  0.0000000E+000
  0.0000000E+000
  0.0000000E+000
  0.0000000E+000
  0.0000000E+000
  0.0000000E+000
  0.0000000E+000
  0.0000000E+000
  0.0000000E+000
  0.0000000E+000
  0.0000000E+000
  0.0000000E+000
  0.0000000E+000
  0.0000000E+000
  0.0000000E+000
  0.0000000E+000
  0.0000000E+000
  0.0000000E+000
  0.0000000E+000
  0.0000000E+000
  0.0000000E+000
  0.0000000E+000
  0.0000000E+000
  0.0000000E+000
  0.0000000E+000
  0.0000000E+000
  0.0000000E+000
  0.0000000E+000
  0.0000000E+000
  0.0000000E+000
  0.0000000E+000
  0.0000000E+000
  0.0000000E+000
  0.0000000E+000
  0.0000000E+000
  0.0000000E+000
  0.0000000E+000
  0.0000000E+000
  0.0000000E+000
  0.0000000E+000
  0.0000000E+000
  0.0000000E+000
  0.0000000E+000
  0.0000000E+000
  0.0000000E+000
  0.0000000E+000
  0.0000000E+000
  0.0000000E+000
  0.0000000E+000
  0.0000000E+000
  0.0000000E+000
  0.0000000E+000
  0.0000000E+000
  0.0000000E+000
  0.0000000E+000
  0.0000000E+000
  0.0000000E+000
  0.0000000E+000
  0.0000000E+000
  0.0000000E+000
  0.0000000E+000
  0.0000000E+000
  0.0000000E+000
  0.0000000E+000
  0.0000000E+000
  0.0000000E+000
  0.0000000E+000
  0.0000000E+000
  0.0000000E+000
  0.0000000E+000
  0.0000000E+000
  0.0000000E+000
  0.0000000E+000
  0.0000000E+000
  0.0000000E+000
  0.0000000E+000
  0.0000000E+000
  0.0000000E+000
  0.0000000E+000
  0.0000000E+000
  0.0000000E+000
  0.0000000E+000
  0.0000000E+000
  0.0000000E+000
  0.0000000E+000
  0.0000000E+000
  0.0000000E+000
  0.0000000E+000
  0.0000000E+000
  0.0000000E+000
  0.0000000E+000
  0.0000000E+000
  0.0000000E+000
  0.0000000E+000
  0.0000000E+000
  0.0000000E+000
  0.0000000E+000
  0.0000000E+000
  0.0000000E+000
  0.0000000E+000
  0.0000000E+000
  0.0000000E+000
  0.0000000E+000
  0.0000000E+000
  0.0000000E+000
  0.0000000E+000
  0.0000000E+000
  0.0000000E+000
  0.0000000E+000
  0.0000000E+000
  0.0000000E+000
  0.0000000E+000
  0.0000000E+000
  0.0000000E+000
  0.0000000E+000
  0.0000000E+000
  0.0000000E+000
  0.0000000E+000
  0.0000000E+000
  0.0000000E+000
  0.0000000E+000
  0.0000000E+000
  0.0000000E+000
  0.0000000E+000
  0.0000000E+000
  0.0000000E+000
  0.0000000E+000
  0.0000000E+000
  0.0000000E+000
  0.0000000E+000
  0.0000000E+000
  0.0000000E+000
  0.0000000E+000
  0.0000000E+000
  0.0000000E+000
  0.0000000E+000
  0.0000000E+000
  0.0000000E+000
  0.0000000E+000
  0.0000000E+000
  0.0000000E+000
  0.0000000E+000
  0.0000000E+000
  0.0000000E+000
  0.0000000E+000
  0.0000000E+000
  0.0000000E+000
  0.0000000E+000
  0.0000000E+000
  0.0000000E+000
  0.0000000E+000
  0.0000000E+000
  0.0000000E+000
  0.0000000E+000
  0.0000000E+000
  0.0000000E+000
  0.0000000E+000
  0.0000000E+000
  0.0000000E+000
  0.0000000E+000
  0.0000000E+000
  0.0000000E+000
  0.0000000E+000
  0.0000000E+000
  0.0000000E+000
  0.0000000E+000
  0.0000000E+000
  0.0000000E+000
  0.0000000E+000
  0.0000000E+000
  0.0000000E+000
  0.0000000E+000
  0.0000000E+000
  0.0000000E+000
  0.0000000E+000
  0.0000000E+000
  0.0000000E+000
  0.0000000E+000
  0.0000000E+000
  0.0000000E+000
  0.0000000E+000
  0.0000000E+000
  0.0000000E+000
  0.0000000E+000
  0.0000000E+000
  0.0000000E+000
  0.0000000E+000
  0.0000000E+000
  0.0000000E+000
  0.0000000E+000
  0.0000000E+000
  0.0000000E+000
  0.0000000E+000
  0.0000000E+000
  0.0000000E+000
  0.0000000E+000
  0.0000000E+000
  0.0000000E+000
  0.0000000E+000
  0.0000000E+000
  0.0000000E+000
  0.0000000E+000
  0.0000000E+000
  0.0000000E+000
  0.0000000E+000
  0.0000000E+000
  0.0000000E+000
  0.0000000E+000
  0.0000000E+000
  0.0000000E+000
  0.0000000E+000
  0.0000000E+000
  0.0000000E+000
  0.0000000E+000
  0.0000000E+000
  0.0000000E+000
  0.0000000E+000
  0.0000000E+000
  0.0000000E+000
  0.0000000E+000
  0.0000000E+000
  0.0000000E+000
  0.0000000E+000
  0.0000000E+000
  0.0000000E+000
  0.0000000E+000
  0.0000000E+000
  0.0000000E+000
  0.0000000E+000
  0.0000000E+000
  0.0000000E+000
  0.0000000E+000
  0.0000000E+000
  0.0000000E+000
  0.0000000E+000
  0.0000000E+000
  0.0000000E+000
  0.0000000E+000
  0.0000000E+000
  0.0000000E+000
  0.0000000E+000
  0.0000000E+000
  0.0000000E+000
  0.0000000E+000
  0.0000000E+000
  0.0000000E+000
  0.0000000E+000
  0.0000000E+000
  0.0000000E+000
  0.0000000E+000
  0.0000000E+000
  0.0000000E+000
  0.0000000E+000
  0.0000000E+000
  0.0000000E+000
  0.0000000E+000
  0.0000000E+000
  0.0000000E+000
  0.0000000E+000
  0.0000000E+000
  0.0000000E+000
  0.0000000E+000
  0.0000000E+000
  0.0000000E+000
  0.0000000E+000
  0.0000000E+000
  0.0000000E+000
  0.0000000E+000
  0.0000000E+000
  0.0000000E+000
  0.0000000E+000
  0.0000000E+000
  0.0000000E+000
  0.0000000E+000
  0.0000000E+000
  0.0000000E+000
  0.0000000E+000
  0.0000000E+000
  0.0000000E+000
  0.0000000E+000
  0.0000000E+000
  0.0000000E+000
  0.0000000E+000
  0.0000000E+000
  0.0000000E+000
  0.0000000E+000
  0.0000000E+000
  0.0000000E+000
  0.0000000E+000
  0.0000000E+000
  0.0000000E+000
  0.0000000E+000
  0.0000000E+000
  0.0000000E+000
  0.0000000E+000
  0.0000000E+000
  0.0000000E+000
  0.0000000E+000
  0.0000000E+000
  0.0000000E+000
  0.0000000E+000
  0.0000000E+000
  0.0000000E+000
  0.0000000E+000
  0.0000000E+000
  0.0000000E+000
  0.0000000E+000
  0.0000000E+000
  0.0000000E+000
  0.0000000E+000
  0.0000000E+000
  0.0000000E+000
  0.0000000E+000
  0.0000000E+000
  0.0000000E+000
  0.0000000E+000
  0.0000000E+000
  0.0000000E+000
  0.0000000E+000
  0.0000000E+000
  0.0000000E+000
  0.0000000E+000
  0.0000000E+000
  0.0000000E+000
  0.0000000E+000
  0.0000000E+000
  0.0000000E+000
  0.0000000E+000
  0.0000000E+000
  0.0000000E+000
  0.0000000E+000
  0.0000000E+000
  0.0000000E+000
  0.0000000E+000
  0.0000000E+000
  0.0000000E+000
  0.0000000E+000
  0.0000000E+000
  0.0000000E+000
  0.0000000E+000
  0.0000000E+000
  0.0000000E+000
  0.0000000E+000
  0.0000000E+000
  0.0000000E+000
  0.0000000E+000
  0.0000000E+000
  0.0000000E+000
  0.0000000E+000
  0.0000000E+000
  0.0000000E+000
  0.0000000E+000
  0.0000000E+000
  0.0000000E+000
  0.0000000E+000
  0.0000000E+000
  0.0000000E+000
  0.0000000E+000
  0.0000000E+000
  0.0000000E+000
  0.0000000E+000
  0.0000000E+000
  0.0000000E+000
  0.0000000E+000
  0.0000000E+000
  0.0000000E+000
  0.0000000E+000
  0.0000000E+000
  0.0000000E+000
  0.0000000E+000
  0.0000000E+000
  0.0000000E+000
  0.0000000E+000
  0.0000000E+000
  0.0000000E+000
  0.0000000E+000
  0.0000000E+000
  0.0000000E+000
  0.0000000E+000
  0.0000000E+000
  0.0000000E+000
  0.0000000E+000
  0.0000000E+000
  0.0000000E+000
  0.0000000E+000
  0.0000000E+000
  0.0000000E+000
  0.0000000E+000
  0.0000000E+000
  0.0000000E+000
  0.0000000E+000
  0.0000000E+000
  0.0000000E+000
  0.0000000E+000
  0.0000000E+000
  0.0000000E+000
  0.0000000E+000
  0.0000000E+000
  0.0000000E+000
  0.0000000E+000
  0.0000000E+000
  0.0000000E+000
  0.0000000E+000
  0.0000000E+000
  0.0000000E+000
  0.0000000E+000
  0.0000000E+000
  0.0000000E+000
  0.0000000E+000
  0.0000000E+000
  0.0000000E+000
  0.0000000E+000
  0.0000000E+000
  0.0000000E+000
  0.0000000E+000
  0.0000000E+000
  0.0000000E+000
  0.0000000E+000
  0.0000000E+000
  0.0000000E+000
  0.0000000E+000
  0.0000000E+000
  0.0000000E+000
  0.0000000E+000
  0.0000000E+000
  0.0000000E+000
  0.0000000E+000
  0.0000000E+000
  0.0000000E+000
  0.0000000E+000
  0.0000000E+000
  0.0000000E+000
  0.0000000E+000
  0.0000000E+000
  0.0000000E+000
  0.0000000E+000
  0.0000000E+000
  0.0000000E+000
  0.0000000E+000
  0.0000000E+000
  0.0000000E+000
  0.0000000E+000
  0.0000000E+000
  0.0000000E+000
  0.0000000E+000
  0.0000000E+000
  0.0000000E+000
  0.0000000E+000
  0.0000000E+000
  0.0000000E+000
  0.0000000E+000
  0.0000000E+000
  0.0000000E+000
  0.0000000E+000
  0.0000000E+000
  0.0000000E+000
  0.0000000E+000
  0.0000000E+000
  0.0000000E+000
  0.0000000E+000
  0.0000000E+000
  0.0000000E+000
  0.0000000E+000
  0.0000000E+000
  0.0000000E+000
  0.0000000E+000
  0.0000000E+000
  0.0000000E+000
  0.0000000E+000
  0.0000000E+000
  0.0000000E+000
  0.0000000E+000
  0.0000000E+000
  0.0000000E+000
  0.0000000E+000
  0.0000000E+000
  0.0000000E+000
  0.0000000E+000
  0.0000000E+000
  0.0000000E+000
  0.0000000E+000
  0.0000000E+000
  0.0000000E+000
  0.0000000E+000
  0.0000000E+000
  0.0000000E+000
  0.0000000E+000
  0.0000000E+000
  0.0000000E+000
  0.0000000E+000
  0.0000000E+000
  0.0000000E+000
  0.0000000E+000
  0.0000000E+000
  0.0000000E+000
  0.0000000E+000
  0.0000000E+000
  0.0000000E+000
  0.0000000E+000
  0.0000000E+000
  0.0000000E+000
  0.0000000E+000
  0.0000000E+000
  0.0000000E+000
  0.0000000E+000
  0.0000000E+000
  0.0000000E+000
  0.0000000E+000
  0.0000000E+000
  0.0000000E+000
  0.0000000E+000
  0.0000000E+000
  0.0000000E+000
  0.0000000E+000
  0.0000000E+000
  0.0000000E+000
  0.0000000E+000
  0.0000000E+000
  0.0000000E+000
  0.0000000E+000
  0.0000000E+000
  0.0000000E+000
  0.0000000E+000
  0.0000000E+000
  0.0000000E+000
  0.0000000E+000
  0.0000000E+000
  0.0000000E+000
  0.0000000E+000
  0.0000000E+000
  0.0000000E+000
  0.0000000E+000
  0.0000000E+000
  0.0000000E+000
  0.0000000E+000
  0.0000000E+000
  0.0000000E+000
  0.0000000E+000
  0.0000000E+000
  0.0000000E+000
  0.0000000E+000
  0.0000000E+000
  0.0000000E+000
  0.0000000E+000
  0.0000000E+000
  0.0000000E+000
  0.0000000E+000
  0.0000000E+000
  0.0000000E+000
  0.0000000E+000
  0.0000000E+000
  0.0000000E+000
  0.0000000E+000
  0.0000000E+000
  0.0000000E+000
  0.0000000E+000
  0.0000000E+000
  0.0000000E+000
  0.0000000E+000
  0.0000000E+000
  0.0000000E+000
  0.0000000E+000
  0.0000000E+000
  0.0000000E+000
  0.0000000E+000
  0.0000000E+000
  0.0000000E+000
  0.0000000E+000
  0.0000000E+000
  0.0000000E+000
  0.0000000E+000
  0.0000000E+000
  0.0000000E+000
  0.0000000E+000
  0.0000000E+000
  0.0000000E+000
  0.0000000E+000
  0.0000000E+000
  0.0000000E+000
  0.0000000E+000
  0.0000000E+000
  0.0000000E+000
  0.0000000E+000
  0.0000000E+000
  0.0000000E+000
  0.0000000E+000
  0.0000000E+000
  0.0000000E+000
  0.0000000E+000
  0.0000000E+000
  0.0000000E+000
  0.0000000E+000
  0.0000000E+000
  0.0000000E+000
  0.0000000E+000
  0.0000000E+000
  0.0000000E+000
  0.0000000E+000
  0.0000000E+000
  0.0000000E+000
  0.0000000E+000
  0.0000000E+000
  0.0000000E+000
  0.0000000E+000
  0.0000000E+000
  0.0000000E+000
  0.0000000E+000
  0.0000000E+000
  0.0000000E+000
  0.0000000E+000
  0.0000000E+000
  0.0000000E+000
  0.0000000E+000
  0.0000000E+000
  0.0000000E+000
  0.0000000E+000
  0.0000000E+000
  0.0000000E+000
  0.0000000E+000
  0.0000000E+000
  0.0000000E+000
  0.0000000E+000
  0.0000000E+000
  0.0000000E+000
  0.0000000E+000
  0.0000000E+000
  0.0000000E+000
  0.0000000E+000
  0.0000000E+000
  0.0000000E+000
  0.0000000E+000
  0.0000000E+000
  0.0000000E+000
  0.0000000E+000
  0.0000000E+000
  0.0000000E+000
  0.0000000E+000
  0.0000000E+000
  0.0000000E+000
  0.0000000E+000
  0.0000000E+000
  0.0000000E+000
  0.0000000E+000
  0.0000000E+000
  0.0000000E+000
  0.0000000E+000
  0.0000000E+000
  0.0000000E+000
  0.0000000E+000
  0.0000000E+000
  0.0000000E+000
  0.0000000E+000
  0.0000000E+000
  0.0000000E+000
  0.0000000E+000
  0.0000000E+000
  0.0000000E+000
  0.0000000E+000
  0.0000000E+000
  0.0000000E+000
  0.0000000E+000
  0.0000000E+000
  0.0000000E+000
  0.0000000E+000
  0.0000000E+000
  0.0000000E+000
  0.0000000E+000
  0.0000000E+000
  0.0000000E+000
  0.0000000E+000
  0.0000000E+000
  0.0000000E+000
  0.0000000E+000
  0.0000000E+000
  0.0000000E+000
  0.0000000E+000
  0.0000000E+000
  0.0000000E+000
  0.0000000E+000
  0.0000000E+000
  0.0000000E+000
  0.0000000E+000
  0.0000000E+000
  0.0000000E+000
  0.0000000E+000
  0.0000000E+000
  0.0000000E+000
  0.0000000E+000
  0.0000000E+000
  0.0000000E+000
  0.0000000E+000
  0.0000000E+000
  0.0000000E+000
  0.0000000E+000
  0.0000000E+000
  0.0000000E+000
  0.0000000E+000
  0.0000000E+000
  0.0000000E+000
  0.0000000E+000
  0.0000000E+000
  0.0000000E+000
  0.0000000E+000
  0.0000000E+000
  0.0000000E+000
  0.0000000E+000
  0.0000000E+000
  0.0000000E+000
  0.0000000E+000
  0.0000000E+000
  0.0000000E+000
  0.0000000E+000
  0.0000000E+000
  0.0000000E+000
  0.0000000E+000
  0.0000000E+000
  0.0000000E+000
  0.0000000E+000
  0.0000000E+000
  0.0000000E+000
  0.0000000E+000
  0.0000000E+000
  0.0000000E+000
  0.0000000E+000
  0.0000000E+000
  0.0000000E+000
  0.0000000E+000
  0.0000000E+000
  0.0000000E+000
  0.0000000E+000
  0.0000000E+000
  0.0000000E+000
  0.0000000E+000
  0.0000000E+000
  0.0000000E+000
  0.0000000E+000
  0.0000000E+000
  0.0000000E+000
  0.0000000E+000
  0.0000000E+000
  0.0000000E+000
  0.0000000E+000
  0.0000000E+000
  0.0000000E+000
  0.0000000E+000
  0.0000000E+000
  0.0000000E+000
  0.0000000E+000
  0.0000000E+000
  0.0000000E+000
  0.0000000E+000
  0.0000000E+000
  0.0000000E+000
  0.0000000E+000
  0.0000000E+000
  0.0000000E+000
  0.0000000E+000
  0.0000000E+000
  0.0000000E+000
  0.0000000E+000
  0.0000000E+000
  0.0000000E+000
  0.0000000E+000
  0.0000000E+000
  0.0000000E+000
  0.0000000E+000
  0.0000000E+000
  0.0000000E+000
  0.0000000E+000
  0.0000000E+000
  0.0000000E+000
  0.0000000E+000
  0.0000000E+000
  0.0000000E+000
  0.0000000E+000
  0.0000000E+000
  0.0000000E+000
  0.0000000E+000
  0.0000000E+000
  0.0000000E+000
  0.0000000E+000
  0.0000000E+000
  0.0000000E+000
  0.0000000E+000
  0.0000000E+000
  0.0000000E+000
  0.0000000E+000
  0.0000000E+000
  0.0000000E+000
  0.0000000E+000
  0.0000000E+000
  0.0000000E+000
  0.0000000E+000
  0.0000000E+000
  0.0000000E+000
  0.0000000E+000
  0.0000000E+000
  0.0000000E+000
  0.0000000E+000
  0.0000000E+000
  0.0000000E+000
  0.0000000E+000
  0.0000000E+000
  0.0000000E+000
  0.0000000E+000
  0.0000000E+000
  0.0000000E+000
  0.0000000E+000
  0.0000000E+000
  0.0000000E+000
  0.0000000E+000
  0.0000000E+000
  0.0000000E+000
  0.0000000E+000
  0.0000000E+000
  0.0000000E+000
  0.0000000E+000
  0.0000000E+000
  0.0000000E+000
  0.0000000E+000
  0.0000000E+000
  0.0000000E+000
  0.0000000E+000
  0.0000000E+000
  0.0000000E+000
  0.0000000E+000
  0.0000000E+000
  0.0000000E+000
  0.0000000E+000
  0.0000000E+000
  0.0000000E+000
  0.0000000E+000
  0.0000000E+000
  0.0000000E+000
  0.0000000E+000
  0.0000000E+000
  0.0000000E+000
  0.0000000E+000
  0.0000000E+000
  0.0000000E+000
  0.0000000E+000
  0.0000000E+000
  0.0000000E+000
  0.0000000E+000
  0.0000000E+000
  0.0000000E+000
  0.0000000E+000
  0.0000000E+000
  0.0000000E+000
  0.0000000E+000
  0.0000000E+000
  0.0000000E+000
  0.0000000E+000
  0.0000000E+000
  0.0000000E+000
  0.0000000E+000
  0.0000000E+000
  0.0000000E+000
  0.0000000E+000
  0.0000000E+000
  0.0000000E+000
  0.0000000E+000
  0.0000000E+000
  0.0000000E+000
  0.0000000E+000
  0.0000000E+000
  0.0000000E+000
  0.0000000E+000
  0.0000000E+000
  0.0000000E+000
  0.0000000E+000
  0.0000000E+000
  0.0000000E+000
  0.0000000E+000
  0.0000000E+000
  0.0000000E+000
  0.0000000E+000
  0.0000000E+000
  0.0000000E+000
  0.0000000E+000
  0.0000000E+000
  0.0000000E+000
  0.0000000E+000
  0.0000000E+000
  0.0000000E+000
  0.0000000E+000
  0.0000000E+000
  0.0000000E+000
  0.0000000E+000
  0.0000000E+000
  0.0000000E+000
  0.0000000E+000
  0.0000000E+000
  0.0000000E+000
  0.0000000E+000
  0.0000000E+000
  0.0000000E+000
  0.0000000E+000
  0.0000000E+000
  0.0000000E+000
  0.0000000E+000
  0.0000000E+000
  0.0000000E+000
  0.0000000E+000
  0.0000000E+000
  0.0000000E+000
  0.0000000E+000
  0.0000000E+000
  0.0000000E+000
  0.0000000E+000
  0.0000000E+000
  0.0000000E+000
  0.0000000E+000
  0.0000000E+000
  0.0000000E+000
  0.0000000E+000
  0.0000000E+000
  0.0000000E+000
  0.0000000E+000
  0.0000000E+000
  0.0000000E+000
  0.0000000E+000
  0.0000000E+000
  0.0000000E+000
  0.0000000E+000
  0.0000000E+000
  0.0000000E+000
  0.0000000E+000
  0.0000000E+000
  0.0000000E+000
  0.0000000E+000
  0.0000000E+000
  0.0000000E+000
  0.0000000E+000
  0.0000000E+000
  0.0000000E+000
  0.0000000E+000
  0.0000000E+000
  0.0000000E+000
  0.0000000E+000
  0.0000000E+000
  0.0000000E+000
  0.0000000E+000
  0.0000000E+000
  0.0000000E+000
  0.0000000E+000
  0.0000000E+000
  0.0000000E+000
  0.0000000E+000
  0.0000000E+000
  0.0000000E+000
  0.0000000E+000
  0.0000000E+000
  0.0000000E+000
  0.0000000E+000
  0.0000000E+000
  0.0000000E+000
  0.0000000E+000
  0.0000000E+000
  0.0000000E+000
  0.0000000E+000
  0.0000000E+000
  0.0000000E+000
  0.0000000E+000
  0.0000000E+000
  0.0000000E+000
  0.0000000E+000
  0.0000000E+000
  0.0000000E+000
  0.0000000E+000
  0.0000000E+000
  0.0000000E+000
  0.0000000E+000
  0.0000000E+000
  0.0000000E+000
  0.0000000E+000
  0.0000000E+000
  0.0000000E+000
  0.0000000E+000
  0.0000000E+000
  0.0000000E+000
  0.0000000E+000
  0.0000000E+000
  0.0000000E+000
  0.0000000E+000
  0.0000000E+000
  0.0000000E+000
  0.0000000E+000
  0.0000000E+000
  0.0000000E+000
  0.0000000E+000
  0.0000000E+000
  0.0000000E+000
  0.0000000E+000
  0.0000000E+000
  0.0000000E+000
  0.0000000E+000
  0.0000000E+000
  0.0000000E+000
  0.0000000E+000
  0.0000000E+000
  0.0000000E+000
  0.0000000E+000
  0.0000000E+000
  0.0000000E+000
  0.0000000E+000
  0.0000000E+000
  0.0000000E+000
  0.0000000E+000
  0.0000000E+000
  0.0000000E+000
  0.0000000E+000
  0.0000000E+000
  0.0000000E+000
  0.0000000E+000
  0.0000000E+000
  0.0000000E+000
  0.0000000E+000
  0.0000000E+000
  0.0000000E+000
  0.0000000E+000
  0.0000000E+000
  0.0000000E+000
  0.0000000E+000
  0.0000000E+000
  0.0000000E+000
  0.0000000E+000
  0.0000000E+000
  0.0000000E+000
  0.0000000E+000
  0.0000000E+000
  0.0000000E+000
  0.0000000E+000
  0.0000000E+000
  0.0000000E+000
  0.0000000E+000
  0.0000000E+000
  0.0000000E+000
  0.0000000E+000
  0.0000000E+000
  0.0000000E+000
  0.0000000E+000
  0.0000000E+000
  0.0000000E+000
  0.0000000E+000
  0.0000000E+000
  0.0000000E+000
  0.0000000E+000
  0.0000000E+000
  0.0000000E+000
  0.0000000E+000
  0.0000000E+000
  0.0000000E+000
  0.0000000E+000
  0.0000000E+000
  0.0000000E+000
  0.0000000E+000
  0.0000000E+000
  0.0000000E+000
  0.0000000E+000
  0.0000000E+000
  0.0000000E+000
  0.0000000E+000
  0.0000000E+000
  0.0000000E+000
  0.0000000E+000
  0.0000000E+000
  0.0000000E+000
  0.0000000E+000
  0.0000000E+000
  0.0000000E+000
  0.0000000E+000
  0.0000000E+000
  0.0000000E+000
  0.0000000E+000
  0.0000000E+000
  0.0000000E+000
  0.0000000E+000
  0.0000000E+000
  0.0000000E+000
  0.0000000E+000
  0.0000000E+000
  0.0000000E+000
  0.0000000E+000
  0.0000000E+000
  0.0000000E+000
  0.0000000E+000
  0.0000000E+000
  0.0000000E+000
  0.0000000E+000
  0.0000000E+000
  0.0000000E+000
  0.0000000E+000
  0.0000000E+000
  0.0000000E+000
  0.0000000E+000
  0.0000000E+000
  0.0000000E+000
  0.0000000E+000
  0.0000000E+000
  0.0000000E+000
  0.0000000E+000
  0.0000000E+000
  0.0000000E+000
  0.0000000E+000
  0.0000000E+000
  0.0000000E+000
  0.0000000E+000
  0.0000000E+000
  0.0000000E+000
  0.0000000E+000
  0.0000000E+000
  0.0000000E+000
  0.0000000E+000
  0.0000000E+000
  0.0000000E+000
  0.0000000E+000
  0.0000000E+000
  0.0000000E+000
  0.0000000E+000
  0.0000000E+000
  0.0000000E+000
  0.0000000E+000
  0.0000000E+000
  0.0000000E+000
  0.0000000E+000
  0.0000000E+000
  0.0000000E+000
  0.0000000E+000
  0.0000000E+000
  0.0000000E+000
  0.0000000E+000
  0.0000000E+000
  0.0000000E+000
  0.0000000E+000
  0.0000000E+000
  0.0000000E+000
  0.0000000E+000
  0.0000000E+000
  0.0000000E+000
  0.0000000E+000
  0.0000000E+000
  0.0000000E+000
  0.0000000E+000
  0.0000000E+000
  0.0000000E+000
  0.0000000E+000
  0.0000000E+000
  0.0000000E+000
  0.0000000E+000
  0.0000000E+000
  0.0000000E+000
  0.0000000E+000
  0.0000000E+000
  0.0000000E+000
  0.0000000E+000
  0.0000000E+000
  0.0000000E+000
  0.0000000E+000
  0.0000000E+000
  0.0000000E+000
  0.0000000E+000
  0.0000000E+000
  0.0000000E+000
  0.0000000E+000
  0.0000000E+000
  0.0000000E+000
  0.0000000E+000
  0.0000000E+000
  0.0000000E+000
  0.0000000E+000
  0.0000000E+000
  0.0000000E+000
  0.0000000E+000
  0.0000000E+000
  0.0000000E+000
  0.0000000E+000
  0.0000000E+000
  0.0000000E+000
  0.0000000E+000
  0.0000000E+000
  0.0000000E+000
  0.0000000E+000
  0.0000000E+000
  0.0000000E+000
  0.0000000E+000
  0.0000000E+000
  0.0000000E+000
  0.0000000E+000
  0.0000000E+000
  0.0000000E+000
  0.0000000E+000
  0.0000000E+000
  0.0000000E+000
  0.0000000E+000
  0.0000000E+000
  0.0000000E+000
  0.0000000E+000
  0.0000000E+000
  0.0000000E+000
  0.0000000E+000
  0.0000000E+000
  0.0000000E+000
  0.0000000E+000
  0.0000000E+000
  0.0000000E+000
  0.0000000E+000
  0.0000000E+000
  0.0000000E+000
  0.0000000E+000
  0.0000000E+000
  0.0000000E+000
  0.0000000E+000
  0.0000000E+000
  0.0000000E+000
  0.0000000E+000
  0.0000000E+000
  0.0000000E+000
  0.0000000E+000
  0.0000000E+000
  0.0000000E+000
  0.0000000E+000
  0.0000000E+000
  0.0000000E+000
  0.0000000E+000
  0.0000000E+000
  0.0000000E+000
  0.0000000E+000
  0.0000000E+000
  0.0000000E+000
  0.0000000E+000
  0.0000000E+000
  0.0000000E+000
  0.0000000E+000
  0.0000000E+000
  0.0000000E+000
  0.0000000E+000
  0.0000000E+000
  0.0000000E+000
  0.0000000E+000
  0.0000000E+000
  0.0000000E+000
  0.0000000E+000
  0.0000000E+000
  0.0000000E+000
  0.0000000E+000
  0.0000000E+000
  0.0000000E+000
  0.0000000E+000
  0.0000000E+000
  0.0000000E+000
  0.0000000E+000
  0.0000000E+000
  0.0000000E+000
  0.0000000E+000
  0.0000000E+000
  0.0000000E+000
  0.0000000E+000
  0.0000000E+000
  0.0000000E+000
  0.0000000E+000
  0.0000000E+000
  0.0000000E+000
  0.0000000E+000
  0.0000000E+000
  0.0000000E+000
  0.0000000E+000
  0.0000000E+000
  0.0000000E+000
  0.0000000E+000
  0.0000000E+000
  0.0000000E+000
  0.0000000E+000
  0.0000000E+000
  0.0000000E+000
  0.0000000E+000
  0.0000000E+000
  0.0000000E+000
  0.0000000E+000
  0.0000000E+000
  0.0000000E+000
  0.0000000E+000
  0.0000000E+000
  0.0000000E+000
  0.0000000E+000
  0.0000000E+000
  0.0000000E+000
  0.0000000E+000
  0.0000000E+000
  0.0000000E+000
  0.0000000E+000
  0.0000000E+000
  0.0000000E+000
  0.0000000E+000
  0.0000000E+000
  0.0000000E+000
  0.0000000E+000
  0.0000000E+000
  0.0000000E+000
  0.0000000E+000
  0.0000000E+000
  0.0000000E+000
  0.0000000E+000
  0.0000000E+000
  0.0000000E+000
  0.0000000E+000
  0.0000000E+000
  0.0000000E+000
  0.0000000E+000
  0.0000000E+000
  0.0000000E+000
  0.0000000E+000
  0.0000000E+000
  0.0000000E+000
  0.0000000E+000
  0.0000000E+000
  0.0000000E+000
  0.0000000E+000
  0.0000000E+000
  0.0000000E+000
  0.0000000E+000
  0.0000000E+000
  0.0000000E+000
  0.0000000E+000
  0.0000000E+000
  0.0000000E+000
  0.0000000E+000
  0.0000000E+000
  0.0000000E+000
  0.0000000E+000
  0.0000000E+000
  0.0000000E+000
  0.0000000E+000
  0.0000000E+000
  0.0000000E+000
  0.0000000E+000
  0.0000000E+000
  0.0000000E+000
  0.0000000E+000
  0.0000000E+000
  0.0000000E+000
  0.0000000E+000
  0.0000000E+000
  0.0000000E+000
  0.0000000E+000
  0.0000000E+000
  0.0000000E+000
  0.0000000E+000
  0.0000000E+000
  0.0000000E+000
  0.0000000E+000
  0.0000000E+000
  0.0000000E+000
  0.0000000E+000
  0.0000000E+000
  0.0000000E+000
  0.0000000E+000
  0.0000000E+000
  0.0000000E+000
  0.0000000E+000
  0.0000000E+000
  0.0000000E+000
  0.0000000E+000
  0.0000000E+000
  0.0000000E+000
  0.0000000E+000
  0.0000000E+000
  0.0000000E+000
  0.0000000E+000
  0.0000000E+000
  0.0000000E+000
  0.0000000E+000
  0.0000000E+000
  0.0000000E+000
  0.0000000E+000
  0.0000000E+000
  0.0000000E+000
  0.0000000E+000
  0.0000000E+000
  0.0000000E+000
  0.0000000E+000
  0.0000000E+000
  0.0000000E+000
  0.0000000E+000
  0.0000000E+000
  0.0000000E+000
  0.0000000E+000
  0.0000000E+000
  0.0000000E+000
  0.0000000E+000
  0.0000000E+000
  0.0000000E+000
  0.0000000E+000
  0.0000000E+000
  0.0000000E+000
  0.0000000E+000
  0.0000000E+000
  0.0000000E+000
  0.0000000E+000
  0.0000000E+000
  0.0000000E+000
  0.0000000E+000
  0.0000000E+000
  0.0000000E+000
  0.0000000E+000
  0.0000000E+000
  0.0000000E+000
  0.0000000E+000
  0.0000000E+000
  0.0000000E+000
  0.0000000E+000
  0.0000000E+000
  0.0000000E+000
  0.0000000E+000
  0.0000000E+000
  0.0000000E+000
  0.0000000E+000
  0.0000000E+000
  0.0000000E+000
  0.0000000E+000
  0.0000000E+000
  0.0000000E+000
  0.0000000E+000
  0.0000000E+000
  0.0000000E+000
  0.0000000E+000
  0.0000000E+000
  0.0000000E+000
  0.0000000E+000
  0.0000000E+000
  0.0000000E+000
  0.0000000E+000
  0.0000000E+000
  0.0000000E+000
  0.0000000E+000
  0.0000000E+000
  0.0000000E+000
  0.0000000E+000
  0.0000000E+000
  0.0000000E+000
  0.0000000E+000
  0.0000000E+000
  0.0000000E+000
  0.0000000E+000
  0.0000000E+000
  0.0000000E+000
  0.0000000E+000
  0.0000000E+000
  0.0000000E+000
  0.0000000E+000
  0.0000000E+000
  0.0000000E+000
  0.0000000E+000
  0.0000000E+000
  0.0000000E+000
  0.0000000E+000
  0.0000000E+000
  0.0000000E+000
  0.0000000E+000
  0.0000000E+000
  0.0000000E+000
  0.0000000E+000
  0.0000000E+000
  0.0000000E+000
  0.0000000E+000
  0.0000000E+000
  0.0000000E+000
  0.0000000E+000
  0.0000000E+000
  0.0000000E+000
  0.0000000E+000
  0.0000000E+000
  0.0000000E+000
  0.0000000E+000
  0.0000000E+000
  0.0000000E+000
  0.0000000E+000
  0.0000000E+000
  0.0000000E+000
  0.0000000E+000
  0.0000000E+000
  0.0000000E+000
  0.0000000E+000
  0.0000000E+000
  0.0000000E+000
  0.0000000E+000
  0.0000000E+000
  0.0000000E+000
  0.0000000E+000
  0.0000000E+000
  0.0000000E+000
  0.0000000E+000
  0.0000000E+000
  0.0000000E+000
  0.0000000E+000
  0.0000000E+000
  0.0000000E+000
  0.0000000E+000
  0.0000000E+000
  0.0000000E+000
  0.0000000E+000
  0.0000000E+000
  0.0000000E+000
  0.0000000E+000
  0.0000000E+000
  0.0000000E+000
  0.0000000E+000
  0.0000000E+000
  0.0000000E+000
  0.0000000E+000
  0.0000000E+000
  0.0000000E+000
  0.0000000E+000
  0.0000000E+000
  0.0000000E+000
  0.0000000E+000
  0.0000000E+000
  0.0000000E+000
  0.0000000E+000
  0.0000000E+000
  0.0000000E+000
  0.0000000E+000
  0.0000000E+000
  0.0000000E+000
  0.0000000E+000
  0.0000000E+000
  0.0000000E+000
  0.0000000E+000
  0.0000000E+000
  0.0000000E+000
  0.0000000E+000
  0.0000000E+000
  0.0000000E+000
  0.0000000E+000
  0.0000000E+000
  0.0000000E+000
  0.0000000E+000
  0.0000000E+000
  0.0000000E+000
  0.0000000E+000
  0.0000000E+000
  0.0000000E+000
  0.0000000E+000
  0.0000000E+000
  0.0000000E+000
  0.0000000E+000
  0.0000000E+000
  0.0000000E+000
  0.0000000E+000
  0.0000000E+000
  0.0000000E+000
  0.0000000E+000
  0.0000000E+000
  0.0000000E+000
  0.0000000E+000
  0.0000000E+000
  0.0000000E+000
  0.0000000E+000
  0.0000000E+000
  0.0000000E+000
  0.0000000E+000
  0.0000000E+000
  0.0000000E+000
  0.0000000E+000
  0.0000000E+000
  0.0000000E+000
  0.0000000E+000
  0.0000000E+000
  0.0000000E+000
  0.0000000E+000
  0.0000000E+000
  0.0000000E+000
  0.0000000E+000
  0.0000000E+000
  0.0000000E+000
  0.0000000E+000
  0.0000000E+000
  0.0000000E+000
  0.0000000E+000
  0.0000000E+000
  0.0000000E+000
  0.0000000E+000
  0.0000000E+000
  0.0000000E+000
  0.0000000E+000
  0.0000000E+000
  0.0000000E+000
  0.0000000E+000
  0.0000000E+000
  0.0000000E+000
  0.0000000E+000
  0.0000000E+000
  0.0000000E+000
  0.0000000E+000
  0.0000000E+000
  0.0000000E+000
  0.0000000E+000
  0.0000000E+000
  0.0000000E+000
  0.0000000E+000
  0.0000000E+000
  0.0000000E+000
  0.0000000E+000
  0.0000000E+000
  0.0000000E+000
  0.0000000E+000
  0.0000000E+000
  0.0000000E+000
  0.0000000E+000
  0.0000000E+000
  0.0000000E+000
  0.0000000E+000
  0.0000000E+000
  0.0000000E+000
  0.0000000E+000
  0.0000000E+000
  0.0000000E+000
  0.0000000E+000
  0.0000000E+000
  0.0000000E+000
  0.0000000E+000
  0.0000000E+000
  0.0000000E+000
  0.0000000E+000
  0.0000000E+000
  0.0000000E+000
  0.0000000E+000
  0.0000000E+000
  0.0000000E+000
  0.0000000E+000
  0.0000000E+000
  0.0000000E+000
  0.0000000E+000
  0.0000000E+000
  0.0000000E+000
  0.0000000E+000
  0.0000000E+000
  0.0000000E+000
  0.0000000E+000
  0.0000000E+000
  0.0000000E+000
  0.0000000E+000
  0.0000000E+000
  0.0000000E+000
  0.0000000E+000
  0.0000000E+000
  0.0000000E+000
  0.0000000E+000
  0.0000000E+000
  0.0000000E+000
  0.0000000E+000
  0.0000000E+000
  0.0000000E+000
  0.0000000E+000
  0.0000000E+000
  0.0000000E+000
  0.0000000E+000
  0.0000000E+000
  0.0000000E+000
  0.0000000E+000
  0.0000000E+000
  0.0000000E+000
  0.0000000E+000
  0.0000000E+000
  0.0000000E+000
  0.0000000E+000
  0.0000000E+000
  0.0000000E+000
  0.0000000E+000
  0.0000000E+000
  0.0000000E+000
  0.0000000E+000
  0.0000000E+000
  0.0000000E+000
  0.0000000E+000
  0.0000000E+000
  0.0000000E+000
  0.0000000E+000
  0.0000000E+000
  0.0000000E+000
  0.0000000E+000
  0.0000000E+000
  0.0000000E+000
  0.0000000E+000
  0.0000000E+000
  0.0000000E+000
  0.0000000E+000
  0.0000000E+000
  0.0000000E+000
  0.0000000E+000
  0.0000000E+000
  0.0000000E+000
  0.0000000E+000
  0.0000000E+000
  0.0000000E+000
  0.0000000E+000
  0.0000000E+000
  0.0000000E+000
  0.0000000E+000
  0.0000000E+000
  0.0000000E+000
  0.0000000E+000
  0.0000000E+000
  0.0000000E+000
  0.0000000E+000
  0.0000000E+000
  0.0000000E+000
  0.0000000E+000
  0.0000000E+000
  0.0000000E+000
  0.0000000E+000
  0.0000000E+000
  0.0000000E+000
  0.0000000E+000
  0.0000000E+000
  0.0000000E+000
  0.0000000E+000
  0.0000000E+000
  0.0000000E+000
  0.0000000E+000
  0.0000000E+000
  0.0000000E+000
  0.0000000E+000
  0.0000000E+000
  0.0000000E+000
  0.0000000E+000
  0.0000000E+000
  0.0000000E+000
  0.0000000E+000
  0.0000000E+000
  0.0000000E+000
  0.0000000E+000
  0.0000000E+000
  0.0000000E+000
  0.0000000E+000
  0.0000000E+000
  0.0000000E+000
  0.0000000E+000
  0.0000000E+000
  0.0000000E+000
  0.0000000E+000
  0.0000000E+000
  0.0000000E+000
  0.0000000E+000
  0.0000000E+000
  0.0000000E+000
  0.0000000E+000
  0.0000000E+000
  0.0000000E+000
  0.0000000E+000
  0.0000000E+000
  0.0000000E+000
  0.0000000E+000
  0.0000000E+000
  0.0000000E+000
  0.0000000E+000
  0.0000000E+000
  0.0000000E+000
  0.0000000E+000
  0.0000000E+000
  0.0000000E+000
  0.0000000E+000
  0.0000000E+000
  0.0000000E+000
  0.0000000E+000
  0.0000000E+000
  0.0000000E+000
  0.0000000E+000
  0.0000000E+000
  0.0000000E+000
  0.0000000E+000
  0.0000000E+000
  0.0000000E+000
  0.0000000E+000
  0.0000000E+000
  0.0000000E+000
  0.0000000E+000
  0.0000000E+000
  0.0000000E+000
  0.0000000E+000
  0.0000000E+000
  0.0000000E+000
  0.0000000E+000
  0.0000000E+000
  0.0000000E+000
  0.0000000E+000
  0.0000000E+000
  0.0000000E+000
  0.0000000E+000
  0.0000000E+000
  0.0000000E+000
  0.0000000E+000
  0.0000000E+000
  0.0000000E+000
  0.0000000E+000
  0.0000000E+000
  0.0000000E+000
  0.0000000E+000
  0.0000000E+000
  0.0000000E+000
  0.0000000E+000
  0.0000000E+000
  0.0000000E+000
  0.0000000E+000
  0.0000000E+000
  0.0000000E+000
  0.0000000E+000
  0.0000000E+000
  0.0000000E+000
  0.0000000E+000
  0.0000000E+000
  0.0000000E+000
  0.0000000E+000
  0.0000000E+000
  0.0000000E+000
  0.0000000E+000
  0.0000000E+000
  0.0000000E+000
  0.0000000E+000
  0.0000000E+000
  0.0000000E+000
  0.0000000E+000
  0.0000000E+000
  0.0000000E+000
  0.0000000E+000
  0.0000000E+000
  0.0000000E+000
  0.0000000E+000
  0.0000000E+000
  0.0000000E+000
  0.0000000E+000
  0.0000000E+000
  0.0000000E+000
  0.0000000E+000
  0.0000000E+000
  0.0000000E+000
  0.0000000E+000
  0.0000000E+000
  0.0000000E+000
  0.0000000E+000
  0.0000000E+000
  0.0000000E+000
  0.0000000E+000
  0.0000000E+000
  0.0000000E+000
  0.0000000E+000
  0.0000000E+000
  0.0000000E+000
  0.0000000E+000
  0.0000000E+000
  0.0000000E+000
  0.0000000E+000
  0.0000000E+000
  0.0000000E+000
  0.0000000E+000
  0.0000000E+000
  0.0000000E+000
  0.0000000E+000
  0.0000000E+000
  0.0000000E+000
  0.0000000E+000
  0.0000000E+000
  0.0000000E+000
  0.0000000E+000
  0.0000000E+000
  0.0000000E+000
  0.0000000E+000
  0.0000000E+000
  0.0000000E+000
  0.0000000E+000
  0.0000000E+000
  0.0000000E+000
  0.0000000E+000
  0.0000000E+000
  0.0000000E+000
  0.0000000E+000
  0.0000000E+000
  0.0000000E+000
  0.0000000E+000
  0.0000000E+000
  0.0000000E+000
  0.0000000E+000
  0.0000000E+000
  0.0000000E+000
  0.0000000E+000
  0.0000000E+000
  0.0000000E+000
  0.0000000E+000
  0.0000000E+000
  0.0000000E+000
  0.0000000E+000
  0.0000000E+000
  0.0000000E+000
  0.0000000E+000
  0.0000000E+000
  0.0000000E+000
  0.0000000E+000
  0.0000000E+000
  0.0000000E+000
  0.0000000E+000
  0.0000000E+000
  0.0000000E+000
  0.0000000E+000
  0.0000000E+000
  0.0000000E+000
  0.0000000E+000
  0.0000000E+000
  0.0000000E+000
  0.0000000E+000
  0.0000000E+000
  0.0000000E+000
  0.0000000E+000
  0.0000000E+000
  0.0000000E+000
  0.0000000E+000
  0.0000000E+000
  0.0000000E+000
  0.0000000E+000
  0.0000000E+000
  0.0000000E+000
  0.0000000E+000
  0.0000000E+000
  0.0000000E+000
  0.0000000E+000
  0.0000000E+000
  0.0000000E+000
  0.0000000E+000
  0.0000000E+000
  0.0000000E+000
  0.0000000E+000
  0.0000000E+000
  0.0000000E+000
  0.0000000E+000
  0.0000000E+000
  0.0000000E+000
  0.0000000E+000
  0.0000000E+000
  0.0000000E+000
  0.0000000E+000
  0.0000000E+000
  0.0000000E+000
  0.0000000E+000
  0.0000000E+000
  0.0000000E+000
  0.0000000E+000
  0.0000000E+000
  0.0000000E+000
  0.0000000E+000
  0.0000000E+000
  0.0000000E+000
  0.0000000E+000
  0.0000000E+000
  0.0000000E+000
  0.0000000E+000
  0.0000000E+000
  0.0000000E+000
  0.0000000E+000
  0.0000000E+000
  0.0000000E+000
  0.0000000E+000
  0.0000000E+000
  0.0000000E+000
  0.0000000E+000
  0.0000000E+000
  0.0000000E+000
  0.0000000E+000
  0.0000000E+000
  0.0000000E+000
  0.0000000E+000
  0.0000000E+000
  0.0000000E+000
  0.0000000E+000
  0.0000000E+000
  0.0000000E+000
  0.0000000E+000
  0.0000000E+000
  0.0000000E+000
  0.0000000E+000
  0.0000000E+000
  0.0000000E+000
  0.0000000E+000
  0.0000000E+000
  0.0000000E+000
  0.0000000E+000
  0.0000000E+000
  0.0000000E+000
  0.0000000E+000
  0.0000000E+000
  0.0000000E+000
  0.0000000E+000
  0.0000000E+000
  0.0000000E+000
  0.0000000E+000
  0.0000000E+000
  0.0000000E+000
  0.0000000E+000
  0.0000000E+000
  0.0000000E+000
  0.0000000E+000
  0.0000000E+000
  0.0000000E+000
  0.0000000E+000
  0.0000000E+000
  0.0000000E+000
  0.0000000E+000
  0.0000000E+000
  0.0000000E+000
  0.0000000E+000
  0.0000000E+000
  0.0000000E+000
  0.0000000E+000
  0.0000000E+000
  0.0000000E+000
  0.0000000E+000
  0.0000000E+000
  0.0000000E+000
  0.0000000E+000
  0.0000000E+000
  0.0000000E+000
  0.0000000E+000
  0.0000000E+000
  0.0000000E+000
  0.0000000E+000
  0.0000000E+000
  0.0000000E+000
  0.0000000E+000
  0.0000000E+000
  0.0000000E+000
  0.0000000E+000
  0.0000000E+000
  0.0000000E+000
  0.0000000E+000
  0.0000000E+000
  0.0000000E+000
  0.0000000E+000
  0.0000000E+000
  0.0000000E+000
  0.0000000E+000
  0.0000000E+000
  0.0000000E+000
  0.0000000E+000
  0.0000000E+000
  0.0000000E+000
  0.0000000E+000
  0.0000000E+000
  0.0000000E+000
  0.0000000E+000
  0.0000000E+000
  0.0000000E+000
  0.0000000E+000
  0.0000000E+000
  0.0000000E+000
  0.0000000E+000
  0.0000000E+000
  0.0000000E+000
  0.0000000E+000
  0.0000000E+000
  0.0000000E+000
  0.0000000E+000
  0.0000000E+000
  0.0000000E+000
  0.0000000E+000
  0.0000000E+000
  0.0000000E+000
  0.0000000E+000
  0.0000000E+000
  0.0000000E+000
  0.0000000E+000
  0.0000000E+000
  0.0000000E+000
  0.0000000E+000
  0.0000000E+000
  0.0000000E+000
  0.0000000E+000
  0.0000000E+000
  0.0000000E+000
  0.0000000E+000
  0.0000000E+000
  0.0000000E+000
  0.0000000E+000
  0.0000000E+000
  0.0000000E+000
  0.0000000E+000
  0.0000000E+000
  0.0000000E+000
  0.0000000E+000
  0.0000000E+000
  0.0000000E+000
  0.0000000E+000
  0.0000000E+000
  0.0000000E+000
  0.0000000E+000
  0.0000000E+000
  0.0000000E+000
  0.0000000E+000
  0.0000000E+000
  0.0000000E+000
  0.0000000E+000
  0.0000000E+000
  0.0000000E+000
  0.0000000E+000
  0.0000000E+000
  0.0000000E+000
  0.0000000E+000
  0.0000000E+000
  0.0000000E+000
  0.0000000E+000
  0.0000000E+000
  0.0000000E+000
  0.0000000E+000
  0.0000000E+000
  0.0000000E+000
  0.0000000E+000
  0.0000000E+000
  0.0000000E+000
  0.0000000E+000
  0.0000000E+000
  0.0000000E+000
  0.0000000E+000
  0.0000000E+000
  0.0000000E+000
  0.0000000E+000
  0.0000000E+000
  0.0000000E+000
  0.0000000E+000
  0.0000000E+000
  0.0000000E+000
  0.0000000E+000
  0.0000000E+000
  0.0000000E+000
  0.0000000E+000
  0.0000000E+000
  0.0000000E+000
  0.0000000E+000
  0.0000000E+000
  0.0000000E+000
  0.0000000E+000
  0.0000000E+000
  0.0000000E+000
  0.0000000E+000
  0.0000000E+000
  0.0000000E+000
  0.0000000E+000
  0.0000000E+000
  0.0000000E+000
  0.0000000E+000
  0.0000000E+000
  0.0000000E+000
  0.0000000E+000
  0.0000000E+000
  0.0000000E+000
  0.0000000E+000
  0.0000000E+000
  0.0000000E+000
  0.0000000E+000
  0.0000000E+000
  0.0000000E+000
  0.0000000E+000
  0.0000000E+000
  0.0000000E+000
  0.0000000E+000
  0.0000000E+000
  0.0000000E+000
  0.0000000E+000
  0.0000000E+000
  0.0000000E+000
  0.0000000E+000
  0.0000000E+000
  0.0000000E+000
  0.0000000E+000
  0.0000000E+000
  0.0000000E+000
  0.0000000E+000
  0.0000000E+000
  0.0000000E+000
  0.0000000E+000
  0.0000000E+000
  0.0000000E+000
  0.0000000E+000
  0.0000000E+000
  0.0000000E+000
  0.0000000E+000
  0.0000000E+000
  0.0000000E+000
  0.0000000E+000
  0.0000000E+000
  0.0000000E+000
  0.0000000E+000
  0.0000000E+000
  0.0000000E+000
  0.0000000E+000
  0.0000000E+000
  0.0000000E+000
  0.0000000E+000
  0.0000000E+000
  0.0000000E+000
  0.0000000E+000
  0.0000000E+000
  0.0000000E+000
  0.0000000E+000
  0.0000000E+000
  0.0000000E+000
  0.0000000E+000
  0.0000000E+000
  0.0000000E+000
  0.0000000E+000
  0.0000000E+000
  0.0000000E+000
  0.0000000E+000
  0.0000000E+000
  0.0000000E+000
  0.0000000E+000
  0.0000000E+000
  0.0000000E+000
  0.0000000E+000
  0.0000000E+000
  0.0000000E+000
  0.0000000E+000
  0.0000000E+000
  0.0000000E+000
  0.0000000E+000
  0.0000000E+000
  0.0000000E+000
  0.0000000E+000
  0.0000000E+000
  0.0000000E+000
  0.0000000E+000
  0.0000000E+000
  0.0000000E+000
  0.0000000E+000
  0.0000000E+000
  0.0000000E+000
  0.0000000E+000
  0.0000000E+000
  0.0000000E+000
  0.0000000E+000
  0.0000000E+000
  0.0000000E+000
  0.0000000E+000
  0.0000000E+000
  0.0000000E+000
  0.0000000E+000
  0.0000000E+000
  0.0000000E+000
  0.0000000E+000
  0.0000000E+000
  0.0000000E+000
  0.0000000E+000
  0.0000000E+000
  0.0000000E+000
  0.0000000E+000
  0.0000000E+000
  0.0000000E+000
  0.0000000E+000
  0.0000000E+000
  0.0000000E+000
  0.0000000E+000
  0.0000000E+000
  0.0000000E+000
  0.0000000E+000
  0.0000000E+000
  0.0000000E+000
  0.0000000E+000
  0.0000000E+000
  0.0000000E+000
  0.0000000E+000
  0.0000000E+000
  0.0000000E+000
  0.0000000E+000
  0.0000000E+000
  0.0000000E+000
  0.0000000E+000
  0.0000000E+000
  0.0000000E+000
  0.0000000E+000
  0.0000000E+000
  0.0000000E+000
  0.0000000E+000
  0.0000000E+000
  0.0000000E+000
  0.0000000E+000
  0.0000000E+000
  0.0000000E+000
  0.0000000E+000
  0.0000000E+000
  0.0000000E+000
  0.0000000E+000
  0.0000000E+000
  0.0000000E+000
  0.0000000E+000
  0.0000000E+000
  0.0000000E+000
  0.0000000E+000
  0.0000000E+000
  0.0000000E+000
  0.0000000E+000
  0.0000000E+000
  0.0000000E+000
  0.0000000E+000
  0.0000000E+000
  0.0000000E+000
  0.0000000E+000
  0.0000000E+000
  0.0000000E+000
  0.0000000E+000
  0.0000000E+000
  0.0000000E+000
  0.0000000E+000
  0.0000000E+000
  0.0000000E+000
  0.0000000E+000
  0.0000000E+000
  0.0000000E+000
  0.0000000E+000
  0.0000000E+000
  0.0000000E+000
  0.0000000E+000
  0.0000000E+000
  0.0000000E+000
  0.0000000E+000
  0.0000000E+000
  0.0000000E+000
  0.0000000E+000
  0.0000000E+000
  0.0000000E+000
  0.0000000E+000
  0.0000000E+000
  0.0000000E+000
  0.0000000E+000
  0.0000000E+000
  0.0000000E+000
  0.0000000E+000
  0.0000000E+000
  0.0000000E+000
  0.0000000E+000
  0.0000000E+000
  0.0000000E+000
  0.0000000E+000
  0.0000000E+000
  0.0000000E+000
  0.0000000E+000
  0.0000000E+000
  0.0000000E+000
  0.0000000E+000
  0.0000000E+000
  0.0000000E+000
  0.0000000E+000
  0.0000000E+000
  0.0000000E+000
  0.0000000E+000
  0.0000000E+000
  0.0000000E+000
  0.0000000E+000
  0.0000000E+000
  0.0000000E+000
  0.0000000E+000
  0.0000000E+000
  0.0000000E+000
  0.0000000E+000
  0.0000000E+000
  0.0000000E+000
  0.0000000E+000
  0.0000000E+000
  0.0000000E+000
  0.0000000E+000
  0.0000000E+000
  0.0000000E+000
  0.0000000E+000
  0.0000000E+000
  0.0000000E+000
  0.0000000E+000
  0.0000000E+000
  0.0000000E+000
  0.0000000E+000
  0.0000000E+000
  0.0000000E+000
  0.0000000E+000
  0.0000000E+000
  0.0000000E+000
  0.0000000E+000
  0.0000000E+000
  0.0000000E+000
  0.0000000E+000
  0.0000000E+000
  0.0000000E+000
  0.0000000E+000
  0.0000000E+000
  0.0000000E+000
  0.0000000E+000
  0.0000000E+000
  0.0000000E+000
  0.0000000E+000
  0.0000000E+000
  0.0000000E+000
  0.0000000E+000
  0.0000000E+000
  0.0000000E+000
  0.0000000E+000
  0.0000000E+000
  0.0000000E+000
  0.0000000E+000
  0.0000000E+000
  0.0000000E+000
  0.0000000E+000
  0.0000000E+000
  0.0000000E+000
  0.0000000E+000
  0.0000000E+000
  0.0000000E+000
  0.0000000E+000
  0.0000000E+000
  0.0000000E+000
  0.0000000E+000
  0.0000000E+000
  0.0000000E+000
  0.0000000E+000
  0.0000000E+000
  0.0000000E+000
  0.0000000E+000
  0.0000000E+000
  0.0000000E+000
  0.0000000E+000
  0.0000000E+000
  0.0000000E+000
  0.0000000E+000
  0.0000000E+000
  0.0000000E+000
  0.0000000E+000
  0.0000000E+000
  0.0000000E+000
  0.0000000E+000
  0.0000000E+000
  0.0000000E+000
  0.0000000E+000
  0.0000000E+000
  0.0000000E+000
  0.0000000E+000
  0.0000000E+000
  0.0000000E+000
  0.0000000E+000
  0.0000000E+000
  0.0000000E+000
  0.0000000E+000
  0.0000000E+000
  0.0000000E+000
  0.0000000E+000
  0.0000000E+000
  0.0000000E+000
  0.0000000E+000
  0.0000000E+000
  0.0000000E+000
  0.0000000E+000
  0.0000000E+000
  0.0000000E+000
  0.0000000E+000
  0.0000000E+000
  0.0000000E+000
  0.0000000E+000
  0.0000000E+000
  0.0000000E+000
  0.0000000E+000
  0.0000000E+000
  0.0000000E+000
  0.0000000E+000
  0.0000000E+000
  0.0000000E+000
  0.0000000E+000
  0.0000000E+000
  0.0000000E+000
  0.0000000E+000
  0.0000000E+000
  0.0000000E+000
  0.0000000E+000
  0.0000000E+000
  0.0000000E+000
  0.0000000E+000
  0.0000000E+000
  0.0000000E+000
  0.0000000E+000
  0.0000000E+000
  0.0000000E+000
  0.0000000E+000
  0.0000000E+000
  0.0000000E+000
  0.0000000E+000
  0.0000000E+000
  0.0000000E+000
  0.0000000E+000
  0.0000000E+000
  0.0000000E+000
  0.0000000E+000
  0.0000000E+000
  0.0000000E+000
  0.0000000E+000
  0.0000000E+000
  0.0000000E+000
  0.0000000E+000
  0.0000000E+000
  0.0000000E+000
  0.0000000E+000
  0.0000000E+000
  0.0000000E+000
  0.0000000E+000
  0.0000000E+000
  0.0000000E+000
  0.0000000E+000
  0.0000000E+000
  0.0000000E+000
  0.0000000E+000
  0.0000000E+000
  0.0000000E+000
  0.0000000E+000
  0.0000000E+000
  0.0000000E+000
  0.0000000E+000
  0.0000000E+000
  0.0000000E+000
  0.0000000E+000
  0.0000000E+000
  0.0000000E+000
  0.0000000E+000
  0.0000000E+000
  0.0000000E+000
  0.0000000E+000
  0.0000000E+000
  0.0000000E+000
  0.0000000E+000
  0.0000000E+000
  0.0000000E+000
  0.0000000E+000
  0.0000000E+000
  0.0000000E+000
  0.0000000E+000
  0.0000000E+000
  0.0000000E+000
  0.0000000E+000
  0.0000000E+000
  0.0000000E+000
  0.0000000E+000
  0.0000000E+000
  0.0000000E+000
  0.0000000E+000
  0.0000000E+000
  0.0000000E+000
  0.0000000E+000
  0.0000000E+000
  0.0000000E+000
  0.0000000E+000
  0.0000000E+000
  0.0000000E+000
  0.0000000E+000
  0.0000000E+000
  0.0000000E+000
  0.0000000E+000
  0.0000000E+000
  0.0000000E+000
  0.0000000E+000
  0.0000000E+000
  0.0000000E+000
  0.0000000E+000
  0.0000000E+000
  0.0000000E+000
  0.0000000E+000
  0.0000000E+000
  0.0000000E+000
  0.0000000E+000
  0.0000000E+000
  0.0000000E+000
  0.0000000E+000
  0.0000000E+000
  0.0000000E+000
  0.0000000E+000
  0.0000000E+000
  0.0000000E+000
  0.0000000E+000
  0.0000000E+000
  0.0000000E+000
  0.0000000E+000
  0.0000000E+000
  0.0000000E+000
  0.0000000E+000
  0.0000000E+000
  0.0000000E+000
  0.0000000E+000
  0.0000000E+000
  0.0000000E+000
  0.0000000E+000
  0.0000000E+000
  0.0000000E+000
  0.0000000E+000
  0.0000000E+000
  0.0000000E+000
  0.0000000E+000
  0.0000000E+000
  0.0000000E+000
  0.0000000E+000
  0.0000000E+000
  0.0000000E+000
  0.0000000E+000
  0.0000000E+000
  0.0000000E+000
  0.0000000E+000
  0.0000000E+000
  0.0000000E+000
  0.0000000E+000
  0.0000000E+000
  0.0000000E+000
  0.0000000E+000
  0.0000000E+000
  0.0000000E+000
  0.0000000E+000
  0.0000000E+000
  0.0000000E+000
  0.0000000E+000
  0.0000000E+000
  0.0000000E+000
  0.0000000E+000
  0.0000000E+000
  0.0000000E+000
  0.0000000E+000
  0.0000000E+000
  0.0000000E+000
  0.0000000E+000
  0.0000000E+000
  0.0000000E+000
  0.0000000E+000
  0.0000000E+000
  0.0000000E+000
  0.0000000E+000
  0.0000000E+000
  0.0000000E+000
  0.0000000E+000
  0.0000000E+000
  0.0000000E+000
  0.0000000E+000
  0.0000000E+000
  0.0000000E+000
  0.0000000E+000
  0.0000000E+000
  0.0000000E+000
  0.0000000E+000
  0.0000000E+000
  0.0000000E+000
  0.0000000E+000
  0.0000000E+000
  0.0000000E+000
  0.0000000E+000
  0.0000000E+000
  0.0000000E+000
  0.0000000E+000
  0.0000000E+000
  0.0000000E+000
  0.0000000E+000
  0.0000000E+000
  0.0000000E+000
  0.0000000E+000
  0.0000000E+000
  0.0000000E+000
  0.0000000E+000
  0.0000000E+000
  0.0000000E+000
  0.0000000E+000
  0.0000000E+000
  0.0000000E+000
  0.0000000E+000
  0.0000000E+000
  0.0000000E+000
  0.0000000E+000
  0.0000000E+000
  0.0000000E+000
  0.0000000E+000
  0.0000000E+000
  0.0000000E+000
  0.0000000E+000
  0.0000000E+000
  0.0000000E+000
  0.0000000E+000
  0.0000000E+000
  0.0000000E+000
  0.0000000E+000
  0.0000000E+000
  0.0000000E+000
  0.0000000E+000
  0.0000000E+000
  0.0000000E+000
  0.0000000E+000
  0.0000000E+000
  0.0000000E+000
  0.0000000E+000
  0.0000000E+000
  0.0000000E+000
  0.0000000E+000
  0.0000000E+000
  0.0000000E+000
  0.0000000E+000
  0.0000000E+000
  0.0000000E+000
  0.0000000E+000
  0.0000000E+000
  0.0000000E+000
  0.0000000E+000
  0.0000000E+000
  0.0000000E+000
  0.0000000E+000
  0.0000000E+000
  0.0000000E+000
  0.0000000E+000
  0.0000000E+000
  0.0000000E+000
  0.0000000E+000
  0.0000000E+000
  0.0000000E+000
  0.0000000E+000
  0.0000000E+000
  0.0000000E+000
  0.0000000E+000
  0.0000000E+000
  0.0000000E+000
  0.0000000E+000
  0.0000000E+000
  0.0000000E+000
  0.0000000E+000
  0.0000000E+000
  0.0000000E+000
  0.0000000E+000
  0.0000000E+000
  0.0000000E+000
  0.0000000E+000
  0.0000000E+000
  0.0000000E+000
  0.0000000E+000
  0.0000000E+000
  0.0000000E+000
  0.0000000E+000
  0.0000000E+000
  0.0000000E+000
  0.0000000E+000
  0.0000000E+000
  0.0000000E+000
  0.0000000E+000
  0.0000000E+000
  0.0000000E+000
  0.0000000E+000
  0.0000000E+000
  0.0000000E+000
  0.0000000E+000
  0.0000000E+000
  0.0000000E+000
  0.0000000E+000
  0.0000000E+000
  0.0000000E+000
  0.0000000E+000
  0.0000000E+000
  0.0000000E+000
  0.0000000E+000
  0.0000000E+000
  0.0000000E+000
  0.0000000E+000
  0.0000000E+000
  0.0000000E+000
  0.0000000E+000
  0.0000000E+000
  0.0000000E+000
  0.0000000E+000
  0.0000000E+000
  0.0000000E+000
  0.0000000E+000
  0.0000000E+000
  0.0000000E+000
  0.0000000E+000
  0.0000000E+000
  0.0000000E+000
  0.0000000E+000
  0.0000000E+000
  0.0000000E+000
  0.0000000E+000
  0.0000000E+000
  0.0000000E+000
  0.0000000E+000
  0.0000000E+000
  0.0000000E+000
  0.0000000E+000
  0.0000000E+000
  0.0000000E+000
  0.0000000E+000
  0.0000000E+000
  0.0000000E+000
  0.0000000E+000
  0.0000000E+000
  0.0000000E+000
  0.0000000E+000
  0.0000000E+000
  0.0000000E+000
  0.0000000E+000
  0.0000000E+000
  0.0000000E+000
  0.0000000E+000
  0.0000000E+000
  0.0000000E+000
  0.0000000E+000
  0.0000000E+000
  0.0000000E+000
  0.0000000E+000
  0.0000000E+000
  0.0000000E+000
  0.0000000E+000
  0.0000000E+000
  0.0000000E+000
  0.0000000E+000
  0.0000000E+000
  0.0000000E+000
  0.0000000E+000
  0.0000000E+000
  0.0000000E+000
  0.0000000E+000
  0.0000000E+000
  0.0000000E+000
  0.0000000E+000
  0.0000000E+000
  0.0000000E+000
  0.0000000E+000
  0.0000000E+000
  0.0000000E+000
  0.0000000E+000
  0.0000000E+000
  0.0000000E+000
  0.0000000E+000
  0.0000000E+000
  0.0000000E+000
  0.0000000E+000
  0.0000000E+000
  0.0000000E+000
  0.0000000E+000
  0.0000000E+000
  0.0000000E+000
  0.0000000E+000
  0.0000000E+000
  0.0000000E+000
  0.0000000E+000
  0.0000000E+000
  0.0000000E+000
  0.0000000E+000
  0.0000000E+000
  0.0000000E+000
  0.0000000E+000
  0.0000000E+000
  0.0000000E+000
  0.0000000E+000
  0.0000000E+000
  0.0000000E+000
  0.0000000E+000
  0.0000000E+000
  0.0000000E+000
  0.0000000E+000
  0.0000000E+000
  0.0000000E+000
  0.0000000E+000
  0.0000000E+000
  0.0000000E+000
  0.0000000E+000
  0.0000000E+000
  0.0000000E+000
  0.0000000E+000
  0.0000000E+000
  0.0000000E+000
  0.0000000E+000
  0.0000000E+000
  0.0000000E+000
  0.0000000E+000
  0.0000000E+000
  0.0000000E+000
  0.0000000E+000
  0.0000000E+000
  0.0000000E+000
  0.0000000E+000
  0.0000000E+000
  0.0000000E+000
  0.0000000E+000
  0.0000000E+000
  0.0000000E+000
  0.0000000E+000
  0.0000000E+000
  0.0000000E+000
  0.0000000E+000
  0.0000000E+000
  0.0000000E+000
  0.0000000E+000
  0.0000000E+000
  0.0000000E+000
  0.0000000E+000
  0.0000000E+000
  0.0000000E+000
  0.0000000E+000
  0.0000000E+000
  0.0000000E+000
  0.0000000E+000
  0.0000000E+000
  0.0000000E+000
  0.0000000E+000
  0.0000000E+000
  0.0000000E+000
  0.0000000E+000
  0.0000000E+000
  0.0000000E+000
  0.0000000E+000
  0.0000000E+000
  0.0000000E+000
  0.0000000E+000
  0.0000000E+000
  0.0000000E+000
  0.0000000E+000
  0.0000000E+000
  0.0000000E+000
  0.0000000E+000
  0.0000000E+000
  0.0000000E+000
  0.0000000E+000
  0.0000000E+000
  0.0000000E+000
  0.0000000E+000
  0.0000000E+000
  0.0000000E+000
  0.0000000E+000
  0.0000000E+000
  0.0000000E+000
  0.0000000E+000
  0.0000000E+000
  0.0000000E+000
  0.0000000E+000
  0.0000000E+000
  0.0000000E+000
  0.0000000E+000
  0.0000000E+000
  0.0000000E+000
  0.0000000E+000
  0.0000000E+000
  0.0000000E+000
  0.0000000E+000
  0.0000000E+000
  0.0000000E+000
  0.0000000E+000
  0.0000000E+000
  0.0000000E+000
  0.0000000E+000
  0.0000000E+000
  0.0000000E+000
  0.0000000E+000
  0.0000000E+000
  0.0000000E+000
  0.0000000E+000
  0.0000000E+000
  0.0000000E+000
  0.0000000E+000
  0.0000000E+000
  0.0000000E+000
  0.0000000E+000
  0.0000000E+000
  0.0000000E+000
  0.0000000E+000
  0.0000000E+000
  0.0000000E+000
  0.0000000E+000
  0.0000000E+000
  0.0000000E+000
  0.0000000E+000
  0.0000000E+000
  0.0000000E+000
  0.0000000E+000
  0.0000000E+000
  0.0000000E+000
  0.0000000E+000
  0.0000000E+000
  0.0000000E+000
  0.0000000E+000
  0.0000000E+000
  0.0000000E+000
  0.0000000E+000
  0.0000000E+000
  0.0000000E+000
  0.0000000E+000
  0.0000000E+000
  0.0000000E+000
  0.0000000E+000
  0.0000000E+000
  0.0000000E+000
  0.0000000E+000
  0.0000000E+000
  0.0000000E+000
  0.0000000E+000
  0.0000000E+000
  0.0000000E+000
  0.0000000E+000
  0.0000000E+000
  0.0000000E+000
  0.0000000E+000
  0.0000000E+000
  0.0000000E+000
  0.0000000E+000
  0.0000000E+000
  0.0000000E+000
  0.0000000E+000
  0.0000000E+000
  0.0000000E+000
  0.0000000E+000
  0.0000000E+000
  0.0000000E+000
  0.0000000E+000
  0.0000000E+000
  0.0000000E+000
  0.0000000E+000
  0.0000000E+000
  0.0000000E+000
  0.0000000E+000
  0.0000000E+000
  0.0000000E+000
  0.0000000E+000
  0.0000000E+000
  0.0000000E+000
  0.0000000E+000
  0.0000000E+000
  0.0000000E+000
  0.0000000E+000
  0.0000000E+000
  0.0000000E+000
  0.0000000E+000
  0.0000000E+000
  0.0000000E+000
  0.0000000E+000
  0.0000000E+000
  0.0000000E+000
  0.0000000E+000
  0.0000000E+000
  0.0000000E+000
  0.0000000E+000
  0.0000000E+000
  0.0000000E+000
  0.0000000E+000
  0.0000000E+000
  0.0000000E+000
  0.0000000E+000
  0.0000000E+000
  0.0000000E+000
  0.0000000E+000
  0.0000000E+000
  0.0000000E+000
  0.0000000E+000
  0.0000000E+000
  0.0000000E+000
  0.0000000E+000
  0.0000000E+000
  0.0000000E+000
  0.0000000E+000
  0.0000000E+000
  0.0000000E+000
  0.0000000E+000
  0.0000000E+000
  0.0000000E+000
  0.0000000E+000
  0.0000000E+000
  0.0000000E+000
  0.0000000E+000
  0.0000000E+000
  0.0000000E+000
  0.0000000E+000
  0.0000000E+000
  0.0000000E+000
  0.0000000E+000
  0.0000000E+000
  0.0000000E+000
  0.0000000E+000
  0.0000000E+000
  0.0000000E+000
  0.0000000E+000
  0.0000000E+000
  0.0000000E+000
  0.0000000E+000
  0.0000000E+000
  0.0000000E+000
  0.0000000E+000
  0.0000000E+000
  0.0000000E+000
  0.0000000E+000
  0.0000000E+000
  0.0000000E+000
  0.0000000E+000
  0.0000000E+000
  0.0000000E+000
  0.0000000E+000
  0.0000000E+000
  0.0000000E+000
  0.0000000E+000
  0.0000000E+000
  0.0000000E+000
  0.0000000E+000
  0.0000000E+000
  0.0000000E+000
  0.0000000E+000
  0.0000000E+000
  0.0000000E+000
  0.0000000E+000
  0.0000000E+000
  0.0000000E+000
  0.0000000E+000
  0.0000000E+000
  0.0000000E+000
  0.0000000E+000
  0.0000000E+000
  0.0000000E+000
  0.0000000E+000
  0.0000000E+000
  0.0000000E+000
  0.0000000E+000
  0.0000000E+000
  0.0000000E+000
  0.0000000E+000
  0.0000000E+000
  0.0000000E+000
  0.0000000E+000
  0.0000000E+000
  0.0000000E+000
  0.0000000E+000
  0.0000000E+000
  0.0000000E+000
  0.0000000E+000
  0.0000000E+000
  0.0000000E+000
  0.0000000E+000
  0.0000000E+000
  0.0000000E+000
  0.0000000E+000
  0.0000000E+000
  0.0000000E+000
  0.0000000E+000
  0.0000000E+000
  0.0000000E+000
  0.0000000E+000
  0.0000000E+000
  0.0000000E+000
  0.0000000E+000
  0.0000000E+000
  0.0000000E+000
  0.0000000E+000
  0.0000000E+000
  0.0000000E+000
  0.0000000E+000
  0.0000000E+000
  0.0000000E+000
  0.0000000E+000
  0.0000000E+000
  0.0000000E+000
  0.0000000E+000
  0.0000000E+000
  0.0000000E+000
  0.0000000E+000
  0.0000000E+000
  0.0000000E+000
  0.0000000E+000
  0.0000000E+000
  0.0000000E+000
  0.0000000E+000
  0.0000000E+000
  0.0000000E+000
  0.0000000E+000
  0.0000000E+000
  0.0000000E+000
  0.0000000E+000
  0.0000000E+000
  0.0000000E+000
  0.0000000E+000
  0.0000000E+000
  0.0000000E+000
  0.0000000E+000
  0.0000000E+000
  0.0000000E+000
  0.0000000E+000
  0.0000000E+000
  0.0000000E+000
  0.0000000E+000
  0.0000000E+000
  0.0000000E+000
  0.0000000E+000
  0.0000000E+000
  0.0000000E+000
  0.0000000E+000
  0.0000000E+000
  0.0000000E+000
  0.0000000E+000
  0.0000000E+000
  0.0000000E+000
  0.0000000E+000
  0.0000000E+000
  0.0000000E+000
  0.0000000E+000
  0.0000000E+000
  0.0000000E+000
  0.0000000E+000
  0.0000000E+000
  0.0000000E+000
  0.0000000E+000
  0.0000000E+000
  0.0000000E+000
  0.0000000E+000
  0.0000000E+000
  0.0000000E+000
  0.0000000E+000
  0.0000000E+000
  0.0000000E+000
  0.0000000E+000
  0.0000000E+000
  0.0000000E+000
  0.0000000E+000
  0.0000000E+000
  0.0000000E+000
  0.0000000E+000
  0.0000000E+000
  0.0000000E+000
  0.0000000E+000
  0.0000000E+000
  0.0000000E+000
  0.0000000E+000
  0.0000000E+000
  0.0000000E+000
  0.0000000E+000
  0.0000000E+000
  0.0000000E+000
  0.0000000E+000
  0.0000000E+000
  0.0000000E+000
  0.0000000E+000
  0.0000000E+000
  0.0000000E+000
  0.0000000E+000
  0.0000000E+000
  0.0000000E+000
  0.0000000E+000
  0.0000000E+000
  0.0000000E+000
  0.0000000E+000
  0.0000000E+000
  0.0000000E+000
  0.0000000E+000
  0.0000000E+000
  0.0000000E+000
  0.0000000E+000
  0.0000000E+000
  0.0000000E+000
  0.0000000E+000
  0.0000000E+000
  0.0000000E+000
  0.0000000E+000
  0.0000000E+000
  0.0000000E+000
  0.0000000E+000
  0.0000000E+000
  0.0000000E+000
  0.0000000E+000
  0.0000000E+000
  0.0000000E+000
  0.0000000E+000
  0.0000000E+000
  0.0000000E+000
  0.0000000E+000
  0.0000000E+000
  0.0000000E+000
  0.0000000E+000
  0.0000000E+000
  0.0000000E+000
  0.0000000E+000
  0.0000000E+000
  0.0000000E+000
  0.0000000E+000
  0.0000000E+000
  0.0000000E+000
  0.0000000E+000
  0.0000000E+000
  0.0000000E+000
  0.0000000E+000
  0.0000000E+000
  0.0000000E+000
  0.0000000E+000
  0.0000000E+000
  0.0000000E+000
  0.0000000E+000
  0.0000000E+000
  0.0000000E+000
  0.0000000E+000
  0.0000000E+000
  0.0000000E+000
  0.0000000E+000
  0.0000000E+000
  0.0000000E+000
  0.0000000E+000
  0.0000000E+000
  0.0000000E+000
  0.0000000E+000
  0.0000000E+000
  0.0000000E+000
  0.0000000E+000
  0.0000000E+000
  0.0000000E+000
  0.0000000E+000
  0.0000000E+000
  0.0000000E+000
  0.0000000E+000
  0.0000000E+000
  0.0000000E+000
  0.0000000E+000
  0.0000000E+000
  0.0000000E+000
  0.0000000E+000
  0.0000000E+000
  0.0000000E+000
  0.0000000E+000
  0.0000000E+000
  0.0000000E+000
  0.0000000E+000
  0.0000000E+000
  0.0000000E+000
  0.0000000E+000
  0.0000000E+000
  0.0000000E+000
  0.0000000E+000
  0.0000000E+000
  0.0000000E+000
  0.0000000E+000
  0.0000000E+000
  0.0000000E+000
  0.0000000E+000
  0.0000000E+000
  0.0000000E+000
  0.0000000E+000
  0.0000000E+000
  0.0000000E+000
  0.0000000E+000
  0.0000000E+000
  0.0000000E+000
  0.0000000E+000
  0.0000000E+000
  0.0000000E+000
  0.0000000E+000
  0.0000000E+000
  0.0000000E+000
  0.0000000E+000
  0.0000000E+000
  0.0000000E+000
  0.0000000E+000
  0.0000000E+000
  0.0000000E+000
  0.0000000E+000
  0.0000000E+000
  0.0000000E+000
  0.0000000E+000
  0.0000000E+000
  0.0000000E+000
  0.0000000E+000
  0.0000000E+000
  0.0000000E+000
  0.0000000E+000
  0.0000000E+000
  0.0000000E+000
  0.0000000E+000
  0.0000000E+000
  0.0000000E+000
  0.0000000E+000
  0.0000000E+000
  0.0000000E+000
  0.0000000E+000
  0.0000000E+000
  0.0000000E+000
  0.0000000E+000
  0.0000000E+000
  0.0000000E+000
  0.0000000E+000
  0.0000000E+000
  0.0000000E+000
  0.0000000E+000
  0.0000000E+000
  0.0000000E+000
  0.0000000E+000
  0.0000000E+000
  0.0000000E+000
  0.0000000E+000
  0.0000000E+000
  0.0000000E+000
  0.0000000E+000
  0.0000000E+000
  0.0000000E+000
  0.0000000E+000
  0.0000000E+000
  0.0000000E+000
  0.0000000E+000
  0.0000000E+000
  0.0000000E+000
  0.0000000E+000
  0.0000000E+000
  0.0000000E+000
  0.0000000E+000
  0.0000000E+000
  0.0000000E+000
  0.0000000E+000
  0.0000000E+000
  0.0000000E+000
  0.0000000E+000
  0.0000000E+000
  0.0000000E+000
  0.0000000E+000
  0.0000000E+000
  0.0000000E+000
  0.0000000E+000
  0.0000000E+000
  0.0000000E+000
  0.0000000E+000
  0.0000000E+000
  0.0000000E+000
  0.0000000E+000
  0.0000000E+000
  0.0000000E+000
  0.0000000E+000
  0.0000000E+000
  0.0000000E+000
  0.0000000E+000
  0.0000000E+000
  0.0000000E+000
  0.0000000E+000
  0.0000000E+000
  0.0000000E+000
  0.0000000E+000
  0.0000000E+000
  0.0000000E+000
  0.0000000E+000
  0.0000000E+000
  0.0000000E+000
  0.0000000E+000
  0.0000000E+000
  0.0000000E+000
  0.0000000E+000
  0.0000000E+000
  0.0000000E+000
  0.0000000E+000
  0.0000000E+000
  0.0000000E+000
  0.0000000E+000
  0.0000000E+000
  0.0000000E+000
  0.0000000E+000
  0.0000000E+000
  0.0000000E+000
  0.0000000E+000
  0.0000000E+000
  0.0000000E+000
  0.0000000E+000
  0.0000000E+000
  0.0000000E+000
  0.0000000E+000
  0.0000000E+000
  0.0000000E+000
  0.0000000E+000
  0.0000000E+000
  0.0000000E+000
  0.0000000E+000
  0.0000000E+000
  0.0000000E+000
  0.0000000E+000
  0.0000000E+000
  0.0000000E+000
  0.0000000E+000
  0.0000000E+000
  0.0000000E+000
  0.0000000E+000
  0.0000000E+000
  0.0000000E+000
  0.0000000E+000
  0.0000000E+000
  0.0000000E+000
  0.0000000E+000
  0.0000000E+000
  0.0000000E+000
  0.0000000E+000
  0.0000000E+000
  0.0000000E+000
  0.0000000E+000
  0.0000000E+000
  0.0000000E+000
  0.0000000E+000
  0.0000000E+000
  0.0000000E+000
  0.0000000E+000
  0.0000000E+000
  0.0000000E+000
  0.0000000E+000
  0.0000000E+000
  0.0000000E+000
  0.0000000E+000
  0.0000000E+000
  0.0000000E+000
  0.0000000E+000
  0.0000000E+000
  0.0000000E+000
  0.0000000E+000
  0.0000000E+000
  0.0000000E+000
  0.0000000E+000
  0.0000000E+000
  0.0000000E+000
  0.0000000E+000
  0.0000000E+000
  0.0000000E+000
  0.0000000E+000
  0.0000000E+000
  0.0000000E+000
  0.0000000E+000
  0.0000000E+000
  0.0000000E+000
  0.0000000E+000
  0.0000000E+000
  0.0000000E+000
  0.0000000E+000
  0.0000000E+000
  0.0000000E+000
  0.0000000E+000
  0.0000000E+000
  0.0000000E+000
  0.0000000E+000
SCALARS Vonmises double
LOOKUP_TABLE default
  7.3635961E+003
  1.1951973E+004
  8.6341060E+003
  4.3129996E+003
  8.4385780E+003
  6.8800744E+003
  8.4593281E+003
  6.9121313E+003
  8.7349503E+003
  4.3408516E+003
  1.1818126E+004
  7.2004977E+003
  1.8344378E+002
  4.9739286E+002
  7.3897268E+002
  1.7012605E+002
  1.4564832E+003
  7.2016849E+002
  2.0452133E+003
  1.5234320E+003
  2.7640789E+003
  2.4638634E+003
  3.5686530E+003
  3.5411157E+003
  4.4751757E+003
  4.7277389E+003
  5.4617862E+003
  6.0394050E+003
  6.5558804E+003
  7.4145838E+003
  7.6153902E+003
  9.1368628E+003
  9.0000727E+003
  1.0365116E+004
  8.8273134E+003
  1.5633933E+004
  8.3585252E+003
  9.7972721E+003
  9.9243135E+003
  1.0090699E+004
  1.0289409E+004
  9.1096118E+003
  1.0752294E+004
  1.4274250E+004
  1.0534089E+004
  5.4622822E+003
  1.2067925E+004
  6.6809106E+003
  1.1748971E+003
  1.5620928E+003
  2.2720479E+003
  2.9133312E+003
  3.5439163E+003
  4.1869654E+003
  4.8557473E+003
  5.5543655E+003
  6.2460721E+003
  6.9186143E+003
  7.2143089E+003
  6.8507278E+003
  6.5662462E+003
  8.1498491E+003
  9.4621611E+003
  9.9177878E+003
  9.5054175E+003
  9.0229287E+003
  1.0774422E+004
  1.1303428E+004
  1.1355091E+004
  1.0454368E+004
  8.4922126E+003
  8.3548776E+003
  2.7983220E+003
  5.8355397E+002
  6.2817693E+002
  1.5262915E+003
  2.1948575E+003
  2.7748315E+003
  3.4233700E+003
  4.0423519E+003
  4.6311923E+003
  5.1875576E+003
  5.7007892E+003
  6.1445102E+003
  6.4185992E+003
  6.3785013E+003
  6.0674011E+003
  6.2614175E+003
  7.1097273E+003
  8.3020253E+003
  8.9936036E+003
  9.1465318E+003
  9.5191863E+003
  1.0297634E+004
  1.1281967E+004
  1.2381303E+004
  1.5692381E+004
  1.3243539E+004
  1.5693878E+004
  3.7553442E+003
  2.5126506E+003
  2.1095910E+003
  2.6823416E+003
  3.1429339E+003
  3.8160857E+003
  4.4345827E+003
  5.0104663E+003
  5.5144549E+003
  5.9356484E+003
  6.2351530E+003
  6.3469661E+003
  6.2126779E+003
  5.9618217E+003
  5.8901190E+003
  6.4525652E+003
  7.3128540E+003
  8.0655661E+003
  8.5867082E+003
  9.1216718E+003
  9.9642884E+003
  1.1189249E+004
  1.2676467E+004
  1.4793355E+004
  1.5370640E+004
  2.6996739E+004
  2.6503591E+003
  2.1752582E+003
  2.6703200E+003
  3.4157908E+003
  4.0743030E+003
  4.7059542E+003
  5.2593236E+003
  5.7358719E+003
  6.1195571E+003
  6.3782645E+003
  6.4625920E+003
  6.3517956E+003
  6.1060791E+003
  5.9706073E+003
  6.1411051E+003
  6.6459716E+003
  7.2486411E+003
  7.8155180E+003
  8.4137487E+003
  9.1584133E+003
  1.0078785E+004
  1.0896774E+004
  1.1447372E+004
  8.9293100E+003
  1.4182843E+004
  1.6237139E+004
  2.0743823E+004
  1.9516165E+004
  1.0276148E+004
  1.5867600E+003
  1.4064195E+003
  2.0771085E+003
  2.6136604E+003
  3.0280388E+003
  3.7054593E+003
  4.3455499E+003
  4.9176814E+003
  5.4277587E+003
  5.8834810E+003
  6.2750253E+003
  6.5687938E+003
  6.7199642E+003
  6.6965822E+003
  6.5285604E+003
  6.3184520E+003
  6.2360805E+003
  6.3574916E+003
  6.6382444E+003
  6.9912710E+003
  7.3931152E+003
  7.8481833E+003
  8.2565162E+003
  8.3532286E+003
  7.6890092E+003
  8.1499638E+003
  1.1609327E+004
  1.3707362E+004
  1.3794658E+004
  1.1274641E+004
  1.2800771E+004
  1.1825725E+004
  6.2783589E+003
  1.4955002E+003
  2.2861979E+003
  3.1012933E+003
  3.6719486E+003
  4.1614551E+003
  4.6349165E+003
  5.0736854E+003
  5.5142441E+003
  5.9699953E+003
  6.4181563E+003
  6.8113989E+003
  7.0935748E+003
  7.2193907E+003
  7.1738886E+003
  6.9948418E+003
  6.7574140E+003
  6.5439972E+003
  6.3946629E+003
  6.3032726E+003
  6.2665389E+003
  6.2500031E+003
  6.1584126E+003
  5.9087439E+003
  6.0646451E+003
  7.7637367E+003
  1.0330165E+004
  1.1782768E+004
  1.2651564E+004
  1.1478885E+004
  9.4071665E+003
  6.2225096E+003
  6.9002201E+003
  4.9163233E+003
  2.3396179E+003
  5.2305104E+002
  1.7068120E+002
  1.1003039E+003
  2.6033041E+003
  3.5904920E+003
  4.2869240E+003
  4.6137398E+003
  4.8301013E+003
  5.1056758E+003
  5.5179205E+003
  6.0413415E+003
  6.6127425E+003
  7.1620709E+003
  7.6237417E+003
  7.9413217E+003
  8.0737201E+003
  8.0006678E+003
  7.7279537E+003
  7.2844512E+003
  6.7051392E+003
  6.0595811E+003
  5.3745187E+003
  4.7334195E+003
  4.2713014E+003
  4.4307070E+003
  5.8761705E+003
  8.3981306E+003
  1.0939664E+004
  1.2660663E+004
  1.2807093E+004
  1.1713501E+004
  1.0270490E+004
  7.9586156E+003
  5.1119115E+003
  2.4386353E+003
  1.9495481E+003
  8.9753024E+002
  4.9333232E+002
  2.6738377E+002
  9.3368754E+002
  2.7031658E+003
  4.3769973E+003
  4.8355102E+003
  4.7956650E+003
  4.7070074E+003
  4.9698876E+003
  5.5192600E+003
  6.2225990E+003
  6.9770813E+003
  7.7107993E+003
  8.3680536E+003
  8.8983631E+003
  9.2489928E+003
  9.3580879E+003
  9.1609101E+003
  8.6071898E+003
  7.7242350E+003
  6.5555884E+003
  5.3551817E+003
  4.2420826E+003
  3.6682729E+003
  4.5083787E+003
  6.8226911E+003
  9.7287413E+003
  1.2340406E+004
  1.3913231E+004
  1.4173023E+004
  1.3202496E+004
  1.1250231E+004
  8.8618844E+003
  6.6002916E+003
  4.3368204E+003
  2.1401456E+003
  1.3607544E+003
  8.1788267E+002
  1.3776600E+003
  9.2127147E+002
  1.6300717E+003
  2.9436267E+003
  4.5801976E+003
  5.0397967E+003
  4.2071672E+003
  4.2714298E+003
  4.9413544E+003
  5.8146865E+003
  6.7404380E+003
  7.6578687E+003
  8.5390228E+003
  9.3605538E+003
  1.0093263E+004
  1.0689244E+004
  1.1063805E+004
  1.1063739E+004
  1.0536686E+004
  9.4293363E+003
  8.1156752E+003
  6.8903724E+003
  6.1923161E+003
  5.8408955E+003
  6.4108223E+003
  8.5187443E+003
  1.1460760E+004
  1.4177648E+004
  1.5751603E+004
  1.5821708E+004
  1.4534793E+004
  1.2413099E+004
  9.9518267E+003
  7.4835362E+003
  5.2337977E+003
  3.4273826E+003
  2.3206643E+003
  1.8678390E+003
  2.0696822E+003
  1.7106477E+003
  5.8070481E+003
  7.8081435E+003
  4.1915766E+003
  3.4552530E+003
  4.7013279E+003
  5.7601771E+003
  6.8031365E+003
  7.7747940E+003
  8.7175978E+003
  9.6416264E+003
  1.0553551E+004
  1.1447774E+004
  1.2299234E+004
  1.3028957E+004
  1.3444543E+004
  1.3107025E+004
  1.1918799E+004
  1.0696900E+004
  1.0800612E+004
  1.1170494E+004
  1.0809364E+004
  1.0124317E+004
  1.0626446E+004
  1.3182908E+004
  1.6057394E+004
  1.7829056E+004
  1.7657317E+004
  1.5842537E+004
  1.3196556E+004
  1.0490200E+004
  8.0832277E+003
  6.0364218E+003
  4.3972165E+003
  3.2144048E+003
  2.5683580E+003
  2.3597647E+003
  2.4134431E+003
  2.0170384E+003
  1.1265345E+004
  5.3159936E+003
  6.2180083E+003
  7.0430251E+003
  7.7412342E+003
  8.4831746E+003
  9.2357963E+003
  1.0031836E+004
  1.0877724E+004
  1.1788646E+004
  1.2779003E+004
  1.3856352E+004
  1.5005350E+004
  1.6090907E+004
  1.6603776E+004
  1.5239196E+004
  1.3906803E+004
  1.7844016E+004
  2.1095210E+004
  1.9876240E+004
  1.5362357E+004
  1.4346069E+004
  1.5163956E+004
  1.7967308E+004
  2.0184997E+004
  1.9701633E+004
  1.6838831E+004
  1.3349727E+004
  1.0387707E+004
  8.1466563E+003
  6.4288367E+003
  5.0669733E+003
  4.0470087E+003
  3.3594828E+003
  3.4037444E+003
  3.0252229E+003
  3.0514485E+003
  1.2052509E+003
  6.7159816E+003
  9.0553943E+003
  1.0787875E+004
  1.0068877E+004
  1.0164668E+004
  1.0363428E+004
  1.0773247E+004
  1.1318827E+004
  1.2000343E+004
  1.2824113E+004
  1.3818782E+004
  1.5027310E+004
  1.6524817E+004
  1.8335422E+004
  2.0582460E+004
  2.0934758E+004
  2.2440170E+004
  3.2528579E+004
  3.9873987E+004
  3.4939009E+004
  2.8950492E+004
  2.3793504E+004
  1.5922623E+004
  1.7898776E+004
  2.3543502E+004
  2.2128113E+004
  1.7012407E+004
  1.2322264E+004
  9.3215057E+003
  7.5404589E+003
  6.3479073E+003
  5.4101080E+003
  4.6615756E+003
  4.1569132E+003
  4.0413891E+003
  4.0193279E+003
  5.2381527E+003
  1.6180044E+004
  1.3680391E+004
  1.3757210E+004
  1.2506291E+004
  1.2085485E+004
  1.1889176E+004
  1.1979780E+004
  1.2268981E+004
  1.2745758E+004
  1.3409248E+004
  1.4297561E+004
  1.5444982E+004
  1.7071353E+004
  1.8992230E+004
  2.3192302E+004
  2.5239050E+004
  4.7907675E+004
  6.3077718E+004
  4.2527036E+004
  6.2911363E+004
  5.4042692E+004
  3.7183488E+004
  1.7117067E+004
  2.5037763E+004
  3.3105161E+004
  2.4415477E+004
  1.5262874E+004
  9.6026358E+003
  7.1272495E+003
  6.2494839E+003
  5.8279341E+003
  5.4215663E+003
  4.9948487E+003
  4.6883677E+003
  4.4132571E+003
  4.8033349E+003
  4.8777539E+003
  5.9954159E+003
  2.5918863E+003
  3.8186722E+004
  9.3286070E+003
  1.2973461E+004
  2.6004264E+004
  1.1306847E+004
  1.6396286E+004
  7.6339221E+003
  3.7239470E+003
  7.0758562E+003
  3.8083425E+003
  8.3808480E+003
  1.6072598E+004
  1.3003208E+004
  6.2757182E+003
  1.3343570E+004
  1.6594033E+004
  1.1674760E+004
  1.3760682E+004
  1.4229562E+004
  1.3563511E+004
  1.3036961E+004
  1.2697810E+004
  1.2582290E+004
  1.2662808E+004
  1.2928774E+004
  1.3377022E+004
  1.4042250E+004
  1.4911938E+004
  1.6276284E+004
  1.7438040E+004
  2.1491392E+004
  1.9738406E+004
  2.8640196E+004
  3.0093917E+004
  4.6298342E+004
  6.4419336E+004
  3.8822091E+004
  3.1504511E+004
  2.0718072E+004
  1.0954017E+004
  5.3078397E+003
  4.1450215E+003
  4.6729407E+003
  5.1317241E+003
  5.2221458E+003
  5.0850295E+003
  4.9003121E+003
  4.8025576E+003
  5.0808658E+003
  5.9561826E+003
  8.6476903E+003
  3.5230333E+003
  3.1476678E+003
  3.2521706E+003
  8.3408877E+003
  9.6845799E+003
  7.5280080E+003
  5.7520466E+003
  5.0031083E+003
  5.5858758E+003
  4.1339889E+003
  1.0497818E+003
  4.9000698E+003
  2.6033412E+003
  1.1409445E+004
  2.1991416E+004
  1.5400422E+004
  1.3350807E+004
  1.5139452E+004
  1.4265714E+004
  1.3393211E+004
  1.1743967E+004
  1.2617035E+004
  1.3428103E+004
  1.3387091E+004
  1.3040633E+004
  1.2716923E+004
  1.2505040E+004
  1.2431503E+004
  1.2497714E+004
  1.2704623E+004
  1.3046815E+004
  1.3547614E+004
  1.4114724E+004
  1.4864149E+004
  1.4973855E+004
  1.1648764E+004
  2.5558078E+003
  1.3864982E+005
  9.4591902E+004
  6.5960119E+004
  1.3798645E+004
  5.7454539E+003
  1.5873823E+003
  2.0815550E+003
  3.7333374E+003
  4.7017846E+003
  5.0093354E+003
  5.0028940E+003
  4.9008397E+003
  4.8768514E+003
  4.9836340E+003
  5.2701304E+003
  6.7565730E+003
  7.6379809E+003
  7.0538369E+003
  3.6068710E+003
  3.0033345E+003
  5.3174781E+003
  6.0896491E+003
  5.5773447E+003
  4.6698829E+003
  4.5718869E+003
  4.7988229E+003
  5.2555899E+003
  5.9390488E+003
  6.2661488E+003
  7.3823659E+003
  4.3256504E+003
  7.6833119E+003
  2.7240057E+003
  1.1620232E+004
  6.5793732E+003
  1.9109176E+004
  3.1236222E+004
  2.0865646E+004
  1.7995241E+004
  1.8789013E+004
  1.6427285E+004
  1.4838422E+004
  1.3450326E+004
  1.2757100E+004
  1.2209653E+004
  1.2163533E+004
  1.2480090E+004
  1.2557697E+004
  1.2367514E+004
  1.2090242E+004
  1.1835114E+004
  1.1645957E+004
  1.1535326E+004
  1.1497291E+004
  1.1517875E+004
  1.1542274E+004
  1.1531150E+004
  1.1122863E+004
  1.0039426E+004
  5.7817712E+003
  2.7085795E+003
  8.2409683E+003
  2.1234414E+003
  2.7868305E+003
  2.9044033E+003
  4.3211592E+003
  4.7834564E+003
  4.8484337E+003
  4.7985909E+003
  4.7554093E+003
  4.7342950E+003
  4.9253222E+003
  5.6217327E+003
  8.5621382E+003
  9.0715371E+003
  1.1462225E+004
  3.5190026E+003
  2.7524647E+003
  2.6538030E+003
  2.7496528E+003
  1.8225951E+003
  3.6246392E+003
  4.3400968E+003
  3.7524321E+003
  2.9020659E+003
  3.0371010E+003
  4.3080438E+003
  5.6576478E+003
  7.2029871E+003
  9.1216682E+003
  1.1107829E+004
  1.1517027E+004
  1.2933799E+004
  1.8215986E+004
  1.5189165E+004
  1.6236549E+004
  1.6072749E+004
  1.7735422E+004
  1.7070215E+004
  1.8714985E+004
  1.7939163E+004
  1.9862412E+004
  1.8755153E+004
  2.0898532E+004
  1.9503398E+004
  2.1870895E+004
  2.0213702E+004
  2.2786220E+004
  2.0912670E+004
  2.3676554E+004
  2.1614219E+004
  2.4560631E+004
  2.2322960E+004
  2.5428238E+004
  2.3015150E+004
  2.6319568E+004
  2.3773017E+004
  2.7126979E+004
  2.4342690E+004
  2.8621150E+004
  2.5659487E+004
  2.8972314E+004
  2.3186433E+004
  4.0071551E+004
  1.9863788E+004
  1.9656229E+004
  1.6898966E+004
  1.4912702E+004
  1.3974660E+004
  1.2879857E+004
  1.2103195E+004
  1.1653996E+004
  1.1528827E+004
  1.1524131E+004
  1.1474369E+004
  1.1298438E+004
  1.1033467E+004
  1.0742335E+004
  1.0462142E+004
  1.0203846E+004
  9.9587630E+003
  9.6950155E+003
  9.3596875E+003
  8.8287944E+003
  7.9247664E+003
  6.3261524E+003
  4.0274783E+003
  1.7906725E+003
  2.7337399E+003
  4.0271865E+003
  4.5999588E+003
  4.7196153E+003
  4.6052763E+003
  4.6414193E+003
  4.5877378E+003
  4.5391912E+003
  4.7453902E+003
  5.4393343E+003
  7.3349474E+003
  8.8771265E+003
  1.7442113E+004
  4.5557569E+003
  2.9507842E+003
  1.9857380E+003
  2.5563896E+003
  3.0281076E+003
  2.4072699E+003
  1.8465451E+003
  3.0128951E+003
  4.8676477E+003
  6.6576374E+003
  8.3962517E+003
  1.0094797E+004
  1.1285556E+004
  1.1667151E+004
  1.2137079E+004
  1.3397996E+004
  1.4582296E+004
  1.5419689E+004
  1.6102499E+004
  1.6642465E+004
  1.7091729E+004
  1.7506762E+004
  1.7945055E+004
  1.8423685E+004
  1.8908050E+004
  1.9340117E+004
  1.9591617E+004
  1.9595200E+004
  1.8490504E+004
  1.5966735E+004
  1.3871555E+004
  1.4478115E+004
  1.4391290E+004
  1.3311257E+004
  1.2425128E+004
  1.1738117E+004
  1.1164964E+004
  1.0782155E+004
  1.0556162E+004
  1.0412078E+004
  1.0250014E+004
  1.0024720E+004
  9.7361333E+003
  9.4066530E+003
  9.0560112E+003
  8.6894423E+003
  8.2948788E+003
  7.8420295E+003
  7.2733415E+003
  6.5056551E+003
  5.4155521E+003
  3.9461248E+003
  1.8659155E+003
  1.1343568E+003
  1.7846947E+003
  2.1912002E+003
  5.6840116E+003
  7.7421188E+003
  5.5869390E+003
  5.0237736E+003
  4.8343300E+003
  4.5728484E+003
  4.4327553E+003
  4.3935655E+003
  4.6189555E+003
  5.1265327E+003
  4.2799440E+003
  6.7823495E+003
  9.5164560E+003
  1.7747627E+004
  8.5453134E+003
  7.6143002E+003
  6.0534149E+003
  6.3972621E+003
  4.7075365E+003
  4.3144451E+003
  3.4291538E+003
  3.0101253E+003
  2.4464035E+003
  1.8873661E+003
  1.6403045E+003
  1.0565405E+003
  1.0135179E+003
  4.7052335E+002
  5.3481358E+002
  1.1751295E+002
  2.1153233E+002
  5.7945410E+001
  1.0641587E+002
  1.1493801E+002
  5.5988880E+003
  2.7239047E+003
  1.4133074E+003
  2.1553960E+003
  2.9316439E+003
  3.0950248E+003
  3.5509221E+003
  4.7989015E+003
  6.3745268E+003
  7.9504117E+003
  9.4018990E+003
  1.0627705E+004
  1.1417370E+004
  1.1786845E+004
  1.2149131E+004
  1.2653064E+004
  1.3376678E+004
  1.4032952E+004
  1.4500619E+004
  1.4765305E+004
  1.4864233E+004
  1.4937314E+004
  1.5094175E+004
  1.5346236E+004
  1.5610669E+004
  1.5753264E+004
  1.5600233E+004
  1.4909671E+004
  1.3544037E+004
  1.2016996E+004
  1.1204315E+004
  1.1170156E+004
  1.1364264E+004
  1.1179762E+004
  1.0734968E+004
  1.0289421E+004
  9.9046183E+003
  9.5960293E+003
  9.3587008E+003
  9.1489567E+003
  8.9239240E+003
  8.6553818E+003
  8.3375545E+003
  7.9769062E+003
  7.5809897E+003
  7.1504203E+003
  6.6747483E+003
  6.1298098E+003
  5.4769868E+003
  4.6655483E+003
  3.6469343E+003
  2.4018477E+003
  1.1566367E+003
  8.9484955E+002
  1.4205822E+003
  1.5616775E+003
  1.1556361E+003
  6.7888464E+003
  6.4257662E+003
  5.9554123E+003
  5.2269049E+003
  4.9586149E+003
  4.5343604E+003
  4.0961828E+003
  3.6556435E+003
  2.9686000E+003
  2.7016469E+003
  5.0901342E+003
  7.9711599E+003
  7.9595030E+003
  6.8846513E+003
  5.5918021E+003
  4.4708232E+003
  3.4334683E+003
  2.5157980E+003
  1.7189495E+003
  1.0668490E+003
  6.0843666E+002
  2.3942352E+002
  6.5381290E+001
  2.2980811E+002
  1.0702639E+002
  1.1232297E+002
  1.1401427E+002
  8.3984960E+001
  6.3176352E+003
  3.5459847E+003
  7.1269708E+002
  2.7337043E+003
  4.6468837E+003
  5.5472281E+003
  6.2808435E+003
  7.1870035E+003
  8.2516090E+003
  9.3158711E+003
  1.0266544E+004
  1.0992449E+004
  1.1436485E+004
  1.1644218E+004
  1.1761529E+004
  1.2017385E+004
  1.2389340E+004
  1.2805911E+004
  1.3069170E+004
  1.3022229E+004
  1.2710142E+004
  1.2343659E+004
  1.2185986E+004
  1.2227383E+004
  1.2306225E+004
  1.2205376E+004
  1.1785169E+004
  1.0920660E+004
  9.8097508E+003
  8.7950561E+003
  8.3796095E+003
  8.5811596E+003
  8.8567733E+003
  8.9512599E+003
  8.8579054E+003
  8.6616070E+003
  8.4411322E+003
  8.2251172E+003
  8.0148405E+003
  7.7966877E+003
  7.5509813E+003
  7.2648064E+003
  6.9340543E+003
  6.5609110E+003
  6.1487080E+003
  5.6975896E+003
  5.2016225E+003
  4.6474730E+003
  4.0152273E+003
  3.2824533E+003
  2.4389829E+003
  1.5249722E+003
  7.3990687E+002
  6.5745581E+002
  1.0203164E+003
  1.6194809E+003
  4.8070765E+003
  8.9062608E+003
  6.6731962E+003
  6.1514907E+003
  5.6662457E+003
  4.8196951E+003
  3.9649479E+003
  2.9572916E+003
  1.7644434E+003
  2.1671019E+003
  4.5723017E+003
  6.3655331E+003
  7.3326399E+003
  7.0555733E+003
  6.2304684E+003
  5.2218926E+003
  4.1900730E+003
  3.1914437E+003
  2.2821642E+003
  1.5105237E+003
  8.9356056E+002
  4.2604189E+002
  1.1826707E+002
  7.5121894E+001
  1.1001963E+002
  1.0389891E+002
  7.9610060E+001
  4.6943294E+003
  5.4499673E+003
  1.0709032E+003
  5.7966673E+003
  8.2287017E+003
  9.0102436E+003
  9.2552518E+003
  9.5891109E+003
  1.0021432E+004
  1.0483744E+004
  1.0866335E+004
  1.1102223E+004
  1.1171769E+004
  1.1123505E+004
  1.1069096E+004
  1.1092769E+004
  1.1259815E+004
  1.1533303E+004
  1.1764115E+004
  1.1479201E+004
  1.0541566E+004
  9.6664089E+003
  9.2905900E+003
  9.1093118E+003
  8.9443756E+003
  8.8067440E+003
  8.2030000E+003
  7.2647348E+003
  6.3939781E+003
  5.9241510E+003
  5.8911855E+003
  6.1774674E+003
  6.5468263E+003
  6.8214604E+003
  6.9442042E+003
  6.9468604E+003
  6.8767985E+003
  6.7614642E+003
  6.6095792E+003
  6.4200334E+003
  6.1886829E+003
  5.9125530E+003
  5.5919093E+003
  5.2295158E+003
  4.8290508E+003
  4.3931949E+003
  3.9220727E+003
  3.4125297E+003
  2.8588357E+003
  2.2563936E+003
  1.6114168E+003
  9.6473708E+002
  5.1384261E+002
  6.8201518E+002
  1.0948848E+003
  1.0918579E+003
  6.4632694E+002
  9.3605885E+002
  6.4527928E+003
  7.2792682E+003
  7.8047101E+003
  6.2534235E+003
  5.0849688E+003
  4.0025834E+003
  2.7254635E+003
  1.3019206E+003
  2.1024694E+003
  4.2772776E+003
  6.1869380E+003
  7.1388863E+003
  7.2829158E+003
  6.7792044E+003
  5.9300724E+003
  4.9201957E+003
  3.8633089E+003
  2.8417339E+003
  1.9246451E+003
  1.1620812E+003
  5.8836992E+002
  2.1742013E+002
  4.2753722E+001
  9.8318431E+001
  1.8447404E+002
  1.1039465E+004
  9.3407184E+003
  6.9153946E+003
  1.3212160E+004
  1.4187935E+004
  1.2948928E+004
  1.2153054E+004
  1.1626430E+004
  1.1405837E+004
  1.1272682E+004
  1.1113677E+004
  1.0875734E+004
  1.0567398E+004
  1.0235495E+004
  9.9472612E+003
  9.7761180E+003
  9.7646432E+003
  9.9208232E+003
  1.0247150E+004
  1.0367746E+004
  8.7523807E+003
  6.9247122E+003
  6.3805494E+003
  5.6485712E+003
  4.8643316E+003
  4.6301799E+003
  4.3759664E+003
  3.3034164E+003
  3.2855108E+003
  3.2882576E+003
  3.4090444E+003
  3.7891500E+003
  4.3409775E+003
  4.7862879E+003
  5.0623314E+003
  5.2268129E+003
  5.2970462E+003
  5.2879750E+003
  5.2127287E+003
  5.0771622E+003
  4.8858521E+003
  4.6436967E+003
  4.3550511E+003
  4.0247416E+003
  3.6585626E+003
  3.2628829E+003
  2.8436204E+003
  2.4053016E+003
  1.9511010E+003
  1.4845423E+003
  1.0149186E+003
  5.8306080E+002
  4.2070214E+002
  7.5775356E+002
  1.1186010E+003
  1.0807499E+003
  8.7573812E+002
  3.7681530E+003
  7.2303035E+003
  7.2309786E+003
  6.0636367E+003
  5.3338346E+003
  4.3861337E+003
  2.9590722E+003
  1.4368687E+003
  2.1885277E+003
  4.2870966E+003
  6.0499522E+003
  7.1487098E+003
  7.4816213E+003
  7.2140811E+003
  6.5264599E+003
  5.5862384E+003
  4.5131170E+003
  3.4050506E+003
  2.3506014E+003
  1.4402062E+003
  7.3689905E+002
  2.7775489E+002
  4.3494765E+001
  8.8759387E+001
  2.0044399E+002
  3.1915163E+004
  2.5323895E+004
  2.7488716E+004
  2.0716287E+004
  1.6948725E+004
  1.4377764E+004
  1.3056907E+004
  1.2274630E+004
  1.1638674E+004
  1.0990796E+004
  1.0318724E+004
  9.6443044E+003
  9.0078986E+003
  8.4629171E+003
  8.0531398E+003
  7.8363857E+003
  7.7460134E+003
  8.0516118E+003
  7.8447158E+003
  8.2765535E+003
  6.0144008E+003
  4.0145078E+003
  2.5447977E+003
  1.3231331E+003
  1.7729872E+003
  2.6121260E+003
  2.0140433E+003
  1.7568957E+003
  6.1323045E+002
  7.3337530E+002
  1.4352290E+003
  2.3044897E+003
  2.8075642E+003
  3.2504161E+003
  3.5704474E+003
  3.7616428E+003
  3.8641435E+003
  3.8789977E+003
  3.8119295E+003
  3.6783840E+003
  3.4885137E+003
  3.2494919E+003
  2.9676679E+003
  2.6509656E+003
  2.3095819E+003
  1.9542846E+003
  1.5947034E+003
  1.2385260E+003
  8.9176984E+002
  5.6286627E+002
  2.9336203E+002
  3.2371961E+002
  6.3575991E+002
  1.0379958E+003
  1.0467494E+003
  6.0536587E+002
  8.3418697E+003
  1.0772981E+004
  7.5628795E+003
  6.3020217E+003
  5.2050858E+003
  3.5450253E+003
  2.0149643E+003
  2.5718025E+003
  4.4997460E+003
  6.2003069E+003
  7.2752008E+003
  7.7066134E+003
  7.5854473E+003
  7.0496998E+003
  6.2152185E+003
  5.1756855E+003
  4.0131893E+003
  2.8354980E+003
  1.7405442E+003
  8.6160228E+002
  2.8273078E+002
  6.2814733E+001
  1.2075739E+002
  1.5863604E+002
  6.0248364E+004
  5.5546712E+004
  4.0412258E+004
  2.7593451E+004
  1.9820404E+004
  1.5529944E+004
  1.3764235E+004
  1.2707838E+004
  1.1660970E+004
  1.0595214E+004
  9.5514490E+003
  8.5499840E+003
  7.6166172E+003
  6.7881695E+003
  6.1072205E+003
  5.6032222E+003
  5.2677412E+003
  5.0793088E+003
  4.7156266E+003
  7.6248156E+003
  2.2810044E+003
  2.5086208E+003
  5.6359984E+003
  4.3587526E+003
  2.3884589E+003
  1.0563265E+003
  8.0274144E+002
  1.0022565E+003
  1.6204115E+003
  1.9817093E+003
  2.3137480E+003
  2.5415834E+003
  2.6425301E+003
  2.6536396E+003
  2.5883304E+003
  2.4634130E+003
  2.2875573E+003
  2.0650611E+003
  1.8060299E+003
  1.5248388E+003
  1.2364021E+003
  9.5376612E+002
  6.8716900E+002
  4.4531174E+002
  2.4139312E+002
  1.5831508E+002
  3.0410827E+002
  4.6917653E+002
  8.2957243E+002
  1.4679572E+003
  9.3605839E+002
  8.2164018E+003
  7.5254191E+003
  7.4725768E+003
  5.9519633E+003
  4.4834221E+003
  2.9411713E+003
  3.2924508E+003
  4.9911061E+003
  6.5001935E+003
  7.4656925E+003
  7.8851473E+003
  7.8526011E+003
  7.4571066E+003
  6.7725223E+003
  5.8373149E+003
  4.6842359E+003
  3.3532172E+003
  2.0937359E+003
  1.0523316E+003
  1.9794227E+002
  1.2093624E+002
  1.0803987E+002
  7.2275555E+001
  9.1234123E+004
  6.6736346E+004
  4.2230181E+004
  3.2423884E+004
  2.0060679E+004
  1.5450961E+004
  1.4105894E+004
  1.2925440E+004
  1.1492889E+004
  1.0113429E+004
  8.8093224E+003
  7.5734952E+003
  6.4067814E+003
  5.3274151E+003
  4.3744051E+003
  3.5942859E+003
  3.0851414E+003
  2.9120803E+003
  4.3198352E+003
  7.7762254E+003
  3.3011642E+003
  3.6411936E+003
  3.6118436E+003
  1.9090032E+003
  9.6148332E+002
  5.1569439E+002
  5.4001594E+002
  1.0309244E+003
  1.3113072E+003
  1.5319421E+003
  1.6186129E+003
  1.6210561E+003
  1.5752875E+003
  1.4723869E+003
  1.3143510E+003
  1.1158502E+003
  8.9656386E+002
  6.7610297E+002
  4.7246229E+002
  3.0775931E+002
  2.2273070E+002
  2.4921595E+002
  3.3963403E+002
  4.4094206E+002
  6.2760179E+002
  9.3219721E+002
  1.8756243E+003
  4.3664608E+003
  8.9495650E+003
  7.5653105E+003
  7.3167714E+003
  5.7574665E+003
  4.1363415E+003
  4.4331638E+003
  5.7621846E+003
  6.9192159E+003
  7.6186651E+003
  7.9260175E+003
  7.9267424E+003
  7.6676094E+003
  7.1526239E+003
  6.4198881E+003
  5.4096594E+003
  4.1246427E+003
  2.3395793E+003
  7.0455715E+002
  8.9186299E+001
  2.9563547E+002
  6.5678678E+001
  2.8497637E+001
  5.5284743E+004
  3.0005845E+004
  2.9407327E+004
  2.0448507E+004
  1.4901508E+004
  1.4895987E+004
  1.2968933E+004
  1.1271216E+004
  9.7448435E+003
  8.3639866E+003
  7.0713425E+003
  5.8509243E+003
  4.7125314E+003
  3.6961409E+003
  2.8843008E+003
  2.4624534E+003
  2.8023339E+003
  4.4575210E+003
  7.1384206E+003
  2.3240170E+003
  2.6524862E+003
  2.6840665E+003
  1.4684385E+003
  8.3112970E+002
  2.4241695E+002
  2.6330806E+002
  5.8007836E+002
  6.8852316E+002
  7.8233843E+002
  8.2808371E+002
  8.0095600E+002
  7.0710103E+002
  5.6977678E+002
  4.1913961E+002
  2.8804869E+002
  2.2573481E+002
  2.6245880E+002
  3.4638646E+002
  4.3400845E+002
  5.1604976E+002
  6.0059118E+002
  7.3645624E+002
  9.4645865E+002
  1.1582383E+003
  5.0636958E+003
  7.3911478E+003
  8.4521944E+003
  7.0651671E+003
  5.9870029E+003
  6.0034381E+003
  6.7700459E+003
  7.3326636E+003
  7.6221285E+003
  7.7023880E+003
  7.6799277E+003
  7.5802564E+003
  7.2925726E+003
  6.6587731E+003
  5.8987058E+003
  4.2800713E+003
  2.6029745E+003
  6.4564648E+002
  5.3545354E+002
  1.4866396E+004
  2.4503268E+004
  3.2210914E+004
  1.6756165E+004
  1.5581176E+004
  1.2597199E+004
  1.1007875E+004
  9.5691693E+003
  8.3463757E+003
  7.2127739E+003
  6.1755954E+003
  5.2509316E+003
  4.4765230E+003
  3.8901376E+003
  3.5007475E+003
  3.4497059E+003
  4.1758610E+003
  6.2521015E+003
  1.6834010E+003
  1.9895998E+003
  2.1659898E+003
  1.2570706E+003
  8.0720709E+002
  2.7317220E+002
  1.9367722E+002
  1.9083202E+002
  2.6245913E+002
  2.7447408E+002
  2.3303789E+002
  1.8267797E+002
  1.8213213E+002
  2.4686911E+002
  3.3567515E+002
  4.2438116E+002
  5.0295720E+002
  5.6690908E+002
  6.2095133E+002
  6.6739808E+002
  7.3182130E+002
  7.6801371E+002
  9.5582266E+002
  2.9553292E+003
  4.8332264E+003
  1.0163563E+004
  1.0773182E+004
  8.7017251E+003
  8.1090736E+003
  7.8530906E+003
  7.7171967E+003
  7.4359106E+003
  7.1694905E+003
  7.0089226E+003
  7.0397879E+003
  7.2457793E+003
  7.0630264E+003
  6.4817364E+003
  7.1381513E+003
  4.3529324E+003
  1.9409807E+004
  1.4375168E+004
  1.4516138E+004
  1.1436928E+004
  1.0572822E+004
  9.4902118E+003
  8.6228365E+003
  7.7965424E+003
  7.0627085E+003
  6.4260835E+003
  5.8897230E+003
  5.4126953E+003
  4.8626120E+003
  4.2181673E+003
  3.7365353E+003
  5.1040418E+003
  1.2937160E+003
  1.8261022E+003
  1.9789860E+003
  1.0475579E+003
  9.5911273E+002
  5.6428241E+002
  3.2707231E+002
  2.1685727E+002
  1.7781233E+002
  2.5293155E+002
  3.4236815E+002
  4.1768725E+002
  4.8627986E+002
  5.4771486E+002
  5.9703806E+002
  6.3015964E+002
  6.4877985E+002
  6.5703782E+002
  6.6968637E+002
  6.3389416E+002
  6.8811796E+002
  1.4685540E+004
  1.4546297E+004
  1.5091387E+004
  1.3593726E+004
  1.0318927E+004
  9.3214581E+003
  8.2274635E+003
  7.3375998E+003
  6.5867114E+003
  6.0922918E+003
  5.9727713E+003
  6.5559152E+003
  7.9732370E+003
  8.0662787E+003
  6.9460705E+003
  1.0433407E+003
  8.9536443E+003
  1.0445148E+004
  1.0075691E+004
  9.7488446E+003
  9.3688447E+003
  8.9113384E+003
  8.4633624E+003
  8.0407293E+003
  7.6584097E+003
  7.2887376E+003
  6.8639628E+003
  6.1923545E+003
  5.1465308E+003
  3.3630499E+003
  3.6422488E+003
  1.6666818E+003
  1.3541458E+003
  1.2379408E+003
  9.9101509E+002
  7.6757091E+002
  5.5153654E+002
  4.4418623E+002
  4.9757533E+002
  5.2329125E+002
  5.4525786E+002
  5.7511484E+002
  6.0640812E+002
  6.2992347E+002
  6.3574791E+002
  6.2137986E+002
  5.8976155E+002
  5.8784229E+002
  5.2235428E+002
  4.7730327E+002
  3.1360376E+004
  2.2596772E+004
  1.8197569E+004
  1.3639607E+004
  1.1170928E+004
  9.3252597E+003
  7.8699261E+003
  6.6911318E+003
  5.7474107E+003
  5.2631196E+003
  5.1679878E+003
  7.5827135E+003
  1.2551839E+004
  7.9242742E+003
  4.1824150E+003
  6.9249104E+003
  7.4114823E+003
  8.2794029E+003
  8.8750509E+003
  9.0072100E+003
  9.0259350E+003
  8.9433698E+003
  8.8212810E+003
  8.6625828E+003
  8.4386019E+003
  8.0727545E+003
  7.3968230E+003
  6.2816476E+003
  3.6364801E+003
  2.0645698E+003
  7.5743192E+002
  1.2681389E+003
  1.6563203E+003
  1.1299574E+003
  9.0704798E+002
  6.9887584E+002
  7.0927890E+002
  6.4134935E+002
  6.0497812E+002
  6.0079291E+002
  6.0981096E+002
  6.1425489E+002
  6.0292128E+002
  5.6574098E+002
  4.9938816E+002
  4.4819195E+002
  3.9384734E+002
  2.2921616E+002
  3.2538371E+004
  2.6599887E+004
  2.3017461E+004
  1.6338119E+004
  1.3386120E+004
  1.0938499E+004
  9.2211643E+003
  7.8626576E+003
  6.8313600E+003
  6.1608397E+003
  6.0042368E+003
  7.7547896E+003
  1.8542017E+004
  5.7890692E+003
  5.3128426E+003
  7.0808391E+003
  7.7556352E+003
  8.4659238E+003
  8.8585284E+003
  9.1329574E+003
  9.2869588E+003
  9.3415322E+003
  9.2549579E+003
  8.9910654E+003
  8.3018105E+003
  7.4313403E+003
  4.8006162E+003
  3.1697978E+003
  9.3928703E+002
  1.3569526E+003
  1.5171375E+003
  8.8818144E+002
  8.6795740E+002
  6.5993807E+002
  6.0739395E+002
  5.8857179E+002
  5.6695046E+002
  5.6349049E+002
  5.4493978E+002
  4.9943213E+002
  4.2877290E+002
  3.4989922E+002
  4.0549052E+002
  2.3499839E+002
  2.3405749E+004
  2.3021979E+004
  2.3841982E+004
  1.7803721E+004
  1.4979065E+004
  1.2493046E+004
  1.0757210E+004
  9.4282747E+003
  8.5141038E+003
  7.8850424E+003
  7.9992650E+003
  8.1780372E+003
  8.6826430E+003
  1.7057995E+003
  3.7869013E+003
  5.5176587E+003
  6.6926982E+003
  7.6884044E+003
  8.4483578E+003
  9.0206742E+003
  9.4329219E+003
  9.6854647E+003
  9.7527045E+003
  9.5625928E+003
  9.0267251E+003
  7.9201924E+003
  6.0147261E+003
  5.2458743E+003
  1.1527372E+003
  8.6096823E+002
  7.8382242E+002
  6.4903829E+002
  6.2162828E+002
  5.4436328E+002
  4.8657587E+002
  4.9346150E+002
  4.6820671E+002
  4.0659960E+002
  3.6563714E+002
  2.6891215E+002
  3.0426974E+002
  6.2479340E+003
  1.7287502E+004
  1.9917222E+004
  1.7704673E+004
  1.5321455E+004
  1.3343024E+004
  1.1756565E+004
  1.0541489E+004
  9.6415875E+003
  9.0273115E+003
  8.6122492E+003
  7.9400765E+003
  5.2353720E+003
  2.5007356E+003
  5.4486890E+003
  9.0070070E+002
  2.1757600E+003
  4.0641170E+003
  5.5486499E+003
  6.8149250E+003
  7.8384305E+003
  8.6671487E+003
  9.3041842E+003
  9.7447129E+003
  9.9600774E+003
  9.8990929E+003
  9.4801737E+003
  8.5798720E+003
  7.5122096E+003
  5.9957367E+003
  2.4279898E+003
  2.8074015E+003
  4.6732112E+002
  6.5523911E+002
  7.7285195E+002
  5.6597458E+002
  5.0291532E+002
  4.0897964E+002
  4.2955382E+002
  3.5628693E+002
  2.9873721E+002
  2.4315206E+002
  1.4824743E+002
  3.8067195E+001
  1.0943884E+004
  1.2637700E+004
  9.2053401E+003
  1.3343263E+004
  1.5922117E+004
  1.5878287E+004
  1.4629544E+004
  1.3223047E+004
  1.1938415E+004
  1.0832921E+004
  9.8940289E+003
  9.0459574E+003
  8.0753056E+003
  6.5635997E+003
  4.3958514E+003
  2.2721485E+003
  1.0341411E+002
  1.1503630E+003
  2.9205515E+003
  4.5021117E+003
  5.9054925E+003
  7.1186459E+003
  8.1474558E+003
  8.9740190E+003
  9.5813437E+003
  9.9492173E+003
  1.0023610E+004
  9.8362060E+003
  9.2068893E+003
  9.2405742E+003
  8.1632974E+003
  1.0051768E+004
  4.2712292E+002
  3.0261481E+002
  6.2543348E+002
  4.3081297E+002
  2.7937682E+002
  2.2747685E+002
  1.7248847E+002
  1.1693980E+002
  6.7949936E+001
  3.3537643E+001
  8.4798796E+003
  1.4279748E+004
  9.9456091E+003
  1.1017641E+004
  8.3693670E+003
  8.2173012E+003
  1.1358738E+004
  1.3014421E+004
  1.3630898E+004
  1.3217330E+004
  1.2370509E+004
  1.1392790E+004
  1.0409667E+004
  9.4316339E+003
  8.3942681E+003
  7.1660067E+003
  5.6605913E+003
  3.9488136E+003
  1.9876667E+003
  7.8317826E+002
  8.3365448E+002
  1.9686292E+002
  7.0524693E+002
  2.0398651E+003
  3.6150537E+003
  5.0230862E+003
  6.3730393E+003
  7.5439957E+003
  8.5162019E+003
  9.2644218E+003
  9.7661550E+003
  1.0004725E+004
  9.9537373E+003
  9.7340342E+003
  9.1579201E+003
  8.8325329E+003
  1.1968050E+004
  2.5694778E+002
  1.1053858E+002
  1.4267930E+002
  1.0609788E+002
  4.0497286E+001
  2.8827758E+001
  3.1003778E+003
  5.4727803E+003
  4.4049165E+003
  1.9362427E+003
  4.9035673E+003
  3.6210258E+003
  5.0769514E+003
  4.5784166E+003
  5.5861439E+003
  5.4080606E+003
  6.1165694E+003
  6.1119877E+003
  6.7080006E+003
  6.8363151E+003
  7.4140718E+003
  7.5906662E+003
  8.1486202E+003
  8.7827637E+003
  9.4420676E+003
  9.6352008E+003
  9.3461241E+003
  1.5778597E+004
  8.2537250E+003
  7.9992469E+003
  7.0030483E+003
  7.5407669E+003
  9.4333862E+003
  1.0920792E+004
  1.1582091E+004
  1.1584651E+004
  1.1123849E+004
  1.0408972E+004
  9.5552864E+003
  8.5986895E+003
  7.5222003E+003
  6.2958605E+003
  4.9161017E+003
  3.4140580E+003
  1.9357360E+003
  9.7027131E+002
  1.0002490E+003
  8.6577488E+002
  1.3874047E+003
  1.4526645E+003
  2.8454695E+003
  4.2780194E+003
  5.6848543E+003
  6.9319262E+003
  7.9965291E+003
  8.8475702E+003
  9.4654758E+003
  9.8422432E+003
  9.9629408E+003
  9.9053372E+003
  9.4540439E+003
  1.0113160E+004
  1.0086635E+004
  9.7888358E+003
  6.7380279E+003
  3.0485610E+003
  5.9916005E+003
  4.9831389E+003
  2.1557109E+003
  5.3328075E+003
  6.0771453E+003
  4.9045555E+003
  5.5539803E+003
  5.8210762E+003
  5.8235481E+003
  5.9725962E+003
  6.2477640E+003
  6.6175320E+003
  7.0306937E+003
  7.4918148E+003
  7.6290943E+003
  7.0675363E+003
  5.6790549E+003
  5.5964495E+003
  6.1275810E+003
  6.8524216E+003
  8.0853708E+003
  9.2051765E+003
  9.8602071E+003
  1.0018381E+004
  9.7825025E+003
  9.2610941E+003
  8.5394063E+003
  7.6631458E+003
  6.6513357E+003
  5.5189631E+003
  4.2952954E+003
  3.0651185E+003
  1.9601734E+003
  1.3580903E+003
  1.1016608E+003
  1.1244207E+003
  5.4762464E+002
  1.5936915E+003
  1.5868859E+003
  2.4881288E+003
  3.8114263E+003
  5.1204365E+003
  6.3678497E+003
  7.4636065E+003
  8.3717330E+003
  9.0757033E+003
  9.5721302E+003
  9.8865738E+003
  1.0050253E+004
  1.0383040E+004
  1.1091739E+004
  1.1947957E+004
  1.3096704E+004
  4.5697581E+003
  7.8147595E+003
  5.8105756E+003
  4.8745539E+003
  5.8844228E+003
  5.8308569E+003
  5.7996638E+003
  5.2764491E+003
  5.5652847E+003
  5.9094685E+003
  6.0380911E+003
  6.1062220E+003
  6.2163902E+003
  6.3638076E+003
  6.5090975E+003
  6.5292521E+003
  6.2557322E+003
  5.6056643E+003
  5.0378436E+003
  4.7560318E+003
  5.1761255E+003
  6.0379713E+003
  6.9973700E+003
  7.8550938E+003
  8.4210027E+003
  8.6333286E+003
  8.5177811E+003
  8.1333721E+003
  7.5364418E+003
  6.7711297E+003
  5.8719118E+003
  4.8746095E+003
  3.8328312E+003
  2.8281341E+003
  1.9927867E+003
  1.4470166E+003
  1.2401695E+003
  1.5841486E+003
  1.0937136E+003
  1.9375083E+003
  2.6881595E+003
  3.5448780E+003
  4.7171552E+003
  5.8856514E+003
  6.9454240E+003
  7.8601177E+003
  8.6084345E+003
  9.1994725E+003
  9.6748368E+003
  1.0153969E+004
  1.0840209E+004
  1.1791553E+004
  1.3359671E+004
  1.3009365E+004
  4.7814607E+003
  7.2424006E+003
  4.5163406E+003
  7.6468633E+003
  6.4400015E+003
  2.7983993E+003
  6.7375199E+003
  8.1893184E+003
  5.8527756E+003
  6.1096584E+003
  5.9119259E+003
  5.7671236E+003
  5.7476441E+003
  5.6992235E+003
  5.7124177E+003
  5.8647815E+003
  5.9701720E+003
  6.0074047E+003
  6.0174110E+003
  6.0105641E+003
  5.9488320E+003
  5.7634159E+003
  5.3917573E+003
  4.8761365E+003
  4.3562404E+003
  4.2510954E+003
  4.6140419E+003
  5.2977836E+003
  6.0792600E+003
  6.7628690E+003
  7.2380965E+003
  7.4517648E+003
  7.4023289E+003
  7.1168927E+003
  6.6325361E+003
  5.9867445E+003
  5.2173715E+003
  4.3679426E+003
  3.4954335E+003
  2.6726136E+003
  1.9910483E+003
  1.4874645E+003
  1.3121266E+003
  1.2479877E+003
  1.1962436E+003
  8.7655257E+002
  1.6542041E+003
  2.9860905E+003
  2.8377276E+003
  3.5550048E+003
  4.5119548E+003
  5.4883070E+003
  6.4569580E+003
  7.3252623E+003
  8.0651674E+003
  8.6910425E+003
  9.2737344E+003
  9.8849348E+003
  1.0857474E+004
  1.1863242E+004
  1.5335048E+004
  1.6241190E+004
  2.2880149E+004
  5.0479727E+003
  8.4544665E+003
  6.8159365E+003
  2.9797012E+003
  7.0081701E+003
  8.4371527E+003
  6.2708011E+003
  6.7936414E+003
  6.6028009E+003
  5.6083318E+003
  5.5507616E+003
  5.7482353E+003
  5.7275314E+003
  5.6953945E+003
  5.6643715E+003
  5.6871346E+003
  5.7277405E+003
  5.7566540E+003
  5.7415808E+003
  5.6815971E+003
  5.5748496E+003
  5.4014520E+003
  5.1311939E+003
  4.7545548E+003
  4.3173528E+003
  3.9803473E+003
  3.9002923E+003
  4.1799330E+003
  4.7126993E+003
  5.3230299E+003
  5.8713866E+003
  6.2663923E+003
  6.4635294E+003
  6.4514070E+003
  6.2411696E+003
  5.8563534E+003
  5.3269347E+003
  4.6879105E+003
  3.9813213E+003
  3.2584114E+003
  2.5810921E+003
  2.0089819E+003
  1.6199987E+003
  1.4074489E+003
  1.3242849E+003
  1.4506968E+003
  2.9378482E+003
  3.4173103E+003
  3.9222262E+003
  4.3989195E+003
  5.2036472E+003
  6.0291025E+003
  6.7777563E+003
  7.4444535E+003
  8.0333065E+003
  8.5940580E+003
  9.2366566E+003
  1.0026305E+004
  1.1372104E+004
  1.2580104E+004
  1.5442157E+004
  2.5422683E+004
  3.6276039E+003
  6.3883084E+003
  5.0038109E+003
  2.2075807E+003
  5.6160525E+003
  4.1092541E+003
  5.8238532E+003
  5.4484507E+003
  6.7124921E+003
  6.3542852E+003
  6.6409605E+003
  1.0199828E+004
  6.4250462E+003
  7.0185967E+003
  6.8512854E+003
  5.9590663E+003
  5.9468297E+003
  5.9076810E+003
  5.6805068E+003
  5.4644459E+003
  5.4700814E+003
  5.5232421E+003
  5.5286772E+003
  5.5237876E+003
  5.5124640E+003
  5.4993789E+003
  5.4638392E+003
  5.3927827E+003
  5.2784452E+003
  5.1152714E+003
  4.8940131E+003
  4.6069312E+003
  4.2638416E+003
  3.9169538E+003
  3.6616902E+003
  3.6216010E+003
  3.8347940E+003
  4.2364618E+003
  4.7079018E+003
  5.1420318E+003
  5.4669124E+003
  5.6423587E+003
  5.6534138E+003
  5.5028260E+003
  5.2052953E+003
  4.7836634E+003
  4.2674331E+003
  3.6929372E+003
  3.1038173E+003
  2.5495822E+003
  2.0822955E+003
  1.7416707E+003
  1.5089901E+003
  1.4112466E+003
  1.1558917E+003
  5.9812716E+002
  7.6696882E+002
  2.9750775E+003
  5.3560818E+003
  4.4542317E+003
  4.6644245E+003
  5.1679041E+003
  5.6768261E+003
  6.2467657E+003
  6.7636379E+003
  7.2244193E+003
  7.6695524E+003
  8.1545381E+003
  8.7610049E+003
  9.4704342E+003
  1.0268587E+004
  1.1458561E+004
  1.7165796E+004
  2.2816289E+004
  2.4907897E+004
  3.6078076E+003
  6.4044650E+003
  5.1136834E+003
  2.3374318E+003
  5.9055203E+003
  4.1867556E+003
  5.5567540E+003
  7.4671893E+003
  5.4416793E+003
  6.1275528E+003
  6.4070231E+003
  6.3893607E+003
  6.3007600E+003
  5.9427029E+003
  5.4535096E+003
  5.8045923E+003
  5.9684419E+003
  5.8390300E+003
  5.6160672E+003
  5.5147871E+003
  5.3757215E+003
  5.2918172E+003
  5.2707422E+003
  5.2860328E+003
  5.2970680E+003
  5.2844423E+003
  5.2536813E+003
  5.1999189E+003
  5.1183252E+003
  5.0027950E+003
  4.8504541E+003
  4.6591887E+003
  4.4268200E+003
  4.1552380E+003
  3.8607892E+003
  3.5854746E+003
  3.4007016E+003
  3.3757268E+003
  3.5366455E+003
  3.8383656E+003
  4.1989123E+003
  4.5401201E+003
  4.8048861E+003
  4.9587147E+003
  4.9856478E+003
  4.8839383E+003
  4.6623621E+003
  4.3377210E+003
  3.9334612E+003
  3.4790810E+003
  3.0093545E+003
  2.5628187E+003
  2.1750458E+003
  1.8693384E+003
  1.6473133E+003
  1.5075376E+003
  1.3014186E+003
  1.0387788E+003
  4.7982164E+003
  5.2433243E+003
  5.3444129E+003
  5.2179807E+003
  5.4955970E+003
  5.7905833E+003
  6.0524108E+003
  6.3024137E+003
  6.5478009E+003
  6.8215408E+003
  7.1561159E+003
  7.5679520E+003
  8.3245912E+003
  1.0533565E+004
  1.4925197E+004
  1.7184997E+004
  2.7180140E+004
  2.6275177E+004
  5.0943146E+003
  8.6571362E+003
  6.5823426E+003
  2.6874454E+003
  6.5345221E+003
  7.2398636E+003
  5.7508430E+003
  6.3148485E+003
  6.3036513E+003
  5.7670429E+003
  5.3531736E+003
  5.7708024E+003
  6.1350006E+003
  6.1426349E+003
  5.9063573E+003
  5.5619632E+003
  5.3871473E+003
  5.3222464E+003
  5.3902387E+003
  5.3455175E+003
  5.2693086E+003
  5.1779143E+003
  5.1097540E+003
  5.0555667E+003
  5.0352979E+003
  5.0340931E+003
  5.0284014E+003
  5.0027509E+003
  4.9486784E+003
  4.8640772E+003
  4.7471245E+003
  4.5988767E+003
  4.4224174E+003
  4.2211138E+003
  3.9977920E+003
  3.7570806E+003
  3.5136113E+003
  3.2992804E+003
  3.1617147E+003
  3.1467695E+003
  3.2672187E+003
  3.4927775E+003
  3.7673817E+003
  4.0343149E+003
  4.2495266E+003
  4.3841757E+003
  4.4230328E+003
  4.3619815E+003
  4.2058061E+003
  3.9664813E+003
  3.6619423E+003
  3.3150227E+003
  2.9518814E+003
  2.5991321E+003
  2.2776253E+003
  1.9970188E+003
  1.7431948E+003
  1.4722228E+003
  1.2159112E+003
  1.4826052E+003
  4.3566022E+003
  7.8969537E+003
  6.2485439E+003
  5.8172294E+003
  5.6415610E+003
  5.4333380E+003
  5.3603657E+003
  5.3152573E+003
  5.3111298E+003
  5.3666101E+003
  5.5093873E+003
  5.8253404E+003
  6.6375082E+003
  8.0373124E+003
  1.0026248E+004
  1.0587531E+004
  1.4333868E+004
  1.5782100E+004
  2.7705446E+004
  1.4872813E+004
  1.3135141E+004
  1.1785115E+004
  1.2039823E+004
  1.0535778E+004
  1.0167649E+004
  9.5477421E+003
  9.4140900E+003
  8.9596748E+003
  9.1098065E+003
  8.8015518E+003
  8.7844807E+003
  7.8108452E+003
  1.1604045E+004
  7.1226243E+003
  7.3365759E+003
  6.7112789E+003
  5.8994814E+003
  5.9398970E+003
  5.9587691E+003
  5.7301523E+003
  5.6014532E+003
  5.6286681E+003
  5.7632789E+003
  5.7529862E+003
  5.5717979E+003
  5.3166650E+003
  5.0857840E+003
  5.0060693E+003
  4.9787425E+003
  4.9638197E+003
  4.9180815E+003
  4.8684152E+003
  4.8219623E+003
  4.7921708E+003
  4.7753080E+003
  4.7637175E+003
  4.7433097E+003
  4.7003922E+003
  4.6261807E+003
  4.5163062E+003
  4.3718101E+003
  4.1987958E+003
  4.0069954E+003
  3.8063534E+003
  3.6021283E+003
  3.3987061E+003
  3.2041136E+003
  3.0395975E+003
  2.9371740E+003
  2.9261211E+003
  3.0145219E+003
  3.1819491E+003
  3.3902434E+003
  3.5989374E+003
  3.7745681E+003
  3.8935856E+003
  3.9421488E+003
  3.9150138E+003
  3.8142795E+003
  3.6482220E+003
  3.4302240E+003
  3.1774907E+003
  2.9091284E+003
  2.6416416E+003
  2.3852454E+003
  2.1311080E+003
  1.8704730E+003
  1.5588133E+003
  1.3040972E+003
  1.0634572E+003
  6.7492930E+003
  7.1261357E+003
  6.7865472E+003
  5.8362287E+003
  5.2677123E+003
  4.7338875E+003
  4.3041881E+003
  4.0326182E+003
  3.9004991E+003
  3.9370695E+003
  4.2379756E+003
  4.8899758E+003
  5.8654024E+003
  6.8019286E+003
  7.9798749E+003
  9.7243300E+003
  1.2575555E+004
  1.2196739E+004
  1.1083909E+004
  9.8006546E+003
  8.8973598E+003
  8.1614179E+003
  7.3908928E+003
  6.5486388E+003
  6.0827224E+003
  6.2251218E+003
  6.1558927E+003
  5.8932859E+003
  5.6980284E+003
  5.6222424E+003
  5.5169794E+003
  5.4124193E+003
  5.4035844E+003
  5.4065709E+003
  5.3549534E+003
  5.2138596E+003
  5.0202650E+003
  4.8489755E+003
  4.7263617E+003
  4.6649690E+003
  4.6253925E+003
  4.5937203E+003
  4.5612689E+003
  4.5340766E+003
  4.5132853E+003
  4.4980282E+003
  4.4804816E+003
  4.4496525E+003
  4.3940676E+003
  4.3042896E+003
  4.1753717E+003
  4.0089784E+003
  3.8152836E+003
  3.6120288E+003
  3.4155433E+003
  3.2368325E+003
  3.0724002E+003
  2.9236618E+003
  2.7994557E+003
  2.7211757E+003
  2.7094061E+003
  2.7706243E+003
  2.8924146E+003
  3.0495160E+003
  3.2133560E+003
  3.3586061E+003
  3.4660000E+003
  3.5231132E+003
  3.5241964E+003
  3.4695582E+003
  3.3647119E+003
  3.2194178E+003
  3.0465657E+003
  2.8603609E+003
  2.6729771E+003
  2.4858819E+003
  2.2858943E+003
  2.0406025E+003
  1.7515561E+003
  1.4394329E+003
  7.1157932E+002
  1.1366569E+002
  4.5194764E+002
  5.7464439E+003
  1.0544315E+004
  8.0240413E+003
  6.6046254E+003
  5.3376193E+003
  4.1180021E+003
  3.3356020E+003
  2.8031704E+003
  2.5098750E+003
  2.5108928E+003
  2.8621319E+003
  3.5278861E+003
  4.3838612E+003
  5.4189768E+003
  6.7349156E+003
  8.3575675E+003
  9.0688414E+003
  9.5853483E+003
  9.1966677E+003
  8.4968955E+003
  7.7372228E+003
  7.0277449E+003
  6.3594132E+003
  5.8599956E+003
  5.5820387E+003
  5.4920609E+003
  5.4600020E+003
  5.3705368E+003
  5.2864633E+003
  5.2153641E+003
  5.1574313E+003
  5.1119102E+003
  5.0758311E+003
  5.0426529E+003
  4.9746521E+003
  4.8594373E+003
  4.7130809E+003
  4.5670532E+003
  4.4537414E+003
  4.3750805E+003
  4.3246865E+003
  4.2886667E+003
  4.2617024E+003
  4.2407628E+003
  4.2248439E+003
  4.2099139E+003
  4.1891761E+003
  4.1531709E+003
  4.0914282E+003
  3.9941705E+003
  3.8543953E+003
  3.6720622E+003
  3.4596755E+003
  3.2425134E+003
  3.0536866E+003
  2.8986505E+003
  2.7773782E+003
  2.6689741E+003
  2.5762033E+003
  2.5115475E+003
  2.4926306E+003
  2.5281795E+003
  2.6128468E+003
  2.7306453E+003
  2.8612668E+003
  2.9848489E+003
  3.0850232E+003
  3.1503790E+003
  3.1749487E+003
  3.1579181E+003
  3.1028116E+003
  3.0164734E+003
  2.9081305E+003
  2.7885212E+003
  2.6687390E+003
  2.5565374E+003
  2.4311105E+003
  2.2400916E+003
  1.8735678E+003
  1.3578439E+003
  9.0519007E+002
  2.8145396E+002
  8.8117029E+003
  9.2024451E+003
  7.6657488E+003
  5.0259500E+003
  3.6196035E+003
  2.6357826E+003
  1.8516741E+003
  1.3374342E+003
  1.3458403E+003
  1.9063381E+003
  2.7356093E+003
  3.6998198E+003
  4.7655477E+003
  5.8822115E+003
  6.8491698E+003
  7.6355569E+003
  7.7744214E+003
  7.5894204E+003
  7.1220880E+003
  6.5528697E+003
  5.9818347E+003
  5.4873516E+003
  5.1045755E+003
  4.8941141E+003
  4.8128480E+003
  4.7838053E+003
  4.7674266E+003
  4.7471573E+003
  4.7320679E+003
  4.7180390E+003
  4.7032763E+003
  4.6858516E+003
  4.6528533E+003
  4.5935052E+003
  4.5025570E+003
  4.3893123E+003
  4.2730102E+003
  4.1700061E+003
  4.0903461E+003
  4.0325423E+003
  3.9921112E+003
  3.9635874E+003
  3.9434425E+003
  3.9280448E+003
  3.9128441E+003
  3.8912370E+003
  3.8548858E+003
  3.7943312E+003
  3.6996978E+003
  3.5614751E+003
  3.3733593E+003
  3.1439121E+003
  2.9103097E+003
  2.7131517E+003
  2.6001601E+003
  2.5154642E+003
  2.4459258E+003
  2.3704927E+003
  2.3046734E+003
  2.2693834E+003
  2.2782795E+003
  2.3321971E+003
  2.4214936E+003
  2.5300701E+003
  2.6408799E+003
  2.7388560E+003
  2.8129988E+003
  2.8573289E+003
  2.8705946E+003
  2.8551681E+003
  2.8156593E+003
  2.7576117E+003
  2.6872366E+003
  2.6120681E+003
  2.5474998E+003
  2.5180115E+003
  2.4381405E+003
  2.1741601E+003
  1.3538831E+003
  6.8141834E+002
  8.4556623E+003
  1.3568824E+004
  7.6617534E+003
  4.8298872E+003
  3.8134950E+003
  2.6276842E+003
  1.6916762E+003
  8.8642280E+002
  8.2275207E+002
  1.5649000E+003
  2.4722749E+003
  3.4154328E+003
  4.3500507E+003
  5.2137410E+003
  5.9208314E+003
  6.3207869E+003
  6.4629420E+003
  6.2952195E+003
  5.9458282E+003
  5.5029548E+003
  5.0576112E+003
  4.6691788E+003
  4.3842076E+003
  4.2044022E+003
  4.1225373E+003
  4.1053909E+003
  4.1218625E+003
  4.1545636E+003
  4.1906774E+003
  4.2240321E+003
  4.2484818E+003
  4.2575781E+003
  4.2455799E+003
  4.2068317E+003
  4.1413340E+003
  4.0559339E+003
  3.9625480E+003
  3.8739431E+003
  3.7981392E+003
  3.7384023E+003
  3.6937062E+003
  3.6615779E+003
  3.6388080E+003
  3.6217589E+003
  3.6056901E+003
  3.5845624E+003
  3.5511491E+003
  3.4975167E+003
  3.4152356E+003
  3.2946917E+003
  3.1229621E+003
  2.8875348E+003
  2.6225745E+003
  2.4487592E+003
  2.3390314E+003
  2.3136537E+003
  2.2537270E+003
  2.1763775E+003
  2.0918246E+003
  2.0279488E+003
  2.0079051E+003
  2.0395037E+003
  2.1120656E+003
  2.2107440E+003
  2.3186564E+003
  2.4203083E+003
  2.5045992E+003
  2.5659042E+003
  2.6034691E+003
  2.6197099E+003
  2.6182165E+003
  2.6018255E+003
  2.5702661E+003
  2.5218932E+003
  2.4540575E+003
  2.4122700E+003
  2.5269198E+003
  2.1511495E+003
  1.3601817E+003
  6.5787145E+002
  1.6089486E+004
  8.9203016E+003
  6.3158633E+003
  4.5562530E+003
  3.3299517E+003
  2.2136071E+003
  1.3899356E+003
  1.1884049E+003
  1.7208997E+003
  2.4998450E+003
  3.3084670E+003
  4.0699258E+003
  4.7238095E+003
  5.2069004E+003
  5.4830847E+003
  5.5130029E+003
  5.3492731E+003
  5.0389632E+003
  4.6593194E+003
  4.2750217E+003
  3.9389615E+003
  3.6806740E+003
  3.5158997E+003
  3.4367934E+003
  3.4290143E+003
  3.4715458E+003
  3.5429527E+003
  3.6254423E+003
  3.7043658E+003
  3.7692639E+003
  3.8126506E+003
  3.8291272E+003
  3.8165148E+003
  3.7764553E+003
  3.7150584E+003
  3.6415952E+003
  3.5657676E+003
  3.4955186E+003
  3.4354406E+003
  3.3872611E+003
  3.3505369E+003
  3.3234972E+003
  3.3031674E+003
  3.2853303E+003
  3.2645189E+003
  3.2344955E+003
  3.1891354E+003
  3.1232430E+003
  3.0320657E+003
  2.9074370E+003
  2.7211619E+003
  2.4278051E+003
  2.1684603E+003
  2.2432003E+003
  2.1986566E+003
  2.1062406E+003
  1.9893841E+003
  1.8556629E+003
  1.7419179E+003
  1.7034767E+003
  1.7252674E+003
  1.7954157E+003
  1.8982784E+003
  2.0146134E+003
  2.1268040E+003
  2.2231493E+003
  2.2992611E+003
  2.3561960E+003
  2.3979641E+003
  2.4292335E+003
  2.4530762E+003
  2.4687520E+003
  2.4609704E+003
  2.4234934E+003
  2.2629413E+003
  2.3959769E+003
  3.3733192E+003
  2.4229412E+003
  1.0080509E+004
  9.2511114E+003
  7.2691883E+003
  5.4825985E+003
  4.0118917E+003
  2.7803073E+003
  1.9319169E+003
  1.6760729E+003
  2.0171982E+003
  2.6248377E+003
  3.2771934E+003
  3.8784623E+003
  4.3721712E+003
  4.7154665E+003
  4.8781658E+003
  4.8624531E+003
  4.6840025E+003
  4.3898845E+003
  4.0317442E+003
  3.6630479E+003
  3.3274785E+003
  3.0577655E+003
  2.8720178E+003
  2.7782599E+003
  2.7701124E+003
  2.8305353E+003
  2.9352901E+003
  3.0593202E+003
  3.1817883E+003
  3.2874504E+003
  3.3664758E+003
  3.4136868E+003
  3.4278481E+003
  3.4115491E+003
  3.3706638E+003
  3.3132426E+003
  3.2479097E+003
  3.1821844E+003
  3.1216116E+003
  3.0694891E+003
  3.0271872E+003
  2.9944043E+003
  2.9692512E+003
  2.9481389E+003
  2.9258597E+003
  2.8963113E+003
  2.8542232E+003
  2.7973518E+003
  2.7288803E+003
  2.6549042E+003
  2.5917440E+003
  2.4287191E+003
  2.2968211E+003
  2.5111708E+003
  2.3487934E+003
  1.9361340E+003
  1.7823479E+003
  1.5159975E+003
  1.3916335E+003
  1.3582005E+003
  1.3846386E+003
  1.4682756E+003
  1.5923867E+003
  1.7305535E+003
  1.8602853E+003
  1.9704541E+003
  2.0592464E+003
  2.1312149E+003
  2.1932908E+003
  2.2532265E+003
  2.3178863E+003
  2.3964428E+003
  2.4863324E+003
  2.5883175E+003
  2.6514329E+003
  2.8578333E+003
  4.3438645E+003
  8.7107479E+003
  8.0099463E+003
  7.5733702E+003
  5.9795562E+003
  4.3702794E+003
  3.0840052E+003
  2.2790669E+003
  2.0386169E+003
  2.2841753E+003
  2.7574722E+003
  3.2760888E+003
  3.7502961E+003
  4.1294425E+003
  4.3801699E+003
  4.4838770E+003
  4.4367751E+003
  4.2559382E+003
  3.9703006E+003
  3.6190148E+003
  3.2425578E+003
  2.8793230E+003
  2.5631363E+003
  2.3240901E+003
  2.1848634E+003
  2.1543421E+003
  2.2195599E+003
  2.3503247E+003
  2.5119055E+003
  2.6750330E+003
  2.8192921E+003
  2.9324421E+003
  3.0087084E+003
  3.0473400E+003
  3.0514464E+003
  3.0269876E+003
  2.9816205E+003
  2.9234436E+003
  2.8599220E+003
  2.7971485E+003
  2.7395900E+003
  2.6900595E+003
  2.6497103E+003
  2.6178421E+003
  2.5914352E+003
  2.5649734E+003
  2.5305654E+003
  2.4818455E+003
  2.4127593E+003
  2.3421212E+003
  2.2445024E+003
  2.3178658E+003
  2.1188679E+003
  3.1645640E+003
  3.7522326E+003
  2.7718164E+003
  1.8522562E+003
  1.1690817E+003
  1.0973266E+003
  9.8932404E+002
  9.8059373E+002
  1.0179237E+003
  1.1353794E+003
  1.2995416E+003
  1.4721542E+003
  1.6266597E+003
  1.7510767E+003
  1.8498622E+003
  1.9329729E+003
  2.0107967E+003
  2.0932117E+003
  2.1930567E+003
  2.3277880E+003
  2.5313526E+003
  2.8455025E+003
  3.2648664E+003
  3.3712531E+003
  2.5713982E+003
  6.6463687E+003
  7.8199650E+003
  7.6994528E+003
  5.9219488E+003
  4.2954972E+003
  3.1198852E+003
  2.4565793E+003
  2.2889242E+003
  2.4920840E+003
  2.8680391E+003
  3.2821048E+003
  3.6613089E+003
  3.9627893E+003
  4.1585692E+003
  4.2322835E+003
  4.1802365E+003
  4.0105062E+003
  3.7426309E+003
  3.4029411E+003
  3.0213134E+003
  2.6282816E+003
  2.2554177E+003
  1.9378828E+003
  1.7160917E+003
  1.6248010E+003
  1.6684492E+003
  1.8116636E+003
  2.0035604E+003
  2.2020867E+003
  2.3800877E+003
  2.5226061E+003
  2.6232752E+003
  2.6816415E+003
  2.7013060E+003
  2.6884761E+003
  2.6507299E+003
  2.5959644E+003
  2.5315936E+003
  2.4640866E+003
  2.3987564E+003
  2.3396631E+003
  2.2893646E+003
  2.2483945E+003
  2.2145393E+003
  2.1812786E+003
  2.1377762E+003
  2.0693069E+003
  1.9705074E+003
  1.8326915E+003
  1.7071829E+003
  1.5268989E+003
  1.4857181E+003
  2.3667892E+003
  1.0427830E+003
  6.1226350E+002
  7.4501352E+002
  5.3452049E+002
  5.9790374E+002
  6.3931547E+002
  8.0599773E+002
  1.0315465E+003
  1.2555140E+003
  1.4345659E+003
  1.5702823E+003
  1.6752862E+003
  1.7671928E+003
  1.8583218E+003
  1.9577589E+003
  2.0766326E+003
  2.2400051E+003
  2.4808791E+003
  2.8786409E+003
  3.5688864E+003
  3.1481955E+003
  1.5408017E+003
  3.6569685E+003
  7.1011828E+003
  7.2869251E+003
  5.2510007E+003
  3.9223281E+003
  3.0290226E+003
  2.5596792E+003
  2.4766460E+003
  2.6502420E+003
  2.9484784E+003
  3.2802123E+003
  3.5899186E+003
  3.8413244E+003
  4.0092411E+003
  4.0774912E+003
  4.0390688E+003
  3.8965072E+003
  3.6605216E+003
  3.3481545E+003
  2.9801094E+003
  2.5791230E+003
  2.1701627E+003
  1.7837930E+003
  1.4626801E+003
  1.2647943E+003
  1.2366511E+003
  1.3597454E+003
  1.5634871E+003
  1.7847407E+003
  1.9861026E+003
  2.1489423E+003
  2.2659939E+003
  2.3369607E+003
  2.3658529E+003
  2.3591391E+003
  2.3243697E+003
  2.2692023E+003
  2.2008462E+003
  2.1258425E+003
  2.0500674E+003
  1.9786527E+003
  1.9156068E+003
  1.8628434E+003
  1.8188196E+003
  1.7778732E+003
  1.7234120E+003
  1.6332099E+003
  1.4737685E+003
  1.2756658E+003
  9.8211486E+002
  7.4694503E+002
  9.3875253E+002
  3.4577333E+002
  1.9956857E+002
  2.2763866E+002
  2.9192829E+002
  5.2630840E+002
  8.1416493E+002
  1.0801656E+003
  1.2916607E+003
  1.4304341E+003
  1.5363580E+003
  1.6386579E+003
  1.7474410E+003
  1.8636587E+003
  1.9953402E+003
  2.1490202E+003
  2.3872377E+003
  2.6594077E+003
  3.3136638E+003
  4.3741993E+003
  2.6054512E+003
  5.6115716E+003
  9.2635638E+003
  6.3025638E+003
  4.4393561E+003
  3.6886569E+003
  2.9638942E+003
  2.6824818E+003
  2.6351562E+003
  2.7680127E+003
  2.9945276E+003
  3.2583637E+003
  3.5170479E+003
  3.7384682E+003
  3.8979875E+003
  3.9779823E+003
  3.9682411E+003
  3.8660682E+003
  3.6757923E+003
  3.4073910E+003
  3.0749154E+003
  2.6951980E+003
  2.2876840E+003
  1.8761586E+003
  1.4936511E+003
  1.1912928E+003
  1.0392195E+003
  1.0745791E+003
  1.2416447E+003
  1.4542359E+003
  1.6572035E+003
  1.8241748E+003
  1.9450118E+003
  2.0185704E+003
  2.0487508E+003
  2.0420031E+003
  2.0056158E+003
  1.9467054E+003
  1.8718266E+003
  1.7871290E+003
  1.6985973E+003
  1.6122328E+003
  1.5335990E+003
  1.4664721E+003
  1.4100887E+003
  1.3569343E+003
  1.2997857E+003
  1.1873536E+003
  9.9065567E+002
  6.3736727E+002
  3.1295489E+002
  3.9517815E+002
  6.8468678E+001
  5.8251622E+001
  5.9226106E+001
  2.3245815E+002
  6.5533203E+002
  1.0189615E+003
  1.2090240E+003
  1.3225360E+003
  1.4251973E+003
  1.5509259E+003
  1.6887396E+003
  1.8327463E+003
  1.9840728E+003
  2.1481887E+003
  2.3528979E+003
  2.6617098E+003
  3.6200934E+003
  5.8227311E+003
  1.1582943E+004
  6.5639974E+003
  4.6745253E+003
  3.5480109E+003
  3.0766660E+003
  2.8211098E+003
  2.7739365E+003
  2.8435027E+003
  3.0004715E+003
  3.2060557E+003
  3.4271474E+003
  3.6330703E+003
  3.7980790E+003
  3.9021609E+003
  3.9317364E+003
  3.8798334E+003
  3.7457138E+003
  3.5340668E+003
  3.2539697E+003
  2.9180351E+003
  2.5421335E+003
  2.1461191E+003
  1.7560991E+003
  1.4089748E+003
  1.1572583E+003
  1.0559902E+003
  1.1092643E+003
  1.2529830E+003
  1.4175339E+003
  1.5617823E+003
  1.6676110E+003
  1.7302007E+003
  1.7519263E+003
  1.7384638E+003
  1.6963104E+003
  1.6314139E+003
  1.5489910E+003
  1.4539353E+003
  1.3517873E+003
  1.2489518E+003
  1.1525411E+003
  1.0689975E+003
  1.0004060E+003
  9.3577843E+002
  8.5131485E+002
  7.8465069E+002
  5.3359684E+002
  2.5240634E+002
  1.3107590E+002
  1.0451423E+002
  2.1391765E+002
  6.2967584E+002
  9.1396964E+002
  1.1508285E+003
  1.2069374E+003
  1.3417039E+003
  1.5097194E+003
  1.6874050E+003
  1.8722003E+003
  2.0645126E+003
  2.2666770E+003
  2.5056279E+003
  2.7976251E+003
  3.5918050E+003
  5.2792928E+003
  7.5367666E+003
  6.7758466E+003
  4.5647413E+003
  3.6133575E+003
  3.1959397E+003
  2.9707236E+003
  2.8699521E+003
  2.8709335E+003
  2.9595659E+003
  3.1151136E+003
  3.3087583E+003
  3.5098142E+003
  3.6901697E+003
  3.8268784E+003
  3.9030811E+003
  3.9081176E+003
  3.8371750E+003
  3.6906699E+003
  3.4735627E+003
  3.1948072E+003
  2.8671433E+003
  2.5073840E+003
  2.1372916E+003
  1.7850297E+003
  1.4863653E+003
  1.2811247E+003
  1.1949941E+003
  1.2135754E+003
  1.2888401E+003
  1.3735616E+003
  1.4389403E+003
  1.4731408E+003
  1.4747758E+003
  1.4475659E+003
  1.3963665E+003
  1.3251576E+003
  1.2365961E+003
  1.1336161E+003
  1.0201255E+003
  9.0245890E+002
  7.8865800E+002
  6.8778290E+002
  6.0789346E+002
  5.5332817E+002
  4.7782967E+002
  4.1196494E+002
  7.1173713E+002
  5.3417772E+002
  1.0480219E+003
  1.4316251E+003
  1.0943396E+003
  1.1227047E+003
  1.3253307E+003
  1.5242101E+003
  1.7441185E+003
  1.9709895E+003
  2.2120932E+003
  2.4715358E+003
  2.7646781E+003
  3.0483573E+003
  3.2937079E+003
  3.5366524E+003
  8.8474536E+003
  5.2135627E+003
  4.0752850E+003
  3.6560144E+003
  3.3043820E+003
  3.0739504E+003
  2.9122037E+003
  2.8423760E+003
  2.8684092E+003
  2.9809711E+003
  3.1551622E+003
  3.3590942E+003
  3.5616531E+003
  3.7366375E+003
  3.8640758E+003
  3.9301573E+003
  3.9266940E+003
  3.8504861E+003
  3.7027608E+003
  3.4888012E+003
  3.2178351E+003
  2.9031868E+003
  2.5625839E+003
  2.2183591E+003
  1.8970211E+003
  1.6269027E+003
  1.4316511E+003
  1.3189864E+003
  1.2730987E+003
  1.2629273E+003
  1.2594776E+003
  1.2449273E+003
  1.2132824E+003
  1.1651662E+003
  1.1030516E+003
  1.0277192E+003
  9.3866523E+002
  8.3475633E+002
  7.1890020E+002
  5.9662875E+002
  4.7584090E+002
  3.6680785E+002
  2.7893133E+002
  2.4691077E+002
  3.6353575E+002
  5.8921723E+002
  7.5695611E+002
  1.8515828E+003
  1.2623568E+003
  1.2335358E+003
  1.3951822E+003
  1.6118224E+003
  1.8540056E+003
  2.1091156E+003
  2.3808467E+003
  2.6796751E+003
  3.0062222E+003
  3.3286953E+003
  3.4993396E+003
  2.3735542E+003
  8.2518848E+002
  2.0093316E+003
  5.5390797E+003
  4.2591212E+003
  3.9084322E+003
  3.6400375E+003
  3.3870638E+003
  3.1062511E+003
  2.8929702E+003
  2.7577120E+003
  2.7284522E+003
  2.8041668E+003
  2.9647035E+003
  3.1767708E+003
  3.4058353E+003
  3.6222814E+003
  3.8032550E+003
  3.9323113E+003
  3.9985119E+003
  3.9955705E+003
  3.9212420E+003
  3.7770039E+003
  3.5680381E+003
  3.3034465E+003
  2.9965260E+003
  2.6647884E+003
  2.3292340E+003
  2.0125097E+003
  1.7352711E+003
  1.5110356E+003
  1.3420156E+003
  1.2180219E+003
  1.1213601E+003
  1.0379350E+003
  9.5915986E+002
  8.8323075E+002
  8.0968598E+002
  7.3608077E+002
  6.5593988E+002
  5.6783532E+002
  4.7332817E+002
  3.8184677E+002
  3.0929731E+002
  2.6291986E+002
  2.6001988E+002
  2.6448514E+002
  4.0284876E+002
  9.1698651E+002
  6.1887606E+002
  1.2046293E+003
  1.3518071E+003
  1.3906059E+003
  1.5462344E+003
  1.7643124E+003
  2.0074296E+003
  2.2660022E+003
  2.5358840E+003
  2.8176648E+003
  3.1169828E+003
  3.4083063E+003
  3.3517435E+003
  2.4401648E+003
  1.1361871E+003
  1.2140695E+003
  3.3845095E+002
  1.4070216E+003
  2.0054138E+003
  3.2790944E+003
  4.1621165E+003
  3.9105536E+003
  3.6579138E+003
  3.3653317E+003
  3.0737326E+003
  2.8113225E+003
  2.6254168E+003
  2.5472532E+003
  2.5906369E+003
  2.7407652E+003
  2.9637145E+003
  3.2211404E+003
  3.4798698E+003
  3.7144268E+003
  3.9062862E+003
  4.0424057E+003
  4.1139762E+003
  4.1155968E+003
  4.0448856E+003
  3.9024945E+003
  3.6924788E+003
  3.4228820E+003
  3.1062294E+003
  2.7594698E+003
  2.4023307E+003
  2.0549645E+003
  1.7348778E+003
  1.4519066E+003
  1.2091618E+003
  1.0073048E+003
  8.3840244E+002
  7.0025529E+002
  5.9013398E+002
  5.0611538E+002
  4.4123663E+002
  3.9078589E+002
  3.5080051E+002
  3.3225407E+002
  3.4654480E+002
  3.7221395E+002
  4.0693104E+002
  4.2506939E+002
  4.9239022E+002
  5.1724623E+002
  9.3956830E+002
  1.1929585E+003
  1.2397491E+003
  1.5363825E+003
  1.7361507E+003
  1.9536933E+003
  2.1882253E+003
  2.4292293E+003
  2.6637714E+003
  2.8811051E+003
  3.0622643E+003
  3.1962168E+003
  3.2552771E+003
  2.2588190E+003
  8.1010130E+002
  1.9750058E+002
  9.1505579E+001
  5.6802869E+002
  1.8743832E+003
  2.9924612E+003
  3.5508820E+003
  3.6920904E+003
  3.5212477E+003
  3.2635680E+003
  2.9682594E+003
  2.6841949E+003
  2.4586265E+003
  2.3383489E+003
  2.3509782E+003
  2.4911850E+003
  2.7251241E+003
  3.0102940E+003
  3.3096924E+003
  3.5954940E+003
  3.8477043E+003
  4.0519095E+003
  4.1974548E+003
  4.2762556E+003
  4.2821936E+003
  4.2110466E+003
  4.0609178E+003
  3.8332294E+003
  3.5341495E+003
  3.1759147E+003
  2.7780276E+003
  2.3630717E+003
  1.9503377E+003
  1.5596783E+003
  1.2049068E+003
  8.8839856E+002
  6.3006882E+002
  4.2603329E+002
  2.7929985E+002
  1.8475542E+002
  1.3114120E+002
  1.4186111E+002
  2.2410306E+002
  3.4572290E+002
  4.3313145E+002
  4.9994913E+002
  5.2082381E+002
  5.1555495E+002
  5.0823192E+002
  4.4033908E+002
  3.9558816E+002
  8.0683292E+002
  1.3807765E+003
  1.6871532E+003
  1.9288126E+003
  2.1531784E+003
  2.3782958E+003
  2.5953038E+003
  2.7858823E+003
  2.9151486E+003
  2.9774659E+003
  2.8672433E+003
  2.8991032E+003
  3.1546028E+003
  1.7609599E+003
  2.2999476E+002
  8.3955822E+002
  1.6496500E+003
  2.4547028E+003
  3.0552601E+003
  3.2958019E+003
  3.2750706E+003
  3.0855032E+003
  2.8172833E+003
  2.5285304E+003
  2.2762332E+003
  2.1181600E+003
  2.0992492E+003
  2.2271278E+003
  2.4696189E+003
  2.7794585E+003
  3.1153960E+003
  3.4475213E+003
  3.7550573E+003
  4.0230644E+003
  4.2398712E+003
  4.3953884E+003
  4.4801383E+003
  4.4849103E+003
  4.4010714E+003
  4.2215204E+003
  3.9433398E+003
  3.5720308E+003
  3.1229316E+003
  2.6271131E+003
  2.1255950E+003
  1.6290713E+003
  1.1499081E+003
  7.4544006E+002
  4.1145445E+002
  2.0222211E+002
  1.8222057E+002
  2.4890405E+002
  2.3247265E+002
  1.8717940E+002
  3.4719318E+002
  4.5642873E+002
  5.5288651E+002
  5.7330217E+002
  5.4383305E+002
  4.7800285E+002
  4.1307777E+002
  2.8351041E+002
  2.4345749E+002
  3.8064669E+002
  5.4877332E+002
  8.2842114E+002
  1.4675147E+003
  1.8309079E+003
  2.0992113E+003
  2.3396487E+003
  2.5639753E+003
  2.7682108E+003
  2.9301948E+003
  3.0137041E+003
  2.9962955E+003
  2.8852049E+003
  2.9793102E+003
  4.3184291E+003
  4.3143262E+002
  8.6186346E+002
  1.5525716E+003
  2.2000172E+003
  2.6809550E+003
  2.9498100E+003
  2.9981689E+003
  2.8770605E+003
  2.6459755E+003
  2.3656204E+003
  2.0961515E+003
  1.9039805E+003
  1.8509352E+003
  1.9617928E+003
  2.2081676E+003
  2.5373331E+003
  2.9031913E+003
  3.2740145E+003
  3.6289994E+003
  3.9536571E+003
  4.2363128E+003
  4.4657248E+003
  4.6297262E+003
  4.7143927E+003
  4.7037492E+003
  4.5807037E+003
  4.3277530E+003
  3.9340595E+003
  3.4177570E+003
  2.8221828E+003
  2.1923852E+003
  1.6052277E+003
  1.0557578E+003
  5.4234458E+002
  3.4486708E+002
  3.9757286E+002
  5.1051694E+002
  6.5168081E+002
  6.9401596E+002
  6.0429867E+002
  7.1395462E+002
  6.8245706E+002
  5.8639113E+002
  5.8213767E+002
  4.5192386E+002
  3.6499130E+002
  2.8154450E+002
  1.7221433E+002
  9.4234448E+001
  6.1505491E+002
  6.2145675E+002
  5.8977483E+002
  9.4912467E+002
  1.4989756E+003
  1.9253153E+003
  2.2372127E+003
  2.4978910E+003
  2.7337208E+003
  2.9444347E+003
  3.1115025E+003
  3.2041913E+003
  3.1889115E+003
  3.1156672E+003
  3.1416640E+003
  3.0835327E+003
  4.6896230E+002
  8.8703356E+002
  1.4625459E+003
  1.9773016E+003
  2.4003262E+003
  2.6653299E+003
  2.7505507E+003
  2.6741565E+003
  2.4781137E+003
  2.2119730E+003
  1.9331584E+003
  1.7109196E+003
  1.6212001E+003
  1.7090704E+003
  1.9530387E+003
  2.2942913E+003
  2.6811835E+003
  3.0804357E+003
  3.4720036E+003
  3.8429266E+003
  4.1828223E+003
  4.4804452E+003
  4.7213849E+003
  4.8878044E+003
  4.9569046E+003
  4.8988751E+003
  4.6836294E+003
  4.2792817E+003
  3.6429403E+003
  2.8157645E+003
  2.0484479E+003
  1.4207511E+003
  7.5507265E+002
  6.2705590E+002
  7.9971057E+002
  8.1799788E+002
  8.2388202E+002
  8.8887244E+002
  8.9119842E+002
  1.2365634E+003
  1.5634502E+003
  1.2018145E+003
  6.8855985E+002
  3.7485769E+002
  2.9913298E+002
  2.1963278E+002
  1.6290630E+002
  7.8353318E+001
  2.2067397E+001
  4.3856357E+002
  3.1844411E+002
  8.5998711E+002
  9.3062806E+002
  1.1762221E+003
  1.6101972E+003
  2.0145164E+003
  2.3430373E+003
  2.6218180E+003
  2.8729049E+003
  3.1039798E+003
  3.3055215E+003
  3.4464909E+003
  3.4735548E+003
  3.3463335E+003
  2.8951033E+003
  2.6822707E+003
  2.9088802E+002
  8.2147928E+002
  1.3560934E+003
  1.7872329E+003
  2.1848423E+003
  2.4426218E+003
  2.5429202E+003
  2.4960532E+003
  2.3282244E+003
  2.0782569E+003
  1.7965772E+003
  1.5500574E+003
  1.4232400E+003
  1.4824326E+003
  1.7169104E+003
  2.0616922E+003
  2.4589482E+003
  2.8740852E+003
  3.2885169E+003
  3.6918975E+003
  4.0766913E+003
  4.4337811E+003
  4.7474556E+003
  4.9930484E+003
  5.1444214E+003
  5.1639437E+003
  4.9760496E+003
  4.5113020E+003
  3.7938070E+003
  2.8428219E+003
  1.4363388E+003
  6.5617584E+002
  8.7259410E+002
  1.6116812E+003
  1.3486074E+003
  1.3135246E+003
  1.1634632E+003
  9.7625516E+002
  5.6676890E+002
  8.1246453E+002
  1.9136812E+002
  1.1147420E+002
  1.2241319E+002
  9.9677351E+001
  6.4249081E+001
  3.0783130E+001
  3.1261554E+000
  1.9806662E+003
  1.2395667E+003
  1.3771761E+003
  1.4242904E+003
  1.7703302E+003
  2.1098747E+003
  2.4250945E+003
  2.7066824E+003
  2.9667240E+003
  3.2134735E+003
  3.4533716E+003
  3.6664129E+003
  3.7488299E+003
  3.5190544E+003
  2.7617631E+003
  2.0117151E+003
  4.8551691E+002
  1.0263515E+003
  1.2227293E+003
  1.6489361E+003
  2.0340473E+003
  2.2673180E+003
  2.3749412E+003
  2.3485835E+003
  2.2033869E+003
  1.9695778E+003
  1.6906776E+003
  1.4274814E+003
  1.2669419E+003
  1.2940154E+003
  1.5122568E+003
  1.8515259E+003
  2.2475508E+003
  2.6645851E+003
  3.0859267E+003
  3.5046917E+003
  3.9178838E+003
  4.3213961E+003
  4.7041235E+003
  5.0332250E+003
  5.2531055E+003
  5.3498619E+003
  5.2970368E+003
  4.9019246E+003
  3.8420886E+003
  1.8562736E+003
  7.3336203E+002
  3.2452381E+002
  7.2181691E+002
  6.9603151E+001
  2.6228447E+001
  1.3262915E+001
  2.4927488E+001
  1.7874229E+001
  2.0628130E+001
  2.4125758E+003
  1.5008098E+003
  1.4717076E+003
  1.6286763E+003
  1.8956430E+003
  2.1897148E+003
  2.4793732E+003
  2.7520416E+003
  3.0103656E+003
  3.2538872E+003
  3.4875350E+003
  3.7544513E+003
  3.9657703E+003
  3.8625271E+003
  2.5374853E+003
  9.1098688E+002
  7.9272495E+002
  1.1768599E+003
  1.6772711E+003
  1.9200588E+003
  2.1325855E+003
  2.2480575E+003
  2.2359315E+003
  2.1062658E+003
  1.8883186E+003
  1.6168160E+003
  1.3447192E+003
  1.1578246E+003
  1.1537584E+003
  1.3509845E+003
  1.6764977E+003
  2.0601799E+003
  2.4651978E+003
  2.8766975E+003
  3.2915196E+003
  3.7123853E+003
  4.1435737E+003
  4.5849677E+003
  5.0263479E+003
  5.3684896E+003
  5.4477522E+003
  5.3333094E+003
  4.6970460E+003
  4.3525939E+003
  1.8041863E+003
  5.9543194E+002
  4.4601841E+001
  9.5906877E+000
  5.2894248E+000
  2.4446247E+001
  1.6080726E+001
  1.6773884E+001
  2.2480441E+001
  2.1555257E+001
  2.6258419E+003
  2.4500062E+003
  1.7113427E+003
  1.1856103E+003
  1.4425046E+003
  1.6957915E+003
  1.9608678E+003
  2.2352656E+003
  2.5038324E+003
  2.7646416E+003
  3.0174900E+003
  3.2576227E+003
  3.4438839E+003
  3.5826966E+003
  3.9039351E+003
  3.5870741E+003
  2.3219152E+003
  1.0998599E+003
  5.6403062E+002
  1.1189003E+003
  1.4541191E+003
  1.7327546E+003
  2.0373172E+003
  2.1741316E+003
  2.1584616E+003
  2.0382999E+003
  1.8397882E+003
  1.5764199E+003
  1.3003786E+003
  1.0968782E+003
  1.0684678E+003
  1.2440307E+003
  1.5503175E+003
  1.9131958E+003
  2.2948418E+003
  2.6816823E+003
  3.0737128E+003
  3.4793529E+003
  3.9125841E+003
  4.3914770E+003
  4.9317798E+003
  5.6123926E+003
  6.0420440E+003
  6.4180032E+003
  7.9235037E+003
  5.5419818E+003
  2.1327195E+000
  1.1249067E+001
  1.1855901E+001
  1.9815335E+001
  2.5881162E+001
  1.8561526E+001
  2.6309036E+003
  2.5973256E+003
  2.1354832E+003
  1.5645705E+003
  1.2578567E+003
  1.3922508E+003
  1.6973498E+003
  1.9840185E+003
  2.2533986E+003
  2.5100868E+003
  2.7591718E+003
  3.0150465E+003
  3.2742163E+003
  3.5520479E+003
  3.5310344E+003
  3.7186966E+003
  5.2408305E+003
  3.8370786E+003
  1.2761744E+003
  1.8131559E+003
  1.9306056E+003
  2.1601637E+003
  2.1756147E+003
  2.0934653E+003
  2.0223022E+003
  1.8358651E+003
  1.5717166E+003
  1.2922866E+003
  1.0821542E+003
  1.0411124E+003
  1.2003145E+003
  1.4871858E+003
  1.8263322E+003
  2.1793354E+003
  2.5330841E+003
  2.8892255E+003
  3.2610967E+003
  3.6694336E+003
  4.1557882E+003
  4.7417192E+003
  5.5988223E+003
  7.1244939E+003
  7.4186773E+003
  6.7337119E+003
  1.1508799E+000
  2.6461082E+000
  1.0671332E+001
  2.8375588E+003
  2.8089381E+003
  2.3453780E+003
  1.8014808E+003
  1.4122860E+003
  1.2542723E+003
  1.4119915E+003
  1.7037628E+003
  2.0005361E+003
  2.2715726E+003
  2.5212725E+003
  2.7613805E+003
  3.0117223E+003
  3.3175314E+003
  3.7548024E+003
  4.3784798E+003
  4.7525949E+003
  6.1639443E+003
  1.0194489E+003
  1.5460503E+003
  2.2032175E+003
  1.9151407E+003
  2.1697127E+003
  2.0983753E+003
  1.8866608E+003
  1.6035454E+003
  1.3214997E+003
  1.1113592E+003
  1.0710436E+003
  1.2247606E+003
  1.4989264E+003
  1.8193904E+003
  2.1481977E+003
  2.4718617E+003
  2.7928346E+003
  3.1246146E+003
  3.5028318E+003
  3.9582538E+003
  4.6433775E+003
  5.3622125E+003
  7.3333274E+003
  1.1113742E+004
  6.5921728E+003
  3.0508730E+003
  3.1402896E+003
  2.5462911E+003
  1.9870321E+003
  1.5812588E+003
  1.2991274E+003
  1.2630111E+003
  1.4532964E+003
  1.7429071E+003
  2.0412562E+003
  2.3170978E+003
  2.5677909E+003
  2.8007673E+003
  3.0387039E+003
  3.3188071E+003
  3.7591293E+003
  4.7889887E+003
  4.8558513E+003
  2.1789867E+003
  6.0294628E+002
  1.4227022E+003
  2.9666662E+003
  2.4605307E+003
  2.4881496E+003
  2.2662489E+003
  1.9670588E+003
  1.6829577E+003
  1.3918032E+003
  1.1840170E+003
  1.1549241E+003
  1.3165477E+003
  1.5899168E+003
  1.9041632E+003
  2.2233035E+003
  2.5338739E+003
  2.8369820E+003
  3.1471087E+003
  3.5006770E+003
  3.9600416E+003
  4.6879856E+003
  5.9220170E+003
  8.4155565E+003
  1.4227863E+004
  3.5555476E+003
  3.8793510E+003
  2.4373396E+003
  2.1371469E+003
  1.6624592E+003
  1.3644735E+003
  1.2133210E+003
  1.2819614E+003
  1.5126644E+003
  1.8117096E+003
  2.1173970E+003
  2.4054731E+003
  2.6690239E+003
  2.9163380E+003
  3.1364700E+003
  3.4218602E+003
  3.5876365E+003
  4.4770549E+003
  6.1690105E+003
  3.7687918E+003
  1.6074622E+003
  2.0763922E+003
  2.8828342E+003
  2.2887074E+003
  2.1583701E+003
  1.8325449E+003
  1.5166033E+003
  1.2974215E+003
  1.2882167E+003
  1.4690235E+003
  1.7533774E+003
  2.0760196E+003
  2.4052356E+003
  2.7275206E+003
  3.0419683E+003
  3.3618412E+003
  3.7151508E+003
  4.1789310E+003
  4.8728788E+003
  6.2832459E+003
  9.4237277E+003
  1.0256627E+004
  1.1725662E+003
  2.4646736E+003
  2.6321773E+003
  2.7986352E+003
  2.5677890E+003
  1.7559040E+003
  1.6295649E+003
  1.3416783E+003
  1.1704597E+003
  1.1528697E+003
  1.3133149E+003
  1.5857021E+003
  1.9018708E+003
  2.2222864E+003
  2.5304462E+003
  2.8232149E+003
  3.1017041E+003
  3.3762857E+003
  3.6402890E+003
  4.0267832E+003
  4.7556431E+003
  7.6560484E+003
  7.9450897E+002
  1.8107720E+003
  3.3835582E+003
  2.6959821E+003
  2.4910137E+003
  2.0656783E+003
  1.6809620E+003
  1.4487961E+003
  1.4657984E+003
  1.6715080E+003
  1.9700527E+003
  2.3125479E+003
  2.6697259E+003
  3.0260476E+003
  3.3789762E+003
  3.7353275E+003
  4.1227671E+003
  4.5565611E+003
  5.1837960E+003
  5.9754476E+003
  7.9261832E+003
  1.3379157E+004
  2.5199492E+003
  3.1415359E+003
  2.2769750E+003
  2.6374593E+003
  2.0665067E+003
  1.5859345E+003
  1.2445362E+003
  1.0737161E+003
  1.0113218E+003
  1.1146496E+003
  1.3531704E+003
  1.6640189E+003
  2.0004420E+003
  2.3384296E+003
  2.6693548E+003
  2.9943647E+003
  3.3194430E+003
  3.6551304E+003
  3.9911854E+003
  4.4008791E+003
  4.9003148E+003
  4.8947022E+003
  3.3452840E+003
  3.3730054E+003
  2.9900683E+003
  2.4737420E+003
  1.9027148E+003
  1.6244584E+003
  1.6958168E+003
  1.9008894E+003
  2.2080867E+003
  2.5787887E+003
  2.9772230E+003
  3.3816143E+003
  3.7855834E+003
  4.1955470E+003
  4.6242594E+003
  5.0905834E+003
  5.5989299E+003
  6.0369203E+003
  6.8616046E+003
  9.1138712E+003
  8.9924310E+002
  1.8939717E+003
  2.0919540E+003
  2.1882607E+003
  2.2031897E+003
  1.8462250E+003
  1.8991457E+003
  1.7396133E+003
  1.3743744E+003
  1.0485239E+003
  8.7521944E+002
  8.9806196E+002
  1.0954069E+003
  1.3956234E+003
  1.7391334E+003
  2.0939011E+003
  2.4461222E+003
  2.7933865E+003
  3.1400725E+003
  3.4942377E+003
  3.8704684E+003
  4.2522008E+003
  4.5477470E+003
  4.2900665E+003
  4.2288988E+003
  3.5280652E+003
  3.5937066E+003
  2.7294334E+003
  1.9542906E+003
  1.9399508E+003
  1.9517057E+003
  2.1105668E+003
  2.4238996E+003
  2.8358826E+003
  3.2866037E+003
  3.7434099E+003
  4.1966777E+003
  4.6521371E+003
  5.1230494E+003
  5.6234250E+003
  6.1540016E+003
  6.7509224E+003
  7.5754234E+003
  6.3416966E+003
  3.8186623E+003
  5.9252358E+003
  1.8670698E+003
  2.2938026E+003
  1.7541867E+003
  2.1578942E+003
  1.9076862E+003
  1.7139304E+003
  1.5924314E+003
  1.4251725E+003
  1.1757442E+003
  9.0227567E+002
  7.4738952E+002
  8.2679036E+002
  1.0916846E+003
  1.4370923E+003
  1.8057701E+003
  2.1729390E+003
  2.5308772E+003
  2.8813524E+003
  3.2311770E+003
  3.5814871E+003
  3.9387564E+003
  4.3038377E+003
  4.6066797E+003
  4.1478950E+003
  3.2106702E+003
  3.9522389E+003
  4.1651452E+003
  2.7545580E+003
  2.3054563E+003
  2.1442478E+003
  2.2278878E+003
  2.5754585E+003
  3.0523107E+003
  3.5662767E+003
  4.0713460E+003
  4.5575475E+003
  5.0331148E+003
  5.5129360E+003
  6.0085156E+003
  6.5291168E+003
  7.0698220E+003
  7.3009435E+003
  6.8385125E+003
  4.6662377E+003
  2.3882392E+003
  2.5468732E+003
  2.3364820E+003
  2.7367359E+003
  2.6481011E+003
  1.5629766E+003
  3.8248251E+003
  2.4981331E+003
  5.8117319E+002
  1.2436845E+003
  1.4409720E+003
  1.5445672E+003
  1.6561282E+003
  1.4900421E+003
  1.6419196E+003
  1.6845513E+003
  1.5729891E+003
  1.4199814E+003
  1.2496386E+003
  1.0284325E+003
  7.9365062E+002
  6.6646761E+002
  7.8836338E+002
  1.0992120E+003
  1.4772884E+003
  1.8633774E+003
  2.2348662E+003
  2.5868513E+003
  2.9257241E+003
  3.2602166E+003
  3.5923018E+003
  3.8826089E+003
  4.0833757E+003
  4.4048022E+003
  3.7038791E+003
  1.7254915E+003
  2.9519307E+003
  2.5954276E+003
  2.5775000E+003
  2.0795581E+003
  2.2241377E+003
  2.6393588E+003
  3.2179505E+003
  3.8005889E+003
  4.3404973E+003
  4.8318672E+003
  5.2909399E+003
  5.7332410E+003
  6.1635893E+003
  6.5632201E+003
  6.8282441E+003
  6.7550977E+003
  6.0305786E+003
  4.7759372E+003
  3.3736132E+003
  2.6599673E+003
  2.7445329E+003
  2.4404252E+003
  2.8119530E+003
  5.1456887E+003
  3.0707825E+003
  3.4879677E+003
  2.7824029E+003
  3.0201098E+003
  2.6574888E+003
  2.2635236E+003
  2.4662779E+003
  1.0794062E+003
  2.3170250E+003
  1.1903513E+003
  1.1304708E+003
  1.3174650E+003
  1.1594906E+003
  1.5471537E+003
  1.5161813E+003
  1.4805629E+003
  1.4967259E+003
  1.4995742E+003
  1.4431032E+003
  1.3254329E+003
  1.1579463E+003
  9.5066487E+002
  7.3360109E+002
  6.2220888E+002
  7.7327435E+002
  1.1163077E+003
  1.5183724E+003
  1.9159948E+003
  2.2827672E+003
  2.6171288E+003
  2.9285100E+003
  3.2384532E+003
  3.5461651E+003
  3.8724079E+003
  3.8800873E+003
  3.8960499E+003
  4.6118216E+003
  2.6616337E+003
  1.1271937E+003
  2.3088785E+003
  2.2025682E+003
  1.9690599E+003
  2.0854082E+003
  2.6464417E+003
  3.3407144E+003
  3.9909811E+003
  4.5373591E+003
  4.9986959E+003
  5.4048718E+003
  5.7736142E+003
  6.0990114E+003
  6.3400461E+003
  6.4130892E+003
  6.1955705E+003
  5.6101432E+003
  4.6733438E+003
  3.6859792E+003
  2.9669822E+003
  2.3841499E+003
  1.8903534E+003
  2.0406029E+003
  2.4627843E+003
  2.7657728E+003
  2.9574875E+003
  3.2497355E+003
  2.9921075E+003
  4.5941694E+003
  3.6286488E+003
  1.5176612E+002
  5.9463517E+002
  7.9879420E+002
  7.8991576E+002
  1.1602256E+003
  1.1687763E+003
  1.3368932E+003
  1.4547094E+003
  1.4623312E+003
  1.4412981E+003
  1.4182155E+003
  1.3648023E+003
  1.2669220E+003
  1.1212906E+003
  9.3128369E+002
  7.2433940E+002
  6.1774254E+002
  7.7252629E+002
  1.1388692E+003
  1.5664851E+003
  1.9695456E+003
  2.3236528E+003
  2.6287953E+003
  2.9036272E+003
  3.1678113E+003
  3.4663649E+003
  3.8308077E+003
  4.3142422E+003
  4.3366140E+003
  5.1635945E+003
  2.1249603E+003
  2.3008723E+003
  1.8900647E+003
  1.9170711E+003
  2.6025347E+003
  3.4529321E+003
  4.1395495E+003
  4.6496157E+003
  5.0425719E+003
  5.3732055E+003
  5.6559089E+003
  5.8757774E+003
  5.9932281E+003
  5.9482331E+003
  5.6808113E+003
  5.1644550E+003
  4.4613729E+003
  3.6849196E+003
  2.9396647E+003
  2.2831375E+003
  1.8226015E+003
  1.7597130E+003
  2.0389293E+003
  2.3877211E+003
  2.6393502E+003
  2.7728856E+003
  2.5798456E+003
  2.4426621E+003
  2.9351396E+003
  5.5826202E+003
  2.9489011E+003
  3.2405246E+003
  2.3902575E+003
  2.8678610E+003
  2.0364238E+003
  2.3047005E+003
  1.6778396E+003
  1.8899692E+003
  1.3807162E+003
  1.4565023E+003
  1.1950093E+003
  1.0418271E+003
  1.2724238E+003
  1.4183882E+003
  1.4091270E+003
  1.3932600E+003
  1.4149838E+003
  1.4383415E+003
  1.4366021E+003
  1.4117112E+003
  1.3725767E+003
  1.3188652E+003
  1.2376474E+003
  1.1168519E+003
  9.5233306E+002
  7.6834822E+002
  6.4447961E+002
  7.9875221E+002
  1.1847996E+003
  1.6260998E+003
  2.0323085E+003
  2.3612852E+003
  2.6313317E+003
  2.8642068E+003
  3.0854927E+003
  3.3170537E+003
  3.6334389E+003
  4.3731445E+003
  4.2173937E+003
  1.8678671E+003
  2.2595665E+003
  2.0142138E+003
  1.6759229E+003
  2.5662539E+003
  3.5601875E+003
  4.2367218E+003
  4.6412713E+003
  4.9479328E+003
  5.2056649E+003
  5.4158348E+003
  5.5566053E+003
  5.5924359E+003
  5.4842632E+003
  5.2030099E+003
  4.7483131E+003
  4.1547253E+003
  3.4893947E+003
  2.8196202E+003
  2.2054810E+003
  1.7438454E+003
  1.5782964E+003
  1.7056400E+003
  1.9271085E+003
  2.0785010E+003
  2.0358133E+003
  1.7336209E+003
  1.5788056E+003
  2.1500089E+003
  2.3164558E+003
  2.1959406E+003
  1.9716101E+003
  1.7952494E+003
  1.6862894E+003
  1.6854331E+003
  1.7012509E+003
  1.6518047E+003
  1.6094178E+003
  1.5403844E+003
  1.4821222E+003
  1.4419319E+003
  1.4026814E+003
  1.3597851E+003
  1.3156085E+003
  1.2685252E+003
  1.2111289E+003
  1.1217543E+003
  9.9486945E+002
  8.4356410E+002
  7.5214401E+002
  8.1644671E+002
  1.2251538E+003
  1.7220711E+003
  2.1013849E+003
  2.3901054E+003
  2.6225849E+003
  2.8345842E+003
  3.0167593E+003
  3.2458677E+003
  3.3389702E+003
  3.9754894E+003
  5.2342890E+003
  3.1246882E+003
  1.8111831E+003
  1.3594288E+003
  2.3314125E+003
  3.6916662E+003
  4.1658512E+003
  4.4616279E+003
  4.7088700E+003
  4.9246440E+003
  5.0944149E+003
  5.1891797E+003
  5.1791273E+003
  5.0386602E+003
  4.7549574E+003
  4.3350991E+003
  3.8092780E+003
  3.2222322E+003
  2.6254550E+003
  2.0752563E+003
  1.6436913E+003
  1.4112311E+003
  1.3887387E+003
  1.4663239E+003
  1.4995798E+003
  1.4070343E+003
  1.2802138E+003
  1.4334861E+003
  1.6915306E+003
  1.9614586E+003
  2.0276433E+003
  1.9871980E+003
  1.9250317E+003
  1.8865068E+003
  1.8616980E+003
  1.8303363E+003
  1.7781705E+003
  1.6826321E+003
  1.5816519E+003
  1.4871406E+003
  1.4038621E+003
  1.3323275E+003
  1.2708882E+003
  1.2200905E+003
  1.1821942E+003
  1.1531812E+003
  1.1215543E+003
  1.0218171E+003
  9.3723519E+002
  9.1474937E+002
  1.1207125E+003
  1.4956728E+003
  1.8644367E+003
  2.1573680E+003
  2.3760095E+003
  2.5992869E+003
  2.8106239E+003
  3.0212685E+003
  3.2236183E+003
  3.5465262E+003
  4.0980358E+003
  6.3180261E+003
  1.0069966E+003
  2.3777521E+003
  3.3988608E+003
  3.8454885E+003
  4.1014271E+003
  4.3535571E+003
  4.5746698E+003
  4.7375093E+003
  4.8142733E+003
  4.7817748E+003
  4.6250979E+003
  4.3410874E+003
  3.9419920E+003
  3.4551148E+003
  2.9194408E+003
  2.3792435E+003
  1.8809721E+003
  1.4732059E+003
  1.2020224E+003
  1.0804899E+003
  1.0521468E+003
  1.0329737E+003
  1.0036487E+003
  1.0642589E+003
  1.2802221E+003
  1.6060196E+003
  1.8403746E+003
  1.9777968E+003
  2.0211411E+003
  2.0159216E+003
  1.9865327E+003
  1.9395175E+003
  1.8683095E+003
  1.7686390E+003
  1.6547301E+003
  1.5321593E+003
  1.4137830E+003
  1.3062853E+003
  1.2122031E+003
  1.1336511E+003
  1.0743526E+003
  1.0379258E+003
  1.0344873E+003
  1.0599218E+003
  1.0844464E+003
  1.0223665E+003
  1.4951082E+003
  1.6118416E+003
  1.7695622E+003
  1.9978441E+003
  2.0906286E+003
  2.3260782E+003
  2.5686140E+003
  2.8030390E+003
  3.0354404E+003
  3.2843141E+003
  3.6489128E+003
  4.1517847E+003
  4.0192766E+003
  3.6415658E+003
  3.1753198E+003
  3.3732797E+003
  3.6623845E+003
  3.9676451E+003
  4.2221806E+003
  4.3960221E+003
  4.4680634E+003
  4.4240176E+003
  4.2570888E+003
  3.9706383E+003
  3.5800878E+003
  3.1127603E+003
  2.6047942E+003
  2.0968297E+003
  1.6293400E+003
  1.2386225E+003
  9.5212464E+002
  7.8127642E+002
  7.1257656E+002
  7.2279703E+002
  8.2215405E+002
  1.0256803E+003
  1.3100883E+003
  1.5858750E+003
  1.8133598E+003
  1.9556426E+003
  2.0249559E+003
  2.0313075E+003
  1.9912633E+003
  1.9144504E+003
  1.8101723E+003
  1.6874022E+003
  1.5524006E+003
  1.4151141E+003
  1.2818512E+003
  1.1579924E+003
  1.0475980E+003
  9.5446085E+002
  8.8171447E+002
  8.3974076E+002
  8.2450823E+002
  9.1177880E+002
  9.4113884E+002
  1.5337934E+003
  1.9509669E+003
  3.1821025E+003
  4.2356386E+003
  2.3470169E+003
  2.1102711E+003
  2.3749580E+003
  2.5914186E+003
  2.8204362E+003
  3.0483006E+003
  3.2867440E+003
  3.5589050E+003
  3.6586119E+003
  3.6857143E+003
  4.5833854E+003
  3.0879896E+003
  2.9894128E+003
  3.3313060E+003
  3.6675888E+003
  3.9398955E+003
  4.1152446E+003
  4.1797503E+003
  4.1244027E+003
  3.9473390E+003
  3.6551441E+003
  3.2646431E+003
  2.8026603E+003
  2.3038316E+003
  1.8067721E+003
  1.3501875E+003
  9.6960775E+002
  6.9355306E+002
  5.4243927E+002
  5.3170843E+002
  6.5902120E+002
  8.7879955E+002
  1.1581119E+003
  1.4288698E+003
  1.6606188E+003
  1.8315732E+003
  1.9485241E+003
  2.0036141E+003
  2.0005188E+003
  1.9364910E+003
  1.8286136E+003
  1.6948114E+003
  1.5497358E+003
  1.4019710E+003
  1.2550614E+003
  1.1125892E+003
  9.7841490E+002
  8.5683645E+002
  7.5149672E+002
  6.6691644E+002
  6.0679679E+002
  5.7055716E+002
  6.2780453E+002
  5.1263103E+002
  7.4247708E+002
  5.7022367E+003
  3.4663026E+003
  2.7245959E+003
  2.6542072E+003
  2.7266348E+003
  2.8854232E+003
  3.0590725E+003
  3.2337520E+003
  3.3686624E+003
  3.3874737E+003
  3.2396759E+003
  3.3669298E+003
  2.9592207E+003
  2.9315535E+003
  3.2542986E+003
  3.5282538E+003
  3.7717830E+003
  3.9210671E+003
  3.9658655E+003
  3.8946514E+003
  3.7063081E+003
  3.4073512E+003
  3.0140736E+003
  2.5523961E+003
  2.0561128E+003
  1.5639127E+003
  1.1179849E+003
  7.6823164E+002
  5.7576037E+002
  5.5882990E+002
  6.6211712E+002
  8.5483999E+002
  1.1551801E+003
  1.4352307E+003
  1.6614107E+003
  1.8013686E+003
  1.8853626E+003
  1.9374839E+003
  1.9727237E+003
  1.9411652E+003
  1.8454005E+003
  1.6993498E+003
  1.5368030E+003
  1.3768682E+003
  1.2231121E+003
  1.0735087E+003
  9.2774271E+002
  7.8880551E+002
  6.6145776E+002
  5.5033839E+002
  4.5809255E+002
  3.8655036E+002
  3.4472993E+002
  2.8975198E+002
  2.6223012E+002
  2.7740576E+002
  3.8830290E+003
  4.1162462E+003
  3.3846730E+003
  3.0247759E+003
  2.9449249E+003
  2.9840931E+003
  3.0784762E+003
  3.1687258E+003
  3.2186158E+003
  3.1544150E+003
  2.9989136E+003
  1.9351011E+003
  9.5882524E+002
  2.3934994E+003
  3.2052419E+003
  3.1995700E+003
  3.3403773E+003
  3.5370124E+003
  3.7071628E+003
  3.8132223E+003
  3.8280187E+003
  3.7389516E+003
  3.5415220E+003
  3.2404782E+003
  2.8505812E+003
  2.3975414E+003
  1.9181048E+003
  1.4592230E+003
  1.0809635E+003
  8.6286623E+002
  8.4547580E+002
  9.2797654E+002
  1.0368437E+003
  1.2775764E+003
  1.5552079E+003
  1.8732204E+003
  2.0301567E+003
  2.0398162E+003
  1.9779815E+003
  1.9459188E+003
  1.9169913E+003
  1.8766846E+003
  1.7348674E+003
  1.5406654E+003
  1.3502018E+003
  1.1846120E+003
  1.0340934E+003
  8.8903008E+002
  7.4600036E+002
  6.0766843E+002
  4.8085009E+002
  3.7118181E+002
  2.8154712E+002
  2.1622643E+002
  1.6907219E+002
  1.5880294E+002
  1.2286593E+002
  4.2687700E+003
  4.0504093E+003
  3.7072591E+003
  3.3021217E+003
  3.1246270E+003
  3.0866388E+003
  3.1050184E+003
  3.1233727E+003
  3.1012634E+003
  2.9931798E+003
  2.8158118E+003
  1.6277423E+003
  2.4100549E+003
  3.0439498E+003
  3.3109643E+003
  3.4547107E+003
  3.5929712E+003
  3.7080608E+003
  3.7698997E+003
  3.7572035E+003
  3.6550501E+003
  3.4571197E+003
  3.1661429E+003
  2.7958793E+003
  2.3737270E+003
  1.9437991E+003
  1.5703063E+003
  1.3339777E+003
  1.2933726E+003
  1.4167704E+003
  1.5820367E+003
  1.6061520E+003
  1.6709816E+003
  2.2666531E+003
  2.5714311E+003
  2.5849499E+003
  2.4183208E+003
  2.1864931E+003
  1.9465800E+003
  1.9042906E+003
  1.8335846E+003
  1.6203599E+003
  1.3519144E+003
  1.1461241E+003
  9.8608731E+002
  8.4677209E+002
  7.1208469E+002
  5.7791379E+002
  4.4664515E+002
  3.2552479E+002
  2.2786389E+002
  1.4670847E+002
  9.0895182E+001
  7.9425566E+001
  1.0538616E+002
  4.2697129E+003
  4.2762104E+003
  3.6916760E+003
  3.3793842E+003
  3.2302748E+003
  3.1660194E+003
  3.1393852E+003
  3.1006490E+003
  3.0215725E+003
  2.8738090E+003
  2.6911912E+003
  1.8373793E+003
  2.2382196E+003
  2.8494707E+003
  3.2644901E+003
  3.5027441E+003
  3.6436466E+003
  3.7314802E+003
  3.7670144E+003
  3.7391678E+003
  3.6364720E+003
  3.4526214E+003
  3.1900732E+003
  2.8628821E+003
  2.4999204E+003
  2.1492038E+003
  1.8793201E+003
  1.7600903E+003
  1.8452193E+003
  2.1212318E+003
  2.4385992E+003
  2.5561849E+003
  2.7455938E+003
  3.3624995E+003
  3.5729098E+003
  3.1538927E+003
  2.9211204E+003
  2.6866751E+003
  2.2105636E+003
  1.9034059E+003
  1.8301871E+003
  1.4361003E+003
  1.1432240E+003
  9.5154045E+002
  8.1184960E+002
  6.8413207E+002
  5.5947341E+002
  4.3658477E+002
  3.1806451E+002
  2.0853152E+002
  1.1698548E+002
  6.5699062E+001
  2.6837705E+001
  5.1848115E+001
  5.8556169E+003
  3.9533820E+003
  3.4943962E+003
  3.3686131E+003
  3.2840624E+003
  3.2355403E+003
  3.1862261E+003
  3.1057406E+003
  2.9742760E+003
  2.7860569E+003
  2.5966310E+003
  1.8705018E+003
  2.2420558E+003
  2.7893315E+003
  3.2415267E+003
  3.5210316E+003
  3.6750454E+003
  3.7561444E+003
  3.7849895E+003
  3.7600538E+003
  3.6736278E+003
  3.5212992E+003
  3.3072450E+003
  3.0465293E+003
  2.7666547E+003
  2.5082664E+003
  2.3116970E+003
  2.2226099E+003
  2.3170475E+003
  2.6363792E+003
  3.4276896E+003
  3.2668288E+003
  5.0743743E+003
  6.1667037E+003
  3.8613638E+003
  3.7043071E+003
  3.3781670E+003
  3.0888932E+003
  3.4230963E+003
  2.1130784E+003
  1.3418019E+003
  1.1740878E+003
  9.3662341E+002
  8.0933110E+002
  6.7071644E+002
  5.3651662E+002
  4.0795428E+002
  2.9218022E+002
  1.9505700E+002
  1.1217803E+002
  6.8264038E+001
  4.1214509E+001
  4.3927377E+003
  3.7111358E+003
  3.4000709E+003
  3.4108087E+003
  3.3471847E+003
  3.3143675E+003
  3.2555095E+003
  3.1453251E+003
  2.9613847E+003
  2.7136966E+003
  2.5087055E+003
  1.7214074E+003
  2.2036798E+003
  2.8551822E+003
  3.2915912E+003
  3.5477125E+003
  3.6901937E+003
  3.7721127E+003
  3.8110809E+003
  3.8078169E+003
  3.7556945E+003
  3.6501265E+003
  3.4982960E+003
  3.3200833E+003
  3.1386256E+003
  2.9685816E+003
  2.8480794E+003
  2.7412497E+003
  2.5844894E+003
  3.0643611E+003
  3.1430444E+003
  2.9642806E+003
  4.0189182E+003
  1.2679402E+003
  5.6424949E+002
  8.7440666E+002
  8.9153795E+002
  8.0254698E+002
  6.5664159E+002
  4.9725425E+002
  3.4648077E+002
  2.1635202E+002
  1.1705079E+002
  4.0215517E+001
  2.9871271E+001
  2.5381295E+003
  1.4262493E+003
  3.2171185E+003
  3.9727999E+003
  3.6232649E+003
  3.4868171E+003
  3.4341708E+003
  3.3979606E+003
  3.3475847E+003
  3.2288139E+003
  2.9950460E+003
  2.6593730E+003
  2.3973144E+003
  1.4319200E+003
  2.3221846E+003
  3.0393378E+003
  3.3839675E+003
  3.5619350E+003
  3.6851325E+003
  3.7738960E+003
  3.8362878E+003
  3.8727422E+003
  3.8737364E+003
  3.8285148E+003
  3.7383941E+003
  3.6346331E+003
  3.5516577E+003
  3.5012197E+003
  3.2889991E+003
  3.3068341E+003
  2.9309353E+003
  4.0891510E+003
  2.8208215E+003
  1.3442740E+003
  2.4414121E+003
  3.4479667E+003
  3.7236001E+003
  3.6244716E+003
  3.5260160E+003
  3.4770310E+003
  3.4581557E+003
  3.4377575E+003
  3.3568177E+003
  3.1094048E+003
  2.5938859E+003
  2.1923410E+003
  7.8341462E+002
  2.2388608E+003
  3.2358781E+003
  3.3875999E+003
  3.5340641E+003
  3.6601663E+003
  3.7603822E+003
  3.8542575E+003
  3.9459822E+003
  4.0236811E+003
  4.0588362E+003
  4.0259366E+003
  3.9345561E+003
  3.9110496E+003
  3.9317213E+003
  4.0043495E+003
  3.2404977E+003
  3.1048625E+003
  3.3797046E+003
  3.9355090E+003
  3.0380691E+003
  3.2523842E+003
  3.4142983E+003
  3.4498585E+003
  3.4526657E+003
  3.4548293E+003
  3.4683650E+003
  3.4807954E+003
  3.3453456E+003
  2.7346271E+003
  1.8595573E+003
  1.7202081E+003
  3.1110627E+003
  3.1561962E+003
  3.2975211E+003
  3.5118997E+003
  3.6367553E+003
  3.7437897E+003
  3.8610125E+003
  4.0147682E+003
  4.1991964E+003
  4.3683136E+003
  4.4471724E+003
  4.3681899E+003
  4.0443075E+003
  4.3784021E+003
  3.4700124E+003
  2.7141166E+003
  2.3969820E+003
  3.1345894E+003
  2.8887227E+003
  2.9925994E+003
  3.2526108E+003
  3.3360253E+003
  3.3739099E+003
  3.3858273E+003
  3.3930988E+003
  3.4304642E+003
  3.5447689E+003
  2.6743037E+003
  1.0593716E+003
  4.4051050E+003
  3.4180977E+003
  3.4160856E+003
  3.5749450E+003
  3.6678022E+003
  3.7560668E+003
  3.8622836E+003
  4.0538325E+003
  4.3755031E+003
  4.7500100E+003
  4.9758786E+003
  5.1244876E+003
  4.7295687E+003
  5.6604828E+003
  3.4767352E+003
  1.1394382E+003
  1.7568848E+003
  9.4376390E+002
  2.3455111E+003
  3.0988525E+003
  3.1002813E+003
  3.1854602E+003
  3.2531047E+003
  3.2835140E+003
  3.2844327E+003
  3.2851142E+003
  3.2058941E+003
  3.3452528E+003
  3.7274026E+003
  2.1362099E+003
  3.5951565E+003
  3.8986234E+003
  3.7494452E+003
  3.7592422E+003
  3.8081323E+003
  3.8534308E+003
  3.9134782E+003
  4.0523479E+003
  4.4435469E+003
  5.2379160E+003
  6.0664453E+003
  5.9842123E+003
  5.6815025E+003
  5.4975579E+003
  1.7115664E+003
  2.5061260E+003
  3.0263881E+003
  3.1283312E+003
  3.1541904E+003
  3.1856226E+003
  3.2112045E+003
  3.2202776E+003
  3.2332331E+003
  3.2430129E+003
  3.5638310E+003
  5.1882493E+003
  3.9629901E+003
  4.0881723E+003
  4.1169986E+003
  4.0555150E+003
  4.0786125E+003
  4.1105124E+003
  4.1477782E+003
  4.1832319E+003
  4.3813732E+003
  5.2265307E+003
  6.4285016E+003
  6.9124251E+003
  6.0731425E+003
  2.1600062E+003
  2.4657496E+003
  2.8666236E+003
  3.0043677E+003
  3.0722128E+003
  3.1203655E+003
  3.1640332E+003
  3.2105162E+003
  3.2767448E+003
  3.4478758E+003
  3.8962916E+003
  3.9862476E+003
  4.1536947E+003
  4.5162535E+003
  4.3944495E+003
  4.4116309E+003
  4.4877747E+003
  4.5725126E+003
  4.6332189E+003
  4.8286304E+003
  4.7698056E+003
  6.0304290E+003
  1.0442332E+004
  9.1912627E+003
  2.4170416E+003
  2.6662667E+003
  2.7203109E+003
  2.8412698E+003
  2.9632462E+003
  3.0553859E+003
  3.1369849E+003
  3.2245839E+003
  3.3489570E+003
  3.5547054E+003
  3.7756988E+003
  3.9839894E+003
  5.8860834E+003
  4.5224913E+003
  4.6507564E+003
  4.8533607E+003
  5.0220879E+003
  5.1570775E+003
  5.3577408E+003
  5.5681302E+003
  6.2963043E+003
  7.0514288E+003
  1.1375065E+004
  3.4810499E+003
  2.5366965E+003
  2.5451699E+003
  2.7203746E+003
  2.8772912E+003
  3.0071741E+003
  3.1201408E+003
  3.2377126E+003
  3.3804063E+003
  3.5488360E+003
  3.7307429E+003
  3.8391756E+003
  4.4799248E+003
  4.8441582E+003
  5.1069911E+003
  5.4954581E+003
  5.6202092E+003
  5.7650316E+003
  5.9580180E+003
  6.2712393E+003
  6.7876589E+003
  6.7871532E+003
  5.4526981E+003
  2.6748617E+003
  2.4490997E+003
  2.4753451E+003
  2.7022931E+003
  2.8468454E+003
  2.9870178E+003
  3.1110805E+003
  3.2382785E+003
  3.3759949E+003
  3.5242856E+003
  3.6683450E+003
  3.7829205E+003
  2.3690317E+003
  7.0136286E+002
  3.6748468E+003
  5.8143418E+003
  6.1344071E+003
  6.2026877E+003
  6.2385244E+003
  6.2466139E+003
  6.2891418E+003
  6.4157691E+003
  6.6942763E+003
  5.7174585E+003
  4.3407734E+003
  1.5072276E+003
  7.8893051E+002
  2.0029074E+003
  2.6614203E+003
  2.6592918E+003
  2.7517365E+003
  2.8704526E+003
  2.9880125E+003
  3.1072164E+003
  3.2292177E+003
  3.3572080E+003
  3.4877489E+003
  3.6183519E+003
  3.7254516E+003
  7.6895769E+002
  4.0062500E+003
  6.6733516E+003
  6.9204048E+003
  6.8454139E+003
  6.7381998E+003
  6.5758364E+003
  6.3315096E+003
  6.0164884E+003
  5.9514724E+003
  4.8064681E+003
  2.0361362E+003
  1.4499946E+003
  2.1427112E+003
  2.6300487E+003
  2.7519245E+003
  2.8134059E+003
  2.8953885E+003
  2.9948816E+003
  3.1020618E+003
  3.2145750E+003
  3.3310545E+003
  3.4492477E+003
  3.5702143E+003
  3.6774263E+003
  3.2242998E+003
  5.9183738E+003
  6.8074894E+003
  7.2138171E+003
  7.2362466E+003
  7.1058448E+003
  6.7795077E+003
  6.3418818E+003
  5.5247789E+003
  5.0465867E+003
  5.6400219E+003
  3.1346770E+003
  1.7872872E+003
  2.1311898E+003
  2.5266386E+003
  2.7115616E+003
  2.8092843E+003
  2.8948905E+003
  2.9900057E+003
  3.0912589E+003
  3.1954360E+003
  3.3017115E+003
  3.4094672E+003
  3.5237019E+003
  3.6299408E+003
  9.8581214E+003
  7.4722757E+003
  7.4665892E+003
  7.5630017E+003
  7.3556370E+003
  6.9733766E+003
  6.3363225E+003
  5.6740932E+003
  4.7534856E+003
  5.8758169E+003
  2.1075293E+003
  2.2561660E+003
  2.4856254E+003
  2.6282358E+003
  2.7534648E+003
  2.8654202E+003
  2.9720871E+003
  3.0751287E+003
  3.1743196E+003
  3.2714204E+003
  3.3691430E+003
  3.4763246E+003
  3.5815101E+003
  9.3035157E+003
  8.8433822E+003
  8.1750260E+003
  7.9175369E+003
  7.6019691E+003
  7.0928116E+003
  6.3710907E+003
  5.5277774E+003
  4.1928599E+003
  2.6353155E+003
  2.2662038E+003
  2.4249178E+003
  2.4182782E+003
  2.5333484E+003
  2.6872486E+003
  2.8272451E+003
  2.9517296E+003
  3.0604085E+003
  3.1560292E+003
  3.2432225E+003
  3.3287655E+003
  3.4265038E+003
  3.5293140E+003
  1.0434924E+004
  9.6386351E+003
  8.9783394E+003
  8.3769975E+003
  7.8101836E+003
  7.1200479E+003
  6.2193751E+003
  5.0820353E+003
  3.1300072E+003
  1.5360082E+003
  3.1840594E+003
  2.3067562E+003
  2.2950282E+003
  2.4671494E+003
  2.6441965E+003
  2.8063605E+003
  2.9435667E+003
  3.0565949E+003
  3.1471469E+003
  3.2212355E+003
  3.2894589E+003
  3.3723757E+003
  3.4703910E+003
  1.1350127E+004
  1.0553726E+004
  9.6810323E+003
  8.8002034E+003
  7.9252604E+003
  6.9870276E+003
  5.8749617E+003
  4.4987140E+003
  2.3945596E+003
  5.9244977E+002
  2.4060280E+003
  2.2209665E+003
  2.2562708E+003
  2.4808797E+003
  2.6492162E+003
  2.8170174E+003
  2.9576289E+003
  3.0714189E+003
  3.1545080E+003
  3.2107760E+003
  3.2532552E+003
  3.3112986E+003
  3.3998743E+003
  1.2519519E+004
  1.1496676E+004
  1.0361486E+004
  9.0700908E+003
  7.8370180E+003
  6.6252902E+003
  5.3503386E+003
  3.9090206E+003
  1.8469128E+003
  1.3048045E+003
  1.3563385E+003
  6.9395511E+002
  1.7805181E+003
  2.3983176E+003
  2.4248866E+003
  2.5446037E+003
  2.6990385E+003
  2.8529948E+003
  2.9940675E+003
  3.1077445E+003
  3.1840491E+003
  3.2190112E+003
  3.2242665E+003
  3.2408481E+003
  3.3101503E+003
  1.3706251E+004
  1.2682939E+004
  1.0924563E+004
  9.0868540E+003
  7.3933500E+003
  5.9322259E+003
  4.5960718E+003
  3.2788180E+003
  1.6946467E+003
  2.1295555E+003
  1.2498669E+003
  1.8810231E+003
  2.3311967E+003
  2.4904629E+003
  2.6039278E+003
  2.7443635E+003
  2.8974363E+003
  3.0423990E+003
  3.1627162E+003
  3.2397122E+003
  3.2559607E+003
  3.2120356E+003
  3.1549047E+003
  3.1858310E+003
  1.6132055E+004
  1.3790250E+004
  1.1438160E+004
  8.5263441E+003
  6.4271239E+003
  4.8404945E+003
  3.5051639E+003
  2.4357373E+003
  1.5895091E+003
  3.9922992E+003
  1.5484316E+003
  1.8251165E+003
  2.2013897E+003
  2.4179943E+003
  2.5926172E+003
  2.7604493E+003
  2.9293392E+003
  3.0891115E+003
  3.2260205E+003
  3.3194907E+003
  3.3343650E+003
  3.2374345E+003
  3.0650520E+003
  3.0058366E+003
  1.7205686E+004
  1.6412840E+004
  1.0844843E+004
  7.0468613E+003
  4.8922081E+003
  3.4150101E+003
  2.2468255E+003
  1.1209225E+003
  9.4276511E+002
  3.1423213E+003
  1.6974909E+003
  1.9290331E+003
  2.0808173E+003
  2.3056216E+003
  2.5352286E+003
  2.7455591E+003
  2.9422175E+003
  3.1220667E+003
  3.2791148E+003
  3.4038070E+003
  3.4560991E+003
  3.3400454E+003
  2.9490190E+003
  2.7001162E+003
  3.5273293E+004
  1.4815060E+004
  8.6607274E+003
  4.5763697E+003
  3.1935261E+003
  2.1036922E+003
  1.2399556E+003
  4.2565015E+002
  1.2279443E+003
  2.1006260E+003
  1.6422089E+003
  2.2333647E+003
  2.3176319E+003
  1.8097364E+003
  1.9482437E+003
  2.2170077E+003
  2.4760890E+003
  2.7195697E+003
  2.9404861E+003
  3.1377587E+003
  3.3046652E+003
  3.4433895E+003
  3.5623826E+003
  3.5619651E+003
  3.0484589E+003
  2.2502614E+003
  3.5894337E+004
  1.2643453E+004
  3.6368797E+003
  3.0873316E+003
  2.3228017E+003
  1.8186335E+003
  1.3550781E+003
  9.5644476E+002
  1.0254480E+003
  1.7607249E+003
  2.4121632E+003
  1.7159990E+003
  1.7354742E+003
  1.8944204E+003
  2.1834290E+003
  2.4420531E+003
  2.6980494E+003
  2.9339498E+003
  3.1432398E+003
  3.3116787E+003
  3.4165443E+003
  3.4876351E+003
  3.6671151E+003
  2.9201080E+003
  1.2661837E+003
  1.6617400E+004
  6.4385170E+003
  4.3028321E+003
  3.3837192E+003
  2.9641252E+003
  2.4142264E+003
  1.9645412E+003
  1.5299116E+003
  1.1270600E+003
  1.2139298E+003
  2.7920647E+003
  9.3773032E+002
  4.4481078E+002
  1.2520241E+003
  1.8148450E+003
  1.9601895E+003
  2.1796693E+003
  2.4297890E+003
  2.6815301E+003
  2.9267609E+003
  3.1549156E+003
  3.3334156E+003
  3.4423179E+003
  3.3165695E+003
  3.3941366E+003
  3.9448573E+003
  2.2688822E+003
  4.6783677E+003
  4.8384787E+003
  5.5626197E+003
  4.3605763E+003
  3.4833094E+003
  2.8545166E+003
  2.4022684E+003
  2.0121747E+003
  1.7367185E+003
  1.3115714E+003
  1.4556167E+003
  7.7732839E+002
  1.3347377E+003
  1.6972108E+003
  1.9418413E+003
  2.1704548E+003
  2.4116658E+003
  2.6618420E+003
  2.9144054E+003
  3.1683641E+003
  3.4109569E+003
  3.6048690E+003
  3.6378044E+003
  3.6165811E+003
  4.9851154E+003
  2.9387172E+003
  4.1440988E+003
  5.2749733E+003
  4.2285262E+003
  3.3713155E+003
  2.8405722E+003
  2.5021600E+003
  2.2668009E+003
  2.0272816E+003
  1.7366609E+003
  9.0934967E+002
  3.5619184E+002
  1.0574381E+003
  1.2326989E+003
  1.1921294E+003
  1.5378048E+003
  1.8604547E+003
  2.1309926E+003
  2.3822831E+003
  2.6311059E+003
  2.8874540E+003
  3.1595597E+003
  3.4716039E+003
  3.8476566E+003
  4.2347219E+003
  4.1469125E+003
  3.0979852E+003
  1.7330475E+003
  4.0842228E+003
  4.1353178E+003
  3.2993558E+003
  2.7639334E+003
  2.4734746E+003
  2.3417247E+003
  2.2438143E+003
  2.0847762E+003
  1.7416294E+003
  1.1559044E+003
  5.7427584E+002
  9.7797115E+002
  1.1632769E+003
  1.4704971E+003
  1.8145365E+003
  2.0955266E+003
  2.3516441E+003
  2.5961209E+003
  2.8446505E+003
  3.1154763E+003
  3.4243267E+003
  3.8487396E+003
  4.5497190E+003
  3.8916031E+003
  1.8274062E+003
  7.6743129E+003
  3.3826698E+003
  2.9323409E+003
  2.1914010E+003
  1.9920325E+003
  2.0108689E+003
  2.0619951E+003
  2.0976781E+003
  2.0404784E+003
  1.8460800E+003
  1.5272477E+003
  1.0003680E+003
  6.8538601E+002
  3.2121548E+002
  5.2767158E+002
  2.3278043E+002
  7.2773090E+002
  1.2482458E+003
  1.5355933E+003
  1.8249375E+003
  2.0933135E+003
  2.3385476E+003
  2.5732720E+003
  2.8122990E+003
  3.0575704E+003
  3.3599895E+003
  3.5935211E+003
  4.2398492E+003
  5.3541991E+003
  3.1544606E+003
  3.8825728E+003
  3.5651228E+003
  1.1471839E+003
  1.4260024E+003
  1.4578003E+003
  1.6157372E+003
  1.8033172E+003
  1.9228437E+003
  1.9620544E+003
  1.9105621E+003
  1.7224433E+003
  1.6162191E+003
  1.1421240E+003
  1.1575883E+003
  2.8855566E+002
  3.7319064E+002
  8.8877652E+002
  1.3026009E+003
  1.6183472E+003
  1.8801629E+003
  2.1245757E+003
  2.3560351E+003
  2.5824109E+003
  2.8167541E+003
  3.0692508E+003
  3.3746661E+003
  3.7422168E+003
  4.5812629E+003
  7.2026288E+003
  4.4159633E+003
  1.1622555E+003
  1.5064378E+003
  1.6653540E+003
  1.0551218E+003
  1.0051169E+003
  1.1698781E+003
  1.3835484E+003
  1.5894635E+003
  1.7525135E+003
  1.8527790E+003
  1.8833085E+003
  1.8645219E+003
  1.8109941E+003
  1.8056804E+003
  2.1944537E+003
  2.9215447E+002
  4.0871313E+002
  5.8826828E+002
  1.0320146E+003
  1.3989084E+003
  1.7016943E+003
  1.9557897E+003
  2.1855674E+003
  2.4062721E+003
  2.6295957E+003
  2.8701645E+003
  3.1532923E+003
  3.5116361E+003
  4.0606116E+003
  4.9958458E+003
  5.3317160E+003
  2.3066549E+003
  2.0794323E+003
  1.3491680E+003
  8.7786072E+002
  8.5772294E+002
  1.0127232E+003
  1.2116577E+003
  1.4130083E+003
  1.5831201E+003
  1.7100070E+003
  1.7877236E+003
  1.8280163E+003
  1.8124912E+003
  1.8287313E+003
  1.7817325E+003
  2.9869513E+003
  2.4145310E+003
  6.2222320E+002
  7.2211673E+002
  5.9772191E+002
  8.5164760E+002
  1.2040537E+003
  1.5300451E+003
  1.8074018E+003
  2.0493986E+003
  2.2701342E+003
  2.4840313E+003
  2.7054026E+003
  2.9529718E+003
  3.2537972E+003
  3.6513899E+003
  4.1972096E+003
  4.7632139E+003
  5.2696204E+003
  1.6845432E+003
  1.2388235E+003
  6.0424597E+002
  6.0970085E+002
  6.9960251E+002
  8.6037335E+002
  1.0560507E+003
  1.2452956E+003
  1.4124628E+003
  1.5453166E+003
  1.6391605E+003
  1.6955822E+003
  1.7060596E+003
  1.7486090E+003
  1.7155858E+003
  2.2033401E+003
  2.2714094E+003
  2.3051806E+003
  3.0531159E+003
  1.4998785E+003
  9.4325713E+002
  1.1457903E+003
  8.6716511E+002
  8.6578525E+002
  1.0888788E+003
  1.3934317E+003
  1.6786248E+003
  1.9331989E+003
  2.1609589E+003
  2.3725517E+003
  2.5795264E+003
  2.7950139E+003
  3.0355974E+003
  3.3258482E+003
  3.6992075E+003
  4.1525909E+003
  4.6635050E+003
  5.0101213E+003
  3.3281212E+002
  4.2781245E+002
  4.5883779E+002
  4.8038636E+002
  5.5394693E+002
  7.1602293E+002
  9.0411998E+002
  1.0856235E+003
  1.2443593E+003
  1.3729504E+003
  1.4677761E+003
  1.5279699E+003
  1.5620782E+003
  1.5792035E+003
  1.6376964E+003
  1.9041729E+003
  2.2275385E+003
  2.5285242E+003
  2.6330047E+003
  2.2909416E+003
  3.7435697E+003
  2.2294887E+003
  1.5769559E+003
  2.0679856E+003
  1.1491687E+003
  1.1304277E+003
  1.1366668E+003
  1.3469510E+003
  1.5928070E+003
  1.8414241E+003
  2.0717742E+003
  2.2845581E+003
  2.4856831E+003
  2.6834734E+003
  2.8870425E+003
  3.1074159E+003
  3.3574223E+003
  3.6607038E+003
  4.0614051E+003
  4.5182298E+003
  4.9585283E+003
  1.3092606E+003
  9.2059062E+002
  5.3592445E+002
  4.1806299E+002
  4.5145778E+002
  5.9683632E+002
  7.7369844E+002
  9.4223973E+002
  1.0883341E+003
  1.2067149E+003
  1.2956652E+003
  1.3570959E+003
  1.3972660E+003
  1.4368403E+003
  1.5256313E+003
  1.7017143E+003
  1.8591470E+003
  2.1520418E+003
  2.4392837E+003
  2.4553651E+003
  2.8014575E+003
  4.4805460E+003
  2.9916004E+003
  2.8866717E+003
  3.0039758E+003
  2.4925696E+003
  2.9259640E+003
  1.3758157E+003
  3.9972559E+003
  2.3955153E+003
  1.6208825E+003
  2.7264564E+003
  1.8340140E+003
  1.7950147E+003
  1.5072503E+003
  1.2374219E+003
  1.3025628E+003
  1.3975993E+003
  1.5769841E+003
  1.7896289E+003
  2.0062738E+003
  2.2144433E+003
  2.4117520E+003
  2.6012369E+003
  2.7879239E+003
  2.9773297E+003
  3.1726973E+003
  3.3774759E+003
  3.5899132E+003
  3.8641201E+003
  4.4388861E+003
  4.7445271E+003
  1.5573948E+003
  1.7044407E+003
  1.3603937E+003
  9.5350651E+002
  5.8628818E+002
  4.1167843E+002
  4.0652589E+002
  5.2451051E+002
  6.7739615E+002
  8.2414852E+002
  9.5174918E+002
  1.0555461E+003
  1.1348302E+003
  1.1920590E+003
  1.2350616E+003
  1.2807970E+003
  1.3504423E+003
  1.4472572E+003
  1.5924084E+003
  1.7450390E+003
  1.7858995E+003
  1.8202798E+003
  2.2257840E+003
  2.6741368E+003
  3.0859325E+003
  3.2607883E+003
  2.9986074E+003
  3.2368114E+003
  5.2762436E+003
  3.4311042E+003
  3.6361070E+003
  3.0837216E+003
  3.2988544E+003
  2.8144416E+003
  2.7815859E+003
  2.5279159E+003
  2.3942241E+003
  2.2886472E+003
  2.0929092E+003
  2.1316359E+003
  1.9318497E+003
  2.0922718E+003
  1.8988619E+003
  2.1075548E+003
  2.0393592E+003
  2.2352420E+003
  2.1521196E+003
  2.0675927E+003
  3.2508308E+003
  1.7726649E+003
  1.6959431E+003
  1.4090540E+003
  1.3270183E+003
  1.4555413E+003
  1.6030901E+003
  1.7780003E+003
  1.9686489E+003
  2.1622905E+003
  2.3512699E+003
  2.5335562E+003
  2.7105278E+003
  2.8854587E+003
  3.0609762E+003
  3.2401953E+003
  3.4119900E+003
  3.5804002E+003
  3.6611380E+003
  3.9417448E+003
  5.5918786E+003
  1.5416417E+003
  1.0296109E+003
  7.0800510E+002
  6.1003378E+002
  4.5294139E+002
  4.2446863E+002
  5.0046181E+002
  6.1521817E+002
  7.3234600E+002
  8.3677953E+002
  9.2308358E+002
  9.8980613E+002
  1.0389519E+003
  1.0765560E+003
  1.1122302E+003
  1.1554999E+003
  1.2153179E+003
  1.2841564E+003
  1.3455021E+003
  1.4119808E+003
  1.5622522E+003
  1.8211041E+003
  2.1977602E+003
  2.5329028E+003
  2.5928226E+003
  2.4288378E+003
  2.6282836E+003
  2.8900578E+003
  2.9352897E+003
  2.8086135E+003
  2.6069956E+003
  2.3732304E+003
  2.2015359E+003
  2.1005918E+003
  2.0537154E+003
  1.9160043E+003
  1.6518582E+003
  1.4023721E+003
  1.4158814E+003
  1.4374996E+003
  1.4697929E+003
  1.6007140E+003
  1.7703965E+003
  1.9454383E+003
  2.1236844E+003
  2.3007996E+003
  2.4738082E+003
  2.6417565E+003
  2.8055380E+003
  2.9672061E+003
  3.1298839E+003
  3.2960850E+003
  3.4674067E+003
  3.6373522E+003
  3.7283468E+003
  3.7672812E+003
  3.6336721E+003
  2.8229956E+002
  3.1067513E+002
  6.6143540E+002
  5.9478092E+002
  4.9757351E+002
  4.6062848E+002
  4.9827792E+002
  5.7442090E+002
  6.6020703E+002
  7.4088238E+002
  8.0922585E+002
  8.6239175E+002
  9.0077649E+002
  9.2755578E+002
  9.4773261E+002
  9.6679834E+002
  9.8734488E+002
  1.0104463E+003
  1.0402105E+003
  1.0944557E+003
  1.2060673E+003
  1.4215518E+003
  1.7066068E+003
  1.9594405E+003
  2.0849655E+003
  2.1538992E+003
  2.2893381E+003
  2.5130976E+003
  2.6445436E+003
  2.6993478E+003
  2.6816738E+003
  2.4587848E+003
  2.1463200E+003
  2.1129911E+003
  1.9705771E+003
  1.7012789E+003
  1.4938093E+003
  1.3787200E+003
  1.3741722E+003
  1.4635345E+003
  1.5890013E+003
  1.7414905E+003
  1.9119620E+003
  2.0843897E+003
  2.2528986E+003
  2.4169223E+003
  2.5760719E+003
  2.7302939E+003
  2.8799550E+003
  3.0261371E+003
  3.1710425E+003
  3.3197669E+003
  3.4812356E+003
  3.6681615E+003
  3.9061443E+003
  4.0192834E+003
  2.6132115E+003
  5.9092798E+002
  2.0324622E+003
  1.9652867E+003
  1.2304095E+003
  7.9896404E+002
  6.1519064E+002
  5.1001342E+002
  4.7437001E+002
  4.8998326E+002
  5.3817277E+002
  5.9894293E+002
  6.5966193E+002
  7.1244181E+002
  7.5325706E+002
  7.8089921E+002
  7.9629159E+002
  8.0164733E+002
  7.9931991E+002
  7.9157731E+002
  7.8170095E+002
  7.7817331E+002
  7.9771718E+002
  8.6712936E+002
  1.0087364E+003
  1.2192263E+003
  1.4438288E+003
  1.6102141E+003
  1.7058090E+003
  1.8303881E+003
  2.0845021E+003
  2.2676878E+003
  2.4959344E+003
  2.9730502E+003
  2.8418621E+003
  2.5268344E+003
  2.4103615E+003
  1.9343858E+003
  1.5895451E+003
  1.4435463E+003
  1.3823363E+003
  1.4230870E+003
  1.5391775E+003
  1.6949247E+003
  1.8639136E+003
  2.0336447E+003
  2.1984383E+003
  2.3563942E+003
  2.5081274E+003
  2.6545287E+003
  2.7957164E+003
  2.9310901E+003
  3.0595532E+003
  3.1808466E+003
  3.2958466E+003
  3.4137196E+003
  3.5414681E+003
  3.7131810E+003
  3.7948611E+003
  2.5336685E+003
  5.7605396E+002
  1.7416796E+003
  1.3810232E+003
  8.1532100E+002
  5.6156901E+002
  4.7540074E+002
  4.4860169E+002
  4.6165395E+002
  4.9660613E+002
  5.4260679E+002
  5.8980925E+002
  6.3134975E+002
  6.6294191E+002
  6.8255387E+002
  6.8977897E+002
  6.8514378E+002
  6.6955518E+002
  6.4421851E+002
  6.1160740E+002
  5.7651693E+002
  5.4802897E+002
  5.4306277E+002
  5.9478069E+002
  7.4236089E+002
  9.3809621E+002
  1.1085077E+003
  1.1375658E+003
  1.0587423E+003
  1.0633158E+003
  1.6989802E+003
  2.9594727E+003
  2.8511418E+003
  4.3748136E+003
  3.6096871E+003
  2.4428272E+003
  2.0868198E+003
  1.5686318E+003
  1.4932867E+003
  1.4161039E+003
  1.4818441E+003
  1.6232021E+003
  1.7966828E+003
  1.9709563E+003
  2.1353915E+003
  2.2888642E+003
  2.4338625E+003
  2.5728329E+003
  2.7072088E+003
  2.8368269E+003
  2.9595638E+003
  3.0718361E+003
  3.1675696E+003
  3.2445291E+003
  3.2873324E+003
  3.3270241E+003
  3.2270739E+003
  3.2636459E+003
  3.2786924E+003
  1.8201740E+003
  8.3314698E+002
  6.0876013E+002
  5.9951981E+002
  4.0175174E+002
  3.8363497E+002
  3.8974377E+002
  4.1525877E+002
  4.4994754E+002
  4.9023545E+002
  5.3027217E+002
  5.6527111E+002
  5.9174574E+002
  6.0776360E+002
  6.1260409E+002
  6.0636962E+002
  5.8962347E+002
  5.6322024E+002
  5.2799181E+002
  4.8409713E+002
  4.2887892E+002
  3.5902873E+002
  2.7939067E+002
  2.5938170E+002
  4.4484212E+002
  5.3566894E+002
  5.2171728E+002
  1.5729101E+002
  1.9055676E+002
  8.4161892E+002
  2.0825611E+003
  2.2484091E+003
  2.7210842E+003
  1.6092766E+003
  1.5597255E+003
  1.4092450E+003
  1.5231735E+003
  1.7001242E+003
  1.8930675E+003
  2.0654124E+003
  2.2168638E+003
  2.3543367E+003
  2.4838847E+003
  2.6093969E+003
  2.7326916E+003
  2.8531981E+003
  2.9676261E+003
  3.0695160E+003
  3.1496166E+003
  3.1956966E+003
  3.1978163E+003
  3.1485571E+003
  3.0679431E+003
  3.1875173E+003
  4.5748813E+003
  4.4859033E+002
  2.7594454E+002
  3.0098190E+002
  2.4652202E+002
  2.8150302E+002
  3.2751066E+002
  3.6687596E+002
  4.0594589E+002
  4.4477451E+002
  4.8165216E+002
  5.1382607E+002
  5.3915204E+002
  5.5642513E+002
  5.6545045E+002
  5.6691080E+002
  5.6221770E+002
  5.5323212E+002
  5.4178194E+002
  5.2797406E+002
  5.0963551E+002
  4.7684502E+002
  4.2499232E+002
  3.2690208E+002
  2.2989622E+002
  7.6427459E+002
  7.3356063E+002
  2.1064313E+003
  1.7161044E+003
  1.4405023E+003
  1.3606519E+003
  1.5291658E+003
  1.7765914E+003
  1.9879174E+003
  2.1445870E+003
  2.2745750E+003
  2.3918344E+003
  2.5041228E+003
  2.6159531E+003
  2.7293872E+003
  2.8438636E+003
  2.9556037E+003
  3.0568766E+003
  3.1357726E+003
  3.1770730E+003
  3.1694228E+003
  3.1144238E+003
  3.0958457E+003
  3.2885862E+003
  3.3620026E+003
  3.1294181E+002
  3.9469837E+002
  4.2442276E+002
  3.0011580E+002
  2.7721139E+002
  3.0446148E+002
  3.3831105E+002
  3.7417661E+002
  4.1019011E+002
  4.4477685E+002
  4.7624379E+002
  5.0337219E+002
  5.2578185E+002
  5.4405322E+002
  5.5972702E+002
  5.7516808E+002
  5.9323721E+002
  6.1646256E+002
  6.4627987E+002
  6.7986960E+002
  7.1505592E+002
  7.1922135E+002
  7.1759876E+002
  5.1617759E+002
  8.5723035E+002
  1.5164153E+003
  1.3847788E+003
  1.2419934E+003
  1.5261851E+003
  1.8915048E+003
  2.0725917E+003
  2.1978406E+003
  2.3015538E+003
  2.3974810E+003
  2.4924765E+003
  2.5910876E+003
  2.6957646E+003
  2.8066682E+003
  2.9207204E+003
  3.0304227E+003
  3.1231177E+003
  3.1811861E+003
  3.1883616E+003
  3.1385293E+003
  3.0764365E+003
  2.9837272E+003
  3.0942484E+003
  9.8088771E+002
  7.7189843E+002
  7.4517006E+002
  4.5167648E+002
  3.6803660E+002
  3.3283295E+002
  3.3816385E+002
  3.5962888E+002
  3.8826444E+002
  4.1953277E+002
  4.5093404E+002
  4.8138858E+002
  5.1088895E+002
  5.4045740E+002
  5.7201980E+002
  6.0816829E+002
  6.5174663E+002
  7.0512311E+002
  7.6953587E+002
  8.4298704E+002
  9.1982864E+002
  9.7260191E+002
  9.5059993E+002
  5.5157540E+002
  2.5166533E+002
  1.1976076E+003
  1.2095872E+003
  1.7099611E+003
  2.0000022E+003
  2.1105310E+003
  2.2084225E+003
  2.2907401E+003
  2.3690253E+003
  2.4489523E+003
  2.5352774E+003
  2.6314901E+003
  2.7393645E+003
  2.8577600E+003
  2.9809425E+003
  3.0969202E+003
  3.1852935E+003
  3.2193573E+003
  3.1621179E+003
  2.9950508E+003
  2.7295302E+003
  2.6291672E+003
  1.6989027E+003
  1.2853714E+003
  8.0688884E+002
  5.6792908E+002
  4.4430590E+002
  3.7745956E+002
  3.5485641E+002
  3.5850823E+002
  3.7734240E+002
  4.0422657E+002
  4.3545607E+002
  4.6940864E+002
  5.0592563E+002
  5.4592657E+002
  5.9112315E+002
  6.4369949E+002
  7.0589361E+002
  7.7952128E+002
  8.6523092E+002
  9.6146943E+002
  1.0615420E+003
  1.1419961E+003
  1.1559555E+003
  8.0394457E+002
  1.5765643E+002
  1.2283516E+003
  1.5275969E+003
  2.0051040E+003
  2.0512240E+003
  2.1717657E+003
  2.2397674E+003
  2.3095977E+003
  2.3774667E+003
  2.4525502E+003
  2.5391852E+003
  2.6417853E+003
  2.7622745E+003
  2.8979446E+003
  3.0389021E+003
  3.1638030E+003
  3.2350361E+003
  3.1850757E+003
  2.9586710E+003
  2.4487025E+003
  2.1372703E+003
  1.3490772E+003
  8.6362171E+002
  6.5266157E+002
  5.7771353E+002
  4.7285212E+002
  4.0625218E+002
  3.7047197E+002
  3.6222873E+002
  3.7287568E+002
  3.9574422E+002
  4.2663084E+002
  4.6339487E+002
  5.0544378E+002
  5.5324054E+002
  6.0794006E+002
  6.7100759E+002
  7.4394632E+002
  8.2750287E+002
  9.2243062E+002
  1.0235397E+003
  1.1357047E+003
  1.2051659E+003
  1.3385168E+003
  1.1231575E+003
  1.3275390E+003
  1.4206671E+003
  1.3912175E+003
  1.7533284E+003
  1.9795702E+003
  2.0820360E+003
  2.1639901E+003
  2.2267616E+003
  2.2872592E+003
  2.3512823E+003
  2.4260856E+003
  2.5183538E+003
  2.6342502E+003
  2.7756823E+003
  2.9350755E+003
  3.0924867E+003
  3.2112462E+003
  3.1914010E+003
  2.9229949E+003
  2.2223952E+003
  1.5723889E+003
  2.1648237E+002
  1.7312282E+002
  5.1372531E+002
  5.2419868E+002
  4.6691982E+002
  4.0926464E+002
  3.7463000E+002
  3.6275469E+002
  3.6954434E+002
  3.9014383E+002
  4.2087160E+002
  4.5949240E+002
  5.0503521E+002
  5.5744454E+002
  6.1722440E+002
  6.8510490E+002
  7.6164577E+002
  8.4694891E+002
  9.3952121E+002
  1.0372592E+003
  1.1290373E+003
  1.2160385E+003
  1.2432566E+003
  1.2917611E+003
  1.7863710E+003
  8.4631232E+002
  5.9222732E+002
  1.4102090E+003
  1.5791842E+003
  1.6973728E+003
  1.8780012E+003
  1.9934475E+003
  2.0730858E+003
  2.1357572E+003
  2.1902014E+003
  2.2441396E+003
  2.3045959E+003
  2.3801793E+003
  2.4811029E+003
  2.6170709E+003
  2.7862323E+003
  2.9594329E+003
  3.1093265E+003
  3.1759852E+003
  2.9985459E+003
  1.9394928E+003
  6.8975390E+002
  1.3226596E+003
  8.2817875E+002
  5.6327956E+002
  4.9689993E+002
  4.3415140E+002
  3.9025025E+002
  3.6349711E+002
  3.5536553E+002
  3.6295353E+002
  3.8364472E+002
  4.1477034E+002
  4.5444518E+002
  5.0155980E+002
  5.5566682E+002
  6.1671549E+002
  6.8475040E+002
  7.5957871E+002
  8.4028520E+002
  9.2478534E+002
  1.0082974E+003
  1.0837727E+003
  1.1350624E+003
  1.1456039E+003
  1.1119030E+003
  1.3527435E+003
  1.6523095E+003
  1.7474680E+003
  2.1042325E+003
  1.7111622E+003
  1.7943750E+003
  1.7130768E+003
  1.8215993E+003
  1.9083088E+003
  1.9871107E+003
  2.0483146E+003
  2.0998102E+003
  2.1454919E+003
  2.1914058E+003
  2.2456202E+003
  2.3207923E+003
  2.4341073E+003
  2.6058549E+003
  2.8085207E+003
  2.9269367E+003
  2.9344155E+003
  2.5855821E+003
  1.7265206E+003
  7.9396188E+002
  1.1532444E+003
  9.1273852E+002
  5.8093545E+002
  4.3140701E+002
  3.7938668E+002
  3.4972134E+002
  3.3793451E+002
  3.3837502E+002
  3.5067445E+002
  3.7358653E+002
  4.0580542E+002
  4.4600364E+002
  4.9319377E+002
  5.4673016E+002
  6.0617714E+002
  6.7107725E+002
  7.4064900E+002
  8.1342159E+002
  8.8668146E+002
  9.5600834E+002
  1.0144152E+003
  1.0540302E+003
  1.0770116E+003
  1.1685590E+003
  1.3649420E+003
  1.5541880E+003
  1.6844529E+003
  1.6744338E+003
  2.3904558E+003
  1.7066927E+003
  1.6466518E+003
  1.7121921E+003
  1.7589461E+003
  1.8393316E+003
  1.9120681E+003
  1.9752807E+003
  2.0266132E+003
  2.0684325E+003
  2.1038244E+003
  2.1384557E+003
  2.1822006E+003
  2.2576031E+003
  2.3956061E+003
  2.6862159E+003
  2.9510993E+003
  3.1322723E+003
  3.7081648E+003
  2.4092573E+003
  5.2115599E+002
  4.0649847E+002
  4.2427993E+002
  3.0733575E+002
  2.9565583E+002
  2.9362958E+002
  3.0102015E+002
  3.1331637E+002
  3.3251282E+002
  3.5905174E+002
  3.9282826E+002
  4.3317983E+002
  4.7938342E+002
  5.3077284E+002
  5.8671515E+002
  6.4646168E+002
  7.0893909E+002
  7.7249276E+002
  8.3465973E+002
  8.9209518E+002
  9.4141902E+002
  9.8306809E+002
  1.0349985E+003
  1.1242833E+003
  1.2692644E+003
  1.4459140E+003
  1.6424263E+003
  1.8065657E+003
  1.7818036E+003
  1.3026619E+003
  2.0976347E+003
  1.9403279E+003
  1.8091155E+003
  1.5790372E+003
  1.6459926E+003
  1.7036000E+003
  1.7811833E+003
  1.8557222E+003
  1.9221756E+003
  1.9771334E+003
  2.0206878E+003
  2.0540794E+003
  2.0796352E+003
  2.1025025E+003
  2.1352914E+003
  2.2161085E+003
  2.4365412E+003
  3.1237167E+003
  3.3517199E+003
  3.0926306E+003
  2.7598545E+002
  1.7105706E+002
  1.9203995E+002
  1.7568995E+002
  2.0227205E+002
  2.3480263E+002
  2.6009740E+002
  2.8427523E+002
  3.1044279E+002
  3.4084256E+002
  3.7612579E+002
  4.1621840E+002
  4.6067425E+002
  5.0891385E+002
  5.6025814E+002
  6.1386800E+002
  6.6863679E+002
  7.2310084E+002
  7.7546989E+002
  8.2404443E+002
  8.6860672E+002
  9.1387573E+002
  9.7134672E+002
  1.0575141E+003
  1.1790025E+003
  1.3329266E+003
  1.5118786E+003
  1.7648174E+003
  2.0695125E+003
  1.9451404E+003
  2.7823319E+003
  1.9512533E+003
  1.6768088E+003
  1.5997796E+003
  1.5969325E+003
  1.6671417E+003
  1.7443378E+003
  1.8221444E+003
  1.8922773E+003
  1.9525335E+003
  2.0024295E+003
  2.0432292E+003
  2.0752057E+003
  2.1044563E+003
  2.1207000E+003
  2.1930554E+003
  2.2076993E+003
  3.0007033E+003
  4.6998376E+003
  2.7838622E+003
  1.7389243E+002
  2.1551347E+002
  2.1249611E+002
  1.3792506E+002
  1.5325995E+002
  1.9154308E+002
  2.2559427E+002
  2.5663040E+002
  2.8774071E+002
  3.2090815E+002
  3.5704605E+002
  3.9630409E+002
  4.3842888E+002
  4.8294164E+002
  5.2920889E+002
  5.7644016E+002
  6.2367295E+002
  6.6981058E+002
  7.1382085E+002
  7.5528410E+002
  7.9549758E+002
  8.3872904E+002
  8.9235146E+002
  9.6447916E+002
  1.0583733E+003
  1.1806550E+003
  1.3163040E+003
  1.5591781E+003
  1.6811187E+003
  2.6899941E+003
  2.5554514E+003
  2.3087267E+003
  2.1164551E+003
  1.6872620E+003
  1.5688289E+003
  1.5535629E+003
  1.5724318E+003
  1.6037418E+003
  1.6639733E+003
  1.7391796E+003
  1.8149406E+003
  1.8858204E+003
  1.9495981E+003
  2.0067682E+003
  2.0592704E+003
  2.1107212E+003
  2.1637019E+003
  2.2287778E+003
  2.3048117E+003
  2.4779664E+003
  2.9734336E+003
  6.0581788E+003
  5.4310526E+002
  4.1042894E+002
  3.7791087E+002
  2.0801049E+002
  1.7176221E+002
  1.7823701E+002
  2.0425686E+002
  2.3506017E+002
  2.6743411E+002
  3.0150048E+002
  3.3740129E+002
  3.7515443E+002
  4.1451233E+002
  4.5505652E+002
  4.9622810E+002
  5.3735598E+002
  5.7769565E+002
  6.1653273E+002
  6.5341604E+002
  6.8858670E+002
  7.2351841E+002
  7.6129185E+002
  8.0601257E+002
  8.6153204E+002
  9.2849524E+002
  1.0071718E+003
  1.0850526E+003
  1.1806083E+003
  1.1182162E+003
  1.4756608E+003
  1.5801310E+003
  2.6817233E+003
  1.3451201E+003
  1.0488061E+003
  1.1027733E+003
  7.5396219E+002
  1.4872144E+003
  1.0475116E+003
  1.9667455E+003
  1.8714956E+003
  1.7627313E+003
  1.6438459E+003
  1.6302664E+003
  1.6571470E+003
  1.7060250E+003
  1.7681039E+003
  1.8346956E+003
  1.8999790E+003
  1.9621800E+003
  2.0224080E+003
  2.0839367E+003
  2.1529434E+003
  2.2350065E+003
  2.3484833E+003
  2.4797278E+003
  2.7413384E+003
  2.9786304E+003
  2.7898630E+003
  8.7933485E+002
  6.7129819E+002
  4.0075057E+002
  2.6627579E+002
  2.0153145E+002
  1.8332558E+002
  1.9545814E+002
  2.2069850E+002
  2.5130624E+002
  2.8438655E+002
  3.1899250E+002
  3.5466957E+002
  3.9104349E+002
  4.2769247E+002
  4.6412967E+002
  4.9982309E+002
  5.3425260E+002
  5.6702217E+002
  5.9804810E+002
  6.2780684E+002
  6.5754815E+002
  6.8924336E+002
  7.2507003E+002
  7.6630298E+002
  8.1247533E+002
  8.5989281E+002
  9.0473571E+002
  9.3275976E+002
  1.0342485E+003
  1.2971047E+003
  1.7105202E+003
  1.7800381E+003
  1.8959484E+003
  2.1526951E+003
  2.1652164E+003
  2.0534425E+003
  1.9167998E+003
  1.8199169E+003
  1.7652049E+003
  1.7599118E+003
  1.7848352E+003
  1.8265688E+003
  1.8764758E+003
  1.9291509E+003
  1.9826011E+003
  2.0379757E+003
  2.0991529E+003
  2.1725065E+003
  2.2670693E+003
  2.3929557E+003
  2.5563221E+003
  2.7387655E+003
  2.7336226E+003
  1.8433238E+003
  5.7987092E+002
  1.5890669E+003
  6.5587765E+002
  4.2109162E+002
  3.1961506E+002
  2.6147999E+002
  2.0975287E+002
  1.8814854E+002
  1.9214917E+002
  2.1197591E+002
  2.3962289E+002
  2.7071544E+002
  3.0340029E+002
  3.3676017E+002
  3.7024512E+002
  4.0340466E+002
  4.3581756E+002
  4.6709199E+002
  4.9691658E+002
  5.2515349E+002
  5.5196573E+002
  5.7794559E+002
  6.0416851E+002
  6.3207441E+002
  6.6311629E+002
  6.9834812E+002
  7.3823669E+002
  7.8402619E+002
  8.4087214E+002
  9.3808624E+002
  1.1242018E+003
  1.4187058E+003
  1.6642418E+003
  1.9161057E+003
  2.0931799E+003
  2.1954103E+003
  2.2554554E+003
  2.1967650E+003
  2.0856131E+003
  1.9826687E+003
  1.9159995E+003
  1.8855275E+003
  1.8846206E+003
  1.9027399E+003
  1.9315250E+003
  1.9657541E+003
  2.0032807E+003
  2.0448194E+003
  2.0934822E+003
  2.1544536E+003
  2.2339532E+003
  2.3380480E+003
  2.4606817E+003
  2.5348128E+003
  2.3285620E+003
  1.6566938E+003
  9.1758552E+002
  9.5514100E+001
  6.8915638E+001
  2.1635830E+002
  2.2137962E+002
  1.9967150E+002
  1.8564808E+002
  1.8934966E+002
  2.0682658E+002
  2.3216467E+002
  2.6130023E+002
  2.9205520E+002
  3.2328885E+002
  3.5433548E+002
  3.8473875E+002
  4.1415219E+002
  4.4232734E+002
  4.6915246E+002
  4.9472353E+002
  5.1943026E+002
  5.4402961E+002
  5.6967043E+002
  5.9784652E+002
  6.3032969E+002
  6.6926145E+002
  7.1785150E+002
  7.8210833E+002
  8.7504256E+002
  1.0167128E+003
  1.2214461E+003
  1.4668879E+003
  1.7357720E+003
  1.9552857E+003
  2.1312358E+003
  2.2505886E+003
  2.2846114E+003
  2.2581489E+003
  2.1901808E+003
  2.1124861E+003
  2.0482605E+003
  2.0069736E+003
  1.9872190E+003
  1.9835459E+003
  1.9899483E+003
  2.0021226E+003
  2.0181336E+003
  2.0382457E+003
  2.0643594E+003
  2.0988879E+003
  2.1441464E+003
  2.1983419E+003
  2.2534563E+003
  2.2669502E+003
  2.1001449E+003
  1.5109577E+003
  8.8411402E+002
  5.0103196E+002
  3.0180980E+002
  1.9454158E+002
  1.9416089E+002
  1.8182096E+002
  1.7891834E+002
  1.8652949E+002
  2.0463722E+002
  2.2910083E+002
  2.5697186E+002
  2.8629606E+002
  3.1597070E+002
  3.4533233E+002
  3.7396871E+002
  4.0162962E+002
  4.2821617E+002
  4.5381176E+002
  4.7873799E+002
  5.0361947E+002
  5.2944207E+002
  5.5759460E+002
  5.8990811E+002
  6.2875486E+002
  6.7733897E+002
  7.4030076E+002
  8.2468796E+002
  9.3996197E+002
  1.0947566E+003
  1.2890320E+003
  1.5125236E+003
  1.7350536E+003
  1.9422227E+003
  2.1080667E+003
  2.2207428E+003
  2.2801168E+003
  2.2851686E+003
  2.2529838E+003
  2.2031534E+003
  2.1525475E+003
  2.1106458E+003
  2.0799961E+003
  2.0587602E+003
  2.0437216E+003
  2.0322667E+003
  2.0233405E+003
  2.0174181E+003
  2.0155639E+003
  2.0181992E+003
  2.0224960E+003
  2.0233594E+003
  2.0057300E+003
  1.9693833E+003
  1.9463355E+003
  1.4111674E+003
  5.2181248E+002
  3.7743939E+002
  2.8789004E+002
  2.0149527E+002
  1.6645423E+002
  1.6706336E+002
  1.7179185E+002
  1.8577209E+002
  2.0608627E+002
  2.3105299E+002
  2.5854945E+002
  2.8720328E+002
  3.1610476E+002
  3.4470232E+002
  3.7267338E+002
  3.9988046E+002
  4.2636941E+002
  4.5239881E+002
  4.7848507E+002
  5.0545350E+002
  5.3448779E+002
  5.6717812E+002
  6.0558275E+002
  6.5233553E+002
  7.1082476E+002
  7.8540819E+002
  8.8133749E+002
  1.0037800E+003
  1.1554115E+003
  1.3338225E+003
  1.5287381E+003
  1.7272433E+003
  1.9101397E+003
  2.0651175E+003
  2.1819013E+003
  2.2544829E+003
  2.2864279E+003
  2.2852772E+003
  2.2626049E+003
  2.2293670E+003
  2.1932169E+003
  2.1576186E+003
  2.1229228E+003
  2.0881738E+003
  2.0527521E+003
  2.0173031E+003
  1.9835845E+003
  1.9536186E+003
  1.9266843E+003
  1.9005666E+003
  1.8582612E+003
  1.8111225E+003
  1.6793508E+003
  1.6879914E+003
  1.8589350E+003
  1.0453928E+003
  1.3453070E+002
  1.2695183E+002
  1.5571773E+002
  1.4180818E+002
  1.5392842E+002
  1.6854224E+002
  1.8859386E+002
  2.1215428E+002
  2.3849857E+002
  2.6647714E+002
  2.9525602E+002
  3.2422217E+002
  3.5298417E+002
  3.8133260E+002
  4.0923753E+002
  4.3686326E+002
  4.6459660E+002
  4.9308140E+002
  5.2325421E+002
  5.5637811E+002
  5.9407532E+002
  6.3836361E+002
  6.9169884E+002
  7.5700274E+002
  8.3758293E+002
  9.3676495E+002
  1.0570373E+003
  1.1988020E+003
  1.3590104E+003
  1.5310962E+003
  1.7047006E+003
  1.8695448E+003
  2.0147770E+003
  2.1324667E+003
  2.2185167E+003
  2.2721444E+003
  2.2969715E+003
  2.2987912E+003
  2.2837660E+003
  2.2566331E+003
  2.2200431E+003
  2.1749971E+003
  2.1220459E+003
  2.0626148E+003
  1.9997889E+003
  1.9381928E+003
  1.8823921E+003
  1.8348996E+003
  1.7915612E+003
  1.7463464E+003
  1.6829226E+003
  1.6285889E+003
  1.6747428E+003
  2.3893995E+003
  7.6067457E+001
  4.9941273E+001
  9.3745405E+001
  1.2165938E+002
  1.4475252E+002
  1.6999085E+002
  1.9584935E+002
  2.2304992E+002
  2.5135736E+002
  2.8049611E+002
  3.1011776E+002
  3.3991599E+002
  3.6966086E+002
  3.9924437E+002
  4.2871691E+002
  4.5831733E+002
  4.8849819E+002
  5.1994781E+002
  5.5360907E+002
  5.9069397E+002
  6.3269336E+002
  6.8137934E+002
  7.3879075E+002
  8.0717167E+002
  8.8880520E+002
  9.8566900E+002
  1.0988889E+003
  1.2280618E+003
  1.3707509E+003
  1.5222298E+003
  1.6761990E+003
  1.8250827E+003
  1.9617948E+003
  2.0802042E+003
  2.1759601E+003
  2.2471975E+003
  2.2940270E+003
  2.3180469E+003
  2.3212348E+003
  2.3050717E+003
  2.2702311E+003
  2.2170795E+003
  2.1468233E+003
  2.0627768E+003
  1.9712186E+003
  1.8810374E+003
  1.8018444E+003
  1.7405739E+003
  1.6975806E+003
  1.6659169E+003
  1.6334556E+003
  1.6269938E+003
  1.6871895E+003
  1.6218186E+003
  2.3068011E+001
  1.6298651E+001
  5.9823128E+001
  1.0432188E+002
  1.4226546E+002
  1.7599006E+002
  2.0759926E+002
  2.3838037E+002
  2.6895004E+002
  2.9969763E+002
  3.3074364E+002
  3.6202159E+002
  3.9341181E+002
  4.2486431E+002
  4.5646927E+002
  4.8849401E+002
  5.2139992E+002
  5.5585025E+002
  5.9271272E+002
  6.3305743E+002
  6.7814800E+002
  7.2942126E+002
  7.8844469E+002
  8.5683210E+002
  9.3609092E+002
  1.0273820E+003
  1.1312016E+003
  1.2470554E+003
  1.3732097E+003
  1.5066850E+003
  1.6433770E+003
  1.7786180E+003
  1.9074847E+003
  2.0254282E+003
  2.1286488E+003
  2.2142153E+003
  2.2800875E+003
  2.3246794E+003
  2.3463523E+003
  2.3430567E+003
  2.3125226E+003
  2.2532262E+003
  2.1659497E+003
  2.0556337E+003
  1.9322952E+003
  1.8106617E+003
  1.7072898E+003
  1.6357084E+003
  1.6003690E+003
  1.5945037E+003
  1.5948685E+003
  1.5849244E+003
  1.4958640E+003
  1.4636648E+003
  1.5411299E+001
  1.2958408E+001
  4.5396243E+001
  1.0046319E+002
  1.4746079E+002
  1.8734066E+002
  2.2379938E+002
  2.5761982E+002
  2.9025064E+002
  3.2279611E+002
  3.5572028E+002
  3.8902152E+002
  4.2258108E+002
  4.5634145E+002
  4.9039416E+002
  5.2500238E+002
  5.6060015E+002
  5.9778359E+002
  6.3729989E+002
  6.8003379E+002
  7.2698868E+002
  7.7925751E+002
  8.3797671E+002
  9.0425353E+002
  9.7905889E+002
  1.0630851E+003
  1.1565846E+003
  1.2592213E+003
  1.3699828E+003
  1.4871668E+003
  1.6084909E+003
  1.7311987E+003
  1.8522808E+003
  1.9685865E+003
  2.0769280E+003
  2.1741101E+003
  2.2567608E+003
  2.3210258E+003
  2.3621683E+003
  2.3744191E+003
  2.3515691E+003
  2.2886067E+003
  2.1845624E+003
  2.0450036E+003
  1.8844318E+003
  1.7252449E+003
  1.5934564E+003
  1.5104735E+003
  1.4840429E+003
  1.5064404E+003
  1.5447356E+003
  1.5294520E+003
  1.3591441E+003
  1.2058431E+003
  1.2104851E+001
  1.9664273E+001
  6.0553531E+001
  1.1861986E+002
  1.6032994E+002
  2.0548814E+002
  2.4487941E+002
  2.8008638E+002
  3.1394311E+002
  3.4836628E+002
  3.8360503E+002
  4.1944588E+002
  4.5560393E+002
  4.9196180E+002
  5.2859635E+002
  5.6576014E+002
  6.0384939E+002
  6.4337827E+002
  6.8495847E+002
  7.2928077E+002
  7.7709434E+002
  8.2917984E+002
  8.8631300E+002
  9.4921610E+002
  1.0184975E+003
  1.0945839E+003
  1.1776575E+003
  1.2676107E+003
  1.3640318E+003
  1.4662237E+003
  1.5732269E+003
  1.6838470E+003
  1.7966106E+003
  1.9096910E+003
  2.0207759E+003
  2.1268958E+003
  2.2241914E+003
  2.3074975E+003
  2.3697375E+003
  2.4014755E+003
  2.3914212E+003
  2.3290853E+003
  2.2087428E+003
  2.0361994E+003
  1.8302802E+003
  1.6238373E+003
  1.4567779E+003
  1.3613964E+003
  1.3439232E+003
  1.3888770E+003
  1.4683048E+003
  1.5244504E+003
  1.3196905E+003
  9.6368117E+002
  1.6523722E+002
  1.1746449E+002
  1.3636819E+002
  1.8191529E+002
  2.3336325E+002
  2.7089005E+002
  3.0384936E+002
  3.3831142E+002
  3.7496236E+002
  4.1321323E+002
  4.5216003E+002
  4.9127353E+002
  5.3038338E+002
  5.6958945E+002
  6.0915899E+002
  6.4946261E+002
  6.9093645E+002
  7.3406027E+002
  7.7934146E+002
  8.2729954E+002
  8.7844807E+002
  9.3327315E+002
  9.9220964E+002
  1.0556181E+003
  1.1237680E+003
  1.1968339E+003
  1.2749088E+003
  1.3580362E+003
  1.4462466E+003
  1.5395787E+003
  1.6380416E+003
  1.7414911E+003
  1.8493874E+003
  1.9604710E+003
  2.0724349E+003
  2.1816441E+003
  2.2827141E+003
  2.3675574E+003
  2.4238731E+003
  2.4345844E+003
  2.3800200E+003
  2.2476921E+003
  2.0369385E+003
  1.7737614E+003
  1.5062653E+003
  1.2957974E+003
  1.1921920E+003
  1.1963146E+003
  1.2566649E+003
  1.3353621E+003
  1.4681631E+003
  1.2070903E+003
  5.2481180E+002
  1.7764306E+002
  1.3547281E+002
  1.3661519E+002
  2.3263435E+002
  2.7346788E+002
  2.9614120E+002
  3.2542150E+002
  3.6105093E+002
  4.0154159E+002
  4.4391200E+002
  4.8657325E+002
  5.2885117E+002
  5.7068871E+002
  6.1230548E+002
  6.5403508E+002
  6.9624391E+002
  7.3929979E+002
  7.8355970E+002
  8.2936428E+002
  8.7703283E+002
  9.2685720E+002
  9.7909578E+002
  1.0339702E+003
  1.0916686E+003
  1.1523595E+003
  1.2162201E+003
  1.2834798E+003
  1.3544771E+003
  1.4297188E+003
  1.5099222E+003
  1.5959995E+003
  1.6889233E+003
  1.7894078E+003
  1.8973976E+003
  2.0115061E+003
  2.1286724E+003
  2.2442178E+003
  2.3511267E+003
  2.4369757E+003
  2.4791730E+003
  2.4469220E+003
  2.3051813E+003
  2.0545857E+003
  1.7201200E+003
  1.3707230E+003
  1.1070519E+003
  1.0130297E+003
  1.0659168E+003
  1.1795851E+003
  1.2051088E+003
  1.3130737E+003
  1.5851246E+003
  9.0990045E+002
  2.0885613E+002
  1.8442221E+002
  2.7048869E+002
  3.3244368E+002
  3.0029557E+002
  3.1224586E+002
  3.3871449E+002
  3.8104505E+002
  4.2818360E+002
  4.7605556E+002
  5.2273190E+002
  5.6803856E+002
  6.1230003E+002
  6.5598952E+002
  6.9954724E+002
  7.4334435E+002
  7.8767964E+002
  8.3279064E+002
  8.7886459E+002
  9.2604693E+002
  9.7444781E+002
  1.0241495E+003
  1.0752182E+003
  1.1277240E+003
  1.1817700E+003
  1.2375337E+003
  1.2953177E+003
  1.3556122E+003
  1.4191668E+003
  1.4870663E+003
  1.5607853E+003
  1.6421508E+003
  1.7330637E+003
  1.8348312E+003
  1.9471564E+003
  2.0673990E+003
  2.1909149E+003
  2.3134655E+003
  2.4288619E+003
  2.5166152E+003
  2.5243042E+003
  2.4080726E+003
  2.1077602E+003
  1.6732269E+003
  1.2142338E+003
  8.8412094E+002
  8.3296881E+002
  9.9023255E+002
  1.1784797E+003
  1.3043885E+003
  1.3694031E+003
  1.9615634E+003
  7.1944216E+002
  4.6182038E+002
  3.6425689E+002
  2.9606373E+002
  3.0152015E+002
  3.4355938E+002
  4.0042196E+002
  4.5747996E+002
  5.1110052E+002
  5.6119541E+002
  6.0876196E+002
  6.5478718E+002
  7.0003198E+002
  7.4502714E+002
  7.9011700E+002
  8.3550769E+002
  8.8130696E+002
  9.2755395E+002
  9.7424051E+002
  1.0213283E+003
  1.0687665E+003
  1.1165139E+003
  1.1645685E+003
  1.2130031E+003
  1.2620060E+003
  1.3119221E+003
  1.3632984E+003
  1.4169435E+003
  1.4740180E+003
  1.5361703E+003
  1.6056817E+003
  1.6854583E+003
  1.7784122E+003
  1.8858658E+003
  2.0052825E+003
  2.1300758E+003
  2.2529499E+003
  2.3802696E+003
  2.5150160E+003
  2.6130678E+003
  2.4908192E+003
  2.1690815E+003
  1.6331455E+003
  1.0136984E+003
  6.2294081E+002
  6.9919580E+002
  9.7436859E+002
  1.2497085E+003
  1.5042918E+003
  1.5452403E+003
  1.2120240E+003
  5.7518179E+002
  4.6579738E+002
  2.7825999E+002
  2.3147367E+002
  2.6954778E+002
  3.5201450E+002
  4.2842443E+002
  4.9418730E+002
  5.5101644E+002
  6.0241632E+002
  6.5077519E+002
  6.9759803E+002
  7.4378651E+002
  7.8984242E+002
  8.3600231E+002
  8.8232881E+002
  9.2877590E+002
  9.7523258E+002
  1.0215524E+003
  1.0675762E+003
  1.1131566E+003
  1.1581866E+003
  1.2026359E+003
  1.2465900E+003
  1.2902846E+003
  1.3341279E+003
  1.3787097E+003
  1.4248124E+003
  1.4734676E+003
  1.5261191E+003
  1.5849420E+003
  1.6533004E+003
  1.7359478E+003
  1.8371734E+003
  1.9564463E+003
  2.0819791E+003
  2.1956586E+003
  2.2837019E+003
  2.4223013E+003
  2.6064198E+003
  2.7542549E+003
  2.3620988E+003
  1.5935461E+003
  7.6574140E+002
  3.7139639E+002
  7.0698407E+002
  1.0277935E+003
  1.2857310E+003
  1.5982523E+003
  1.4438161E+003
  7.2416499E+002
  2.1491277E+002
  1.2499600E+002
  1.3041570E+002
  1.3974050E+002
  2.7608644E+002
  3.9308130E+002
  4.7744638E+002
  5.4210071E+002
  5.9631156E+002
  6.4581789E+002
  6.9317524E+002
  7.3981484E+002
  7.8643137E+002
  8.3331092E+002
  8.8046412E+002
  9.2774402E+002
  9.7492155E+002
  1.0217331E+003
  1.0679087E+003
  1.1131940E+003
  1.1573758E+003
  1.2003168E+003
  1.2419989E+003
  1.2825686E+003
  1.3223705E+003
  1.3619528E+003
  1.4020307E+003
  1.4434214E+003
  1.4869995E+003
  1.5337890E+003
  1.5853197E+003
  1.6443877E+003
  1.7165057E+003
  1.8115205E+003
  1.9356519E+003
  2.0825509E+003
  2.2108857E+003
  2.2838708E+003
  2.1918702E+003
  2.4990284E+003
  2.1578071E+003
  1.8623070E+003
  1.3216096E+003
  2.8288515E+002
  4.7866768E+002
  8.5359002E+002
  1.1663133E+003
  1.3152568E+003
  1.4773597E+003
  1.9236701E+003
  1.1473148E+003
  3.1602592E+002
  1.2846735E+002
  1.2610389E+002
  2.4418200E+002
  3.9354972E+002
  4.8634390E+002
  5.4921711E+002
  5.9818265E+002
  6.4419165E+002
  6.8905109E+002
  7.3417261E+002
  7.8006013E+002
  8.2694587E+002
  8.7469892E+002
  9.2299119E+002
  9.7140517E+002
  1.0195115E+003
  1.0669027E+003
  1.1132071E+003
  1.1581013E+003
  1.2013327E+003
  1.2427597E+003
  1.2824060E+003
  1.3205220E+003
  1.3576314E+003
  1.3945357E+003
  1.4322453E+003
  1.4718269E+003
  1.5142192E+003
  1.5601249E+003
  1.6102620E+003
  1.6661191E+003
  1.7311955E+003
  1.8167394E+003
  1.9506473E+003
  2.1382528E+003
  2.3243591E+003
  2.5222026E+003
  2.4693703E+003
  3.1420984E+003
  2.0411170E+003
  1.3391223E+003
  2.0143799E+003
  6.1516482E+002
  7.7460394E+002
  1.0119130E+003
  1.3131254E+003
  1.6237687E+003
  1.7901516E+003
  2.3506798E+003
  1.7767758E+002
  2.2320123E+002
  5.2604227E+002
  5.9127173E+002
  6.0685874E+002
  6.2172646E+002
  6.5218403E+002
  6.8832763E+002
  7.2848850E+002
  7.7127865E+002
  8.1667136E+002
  8.6423828E+002
  9.1332393E+002
  9.6316698E+002
  1.0130553E+003
  1.0623749E+003
  1.1106091E+003
  1.1573214E+003
  1.2021486E+003
  1.2448190E+003
  1.2851984E+003
  1.3233623E+003
  1.3596842E+003
  1.3949170E+003
  1.4302295E+003
  1.4671391E+003
  1.5072964E+003
  1.5521262E+003
  1.6025392E+003
  1.6587253E+003
  1.7212700E+003
  1.7916508E+003
  1.8726008E+003
  1.9863399E+003
  2.2675728E+003
  2.6580693E+003
  2.8686973E+003
  3.0403348E+003
  3.0805657E+003
  2.0480711E+003
  8.5319584E+002
  9.4023590E+002
  1.0854243E+003
  1.3425898E+003
  1.7700450E+003
  1.8845224E+003
  9.6126841E+002
  2.3930559E+002
  7.4178814E+002
  9.1995141E+002
  7.7546396E+002
  6.7358986E+002
  6.6984419E+002
  6.9016369E+002
  7.2324115E+002
  7.6023390E+002
  8.0200377E+002
  8.4806531E+002
  8.9743334E+002
  9.4875099E+002
  1.0007943E+003
  1.0525955E+003
  1.1034325E+003
  1.1527531E+003
  1.2001111E+003
  1.2451365E+003
  1.2875491E+003
  1.3272153E+003
  1.3642424E+003
  1.3991049E+003
  1.4327832E+003
  1.4668741E+003
  1.5035915E+003
  1.5455355E+003
  1.5952029E+003
  1.6542536E+003
  1.7236679E+003
  1.8025450E+003
  1.8959504E+003
  2.0055866E+003
  2.1214350E+003
  2.2178297E+003
  2.7451132E+003
  3.2782280E+003
  3.1098007E+003
  1.0596613E+003
  6.5798546E+002
  8.8517487E+002
  1.1828372E+003
  1.3471435E+003
  1.6399788E+003
  2.3831647E+003
  1.4840887E+003
  8.4493177E+002
  1.1312903E+003
  1.2069228E+003
  7.0522645E+002
  6.5980776E+002
  6.7225483E+002
  7.1365204E+002
  7.4554253E+002
  7.8167778E+002
  8.2432413E+002
  8.7328734E+002
  9.2625857E+002
  9.8105386E+002
  1.0360342E+003
  1.0901440E+003
  1.1427113E+003
  1.1932659E+003
  1.2414208E+003
  1.2868278E+003
  1.3291956E+003
  1.3683614E+003
  1.4044115E+003
  1.4378476E+003
  1.4697957E+003
  1.5022326E+003
  1.5381382E+003
  1.5814065E+003
  1.6361433E+003
  1.7057568E+003
  1.7910879E+003
  1.8958824E+003
  2.0104972E+003
  2.1887048E+003
  2.4157467E+003
  2.8975230E+003
  4.1104120E+003
  3.6398257E+003
  5.4108913E+002
  5.2381178E+002
  8.9443713E+002
  1.1837487E+003
  1.6663772E+003
  1.9333977E+003
  2.7293181E+003
  1.1012777E+003
  7.4362167E+002
  4.1736799E+002
  5.7626667E+002
  6.8343451E+002
  7.2932645E+002
  7.5480667E+002
  7.9035449E+002
  8.3735867E+002
  8.9261294E+002
  9.5153020E+002
  1.0110588E+003
  1.0694921E+003
  1.1260341E+003
  1.1803101E+003
  1.2320722E+003
  1.2810552E+003
  1.3269427E+003
  1.3694077E+003
  1.4082074E+003
  1.4433261E+003
  1.4751741E+003
  1.5048570E+003
  1.5345231E+003
  1.5677789E+003
  1.6098912E+003
  1.6674694E+003
  1.7458808E+003
  1.8486796E+003
  1.9694408E+003
  2.1349272E+003
  2.2462722E+003
  2.6321449E+003
  2.7039386E+003
  3.0191465E+003
  3.9814977E+002
  1.8478727E+002
  2.7088830E+002
  6.2180632E+002
  8.9162098E+002
  1.1421782E+003
  1.6132108E+003
  1.8788088E+003
  9.9347617E+002
  7.2973092E+002
  9.0323713E+001
  4.2430670E+002
  7.0482839E+002
  7.4442591E+002
  7.3309704E+002
  7.4487146E+002
  7.8403500E+002
  8.4239700E+002
  9.0852952E+002
  9.7559374E+002
  1.0404367E+003
  1.1021388E+003
  1.1606896E+003
  1.2162856E+003
  1.2690077E+003
  1.3187284E+003
  1.3651336E+003
  1.4078081E+003
  1.4463596E+003
  1.4805799E+003
  1.5106534E+003
  1.5374478E+003
  1.5629405E+003
  1.5908640E+003
  1.6275398E+003
  1.6824311E+003
  1.7655941E+003
  1.8825537E+003
  2.0196332E+003
  2.1840468E+003
  2.3830515E+003
  2.6050440E+003
  3.2378121E+003
  1.5763569E+003
  1.4423318E+002
  3.1008936E+002
  6.6724285E+002
  9.7526869E+002
  1.1317612E+003
  1.4430531E+003
  2.2349815E+003
  1.4034412E+003
  1.2862335E+003
  1.0408022E+003
  1.0208643E+003
  7.5231634E+002
  6.9759864E+002
  7.0229878E+002
  7.6562779E+002
  8.4554894E+002
  9.2685539E+002
  1.0023544E+003
  1.0713829E+003
  1.1349429E+003
  1.1943341E+003
  1.2504556E+003
  1.3036989E+003
  1.3539983E+003
  1.4009529E+003
  1.4439737E+003
  1.4824409E+003
  1.5158744E+003
  1.5441308E+003
  1.5676579E+003
  1.5878995E+003
  1.6079632E+003
  1.6340528E+003
  1.6773317E+003
  1.7567011E+003
  1.8822749E+003
  2.0549687E+003
  2.1595152E+003
  2.3703196E+003
  2.2572869E+003
  2.1428881E+003
  2.5418117E+002
  5.0036492E+002
  8.1681501E+002
  1.0555088E+003
  1.3529626E+003
  1.4767067E+003
  2.3752134E+003
  2.0494000E+003
  1.4086685E+003
  9.6615017E+002
  6.3120661E+002
  5.7349909E+002
  6.3826057E+002
  7.5154024E+002
  8.6156125E+002
  9.5626258E+002
  1.0362143E+003
  1.1055857E+003
  1.1681737E+003
  1.2265650E+003
  1.2821628E+003
  1.3354463E+003
  1.3862176E+003
  1.4338352E+003
  1.4774216E+003
  1.5160511E+003
  1.5489240E+003
  1.5755386E+003
  1.5958851E+003
  1.6107002E+003
  1.6219359E+003
  1.6339209E+003
  1.6560632E+003
  1.7121291E+003
  1.8392322E+003
  2.0496996E+003
  2.2020133E+003
  2.2402689E+003
  2.6383106E+003
  1.3271034E+003
  4.9701008E+001
  1.2294274E+002
  3.5424792E+002
  6.9384829E+002
  9.2154576E+002
  1.1194533E+003
  1.3720413E+003
  1.4205147E+003
  1.1150393E+003
  2.4925479E+003
  1.1098448E+003
  4.6789833E+002
  3.6102113E+002
  4.2039597E+002
  6.1320420E+002
  7.8166206E+002
  9.0948694E+002
  1.0045096E+003
  1.0791402E+003
  1.1426175E+003
  1.2005586E+003
  1.2559502E+003
  1.3101069E+003
  1.3631774E+003
  1.4145445E+003
  1.4631264E+003
  1.5076281E+003
  1.5467468E+003
  1.5793472E+003
  1.6046200E+003
  1.6222281E+003
  1.6324384E+003
  1.6362592E+003
  1.6355059E+003
  1.6349693E+003
  1.6444398E+003
  1.7318584E+003
  1.9690649E+003
  2.3838416E+003
  2.0596267E+003
  1.6862564E+003
  3.1088990E+002
  6.2685579E+002
  8.7049695E+002
  9.9435900E+002
  1.0689347E+003
  1.1774809E+003
  1.0730807E+003
  6.0881588E+002
  1.8976989E+002
  1.0586418E+002
  1.6853084E+002
  4.8738610E+002
  7.2239455E+002
  8.9209265E+002
  9.9801971E+002
  1.0702893E+003
  1.1271936E+003
  1.1785740E+003
  1.2287826E+003
  1.2799113E+003
  1.3323795E+003
  1.3855452E+003
  1.4380552E+003
  1.4881862E+003
  1.5341061E+003
  1.5740782E+003
  1.6066332E+003
  1.6307261E+003
  1.6459260E+003
  1.6524869E+003
  1.6516890E+003
  1.6445704E+003
  1.6337086E+003
  1.6130654E+003
  1.5947947E+003
  1.7268851E+003
  2.0241546E+003
  1.8688594E+003
  8.9822808E+002
  9.8116904E+002
  8.0869409E+002
  9.8320762E+002
  1.0248366E+003
  1.0164832E+003
  9.7403379E+002
  1.2106555E+003
  6.8957436E+002
  3.3646431E+002
  2.2544751E+002
  5.3988541E+002
  7.8754155E+002
  9.8547253E+002
  1.0684395E+003
  1.1076960E+003
  1.1375065E+003
  1.1698544E+003
  1.2061490E+003
  1.2479105E+003
  1.2950943E+003
  1.3468057E+003
  1.4012136E+003
  1.4559745E+003
  1.5085662E+003
  1.5565438E+003
  1.5977078E+003
  1.6302423E+003
  1.6529118E+003
  1.6652264E+003
  1.6680637E+003
  1.6629541E+003
  1.6565792E+003
  1.6457425E+003
  1.6646485E+003
  1.6089035E+003
  1.7803845E+003
  2.7983715E+003
  2.2436151E+003
  1.1047344E+003
  9.0708048E+002
  9.7353842E+002
  1.0179779E+003
  1.0422530E+003
  9.2254760E+002
  1.1016839E+003
  1.4201303E+002
  7.1883163E+002
  1.3018285E+003
  1.3112259E+003
  1.2347833E+003
  1.1895497E+003
  1.1829852E+003
  1.1930577E+003
  1.2172054E+003
  1.2526491E+003
  1.2982647E+003
  1.3515645E+003
  1.4093171E+003
  1.4679988E+003
  1.5242321E+003
  1.5749708E+003
  1.6175682E+003
  1.6498561E+003
  1.6702727E+003
  1.6783323E+003
  1.6746198E+003
  1.6635118E+003
  1.6472992E+003
  1.6546917E+003
  1.6565750E+003
  1.8344671E+003
  1.8148010E+003
  2.6968332E+003
  6.1932191E+002
  5.5108363E+002
  9.8907280E+002
  1.1139914E+003
  1.0397313E+003
  9.8324825E+002
  8.9510323E+002
  7.0232205E+002
  2.7388492E+002
  3.0635331E+002
  1.8644843E+003
  1.9546785E+003
  1.5049993E+003
  1.2671937E+003
  1.2096805E+003
  1.1857785E+003
  1.1882733E+003
  1.2053756E+003
  1.2391592E+003
  1.2873740E+003
  1.3459968E+003
  1.4100092E+003
  1.4746408E+003
  1.5357572E+003
  1.5898688E+003
  1.6339914E+003
  1.6655748E+003
  1.6826152E+003
  1.6840326E+003
  1.6703300E+003
  1.6445245E+003
  1.6130009E+003
  1.5884470E+003
  1.5947870E+003
  1.7151766E+003
  1.6218451E+003
  1.0292516E+003
  1.0183023E+003
  1.3368783E+003
  1.3244449E+003
  1.1138492E+003
  9.3849979E+002
  7.2014277E+002
  6.2673193E+002
  3.2317364E+002
  2.2209128E+003
  2.3217618E+003
  2.2754316E+003
  1.1639648E+003
  1.1951943E+003
  1.1459499E+003
  1.1569347E+003
  1.1527035E+003
  1.1685821E+003
  1.2059443E+003
  1.2626905E+003
  1.3314224E+003
  1.4049872E+003
  1.4774721E+003
  1.5443774E+003
  1.6021364E+003
  1.6476548E+003
  1.6780317E+003
  1.6905813E+003
  1.6832388E+003
  1.6553543E+003
  1.6089035E+003
  1.5486930E+003
  1.4821456E+003
  1.4032986E+003
  1.4012644E+003
  1.1430806E+003
  5.7504224E+002
  2.2208417E+003
  1.4156380E+003
  1.3404450E+003
  1.0787304E+003
  8.7746193E+002
  5.2708283E+002
  3.7729657E+002
  2.3461272E+003
  1.0743740E+003
  7.3154676E+002
  1.0392653E+003
  1.1059784E+003
  1.1086568E+003
  1.0902440E+003
  1.1061034E+003
  1.1548862E+003
  1.2278078E+003
  1.3119289E+003
  1.3977966E+003
  1.4791026E+003
  1.5517833E+003
  1.6127996E+003
  1.6592930E+003
  1.6881044E+003
  1.6956467E+003
  1.6784336E+003
  1.6337238E+003
  1.5628743E+003
  1.4677831E+003
  1.3714917E+003
  1.2270391E+003
  1.1057550E+003
  1.2605596E+003
  6.7488226E+002
  2.1248294E+003
  1.4110045E+003
  1.1348005E+003
  1.0009728E+003
  7.3307913E+002
  2.9904538E+002
  5.2459204E+001
  6.5459630E+002
  3.5286554E+002
  9.6831222E+002
  1.1741400E+003
  1.1417582E+003
  1.0362266E+003
  9.9599113E+002
  1.0184984E+003
  1.0929466E+003
  1.1911161E+003
  1.2948061E+003
  1.3936229E+003
  1.4826798E+003
  1.5595427E+003
  1.6224307E+003
  1.6691166E+003
  1.6963053E+003
  1.6994769E+003
  1.6729356E+003
  1.6119946E+003
  1.5127274E+003
  1.3875499E+003
  1.2346361E+003
  1.1734092E+003
  1.0097094E+003
  1.1649941E+003
  1.3275483E+003
  9.2336090E+002
  1.8395939E+003
  1.5617085E+003
  1.0758386E+003
  8.3476712E+002
  5.1664022E+002
  2.6692793E+002
  1.6531214E+002
  4.7879331E+002
  1.7856035E+003
  1.8153581E+003
  1.5725575E+003
  1.0823201E+003
  9.1676512E+002
  8.5004923E+002
  9.1773052E+002
  1.0361403E+003
  1.1670884E+003
  1.2898238E+003
  1.3980997E+003
  1.4907283E+003
  1.5681372E+003
  1.6303349E+003
  1.6760019E+003
  1.7019303E+003
  1.7026240E+003
  1.6703290E+003
  1.5958329E+003
  1.4724367E+003
  1.3038955E+003
  1.1062528E+003
  9.5942659E+002
  7.8555528E+002
  3.2252428E+002
  2.8429764E+003
  1.9928038E+003
  1.6052756E+003
  9.7185894E+002
  6.1979039E+002
  3.2389060E+002
  6.3349064E+002
  4.0718639E+003
  2.3075735E+003
  1.4581923E+003
  9.2361795E+002
  6.5679221E+002
  6.8330262E+002
  8.3779136E+002
  1.0147516E+003
  1.1735509E+003
  1.3062578E+003
  1.4147645E+003
  1.5034230E+003
  1.5758186E+003
  1.6337158E+003
  1.6767155E+003
  1.7019116E+003
  1.7033727E+003
  1.6712160E+003
  1.5925021E+003
  1.4507026E+003
  1.2448940E+003
  9.9309930E+002
  7.7980612E+002
  7.6852505E+002
  4.0500137E+002
  2.9236727E+003
  1.6756241E+003
  1.1688299E+003
  8.0671777E+002
  4.0794389E+002
  3.8894317E+002
  6.4247002E+002
  2.1628642E+003
  1.6529719E+003
  9.2650819E+002
  4.9593137E+002
  3.6837435E+002
  5.9532421E+002
  8.4734507E+002
  1.0598655E+003
  1.2233801E+003
  1.3470722E+003
  1.4418499E+003
  1.5168930E+003
  1.5778058E+003
  1.6272517E+003
  1.6654429E+003
  1.6901047E+003
  1.6956106E+003
  1.6719583E+003
  1.6009831E+003
  1.4637977E+003
  1.2195045E+003
  9.1934911E+002
  5.8190086E+002
  5.3131772E+002
  1.7000036E+003
  2.5683925E+003
  2.1560325E+003
  1.5389150E+003
  8.4894385E+002
  5.4547121E+002
  4.1089491E+002
  5.3739219E+002
  4.4662067E+002
  1.6441697E+003
  2.5867685E+002
  3.5692093E+002
  1.3311203E+002
  3.9175241E+002
  7.0885458E+002
  9.8321640E+002
  1.1787865E+003
  1.3127317E+003
  1.4035644E+003
  1.4701266E+003
  1.5227844E+003
  1.5665537E+003
  1.6035665E+003
  1.6342210E+003
  1.6571554E+003
  1.6683827E+003
  1.6593741E+003
  1.6139737E+003
  1.4981846E+003
  1.2828578E+003
  8.7760260E+002
  5.1201902E+002
  1.9580416E+002
  3.1725103E+003
  1.8854700E+003
  1.1302874E+003
  5.9584003E+002
  2.1868084E+002
  2.6567895E+002
  8.4754096E+002
  6.1815687E+002
  3.7756845E+002
  2.2904838E+002
  5.8414186E+002
  9.7201152E+002
  1.2065400E+003
  1.3487128E+003
  1.4152655E+003
  1.4544149E+003
  1.4842348E+003
  1.5102237E+003
  1.5335951E+003
  1.5549825E+003
  1.5745919E+003
  1.5920884E+003
  1.6065785E+003
  1.6120348E+003
  1.6030519E+003
  1.5341096E+003
  1.3950092E+003
  8.6814978E+002
  5.1074145E+002
  2.8224272E+003
  2.3834216E+003
  1.8136071E+003
  1.1225425E+003
  6.9222839E+002
  2.7702141E+002
  1.9859381E+002
  5.2061279E+002
  1.1222047E+003
  1.5518185E+002
  1.6644677E+002
  8.8565633E+002
  1.2613571E+003
  1.5034703E+003
  1.5106859E+003
  1.4860530E+003
  1.4719037E+003
  1.4689469E+003
  1.4698522E+003
  1.4728611E+003
  1.4764360E+003
  1.4804899E+003
  1.4860098E+003
  1.4942678E+003
  1.5069420E+003
  1.5196601E+003
  1.5255810E+003
  1.4950347E+003
  1.1470406E+003
  7.2284639E+002
  2.2758538E+003
  2.0651021E+003
  1.8827028E+003
  1.5330435E+003
  9.9604304E+002
  4.6814495E+002
  1.1006984E+002
  4.0877616E+002
  6.4619920E+002
  4.3818216E+002
  2.2502874E+002
  7.9368160E+002
  1.8634844E+003
  1.7524141E+003
  1.5709701E+003
  1.4745041E+003
  1.4401042E+003
  1.4156119E+003
  1.3990500E+003
  1.3841646E+003
  1.3687961E+003
  1.3522418E+003
  1.3360193E+003
  1.3251153E+003
  1.3196844E+003
  1.3422202E+003
  1.3390127E+003
  1.5277809E+003
  1.4584306E+003
  2.5560503E+003
  2.0463554E+003
  1.8756414E+003
  1.7101302E+003
  1.4502310E+003
  1.1244823E+003
  7.3429552E+002
  3.4511402E+002
  2.1216413E+002
  5.1717185E+002
  6.4265145E+002
  4.4539150E+002
  1.5509335E+003
  2.7200712E+003
  2.1356057E+003
  1.7978120E+003
  1.3862615E+003
  1.4003341E+003
  1.3554590E+003
  1.3308251E+003
  1.3034489E+003
  1.2760002E+003
  1.2416096E+003
  1.1995984E+003
  1.1523210E+003
  1.1042475E+003
  1.0619594E+003
  1.0299213E+003
  1.0183052E+003
  1.0647140E+003
  1.1297141E+003
  2.7588374E+003
  1.7871568E+003
  1.7291980E+003
  1.4860479E+003
  1.3992847E+003
  1.1758848E+003
  8.7111053E+002
  5.4590897E+002
  3.1005435E+002
  4.4323834E+002
  7.3198564E+002
  7.5103349E+002
  4.8474199E+003
  1.9586220E+003
  9.6790011E+002
  1.2610232E+003
  1.2671184E+003
  1.2563124E+003
  1.2230166E+003
  1.1993697E+003
  1.1651652E+003
  1.1142504E+003
  1.0448835E+003
  9.6053056E+002
  8.6640966E+002
  7.6518924E+002
  6.6168010E+002
  5.4109216E+002
  4.3203766E+002
  3.3411573E+002
  1.1645449E+003
  1.4633510E+003
  2.5478689E+003
  1.2554681E+003
  7.2013128E+002
  1.3801341E+003
  9.5731083E+002
  1.6708029E+003
  1.3990339E+003
  1.2545969E+003
  9.7467785E+002
  6.4397226E+002
  4.0193745E+002
  4.1137353E+002
  6.5902837E+002
  7.9965614E+002
  3.9724823E+003
  5.1173158E+002
  1.0502262E+003
  1.2847635E+003
  1.1937394E+003
  1.1305289E+003
  1.1147264E+003
  1.1061919E+003
  1.0760827E+003
  1.0143956E+003
  9.2280071E+002
  8.0828273E+002
  6.7821159E+002
  5.3716138E+002
  3.8934990E+002
  2.7127195E+002
  3.5171415E+002
  7.3079284E+002
  1.2147818E+003
  1.6552025E+003
  1.7891962E+003
  1.8847621E+003
  1.7146938E+003
  1.4357522E+003
  1.1444840E+003
  8.4561544E+002
  3.9360999E+002
  3.7534915E+002
  4.8863030E+002
  6.3972247E+002
  2.6588313E+003
  1.8387153E+003
  1.4960464E+003
  1.0165056E+003
  9.9145170E+002
  1.0196022E+003
  1.0520477E+003
  1.0355553E+003
  9.7292905E+002
  8.7459132E+002
  7.5596187E+002
  6.3580063E+002
  5.3978205E+002
  5.0130208E+002
  5.7027694E+002
  7.4934438E+002
  9.6063259E+002
  1.1989767E+003
  1.4860235E+003
  1.6950500E+003
  1.6859581E+003
  1.5668534E+003
  1.3205320E+003
  8.7951642E+002
  4.4968770E+002
  3.0826958E+002
  4.0795984E+002
  3.5404159E+002
  3.9140072E+003
  2.1626905E+003
  1.1471887E+003
  7.2918093E+002
  8.3923664E+002
  9.9394811E+002
  1.0679842E+003
  1.0650266E+003
  1.0115871E+003
  9.2542577E+002
  8.2935651E+002
  7.5300855E+002
  7.2579834E+002
  7.8164439E+002
  9.0499122E+002
  1.0623601E+003
  1.2075308E+003
  1.2427003E+003
  1.4028719E+003
  1.7734346E+003
  1.5923005E+003
  1.3338243E+003
  9.3438466E+002
  6.7746492E+002
  1.6564546E+002
  2.4655107E+002
  4.5632302E+003
  1.6040910E+003
  3.7133743E+002
  5.0816867E+002
  9.0270862E+002
  1.1095364E+003
  1.1832250E+003
  1.1790010E+003
  1.1288980E+003
  1.0661058E+003
  9.9547727E+002
  9.3417528E+002
  9.3922275E+002
  1.0268239E+003
  1.1836705E+003
  1.2986728E+003
  1.4259151E+003
  1.5374506E+003
  1.5134989E+003
  1.7552522E+003
  1.4717647E+003
  1.4506227E+003
  9.2961211E+002
  2.8434146E+002
  5.3224450E+002
  6.1883041E+002
  1.0585520E+003
  1.3164726E+003
  1.4562986E+003
  1.4258420E+003
  1.3302988E+003
  1.2836266E+003
  1.2473257E+003
  1.2037899E+003
  1.1216061E+003
  1.0436439E+003
  1.1836035E+003
  1.4329004E+003
  1.5205198E+003
  1.5850766E+003
  1.7260368E+003
  2.4182523E+003
  2.4765168E+003
  7.7702268E+002
  8.3843659E+002
  4.3913136E+002
  7.5448328E+002
  1.7948228E+003
  2.3455255E+003
  2.0357979E+003
  1.6366179E+003
  1.5113223E+003
  1.4408451E+003
  1.3862077E+003
  1.3769126E+003
  1.3454410E+003
  1.2176500E+003
  1.2960380E+003
  1.4850979E+003
  1.3661396E+003
  1.8399404E+003
  1.6235188E+003
  1.4978011E+003
  6.9081797E+002
  1.6407920E+003
  4.5494716E+003
  4.0426454E+003
  2.7098372E+003
  1.8374949E+003
  1.6328454E+003
  1.5287568E+003
  1.2989840E+003
  1.2579277E+003
  1.1533730E+003
  1.5375797E+003
  1.9453094E+003
  1.2240457E+003
  7.3696843E+002
  9.7496737E+002
  6.2683818E+003
  4.5379662E+003
  4.6033275E+003
  1.8247749E+003
  2.1533830E+003
  2.2917568E+003
  1.4088887E+003
  1.1987053E+003
  9.2357724E+002
  5.1363939E+002
  8.9305419E+002
  4.9113192E+003
  6.8957879E+002
  5.6621719E+002
  1.0997366E+003
