# vtk DataFile Version 3.0
ElmerSolver output; started at 2023/07/06 14:22:57
ASCII
DATASET UNSTRUCTURED_GRID
POINTS 9030 double
 -4.7000000E-001  1.0000000E-002 0.0
 -4.6500000E-001  1.0000000E-002 0.0
 -4.6500000E-001  1.5000000E-002 0.0
 -4.7000000E-001  1.5000000E-002 0.0
 -4.6500000E-001  2.0000000E-002 0.0
 -4.7000000E-001  2.0000000E-002 0.0
 -4.6500000E-001  2.5000000E-002 0.0
 -4.7000000E-001  2.5000000E-002 0.0
 -4.6500000E-001  3.0000000E-002 0.0
 -4.7000000E-001  3.0000000E-002 0.0
 -4.6500000E-001  3.5000000E-002 0.0
 -4.7000000E-001  3.5000000E-002 0.0
 -4.6500000E-001 -5.0000000E-002 0.0
 -4.6000000E-001 -5.0000000E-002 0.0
 -4.6000000E-001 -4.5000000E-002 0.0
 -4.6500000E-001 -4.5000000E-002 0.0
 -4.6000000E-001 -4.0000000E-002 0.0
 -4.6500000E-001 -4.0000000E-002 0.0
 -4.6000000E-001 -3.5000000E-002 0.0
 -4.6500000E-001 -3.5000000E-002 0.0
 -4.6000000E-001 -3.0000000E-002 0.0
 -4.6500000E-001 -3.0000000E-002 0.0
 -4.6000000E-001 -2.5000000E-002 0.0
 -4.6500000E-001 -2.5000000E-002 0.0
 -4.6000000E-001 -2.0000000E-002 0.0
 -4.6500000E-001 -2.0000000E-002 0.0
 -4.6000000E-001 -1.5000000E-002 0.0
 -4.6500000E-001 -1.5000000E-002 0.0
 -4.6000000E-001 -1.0000000E-002 0.0
 -4.6500000E-001 -1.0000000E-002 0.0
 -4.6000000E-001 -5.0000000E-003 0.0
 -4.6500000E-001 -5.0000000E-003 0.0
 -4.6000000E-001  0.0000000E+000 0.0
 -4.6500000E-001  0.0000000E+000 0.0
 -4.6000000E-001  5.0000000E-003 0.0
 -4.6500000E-001  5.0000000E-003 0.0
 -4.6000000E-001  1.0000000E-002 0.0
 -4.6000000E-001  1.5000000E-002 0.0
 -4.6000000E-001  2.0000000E-002 0.0
 -4.6000000E-001  2.5000000E-002 0.0
 -4.6000000E-001  3.0000000E-002 0.0
 -4.6000000E-001  3.5000000E-002 0.0
 -4.6000000E-001  4.0000000E-002 0.0
 -4.6500000E-001  4.0000000E-002 0.0
 -4.6000000E-001  4.5000000E-002 0.0
 -4.6500000E-001  4.5000000E-002 0.0
 -4.6000000E-001  5.0000000E-002 0.0
 -4.6500000E-001  5.0000000E-002 0.0
 -4.5500000E-001 -5.0000000E-002 0.0
 -4.5500000E-001 -4.5000000E-002 0.0
 -4.5500000E-001 -4.0000000E-002 0.0
 -4.5500000E-001 -3.5000000E-002 0.0
 -4.5500000E-001 -3.0000000E-002 0.0
 -4.5500000E-001 -2.5000000E-002 0.0
 -4.5500000E-001 -2.0000000E-002 0.0
 -4.5500000E-001 -1.5000000E-002 0.0
 -4.5500000E-001 -1.0000000E-002 0.0
 -4.5500000E-001 -5.0000000E-003 0.0
 -4.5500000E-001  0.0000000E+000 0.0
 -4.5500000E-001  5.0000000E-003 0.0
 -4.5500000E-001  1.0000000E-002 0.0
 -4.5500000E-001  1.5000000E-002 0.0
 -4.5500000E-001  2.0000000E-002 0.0
 -4.5500000E-001  2.5000000E-002 0.0
 -4.5500000E-001  3.0000000E-002 0.0
 -4.5500000E-001  3.5000000E-002 0.0
 -4.5500000E-001  4.0000000E-002 0.0
 -4.5500000E-001  4.5000000E-002 0.0
 -4.5500000E-001  5.0000000E-002 0.0
 -4.5500000E-001  5.5000000E-002 0.0
 -4.6000000E-001  5.5000000E-002 0.0
 -4.5500000E-001  6.0000000E-002 0.0
 -4.6000000E-001  6.0000000E-002 0.0
 -4.5500000E-001 -5.5000000E-002 0.0
 -4.5000000E-001 -5.5000000E-002 0.0
 -4.5000000E-001 -5.0000000E-002 0.0
 -4.5000000E-001 -4.5000000E-002 0.0
 -4.5000000E-001 -4.0000000E-002 0.0
 -4.5000000E-001 -3.5000000E-002 0.0
 -4.5000000E-001 -3.0000000E-002 0.0
 -4.5000000E-001 -2.5000000E-002 0.0
 -4.5000000E-001 -2.0000000E-002 0.0
 -4.5000000E-001 -1.5000000E-002 0.0
 -4.5000000E-001 -1.0000000E-002 0.0
 -4.5000000E-001 -5.0000000E-003 0.0
 -4.5000000E-001  0.0000000E+000 0.0
 -4.5000000E-001  5.0000000E-003 0.0
 -4.5000000E-001  1.0000000E-002 0.0
 -4.5000000E-001  1.5000000E-002 0.0
 -4.5000000E-001  2.0000000E-002 0.0
 -4.5000000E-001  2.5000000E-002 0.0
 -4.5000000E-001  3.0000000E-002 0.0
 -4.5000000E-001  3.5000000E-002 0.0
 -4.5000000E-001  4.0000000E-002 0.0
 -4.5000000E-001  4.5000000E-002 0.0
 -4.5000000E-001  5.0000000E-002 0.0
 -4.5000000E-001  5.5000000E-002 0.0
 -4.5000000E-001  6.0000000E-002 0.0
 -4.5000000E-001  6.5000000E-002 0.0
 -4.5500000E-001  6.5000000E-002 0.0
 -4.4500000E-001 -5.5000000E-002 0.0
 -4.4500000E-001 -5.0000000E-002 0.0
 -4.4500000E-001 -4.5000000E-002 0.0
 -4.4500000E-001 -4.0000000E-002 0.0
 -4.4500000E-001 -3.5000000E-002 0.0
 -4.4500000E-001 -3.0000000E-002 0.0
 -4.4500000E-001 -2.5000000E-002 0.0
 -4.4500000E-001 -2.0000000E-002 0.0
 -4.4500000E-001 -1.5000000E-002 0.0
 -4.4500000E-001 -1.0000000E-002 0.0
 -4.4500000E-001 -5.0000000E-003 0.0
 -4.4500000E-001  0.0000000E+000 0.0
 -4.4500000E-001  5.0000000E-003 0.0
 -4.4500000E-001  1.0000000E-002 0.0
 -4.4500000E-001  1.5000000E-002 0.0
 -4.4500000E-001  2.0000000E-002 0.0
 -4.4500000E-001  2.5000000E-002 0.0
 -4.4500000E-001  3.0000000E-002 0.0
 -4.4500000E-001  3.5000000E-002 0.0
 -4.4500000E-001  4.0000000E-002 0.0
 -4.4500000E-001  4.5000000E-002 0.0
 -4.4500000E-001  5.0000000E-002 0.0
 -4.4500000E-001  5.5000000E-002 0.0
 -4.4500000E-001  6.0000000E-002 0.0
 -4.4500000E-001  6.5000000E-002 0.0
 -4.4000000E-001 -5.5000000E-002 0.0
 -4.4000000E-001 -5.0000000E-002 0.0
 -4.4000000E-001 -4.5000000E-002 0.0
 -4.4000000E-001 -4.0000000E-002 0.0
 -4.4000000E-001 -3.5000000E-002 0.0
 -4.4000000E-001 -3.0000000E-002 0.0
 -4.4000000E-001 -2.5000000E-002 0.0
 -4.4000000E-001 -2.0000000E-002 0.0
 -4.4000000E-001 -1.5000000E-002 0.0
 -4.4000000E-001 -1.0000000E-002 0.0
 -4.4000000E-001 -5.0000000E-003 0.0
 -4.4000000E-001  0.0000000E+000 0.0
 -4.4000000E-001  5.0000000E-003 0.0
 -4.4000000E-001  1.0000000E-002 0.0
 -4.4000000E-001  1.5000000E-002 0.0
 -4.4000000E-001  2.0000000E-002 0.0
 -4.4000000E-001  2.5000000E-002 0.0
 -4.4000000E-001  3.0000000E-002 0.0
 -4.4000000E-001  3.5000000E-002 0.0
 -4.4000000E-001  4.0000000E-002 0.0
 -4.4000000E-001  4.5000000E-002 0.0
 -4.4000000E-001  5.0000000E-002 0.0
 -4.4000000E-001  5.5000000E-002 0.0
 -4.4000000E-001  6.0000000E-002 0.0
 -4.4000000E-001  6.5000000E-002 0.0
 -4.4000000E-001  7.0000000E-002 0.0
 -4.4500000E-001  7.0000000E-002 0.0
 -4.4000000E-001  7.5000000E-002 0.0
 -4.4500000E-001  7.5000000E-002 0.0
 -4.4000000E-001 -6.0000000E-002 0.0
 -4.3500000E-001 -6.0000000E-002 0.0
 -4.3500000E-001 -5.5000000E-002 0.0
 -4.3500000E-001 -5.0000000E-002 0.0
 -4.3500000E-001 -4.5000000E-002 0.0
 -4.3500000E-001 -4.0000000E-002 0.0
 -4.3500000E-001 -3.5000000E-002 0.0
 -4.3500000E-001 -3.0000000E-002 0.0
 -4.3500000E-001 -2.5000000E-002 0.0
 -4.3500000E-001 -2.0000000E-002 0.0
 -4.3500000E-001 -1.5000000E-002 0.0
 -4.3500000E-001 -1.0000000E-002 0.0
 -4.3500000E-001 -5.0000000E-003 0.0
 -4.3500000E-001  0.0000000E+000 0.0
 -4.3500000E-001  5.0000000E-003 0.0
 -4.3500000E-001  1.0000000E-002 0.0
 -4.3500000E-001  1.5000000E-002 0.0
 -4.3500000E-001  2.0000000E-002 0.0
 -4.3500000E-001  2.5000000E-002 0.0
 -4.3500000E-001  3.0000000E-002 0.0
 -4.3500000E-001  3.5000000E-002 0.0
 -4.3500000E-001  4.0000000E-002 0.0
 -4.3500000E-001  4.5000000E-002 0.0
 -4.3500000E-001  5.0000000E-002 0.0
 -4.3500000E-001  5.5000000E-002 0.0
 -4.3500000E-001  6.0000000E-002 0.0
 -4.3500000E-001  6.5000000E-002 0.0
 -4.3500000E-001  7.0000000E-002 0.0
 -4.3500000E-001  7.5000000E-002 0.0
 -4.3500000E-001  8.0000000E-002 0.0
 -4.4000000E-001  8.0000000E-002 0.0
 -4.3500000E-001  8.5000000E-002 0.0
 -4.4000000E-001  8.5000000E-002 0.0
 -4.3000000E-001 -6.0000000E-002 0.0
 -4.3000000E-001 -5.5000000E-002 0.0
 -4.3000000E-001 -5.0000000E-002 0.0
 -4.3000000E-001 -4.5000000E-002 0.0
 -4.3000000E-001 -4.0000000E-002 0.0
 -4.3000000E-001 -3.5000000E-002 0.0
 -4.3000000E-001 -3.0000000E-002 0.0
 -4.3000000E-001 -2.5000000E-002 0.0
 -4.3000000E-001 -2.0000000E-002 0.0
 -4.3000000E-001 -1.5000000E-002 0.0
 -4.3000000E-001 -1.0000000E-002 0.0
 -4.3000000E-001 -5.0000000E-003 0.0
 -4.3000000E-001  0.0000000E+000 0.0
 -4.3000000E-001  5.0000000E-003 0.0
 -4.3000000E-001  1.0000000E-002 0.0
 -4.3000000E-001  1.5000000E-002 0.0
 -4.3000000E-001  2.0000000E-002 0.0
 -4.3000000E-001  2.5000000E-002 0.0
 -4.3000000E-001  3.0000000E-002 0.0
 -4.3000000E-001  3.5000000E-002 0.0
 -4.3000000E-001  4.0000000E-002 0.0
 -4.3000000E-001  4.5000000E-002 0.0
 -4.3000000E-001  5.0000000E-002 0.0
 -4.3000000E-001  5.5000000E-002 0.0
 -4.3000000E-001  6.0000000E-002 0.0
 -4.3000000E-001  6.5000000E-002 0.0
 -4.3000000E-001  7.0000000E-002 0.0
 -4.3000000E-001  7.5000000E-002 0.0
 -4.3000000E-001  8.0000000E-002 0.0
 -4.3000000E-001  8.5000000E-002 0.0
 -4.3000000E-001  9.0000000E-002 0.0
 -4.3500000E-001  9.0000000E-002 0.0
 -4.3000000E-001  9.5000000E-002 0.0
 -4.3500000E-001  9.5000000E-002 0.0
 -4.3000000E-001 -6.5000000E-002 0.0
 -4.2500000E-001 -6.5000000E-002 0.0
 -4.2500000E-001 -6.0000000E-002 0.0
 -4.2500000E-001 -5.5000000E-002 0.0
 -4.2500000E-001 -5.0000000E-002 0.0
 -4.2500000E-001 -4.5000000E-002 0.0
 -4.2500000E-001 -4.0000000E-002 0.0
 -4.2500000E-001 -3.5000000E-002 0.0
 -4.2500000E-001 -3.0000000E-002 0.0
 -4.2500000E-001 -2.5000000E-002 0.0
 -4.2500000E-001 -2.0000000E-002 0.0
 -4.2500000E-001 -1.5000000E-002 0.0
 -4.2500000E-001 -1.0000000E-002 0.0
 -4.2500000E-001 -5.0000000E-003 0.0
 -4.2500000E-001  0.0000000E+000 0.0
 -4.2500000E-001  5.0000000E-003 0.0
 -4.2500000E-001  1.0000000E-002 0.0
 -4.2500000E-001  1.5000000E-002 0.0
 -4.2500000E-001  2.0000000E-002 0.0
 -4.2500000E-001  2.5000000E-002 0.0
 -4.2500000E-001  3.0000000E-002 0.0
 -4.2500000E-001  3.5000000E-002 0.0
 -4.2500000E-001  4.0000000E-002 0.0
 -4.2500000E-001  4.5000000E-002 0.0
 -4.2500000E-001  5.0000000E-002 0.0
 -4.2500000E-001  5.5000000E-002 0.0
 -4.2500000E-001  6.0000000E-002 0.0
 -4.2500000E-001  6.5000000E-002 0.0
 -4.2500000E-001  7.0000000E-002 0.0
 -4.2500000E-001  7.5000000E-002 0.0
 -4.2500000E-001  8.0000000E-002 0.0
 -4.2500000E-001  8.5000000E-002 0.0
 -4.2500000E-001  9.0000000E-002 0.0
 -4.2500000E-001  9.5000000E-002 0.0
 -4.2500000E-001  1.0000000E-001 0.0
 -4.3000000E-001  1.0000000E-001 0.0
 -4.2500000E-001  1.0500000E-001 0.0
 -4.3000000E-001  1.0500000E-001 0.0
 -4.2000000E-001 -6.5000000E-002 0.0
 -4.2000000E-001 -6.0000000E-002 0.0
 -4.2000000E-001 -5.5000000E-002 0.0
 -4.2000000E-001 -5.0000000E-002 0.0
 -4.2000000E-001 -4.5000000E-002 0.0
 -4.2000000E-001 -4.0000000E-002 0.0
 -4.2000000E-001 -3.5000000E-002 0.0
 -4.2000000E-001 -3.0000000E-002 0.0
 -4.2000000E-001 -2.5000000E-002 0.0
 -4.2000000E-001 -2.0000000E-002 0.0
 -4.2000000E-001 -1.5000000E-002 0.0
 -4.2000000E-001 -1.0000000E-002 0.0
 -4.2000000E-001 -5.0000000E-003 0.0
 -4.2000000E-001  0.0000000E+000 0.0
 -4.2000000E-001  5.0000000E-003 0.0
 -4.2000000E-001  1.0000000E-002 0.0
 -4.2000000E-001  1.5000000E-002 0.0
 -4.2000000E-001  2.0000000E-002 0.0
 -4.2000000E-001  2.5000000E-002 0.0
 -4.2000000E-001  3.0000000E-002 0.0
 -4.2000000E-001  3.5000000E-002 0.0
 -4.2000000E-001  4.0000000E-002 0.0
 -4.2000000E-001  4.5000000E-002 0.0
 -4.2000000E-001  5.0000000E-002 0.0
 -4.2000000E-001  5.5000000E-002 0.0
 -4.2000000E-001  6.0000000E-002 0.0
 -4.2000000E-001  6.5000000E-002 0.0
 -4.2000000E-001  7.0000000E-002 0.0
 -4.2000000E-001  7.5000000E-002 0.0
 -4.2000000E-001  8.0000000E-002 0.0
 -4.2000000E-001  8.5000000E-002 0.0
 -4.2000000E-001  9.0000000E-002 0.0
 -4.2000000E-001  9.5000000E-002 0.0
 -4.2000000E-001  1.0000000E-001 0.0
 -4.2000000E-001  1.0500000E-001 0.0
 -4.2000000E-001  1.1000000E-001 0.0
 -4.2500000E-001  1.1000000E-001 0.0
 -4.2000000E-001  1.1500000E-001 0.0
 -4.2500000E-001  1.1500000E-001 0.0
 -4.1500000E-001 -6.0000000E-002 0.0
 -4.1500000E-001 -5.5000000E-002 0.0
 -4.1500000E-001 -5.0000000E-002 0.0
 -4.1500000E-001 -4.5000000E-002 0.0
 -4.1500000E-001 -4.0000000E-002 0.0
 -4.1500000E-001 -3.5000000E-002 0.0
 -4.1500000E-001 -3.0000000E-002 0.0
 -4.1500000E-001 -2.5000000E-002 0.0
 -4.1500000E-001 -2.0000000E-002 0.0
 -4.1500000E-001 -1.5000000E-002 0.0
 -4.1500000E-001 -1.0000000E-002 0.0
 -4.1500000E-001 -5.0000000E-003 0.0
 -4.1500000E-001  0.0000000E+000 0.0
 -4.1500000E-001  5.0000000E-003 0.0
 -4.1500000E-001  1.0000000E-002 0.0
 -4.1500000E-001  1.5000000E-002 0.0
 -4.1500000E-001  2.0000000E-002 0.0
 -4.1500000E-001  2.5000000E-002 0.0
 -4.1500000E-001  3.0000000E-002 0.0
 -4.1500000E-001  3.5000000E-002 0.0
 -4.1500000E-001  4.0000000E-002 0.0
 -4.1500000E-001  4.5000000E-002 0.0
 -4.1500000E-001  5.0000000E-002 0.0
 -4.1500000E-001  5.5000000E-002 0.0
 -4.1500000E-001  6.0000000E-002 0.0
 -4.1500000E-001  6.5000000E-002 0.0
 -4.1500000E-001  7.0000000E-002 0.0
 -4.1500000E-001  7.5000000E-002 0.0
 -4.1500000E-001  8.0000000E-002 0.0
 -4.1500000E-001  8.5000000E-002 0.0
 -4.1500000E-001  9.0000000E-002 0.0
 -4.1500000E-001  9.5000000E-002 0.0
 -4.1500000E-001  1.0000000E-001 0.0
 -4.1500000E-001  1.0500000E-001 0.0
 -4.1500000E-001  1.1000000E-001 0.0
 -4.1500000E-001  1.1500000E-001 0.0
 -4.1500000E-001  1.2000000E-001 0.0
 -4.2000000E-001  1.2000000E-001 0.0
 -4.1000000E-001 -5.5000000E-002 0.0
 -4.1000000E-001 -5.0000000E-002 0.0
 -4.1000000E-001 -4.5000000E-002 0.0
 -4.1000000E-001 -4.0000000E-002 0.0
 -4.1000000E-001 -3.5000000E-002 0.0
 -4.1000000E-001 -3.0000000E-002 0.0
 -4.1000000E-001 -2.5000000E-002 0.0
 -4.1000000E-001 -2.0000000E-002 0.0
 -4.1000000E-001 -1.5000000E-002 0.0
 -4.1000000E-001 -1.0000000E-002 0.0
 -4.1000000E-001 -5.0000000E-003 0.0
 -4.1000000E-001  0.0000000E+000 0.0
 -4.1000000E-001  5.0000000E-003 0.0
 -4.1000000E-001  1.0000000E-002 0.0
 -4.1000000E-001  1.5000000E-002 0.0
 -4.1000000E-001  2.0000000E-002 0.0
 -4.1000000E-001  2.5000000E-002 0.0
 -4.1000000E-001  3.0000000E-002 0.0
 -4.1000000E-001  3.5000000E-002 0.0
 -4.1000000E-001  4.0000000E-002 0.0
 -4.1000000E-001  4.5000000E-002 0.0
 -4.1000000E-001  5.0000000E-002 0.0
 -4.1000000E-001  5.5000000E-002 0.0
 -4.1000000E-001  6.0000000E-002 0.0
 -4.1000000E-001  6.5000000E-002 0.0
 -4.1000000E-001  7.0000000E-002 0.0
 -4.1000000E-001  7.5000000E-002 0.0
 -4.1000000E-001  8.0000000E-002 0.0
 -4.1000000E-001  8.5000000E-002 0.0
 -4.1000000E-001  9.0000000E-002 0.0
 -4.1000000E-001  9.5000000E-002 0.0
 -4.1000000E-001  1.0000000E-001 0.0
 -4.1000000E-001  1.0500000E-001 0.0
 -4.1000000E-001  1.1000000E-001 0.0
 -4.1000000E-001  1.1500000E-001 0.0
 -4.1000000E-001  1.2000000E-001 0.0
 -4.1000000E-001  1.2500000E-001 0.0
 -4.1500000E-001  1.2500000E-001 0.0
 -4.0500000E-001 -5.0000000E-002 0.0
 -4.0500000E-001 -4.5000000E-002 0.0
 -4.0500000E-001 -4.0000000E-002 0.0
 -4.0500000E-001 -3.5000000E-002 0.0
 -4.0500000E-001 -3.0000000E-002 0.0
 -4.0500000E-001 -2.5000000E-002 0.0
 -4.0500000E-001 -2.0000000E-002 0.0
 -4.0500000E-001 -1.5000000E-002 0.0
 -4.0500000E-001 -1.0000000E-002 0.0
 -4.0500000E-001 -5.0000000E-003 0.0
 -4.0500000E-001  0.0000000E+000 0.0
 -4.0500000E-001  5.0000000E-003 0.0
 -4.0500000E-001  1.0000000E-002 0.0
 -4.0500000E-001  1.5000000E-002 0.0
 -4.0500000E-001  2.0000000E-002 0.0
 -4.0500000E-001  2.5000000E-002 0.0
 -4.0500000E-001  3.0000000E-002 0.0
 -4.0500000E-001  3.5000000E-002 0.0
 -4.0500000E-001  4.0000000E-002 0.0
 -4.0500000E-001  4.5000000E-002 0.0
 -4.0500000E-001  5.0000000E-002 0.0
 -4.0500000E-001  5.5000000E-002 0.0
 -4.0500000E-001  6.0000000E-002 0.0
 -4.0500000E-001  6.5000000E-002 0.0
 -4.0500000E-001  7.0000000E-002 0.0
 -4.0500000E-001  7.5000000E-002 0.0
 -4.0500000E-001  8.0000000E-002 0.0
 -4.0500000E-001  8.5000000E-002 0.0
 -4.0500000E-001  9.0000000E-002 0.0
 -4.0500000E-001  9.5000000E-002 0.0
 -4.0500000E-001  1.0000000E-001 0.0
 -4.0500000E-001  1.0500000E-001 0.0
 -4.0500000E-001  1.1000000E-001 0.0
 -4.0500000E-001  1.1500000E-001 0.0
 -4.0500000E-001  1.2000000E-001 0.0
 -4.0500000E-001  1.2500000E-001 0.0
 -4.0500000E-001  1.3000000E-001 0.0
 -4.1000000E-001  1.3000000E-001 0.0
 -4.0000000E-001 -5.0000000E-002 0.0
 -4.0000000E-001 -4.5000000E-002 0.0
 -4.0000000E-001 -4.0000000E-002 0.0
 -4.0000000E-001 -3.5000000E-002 0.0
 -4.0000000E-001 -3.0000000E-002 0.0
 -4.0000000E-001 -2.5000000E-002 0.0
 -4.0000000E-001 -2.0000000E-002 0.0
 -4.0000000E-001 -1.5000000E-002 0.0
 -4.0000000E-001 -1.0000000E-002 0.0
 -4.0000000E-001 -5.0000000E-003 0.0
 -4.0000000E-001  0.0000000E+000 0.0
 -4.0000000E-001  5.0000000E-003 0.0
 -4.0000000E-001  1.0000000E-002 0.0
 -4.0000000E-001  1.5000000E-002 0.0
 -4.0000000E-001  2.0000000E-002 0.0
 -4.0000000E-001  2.5000000E-002 0.0
 -4.0000000E-001  3.0000000E-002 0.0
 -4.0000000E-001  3.5000000E-002 0.0
 -4.0000000E-001  4.0000000E-002 0.0
 -4.0000000E-001  4.5000000E-002 0.0
 -4.0000000E-001  5.0000000E-002 0.0
 -4.0000000E-001  5.5000000E-002 0.0
 -4.0000000E-001  6.0000000E-002 0.0
 -4.0000000E-001  6.5000000E-002 0.0
 -4.0000000E-001  7.0000000E-002 0.0
 -4.0000000E-001  7.5000000E-002 0.0
 -4.0000000E-001  8.0000000E-002 0.0
 -4.0000000E-001  8.5000000E-002 0.0
 -4.0000000E-001  9.0000000E-002 0.0
 -4.0000000E-001  9.5000000E-002 0.0
 -4.0000000E-001  1.0000000E-001 0.0
 -4.0000000E-001  1.0500000E-001 0.0
 -4.0000000E-001  1.1000000E-001 0.0
 -4.0000000E-001  1.1500000E-001 0.0
 -4.0000000E-001  1.2000000E-001 0.0
 -4.0000000E-001  1.2500000E-001 0.0
 -4.0000000E-001  1.3000000E-001 0.0
 -3.9500000E-001 -5.0000000E-002 0.0
 -3.9500000E-001 -4.5000000E-002 0.0
 -3.9500000E-001 -4.0000000E-002 0.0
 -3.9500000E-001 -3.5000000E-002 0.0
 -3.9500000E-001 -3.0000000E-002 0.0
 -3.9500000E-001 -2.5000000E-002 0.0
 -3.9500000E-001 -2.0000000E-002 0.0
 -3.9500000E-001 -1.5000000E-002 0.0
 -3.9500000E-001 -1.0000000E-002 0.0
 -3.9500000E-001 -5.0000000E-003 0.0
 -3.9500000E-001  0.0000000E+000 0.0
 -3.9500000E-001  5.0000000E-003 0.0
 -3.9500000E-001  1.0000000E-002 0.0
 -3.9500000E-001  1.5000000E-002 0.0
 -3.9500000E-001  2.0000000E-002 0.0
 -3.9500000E-001  2.5000000E-002 0.0
 -3.9500000E-001  3.0000000E-002 0.0
 -3.9500000E-001  3.5000000E-002 0.0
 -3.9500000E-001  4.0000000E-002 0.0
 -3.9500000E-001  4.5000000E-002 0.0
 -3.9500000E-001  5.0000000E-002 0.0
 -3.9500000E-001  5.5000000E-002 0.0
 -3.9500000E-001  6.0000000E-002 0.0
 -3.9500000E-001  6.5000000E-002 0.0
 -3.9500000E-001  7.0000000E-002 0.0
 -3.9500000E-001  7.5000000E-002 0.0
 -3.9500000E-001  8.0000000E-002 0.0
 -3.9500000E-001  8.5000000E-002 0.0
 -3.9500000E-001  9.0000000E-002 0.0
 -3.9500000E-001  9.5000000E-002 0.0
 -3.9500000E-001  1.0000000E-001 0.0
 -3.9500000E-001  1.0500000E-001 0.0
 -3.9500000E-001  1.1000000E-001 0.0
 -3.9500000E-001  1.1500000E-001 0.0
 -3.9500000E-001  1.2000000E-001 0.0
 -3.9500000E-001  1.2500000E-001 0.0
 -3.9500000E-001  1.3000000E-001 0.0
 -3.9500000E-001  1.3500000E-001 0.0
 -4.0000000E-001  1.3500000E-001 0.0
 -3.9500000E-001 -2.2500000E-001 0.0
 -3.9000000E-001 -2.2500000E-001 0.0
 -3.9000000E-001 -2.2000000E-001 0.0
 -3.9500000E-001 -2.2000000E-001 0.0
 -3.9000000E-001 -2.1500000E-001 0.0
 -3.9500000E-001 -2.1500000E-001 0.0
 -3.9000000E-001 -2.1000000E-001 0.0
 -3.9500000E-001 -2.1000000E-001 0.0
 -3.9000000E-001 -2.0500000E-001 0.0
 -3.9500000E-001 -2.0500000E-001 0.0
 -3.9500000E-001 -6.5000000E-002 0.0
 -3.9000000E-001 -6.5000000E-002 0.0
 -3.9000000E-001 -6.0000000E-002 0.0
 -3.9500000E-001 -6.0000000E-002 0.0
 -3.9000000E-001 -5.5000000E-002 0.0
 -3.9500000E-001 -5.5000000E-002 0.0
 -3.9000000E-001 -5.0000000E-002 0.0
 -3.9000000E-001 -4.5000000E-002 0.0
 -3.9000000E-001 -4.0000000E-002 0.0
 -3.9000000E-001 -3.5000000E-002 0.0
 -3.9000000E-001 -3.0000000E-002 0.0
 -3.9000000E-001 -2.5000000E-002 0.0
 -3.9000000E-001 -2.0000000E-002 0.0
 -3.9000000E-001 -1.5000000E-002 0.0
 -3.9000000E-001 -1.0000000E-002 0.0
 -3.9000000E-001 -5.0000000E-003 0.0
 -3.9000000E-001  0.0000000E+000 0.0
 -3.9000000E-001  5.0000000E-003 0.0
 -3.9000000E-001  1.0000000E-002 0.0
 -3.9000000E-001  1.5000000E-002 0.0
 -3.9000000E-001  2.0000000E-002 0.0
 -3.9000000E-001  2.5000000E-002 0.0
 -3.9000000E-001  3.0000000E-002 0.0
 -3.9000000E-001  5.0000000E-002 0.0
 -3.9000000E-001  5.5000000E-002 0.0
 -3.9000000E-001  6.0000000E-002 0.0
 -3.9000000E-001  6.5000000E-002 0.0
 -3.9000000E-001  7.0000000E-002 0.0
 -3.9000000E-001  7.5000000E-002 0.0
 -3.9000000E-001  8.0000000E-002 0.0
 -3.9000000E-001  8.5000000E-002 0.0
 -3.9000000E-001  9.0000000E-002 0.0
 -3.9000000E-001  9.5000000E-002 0.0
 -3.9000000E-001  1.0000000E-001 0.0
 -3.9000000E-001  1.0500000E-001 0.0
 -3.9000000E-001  1.1000000E-001 0.0
 -3.9000000E-001  1.1500000E-001 0.0
 -3.9000000E-001  1.2000000E-001 0.0
 -3.9000000E-001  1.2500000E-001 0.0
 -3.9000000E-001  1.3000000E-001 0.0
 -3.9000000E-001  1.3500000E-001 0.0
 -3.9000000E-001 -2.3000000E-001 0.0
 -3.8500000E-001 -2.3000000E-001 0.0
 -3.8500000E-001 -2.2500000E-001 0.0
 -3.8500000E-001 -2.2000000E-001 0.0
 -3.8500000E-001 -2.1500000E-001 0.0
 -3.8500000E-001 -2.1000000E-001 0.0
 -3.8500000E-001 -2.0500000E-001 0.0
 -3.8500000E-001 -2.0000000E-001 0.0
 -3.9000000E-001 -2.0000000E-001 0.0
 -3.8500000E-001 -1.9500000E-001 0.0
 -3.9000000E-001 -1.9500000E-001 0.0
 -3.8500000E-001 -1.9000000E-001 0.0
 -3.9000000E-001 -1.9000000E-001 0.0
 -3.9000000E-001 -7.5000000E-002 0.0
 -3.8500000E-001 -7.5000000E-002 0.0
 -3.8500000E-001 -7.0000000E-002 0.0
 -3.9000000E-001 -7.0000000E-002 0.0
 -3.8500000E-001 -6.5000000E-002 0.0
 -3.8500000E-001 -6.0000000E-002 0.0
 -3.8500000E-001 -5.5000000E-002 0.0
 -3.8500000E-001 -5.0000000E-002 0.0
 -3.8500000E-001 -4.5000000E-002 0.0
 -3.8500000E-001 -4.0000000E-002 0.0
 -3.8500000E-001 -3.5000000E-002 0.0
 -3.8500000E-001 -3.0000000E-002 0.0
 -3.8500000E-001 -2.5000000E-002 0.0
 -3.8500000E-001 -2.0000000E-002 0.0
 -3.8500000E-001 -1.5000000E-002 0.0
 -3.8500000E-001 -1.0000000E-002 0.0
 -3.8500000E-001 -5.0000000E-003 0.0
 -3.8500000E-001  0.0000000E+000 0.0
 -3.8500000E-001  5.0000000E-003 0.0
 -3.8500000E-001  1.0000000E-002 0.0
 -3.8500000E-001  1.5000000E-002 0.0
 -3.8500000E-001  2.0000000E-002 0.0
 -3.8500000E-001  2.5000000E-002 0.0
 -3.8500000E-001  3.0000000E-002 0.0
 -3.8500000E-001  6.0000000E-002 0.0
 -3.8500000E-001  6.5000000E-002 0.0
 -3.8500000E-001  7.0000000E-002 0.0
 -3.8500000E-001  7.5000000E-002 0.0
 -3.8500000E-001  8.0000000E-002 0.0
 -3.8500000E-001  8.5000000E-002 0.0
 -3.8500000E-001  9.0000000E-002 0.0
 -3.8500000E-001  9.5000000E-002 0.0
 -3.8500000E-001  1.0000000E-001 0.0
 -3.8500000E-001  1.0500000E-001 0.0
 -3.8500000E-001  1.1000000E-001 0.0
 -3.8500000E-001  1.1500000E-001 0.0
 -3.8500000E-001  1.2000000E-001 0.0
 -3.8500000E-001  1.2500000E-001 0.0
 -3.8500000E-001  1.3000000E-001 0.0
 -3.8500000E-001  1.3500000E-001 0.0
 -3.8500000E-001  1.4000000E-001 0.0
 -3.9000000E-001  1.4000000E-001 0.0
 -3.8000000E-001 -2.3000000E-001 0.0
 -3.8000000E-001 -2.2500000E-001 0.0
 -3.8000000E-001 -2.2000000E-001 0.0
 -3.8000000E-001 -2.1500000E-001 0.0
 -3.8000000E-001 -2.1000000E-001 0.0
 -3.8000000E-001 -2.0500000E-001 0.0
 -3.8000000E-001 -2.0000000E-001 0.0
 -3.8000000E-001 -1.9500000E-001 0.0
 -3.8000000E-001 -1.9000000E-001 0.0
 -3.8000000E-001 -1.8500000E-001 0.0
 -3.8500000E-001 -1.8500000E-001 0.0
 -3.8000000E-001 -1.8000000E-001 0.0
 -3.8500000E-001 -1.8000000E-001 0.0
 -3.8000000E-001 -1.7500000E-001 0.0
 -3.8500000E-001 -1.7500000E-001 0.0
 -3.8000000E-001 -1.7000000E-001 0.0
 -3.8500000E-001 -1.7000000E-001 0.0
 -3.8500000E-001 -8.5000000E-002 0.0
 -3.8000000E-001 -8.5000000E-002 0.0
 -3.8000000E-001 -8.0000000E-002 0.0
 -3.8500000E-001 -8.0000000E-002 0.0
 -3.8000000E-001 -7.5000000E-002 0.0
 -3.8000000E-001 -7.0000000E-002 0.0
 -3.8000000E-001 -6.5000000E-002 0.0
 -3.8000000E-001 -6.0000000E-002 0.0
 -3.8000000E-001 -5.5000000E-002 0.0
 -3.8000000E-001 -5.0000000E-002 0.0
 -3.8000000E-001 -4.5000000E-002 0.0
 -3.8000000E-001 -4.0000000E-002 0.0
 -3.8000000E-001 -3.5000000E-002 0.0
 -3.8000000E-001 -3.0000000E-002 0.0
 -3.8000000E-001 -2.5000000E-002 0.0
 -3.8000000E-001 -2.0000000E-002 0.0
 -3.8000000E-001 -1.5000000E-002 0.0
 -3.8000000E-001 -1.0000000E-002 0.0
 -3.8000000E-001 -5.0000000E-003 0.0
 -3.8000000E-001  0.0000000E+000 0.0
 -3.8000000E-001  5.0000000E-003 0.0
 -3.8000000E-001  1.0000000E-002 0.0
 -3.8000000E-001  1.5000000E-002 0.0
 -3.8000000E-001  2.0000000E-002 0.0
 -3.8000000E-001  2.5000000E-002 0.0
 -3.8000000E-001  3.0000000E-002 0.0
 -3.8000000E-001  7.5000000E-002 0.0
 -3.8000000E-001  8.0000000E-002 0.0
 -3.8000000E-001  8.5000000E-002 0.0
 -3.8000000E-001  9.0000000E-002 0.0
 -3.8000000E-001  9.5000000E-002 0.0
 -3.8000000E-001  1.0000000E-001 0.0
 -3.8000000E-001  1.0500000E-001 0.0
 -3.8000000E-001  1.1000000E-001 0.0
 -3.8000000E-001  1.1500000E-001 0.0
 -3.8000000E-001  1.2000000E-001 0.0
 -3.8000000E-001  1.2500000E-001 0.0
 -3.8000000E-001  1.3000000E-001 0.0
 -3.8000000E-001  1.3500000E-001 0.0
 -3.8000000E-001  1.4000000E-001 0.0
 -3.8000000E-001  1.4500000E-001 0.0
 -3.8500000E-001  1.4500000E-001 0.0
 -3.8000000E-001 -2.3500000E-001 0.0
 -3.7500000E-001 -2.3500000E-001 0.0
 -3.7500000E-001 -2.3000000E-001 0.0
 -3.7500000E-001 -2.2500000E-001 0.0
 -3.7500000E-001 -2.2000000E-001 0.0
 -3.7500000E-001 -2.1500000E-001 0.0
 -3.7500000E-001 -2.1000000E-001 0.0
 -3.7500000E-001 -2.0500000E-001 0.0
 -3.7500000E-001 -2.0000000E-001 0.0
 -3.7500000E-001 -1.9500000E-001 0.0
 -3.7500000E-001 -1.9000000E-001 0.0
 -3.7500000E-001 -1.8500000E-001 0.0
 -3.7500000E-001 -1.8000000E-001 0.0
 -3.7500000E-001 -1.7500000E-001 0.0
 -3.7500000E-001 -1.7000000E-001 0.0
 -3.7500000E-001 -1.6500000E-001 0.0
 -3.8000000E-001 -1.6500000E-001 0.0
 -3.7500000E-001 -1.6000000E-001 0.0
 -3.8000000E-001 -1.6000000E-001 0.0
 -3.7500000E-001 -1.5500000E-001 0.0
 -3.8000000E-001 -1.5500000E-001 0.0
 -3.7500000E-001 -1.5000000E-001 0.0
 -3.8000000E-001 -1.5000000E-001 0.0
 -3.7500000E-001 -1.4500000E-001 0.0
 -3.8000000E-001 -1.4500000E-001 0.0
 -3.7500000E-001 -1.4000000E-001 0.0
 -3.8000000E-001 -1.4000000E-001 0.0
 -3.7500000E-001 -1.3500000E-001 0.0
 -3.8000000E-001 -1.3500000E-001 0.0
 -3.7500000E-001 -1.3000000E-001 0.0
 -3.8000000E-001 -1.3000000E-001 0.0
 -3.7500000E-001 -1.2500000E-001 0.0
 -3.8000000E-001 -1.2500000E-001 0.0
 -3.7500000E-001 -1.2000000E-001 0.0
 -3.8000000E-001 -1.2000000E-001 0.0
 -3.7500000E-001 -1.1500000E-001 0.0
 -3.8000000E-001 -1.1500000E-001 0.0
 -3.7500000E-001 -1.1000000E-001 0.0
 -3.8000000E-001 -1.1000000E-001 0.0
 -3.7500000E-001 -1.0500000E-001 0.0
 -3.8000000E-001 -1.0500000E-001 0.0
 -3.7500000E-001 -1.0000000E-001 0.0
 -3.8000000E-001 -1.0000000E-001 0.0
 -3.7500000E-001 -9.5000000E-002 0.0
 -3.8000000E-001 -9.5000000E-002 0.0
 -3.7500000E-001 -9.0000000E-002 0.0
 -3.8000000E-001 -9.0000000E-002 0.0
 -3.7500000E-001 -8.5000000E-002 0.0
 -3.7500000E-001 -8.0000000E-002 0.0
 -3.7500000E-001 -7.5000000E-002 0.0
 -3.7500000E-001 -7.0000000E-002 0.0
 -3.7500000E-001 -6.5000000E-002 0.0
 -3.7500000E-001 -6.0000000E-002 0.0
 -3.7500000E-001 -5.5000000E-002 0.0
 -3.7500000E-001 -5.0000000E-002 0.0
 -3.7500000E-001 -4.5000000E-002 0.0
 -3.7500000E-001 -4.0000000E-002 0.0
 -3.7500000E-001 -3.5000000E-002 0.0
 -3.7500000E-001 -3.0000000E-002 0.0
 -3.7500000E-001 -2.5000000E-002 0.0
 -3.7500000E-001 -2.0000000E-002 0.0
 -3.7500000E-001 -1.5000000E-002 0.0
 -3.7500000E-001 -1.0000000E-002 0.0
 -3.7500000E-001 -5.0000000E-003 0.0
 -3.7500000E-001  0.0000000E+000 0.0
 -3.7500000E-001  5.0000000E-003 0.0
 -3.7500000E-001  1.0000000E-002 0.0
 -3.7500000E-001  1.5000000E-002 0.0
 -3.7500000E-001  2.0000000E-002 0.0
 -3.7500000E-001  2.5000000E-002 0.0
 -3.7500000E-001  3.0000000E-002 0.0
 -3.7500000E-001  8.5000000E-002 0.0
 -3.7500000E-001  9.0000000E-002 0.0
 -3.7500000E-001  9.5000000E-002 0.0
 -3.7500000E-001  1.0000000E-001 0.0
 -3.7500000E-001  1.0500000E-001 0.0
 -3.7500000E-001  1.1000000E-001 0.0
 -3.7500000E-001  1.1500000E-001 0.0
 -3.7500000E-001  1.2000000E-001 0.0
 -3.7500000E-001  1.2500000E-001 0.0
 -3.7500000E-001  1.3000000E-001 0.0
 -3.7500000E-001  1.3500000E-001 0.0
 -3.7500000E-001  1.4000000E-001 0.0
 -3.7500000E-001  1.4500000E-001 0.0
 -3.7000000E-001 -2.3500000E-001 0.0
 -3.7000000E-001 -2.3000000E-001 0.0
 -3.7000000E-001 -2.2500000E-001 0.0
 -3.7000000E-001 -2.2000000E-001 0.0
 -3.7000000E-001 -2.1500000E-001 0.0
 -3.7000000E-001 -2.1000000E-001 0.0
 -3.7000000E-001 -2.0500000E-001 0.0
 -3.7000000E-001 -2.0000000E-001 0.0
 -3.7000000E-001 -1.9500000E-001 0.0
 -3.7000000E-001 -1.9000000E-001 0.0
 -3.7000000E-001 -1.8500000E-001 0.0
 -3.7000000E-001 -1.8000000E-001 0.0
 -3.7000000E-001 -1.7500000E-001 0.0
 -3.7000000E-001 -1.7000000E-001 0.0
 -3.7000000E-001 -1.6500000E-001 0.0
 -3.7000000E-001 -1.6000000E-001 0.0
 -3.7000000E-001 -1.5500000E-001 0.0
 -3.7000000E-001 -1.5000000E-001 0.0
 -3.7000000E-001 -1.4500000E-001 0.0
 -3.7000000E-001 -1.4000000E-001 0.0
 -3.7000000E-001 -1.3500000E-001 0.0
 -3.7000000E-001 -1.3000000E-001 0.0
 -3.7000000E-001 -1.2500000E-001 0.0
 -3.7000000E-001 -1.2000000E-001 0.0
 -3.7000000E-001 -1.1500000E-001 0.0
 -3.7000000E-001 -1.1000000E-001 0.0
 -3.7000000E-001 -1.0500000E-001 0.0
 -3.7000000E-001 -1.0000000E-001 0.0
 -3.7000000E-001 -9.5000000E-002 0.0
 -3.7000000E-001 -9.0000000E-002 0.0
 -3.7000000E-001 -8.5000000E-002 0.0
 -3.7000000E-001 -8.0000000E-002 0.0
 -3.7000000E-001 -7.5000000E-002 0.0
 -3.7000000E-001 -7.0000000E-002 0.0
 -3.7000000E-001 -6.5000000E-002 0.0
 -3.7000000E-001 -6.0000000E-002 0.0
 -3.7000000E-001 -5.5000000E-002 0.0
 -3.7000000E-001 -5.0000000E-002 0.0
 -3.7000000E-001 -4.5000000E-002 0.0
 -3.7000000E-001 -4.0000000E-002 0.0
 -3.7000000E-001 -3.5000000E-002 0.0
 -3.7000000E-001 -3.0000000E-002 0.0
 -3.7000000E-001 -2.5000000E-002 0.0
 -3.7000000E-001 -2.0000000E-002 0.0
 -3.7000000E-001 -1.5000000E-002 0.0
 -3.7000000E-001 -1.0000000E-002 0.0
 -3.7000000E-001 -5.0000000E-003 0.0
 -3.7000000E-001  0.0000000E+000 0.0
 -3.7000000E-001  5.0000000E-003 0.0
 -3.7000000E-001  1.0000000E-002 0.0
 -3.7000000E-001  1.5000000E-002 0.0
 -3.7000000E-001  2.0000000E-002 0.0
 -3.7000000E-001  2.5000000E-002 0.0
 -3.7000000E-001  3.0000000E-002 0.0
 -3.7000000E-001  3.5000000E-002 0.0
 -3.7500000E-001  3.5000000E-002 0.0
 -3.7000000E-001  9.0000000E-002 0.0
 -3.7000000E-001  9.5000000E-002 0.0
 -3.7000000E-001  1.0000000E-001 0.0
 -3.7000000E-001  1.0500000E-001 0.0
 -3.7000000E-001  1.1000000E-001 0.0
 -3.7000000E-001  1.1500000E-001 0.0
 -3.7000000E-001  1.2000000E-001 0.0
 -3.7000000E-001  1.2500000E-001 0.0
 -3.7000000E-001  1.3000000E-001 0.0
 -3.7000000E-001  1.3500000E-001 0.0
 -3.7000000E-001  1.4000000E-001 0.0
 -3.7000000E-001  1.4500000E-001 0.0
 -3.7000000E-001  1.5000000E-001 0.0
 -3.7500000E-001  1.5000000E-001 0.0
 -3.7000000E-001  1.5500000E-001 0.0
 -3.7500000E-001  1.5500000E-001 0.0
 -3.7000000E-001  1.6000000E-001 0.0
 -3.7500000E-001  1.6000000E-001 0.0
 -3.7000000E-001  1.6500000E-001 0.0
 -3.7500000E-001  1.6500000E-001 0.0
 -3.7000000E-001  1.7000000E-001 0.0
 -3.7500000E-001  1.7000000E-001 0.0
 -3.7000000E-001  1.7500000E-001 0.0
 -3.7500000E-001  1.7500000E-001 0.0
 -3.7000000E-001  1.8000000E-001 0.0
 -3.7500000E-001  1.8000000E-001 0.0
 -3.7000000E-001  1.8500000E-001 0.0
 -3.7500000E-001  1.8500000E-001 0.0
 -3.7000000E-001  1.9000000E-001 0.0
 -3.7500000E-001  1.9000000E-001 0.0
 -3.7000000E-001  1.9500000E-001 0.0
 -3.7500000E-001  1.9500000E-001 0.0
 -3.7000000E-001  2.0000000E-001 0.0
 -3.7500000E-001  2.0000000E-001 0.0
 -3.6500000E-001 -2.3500000E-001 0.0
 -3.6500000E-001 -2.3000000E-001 0.0
 -3.6500000E-001 -2.2500000E-001 0.0
 -3.6500000E-001 -2.2000000E-001 0.0
 -3.6500000E-001 -2.1500000E-001 0.0
 -3.6500000E-001 -2.1000000E-001 0.0
 -3.6500000E-001 -2.0500000E-001 0.0
 -3.6500000E-001 -2.0000000E-001 0.0
 -3.6500000E-001 -1.9500000E-001 0.0
 -3.6500000E-001 -1.9000000E-001 0.0
 -3.6500000E-001 -1.8500000E-001 0.0
 -3.6500000E-001 -1.8000000E-001 0.0
 -3.6500000E-001 -1.7500000E-001 0.0
 -3.6500000E-001 -1.7000000E-001 0.0
 -3.6500000E-001 -1.6500000E-001 0.0
 -3.6500000E-001 -1.6000000E-001 0.0
 -3.6500000E-001 -1.5500000E-001 0.0
 -3.6500000E-001 -1.5000000E-001 0.0
 -3.6500000E-001 -1.4500000E-001 0.0
 -3.6500000E-001 -1.4000000E-001 0.0
 -3.6500000E-001 -1.3500000E-001 0.0
 -3.6500000E-001 -1.3000000E-001 0.0
 -3.6500000E-001 -1.2500000E-001 0.0
 -3.6500000E-001 -1.2000000E-001 0.0
 -3.6500000E-001 -1.1500000E-001 0.0
 -3.6500000E-001 -1.1000000E-001 0.0
 -3.6500000E-001 -1.0500000E-001 0.0
 -3.6500000E-001 -1.0000000E-001 0.0
 -3.6500000E-001 -9.5000000E-002 0.0
 -3.6500000E-001 -9.0000000E-002 0.0
 -3.6500000E-001 -8.5000000E-002 0.0
 -3.6500000E-001 -8.0000000E-002 0.0
 -3.6500000E-001 -7.5000000E-002 0.0
 -3.6500000E-001 -7.0000000E-002 0.0
 -3.6500000E-001 -6.5000000E-002 0.0
 -3.6500000E-001 -6.0000000E-002 0.0
 -3.6500000E-001 -5.5000000E-002 0.0
 -3.6500000E-001 -5.0000000E-002 0.0
 -3.6500000E-001 -4.5000000E-002 0.0
 -3.6500000E-001 -4.0000000E-002 0.0
 -3.6500000E-001 -3.5000000E-002 0.0
 -3.6500000E-001 -3.0000000E-002 0.0
 -3.6500000E-001 -2.5000000E-002 0.0
 -3.6500000E-001 -2.0000000E-002 0.0
 -3.6500000E-001 -1.5000000E-002 0.0
 -3.6500000E-001 -1.0000000E-002 0.0
 -3.6500000E-001 -5.0000000E-003 0.0
 -3.6500000E-001  0.0000000E+000 0.0
 -3.6500000E-001  5.0000000E-003 0.0
 -3.6500000E-001  1.0000000E-002 0.0
 -3.6500000E-001  1.5000000E-002 0.0
 -3.6500000E-001  2.0000000E-002 0.0
 -3.6500000E-001  2.5000000E-002 0.0
 -3.6500000E-001  3.0000000E-002 0.0
 -3.6500000E-001  3.5000000E-002 0.0
 -3.6500000E-001  4.0000000E-002 0.0
 -3.7000000E-001  4.0000000E-002 0.0
 -3.6500000E-001  9.5000000E-002 0.0
 -3.6500000E-001  1.0000000E-001 0.0
 -3.6500000E-001  1.0500000E-001 0.0
 -3.6500000E-001  1.1000000E-001 0.0
 -3.6500000E-001  1.1500000E-001 0.0
 -3.6500000E-001  1.2000000E-001 0.0
 -3.6500000E-001  1.2500000E-001 0.0
 -3.6500000E-001  1.3000000E-001 0.0
 -3.6500000E-001  1.3500000E-001 0.0
 -3.6500000E-001  1.4000000E-001 0.0
 -3.6500000E-001  1.4500000E-001 0.0
 -3.6500000E-001  1.5000000E-001 0.0
 -3.6500000E-001  1.5500000E-001 0.0
 -3.6500000E-001  1.6000000E-001 0.0
 -3.6500000E-001  1.6500000E-001 0.0
 -3.6500000E-001  1.7000000E-001 0.0
 -3.6500000E-001  1.7500000E-001 0.0
 -3.6500000E-001  1.8000000E-001 0.0
 -3.6500000E-001  1.8500000E-001 0.0
 -3.6500000E-001  1.9000000E-001 0.0
 -3.6500000E-001  1.9500000E-001 0.0
 -3.6500000E-001  2.0000000E-001 0.0
 -3.6500000E-001  2.0500000E-001 0.0
 -3.7000000E-001  2.0500000E-001 0.0
 -3.6500000E-001  2.1000000E-001 0.0
 -3.7000000E-001  2.1000000E-001 0.0
 -3.6500000E-001  2.1500000E-001 0.0
 -3.7000000E-001  2.1500000E-001 0.0
 -3.6000000E-001 -2.3500000E-001 0.0
 -3.6000000E-001 -2.3000000E-001 0.0
 -3.6000000E-001 -2.2500000E-001 0.0
 -3.6000000E-001 -2.2000000E-001 0.0
 -3.6000000E-001 -2.1500000E-001 0.0
 -3.6000000E-001 -2.1000000E-001 0.0
 -3.6000000E-001 -2.0500000E-001 0.0
 -3.6000000E-001 -2.0000000E-001 0.0
 -3.6000000E-001 -1.9500000E-001 0.0
 -3.6000000E-001 -1.9000000E-001 0.0
 -3.6000000E-001 -1.8500000E-001 0.0
 -3.6000000E-001 -1.8000000E-001 0.0
 -3.6000000E-001 -1.7500000E-001 0.0
 -3.6000000E-001 -1.7000000E-001 0.0
 -3.6000000E-001 -1.6500000E-001 0.0
 -3.6000000E-001 -1.6000000E-001 0.0
 -3.6000000E-001 -1.5500000E-001 0.0
 -3.6000000E-001 -1.5000000E-001 0.0
 -3.6000000E-001 -1.4500000E-001 0.0
 -3.6000000E-001 -1.4000000E-001 0.0
 -3.6000000E-001 -1.3500000E-001 0.0
 -3.6000000E-001 -1.3000000E-001 0.0
 -3.6000000E-001 -1.2500000E-001 0.0
 -3.6000000E-001 -1.2000000E-001 0.0
 -3.6000000E-001 -1.1500000E-001 0.0
 -3.6000000E-001 -1.1000000E-001 0.0
 -3.6000000E-001 -1.0500000E-001 0.0
 -3.6000000E-001 -1.0000000E-001 0.0
 -3.6000000E-001 -9.5000000E-002 0.0
 -3.6000000E-001 -9.0000000E-002 0.0
 -3.6000000E-001 -8.5000000E-002 0.0
 -3.6000000E-001 -8.0000000E-002 0.0
 -3.6000000E-001 -7.5000000E-002 0.0
 -3.6000000E-001 -7.0000000E-002 0.0
 -3.6000000E-001 -6.5000000E-002 0.0
 -3.6000000E-001 -6.0000000E-002 0.0
 -3.6000000E-001 -5.5000000E-002 0.0
 -3.6000000E-001 -5.0000000E-002 0.0
 -3.6000000E-001 -4.5000000E-002 0.0
 -3.6000000E-001 -4.0000000E-002 0.0
 -3.6000000E-001 -3.5000000E-002 0.0
 -3.6000000E-001 -3.0000000E-002 0.0
 -3.6000000E-001 -2.5000000E-002 0.0
 -3.6000000E-001 -2.0000000E-002 0.0
 -3.6000000E-001 -1.5000000E-002 0.0
 -3.6000000E-001 -1.0000000E-002 0.0
 -3.6000000E-001 -5.0000000E-003 0.0
 -3.6000000E-001  0.0000000E+000 0.0
 -3.6000000E-001  5.0000000E-003 0.0
 -3.6000000E-001  1.0000000E-002 0.0
 -3.6000000E-001  1.5000000E-002 0.0
 -3.6000000E-001  2.0000000E-002 0.0
 -3.6000000E-001  2.5000000E-002 0.0
 -3.6000000E-001  3.0000000E-002 0.0
 -3.6000000E-001  3.5000000E-002 0.0
 -3.6000000E-001  4.0000000E-002 0.0
 -3.6000000E-001  9.5000000E-002 0.0
 -3.6000000E-001  1.0000000E-001 0.0
 -3.6000000E-001  1.0500000E-001 0.0
 -3.6000000E-001  1.1000000E-001 0.0
 -3.6000000E-001  1.1500000E-001 0.0
 -3.6000000E-001  1.2000000E-001 0.0
 -3.6000000E-001  1.2500000E-001 0.0
 -3.6000000E-001  1.3000000E-001 0.0
 -3.6000000E-001  1.3500000E-001 0.0
 -3.6000000E-001  1.4000000E-001 0.0
 -3.6000000E-001  1.4500000E-001 0.0
 -3.6000000E-001  1.5000000E-001 0.0
 -3.6000000E-001  1.5500000E-001 0.0
 -3.6000000E-001  1.6000000E-001 0.0
 -3.6000000E-001  1.6500000E-001 0.0
 -3.6000000E-001  1.7000000E-001 0.0
 -3.6000000E-001  1.7500000E-001 0.0
 -3.6000000E-001  1.8000000E-001 0.0
 -3.6000000E-001  1.8500000E-001 0.0
 -3.6000000E-001  1.9000000E-001 0.0
 -3.6000000E-001  1.9500000E-001 0.0
 -3.6000000E-001  2.0000000E-001 0.0
 -3.6000000E-001  2.0500000E-001 0.0
 -3.6000000E-001  2.1000000E-001 0.0
 -3.6000000E-001  2.1500000E-001 0.0
 -3.6000000E-001  2.2000000E-001 0.0
 -3.6500000E-001  2.2000000E-001 0.0
 -3.5500000E-001 -2.3500000E-001 0.0
 -3.5500000E-001 -2.3000000E-001 0.0
 -3.5500000E-001 -2.2500000E-001 0.0
 -3.5500000E-001 -2.2000000E-001 0.0
 -3.5500000E-001 -2.1500000E-001 0.0
 -3.5500000E-001 -2.1000000E-001 0.0
 -3.5500000E-001 -2.0500000E-001 0.0
 -3.5500000E-001 -2.0000000E-001 0.0
 -3.5500000E-001 -1.9500000E-001 0.0
 -3.5500000E-001 -1.9000000E-001 0.0
 -3.5500000E-001 -1.8500000E-001 0.0
 -3.5500000E-001 -1.8000000E-001 0.0
 -3.5500000E-001 -1.7500000E-001 0.0
 -3.5500000E-001 -1.7000000E-001 0.0
 -3.5500000E-001 -1.6500000E-001 0.0
 -3.5500000E-001 -1.6000000E-001 0.0
 -3.5500000E-001 -1.5500000E-001 0.0
 -3.5500000E-001 -1.5000000E-001 0.0
 -3.5500000E-001 -1.4500000E-001 0.0
 -3.5500000E-001 -1.4000000E-001 0.0
 -3.5500000E-001 -1.3500000E-001 0.0
 -3.5500000E-001 -1.3000000E-001 0.0
 -3.5500000E-001 -1.2500000E-001 0.0
 -3.5500000E-001 -1.2000000E-001 0.0
 -3.5500000E-001 -1.1500000E-001 0.0
 -3.5500000E-001 -1.1000000E-001 0.0
 -3.5500000E-001 -1.0500000E-001 0.0
 -3.5500000E-001 -1.0000000E-001 0.0
 -3.5500000E-001 -9.5000000E-002 0.0
 -3.5500000E-001 -9.0000000E-002 0.0
 -3.5500000E-001 -8.5000000E-002 0.0
 -3.5500000E-001 -8.0000000E-002 0.0
 -3.5500000E-001 -7.5000000E-002 0.0
 -3.5500000E-001 -7.0000000E-002 0.0
 -3.5500000E-001 -6.5000000E-002 0.0
 -3.5500000E-001 -6.0000000E-002 0.0
 -3.5500000E-001 -5.5000000E-002 0.0
 -3.5500000E-001 -5.0000000E-002 0.0
 -3.5500000E-001 -4.5000000E-002 0.0
 -3.5500000E-001 -4.0000000E-002 0.0
 -3.5500000E-001 -3.5000000E-002 0.0
 -3.5500000E-001 -3.0000000E-002 0.0
 -3.5500000E-001 -2.5000000E-002 0.0
 -3.5500000E-001 -2.0000000E-002 0.0
 -3.5500000E-001 -1.5000000E-002 0.0
 -3.5500000E-001 -1.0000000E-002 0.0
 -3.5500000E-001 -5.0000000E-003 0.0
 -3.5500000E-001  0.0000000E+000 0.0
 -3.5500000E-001  5.0000000E-003 0.0
 -3.5500000E-001  1.0000000E-002 0.0
 -3.5500000E-001  1.5000000E-002 0.0
 -3.5500000E-001  2.0000000E-002 0.0
 -3.5500000E-001  2.5000000E-002 0.0
 -3.5500000E-001  3.0000000E-002 0.0
 -3.5500000E-001  3.5000000E-002 0.0
 -3.5500000E-001  4.0000000E-002 0.0
 -3.5500000E-001  4.5000000E-002 0.0
 -3.6000000E-001  4.5000000E-002 0.0
 -3.5500000E-001  1.0000000E-001 0.0
 -3.5500000E-001  1.0500000E-001 0.0
 -3.5500000E-001  1.1000000E-001 0.0
 -3.5500000E-001  1.1500000E-001 0.0
 -3.5500000E-001  1.2000000E-001 0.0
 -3.5500000E-001  1.2500000E-001 0.0
 -3.5500000E-001  1.3000000E-001 0.0
 -3.5500000E-001  1.3500000E-001 0.0
 -3.5500000E-001  1.4000000E-001 0.0
 -3.5500000E-001  1.4500000E-001 0.0
 -3.5500000E-001  1.5000000E-001 0.0
 -3.5500000E-001  1.5500000E-001 0.0
 -3.5500000E-001  1.6000000E-001 0.0
 -3.5500000E-001  1.6500000E-001 0.0
 -3.5500000E-001  1.7000000E-001 0.0
 -3.5500000E-001  1.7500000E-001 0.0
 -3.5500000E-001  1.8000000E-001 0.0
 -3.5500000E-001  1.8500000E-001 0.0
 -3.5500000E-001  1.9000000E-001 0.0
 -3.5500000E-001  1.9500000E-001 0.0
 -3.5500000E-001  2.0000000E-001 0.0
 -3.5500000E-001  2.0500000E-001 0.0
 -3.5500000E-001  2.1000000E-001 0.0
 -3.5500000E-001  2.1500000E-001 0.0
 -3.5500000E-001  2.2000000E-001 0.0
 -3.5000000E-001 -2.3500000E-001 0.0
 -3.5000000E-001 -2.3000000E-001 0.0
 -3.5000000E-001 -2.2500000E-001 0.0
 -3.5000000E-001 -2.2000000E-001 0.0
 -3.5000000E-001 -2.1500000E-001 0.0
 -3.5000000E-001 -2.1000000E-001 0.0
 -3.5000000E-001 -2.0500000E-001 0.0
 -3.5000000E-001 -2.0000000E-001 0.0
 -3.5000000E-001 -1.9500000E-001 0.0
 -3.5000000E-001 -1.9000000E-001 0.0
 -3.5000000E-001 -1.8500000E-001 0.0
 -3.5000000E-001 -1.8000000E-001 0.0
 -3.5000000E-001 -1.7500000E-001 0.0
 -3.5000000E-001 -1.7000000E-001 0.0
 -3.5000000E-001 -1.6500000E-001 0.0
 -3.5000000E-001 -1.6000000E-001 0.0
 -3.5000000E-001 -1.5500000E-001 0.0
 -3.5000000E-001 -1.5000000E-001 0.0
 -3.5000000E-001 -1.4500000E-001 0.0
 -3.5000000E-001 -1.4000000E-001 0.0
 -3.5000000E-001 -1.3500000E-001 0.0
 -3.5000000E-001 -1.3000000E-001 0.0
 -3.5000000E-001 -1.2500000E-001 0.0
 -3.5000000E-001 -1.2000000E-001 0.0
 -3.5000000E-001 -1.1500000E-001 0.0
 -3.5000000E-001 -1.1000000E-001 0.0
 -3.5000000E-001 -1.0500000E-001 0.0
 -3.5000000E-001 -1.0000000E-001 0.0
 -3.5000000E-001 -9.5000000E-002 0.0
 -3.5000000E-001 -9.0000000E-002 0.0
 -3.5000000E-001 -8.5000000E-002 0.0
 -3.5000000E-001 -8.0000000E-002 0.0
 -3.5000000E-001 -7.5000000E-002 0.0
 -3.5000000E-001 -7.0000000E-002 0.0
 -3.5000000E-001 -6.5000000E-002 0.0
 -3.5000000E-001 -6.0000000E-002 0.0
 -3.5000000E-001 -5.5000000E-002 0.0
 -3.5000000E-001 -5.0000000E-002 0.0
 -3.5000000E-001 -4.5000000E-002 0.0
 -3.5000000E-001 -4.0000000E-002 0.0
 -3.5000000E-001 -3.5000000E-002 0.0
 -3.5000000E-001 -3.0000000E-002 0.0
 -3.5000000E-001 -2.5000000E-002 0.0
 -3.5000000E-001 -2.0000000E-002 0.0
 -3.5000000E-001 -1.5000000E-002 0.0
 -3.5000000E-001 -1.0000000E-002 0.0
 -3.5000000E-001 -5.0000000E-003 0.0
 -3.5000000E-001  0.0000000E+000 0.0
 -3.5000000E-001  5.0000000E-003 0.0
 -3.5000000E-001  1.0000000E-002 0.0
 -3.5000000E-001  1.5000000E-002 0.0
 -3.5000000E-001  2.0000000E-002 0.0
 -3.5000000E-001  2.5000000E-002 0.0
 -3.5000000E-001  3.0000000E-002 0.0
 -3.5000000E-001  3.5000000E-002 0.0
 -3.5000000E-001  4.0000000E-002 0.0
 -3.5000000E-001  4.5000000E-002 0.0
 -3.5000000E-001  1.0000000E-001 0.0
 -3.5000000E-001  1.0500000E-001 0.0
 -3.5000000E-001  1.1000000E-001 0.0
 -3.5000000E-001  1.1500000E-001 0.0
 -3.5000000E-001  1.2000000E-001 0.0
 -3.5000000E-001  1.2500000E-001 0.0
 -3.5000000E-001  1.3000000E-001 0.0
 -3.5000000E-001  1.3500000E-001 0.0
 -3.5000000E-001  1.4000000E-001 0.0
 -3.5000000E-001  1.4500000E-001 0.0
 -3.5000000E-001  1.5000000E-001 0.0
 -3.5000000E-001  1.5500000E-001 0.0
 -3.5000000E-001  1.6000000E-001 0.0
 -3.5000000E-001  1.6500000E-001 0.0
 -3.5000000E-001  1.7000000E-001 0.0
 -3.5000000E-001  1.7500000E-001 0.0
 -3.5000000E-001  1.8000000E-001 0.0
 -3.5000000E-001  1.8500000E-001 0.0
 -3.5000000E-001  1.9000000E-001 0.0
 -3.5000000E-001  1.9500000E-001 0.0
 -3.5000000E-001  2.0000000E-001 0.0
 -3.5000000E-001  2.0500000E-001 0.0
 -3.5000000E-001  2.1000000E-001 0.0
 -3.5000000E-001  2.1500000E-001 0.0
 -3.5000000E-001  2.2000000E-001 0.0
 -3.4500000E-001 -2.3000000E-001 0.0
 -3.4500000E-001 -2.2500000E-001 0.0
 -3.4500000E-001 -2.2000000E-001 0.0
 -3.4500000E-001 -2.1500000E-001 0.0
 -3.4500000E-001 -2.1000000E-001 0.0
 -3.4500000E-001 -2.0500000E-001 0.0
 -3.4500000E-001 -2.0000000E-001 0.0
 -3.4500000E-001 -1.9500000E-001 0.0
 -3.4500000E-001 -1.9000000E-001 0.0
 -3.4500000E-001 -1.8500000E-001 0.0
 -3.4500000E-001 -1.8000000E-001 0.0
 -3.4500000E-001 -1.7500000E-001 0.0
 -3.4500000E-001 -1.7000000E-001 0.0
 -3.4500000E-001 -1.6500000E-001 0.0
 -3.4500000E-001 -1.6000000E-001 0.0
 -3.4500000E-001 -1.5500000E-001 0.0
 -3.4500000E-001 -1.5000000E-001 0.0
 -3.4500000E-001 -1.4500000E-001 0.0
 -3.4500000E-001 -1.4000000E-001 0.0
 -3.4500000E-001 -1.3500000E-001 0.0
 -3.4500000E-001 -1.3000000E-001 0.0
 -3.4500000E-001 -1.2500000E-001 0.0
 -3.4500000E-001 -1.2000000E-001 0.0
 -3.4500000E-001 -1.1500000E-001 0.0
 -3.4500000E-001 -1.1000000E-001 0.0
 -3.4500000E-001 -1.0500000E-001 0.0
 -3.4500000E-001 -1.0000000E-001 0.0
 -3.4500000E-001 -9.5000000E-002 0.0
 -3.4500000E-001 -9.0000000E-002 0.0
 -3.4500000E-001 -8.5000000E-002 0.0
 -3.4500000E-001 -8.0000000E-002 0.0
 -3.4500000E-001 -7.5000000E-002 0.0
 -3.4500000E-001 -7.0000000E-002 0.0
 -3.4500000E-001 -6.5000000E-002 0.0
 -3.4500000E-001 -6.0000000E-002 0.0
 -3.4500000E-001 -5.5000000E-002 0.0
 -3.4500000E-001 -5.0000000E-002 0.0
 -3.4500000E-001 -4.5000000E-002 0.0
 -3.4500000E-001 -4.0000000E-002 0.0
 -3.4500000E-001 -3.5000000E-002 0.0
 -3.4500000E-001 -3.0000000E-002 0.0
 -3.4500000E-001 -2.5000000E-002 0.0
 -3.4500000E-001 -2.0000000E-002 0.0
 -3.4500000E-001 -1.5000000E-002 0.0
 -3.4500000E-001 -1.0000000E-002 0.0
 -3.4500000E-001 -5.0000000E-003 0.0
 -3.4500000E-001  0.0000000E+000 0.0
 -3.4500000E-001  5.0000000E-003 0.0
 -3.4500000E-001  1.0000000E-002 0.0
 -3.4500000E-001  1.5000000E-002 0.0
 -3.4500000E-001  2.0000000E-002 0.0
 -3.4500000E-001  2.5000000E-002 0.0
 -3.4500000E-001  3.0000000E-002 0.0
 -3.4500000E-001  3.5000000E-002 0.0
 -3.4500000E-001  4.0000000E-002 0.0
 -3.4500000E-001  4.5000000E-002 0.0
 -3.4500000E-001  1.0500000E-001 0.0
 -3.4500000E-001  1.1000000E-001 0.0
 -3.4500000E-001  1.1500000E-001 0.0
 -3.4500000E-001  1.2000000E-001 0.0
 -3.4500000E-001  1.2500000E-001 0.0
 -3.4500000E-001  1.3000000E-001 0.0
 -3.4500000E-001  1.3500000E-001 0.0
 -3.4500000E-001  1.4000000E-001 0.0
 -3.4500000E-001  1.4500000E-001 0.0
 -3.4500000E-001  1.5000000E-001 0.0
 -3.4500000E-001  1.5500000E-001 0.0
 -3.4500000E-001  1.6000000E-001 0.0
 -3.4500000E-001  1.6500000E-001 0.0
 -3.4500000E-001  1.7000000E-001 0.0
 -3.4500000E-001  1.7500000E-001 0.0
 -3.4500000E-001  1.8000000E-001 0.0
 -3.4500000E-001  1.8500000E-001 0.0
 -3.4500000E-001  1.9000000E-001 0.0
 -3.4500000E-001  1.9500000E-001 0.0
 -3.4500000E-001  2.0000000E-001 0.0
 -3.4500000E-001  2.0500000E-001 0.0
 -3.4500000E-001  2.1000000E-001 0.0
 -3.4500000E-001  2.1500000E-001 0.0
 -3.4500000E-001  2.2000000E-001 0.0
 -3.4000000E-001 -2.3000000E-001 0.0
 -3.4000000E-001 -2.2500000E-001 0.0
 -3.4000000E-001 -2.2000000E-001 0.0
 -3.4000000E-001 -2.1500000E-001 0.0
 -3.4000000E-001 -2.1000000E-001 0.0
 -3.4000000E-001 -2.0500000E-001 0.0
 -3.4000000E-001 -2.0000000E-001 0.0
 -3.4000000E-001 -1.9500000E-001 0.0
 -3.4000000E-001 -1.9000000E-001 0.0
 -3.4000000E-001 -1.8500000E-001 0.0
 -3.4000000E-001 -1.8000000E-001 0.0
 -3.4000000E-001 -1.7500000E-001 0.0
 -3.4000000E-001 -1.7000000E-001 0.0
 -3.4000000E-001 -1.6500000E-001 0.0
 -3.4000000E-001 -1.6000000E-001 0.0
 -3.4000000E-001 -1.5500000E-001 0.0
 -3.4000000E-001 -1.5000000E-001 0.0
 -3.4000000E-001 -1.4500000E-001 0.0
 -3.4000000E-001 -1.4000000E-001 0.0
 -3.4000000E-001 -1.3500000E-001 0.0
 -3.4000000E-001 -1.0500000E-001 0.0
 -3.4000000E-001 -1.0000000E-001 0.0
 -3.4000000E-001 -9.5000000E-002 0.0
 -3.4000000E-001 -9.0000000E-002 0.0
 -3.4000000E-001 -8.5000000E-002 0.0
 -3.4000000E-001 -8.0000000E-002 0.0
 -3.4000000E-001 -7.5000000E-002 0.0
 -3.4000000E-001 -7.0000000E-002 0.0
 -3.4000000E-001 -6.5000000E-002 0.0
 -3.4000000E-001 -6.0000000E-002 0.0
 -3.4000000E-001 -5.5000000E-002 0.0
 -3.4000000E-001 -5.0000000E-002 0.0
 -3.4000000E-001 -4.5000000E-002 0.0
 -3.4000000E-001 -4.0000000E-002 0.0
 -3.4000000E-001 -3.5000000E-002 0.0
 -3.4000000E-001 -3.0000000E-002 0.0
 -3.4000000E-001 -2.5000000E-002 0.0
 -3.4000000E-001 -2.0000000E-002 0.0
 -3.4000000E-001 -1.5000000E-002 0.0
 -3.4000000E-001 -1.0000000E-002 0.0
 -3.4000000E-001 -5.0000000E-003 0.0
 -3.4000000E-001  0.0000000E+000 0.0
 -3.4000000E-001  5.0000000E-003 0.0
 -3.4000000E-001  1.0000000E-002 0.0
 -3.4000000E-001  1.5000000E-002 0.0
 -3.4000000E-001  2.0000000E-002 0.0
 -3.4000000E-001  2.5000000E-002 0.0
 -3.4000000E-001  3.0000000E-002 0.0
 -3.4000000E-001  3.5000000E-002 0.0
 -3.4000000E-001  4.0000000E-002 0.0
 -3.4000000E-001  4.5000000E-002 0.0
 -3.4000000E-001  1.1000000E-001 0.0
 -3.4000000E-001  1.1500000E-001 0.0
 -3.4000000E-001  1.2000000E-001 0.0
 -3.4000000E-001  1.2500000E-001 0.0
 -3.4000000E-001  1.3000000E-001 0.0
 -3.4000000E-001  1.3500000E-001 0.0
 -3.4000000E-001  1.4000000E-001 0.0
 -3.4000000E-001  1.4500000E-001 0.0
 -3.4000000E-001  1.5000000E-001 0.0
 -3.4000000E-001  1.5500000E-001 0.0
 -3.4000000E-001  1.6000000E-001 0.0
 -3.4000000E-001  1.6500000E-001 0.0
 -3.4000000E-001  1.7000000E-001 0.0
 -3.4000000E-001  1.7500000E-001 0.0
 -3.4000000E-001  1.8000000E-001 0.0
 -3.4000000E-001  1.8500000E-001 0.0
 -3.4000000E-001  1.9000000E-001 0.0
 -3.4000000E-001  1.9500000E-001 0.0
 -3.4000000E-001  2.0000000E-001 0.0
 -3.4000000E-001  2.0500000E-001 0.0
 -3.4000000E-001  2.1000000E-001 0.0
 -3.4000000E-001  2.1500000E-001 0.0
 -3.4000000E-001  2.2000000E-001 0.0
 -3.3500000E-001 -2.3000000E-001 0.0
 -3.3500000E-001 -2.2500000E-001 0.0
 -3.3500000E-001 -2.2000000E-001 0.0
 -3.3500000E-001 -2.1500000E-001 0.0
 -3.3500000E-001 -2.1000000E-001 0.0
 -3.3500000E-001 -2.0500000E-001 0.0
 -3.3500000E-001 -2.0000000E-001 0.0
 -3.3500000E-001 -1.9500000E-001 0.0
 -3.3500000E-001 -1.9000000E-001 0.0
 -3.3500000E-001 -1.8500000E-001 0.0
 -3.3500000E-001 -1.8000000E-001 0.0
 -3.3500000E-001 -1.7500000E-001 0.0
 -3.3500000E-001 -1.7000000E-001 0.0
 -3.3500000E-001 -1.6500000E-001 0.0
 -3.3500000E-001 -1.6000000E-001 0.0
 -3.3500000E-001 -1.5500000E-001 0.0
 -3.3500000E-001 -1.5000000E-001 0.0
 -3.3500000E-001 -1.4500000E-001 0.0
 -3.3500000E-001 -1.4000000E-001 0.0
 -3.3500000E-001 -1.3500000E-001 0.0
 -3.3500000E-001 -9.0000000E-002 0.0
 -3.3500000E-001 -8.5000000E-002 0.0
 -3.3500000E-001 -8.0000000E-002 0.0
 -3.3500000E-001 -7.5000000E-002 0.0
 -3.3500000E-001 -7.0000000E-002 0.0
 -3.3500000E-001 -6.5000000E-002 0.0
 -3.3500000E-001 -6.0000000E-002 0.0
 -3.3500000E-001 -5.5000000E-002 0.0
 -3.3500000E-001 -5.0000000E-002 0.0
 -3.3500000E-001 -4.5000000E-002 0.0
 -3.3500000E-001 -4.0000000E-002 0.0
 -3.3500000E-001 -3.5000000E-002 0.0
 -3.3500000E-001 -3.0000000E-002 0.0
 -3.3500000E-001 -2.5000000E-002 0.0
 -3.3500000E-001 -2.0000000E-002 0.0
 -3.3500000E-001 -1.5000000E-002 0.0
 -3.3500000E-001 -1.0000000E-002 0.0
 -3.3500000E-001 -5.0000000E-003 0.0
 -3.3500000E-001  0.0000000E+000 0.0
 -3.3500000E-001  5.0000000E-003 0.0
 -3.3500000E-001  1.0000000E-002 0.0
 -3.3500000E-001  1.5000000E-002 0.0
 -3.3500000E-001  2.0000000E-002 0.0
 -3.3500000E-001  2.5000000E-002 0.0
 -3.3500000E-001  3.0000000E-002 0.0
 -3.3500000E-001  3.5000000E-002 0.0
 -3.3500000E-001  4.0000000E-002 0.0
 -3.3500000E-001  1.1000000E-001 0.0
 -3.3500000E-001  1.1500000E-001 0.0
 -3.3500000E-001  1.2000000E-001 0.0
 -3.3500000E-001  1.2500000E-001 0.0
 -3.3500000E-001  1.3000000E-001 0.0
 -3.3500000E-001  1.3500000E-001 0.0
 -3.3500000E-001  1.4000000E-001 0.0
 -3.3500000E-001  1.4500000E-001 0.0
 -3.3500000E-001  1.5000000E-001 0.0
 -3.3500000E-001  1.5500000E-001 0.0
 -3.3500000E-001  1.6000000E-001 0.0
 -3.3500000E-001  1.6500000E-001 0.0
 -3.3500000E-001  1.7000000E-001 0.0
 -3.3500000E-001  1.7500000E-001 0.0
 -3.3500000E-001  1.8000000E-001 0.0
 -3.3500000E-001  1.8500000E-001 0.0
 -3.3500000E-001  1.9000000E-001 0.0
 -3.3500000E-001  1.9500000E-001 0.0
 -3.3500000E-001  2.0000000E-001 0.0
 -3.3500000E-001  2.0500000E-001 0.0
 -3.3500000E-001  2.1000000E-001 0.0
 -3.3500000E-001  2.1500000E-001 0.0
 -3.3500000E-001  2.2000000E-001 0.0
 -3.3000000E-001 -2.2500000E-001 0.0
 -3.3000000E-001 -2.2000000E-001 0.0
 -3.3000000E-001 -2.1500000E-001 0.0
 -3.3000000E-001 -2.1000000E-001 0.0
 -3.3000000E-001 -2.0500000E-001 0.0
 -3.3000000E-001 -2.0000000E-001 0.0
 -3.3000000E-001 -1.9500000E-001 0.0
 -3.3000000E-001 -1.9000000E-001 0.0
 -3.3000000E-001 -1.8500000E-001 0.0
 -3.3000000E-001 -1.8000000E-001 0.0
 -3.3000000E-001 -1.7500000E-001 0.0
 -3.3000000E-001 -1.7000000E-001 0.0
 -3.3000000E-001 -1.6500000E-001 0.0
 -3.3000000E-001 -1.6000000E-001 0.0
 -3.3000000E-001 -1.5500000E-001 0.0
 -3.3000000E-001 -1.5000000E-001 0.0
 -3.3000000E-001 -1.4500000E-001 0.0
 -3.3000000E-001 -1.4000000E-001 0.0
 -3.3000000E-001 -1.3500000E-001 0.0
 -3.3000000E-001 -8.0000000E-002 0.0
 -3.3000000E-001 -7.5000000E-002 0.0
 -3.3000000E-001 -7.0000000E-002 0.0
 -3.3000000E-001 -6.5000000E-002 0.0
 -3.3000000E-001 -6.0000000E-002 0.0
 -3.3000000E-001 -5.5000000E-002 0.0
 -3.3000000E-001 -5.0000000E-002 0.0
 -3.3000000E-001 -4.5000000E-002 0.0
 -3.3000000E-001 -4.0000000E-002 0.0
 -3.3000000E-001 -3.5000000E-002 0.0
 -3.3000000E-001 -3.0000000E-002 0.0
 -3.3000000E-001 -2.5000000E-002 0.0
 -3.3000000E-001 -2.0000000E-002 0.0
 -3.3000000E-001 -1.5000000E-002 0.0
 -3.3000000E-001 -1.0000000E-002 0.0
 -3.3000000E-001 -5.0000000E-003 0.0
 -3.3000000E-001  0.0000000E+000 0.0
 -3.3000000E-001  5.0000000E-003 0.0
 -3.3000000E-001  1.0000000E-002 0.0
 -3.3000000E-001  1.5000000E-002 0.0
 -3.3000000E-001  2.0000000E-002 0.0
 -3.3000000E-001  2.5000000E-002 0.0
 -3.3000000E-001  3.0000000E-002 0.0
 -3.3000000E-001  3.5000000E-002 0.0
 -3.3000000E-001  4.0000000E-002 0.0
 -3.3000000E-001  1.1500000E-001 0.0
 -3.3000000E-001  1.2000000E-001 0.0
 -3.3000000E-001  1.2500000E-001 0.0
 -3.3000000E-001  1.3000000E-001 0.0
 -3.3000000E-001  1.3500000E-001 0.0
 -3.3000000E-001  1.4000000E-001 0.0
 -3.3000000E-001  1.4500000E-001 0.0
 -3.3000000E-001  1.5000000E-001 0.0
 -3.3000000E-001  1.5500000E-001 0.0
 -3.3000000E-001  1.6000000E-001 0.0
 -3.3000000E-001  1.6500000E-001 0.0
 -3.3000000E-001  1.7000000E-001 0.0
 -3.3000000E-001  1.7500000E-001 0.0
 -3.3000000E-001  1.8000000E-001 0.0
 -3.3000000E-001  1.8500000E-001 0.0
 -3.3000000E-001  1.9000000E-001 0.0
 -3.3000000E-001  1.9500000E-001 0.0
 -3.3000000E-001  2.0000000E-001 0.0
 -3.3000000E-001  2.0500000E-001 0.0
 -3.2500000E-001 -2.2000000E-001 0.0
 -3.2500000E-001 -2.1500000E-001 0.0
 -3.2500000E-001 -2.1000000E-001 0.0
 -3.2500000E-001 -2.0500000E-001 0.0
 -3.2500000E-001 -2.0000000E-001 0.0
 -3.2500000E-001 -1.9500000E-001 0.0
 -3.2500000E-001 -1.9000000E-001 0.0
 -3.2500000E-001 -1.8500000E-001 0.0
 -3.2500000E-001 -1.8000000E-001 0.0
 -3.2500000E-001 -1.7500000E-001 0.0
 -3.2500000E-001 -1.7000000E-001 0.0
 -3.2500000E-001 -1.6500000E-001 0.0
 -3.2500000E-001 -1.6000000E-001 0.0
 -3.2500000E-001 -1.5500000E-001 0.0
 -3.2500000E-001 -1.5000000E-001 0.0
 -3.2500000E-001 -1.4500000E-001 0.0
 -3.2500000E-001 -1.4000000E-001 0.0
 -3.2500000E-001 -1.3500000E-001 0.0
 -3.2500000E-001 -7.0000000E-002 0.0
 -3.2500000E-001 -6.5000000E-002 0.0
 -3.2500000E-001 -6.0000000E-002 0.0
 -3.2500000E-001 -5.5000000E-002 0.0
 -3.2500000E-001 -5.0000000E-002 0.0
 -3.2500000E-001 -4.5000000E-002 0.0
 -3.2500000E-001 -4.0000000E-002 0.0
 -3.2500000E-001 -3.5000000E-002 0.0
 -3.2500000E-001 -3.0000000E-002 0.0
 -3.2500000E-001 -2.5000000E-002 0.0
 -3.2500000E-001 -2.0000000E-002 0.0
 -3.2500000E-001 -1.5000000E-002 0.0
 -3.2500000E-001 -1.0000000E-002 0.0
 -3.2500000E-001 -5.0000000E-003 0.0
 -3.2500000E-001  0.0000000E+000 0.0
 -3.2500000E-001  5.0000000E-003 0.0
 -3.2500000E-001  1.0000000E-002 0.0
 -3.2500000E-001  1.5000000E-002 0.0
 -3.2500000E-001  2.0000000E-002 0.0
 -3.2500000E-001  2.5000000E-002 0.0
 -3.2500000E-001  3.0000000E-002 0.0
 -3.2500000E-001  3.5000000E-002 0.0
 -3.2500000E-001  4.0000000E-002 0.0
 -3.2500000E-001  1.1500000E-001 0.0
 -3.2500000E-001  1.2000000E-001 0.0
 -3.2500000E-001  1.2500000E-001 0.0
 -3.2500000E-001  1.3000000E-001 0.0
 -3.2500000E-001  1.3500000E-001 0.0
 -3.2500000E-001  1.4000000E-001 0.0
 -3.2500000E-001  1.4500000E-001 0.0
 -3.2500000E-001  1.5000000E-001 0.0
 -3.2500000E-001  1.5500000E-001 0.0
 -3.2500000E-001  1.6000000E-001 0.0
 -3.2500000E-001  1.6500000E-001 0.0
 -3.2500000E-001  1.7000000E-001 0.0
 -3.2500000E-001  1.7500000E-001 0.0
 -3.2500000E-001  1.8000000E-001 0.0
 -3.2500000E-001  1.8500000E-001 0.0
 -3.2500000E-001  1.9000000E-001 0.0
 -3.2500000E-001  1.9500000E-001 0.0
 -3.2000000E-001 -2.1000000E-001 0.0
 -3.2000000E-001 -2.0500000E-001 0.0
 -3.2000000E-001 -2.0000000E-001 0.0
 -3.2000000E-001 -1.9500000E-001 0.0
 -3.2000000E-001 -1.9000000E-001 0.0
 -3.2000000E-001 -1.8500000E-001 0.0
 -3.2000000E-001 -1.8000000E-001 0.0
 -3.2000000E-001 -1.7500000E-001 0.0
 -3.2000000E-001 -1.7000000E-001 0.0
 -3.2000000E-001 -1.6500000E-001 0.0
 -3.2000000E-001 -1.6000000E-001 0.0
 -3.2000000E-001 -1.5500000E-001 0.0
 -3.2000000E-001 -1.5000000E-001 0.0
 -3.2000000E-001 -1.4500000E-001 0.0
 -3.2000000E-001 -1.4000000E-001 0.0
 -3.2000000E-001 -1.3500000E-001 0.0
 -3.2000000E-001 -6.0000000E-002 0.0
 -3.2000000E-001 -5.5000000E-002 0.0
 -3.2000000E-001 -5.0000000E-002 0.0
 -3.2000000E-001 -4.5000000E-002 0.0
 -3.2000000E-001 -4.0000000E-002 0.0
 -3.2000000E-001 -3.5000000E-002 0.0
 -3.2000000E-001 -3.0000000E-002 0.0
 -3.2000000E-001 -2.5000000E-002 0.0
 -3.2000000E-001 -2.0000000E-002 0.0
 -3.2000000E-001 -1.5000000E-002 0.0
 -3.2000000E-001 -1.0000000E-002 0.0
 -3.2000000E-001 -5.0000000E-003 0.0
 -3.2000000E-001  0.0000000E+000 0.0
 -3.2000000E-001  5.0000000E-003 0.0
 -3.2000000E-001  1.0000000E-002 0.0
 -3.2000000E-001  1.5000000E-002 0.0
 -3.2000000E-001  2.0000000E-002 0.0
 -3.2000000E-001  2.5000000E-002 0.0
 -3.2000000E-001  3.0000000E-002 0.0
 -3.2000000E-001  3.5000000E-002 0.0
 -3.2000000E-001  4.0000000E-002 0.0
 -3.2000000E-001  1.2000000E-001 0.0
 -3.2000000E-001  1.2500000E-001 0.0
 -3.2000000E-001  1.3000000E-001 0.0
 -3.2000000E-001  1.3500000E-001 0.0
 -3.2000000E-001  1.4000000E-001 0.0
 -3.2000000E-001  1.4500000E-001 0.0
 -3.2000000E-001  1.5000000E-001 0.0
 -3.2000000E-001  1.5500000E-001 0.0
 -3.2000000E-001  1.6000000E-001 0.0
 -3.2000000E-001  1.6500000E-001 0.0
 -3.2000000E-001  1.7000000E-001 0.0
 -3.2000000E-001  1.7500000E-001 0.0
 -3.2000000E-001  1.8000000E-001 0.0
 -3.2000000E-001  1.8500000E-001 0.0
 -3.2000000E-001  1.9000000E-001 0.0
 -3.1500000E-001 -2.1000000E-001 0.0
 -3.1500000E-001 -2.0500000E-001 0.0
 -3.1500000E-001 -2.0000000E-001 0.0
 -3.1500000E-001 -1.9500000E-001 0.0
 -3.1500000E-001 -1.9000000E-001 0.0
 -3.1500000E-001 -1.8500000E-001 0.0
 -3.1500000E-001 -1.8000000E-001 0.0
 -3.1500000E-001 -1.7500000E-001 0.0
 -3.1500000E-001 -1.7000000E-001 0.0
 -3.1500000E-001 -1.6500000E-001 0.0
 -3.1500000E-001 -1.6000000E-001 0.0
 -3.1500000E-001 -1.5500000E-001 0.0
 -3.1500000E-001 -1.5000000E-001 0.0
 -3.1500000E-001 -1.4500000E-001 0.0
 -3.1500000E-001 -1.4000000E-001 0.0
 -3.1500000E-001 -1.3500000E-001 0.0
 -3.1500000E-001 -5.0000000E-002 0.0
 -3.1500000E-001 -4.5000000E-002 0.0
 -3.1500000E-001 -4.0000000E-002 0.0
 -3.1500000E-001 -3.5000000E-002 0.0
 -3.1500000E-001 -3.0000000E-002 0.0
 -3.1500000E-001 -2.5000000E-002 0.0
 -3.1500000E-001 -2.0000000E-002 0.0
 -3.1500000E-001 -1.5000000E-002 0.0
 -3.1500000E-001 -1.0000000E-002 0.0
 -3.1500000E-001 -5.0000000E-003 0.0
 -3.1500000E-001  0.0000000E+000 0.0
 -3.1500000E-001  5.0000000E-003 0.0
 -3.1500000E-001  1.0000000E-002 0.0
 -3.1500000E-001  1.5000000E-002 0.0
 -3.1500000E-001  2.0000000E-002 0.0
 -3.1500000E-001  2.5000000E-002 0.0
 -3.1500000E-001  3.0000000E-002 0.0
 -3.1500000E-001  3.5000000E-002 0.0
 -3.1500000E-001  4.0000000E-002 0.0
 -3.1500000E-001  1.2500000E-001 0.0
 -3.1500000E-001  1.3000000E-001 0.0
 -3.1500000E-001  1.3500000E-001 0.0
 -3.1500000E-001  1.4000000E-001 0.0
 -3.1500000E-001  1.4500000E-001 0.0
 -3.1500000E-001  1.5000000E-001 0.0
 -3.1500000E-001  1.5500000E-001 0.0
 -3.1500000E-001  1.6000000E-001 0.0
 -3.1500000E-001  1.6500000E-001 0.0
 -3.1500000E-001  1.7000000E-001 0.0
 -3.1500000E-001  1.7500000E-001 0.0
 -3.1500000E-001  1.8000000E-001 0.0
 -3.1500000E-001  1.8500000E-001 0.0
 -3.1500000E-001  1.9000000E-001 0.0
 -3.1000000E-001 -2.1000000E-001 0.0
 -3.1000000E-001 -2.0500000E-001 0.0
 -3.1000000E-001 -2.0000000E-001 0.0
 -3.1000000E-001 -1.9500000E-001 0.0
 -3.1000000E-001 -1.9000000E-001 0.0
 -3.1000000E-001 -1.8500000E-001 0.0
 -3.1000000E-001 -1.8000000E-001 0.0
 -3.1000000E-001 -1.7500000E-001 0.0
 -3.1000000E-001 -1.7000000E-001 0.0
 -3.1000000E-001 -1.6500000E-001 0.0
 -3.1000000E-001 -1.6000000E-001 0.0
 -3.1000000E-001 -1.5500000E-001 0.0
 -3.1000000E-001 -1.5000000E-001 0.0
 -3.1000000E-001 -1.4500000E-001 0.0
 -3.1000000E-001 -1.4000000E-001 0.0
 -3.1000000E-001 -1.3500000E-001 0.0
 -3.1000000E-001 -4.5000000E-002 0.0
 -3.1000000E-001 -4.0000000E-002 0.0
 -3.1000000E-001 -3.5000000E-002 0.0
 -3.1000000E-001 -3.0000000E-002 0.0
 -3.1000000E-001 -2.5000000E-002 0.0
 -3.1000000E-001 -2.0000000E-002 0.0
 -3.1000000E-001 -1.5000000E-002 0.0
 -3.1000000E-001 -1.0000000E-002 0.0
 -3.1000000E-001 -5.0000000E-003 0.0
 -3.1000000E-001  0.0000000E+000 0.0
 -3.1000000E-001  5.0000000E-003 0.0
 -3.1000000E-001  1.0000000E-002 0.0
 -3.1000000E-001  1.5000000E-002 0.0
 -3.1000000E-001  2.0000000E-002 0.0
 -3.1000000E-001  2.5000000E-002 0.0
 -3.1000000E-001  3.0000000E-002 0.0
 -3.1000000E-001  3.5000000E-002 0.0
 -3.1000000E-001  4.0000000E-002 0.0
 -3.1000000E-001  1.2500000E-001 0.0
 -3.1000000E-001  1.3000000E-001 0.0
 -3.1000000E-001  1.3500000E-001 0.0
 -3.1000000E-001  1.4000000E-001 0.0
 -3.1000000E-001  1.4500000E-001 0.0
 -3.1000000E-001  1.5000000E-001 0.0
 -3.1000000E-001  1.5500000E-001 0.0
 -3.1000000E-001  1.6000000E-001 0.0
 -3.1000000E-001  1.6500000E-001 0.0
 -3.1000000E-001  1.7000000E-001 0.0
 -3.1000000E-001  1.7500000E-001 0.0
 -3.1000000E-001  1.8000000E-001 0.0
 -3.1000000E-001  1.8500000E-001 0.0
 -3.0500000E-001 -2.0500000E-001 0.0
 -3.0500000E-001 -2.0000000E-001 0.0
 -3.0500000E-001 -1.9500000E-001 0.0
 -3.0500000E-001 -1.9000000E-001 0.0
 -3.0500000E-001 -1.8500000E-001 0.0
 -3.0500000E-001 -1.8000000E-001 0.0
 -3.0500000E-001 -1.7500000E-001 0.0
 -3.0500000E-001 -1.7000000E-001 0.0
 -3.0500000E-001 -1.6500000E-001 0.0
 -3.0500000E-001 -1.6000000E-001 0.0
 -3.0500000E-001 -1.5500000E-001 0.0
 -3.0500000E-001 -1.5000000E-001 0.0
 -3.0500000E-001 -1.4500000E-001 0.0
 -3.0500000E-001 -1.4000000E-001 0.0
 -3.0500000E-001 -1.3500000E-001 0.0
 -3.0500000E-001 -3.5000000E-002 0.0
 -3.0500000E-001 -3.0000000E-002 0.0
 -3.0500000E-001 -2.5000000E-002 0.0
 -3.0500000E-001 -2.0000000E-002 0.0
 -3.0500000E-001 -1.5000000E-002 0.0
 -3.0500000E-001 -1.0000000E-002 0.0
 -3.0500000E-001 -5.0000000E-003 0.0
 -3.0500000E-001  0.0000000E+000 0.0
 -3.0500000E-001  5.0000000E-003 0.0
 -3.0500000E-001  1.0000000E-002 0.0
 -3.0500000E-001  1.5000000E-002 0.0
 -3.0500000E-001  2.0000000E-002 0.0
 -3.0500000E-001  2.5000000E-002 0.0
 -3.0500000E-001  3.0000000E-002 0.0
 -3.0500000E-001  3.5000000E-002 0.0
 -3.0500000E-001  4.0000000E-002 0.0
 -3.0500000E-001  1.2500000E-001 0.0
 -3.0500000E-001  1.3000000E-001 0.0
 -3.0500000E-001  1.3500000E-001 0.0
 -3.0500000E-001  1.4000000E-001 0.0
 -3.0500000E-001  1.4500000E-001 0.0
 -3.0500000E-001  1.5000000E-001 0.0
 -3.0500000E-001  1.5500000E-001 0.0
 -3.0500000E-001  1.6000000E-001 0.0
 -3.0500000E-001  1.6500000E-001 0.0
 -3.0500000E-001  1.7000000E-001 0.0
 -3.0500000E-001  1.7500000E-001 0.0
 -3.0500000E-001  1.8000000E-001 0.0
 -3.0500000E-001  1.8500000E-001 0.0
 -3.0000000E-001 -2.0500000E-001 0.0
 -3.0000000E-001 -2.0000000E-001 0.0
 -3.0000000E-001 -1.9500000E-001 0.0
 -3.0000000E-001 -1.9000000E-001 0.0
 -3.0000000E-001 -1.8500000E-001 0.0
 -3.0000000E-001 -1.8000000E-001 0.0
 -3.0000000E-001 -1.7500000E-001 0.0
 -3.0000000E-001 -1.7000000E-001 0.0
 -3.0000000E-001 -1.6500000E-001 0.0
 -3.0000000E-001 -1.6000000E-001 0.0
 -3.0000000E-001 -1.5500000E-001 0.0
 -3.0000000E-001 -1.5000000E-001 0.0
 -3.0000000E-001 -1.4500000E-001 0.0
 -3.0000000E-001 -1.4000000E-001 0.0
 -3.0000000E-001 -1.3500000E-001 0.0
 -3.0000000E-001 -2.5000000E-002 0.0
 -3.0000000E-001 -2.0000000E-002 0.0
 -3.0000000E-001 -1.5000000E-002 0.0
 -3.0000000E-001 -1.0000000E-002 0.0
 -3.0000000E-001 -5.0000000E-003 0.0
 -3.0000000E-001  0.0000000E+000 0.0
 -3.0000000E-001  5.0000000E-003 0.0
 -3.0000000E-001  1.0000000E-002 0.0
 -3.0000000E-001  1.5000000E-002 0.0
 -3.0000000E-001  2.0000000E-002 0.0
 -3.0000000E-001  2.5000000E-002 0.0
 -3.0000000E-001  3.0000000E-002 0.0
 -3.0000000E-001  3.5000000E-002 0.0
 -3.0000000E-001  1.2500000E-001 0.0
 -3.0000000E-001  1.3000000E-001 0.0
 -3.0000000E-001  1.3500000E-001 0.0
 -3.0000000E-001  1.4000000E-001 0.0
 -3.0000000E-001  1.4500000E-001 0.0
 -3.0000000E-001  1.5000000E-001 0.0
 -3.0000000E-001  1.5500000E-001 0.0
 -3.0000000E-001  1.6000000E-001 0.0
 -3.0000000E-001  1.6500000E-001 0.0
 -3.0000000E-001  1.7000000E-001 0.0
 -3.0000000E-001  1.7500000E-001 0.0
 -3.0000000E-001  1.8000000E-001 0.0
 -3.0000000E-001  1.8500000E-001 0.0
 -3.0000000E-001  1.9000000E-001 0.0
 -3.0500000E-001  1.9000000E-001 0.0
 -2.9500000E-001 -2.0500000E-001 0.0
 -2.9500000E-001 -2.0000000E-001 0.0
 -2.9500000E-001 -1.9500000E-001 0.0
 -2.9500000E-001 -1.9000000E-001 0.0
 -2.9500000E-001 -1.8500000E-001 0.0
 -2.9500000E-001 -1.8000000E-001 0.0
 -2.9500000E-001 -1.7500000E-001 0.0
 -2.9500000E-001 -1.7000000E-001 0.0
 -2.9500000E-001 -1.6500000E-001 0.0
 -2.9500000E-001 -1.6000000E-001 0.0
 -2.9500000E-001 -1.5500000E-001 0.0
 -2.9500000E-001 -1.5000000E-001 0.0
 -2.9500000E-001 -1.4500000E-001 0.0
 -2.9500000E-001 -1.4000000E-001 0.0
 -2.9500000E-001 -1.3500000E-001 0.0
 -2.9500000E-001 -1.3000000E-001 0.0
 -3.0000000E-001 -1.3000000E-001 0.0
 -2.9500000E-001 -2.0000000E-002 0.0
 -2.9500000E-001 -1.5000000E-002 0.0
 -2.9500000E-001 -1.0000000E-002 0.0
 -2.9500000E-001 -5.0000000E-003 0.0
 -2.9500000E-001  0.0000000E+000 0.0
 -2.9500000E-001  5.0000000E-003 0.0
 -2.9500000E-001  1.0000000E-002 0.0
 -2.9500000E-001  1.5000000E-002 0.0
 -2.9500000E-001  2.0000000E-002 0.0
 -2.9500000E-001  2.5000000E-002 0.0
 -2.9500000E-001  3.0000000E-002 0.0
 -2.9500000E-001  3.5000000E-002 0.0
 -3.0000000E-001  1.2000000E-001 0.0
 -2.9500000E-001  1.2000000E-001 0.0
 -2.9500000E-001  1.2500000E-001 0.0
 -2.9500000E-001  1.3000000E-001 0.0
 -2.9500000E-001  1.3500000E-001 0.0
 -2.9500000E-001  1.4000000E-001 0.0
 -2.9500000E-001  1.4500000E-001 0.0
 -2.9500000E-001  1.5000000E-001 0.0
 -2.9500000E-001  1.5500000E-001 0.0
 -2.9500000E-001  1.6000000E-001 0.0
 -2.9500000E-001  1.6500000E-001 0.0
 -2.9500000E-001  1.7000000E-001 0.0
 -2.9500000E-001  1.7500000E-001 0.0
 -2.9500000E-001  1.8000000E-001 0.0
 -2.9500000E-001  1.8500000E-001 0.0
 -2.9500000E-001  1.9000000E-001 0.0
 -2.9000000E-001 -2.0500000E-001 0.0
 -2.9000000E-001 -2.0000000E-001 0.0
 -2.9000000E-001 -1.9500000E-001 0.0
 -2.9000000E-001 -1.9000000E-001 0.0
 -2.9000000E-001 -1.8500000E-001 0.0
 -2.9000000E-001 -1.8000000E-001 0.0
 -2.9000000E-001 -1.7500000E-001 0.0
 -2.9000000E-001 -1.7000000E-001 0.0
 -2.9000000E-001 -1.6500000E-001 0.0
 -2.9000000E-001 -1.6000000E-001 0.0
 -2.9000000E-001 -1.5500000E-001 0.0
 -2.9000000E-001 -1.5000000E-001 0.0
 -2.9000000E-001 -1.4500000E-001 0.0
 -2.9000000E-001 -1.4000000E-001 0.0
 -2.9000000E-001 -1.3500000E-001 0.0
 -2.9000000E-001 -1.3000000E-001 0.0
 -2.9000000E-001 -1.0000000E-002 0.0
 -2.9000000E-001 -5.0000000E-003 0.0
 -2.9000000E-001  0.0000000E+000 0.0
 -2.9000000E-001  5.0000000E-003 0.0
 -2.9000000E-001  1.0000000E-002 0.0
 -2.9000000E-001  1.5000000E-002 0.0
 -2.9000000E-001  2.0000000E-002 0.0
 -2.9000000E-001  2.5000000E-002 0.0
 -2.9000000E-001  3.0000000E-002 0.0
 -2.9000000E-001  3.5000000E-002 0.0
 -2.9500000E-001  1.1000000E-001 0.0
 -2.9000000E-001  1.1000000E-001 0.0
 -2.9000000E-001  1.1500000E-001 0.0
 -2.9500000E-001  1.1500000E-001 0.0
 -2.9000000E-001  1.2000000E-001 0.0
 -2.9000000E-001  1.2500000E-001 0.0
 -2.9000000E-001  1.3000000E-001 0.0
 -2.9000000E-001  1.3500000E-001 0.0
 -2.9000000E-001  1.4000000E-001 0.0
 -2.9000000E-001  1.4500000E-001 0.0
 -2.9000000E-001  1.5000000E-001 0.0
 -2.9000000E-001  1.5500000E-001 0.0
 -2.9000000E-001  1.6000000E-001 0.0
 -2.9000000E-001  1.6500000E-001 0.0
 -2.9000000E-001  1.7000000E-001 0.0
 -2.9000000E-001  1.7500000E-001 0.0
 -2.9000000E-001  1.8000000E-001 0.0
 -2.9000000E-001  1.8500000E-001 0.0
 -2.9000000E-001  1.9000000E-001 0.0
 -2.9000000E-001  1.9500000E-001 0.0
 -2.9500000E-001  1.9500000E-001 0.0
 -2.8500000E-001 -2.0500000E-001 0.0
 -2.8500000E-001 -2.0000000E-001 0.0
 -2.8500000E-001 -1.9500000E-001 0.0
 -2.8500000E-001 -1.9000000E-001 0.0
 -2.8500000E-001 -1.8500000E-001 0.0
 -2.8500000E-001 -1.8000000E-001 0.0
 -2.8500000E-001 -1.7500000E-001 0.0
 -2.8500000E-001 -1.7000000E-001 0.0
 -2.8500000E-001 -1.6500000E-001 0.0
 -2.8500000E-001 -1.6000000E-001 0.0
 -2.8500000E-001 -1.5500000E-001 0.0
 -2.8500000E-001 -1.5000000E-001 0.0
 -2.8500000E-001 -1.4500000E-001 0.0
 -2.8500000E-001 -1.4000000E-001 0.0
 -2.8500000E-001 -1.3500000E-001 0.0
 -2.8500000E-001 -1.3000000E-001 0.0
 -2.8500000E-001  5.0000000E-003 0.0
 -2.8500000E-001  1.0000000E-002 0.0
 -2.8500000E-001  1.5000000E-002 0.0
 -2.8500000E-001  2.0000000E-002 0.0
 -2.8500000E-001  2.5000000E-002 0.0
 -2.8500000E-001  3.0000000E-002 0.0
 -2.9000000E-001  5.5000000E-002 0.0
 -2.8500000E-001  5.5000000E-002 0.0
 -2.8500000E-001  6.0000000E-002 0.0
 -2.9000000E-001  6.0000000E-002 0.0
 -2.8500000E-001  6.5000000E-002 0.0
 -2.9000000E-001  6.5000000E-002 0.0
 -2.8500000E-001  7.0000000E-002 0.0
 -2.9000000E-001  7.0000000E-002 0.0
 -2.8500000E-001  7.5000000E-002 0.0
 -2.9000000E-001  7.5000000E-002 0.0
 -2.8500000E-001  8.0000000E-002 0.0
 -2.9000000E-001  8.0000000E-002 0.0
 -2.8500000E-001  8.5000000E-002 0.0
 -2.9000000E-001  8.5000000E-002 0.0
 -2.8500000E-001  9.0000000E-002 0.0
 -2.9000000E-001  9.0000000E-002 0.0
 -2.8500000E-001  9.5000000E-002 0.0
 -2.9000000E-001  9.5000000E-002 0.0
 -2.8500000E-001  1.0000000E-001 0.0
 -2.9000000E-001  1.0000000E-001 0.0
 -2.8500000E-001  1.0500000E-001 0.0
 -2.9000000E-001  1.0500000E-001 0.0
 -2.8500000E-001  1.1000000E-001 0.0
 -2.8500000E-001  1.1500000E-001 0.0
 -2.8500000E-001  1.2000000E-001 0.0
 -2.8500000E-001  1.2500000E-001 0.0
 -2.8500000E-001  1.3000000E-001 0.0
 -2.8500000E-001  1.3500000E-001 0.0
 -2.8500000E-001  1.4000000E-001 0.0
 -2.8500000E-001  1.4500000E-001 0.0
 -2.8500000E-001  1.5000000E-001 0.0
 -2.8500000E-001  1.5500000E-001 0.0
 -2.8500000E-001  1.6000000E-001 0.0
 -2.8500000E-001  1.6500000E-001 0.0
 -2.8500000E-001  1.7000000E-001 0.0
 -2.8500000E-001  1.7500000E-001 0.0
 -2.8500000E-001  1.8000000E-001 0.0
 -2.8500000E-001  1.8500000E-001 0.0
 -2.8500000E-001  1.9000000E-001 0.0
 -2.8500000E-001  1.9500000E-001 0.0
 -2.8500000E-001  2.0000000E-001 0.0
 -2.9000000E-001  2.0000000E-001 0.0
 -2.8000000E-001 -2.0000000E-001 0.0
 -2.8000000E-001 -1.9500000E-001 0.0
 -2.8000000E-001 -1.9000000E-001 0.0
 -2.8000000E-001 -1.8500000E-001 0.0
 -2.8000000E-001 -1.8000000E-001 0.0
 -2.8000000E-001 -1.7500000E-001 0.0
 -2.8000000E-001 -1.7000000E-001 0.0
 -2.8000000E-001 -1.6500000E-001 0.0
 -2.8000000E-001 -1.6000000E-001 0.0
 -2.8000000E-001 -1.5500000E-001 0.0
 -2.8000000E-001 -1.5000000E-001 0.0
 -2.8000000E-001 -1.4500000E-001 0.0
 -2.8000000E-001 -1.4000000E-001 0.0
 -2.8000000E-001 -1.3500000E-001 0.0
 -2.8000000E-001 -1.3000000E-001 0.0
 -2.8000000E-001 -1.2500000E-001 0.0
 -2.8500000E-001 -1.2500000E-001 0.0
 -2.8500000E-001  4.0000000E-002 0.0
 -2.8000000E-001  4.0000000E-002 0.0
 -2.8000000E-001  4.5000000E-002 0.0
 -2.8500000E-001  4.5000000E-002 0.0
 -2.8000000E-001  5.0000000E-002 0.0
 -2.8500000E-001  5.0000000E-002 0.0
 -2.8000000E-001  5.5000000E-002 0.0
 -2.8000000E-001  6.0000000E-002 0.0
 -2.8000000E-001  6.5000000E-002 0.0
 -2.8000000E-001  7.0000000E-002 0.0
 -2.8000000E-001  7.5000000E-002 0.0
 -2.8000000E-001  8.0000000E-002 0.0
 -2.8000000E-001  8.5000000E-002 0.0
 -2.8000000E-001  9.0000000E-002 0.0
 -2.8000000E-001  9.5000000E-002 0.0
 -2.8000000E-001  1.0000000E-001 0.0
 -2.8000000E-001  1.0500000E-001 0.0
 -2.8000000E-001  1.1000000E-001 0.0
 -2.8000000E-001  1.1500000E-001 0.0
 -2.8000000E-001  1.2000000E-001 0.0
 -2.8000000E-001  1.2500000E-001 0.0
 -2.8000000E-001  1.3000000E-001 0.0
 -2.8000000E-001  1.3500000E-001 0.0
 -2.8000000E-001  1.4000000E-001 0.0
 -2.8000000E-001  1.4500000E-001 0.0
 -2.8000000E-001  1.5000000E-001 0.0
 -2.8000000E-001  1.5500000E-001 0.0
 -2.8000000E-001  1.6000000E-001 0.0
 -2.8000000E-001  1.6500000E-001 0.0
 -2.8000000E-001  1.7000000E-001 0.0
 -2.8000000E-001  1.7500000E-001 0.0
 -2.8000000E-001  1.8000000E-001 0.0
 -2.8000000E-001  1.8500000E-001 0.0
 -2.8000000E-001  1.9000000E-001 0.0
 -2.8000000E-001  1.9500000E-001 0.0
 -2.8000000E-001  2.0000000E-001 0.0
 -2.8000000E-001  2.0500000E-001 0.0
 -2.8500000E-001  2.0500000E-001 0.0
 -2.7500000E-001 -2.0000000E-001 0.0
 -2.7500000E-001 -1.9500000E-001 0.0
 -2.7500000E-001 -1.9000000E-001 0.0
 -2.7500000E-001 -1.8500000E-001 0.0
 -2.7500000E-001 -1.8000000E-001 0.0
 -2.7500000E-001 -1.7500000E-001 0.0
 -2.7500000E-001 -1.7000000E-001 0.0
 -2.7500000E-001 -1.6500000E-001 0.0
 -2.7500000E-001 -1.6000000E-001 0.0
 -2.7500000E-001 -1.5500000E-001 0.0
 -2.7500000E-001 -1.5000000E-001 0.0
 -2.7500000E-001 -1.4500000E-001 0.0
 -2.7500000E-001 -1.4000000E-001 0.0
 -2.7500000E-001 -1.3500000E-001 0.0
 -2.7500000E-001 -1.3000000E-001 0.0
 -2.7500000E-001 -1.2500000E-001 0.0
 -2.8000000E-001  3.0000000E-002 0.0
 -2.7500000E-001  3.0000000E-002 0.0
 -2.7500000E-001  3.5000000E-002 0.0
 -2.8000000E-001  3.5000000E-002 0.0
 -2.7500000E-001  4.0000000E-002 0.0
 -2.7500000E-001  4.5000000E-002 0.0
 -2.7500000E-001  5.0000000E-002 0.0
 -2.7500000E-001  5.5000000E-002 0.0
 -2.7500000E-001  6.0000000E-002 0.0
 -2.7500000E-001  6.5000000E-002 0.0
 -2.7500000E-001  7.0000000E-002 0.0
 -2.7500000E-001  7.5000000E-002 0.0
 -2.7500000E-001  8.0000000E-002 0.0
 -2.7500000E-001  8.5000000E-002 0.0
 -2.7500000E-001  9.0000000E-002 0.0
 -2.7500000E-001  9.5000000E-002 0.0
 -2.7500000E-001  1.0000000E-001 0.0
 -2.7500000E-001  1.0500000E-001 0.0
 -2.7500000E-001  1.1000000E-001 0.0
 -2.7500000E-001  1.1500000E-001 0.0
 -2.7500000E-001  1.2000000E-001 0.0
 -2.7500000E-001  1.2500000E-001 0.0
 -2.7500000E-001  1.3000000E-001 0.0
 -2.7500000E-001  1.3500000E-001 0.0
 -2.7500000E-001  1.4000000E-001 0.0
 -2.7500000E-001  1.4500000E-001 0.0
 -2.7500000E-001  1.5000000E-001 0.0
 -2.7500000E-001  1.5500000E-001 0.0
 -2.7500000E-001  1.6000000E-001 0.0
 -2.7500000E-001  1.6500000E-001 0.0
 -2.7500000E-001  1.7000000E-001 0.0
 -2.7500000E-001  1.7500000E-001 0.0
 -2.7500000E-001  1.8000000E-001 0.0
 -2.7500000E-001  1.8500000E-001 0.0
 -2.7500000E-001  1.9000000E-001 0.0
 -2.7500000E-001  1.9500000E-001 0.0
 -2.7500000E-001  2.0000000E-001 0.0
 -2.7500000E-001  2.0500000E-001 0.0
 -2.7000000E-001 -2.0000000E-001 0.0
 -2.7000000E-001 -1.9500000E-001 0.0
 -2.7000000E-001 -1.9000000E-001 0.0
 -2.7000000E-001 -1.8500000E-001 0.0
 -2.7000000E-001 -1.8000000E-001 0.0
 -2.7000000E-001 -1.7500000E-001 0.0
 -2.7000000E-001 -1.7000000E-001 0.0
 -2.7000000E-001 -1.6500000E-001 0.0
 -2.7000000E-001 -1.6000000E-001 0.0
 -2.7000000E-001 -1.5500000E-001 0.0
 -2.7000000E-001 -1.5000000E-001 0.0
 -2.7000000E-001 -1.4500000E-001 0.0
 -2.7000000E-001 -1.4000000E-001 0.0
 -2.7000000E-001 -1.3500000E-001 0.0
 -2.7000000E-001 -1.3000000E-001 0.0
 -2.7000000E-001 -1.2500000E-001 0.0
 -2.7000000E-001 -1.2000000E-001 0.0
 -2.7500000E-001 -1.2000000E-001 0.0
 -2.7500000E-001  1.5000000E-002 0.0
 -2.7000000E-001  1.5000000E-002 0.0
 -2.7000000E-001  2.0000000E-002 0.0
 -2.7500000E-001  2.0000000E-002 0.0
 -2.7000000E-001  2.5000000E-002 0.0
 -2.7500000E-001  2.5000000E-002 0.0
 -2.7000000E-001  3.0000000E-002 0.0
 -2.7000000E-001  3.5000000E-002 0.0
 -2.7000000E-001  4.0000000E-002 0.0
 -2.7000000E-001  4.5000000E-002 0.0
 -2.7000000E-001  5.0000000E-002 0.0
 -2.7000000E-001  5.5000000E-002 0.0
 -2.7000000E-001  6.0000000E-002 0.0
 -2.7000000E-001  6.5000000E-002 0.0
 -2.7000000E-001  7.0000000E-002 0.0
 -2.7000000E-001  7.5000000E-002 0.0
 -2.7000000E-001  8.0000000E-002 0.0
 -2.7000000E-001  8.5000000E-002 0.0
 -2.7000000E-001  9.0000000E-002 0.0
 -2.7000000E-001  9.5000000E-002 0.0
 -2.7000000E-001  1.0000000E-001 0.0
 -2.7000000E-001  1.0500000E-001 0.0
 -2.7000000E-001  1.1000000E-001 0.0
 -2.7000000E-001  1.1500000E-001 0.0
 -2.7000000E-001  1.2000000E-001 0.0
 -2.7000000E-001  1.2500000E-001 0.0
 -2.7000000E-001  1.3000000E-001 0.0
 -2.7000000E-001  1.3500000E-001 0.0
 -2.7000000E-001  1.4000000E-001 0.0
 -2.7000000E-001  1.4500000E-001 0.0
 -2.7000000E-001  1.5000000E-001 0.0
 -2.7000000E-001  1.5500000E-001 0.0
 -2.7000000E-001  1.6000000E-001 0.0
 -2.7000000E-001  1.6500000E-001 0.0
 -2.7000000E-001  1.7000000E-001 0.0
 -2.7000000E-001  1.7500000E-001 0.0
 -2.7000000E-001  1.8000000E-001 0.0
 -2.7000000E-001  1.8500000E-001 0.0
 -2.7000000E-001  1.9000000E-001 0.0
 -2.7000000E-001  1.9500000E-001 0.0
 -2.7000000E-001  2.0000000E-001 0.0
 -2.7000000E-001  2.0500000E-001 0.0
 -2.7000000E-001  2.1000000E-001 0.0
 -2.7500000E-001  2.1000000E-001 0.0
 -2.6500000E-001 -2.0000000E-001 0.0
 -2.6500000E-001 -1.9500000E-001 0.0
 -2.6500000E-001 -1.9000000E-001 0.0
 -2.6500000E-001 -1.8500000E-001 0.0
 -2.6500000E-001 -1.8000000E-001 0.0
 -2.6500000E-001 -1.7500000E-001 0.0
 -2.6500000E-001 -1.7000000E-001 0.0
 -2.6500000E-001 -1.6500000E-001 0.0
 -2.6500000E-001 -1.6000000E-001 0.0
 -2.6500000E-001 -1.5500000E-001 0.0
 -2.6500000E-001 -1.5000000E-001 0.0
 -2.6500000E-001 -1.4500000E-001 0.0
 -2.6500000E-001 -1.4000000E-001 0.0
 -2.6500000E-001 -1.3500000E-001 0.0
 -2.6500000E-001 -1.3000000E-001 0.0
 -2.6500000E-001 -1.2500000E-001 0.0
 -2.6500000E-001 -1.2000000E-001 0.0
 -2.7000000E-001  0.0000000E+000 0.0
 -2.6500000E-001  0.0000000E+000 0.0
 -2.6500000E-001  5.0000000E-003 0.0
 -2.7000000E-001  5.0000000E-003 0.0
 -2.6500000E-001  1.0000000E-002 0.0
 -2.7000000E-001  1.0000000E-002 0.0
 -2.6500000E-001  1.5000000E-002 0.0
 -2.6500000E-001  2.0000000E-002 0.0
 -2.6500000E-001  2.5000000E-002 0.0
 -2.6500000E-001  3.0000000E-002 0.0
 -2.6500000E-001  3.5000000E-002 0.0
 -2.6500000E-001  4.0000000E-002 0.0
 -2.6500000E-001  4.5000000E-002 0.0
 -2.6500000E-001  5.0000000E-002 0.0
 -2.6500000E-001  5.5000000E-002 0.0
 -2.6500000E-001  6.0000000E-002 0.0
 -2.6500000E-001  6.5000000E-002 0.0
 -2.6500000E-001  7.0000000E-002 0.0
 -2.6500000E-001  7.5000000E-002 0.0
 -2.6500000E-001  8.0000000E-002 0.0
 -2.6500000E-001  8.5000000E-002 0.0
 -2.6500000E-001  9.0000000E-002 0.0
 -2.6500000E-001  9.5000000E-002 0.0
 -2.6500000E-001  1.0000000E-001 0.0
 -2.6500000E-001  1.0500000E-001 0.0
 -2.6500000E-001  1.1000000E-001 0.0
 -2.6500000E-001  1.1500000E-001 0.0
 -2.6500000E-001  1.2000000E-001 0.0
 -2.6500000E-001  1.2500000E-001 0.0
 -2.6500000E-001  1.3000000E-001 0.0
 -2.6500000E-001  1.3500000E-001 0.0
 -2.6500000E-001  1.4000000E-001 0.0
 -2.6500000E-001  1.4500000E-001 0.0
 -2.6500000E-001  1.5000000E-001 0.0
 -2.6500000E-001  1.5500000E-001 0.0
 -2.6500000E-001  1.6000000E-001 0.0
 -2.6500000E-001  1.6500000E-001 0.0
 -2.6500000E-001  1.7000000E-001 0.0
 -2.6500000E-001  1.7500000E-001 0.0
 -2.6500000E-001  1.8000000E-001 0.0
 -2.6500000E-001  1.8500000E-001 0.0
 -2.6500000E-001  1.9000000E-001 0.0
 -2.6500000E-001  1.9500000E-001 0.0
 -2.6500000E-001  2.0000000E-001 0.0
 -2.6500000E-001  2.0500000E-001 0.0
 -2.6500000E-001  2.1000000E-001 0.0
 -2.6000000E-001 -1.9500000E-001 0.0
 -2.6000000E-001 -1.9000000E-001 0.0
 -2.6000000E-001 -1.8500000E-001 0.0
 -2.6000000E-001 -1.8000000E-001 0.0
 -2.6000000E-001 -1.7500000E-001 0.0
 -2.6000000E-001 -1.7000000E-001 0.0
 -2.6000000E-001 -1.6500000E-001 0.0
 -2.6000000E-001 -1.6000000E-001 0.0
 -2.6000000E-001 -1.5500000E-001 0.0
 -2.6000000E-001 -1.5000000E-001 0.0
 -2.6000000E-001 -1.4500000E-001 0.0
 -2.6000000E-001 -1.4000000E-001 0.0
 -2.6000000E-001 -1.3500000E-001 0.0
 -2.6000000E-001 -1.3000000E-001 0.0
 -2.6000000E-001 -1.2500000E-001 0.0
 -2.6000000E-001 -1.2000000E-001 0.0
 -2.6500000E-001 -3.0000000E-002 0.0
 -2.6000000E-001 -3.0000000E-002 0.0
 -2.6000000E-001 -2.5000000E-002 0.0
 -2.6500000E-001 -2.5000000E-002 0.0
 -2.6000000E-001 -2.0000000E-002 0.0
 -2.6500000E-001 -2.0000000E-002 0.0
 -2.6000000E-001 -1.5000000E-002 0.0
 -2.6500000E-001 -1.5000000E-002 0.0
 -2.6000000E-001 -1.0000000E-002 0.0
 -2.6500000E-001 -1.0000000E-002 0.0
 -2.6000000E-001 -5.0000000E-003 0.0
 -2.6500000E-001 -5.0000000E-003 0.0
 -2.6000000E-001  0.0000000E+000 0.0
 -2.6000000E-001  5.0000000E-003 0.0
 -2.6000000E-001  1.0000000E-002 0.0
 -2.6000000E-001  1.5000000E-002 0.0
 -2.6000000E-001  2.0000000E-002 0.0
 -2.6000000E-001  2.5000000E-002 0.0
 -2.6000000E-001  3.0000000E-002 0.0
 -2.6000000E-001  3.5000000E-002 0.0
 -2.6000000E-001  4.0000000E-002 0.0
 -2.6000000E-001  4.5000000E-002 0.0
 -2.6000000E-001  5.0000000E-002 0.0
 -2.6000000E-001  5.5000000E-002 0.0
 -2.6000000E-001  6.0000000E-002 0.0
 -2.6000000E-001  6.5000000E-002 0.0
 -2.6000000E-001  7.0000000E-002 0.0
 -2.6000000E-001  7.5000000E-002 0.0
 -2.6000000E-001  8.0000000E-002 0.0
 -2.6000000E-001  8.5000000E-002 0.0
 -2.6000000E-001  9.0000000E-002 0.0
 -2.6000000E-001  9.5000000E-002 0.0
 -2.6000000E-001  1.0000000E-001 0.0
 -2.6000000E-001  1.0500000E-001 0.0
 -2.6000000E-001  1.1000000E-001 0.0
 -2.6000000E-001  1.1500000E-001 0.0
 -2.6000000E-001  1.2000000E-001 0.0
 -2.6000000E-001  1.2500000E-001 0.0
 -2.6000000E-001  1.3000000E-001 0.0
 -2.6000000E-001  1.3500000E-001 0.0
 -2.6000000E-001  1.4000000E-001 0.0
 -2.6000000E-001  1.4500000E-001 0.0
 -2.6000000E-001  1.5000000E-001 0.0
 -2.6000000E-001  1.5500000E-001 0.0
 -2.6000000E-001  1.6000000E-001 0.0
 -2.6000000E-001  1.6500000E-001 0.0
 -2.6000000E-001  1.7000000E-001 0.0
 -2.6000000E-001  1.7500000E-001 0.0
 -2.6000000E-001  1.8000000E-001 0.0
 -2.6000000E-001  1.8500000E-001 0.0
 -2.6000000E-001  1.9000000E-001 0.0
 -2.6000000E-001  1.9500000E-001 0.0
 -2.6000000E-001  2.0000000E-001 0.0
 -2.6000000E-001  2.0500000E-001 0.0
 -2.6000000E-001  2.1000000E-001 0.0
 -2.6000000E-001  2.1500000E-001 0.0
 -2.6500000E-001  2.1500000E-001 0.0
 -2.5500000E-001 -1.9500000E-001 0.0
 -2.5500000E-001 -1.9000000E-001 0.0
 -2.5500000E-001 -1.8500000E-001 0.0
 -2.5500000E-001 -1.8000000E-001 0.0
 -2.5500000E-001 -1.7500000E-001 0.0
 -2.5500000E-001 -1.7000000E-001 0.0
 -2.5500000E-001 -1.6500000E-001 0.0
 -2.5500000E-001 -1.6000000E-001 0.0
 -2.5500000E-001 -1.5500000E-001 0.0
 -2.5500000E-001 -1.5000000E-001 0.0
 -2.5500000E-001 -1.4500000E-001 0.0
 -2.5500000E-001 -1.4000000E-001 0.0
 -2.5500000E-001 -1.3500000E-001 0.0
 -2.5500000E-001 -1.3000000E-001 0.0
 -2.5500000E-001 -1.2500000E-001 0.0
 -2.5500000E-001 -1.2000000E-001 0.0
 -2.5500000E-001 -1.1500000E-001 0.0
 -2.6000000E-001 -1.1500000E-001 0.0
 -2.6000000E-001 -5.0000000E-002 0.0
 -2.5500000E-001 -5.0000000E-002 0.0
 -2.5500000E-001 -4.5000000E-002 0.0
 -2.6000000E-001 -4.5000000E-002 0.0
 -2.5500000E-001 -4.0000000E-002 0.0
 -2.6000000E-001 -4.0000000E-002 0.0
 -2.5500000E-001 -3.5000000E-002 0.0
 -2.6000000E-001 -3.5000000E-002 0.0
 -2.5500000E-001 -3.0000000E-002 0.0
 -2.5500000E-001 -2.5000000E-002 0.0
 -2.5500000E-001 -2.0000000E-002 0.0
 -2.5500000E-001 -1.5000000E-002 0.0
 -2.5500000E-001 -1.0000000E-002 0.0
 -2.5500000E-001 -5.0000000E-003 0.0
 -2.5500000E-001  0.0000000E+000 0.0
 -2.5500000E-001  5.0000000E-003 0.0
 -2.5500000E-001  1.0000000E-002 0.0
 -2.5500000E-001  1.5000000E-002 0.0
 -2.5500000E-001  2.0000000E-002 0.0
 -2.5500000E-001  2.5000000E-002 0.0
 -2.5500000E-001  3.0000000E-002 0.0
 -2.5500000E-001  3.5000000E-002 0.0
 -2.5500000E-001  4.0000000E-002 0.0
 -2.5500000E-001  4.5000000E-002 0.0
 -2.5500000E-001  5.0000000E-002 0.0
 -2.5500000E-001  5.5000000E-002 0.0
 -2.5500000E-001  6.0000000E-002 0.0
 -2.5500000E-001  6.5000000E-002 0.0
 -2.5500000E-001  7.0000000E-002 0.0
 -2.5500000E-001  7.5000000E-002 0.0
 -2.5500000E-001  8.0000000E-002 0.0
 -2.5500000E-001  8.5000000E-002 0.0
 -2.5500000E-001  9.0000000E-002 0.0
 -2.5500000E-001  9.5000000E-002 0.0
 -2.5500000E-001  1.0000000E-001 0.0
 -2.5500000E-001  1.0500000E-001 0.0
 -2.5500000E-001  1.1000000E-001 0.0
 -2.5500000E-001  1.1500000E-001 0.0
 -2.5500000E-001  1.2000000E-001 0.0
 -2.5500000E-001  1.2500000E-001 0.0
 -2.5500000E-001  1.3000000E-001 0.0
 -2.5500000E-001  1.3500000E-001 0.0
 -2.5500000E-001  1.4000000E-001 0.0
 -2.5500000E-001  1.4500000E-001 0.0
 -2.5500000E-001  1.5000000E-001 0.0
 -2.5500000E-001  1.5500000E-001 0.0
 -2.5500000E-001  1.6000000E-001 0.0
 -2.5500000E-001  1.6500000E-001 0.0
 -2.5500000E-001  1.7000000E-001 0.0
 -2.5500000E-001  1.7500000E-001 0.0
 -2.5500000E-001  1.8000000E-001 0.0
 -2.5500000E-001  1.8500000E-001 0.0
 -2.5500000E-001  1.9000000E-001 0.0
 -2.5500000E-001  1.9500000E-001 0.0
 -2.5500000E-001  2.0000000E-001 0.0
 -2.5500000E-001  2.0500000E-001 0.0
 -2.5500000E-001  2.1000000E-001 0.0
 -2.5500000E-001  2.1500000E-001 0.0
 -2.5000000E-001 -1.9000000E-001 0.0
 -2.5000000E-001 -1.8500000E-001 0.0
 -2.5000000E-001 -1.8000000E-001 0.0
 -2.5000000E-001 -1.7500000E-001 0.0
 -2.5000000E-001 -1.7000000E-001 0.0
 -2.5000000E-001 -1.6500000E-001 0.0
 -2.5000000E-001 -1.6000000E-001 0.0
 -2.5000000E-001 -1.5500000E-001 0.0
 -2.5000000E-001 -1.5000000E-001 0.0
 -2.5000000E-001 -1.4500000E-001 0.0
 -2.5000000E-001 -1.4000000E-001 0.0
 -2.5000000E-001 -1.3500000E-001 0.0
 -2.5000000E-001 -1.3000000E-001 0.0
 -2.5000000E-001 -1.2500000E-001 0.0
 -2.5000000E-001 -1.2000000E-001 0.0
 -2.5000000E-001 -1.1500000E-001 0.0
 -2.5000000E-001 -1.1000000E-001 0.0
 -2.5500000E-001 -1.1000000E-001 0.0
 -2.5500000E-001 -6.5000000E-002 0.0
 -2.5000000E-001 -6.5000000E-002 0.0
 -2.5000000E-001 -6.0000000E-002 0.0
 -2.5500000E-001 -6.0000000E-002 0.0
 -2.5000000E-001 -5.5000000E-002 0.0
 -2.5500000E-001 -5.5000000E-002 0.0
 -2.5000000E-001 -5.0000000E-002 0.0
 -2.5000000E-001 -4.5000000E-002 0.0
 -2.5000000E-001 -4.0000000E-002 0.0
 -2.5000000E-001 -3.5000000E-002 0.0
 -2.5000000E-001 -3.0000000E-002 0.0
 -2.5000000E-001 -2.5000000E-002 0.0
 -2.5000000E-001 -2.0000000E-002 0.0
 -2.5000000E-001 -1.5000000E-002 0.0
 -2.5000000E-001 -1.0000000E-002 0.0
 -2.5000000E-001 -5.0000000E-003 0.0
 -2.5000000E-001  0.0000000E+000 0.0
 -2.5000000E-001  5.0000000E-003 0.0
 -2.5000000E-001  1.0000000E-002 0.0
 -2.5000000E-001  1.5000000E-002 0.0
 -2.5000000E-001  2.0000000E-002 0.0
 -2.5000000E-001  2.5000000E-002 0.0
 -2.5000000E-001  3.0000000E-002 0.0
 -2.5000000E-001  3.5000000E-002 0.0
 -2.5000000E-001  4.0000000E-002 0.0
 -2.5000000E-001  4.5000000E-002 0.0
 -2.5000000E-001  5.0000000E-002 0.0
 -2.5000000E-001  5.5000000E-002 0.0
 -2.5000000E-001  6.0000000E-002 0.0
 -2.5000000E-001  6.5000000E-002 0.0
 -2.5000000E-001  7.0000000E-002 0.0
 -2.5000000E-001  7.5000000E-002 0.0
 -2.5000000E-001  8.0000000E-002 0.0
 -2.5000000E-001  8.5000000E-002 0.0
 -2.5000000E-001  9.0000000E-002 0.0
 -2.5000000E-001  9.5000000E-002 0.0
 -2.5000000E-001  1.0000000E-001 0.0
 -2.5000000E-001  1.0500000E-001 0.0
 -2.5000000E-001  1.1000000E-001 0.0
 -2.5000000E-001  1.1500000E-001 0.0
 -2.5000000E-001  1.2000000E-001 0.0
 -2.5000000E-001  1.2500000E-001 0.0
 -2.5000000E-001  1.3000000E-001 0.0
 -2.5000000E-001  1.3500000E-001 0.0
 -2.5000000E-001  1.4000000E-001 0.0
 -2.5000000E-001  1.4500000E-001 0.0
 -2.5000000E-001  1.5000000E-001 0.0
 -2.5000000E-001  1.5500000E-001 0.0
 -2.5000000E-001  1.6000000E-001 0.0
 -2.5000000E-001  1.6500000E-001 0.0
 -2.5000000E-001  1.7000000E-001 0.0
 -2.5000000E-001  1.7500000E-001 0.0
 -2.5000000E-001  1.8000000E-001 0.0
 -2.5000000E-001  1.8500000E-001 0.0
 -2.5000000E-001  1.9000000E-001 0.0
 -2.5000000E-001  1.9500000E-001 0.0
 -2.5000000E-001  2.0000000E-001 0.0
 -2.5000000E-001  2.0500000E-001 0.0
 -2.5000000E-001  2.1000000E-001 0.0
 -2.5000000E-001  2.1500000E-001 0.0
 -2.4500000E-001 -1.9000000E-001 0.0
 -2.4500000E-001 -1.8500000E-001 0.0
 -2.4500000E-001 -1.8000000E-001 0.0
 -2.4500000E-001 -1.7500000E-001 0.0
 -2.4500000E-001 -1.7000000E-001 0.0
 -2.4500000E-001 -1.6500000E-001 0.0
 -2.4500000E-001 -1.6000000E-001 0.0
 -2.4500000E-001 -1.5500000E-001 0.0
 -2.4500000E-001 -1.5000000E-001 0.0
 -2.4500000E-001 -1.4500000E-001 0.0
 -2.4500000E-001 -1.4000000E-001 0.0
 -2.4500000E-001 -1.3500000E-001 0.0
 -2.4500000E-001 -1.3000000E-001 0.0
 -2.4500000E-001 -1.2500000E-001 0.0
 -2.4500000E-001 -1.2000000E-001 0.0
 -2.4500000E-001 -1.1500000E-001 0.0
 -2.4500000E-001 -1.1000000E-001 0.0
 -2.4500000E-001 -1.0500000E-001 0.0
 -2.5000000E-001 -1.0500000E-001 0.0
 -2.4500000E-001 -1.0000000E-001 0.0
 -2.5000000E-001 -1.0000000E-001 0.0
 -2.4500000E-001 -9.5000000E-002 0.0
 -2.5000000E-001 -9.5000000E-002 0.0
 -2.4500000E-001 -9.0000000E-002 0.0
 -2.5000000E-001 -9.0000000E-002 0.0
 -2.4500000E-001 -8.5000000E-002 0.0
 -2.5000000E-001 -8.5000000E-002 0.0
 -2.4500000E-001 -8.0000000E-002 0.0
 -2.5000000E-001 -8.0000000E-002 0.0
 -2.4500000E-001 -7.5000000E-002 0.0
 -2.5000000E-001 -7.5000000E-002 0.0
 -2.4500000E-001 -7.0000000E-002 0.0
 -2.5000000E-001 -7.0000000E-002 0.0
 -2.4500000E-001 -6.5000000E-002 0.0
 -2.4500000E-001 -6.0000000E-002 0.0
 -2.4500000E-001 -5.5000000E-002 0.0
 -2.4500000E-001 -5.0000000E-002 0.0
 -2.4500000E-001 -4.5000000E-002 0.0
 -2.4500000E-001 -4.0000000E-002 0.0
 -2.4500000E-001 -3.5000000E-002 0.0
 -2.4500000E-001 -3.0000000E-002 0.0
 -2.4500000E-001 -2.5000000E-002 0.0
 -2.4500000E-001 -2.0000000E-002 0.0
 -2.4500000E-001 -1.5000000E-002 0.0
 -2.4500000E-001 -1.0000000E-002 0.0
 -2.4500000E-001 -5.0000000E-003 0.0
 -2.4500000E-001  0.0000000E+000 0.0
 -2.4500000E-001  5.0000000E-003 0.0
 -2.4500000E-001  1.0000000E-002 0.0
 -2.4500000E-001  1.5000000E-002 0.0
 -2.4500000E-001  2.0000000E-002 0.0
 -2.4500000E-001  2.5000000E-002 0.0
 -2.4500000E-001  3.0000000E-002 0.0
 -2.4500000E-001  3.5000000E-002 0.0
 -2.4500000E-001  4.0000000E-002 0.0
 -2.4500000E-001  4.5000000E-002 0.0
 -2.4500000E-001  5.0000000E-002 0.0
 -2.4500000E-001  5.5000000E-002 0.0
 -2.4500000E-001  6.0000000E-002 0.0
 -2.4500000E-001  6.5000000E-002 0.0
 -2.4500000E-001  7.0000000E-002 0.0
 -2.4500000E-001  7.5000000E-002 0.0
 -2.4500000E-001  8.0000000E-002 0.0
 -2.4500000E-001  8.5000000E-002 0.0
 -2.4500000E-001  9.0000000E-002 0.0
 -2.4500000E-001  9.5000000E-002 0.0
 -2.4500000E-001  1.0000000E-001 0.0
 -2.4500000E-001  1.0500000E-001 0.0
 -2.4500000E-001  1.1000000E-001 0.0
 -2.4500000E-001  1.1500000E-001 0.0
 -2.4500000E-001  1.2000000E-001 0.0
 -2.4500000E-001  1.2500000E-001 0.0
 -2.4500000E-001  1.3000000E-001 0.0
 -2.4500000E-001  1.3500000E-001 0.0
 -2.4500000E-001  1.4000000E-001 0.0
 -2.4500000E-001  1.4500000E-001 0.0
 -2.4500000E-001  1.5000000E-001 0.0
 -2.4500000E-001  1.5500000E-001 0.0
 -2.4500000E-001  1.6000000E-001 0.0
 -2.4500000E-001  1.6500000E-001 0.0
 -2.4500000E-001  1.7000000E-001 0.0
 -2.4500000E-001  1.7500000E-001 0.0
 -2.4500000E-001  1.8000000E-001 0.0
 -2.4500000E-001  1.8500000E-001 0.0
 -2.4500000E-001  1.9000000E-001 0.0
 -2.4500000E-001  1.9500000E-001 0.0
 -2.4500000E-001  2.0000000E-001 0.0
 -2.4500000E-001  2.0500000E-001 0.0
 -2.4500000E-001  2.1000000E-001 0.0
 -2.4500000E-001  2.1500000E-001 0.0
 -2.4000000E-001 -1.8500000E-001 0.0
 -2.4000000E-001 -1.8000000E-001 0.0
 -2.4000000E-001 -1.7500000E-001 0.0
 -2.4000000E-001 -1.7000000E-001 0.0
 -2.4000000E-001 -1.6500000E-001 0.0
 -2.4000000E-001 -1.6000000E-001 0.0
 -2.4000000E-001 -1.5500000E-001 0.0
 -2.4000000E-001 -1.5000000E-001 0.0
 -2.4000000E-001 -1.4500000E-001 0.0
 -2.4000000E-001 -1.4000000E-001 0.0
 -2.4000000E-001 -1.3500000E-001 0.0
 -2.4000000E-001 -1.3000000E-001 0.0
 -2.4000000E-001 -1.2500000E-001 0.0
 -2.4000000E-001 -1.2000000E-001 0.0
 -2.4000000E-001 -1.1500000E-001 0.0
 -2.4000000E-001 -1.1000000E-001 0.0
 -2.4000000E-001 -1.0500000E-001 0.0
 -2.4000000E-001 -1.0000000E-001 0.0
 -2.4000000E-001 -9.5000000E-002 0.0
 -2.4000000E-001 -9.0000000E-002 0.0
 -2.4000000E-001 -8.5000000E-002 0.0
 -2.4000000E-001 -8.0000000E-002 0.0
 -2.4000000E-001 -7.5000000E-002 0.0
 -2.4000000E-001 -7.0000000E-002 0.0
 -2.4000000E-001 -6.5000000E-002 0.0
 -2.4000000E-001 -6.0000000E-002 0.0
 -2.4000000E-001 -5.5000000E-002 0.0
 -2.4000000E-001 -5.0000000E-002 0.0
 -2.4000000E-001 -4.5000000E-002 0.0
 -2.4000000E-001 -4.0000000E-002 0.0
 -2.4000000E-001 -3.5000000E-002 0.0
 -2.4000000E-001 -3.0000000E-002 0.0
 -2.4000000E-001 -2.5000000E-002 0.0
 -2.4000000E-001 -2.0000000E-002 0.0
 -2.4000000E-001 -1.5000000E-002 0.0
 -2.4000000E-001 -1.0000000E-002 0.0
 -2.4000000E-001 -5.0000000E-003 0.0
 -2.4000000E-001  0.0000000E+000 0.0
 -2.4000000E-001  5.0000000E-003 0.0
 -2.4000000E-001  1.0000000E-002 0.0
 -2.4000000E-001  1.5000000E-002 0.0
 -2.4000000E-001  2.0000000E-002 0.0
 -2.4000000E-001  2.5000000E-002 0.0
 -2.4000000E-001  3.0000000E-002 0.0
 -2.4000000E-001  3.5000000E-002 0.0
 -2.4000000E-001  4.0000000E-002 0.0
 -2.4000000E-001  4.5000000E-002 0.0
 -2.4000000E-001  5.0000000E-002 0.0
 -2.4000000E-001  5.5000000E-002 0.0
 -2.4000000E-001  6.0000000E-002 0.0
 -2.4000000E-001  6.5000000E-002 0.0
 -2.4000000E-001  7.0000000E-002 0.0
 -2.4000000E-001  7.5000000E-002 0.0
 -2.4000000E-001  8.0000000E-002 0.0
 -2.4000000E-001  8.5000000E-002 0.0
 -2.4000000E-001  9.0000000E-002 0.0
 -2.4000000E-001  9.5000000E-002 0.0
 -2.4000000E-001  1.0000000E-001 0.0
 -2.4000000E-001  1.0500000E-001 0.0
 -2.4000000E-001  1.1000000E-001 0.0
 -2.4000000E-001  1.1500000E-001 0.0
 -2.4000000E-001  1.2000000E-001 0.0
 -2.4000000E-001  1.2500000E-001 0.0
 -2.4000000E-001  1.3000000E-001 0.0
 -2.4000000E-001  1.3500000E-001 0.0
 -2.4000000E-001  1.4000000E-001 0.0
 -2.4000000E-001  1.4500000E-001 0.0
 -2.4000000E-001  1.5000000E-001 0.0
 -2.4000000E-001  1.5500000E-001 0.0
 -2.4000000E-001  1.6000000E-001 0.0
 -2.4000000E-001  1.6500000E-001 0.0
 -2.4000000E-001  1.7000000E-001 0.0
 -2.4000000E-001  1.7500000E-001 0.0
 -2.4000000E-001  1.8000000E-001 0.0
 -2.4000000E-001  1.8500000E-001 0.0
 -2.4000000E-001  1.9000000E-001 0.0
 -2.4000000E-001  1.9500000E-001 0.0
 -2.4000000E-001  2.0000000E-001 0.0
 -2.4000000E-001  2.0500000E-001 0.0
 -2.4000000E-001  2.1000000E-001 0.0
 -2.4000000E-001  2.1500000E-001 0.0
 -2.4000000E-001  2.2000000E-001 0.0
 -2.4500000E-001  2.2000000E-001 0.0
 -2.3500000E-001 -1.8500000E-001 0.0
 -2.3500000E-001 -1.8000000E-001 0.0
 -2.3500000E-001 -1.7500000E-001 0.0
 -2.3500000E-001 -1.7000000E-001 0.0
 -2.3500000E-001 -1.6500000E-001 0.0
 -2.3500000E-001 -1.6000000E-001 0.0
 -2.3500000E-001 -1.5500000E-001 0.0
 -2.3500000E-001 -1.5000000E-001 0.0
 -2.3500000E-001 -1.4500000E-001 0.0
 -2.3500000E-001 -1.4000000E-001 0.0
 -2.3500000E-001 -1.3500000E-001 0.0
 -2.3500000E-001 -1.3000000E-001 0.0
 -2.3500000E-001 -1.2500000E-001 0.0
 -2.3500000E-001 -1.2000000E-001 0.0
 -2.3500000E-001 -1.1500000E-001 0.0
 -2.3500000E-001 -1.1000000E-001 0.0
 -2.3500000E-001 -1.0500000E-001 0.0
 -2.3500000E-001 -1.0000000E-001 0.0
 -2.3500000E-001 -9.5000000E-002 0.0
 -2.3500000E-001 -9.0000000E-002 0.0
 -2.3500000E-001 -8.5000000E-002 0.0
 -2.3500000E-001 -8.0000000E-002 0.0
 -2.3500000E-001 -7.5000000E-002 0.0
 -2.3500000E-001 -7.0000000E-002 0.0
 -2.3500000E-001 -6.5000000E-002 0.0
 -2.3500000E-001 -6.0000000E-002 0.0
 -2.3500000E-001 -5.5000000E-002 0.0
 -2.3500000E-001 -5.0000000E-002 0.0
 -2.3500000E-001 -4.5000000E-002 0.0
 -2.3500000E-001 -4.0000000E-002 0.0
 -2.3500000E-001 -3.5000000E-002 0.0
 -2.3500000E-001 -3.0000000E-002 0.0
 -2.3500000E-001 -2.5000000E-002 0.0
 -2.3500000E-001 -2.0000000E-002 0.0
 -2.3500000E-001 -1.5000000E-002 0.0
 -2.3500000E-001 -1.0000000E-002 0.0
 -2.3500000E-001 -5.0000000E-003 0.0
 -2.3500000E-001  0.0000000E+000 0.0
 -2.3500000E-001  5.0000000E-003 0.0
 -2.3500000E-001  1.0000000E-002 0.0
 -2.3500000E-001  1.5000000E-002 0.0
 -2.3500000E-001  2.0000000E-002 0.0
 -2.3500000E-001  2.5000000E-002 0.0
 -2.3500000E-001  3.0000000E-002 0.0
 -2.3500000E-001  3.5000000E-002 0.0
 -2.3500000E-001  4.0000000E-002 0.0
 -2.3500000E-001  4.5000000E-002 0.0
 -2.3500000E-001  5.0000000E-002 0.0
 -2.3500000E-001  5.5000000E-002 0.0
 -2.3500000E-001  6.0000000E-002 0.0
 -2.3500000E-001  6.5000000E-002 0.0
 -2.3500000E-001  7.0000000E-002 0.0
 -2.3500000E-001  7.5000000E-002 0.0
 -2.3500000E-001  8.0000000E-002 0.0
 -2.3500000E-001  8.5000000E-002 0.0
 -2.3500000E-001  9.0000000E-002 0.0
 -2.3500000E-001  9.5000000E-002 0.0
 -2.3500000E-001  1.0000000E-001 0.0
 -2.3500000E-001  1.0500000E-001 0.0
 -2.3500000E-001  1.1000000E-001 0.0
 -2.3500000E-001  1.1500000E-001 0.0
 -2.3500000E-001  1.2000000E-001 0.0
 -2.3500000E-001  1.2500000E-001 0.0
 -2.3500000E-001  1.3000000E-001 0.0
 -2.3500000E-001  1.3500000E-001 0.0
 -2.3500000E-001  1.4000000E-001 0.0
 -2.3500000E-001  1.4500000E-001 0.0
 -2.3500000E-001  1.5000000E-001 0.0
 -2.3500000E-001  1.5500000E-001 0.0
 -2.3500000E-001  1.6000000E-001 0.0
 -2.3500000E-001  1.6500000E-001 0.0
 -2.3500000E-001  1.7000000E-001 0.0
 -2.3500000E-001  1.7500000E-001 0.0
 -2.3500000E-001  1.8000000E-001 0.0
 -2.3500000E-001  1.8500000E-001 0.0
 -2.3500000E-001  1.9000000E-001 0.0
 -2.3500000E-001  1.9500000E-001 0.0
 -2.3500000E-001  2.0000000E-001 0.0
 -2.3500000E-001  2.0500000E-001 0.0
 -2.3500000E-001  2.1000000E-001 0.0
 -2.3500000E-001  2.1500000E-001 0.0
 -2.3500000E-001  2.2000000E-001 0.0
 -2.3000000E-001 -1.8000000E-001 0.0
 -2.3000000E-001 -1.7500000E-001 0.0
 -2.3000000E-001 -1.7000000E-001 0.0
 -2.3000000E-001 -1.6500000E-001 0.0
 -2.3000000E-001 -1.6000000E-001 0.0
 -2.3000000E-001 -1.5500000E-001 0.0
 -2.3000000E-001 -1.5000000E-001 0.0
 -2.3000000E-001 -1.4500000E-001 0.0
 -2.3000000E-001 -1.4000000E-001 0.0
 -2.3000000E-001 -1.3500000E-001 0.0
 -2.3000000E-001 -1.3000000E-001 0.0
 -2.3000000E-001 -1.2500000E-001 0.0
 -2.3000000E-001 -1.2000000E-001 0.0
 -2.3000000E-001 -1.1500000E-001 0.0
 -2.3000000E-001 -1.1000000E-001 0.0
 -2.3000000E-001 -1.0500000E-001 0.0
 -2.3000000E-001 -1.0000000E-001 0.0
 -2.3000000E-001 -9.5000000E-002 0.0
 -2.3000000E-001 -9.0000000E-002 0.0
 -2.3000000E-001 -8.5000000E-002 0.0
 -2.3000000E-001 -8.0000000E-002 0.0
 -2.3000000E-001 -7.5000000E-002 0.0
 -2.3000000E-001 -7.0000000E-002 0.0
 -2.3000000E-001 -6.5000000E-002 0.0
 -2.3000000E-001 -6.0000000E-002 0.0
 -2.3000000E-001 -5.5000000E-002 0.0
 -2.3000000E-001 -5.0000000E-002 0.0
 -2.3000000E-001 -4.5000000E-002 0.0
 -2.3000000E-001 -4.0000000E-002 0.0
 -2.3000000E-001 -3.5000000E-002 0.0
 -2.3000000E-001 -3.0000000E-002 0.0
 -2.3000000E-001 -2.5000000E-002 0.0
 -2.3000000E-001 -2.0000000E-002 0.0
 -2.3000000E-001 -1.5000000E-002 0.0
 -2.3000000E-001 -1.0000000E-002 0.0
 -2.3000000E-001 -5.0000000E-003 0.0
 -2.3000000E-001  0.0000000E+000 0.0
 -2.3000000E-001  5.0000000E-003 0.0
 -2.3000000E-001  1.0000000E-002 0.0
 -2.3000000E-001  1.5000000E-002 0.0
 -2.3000000E-001  2.0000000E-002 0.0
 -2.3000000E-001  2.5000000E-002 0.0
 -2.3000000E-001  3.0000000E-002 0.0
 -2.3000000E-001  3.5000000E-002 0.0
 -2.3000000E-001  4.0000000E-002 0.0
 -2.3000000E-001  4.5000000E-002 0.0
 -2.3000000E-001  5.0000000E-002 0.0
 -2.3000000E-001  5.5000000E-002 0.0
 -2.3000000E-001  6.0000000E-002 0.0
 -2.3000000E-001  6.5000000E-002 0.0
 -2.3000000E-001  7.0000000E-002 0.0
 -2.3000000E-001  7.5000000E-002 0.0
 -2.3000000E-001  8.0000000E-002 0.0
 -2.3000000E-001  8.5000000E-002 0.0
 -2.3000000E-001  9.0000000E-002 0.0
 -2.3000000E-001  9.5000000E-002 0.0
 -2.3000000E-001  1.0000000E-001 0.0
 -2.3000000E-001  1.0500000E-001 0.0
 -2.3000000E-001  1.1000000E-001 0.0
 -2.3000000E-001  1.1500000E-001 0.0
 -2.3000000E-001  1.2000000E-001 0.0
 -2.3000000E-001  1.2500000E-001 0.0
 -2.3000000E-001  1.3000000E-001 0.0
 -2.3000000E-001  1.3500000E-001 0.0
 -2.3000000E-001  1.4000000E-001 0.0
 -2.3000000E-001  1.4500000E-001 0.0
 -2.3000000E-001  1.5000000E-001 0.0
 -2.3000000E-001  1.5500000E-001 0.0
 -2.3000000E-001  1.6000000E-001 0.0
 -2.3000000E-001  1.6500000E-001 0.0
 -2.3000000E-001  1.7000000E-001 0.0
 -2.3000000E-001  1.7500000E-001 0.0
 -2.3000000E-001  1.8000000E-001 0.0
 -2.3000000E-001  1.8500000E-001 0.0
 -2.3000000E-001  1.9000000E-001 0.0
 -2.3000000E-001  1.9500000E-001 0.0
 -2.3000000E-001  2.0000000E-001 0.0
 -2.3000000E-001  2.0500000E-001 0.0
 -2.3000000E-001  2.1000000E-001 0.0
 -2.3000000E-001  2.1500000E-001 0.0
 -2.2500000E-001 -1.8000000E-001 0.0
 -2.2500000E-001 -1.7500000E-001 0.0
 -2.2500000E-001 -1.7000000E-001 0.0
 -2.2500000E-001 -1.6500000E-001 0.0
 -2.2500000E-001 -1.6000000E-001 0.0
 -2.2500000E-001 -1.5500000E-001 0.0
 -2.2500000E-001 -1.5000000E-001 0.0
 -2.2500000E-001 -1.4500000E-001 0.0
 -2.2500000E-001 -1.4000000E-001 0.0
 -2.2500000E-001 -1.3500000E-001 0.0
 -2.2500000E-001 -1.3000000E-001 0.0
 -2.2500000E-001 -1.2500000E-001 0.0
 -2.2500000E-001 -1.2000000E-001 0.0
 -2.2500000E-001 -1.1500000E-001 0.0
 -2.2500000E-001 -1.1000000E-001 0.0
 -2.2500000E-001 -1.0500000E-001 0.0
 -2.2500000E-001 -1.0000000E-001 0.0
 -2.2500000E-001 -9.5000000E-002 0.0
 -2.2500000E-001 -9.0000000E-002 0.0
 -2.2500000E-001 -8.5000000E-002 0.0
 -2.2500000E-001 -8.0000000E-002 0.0
 -2.2500000E-001 -7.5000000E-002 0.0
 -2.2500000E-001 -7.0000000E-002 0.0
 -2.2500000E-001 -6.5000000E-002 0.0
 -2.2500000E-001 -6.0000000E-002 0.0
 -2.2500000E-001 -5.5000000E-002 0.0
 -2.2500000E-001 -5.0000000E-002 0.0
 -2.2500000E-001 -4.5000000E-002 0.0
 -2.2500000E-001 -4.0000000E-002 0.0
 -2.2500000E-001 -3.5000000E-002 0.0
 -2.2500000E-001 -3.0000000E-002 0.0
 -2.2500000E-001 -2.5000000E-002 0.0
 -2.2500000E-001 -2.0000000E-002 0.0
 -2.2500000E-001 -1.5000000E-002 0.0
 -2.2500000E-001 -1.0000000E-002 0.0
 -2.2500000E-001 -5.0000000E-003 0.0
 -2.2500000E-001  0.0000000E+000 0.0
 -2.2500000E-001  5.0000000E-003 0.0
 -2.2500000E-001  1.0000000E-002 0.0
 -2.2500000E-001  1.5000000E-002 0.0
 -2.2500000E-001  2.0000000E-002 0.0
 -2.2500000E-001  2.5000000E-002 0.0
 -2.2500000E-001  3.0000000E-002 0.0
 -2.2500000E-001  3.5000000E-002 0.0
 -2.2500000E-001  4.0000000E-002 0.0
 -2.2500000E-001  4.5000000E-002 0.0
 -2.2500000E-001  5.0000000E-002 0.0
 -2.2500000E-001  5.5000000E-002 0.0
 -2.2500000E-001  6.0000000E-002 0.0
 -2.2500000E-001  6.5000000E-002 0.0
 -2.2500000E-001  7.0000000E-002 0.0
 -2.2500000E-001  7.5000000E-002 0.0
 -2.2500000E-001  8.0000000E-002 0.0
 -2.2500000E-001  8.5000000E-002 0.0
 -2.2500000E-001  9.0000000E-002 0.0
 -2.2500000E-001  9.5000000E-002 0.0
 -2.2500000E-001  1.0000000E-001 0.0
 -2.2500000E-001  1.0500000E-001 0.0
 -2.2500000E-001  1.1000000E-001 0.0
 -2.2500000E-001  1.1500000E-001 0.0
 -2.2500000E-001  1.2000000E-001 0.0
 -2.2500000E-001  1.2500000E-001 0.0
 -2.2500000E-001  1.3000000E-001 0.0
 -2.2500000E-001  1.3500000E-001 0.0
 -2.2500000E-001  1.4000000E-001 0.0
 -2.2500000E-001  1.4500000E-001 0.0
 -2.2500000E-001  1.5000000E-001 0.0
 -2.2500000E-001  1.5500000E-001 0.0
 -2.2500000E-001  1.6000000E-001 0.0
 -2.2500000E-001  1.6500000E-001 0.0
 -2.2500000E-001  1.7000000E-001 0.0
 -2.2500000E-001  1.7500000E-001 0.0
 -2.2500000E-001  1.8000000E-001 0.0
 -2.2500000E-001  1.8500000E-001 0.0
 -2.2500000E-001  1.9000000E-001 0.0
 -2.2500000E-001  1.9500000E-001 0.0
 -2.2500000E-001  2.0000000E-001 0.0
 -2.2500000E-001  2.0500000E-001 0.0
 -2.2500000E-001  2.1000000E-001 0.0
 -2.2500000E-001  2.1500000E-001 0.0
 -2.2000000E-001 -1.7500000E-001 0.0
 -2.2000000E-001 -1.7000000E-001 0.0
 -2.2000000E-001 -1.6500000E-001 0.0
 -2.2000000E-001 -1.6000000E-001 0.0
 -2.2000000E-001 -1.5500000E-001 0.0
 -2.2000000E-001 -1.5000000E-001 0.0
 -2.2000000E-001 -1.4500000E-001 0.0
 -2.2000000E-001 -1.4000000E-001 0.0
 -2.2000000E-001 -1.3500000E-001 0.0
 -2.2000000E-001 -1.3000000E-001 0.0
 -2.2000000E-001 -1.2500000E-001 0.0
 -2.2000000E-001 -1.2000000E-001 0.0
 -2.2000000E-001 -1.1500000E-001 0.0
 -2.2000000E-001 -1.1000000E-001 0.0
 -2.2000000E-001 -1.0500000E-001 0.0
 -2.2000000E-001 -1.0000000E-001 0.0
 -2.2000000E-001 -9.5000000E-002 0.0
 -2.2000000E-001 -9.0000000E-002 0.0
 -2.2000000E-001 -8.5000000E-002 0.0
 -2.2000000E-001 -8.0000000E-002 0.0
 -2.2000000E-001 -7.5000000E-002 0.0
 -2.2000000E-001 -7.0000000E-002 0.0
 -2.2000000E-001 -6.5000000E-002 0.0
 -2.2000000E-001 -6.0000000E-002 0.0
 -2.2000000E-001 -5.5000000E-002 0.0
 -2.2000000E-001 -5.0000000E-002 0.0
 -2.2000000E-001 -4.5000000E-002 0.0
 -2.2000000E-001 -4.0000000E-002 0.0
 -2.2000000E-001 -3.5000000E-002 0.0
 -2.2000000E-001 -3.0000000E-002 0.0
 -2.2000000E-001 -2.5000000E-002 0.0
 -2.2000000E-001 -2.0000000E-002 0.0
 -2.2000000E-001 -1.5000000E-002 0.0
 -2.2000000E-001 -1.0000000E-002 0.0
 -2.2000000E-001 -5.0000000E-003 0.0
 -2.2000000E-001  0.0000000E+000 0.0
 -2.2000000E-001  5.0000000E-003 0.0
 -2.2000000E-001  1.0000000E-002 0.0
 -2.2000000E-001  1.5000000E-002 0.0
 -2.2000000E-001  2.0000000E-002 0.0
 -2.2000000E-001  2.5000000E-002 0.0
 -2.2000000E-001  3.0000000E-002 0.0
 -2.2000000E-001  3.5000000E-002 0.0
 -2.2000000E-001  4.0000000E-002 0.0
 -2.2000000E-001  4.5000000E-002 0.0
 -2.2000000E-001  5.0000000E-002 0.0
 -2.2000000E-001  5.5000000E-002 0.0
 -2.2000000E-001  6.0000000E-002 0.0
 -2.2000000E-001  6.5000000E-002 0.0
 -2.2000000E-001  7.0000000E-002 0.0
 -2.2000000E-001  7.5000000E-002 0.0
 -2.2000000E-001  8.0000000E-002 0.0
 -2.2000000E-001  8.5000000E-002 0.0
 -2.2000000E-001  9.0000000E-002 0.0
 -2.2000000E-001  9.5000000E-002 0.0
 -2.2000000E-001  1.0000000E-001 0.0
 -2.2000000E-001  1.0500000E-001 0.0
 -2.2000000E-001  1.1000000E-001 0.0
 -2.2000000E-001  1.1500000E-001 0.0
 -2.2000000E-001  1.2000000E-001 0.0
 -2.2000000E-001  1.2500000E-001 0.0
 -2.2000000E-001  1.3000000E-001 0.0
 -2.2000000E-001  1.3500000E-001 0.0
 -2.2000000E-001  1.4000000E-001 0.0
 -2.2000000E-001  1.4500000E-001 0.0
 -2.2000000E-001  1.5000000E-001 0.0
 -2.2000000E-001  1.5500000E-001 0.0
 -2.2000000E-001  1.6000000E-001 0.0
 -2.2000000E-001  1.6500000E-001 0.0
 -2.2000000E-001  1.7000000E-001 0.0
 -2.2000000E-001  1.7500000E-001 0.0
 -2.2000000E-001  1.8000000E-001 0.0
 -2.2000000E-001  1.8500000E-001 0.0
 -2.2000000E-001  1.9000000E-001 0.0
 -2.2000000E-001  1.9500000E-001 0.0
 -2.2000000E-001  2.0000000E-001 0.0
 -2.2000000E-001  2.0500000E-001 0.0
 -2.2000000E-001  2.1000000E-001 0.0
 -2.1500000E-001 -1.7500000E-001 0.0
 -2.1500000E-001 -1.7000000E-001 0.0
 -2.1500000E-001 -1.6500000E-001 0.0
 -2.1500000E-001 -1.6000000E-001 0.0
 -2.1500000E-001 -1.5500000E-001 0.0
 -2.1500000E-001 -1.5000000E-001 0.0
 -2.1500000E-001 -1.4500000E-001 0.0
 -2.1500000E-001 -1.4000000E-001 0.0
 -2.1500000E-001 -1.3500000E-001 0.0
 -2.1500000E-001 -1.3000000E-001 0.0
 -2.1500000E-001 -1.2500000E-001 0.0
 -2.1500000E-001 -1.2000000E-001 0.0
 -2.1500000E-001 -1.1500000E-001 0.0
 -2.1500000E-001 -1.1000000E-001 0.0
 -2.1500000E-001 -1.0500000E-001 0.0
 -2.1500000E-001 -1.0000000E-001 0.0
 -2.1500000E-001 -9.5000000E-002 0.0
 -2.1500000E-001 -9.0000000E-002 0.0
 -2.1500000E-001 -8.5000000E-002 0.0
 -2.1500000E-001 -8.0000000E-002 0.0
 -2.1500000E-001 -7.5000000E-002 0.0
 -2.1500000E-001 -7.0000000E-002 0.0
 -2.1500000E-001 -6.5000000E-002 0.0
 -2.1500000E-001 -6.0000000E-002 0.0
 -2.1500000E-001 -5.5000000E-002 0.0
 -2.1500000E-001 -5.0000000E-002 0.0
 -2.1500000E-001 -4.5000000E-002 0.0
 -2.1500000E-001 -4.0000000E-002 0.0
 -2.1500000E-001 -3.5000000E-002 0.0
 -2.1500000E-001 -3.0000000E-002 0.0
 -2.1500000E-001 -2.5000000E-002 0.0
 -2.1500000E-001 -2.0000000E-002 0.0
 -2.1500000E-001 -1.5000000E-002 0.0
 -2.1500000E-001 -1.0000000E-002 0.0
 -2.1500000E-001 -5.0000000E-003 0.0
 -2.1500000E-001  0.0000000E+000 0.0
 -2.1500000E-001  5.0000000E-003 0.0
 -2.1500000E-001  1.0000000E-002 0.0
 -2.1500000E-001  1.5000000E-002 0.0
 -2.1500000E-001  2.0000000E-002 0.0
 -2.1500000E-001  2.5000000E-002 0.0
 -2.1500000E-001  3.0000000E-002 0.0
 -2.1500000E-001  3.5000000E-002 0.0
 -2.1500000E-001  4.0000000E-002 0.0
 -2.1500000E-001  4.5000000E-002 0.0
 -2.1500000E-001  5.0000000E-002 0.0
 -2.1500000E-001  5.5000000E-002 0.0
 -2.1500000E-001  6.0000000E-002 0.0
 -2.1500000E-001  6.5000000E-002 0.0
 -2.1500000E-001  7.0000000E-002 0.0
 -2.1500000E-001  7.5000000E-002 0.0
 -2.1500000E-001  8.0000000E-002 0.0
 -2.1500000E-001  8.5000000E-002 0.0
 -2.1500000E-001  9.0000000E-002 0.0
 -2.1500000E-001  9.5000000E-002 0.0
 -2.1500000E-001  1.0000000E-001 0.0
 -2.1500000E-001  1.0500000E-001 0.0
 -2.1500000E-001  1.1000000E-001 0.0
 -2.1500000E-001  1.1500000E-001 0.0
 -2.1500000E-001  1.2000000E-001 0.0
 -2.1500000E-001  1.2500000E-001 0.0
 -2.1500000E-001  1.3000000E-001 0.0
 -2.1500000E-001  1.3500000E-001 0.0
 -2.1500000E-001  1.4000000E-001 0.0
 -2.1500000E-001  1.4500000E-001 0.0
 -2.1500000E-001  1.5000000E-001 0.0
 -2.1500000E-001  1.5500000E-001 0.0
 -2.1500000E-001  1.6000000E-001 0.0
 -2.1500000E-001  1.6500000E-001 0.0
 -2.1500000E-001  1.7000000E-001 0.0
 -2.1500000E-001  1.7500000E-001 0.0
 -2.1500000E-001  1.8000000E-001 0.0
 -2.1500000E-001  1.8500000E-001 0.0
 -2.1500000E-001  1.9000000E-001 0.0
 -2.1500000E-001  1.9500000E-001 0.0
 -2.1500000E-001  2.0000000E-001 0.0
 -2.1500000E-001  2.0500000E-001 0.0
 -2.1000000E-001 -1.7500000E-001 0.0
 -2.1000000E-001 -1.7000000E-001 0.0
 -2.1000000E-001 -1.6500000E-001 0.0
 -2.1000000E-001 -1.6000000E-001 0.0
 -2.1000000E-001 -1.5500000E-001 0.0
 -2.1000000E-001 -1.5000000E-001 0.0
 -2.1000000E-001 -1.4500000E-001 0.0
 -2.1000000E-001 -1.4000000E-001 0.0
 -2.1000000E-001 -1.3500000E-001 0.0
 -2.1000000E-001 -1.3000000E-001 0.0
 -2.1000000E-001 -1.2500000E-001 0.0
 -2.1000000E-001 -1.2000000E-001 0.0
 -2.1000000E-001 -1.1500000E-001 0.0
 -2.1000000E-001 -1.1000000E-001 0.0
 -2.1000000E-001 -1.0500000E-001 0.0
 -2.1000000E-001 -1.0000000E-001 0.0
 -2.1000000E-001 -9.5000000E-002 0.0
 -2.1000000E-001 -9.0000000E-002 0.0
 -2.1000000E-001 -8.5000000E-002 0.0
 -2.1000000E-001 -8.0000000E-002 0.0
 -2.1000000E-001 -7.5000000E-002 0.0
 -2.1000000E-001 -7.0000000E-002 0.0
 -2.1000000E-001 -6.5000000E-002 0.0
 -2.1000000E-001 -6.0000000E-002 0.0
 -2.1000000E-001 -5.5000000E-002 0.0
 -2.1000000E-001 -5.0000000E-002 0.0
 -2.1000000E-001 -4.5000000E-002 0.0
 -2.1000000E-001 -4.0000000E-002 0.0
 -2.1000000E-001 -3.5000000E-002 0.0
 -2.1000000E-001 -3.0000000E-002 0.0
 -2.1000000E-001 -2.5000000E-002 0.0
 -2.1000000E-001 -2.0000000E-002 0.0
 -2.1000000E-001 -1.5000000E-002 0.0
 -2.1000000E-001 -1.0000000E-002 0.0
 -2.1000000E-001 -5.0000000E-003 0.0
 -2.1000000E-001  0.0000000E+000 0.0
 -2.1000000E-001  5.0000000E-003 0.0
 -2.1000000E-001  1.0000000E-002 0.0
 -2.1000000E-001  1.5000000E-002 0.0
 -2.1000000E-001  2.0000000E-002 0.0
 -2.1000000E-001  2.5000000E-002 0.0
 -2.1000000E-001  3.0000000E-002 0.0
 -2.1000000E-001  3.5000000E-002 0.0
 -2.1000000E-001  4.0000000E-002 0.0
 -2.1000000E-001  4.5000000E-002 0.0
 -2.1000000E-001  5.0000000E-002 0.0
 -2.1000000E-001  5.5000000E-002 0.0
 -2.1000000E-001  6.0000000E-002 0.0
 -2.1000000E-001  6.5000000E-002 0.0
 -2.1000000E-001  7.0000000E-002 0.0
 -2.1000000E-001  7.5000000E-002 0.0
 -2.1000000E-001  8.0000000E-002 0.0
 -2.1000000E-001  8.5000000E-002 0.0
 -2.1000000E-001  9.0000000E-002 0.0
 -2.1000000E-001  9.5000000E-002 0.0
 -2.1000000E-001  1.0000000E-001 0.0
 -2.1000000E-001  1.0500000E-001 0.0
 -2.1000000E-001  1.1000000E-001 0.0
 -2.1000000E-001  1.1500000E-001 0.0
 -2.1000000E-001  1.2000000E-001 0.0
 -2.1000000E-001  1.2500000E-001 0.0
 -2.1000000E-001  1.3000000E-001 0.0
 -2.1000000E-001  1.3500000E-001 0.0
 -2.1000000E-001  1.4000000E-001 0.0
 -2.1000000E-001  1.4500000E-001 0.0
 -2.1000000E-001  1.5000000E-001 0.0
 -2.1000000E-001  1.5500000E-001 0.0
 -2.1000000E-001  1.6000000E-001 0.0
 -2.1000000E-001  1.6500000E-001 0.0
 -2.1000000E-001  1.7000000E-001 0.0
 -2.1000000E-001  1.7500000E-001 0.0
 -2.1000000E-001  1.8000000E-001 0.0
 -2.1000000E-001  1.8500000E-001 0.0
 -2.1000000E-001  1.9000000E-001 0.0
 -2.1000000E-001  1.9500000E-001 0.0
 -2.1000000E-001  2.0000000E-001 0.0
 -2.1000000E-001  2.0500000E-001 0.0
 -2.0500000E-001 -1.7500000E-001 0.0
 -2.0500000E-001 -1.7000000E-001 0.0
 -2.0500000E-001 -1.6500000E-001 0.0
 -2.0500000E-001 -1.6000000E-001 0.0
 -2.0500000E-001 -1.5500000E-001 0.0
 -2.0500000E-001 -1.5000000E-001 0.0
 -2.0500000E-001 -1.4500000E-001 0.0
 -2.0500000E-001 -1.4000000E-001 0.0
 -2.0500000E-001 -1.3500000E-001 0.0
 -2.0500000E-001 -1.3000000E-001 0.0
 -2.0500000E-001 -1.2500000E-001 0.0
 -2.0500000E-001 -1.2000000E-001 0.0
 -2.0500000E-001 -1.1500000E-001 0.0
 -2.0500000E-001 -1.1000000E-001 0.0
 -2.0500000E-001 -1.0500000E-001 0.0
 -2.0500000E-001 -1.0000000E-001 0.0
 -2.0500000E-001 -9.5000000E-002 0.0
 -2.0500000E-001 -9.0000000E-002 0.0
 -2.0500000E-001 -8.5000000E-002 0.0
 -2.0500000E-001 -8.0000000E-002 0.0
 -2.0500000E-001 -7.5000000E-002 0.0
 -2.0500000E-001 -7.0000000E-002 0.0
 -2.0500000E-001 -6.5000000E-002 0.0
 -2.0500000E-001 -6.0000000E-002 0.0
 -2.0500000E-001 -5.5000000E-002 0.0
 -2.0500000E-001 -5.0000000E-002 0.0
 -2.0500000E-001 -4.5000000E-002 0.0
 -2.0500000E-001 -4.0000000E-002 0.0
 -2.0500000E-001 -3.5000000E-002 0.0
 -2.0500000E-001 -3.0000000E-002 0.0
 -2.0500000E-001 -2.5000000E-002 0.0
 -2.0500000E-001 -2.0000000E-002 0.0
 -2.0500000E-001 -1.5000000E-002 0.0
 -2.0500000E-001 -1.0000000E-002 0.0
 -2.0500000E-001 -5.0000000E-003 0.0
 -2.0500000E-001  0.0000000E+000 0.0
 -2.0500000E-001  5.0000000E-003 0.0
 -2.0500000E-001  1.0000000E-002 0.0
 -2.0500000E-001  1.5000000E-002 0.0
 -2.0500000E-001  2.0000000E-002 0.0
 -2.0500000E-001  2.5000000E-002 0.0
 -2.0500000E-001  3.0000000E-002 0.0
 -2.0500000E-001  3.5000000E-002 0.0
 -2.0500000E-001  4.0000000E-002 0.0
 -2.0500000E-001  4.5000000E-002 0.0
 -2.0500000E-001  5.0000000E-002 0.0
 -2.0500000E-001  5.5000000E-002 0.0
 -2.0500000E-001  6.0000000E-002 0.0
 -2.0500000E-001  6.5000000E-002 0.0
 -2.0500000E-001  7.0000000E-002 0.0
 -2.0500000E-001  7.5000000E-002 0.0
 -2.0500000E-001  8.0000000E-002 0.0
 -2.0500000E-001  8.5000000E-002 0.0
 -2.0500000E-001  1.0000000E-001 0.0
 -2.0500000E-001  1.0500000E-001 0.0
 -2.0500000E-001  1.1000000E-001 0.0
 -2.0500000E-001  1.1500000E-001 0.0
 -2.0500000E-001  1.2000000E-001 0.0
 -2.0500000E-001  1.2500000E-001 0.0
 -2.0500000E-001  1.3000000E-001 0.0
 -2.0500000E-001  1.3500000E-001 0.0
 -2.0500000E-001  1.4000000E-001 0.0
 -2.0500000E-001  1.4500000E-001 0.0
 -2.0500000E-001  1.5000000E-001 0.0
 -2.0500000E-001  1.5500000E-001 0.0
 -2.0500000E-001  1.6000000E-001 0.0
 -2.0500000E-001  1.6500000E-001 0.0
 -2.0500000E-001  1.7000000E-001 0.0
 -2.0500000E-001  1.7500000E-001 0.0
 -2.0500000E-001  1.8000000E-001 0.0
 -2.0500000E-001  1.8500000E-001 0.0
 -2.0500000E-001  1.9000000E-001 0.0
 -2.0500000E-001  1.9500000E-001 0.0
 -2.0500000E-001  2.0000000E-001 0.0
 -2.0500000E-001  2.0500000E-001 0.0
 -2.0000000E-001 -1.7500000E-001 0.0
 -2.0000000E-001 -1.7000000E-001 0.0
 -2.0000000E-001 -1.6500000E-001 0.0
 -2.0000000E-001 -1.6000000E-001 0.0
 -2.0000000E-001 -1.5500000E-001 0.0
 -2.0000000E-001 -1.5000000E-001 0.0
 -2.0000000E-001 -1.4500000E-001 0.0
 -2.0000000E-001 -1.4000000E-001 0.0
 -2.0000000E-001 -1.3500000E-001 0.0
 -2.0000000E-001 -1.3000000E-001 0.0
 -2.0000000E-001 -1.2500000E-001 0.0
 -2.0000000E-001 -1.2000000E-001 0.0
 -2.0000000E-001 -1.1500000E-001 0.0
 -2.0000000E-001 -1.1000000E-001 0.0
 -2.0000000E-001 -1.0500000E-001 0.0
 -2.0000000E-001 -1.0000000E-001 0.0
 -2.0000000E-001 -9.5000000E-002 0.0
 -2.0000000E-001 -9.0000000E-002 0.0
 -2.0000000E-001 -8.5000000E-002 0.0
 -2.0000000E-001 -8.0000000E-002 0.0
 -2.0000000E-001 -7.5000000E-002 0.0
 -2.0000000E-001 -7.0000000E-002 0.0
 -2.0000000E-001 -6.5000000E-002 0.0
 -2.0000000E-001 -6.0000000E-002 0.0
 -2.0000000E-001 -5.5000000E-002 0.0
 -2.0000000E-001 -5.0000000E-002 0.0
 -2.0000000E-001 -4.5000000E-002 0.0
 -2.0000000E-001 -4.0000000E-002 0.0
 -2.0000000E-001 -3.5000000E-002 0.0
 -2.0000000E-001 -3.0000000E-002 0.0
 -2.0000000E-001 -2.5000000E-002 0.0
 -2.0000000E-001 -2.0000000E-002 0.0
 -2.0000000E-001 -1.5000000E-002 0.0
 -2.0000000E-001 -1.0000000E-002 0.0
 -2.0000000E-001 -5.0000000E-003 0.0
 -2.0000000E-001  0.0000000E+000 0.0
 -2.0000000E-001  5.0000000E-003 0.0
 -2.0000000E-001  1.0000000E-002 0.0
 -2.0000000E-001  1.5000000E-002 0.0
 -2.0000000E-001  2.0000000E-002 0.0
 -2.0000000E-001  2.5000000E-002 0.0
 -2.0000000E-001  3.0000000E-002 0.0
 -2.0000000E-001  3.5000000E-002 0.0
 -2.0000000E-001  4.0000000E-002 0.0
 -2.0000000E-001  4.5000000E-002 0.0
 -2.0000000E-001  5.0000000E-002 0.0
 -2.0000000E-001  5.5000000E-002 0.0
 -2.0000000E-001  6.0000000E-002 0.0
 -2.0000000E-001  6.5000000E-002 0.0
 -2.0000000E-001  7.0000000E-002 0.0
 -2.0000000E-001  7.5000000E-002 0.0
 -2.0000000E-001  8.0000000E-002 0.0
 -2.0000000E-001  1.1000000E-001 0.0
 -2.0000000E-001  1.1500000E-001 0.0
 -2.0000000E-001  1.2000000E-001 0.0
 -2.0000000E-001  1.2500000E-001 0.0
 -2.0000000E-001  1.3000000E-001 0.0
 -2.0000000E-001  1.3500000E-001 0.0
 -2.0000000E-001  1.4000000E-001 0.0
 -2.0000000E-001  1.4500000E-001 0.0
 -2.0000000E-001  1.5000000E-001 0.0
 -2.0000000E-001  1.5500000E-001 0.0
 -2.0000000E-001  1.6000000E-001 0.0
 -2.0000000E-001  1.6500000E-001 0.0
 -2.0000000E-001  1.7000000E-001 0.0
 -2.0000000E-001  1.7500000E-001 0.0
 -2.0000000E-001  1.8000000E-001 0.0
 -2.0000000E-001  1.8500000E-001 0.0
 -2.0000000E-001  1.9000000E-001 0.0
 -2.0000000E-001  1.9500000E-001 0.0
 -2.0000000E-001  2.0000000E-001 0.0
 -2.0000000E-001  2.0500000E-001 0.0
 -1.9500000E-001 -1.7500000E-001 0.0
 -1.9500000E-001 -1.7000000E-001 0.0
 -1.9500000E-001 -1.6500000E-001 0.0
 -1.9500000E-001 -1.6000000E-001 0.0
 -1.9500000E-001 -1.5500000E-001 0.0
 -1.9500000E-001 -1.5000000E-001 0.0
 -1.9500000E-001 -1.4500000E-001 0.0
 -1.9500000E-001 -1.4000000E-001 0.0
 -1.9500000E-001 -1.3500000E-001 0.0
 -1.9500000E-001 -1.3000000E-001 0.0
 -1.9500000E-001 -1.2500000E-001 0.0
 -1.9500000E-001 -1.2000000E-001 0.0
 -1.9500000E-001 -1.1500000E-001 0.0
 -1.9500000E-001 -1.1000000E-001 0.0
 -1.9500000E-001 -1.0500000E-001 0.0
 -1.9500000E-001 -1.0000000E-001 0.0
 -1.9500000E-001 -9.5000000E-002 0.0
 -1.9500000E-001 -9.0000000E-002 0.0
 -1.9500000E-001 -8.5000000E-002 0.0
 -1.9500000E-001 -8.0000000E-002 0.0
 -1.9500000E-001 -7.5000000E-002 0.0
 -1.9500000E-001 -7.0000000E-002 0.0
 -1.9500000E-001 -6.5000000E-002 0.0
 -1.9500000E-001 -6.0000000E-002 0.0
 -1.9500000E-001 -5.5000000E-002 0.0
 -1.9500000E-001 -5.0000000E-002 0.0
 -1.9500000E-001 -4.5000000E-002 0.0
 -1.9500000E-001 -4.0000000E-002 0.0
 -1.9500000E-001 -3.5000000E-002 0.0
 -1.9500000E-001 -3.0000000E-002 0.0
 -1.9500000E-001 -2.5000000E-002 0.0
 -1.9500000E-001 -2.0000000E-002 0.0
 -1.9500000E-001 -1.5000000E-002 0.0
 -1.9500000E-001 -1.0000000E-002 0.0
 -1.9500000E-001 -5.0000000E-003 0.0
 -1.9500000E-001  0.0000000E+000 0.0
 -1.9500000E-001  5.0000000E-003 0.0
 -1.9500000E-001  1.0000000E-002 0.0
 -1.9500000E-001  1.5000000E-002 0.0
 -1.9500000E-001  2.0000000E-002 0.0
 -1.9500000E-001  2.5000000E-002 0.0
 -1.9500000E-001  3.0000000E-002 0.0
 -1.9500000E-001  3.5000000E-002 0.0
 -1.9500000E-001  4.0000000E-002 0.0
 -1.9500000E-001  4.5000000E-002 0.0
 -1.9500000E-001  5.0000000E-002 0.0
 -1.9500000E-001  5.5000000E-002 0.0
 -1.9500000E-001  6.0000000E-002 0.0
 -1.9500000E-001  6.5000000E-002 0.0
 -1.9500000E-001  7.0000000E-002 0.0
 -1.9500000E-001  7.5000000E-002 0.0
 -1.9500000E-001  1.1500000E-001 0.0
 -1.9500000E-001  1.2000000E-001 0.0
 -1.9500000E-001  1.2500000E-001 0.0
 -1.9500000E-001  1.3000000E-001 0.0
 -1.9500000E-001  1.3500000E-001 0.0
 -1.9500000E-001  1.4000000E-001 0.0
 -1.9500000E-001  1.4500000E-001 0.0
 -1.9500000E-001  1.5000000E-001 0.0
 -1.9500000E-001  1.5500000E-001 0.0
 -1.9500000E-001  1.6000000E-001 0.0
 -1.9500000E-001  1.6500000E-001 0.0
 -1.9500000E-001  1.7000000E-001 0.0
 -1.9500000E-001  1.7500000E-001 0.0
 -1.9500000E-001  1.8000000E-001 0.0
 -1.9500000E-001  1.8500000E-001 0.0
 -1.9500000E-001  1.9000000E-001 0.0
 -1.9500000E-001  1.9500000E-001 0.0
 -1.9500000E-001  2.0000000E-001 0.0
 -1.9000000E-001 -1.7000000E-001 0.0
 -1.9000000E-001 -1.6500000E-001 0.0
 -1.9000000E-001 -1.6000000E-001 0.0
 -1.9000000E-001 -1.5500000E-001 0.0
 -1.9000000E-001 -1.5000000E-001 0.0
 -1.9000000E-001 -1.4500000E-001 0.0
 -1.9000000E-001 -1.4000000E-001 0.0
 -1.9000000E-001 -1.3500000E-001 0.0
 -1.9000000E-001 -1.3000000E-001 0.0
 -1.9000000E-001 -1.2500000E-001 0.0
 -1.9000000E-001 -1.2000000E-001 0.0
 -1.9000000E-001 -1.1500000E-001 0.0
 -1.9000000E-001 -1.1000000E-001 0.0
 -1.9000000E-001 -1.0500000E-001 0.0
 -1.9000000E-001 -1.0000000E-001 0.0
 -1.9000000E-001 -9.5000000E-002 0.0
 -1.9000000E-001 -9.0000000E-002 0.0
 -1.9000000E-001 -8.5000000E-002 0.0
 -1.9000000E-001 -8.0000000E-002 0.0
 -1.9000000E-001 -7.5000000E-002 0.0
 -1.9000000E-001 -7.0000000E-002 0.0
 -1.9000000E-001 -6.5000000E-002 0.0
 -1.9000000E-001 -6.0000000E-002 0.0
 -1.9000000E-001 -5.5000000E-002 0.0
 -1.9000000E-001 -5.0000000E-002 0.0
 -1.9000000E-001 -4.5000000E-002 0.0
 -1.9000000E-001 -4.0000000E-002 0.0
 -1.9000000E-001 -3.5000000E-002 0.0
 -1.9000000E-001 -3.0000000E-002 0.0
 -1.9000000E-001 -2.5000000E-002 0.0
 -1.9000000E-001 -2.0000000E-002 0.0
 -1.9000000E-001 -1.5000000E-002 0.0
 -1.9000000E-001 -1.0000000E-002 0.0
 -1.9000000E-001 -5.0000000E-003 0.0
 -1.9000000E-001  0.0000000E+000 0.0
 -1.9000000E-001  5.0000000E-003 0.0
 -1.9000000E-001  1.0000000E-002 0.0
 -1.9000000E-001  1.5000000E-002 0.0
 -1.9000000E-001  2.0000000E-002 0.0
 -1.9000000E-001  2.5000000E-002 0.0
 -1.9000000E-001  3.0000000E-002 0.0
 -1.9000000E-001  3.5000000E-002 0.0
 -1.9000000E-001  4.0000000E-002 0.0
 -1.9000000E-001  4.5000000E-002 0.0
 -1.9000000E-001  5.0000000E-002 0.0
 -1.9000000E-001  5.5000000E-002 0.0
 -1.9000000E-001  6.0000000E-002 0.0
 -1.9000000E-001  6.5000000E-002 0.0
 -1.9000000E-001  7.0000000E-002 0.0
 -1.9000000E-001  1.2500000E-001 0.0
 -1.9000000E-001  1.3000000E-001 0.0
 -1.9000000E-001  1.3500000E-001 0.0
 -1.9000000E-001  1.4000000E-001 0.0
 -1.9000000E-001  1.4500000E-001 0.0
 -1.9000000E-001  1.5000000E-001 0.0
 -1.9000000E-001  1.5500000E-001 0.0
 -1.9000000E-001  1.6000000E-001 0.0
 -1.9000000E-001  1.6500000E-001 0.0
 -1.9000000E-001  1.7000000E-001 0.0
 -1.9000000E-001  1.7500000E-001 0.0
 -1.9000000E-001  1.8000000E-001 0.0
 -1.9000000E-001  1.8500000E-001 0.0
 -1.9000000E-001  1.9000000E-001 0.0
 -1.9000000E-001  1.9500000E-001 0.0
 -1.9000000E-001  2.0000000E-001 0.0
 -1.8500000E-001 -1.7000000E-001 0.0
 -1.8500000E-001 -1.6500000E-001 0.0
 -1.8500000E-001 -1.6000000E-001 0.0
 -1.8500000E-001 -1.5500000E-001 0.0
 -1.8500000E-001 -1.5000000E-001 0.0
 -1.8500000E-001 -1.4500000E-001 0.0
 -1.8500000E-001 -1.4000000E-001 0.0
 -1.8500000E-001 -1.3500000E-001 0.0
 -1.8500000E-001 -1.3000000E-001 0.0
 -1.8500000E-001 -1.2500000E-001 0.0
 -1.8500000E-001 -1.2000000E-001 0.0
 -1.8500000E-001 -1.1500000E-001 0.0
 -1.8500000E-001 -1.1000000E-001 0.0
 -1.8500000E-001 -1.0500000E-001 0.0
 -1.8500000E-001 -1.0000000E-001 0.0
 -1.8500000E-001 -9.5000000E-002 0.0
 -1.8500000E-001 -9.0000000E-002 0.0
 -1.8500000E-001 -8.5000000E-002 0.0
 -1.8500000E-001 -8.0000000E-002 0.0
 -1.8500000E-001 -7.5000000E-002 0.0
 -1.8500000E-001 -7.0000000E-002 0.0
 -1.8500000E-001 -6.5000000E-002 0.0
 -1.8500000E-001 -6.0000000E-002 0.0
 -1.8500000E-001 -5.5000000E-002 0.0
 -1.8500000E-001 -5.0000000E-002 0.0
 -1.8500000E-001 -4.5000000E-002 0.0
 -1.8500000E-001 -4.0000000E-002 0.0
 -1.8500000E-001 -3.5000000E-002 0.0
 -1.8500000E-001 -3.0000000E-002 0.0
 -1.8500000E-001 -2.5000000E-002 0.0
 -1.8500000E-001 -2.0000000E-002 0.0
 -1.8500000E-001 -1.5000000E-002 0.0
 -1.8500000E-001 -1.0000000E-002 0.0
 -1.8500000E-001 -5.0000000E-003 0.0
 -1.8500000E-001  0.0000000E+000 0.0
 -1.8500000E-001  5.0000000E-003 0.0
 -1.8500000E-001  1.0000000E-002 0.0
 -1.8500000E-001  1.5000000E-002 0.0
 -1.8500000E-001  2.0000000E-002 0.0
 -1.8500000E-001  2.5000000E-002 0.0
 -1.8500000E-001  3.0000000E-002 0.0
 -1.8500000E-001  3.5000000E-002 0.0
 -1.8500000E-001  4.0000000E-002 0.0
 -1.8500000E-001  4.5000000E-002 0.0
 -1.8500000E-001  5.0000000E-002 0.0
 -1.8500000E-001  5.5000000E-002 0.0
 -1.8500000E-001  6.0000000E-002 0.0
 -1.8500000E-001  6.5000000E-002 0.0
 -1.8500000E-001  1.3500000E-001 0.0
 -1.8500000E-001  1.4000000E-001 0.0
 -1.8500000E-001  1.4500000E-001 0.0
 -1.8500000E-001  1.5000000E-001 0.0
 -1.8500000E-001  1.5500000E-001 0.0
 -1.8500000E-001  1.6000000E-001 0.0
 -1.8500000E-001  1.6500000E-001 0.0
 -1.8500000E-001  1.7000000E-001 0.0
 -1.8500000E-001  1.7500000E-001 0.0
 -1.8500000E-001  1.8000000E-001 0.0
 -1.8500000E-001  1.8500000E-001 0.0
 -1.8500000E-001  1.9000000E-001 0.0
 -1.8500000E-001  1.9500000E-001 0.0
 -1.8500000E-001  2.0000000E-001 0.0
 -1.8000000E-001 -1.7000000E-001 0.0
 -1.8000000E-001 -1.6500000E-001 0.0
 -1.8000000E-001 -1.6000000E-001 0.0
 -1.8000000E-001 -1.5500000E-001 0.0
 -1.8000000E-001 -1.5000000E-001 0.0
 -1.8000000E-001 -1.4500000E-001 0.0
 -1.8000000E-001 -1.4000000E-001 0.0
 -1.8000000E-001 -1.3500000E-001 0.0
 -1.8000000E-001 -1.3000000E-001 0.0
 -1.8000000E-001 -1.2500000E-001 0.0
 -1.8000000E-001 -1.2000000E-001 0.0
 -1.8000000E-001 -1.1500000E-001 0.0
 -1.8000000E-001 -1.1000000E-001 0.0
 -1.8000000E-001 -1.0500000E-001 0.0
 -1.8000000E-001 -1.0000000E-001 0.0
 -1.8000000E-001 -9.5000000E-002 0.0
 -1.8000000E-001 -9.0000000E-002 0.0
 -1.8000000E-001 -8.5000000E-002 0.0
 -1.8000000E-001 -8.0000000E-002 0.0
 -1.8000000E-001 -7.5000000E-002 0.0
 -1.8000000E-001 -7.0000000E-002 0.0
 -1.8000000E-001 -6.5000000E-002 0.0
 -1.8000000E-001 -6.0000000E-002 0.0
 -1.8000000E-001 -5.5000000E-002 0.0
 -1.8000000E-001 -5.0000000E-002 0.0
 -1.8000000E-001 -4.5000000E-002 0.0
 -1.8000000E-001 -4.0000000E-002 0.0
 -1.8000000E-001 -3.5000000E-002 0.0
 -1.8000000E-001 -3.0000000E-002 0.0
 -1.8000000E-001 -2.5000000E-002 0.0
 -1.8000000E-001 -2.0000000E-002 0.0
 -1.8000000E-001 -1.5000000E-002 0.0
 -1.8000000E-001 -1.0000000E-002 0.0
 -1.8000000E-001 -5.0000000E-003 0.0
 -1.8000000E-001  0.0000000E+000 0.0
 -1.8000000E-001  5.0000000E-003 0.0
 -1.8000000E-001  1.0000000E-002 0.0
 -1.8000000E-001  1.5000000E-002 0.0
 -1.8000000E-001  2.0000000E-002 0.0
 -1.8000000E-001  2.5000000E-002 0.0
 -1.8000000E-001  3.0000000E-002 0.0
 -1.8000000E-001  3.5000000E-002 0.0
 -1.8000000E-001  4.0000000E-002 0.0
 -1.8000000E-001  4.5000000E-002 0.0
 -1.8000000E-001  5.0000000E-002 0.0
 -1.8000000E-001  5.5000000E-002 0.0
 -1.8000000E-001  6.0000000E-002 0.0
 -1.8000000E-001  1.4000000E-001 0.0
 -1.8000000E-001  1.4500000E-001 0.0
 -1.8000000E-001  1.5000000E-001 0.0
 -1.8000000E-001  1.5500000E-001 0.0
 -1.8000000E-001  1.6000000E-001 0.0
 -1.8000000E-001  1.6500000E-001 0.0
 -1.8000000E-001  1.7000000E-001 0.0
 -1.8000000E-001  1.7500000E-001 0.0
 -1.8000000E-001  1.8000000E-001 0.0
 -1.8000000E-001  1.8500000E-001 0.0
 -1.8000000E-001  1.9000000E-001 0.0
 -1.8000000E-001  1.9500000E-001 0.0
 -1.8000000E-001  2.0000000E-001 0.0
 -1.8000000E-001  2.0500000E-001 0.0
 -1.8500000E-001  2.0500000E-001 0.0
 -1.7500000E-001 -1.7000000E-001 0.0
 -1.7500000E-001 -1.6500000E-001 0.0
 -1.7500000E-001 -1.6000000E-001 0.0
 -1.7500000E-001 -1.5500000E-001 0.0
 -1.7500000E-001 -1.5000000E-001 0.0
 -1.7500000E-001 -1.4500000E-001 0.0
 -1.7500000E-001 -1.4000000E-001 0.0
 -1.7500000E-001 -1.3500000E-001 0.0
 -1.7500000E-001 -1.3000000E-001 0.0
 -1.7500000E-001 -1.2500000E-001 0.0
 -1.7500000E-001 -1.2000000E-001 0.0
 -1.7500000E-001 -1.1500000E-001 0.0
 -1.7500000E-001 -1.1000000E-001 0.0
 -1.7500000E-001 -1.0500000E-001 0.0
 -1.7500000E-001 -1.0000000E-001 0.0
 -1.7500000E-001 -9.5000000E-002 0.0
 -1.7500000E-001 -9.0000000E-002 0.0
 -1.7500000E-001 -8.5000000E-002 0.0
 -1.7500000E-001 -8.0000000E-002 0.0
 -1.7500000E-001 -7.5000000E-002 0.0
 -1.7500000E-001 -7.0000000E-002 0.0
 -1.7500000E-001 -6.5000000E-002 0.0
 -1.7500000E-001 -6.0000000E-002 0.0
 -1.7500000E-001 -5.5000000E-002 0.0
 -1.7500000E-001 -5.0000000E-002 0.0
 -1.7500000E-001 -4.5000000E-002 0.0
 -1.7500000E-001 -4.0000000E-002 0.0
 -1.7500000E-001 -3.5000000E-002 0.0
 -1.7500000E-001 -3.0000000E-002 0.0
 -1.7500000E-001 -2.5000000E-002 0.0
 -1.7500000E-001 -2.0000000E-002 0.0
 -1.7500000E-001 -1.5000000E-002 0.0
 -1.7500000E-001 -1.0000000E-002 0.0
 -1.7500000E-001 -5.0000000E-003 0.0
 -1.7500000E-001  0.0000000E+000 0.0
 -1.7500000E-001  5.0000000E-003 0.0
 -1.7500000E-001  1.0000000E-002 0.0
 -1.7500000E-001  1.5000000E-002 0.0
 -1.7500000E-001  2.0000000E-002 0.0
 -1.7500000E-001  2.5000000E-002 0.0
 -1.7500000E-001  3.0000000E-002 0.0
 -1.7500000E-001  3.5000000E-002 0.0
 -1.7500000E-001  4.0000000E-002 0.0
 -1.7500000E-001  4.5000000E-002 0.0
 -1.7500000E-001  5.0000000E-002 0.0
 -1.7500000E-001  5.5000000E-002 0.0
 -1.7500000E-001  6.0000000E-002 0.0
 -1.7500000E-001  1.4000000E-001 0.0
 -1.7500000E-001  1.4500000E-001 0.0
 -1.7500000E-001  1.5000000E-001 0.0
 -1.7500000E-001  1.5500000E-001 0.0
 -1.7500000E-001  1.6000000E-001 0.0
 -1.7500000E-001  1.6500000E-001 0.0
 -1.7500000E-001  1.7000000E-001 0.0
 -1.7500000E-001  1.7500000E-001 0.0
 -1.7500000E-001  1.8000000E-001 0.0
 -1.7500000E-001  1.8500000E-001 0.0
 -1.7500000E-001  1.9000000E-001 0.0
 -1.7500000E-001  1.9500000E-001 0.0
 -1.7500000E-001  2.0000000E-001 0.0
 -1.7500000E-001  2.0500000E-001 0.0
 -1.7500000E-001 -1.8000000E-001 0.0
 -1.7000000E-001 -1.8000000E-001 0.0
 -1.7000000E-001 -1.7500000E-001 0.0
 -1.7500000E-001 -1.7500000E-001 0.0
 -1.7000000E-001 -1.7000000E-001 0.0
 -1.7000000E-001 -1.6500000E-001 0.0
 -1.7000000E-001 -1.6000000E-001 0.0
 -1.7000000E-001 -1.5500000E-001 0.0
 -1.7000000E-001 -1.5000000E-001 0.0
 -1.7000000E-001 -1.4500000E-001 0.0
 -1.7000000E-001 -1.4000000E-001 0.0
 -1.7000000E-001 -1.3500000E-001 0.0
 -1.7000000E-001 -1.3000000E-001 0.0
 -1.7000000E-001 -1.2500000E-001 0.0
 -1.7000000E-001 -1.2000000E-001 0.0
 -1.7000000E-001 -1.1500000E-001 0.0
 -1.7000000E-001 -1.1000000E-001 0.0
 -1.7000000E-001 -1.0500000E-001 0.0
 -1.7000000E-001 -1.0000000E-001 0.0
 -1.7000000E-001 -9.5000000E-002 0.0
 -1.7000000E-001 -9.0000000E-002 0.0
 -1.7000000E-001 -8.5000000E-002 0.0
 -1.7000000E-001 -8.0000000E-002 0.0
 -1.7000000E-001 -7.5000000E-002 0.0
 -1.7000000E-001 -7.0000000E-002 0.0
 -1.7000000E-001 -6.5000000E-002 0.0
 -1.7000000E-001 -6.0000000E-002 0.0
 -1.7000000E-001 -5.5000000E-002 0.0
 -1.7000000E-001 -5.0000000E-002 0.0
 -1.7000000E-001 -4.5000000E-002 0.0
 -1.7000000E-001 -4.0000000E-002 0.0
 -1.7000000E-001 -3.5000000E-002 0.0
 -1.7000000E-001 -3.0000000E-002 0.0
 -1.7000000E-001 -2.5000000E-002 0.0
 -1.7000000E-001 -2.0000000E-002 0.0
 -1.7000000E-001 -1.5000000E-002 0.0
 -1.7000000E-001 -1.0000000E-002 0.0
 -1.7000000E-001 -5.0000000E-003 0.0
 -1.7000000E-001  0.0000000E+000 0.0
 -1.7000000E-001  5.0000000E-003 0.0
 -1.7000000E-001  1.0000000E-002 0.0
 -1.7000000E-001  1.5000000E-002 0.0
 -1.7000000E-001  2.0000000E-002 0.0
 -1.7000000E-001  2.5000000E-002 0.0
 -1.7000000E-001  3.0000000E-002 0.0
 -1.7000000E-001  3.5000000E-002 0.0
 -1.7000000E-001  4.0000000E-002 0.0
 -1.7000000E-001  4.5000000E-002 0.0
 -1.7000000E-001  5.0000000E-002 0.0
 -1.7000000E-001  5.5000000E-002 0.0
 -1.7000000E-001  1.4000000E-001 0.0
 -1.7000000E-001  1.4500000E-001 0.0
 -1.7000000E-001  1.5000000E-001 0.0
 -1.7000000E-001  1.5500000E-001 0.0
 -1.7000000E-001  1.6000000E-001 0.0
 -1.7000000E-001  1.6500000E-001 0.0
 -1.7000000E-001  1.7000000E-001 0.0
 -1.7000000E-001  1.7500000E-001 0.0
 -1.7000000E-001  1.8000000E-001 0.0
 -1.7000000E-001  1.8500000E-001 0.0
 -1.7000000E-001  1.9000000E-001 0.0
 -1.7000000E-001  1.9500000E-001 0.0
 -1.7000000E-001  2.0000000E-001 0.0
 -1.7000000E-001  2.0500000E-001 0.0
 -1.7000000E-001 -1.8500000E-001 0.0
 -1.6500000E-001 -1.8500000E-001 0.0
 -1.6500000E-001 -1.8000000E-001 0.0
 -1.6500000E-001 -1.7500000E-001 0.0
 -1.6500000E-001 -1.7000000E-001 0.0
 -1.6500000E-001 -1.6500000E-001 0.0
 -1.6500000E-001 -1.6000000E-001 0.0
 -1.6500000E-001 -1.5500000E-001 0.0
 -1.6500000E-001 -1.5000000E-001 0.0
 -1.6500000E-001 -1.4500000E-001 0.0
 -1.6500000E-001 -1.4000000E-001 0.0
 -1.6500000E-001 -1.3500000E-001 0.0
 -1.6500000E-001 -1.3000000E-001 0.0
 -1.6500000E-001 -1.2500000E-001 0.0
 -1.6500000E-001 -1.2000000E-001 0.0
 -1.6500000E-001 -1.1500000E-001 0.0
 -1.6500000E-001 -1.1000000E-001 0.0
 -1.6500000E-001 -1.0500000E-001 0.0
 -1.6500000E-001 -1.0000000E-001 0.0
 -1.6500000E-001 -9.5000000E-002 0.0
 -1.6500000E-001 -9.0000000E-002 0.0
 -1.6500000E-001 -8.5000000E-002 0.0
 -1.6500000E-001 -8.0000000E-002 0.0
 -1.6500000E-001 -7.5000000E-002 0.0
 -1.6500000E-001 -7.0000000E-002 0.0
 -1.6500000E-001 -6.5000000E-002 0.0
 -1.6500000E-001 -6.0000000E-002 0.0
 -1.6500000E-001 -5.5000000E-002 0.0
 -1.6500000E-001 -5.0000000E-002 0.0
 -1.6500000E-001 -4.5000000E-002 0.0
 -1.6500000E-001 -4.0000000E-002 0.0
 -1.6500000E-001 -3.5000000E-002 0.0
 -1.6500000E-001 -3.0000000E-002 0.0
 -1.6500000E-001 -2.5000000E-002 0.0
 -1.6500000E-001 -2.0000000E-002 0.0
 -1.6500000E-001 -1.5000000E-002 0.0
 -1.6500000E-001 -1.0000000E-002 0.0
 -1.6500000E-001 -5.0000000E-003 0.0
 -1.6500000E-001  0.0000000E+000 0.0
 -1.6500000E-001  5.0000000E-003 0.0
 -1.6500000E-001  1.0000000E-002 0.0
 -1.6500000E-001  1.5000000E-002 0.0
 -1.6500000E-001  2.0000000E-002 0.0
 -1.6500000E-001  2.5000000E-002 0.0
 -1.6500000E-001  3.0000000E-002 0.0
 -1.6500000E-001  3.5000000E-002 0.0
 -1.6500000E-001  4.0000000E-002 0.0
 -1.6500000E-001  4.5000000E-002 0.0
 -1.6500000E-001  5.0000000E-002 0.0
 -1.6500000E-001  5.5000000E-002 0.0
 -1.6500000E-001  1.4000000E-001 0.0
 -1.6500000E-001  1.4500000E-001 0.0
 -1.6500000E-001  1.5000000E-001 0.0
 -1.6500000E-001  1.5500000E-001 0.0
 -1.6500000E-001  1.6000000E-001 0.0
 -1.6500000E-001  1.6500000E-001 0.0
 -1.6500000E-001  1.7000000E-001 0.0
 -1.6500000E-001  1.7500000E-001 0.0
 -1.6500000E-001  1.8000000E-001 0.0
 -1.6500000E-001  1.8500000E-001 0.0
 -1.6500000E-001  1.9000000E-001 0.0
 -1.6500000E-001  1.9500000E-001 0.0
 -1.6500000E-001  2.0000000E-001 0.0
 -1.6500000E-001  2.0500000E-001 0.0
 -1.6000000E-001 -1.8500000E-001 0.0
 -1.6000000E-001 -1.8000000E-001 0.0
 -1.6000000E-001 -1.7500000E-001 0.0
 -1.6000000E-001 -1.7000000E-001 0.0
 -1.6000000E-001 -1.6500000E-001 0.0
 -1.6000000E-001 -1.6000000E-001 0.0
 -1.6000000E-001 -1.5500000E-001 0.0
 -1.6000000E-001 -1.5000000E-001 0.0
 -1.6000000E-001 -1.4500000E-001 0.0
 -1.6000000E-001 -1.4000000E-001 0.0
 -1.6000000E-001 -1.3500000E-001 0.0
 -1.6000000E-001 -1.3000000E-001 0.0
 -1.6000000E-001 -1.2500000E-001 0.0
 -1.6000000E-001 -1.2000000E-001 0.0
 -1.6000000E-001 -1.1500000E-001 0.0
 -1.6000000E-001 -1.1000000E-001 0.0
 -1.6000000E-001 -1.0500000E-001 0.0
 -1.6000000E-001 -1.0000000E-001 0.0
 -1.6000000E-001 -9.5000000E-002 0.0
 -1.6000000E-001 -9.0000000E-002 0.0
 -1.6000000E-001 -8.5000000E-002 0.0
 -1.6000000E-001 -8.0000000E-002 0.0
 -1.6000000E-001 -7.5000000E-002 0.0
 -1.6000000E-001 -7.0000000E-002 0.0
 -1.6000000E-001 -6.5000000E-002 0.0
 -1.6000000E-001 -6.0000000E-002 0.0
 -1.6000000E-001 -5.5000000E-002 0.0
 -1.6000000E-001 -5.0000000E-002 0.0
 -1.6000000E-001 -4.5000000E-002 0.0
 -1.6000000E-001 -4.0000000E-002 0.0
 -1.6000000E-001 -3.5000000E-002 0.0
 -1.6000000E-001 -3.0000000E-002 0.0
 -1.6000000E-001 -2.5000000E-002 0.0
 -1.6000000E-001 -2.0000000E-002 0.0
 -1.6000000E-001 -1.5000000E-002 0.0
 -1.6000000E-001 -1.0000000E-002 0.0
 -1.6000000E-001 -5.0000000E-003 0.0
 -1.6000000E-001  0.0000000E+000 0.0
 -1.6000000E-001  5.0000000E-003 0.0
 -1.6000000E-001  1.0000000E-002 0.0
 -1.6000000E-001  1.5000000E-002 0.0
 -1.6000000E-001  2.0000000E-002 0.0
 -1.6000000E-001  2.5000000E-002 0.0
 -1.6000000E-001  3.0000000E-002 0.0
 -1.6000000E-001  3.5000000E-002 0.0
 -1.6000000E-001  4.0000000E-002 0.0
 -1.6000000E-001  4.5000000E-002 0.0
 -1.6000000E-001  5.0000000E-002 0.0
 -1.6000000E-001  5.5000000E-002 0.0
 -1.6500000E-001  1.3500000E-001 0.0
 -1.6000000E-001  1.3500000E-001 0.0
 -1.6000000E-001  1.4000000E-001 0.0
 -1.6000000E-001  1.4500000E-001 0.0
 -1.6000000E-001  1.5000000E-001 0.0
 -1.6000000E-001  1.5500000E-001 0.0
 -1.6000000E-001  1.6000000E-001 0.0
 -1.6000000E-001  1.6500000E-001 0.0
 -1.6000000E-001  1.7000000E-001 0.0
 -1.6000000E-001  1.7500000E-001 0.0
 -1.6000000E-001  1.8000000E-001 0.0
 -1.6000000E-001  1.8500000E-001 0.0
 -1.6000000E-001  1.9000000E-001 0.0
 -1.6000000E-001  1.9500000E-001 0.0
 -1.6000000E-001  2.0000000E-001 0.0
 -1.5500000E-001 -1.8500000E-001 0.0
 -1.5500000E-001 -1.8000000E-001 0.0
 -1.5500000E-001 -1.7500000E-001 0.0
 -1.5500000E-001 -1.7000000E-001 0.0
 -1.5500000E-001 -1.6500000E-001 0.0
 -1.5500000E-001 -1.6000000E-001 0.0
 -1.5500000E-001 -1.5500000E-001 0.0
 -1.5500000E-001 -1.5000000E-001 0.0
 -1.5500000E-001 -1.4500000E-001 0.0
 -1.5500000E-001 -1.4000000E-001 0.0
 -1.5500000E-001 -1.3500000E-001 0.0
 -1.5500000E-001 -1.3000000E-001 0.0
 -1.5500000E-001 -1.2500000E-001 0.0
 -1.5500000E-001 -1.2000000E-001 0.0
 -1.5500000E-001 -1.1500000E-001 0.0
 -1.5500000E-001 -1.1000000E-001 0.0
 -1.5500000E-001 -1.0500000E-001 0.0
 -1.5500000E-001 -1.0000000E-001 0.0
 -1.5500000E-001 -9.5000000E-002 0.0
 -1.5500000E-001 -9.0000000E-002 0.0
 -1.5500000E-001 -8.5000000E-002 0.0
 -1.5500000E-001 -8.0000000E-002 0.0
 -1.5500000E-001 -7.5000000E-002 0.0
 -1.5500000E-001 -7.0000000E-002 0.0
 -1.5500000E-001 -6.5000000E-002 0.0
 -1.5500000E-001 -6.0000000E-002 0.0
 -1.5500000E-001 -5.5000000E-002 0.0
 -1.5500000E-001 -5.0000000E-002 0.0
 -1.5500000E-001 -4.5000000E-002 0.0
 -1.5500000E-001 -4.0000000E-002 0.0
 -1.5500000E-001 -3.5000000E-002 0.0
 -1.5500000E-001 -3.0000000E-002 0.0
 -1.5500000E-001 -2.5000000E-002 0.0
 -1.5500000E-001 -2.0000000E-002 0.0
 -1.5500000E-001 -1.5000000E-002 0.0
 -1.5500000E-001 -1.0000000E-002 0.0
 -1.5500000E-001 -5.0000000E-003 0.0
 -1.5500000E-001  0.0000000E+000 0.0
 -1.5500000E-001  5.0000000E-003 0.0
 -1.5500000E-001  1.0000000E-002 0.0
 -1.5500000E-001  1.5000000E-002 0.0
 -1.5500000E-001  2.0000000E-002 0.0
 -1.5500000E-001  2.5000000E-002 0.0
 -1.5500000E-001  3.0000000E-002 0.0
 -1.5500000E-001  3.5000000E-002 0.0
 -1.5500000E-001  4.0000000E-002 0.0
 -1.5500000E-001  4.5000000E-002 0.0
 -1.5500000E-001  5.0000000E-002 0.0
 -1.5500000E-001  5.5000000E-002 0.0
 -1.6000000E-001  1.3000000E-001 0.0
 -1.5500000E-001  1.3000000E-001 0.0
 -1.5500000E-001  1.3500000E-001 0.0
 -1.5500000E-001  1.4000000E-001 0.0
 -1.5500000E-001  1.4500000E-001 0.0
 -1.5500000E-001  1.5000000E-001 0.0
 -1.5500000E-001  1.5500000E-001 0.0
 -1.5500000E-001  1.6000000E-001 0.0
 -1.5500000E-001  1.6500000E-001 0.0
 -1.5500000E-001  1.7000000E-001 0.0
 -1.5500000E-001  1.7500000E-001 0.0
 -1.5500000E-001  1.8000000E-001 0.0
 -1.5500000E-001  1.8500000E-001 0.0
 -1.5500000E-001  1.9000000E-001 0.0
 -1.5500000E-001  1.9500000E-001 0.0
 -1.5500000E-001  2.0000000E-001 0.0
 -1.5000000E-001 -1.8500000E-001 0.0
 -1.5000000E-001 -1.8000000E-001 0.0
 -1.5000000E-001 -1.7500000E-001 0.0
 -1.5000000E-001 -1.7000000E-001 0.0
 -1.5000000E-001 -1.6500000E-001 0.0
 -1.5000000E-001 -1.6000000E-001 0.0
 -1.5000000E-001 -1.5500000E-001 0.0
 -1.5000000E-001 -1.5000000E-001 0.0
 -1.5000000E-001 -1.4500000E-001 0.0
 -1.5000000E-001 -1.4000000E-001 0.0
 -1.5000000E-001 -1.3500000E-001 0.0
 -1.5000000E-001 -1.3000000E-001 0.0
 -1.5000000E-001 -1.2500000E-001 0.0
 -1.5000000E-001 -1.2000000E-001 0.0
 -1.5000000E-001 -1.1500000E-001 0.0
 -1.5000000E-001 -1.1000000E-001 0.0
 -1.5000000E-001 -1.0500000E-001 0.0
 -1.5000000E-001 -1.0000000E-001 0.0
 -1.5000000E-001 -9.5000000E-002 0.0
 -1.5000000E-001 -9.0000000E-002 0.0
 -1.5000000E-001 -8.5000000E-002 0.0
 -1.5000000E-001 -8.0000000E-002 0.0
 -1.5000000E-001 -7.5000000E-002 0.0
 -1.5000000E-001 -7.0000000E-002 0.0
 -1.5000000E-001 -6.5000000E-002 0.0
 -1.5000000E-001 -6.0000000E-002 0.0
 -1.5000000E-001 -5.5000000E-002 0.0
 -1.5000000E-001 -5.0000000E-002 0.0
 -1.5000000E-001 -4.5000000E-002 0.0
 -1.5000000E-001 -4.0000000E-002 0.0
 -1.5000000E-001 -3.5000000E-002 0.0
 -1.5000000E-001 -3.0000000E-002 0.0
 -1.5000000E-001 -2.5000000E-002 0.0
 -1.5000000E-001 -2.0000000E-002 0.0
 -1.5000000E-001 -1.5000000E-002 0.0
 -1.5000000E-001 -1.0000000E-002 0.0
 -1.5000000E-001 -5.0000000E-003 0.0
 -1.5000000E-001  0.0000000E+000 0.0
 -1.5000000E-001  5.0000000E-003 0.0
 -1.5000000E-001  1.0000000E-002 0.0
 -1.5000000E-001  1.5000000E-002 0.0
 -1.5000000E-001  2.0000000E-002 0.0
 -1.5000000E-001  2.5000000E-002 0.0
 -1.5000000E-001  3.0000000E-002 0.0
 -1.5000000E-001  3.5000000E-002 0.0
 -1.5000000E-001  4.0000000E-002 0.0
 -1.5000000E-001  4.5000000E-002 0.0
 -1.5000000E-001  5.0000000E-002 0.0
 -1.5000000E-001  5.5000000E-002 0.0
 -1.5500000E-001  1.2500000E-001 0.0
 -1.5000000E-001  1.2500000E-001 0.0
 -1.5000000E-001  1.3000000E-001 0.0
 -1.5000000E-001  1.3500000E-001 0.0
 -1.5000000E-001  1.4000000E-001 0.0
 -1.5000000E-001  1.4500000E-001 0.0
 -1.5000000E-001  1.5000000E-001 0.0
 -1.5000000E-001  1.5500000E-001 0.0
 -1.5000000E-001  1.6000000E-001 0.0
 -1.5000000E-001  1.6500000E-001 0.0
 -1.5000000E-001  1.7000000E-001 0.0
 -1.5000000E-001  1.7500000E-001 0.0
 -1.5000000E-001  1.8000000E-001 0.0
 -1.5000000E-001  1.8500000E-001 0.0
 -1.5000000E-001  1.9000000E-001 0.0
 -1.5000000E-001  1.9500000E-001 0.0
 -1.5000000E-001  2.0000000E-001 0.0
 -1.4500000E-001 -1.8500000E-001 0.0
 -1.4500000E-001 -1.8000000E-001 0.0
 -1.4500000E-001 -1.7500000E-001 0.0
 -1.4500000E-001 -1.7000000E-001 0.0
 -1.4500000E-001 -1.6500000E-001 0.0
 -1.4500000E-001 -1.6000000E-001 0.0
 -1.4500000E-001 -1.5500000E-001 0.0
 -1.4500000E-001 -1.5000000E-001 0.0
 -1.4500000E-001 -1.4500000E-001 0.0
 -1.4500000E-001 -1.4000000E-001 0.0
 -1.4500000E-001 -1.3500000E-001 0.0
 -1.4500000E-001 -1.3000000E-001 0.0
 -1.4500000E-001 -1.2500000E-001 0.0
 -1.4500000E-001 -1.2000000E-001 0.0
 -1.4500000E-001 -1.1500000E-001 0.0
 -1.4500000E-001 -1.1000000E-001 0.0
 -1.4500000E-001 -1.0500000E-001 0.0
 -1.4500000E-001 -1.0000000E-001 0.0
 -1.4500000E-001 -9.5000000E-002 0.0
 -1.4500000E-001 -9.0000000E-002 0.0
 -1.4500000E-001 -8.5000000E-002 0.0
 -1.4500000E-001 -8.0000000E-002 0.0
 -1.4500000E-001 -7.5000000E-002 0.0
 -1.4500000E-001 -7.0000000E-002 0.0
 -1.4500000E-001 -6.5000000E-002 0.0
 -1.4500000E-001 -6.0000000E-002 0.0
 -1.4500000E-001 -5.5000000E-002 0.0
 -1.4500000E-001 -5.0000000E-002 0.0
 -1.4500000E-001 -4.5000000E-002 0.0
 -1.4500000E-001 -4.0000000E-002 0.0
 -1.4500000E-001 -3.5000000E-002 0.0
 -1.4500000E-001 -3.0000000E-002 0.0
 -1.4500000E-001 -2.5000000E-002 0.0
 -1.4500000E-001 -2.0000000E-002 0.0
 -1.4500000E-001 -1.5000000E-002 0.0
 -1.4500000E-001 -1.0000000E-002 0.0
 -1.4500000E-001 -5.0000000E-003 0.0
 -1.4500000E-001  0.0000000E+000 0.0
 -1.4500000E-001  5.0000000E-003 0.0
 -1.4500000E-001  1.0000000E-002 0.0
 -1.4500000E-001  2.5000000E-002 0.0
 -1.4500000E-001  3.0000000E-002 0.0
 -1.4500000E-001  3.5000000E-002 0.0
 -1.4500000E-001  4.0000000E-002 0.0
 -1.4500000E-001  4.5000000E-002 0.0
 -1.4500000E-001  5.0000000E-002 0.0
 -1.4500000E-001  5.5000000E-002 0.0
 -1.4500000E-001  1.2500000E-001 0.0
 -1.4500000E-001  1.3000000E-001 0.0
 -1.4500000E-001  1.3500000E-001 0.0
 -1.4500000E-001  1.4000000E-001 0.0
 -1.4500000E-001  1.4500000E-001 0.0
 -1.4500000E-001  1.5000000E-001 0.0
 -1.4500000E-001  1.5500000E-001 0.0
 -1.4500000E-001  1.6000000E-001 0.0
 -1.4500000E-001  1.6500000E-001 0.0
 -1.4500000E-001  1.7000000E-001 0.0
 -1.4500000E-001  1.7500000E-001 0.0
 -1.4500000E-001  1.8000000E-001 0.0
 -1.4500000E-001  1.8500000E-001 0.0
 -1.4500000E-001  1.9000000E-001 0.0
 -1.4500000E-001  1.9500000E-001 0.0
 -1.4500000E-001  2.0000000E-001 0.0
 -1.4000000E-001 -1.8500000E-001 0.0
 -1.4000000E-001 -1.8000000E-001 0.0
 -1.4000000E-001 -1.7500000E-001 0.0
 -1.4000000E-001 -1.7000000E-001 0.0
 -1.4000000E-001 -1.6500000E-001 0.0
 -1.4000000E-001 -1.6000000E-001 0.0
 -1.4000000E-001 -1.5500000E-001 0.0
 -1.4000000E-001 -1.5000000E-001 0.0
 -1.4000000E-001 -1.4500000E-001 0.0
 -1.4000000E-001 -1.4000000E-001 0.0
 -1.4000000E-001 -1.3500000E-001 0.0
 -1.4000000E-001 -1.3000000E-001 0.0
 -1.4000000E-001 -1.2500000E-001 0.0
 -1.4000000E-001 -1.2000000E-001 0.0
 -1.4000000E-001 -1.1500000E-001 0.0
 -1.4000000E-001 -1.1000000E-001 0.0
 -1.4000000E-001 -1.0500000E-001 0.0
 -1.4000000E-001 -1.0000000E-001 0.0
 -1.4000000E-001 -9.5000000E-002 0.0
 -1.4000000E-001 -9.0000000E-002 0.0
 -1.4000000E-001 -8.5000000E-002 0.0
 -1.4000000E-001 -8.0000000E-002 0.0
 -1.4000000E-001 -7.5000000E-002 0.0
 -1.4000000E-001 -7.0000000E-002 0.0
 -1.4000000E-001 -6.5000000E-002 0.0
 -1.4000000E-001 -6.0000000E-002 0.0
 -1.4000000E-001 -5.5000000E-002 0.0
 -1.4000000E-001 -5.0000000E-002 0.0
 -1.4000000E-001 -4.5000000E-002 0.0
 -1.4000000E-001 -4.0000000E-002 0.0
 -1.4000000E-001 -3.5000000E-002 0.0
 -1.4000000E-001 -3.0000000E-002 0.0
 -1.4000000E-001 -2.5000000E-002 0.0
 -1.4000000E-001  2.5000000E-002 0.0
 -1.4000000E-001  3.0000000E-002 0.0
 -1.4000000E-001  3.5000000E-002 0.0
 -1.4000000E-001  4.0000000E-002 0.0
 -1.4000000E-001  4.5000000E-002 0.0
 -1.4000000E-001  5.0000000E-002 0.0
 -1.4000000E-001  1.2500000E-001 0.0
 -1.4000000E-001  1.3000000E-001 0.0
 -1.4000000E-001  1.3500000E-001 0.0
 -1.4000000E-001  1.4000000E-001 0.0
 -1.4000000E-001  1.4500000E-001 0.0
 -1.4000000E-001  1.5000000E-001 0.0
 -1.4000000E-001  1.5500000E-001 0.0
 -1.4000000E-001  1.6000000E-001 0.0
 -1.4000000E-001  1.6500000E-001 0.0
 -1.4000000E-001  1.7000000E-001 0.0
 -1.4000000E-001  1.7500000E-001 0.0
 -1.4000000E-001  1.8000000E-001 0.0
 -1.4000000E-001  1.8500000E-001 0.0
 -1.4000000E-001  1.9000000E-001 0.0
 -1.4000000E-001  1.9500000E-001 0.0
 -1.4000000E-001  2.0000000E-001 0.0
 -1.3500000E-001 -1.8000000E-001 0.0
 -1.3500000E-001 -1.7500000E-001 0.0
 -1.3500000E-001 -1.7000000E-001 0.0
 -1.3500000E-001 -1.6500000E-001 0.0
 -1.3500000E-001 -1.6000000E-001 0.0
 -1.3500000E-001 -1.5500000E-001 0.0
 -1.3500000E-001 -1.5000000E-001 0.0
 -1.3500000E-001 -1.4500000E-001 0.0
 -1.3500000E-001 -1.4000000E-001 0.0
 -1.3500000E-001 -1.3500000E-001 0.0
 -1.3500000E-001 -1.3000000E-001 0.0
 -1.3500000E-001 -1.2500000E-001 0.0
 -1.3500000E-001 -1.2000000E-001 0.0
 -1.3500000E-001 -1.1500000E-001 0.0
 -1.3500000E-001 -1.1000000E-001 0.0
 -1.3500000E-001 -1.0500000E-001 0.0
 -1.3500000E-001 -1.0000000E-001 0.0
 -1.3500000E-001 -9.5000000E-002 0.0
 -1.3500000E-001 -9.0000000E-002 0.0
 -1.3500000E-001 -8.5000000E-002 0.0
 -1.3500000E-001 -8.0000000E-002 0.0
 -1.3500000E-001 -7.5000000E-002 0.0
 -1.3500000E-001 -7.0000000E-002 0.0
 -1.3500000E-001 -6.5000000E-002 0.0
 -1.3500000E-001 -6.0000000E-002 0.0
 -1.3500000E-001 -5.5000000E-002 0.0
 -1.3500000E-001 -5.0000000E-002 0.0
 -1.3500000E-001 -4.5000000E-002 0.0
 -1.3500000E-001 -4.0000000E-002 0.0
 -1.3500000E-001 -3.5000000E-002 0.0
 -1.4000000E-001  2.0000000E-002 0.0
 -1.3500000E-001  2.0000000E-002 0.0
 -1.3500000E-001  2.5000000E-002 0.0
 -1.3500000E-001  3.0000000E-002 0.0
 -1.3500000E-001  3.5000000E-002 0.0
 -1.3500000E-001  4.0000000E-002 0.0
 -1.3500000E-001  4.5000000E-002 0.0
 -1.3500000E-001  5.0000000E-002 0.0
 -1.4000000E-001  1.2000000E-001 0.0
 -1.3500000E-001  1.2000000E-001 0.0
 -1.3500000E-001  1.2500000E-001 0.0
 -1.3500000E-001  1.3000000E-001 0.0
 -1.3500000E-001  1.3500000E-001 0.0
 -1.3500000E-001  1.4000000E-001 0.0
 -1.3500000E-001  1.4500000E-001 0.0
 -1.3500000E-001  1.5000000E-001 0.0
 -1.3500000E-001  1.5500000E-001 0.0
 -1.3500000E-001  1.6000000E-001 0.0
 -1.3500000E-001  1.6500000E-001 0.0
 -1.3500000E-001  1.7000000E-001 0.0
 -1.3500000E-001  1.7500000E-001 0.0
 -1.3500000E-001  1.8000000E-001 0.0
 -1.3500000E-001  1.8500000E-001 0.0
 -1.3500000E-001  1.9000000E-001 0.0
 -1.3500000E-001  1.9500000E-001 0.0
 -1.3500000E-001  2.0000000E-001 0.0
 -1.3000000E-001 -1.8000000E-001 0.0
 -1.3000000E-001 -1.7500000E-001 0.0
 -1.3000000E-001 -1.7000000E-001 0.0
 -1.3000000E-001 -1.6500000E-001 0.0
 -1.3000000E-001 -1.6000000E-001 0.0
 -1.3000000E-001 -1.5500000E-001 0.0
 -1.3000000E-001 -1.5000000E-001 0.0
 -1.3000000E-001 -1.4500000E-001 0.0
 -1.3000000E-001 -1.4000000E-001 0.0
 -1.3000000E-001 -1.3500000E-001 0.0
 -1.3000000E-001 -1.3000000E-001 0.0
 -1.3000000E-001 -1.2500000E-001 0.0
 -1.3000000E-001 -1.2000000E-001 0.0
 -1.3000000E-001 -1.1500000E-001 0.0
 -1.3000000E-001 -1.1000000E-001 0.0
 -1.3000000E-001 -1.0500000E-001 0.0
 -1.3000000E-001 -1.0000000E-001 0.0
 -1.3000000E-001 -9.5000000E-002 0.0
 -1.3000000E-001 -9.0000000E-002 0.0
 -1.3000000E-001 -8.5000000E-002 0.0
 -1.3000000E-001 -8.0000000E-002 0.0
 -1.3000000E-001 -7.5000000E-002 0.0
 -1.3000000E-001 -7.0000000E-002 0.0
 -1.3000000E-001 -6.5000000E-002 0.0
 -1.3000000E-001 -6.0000000E-002 0.0
 -1.3000000E-001 -5.5000000E-002 0.0
 -1.3000000E-001 -5.0000000E-002 0.0
 -1.3000000E-001 -4.5000000E-002 0.0
 -1.3000000E-001  2.0000000E-002 0.0
 -1.3000000E-001  2.5000000E-002 0.0
 -1.3000000E-001  3.0000000E-002 0.0
 -1.3000000E-001  3.5000000E-002 0.0
 -1.3000000E-001  4.0000000E-002 0.0
 -1.3000000E-001  4.5000000E-002 0.0
 -1.3500000E-001  1.1500000E-001 0.0
 -1.3000000E-001  1.1500000E-001 0.0
 -1.3000000E-001  1.2000000E-001 0.0
 -1.3000000E-001  1.2500000E-001 0.0
 -1.3000000E-001  1.3000000E-001 0.0
 -1.3000000E-001  1.3500000E-001 0.0
 -1.3000000E-001  1.4000000E-001 0.0
 -1.3000000E-001  1.4500000E-001 0.0
 -1.3000000E-001  1.5000000E-001 0.0
 -1.3000000E-001  1.5500000E-001 0.0
 -1.3000000E-001  1.6000000E-001 0.0
 -1.3000000E-001  1.6500000E-001 0.0
 -1.3000000E-001  1.7000000E-001 0.0
 -1.3000000E-001  1.7500000E-001 0.0
 -1.3000000E-001  1.8000000E-001 0.0
 -1.3000000E-001  1.8500000E-001 0.0
 -1.3000000E-001  1.9000000E-001 0.0
 -1.3000000E-001  1.9500000E-001 0.0
 -1.2500000E-001 -1.7500000E-001 0.0
 -1.2500000E-001 -1.7000000E-001 0.0
 -1.2500000E-001 -1.6500000E-001 0.0
 -1.2500000E-001 -1.6000000E-001 0.0
 -1.2500000E-001 -1.5500000E-001 0.0
 -1.2500000E-001 -1.5000000E-001 0.0
 -1.2500000E-001 -1.4500000E-001 0.0
 -1.2500000E-001 -1.4000000E-001 0.0
 -1.2500000E-001 -1.3500000E-001 0.0
 -1.2500000E-001 -1.3000000E-001 0.0
 -1.2500000E-001 -1.2500000E-001 0.0
 -1.2500000E-001 -1.2000000E-001 0.0
 -1.2500000E-001 -1.1500000E-001 0.0
 -1.2500000E-001 -1.1000000E-001 0.0
 -1.2500000E-001 -1.0500000E-001 0.0
 -1.2500000E-001 -1.0000000E-001 0.0
 -1.2500000E-001 -9.5000000E-002 0.0
 -1.2500000E-001 -9.0000000E-002 0.0
 -1.2500000E-001 -8.5000000E-002 0.0
 -1.2500000E-001 -8.0000000E-002 0.0
 -1.2500000E-001 -7.5000000E-002 0.0
 -1.2500000E-001 -7.0000000E-002 0.0
 -1.2500000E-001 -6.5000000E-002 0.0
 -1.2500000E-001 -6.0000000E-002 0.0
 -1.2500000E-001 -5.5000000E-002 0.0
 -1.2500000E-001 -5.0000000E-002 0.0
 -1.2500000E-001  2.5000000E-002 0.0
 -1.2500000E-001  3.0000000E-002 0.0
 -1.2500000E-001  3.5000000E-002 0.0
 -1.3000000E-001  1.1000000E-001 0.0
 -1.2500000E-001  1.1000000E-001 0.0
 -1.2500000E-001  1.1500000E-001 0.0
 -1.2500000E-001  1.2000000E-001 0.0
 -1.2500000E-001  1.2500000E-001 0.0
 -1.2500000E-001  1.3000000E-001 0.0
 -1.2500000E-001  1.3500000E-001 0.0
 -1.2500000E-001  1.4000000E-001 0.0
 -1.2500000E-001  1.4500000E-001 0.0
 -1.2500000E-001  1.5000000E-001 0.0
 -1.2500000E-001  1.5500000E-001 0.0
 -1.2500000E-001  1.6000000E-001 0.0
 -1.2500000E-001  1.6500000E-001 0.0
 -1.2500000E-001  1.7000000E-001 0.0
 -1.2500000E-001  1.7500000E-001 0.0
 -1.2500000E-001  1.8000000E-001 0.0
 -1.2500000E-001  1.8500000E-001 0.0
 -1.2500000E-001  1.9000000E-001 0.0
 -1.2000000E-001 -1.7000000E-001 0.0
 -1.2000000E-001 -1.6500000E-001 0.0
 -1.2000000E-001 -1.6000000E-001 0.0
 -1.2000000E-001 -1.5500000E-001 0.0
 -1.2000000E-001 -1.5000000E-001 0.0
 -1.2000000E-001 -1.4500000E-001 0.0
 -1.2000000E-001 -1.4000000E-001 0.0
 -1.2000000E-001 -1.3500000E-001 0.0
 -1.2000000E-001 -1.3000000E-001 0.0
 -1.2000000E-001 -1.2500000E-001 0.0
 -1.2000000E-001 -1.2000000E-001 0.0
 -1.2000000E-001 -1.1500000E-001 0.0
 -1.2000000E-001 -1.1000000E-001 0.0
 -1.2000000E-001 -1.0500000E-001 0.0
 -1.2000000E-001 -1.0000000E-001 0.0
 -1.2000000E-001 -9.5000000E-002 0.0
 -1.2000000E-001 -9.0000000E-002 0.0
 -1.2000000E-001 -8.5000000E-002 0.0
 -1.2000000E-001 -8.0000000E-002 0.0
 -1.2000000E-001 -7.5000000E-002 0.0
 -1.2000000E-001 -7.0000000E-002 0.0
 -1.2000000E-001 -6.5000000E-002 0.0
 -1.2000000E-001 -6.0000000E-002 0.0
 -1.2000000E-001 -5.5000000E-002 0.0
 -1.2000000E-001 -5.0000000E-002 0.0
 -1.2500000E-001  1.0500000E-001 0.0
 -1.2000000E-001  1.0500000E-001 0.0
 -1.2000000E-001  1.1000000E-001 0.0
 -1.2000000E-001  1.1500000E-001 0.0
 -1.2000000E-001  1.2000000E-001 0.0
 -1.2000000E-001  1.2500000E-001 0.0
 -1.2000000E-001  1.3000000E-001 0.0
 -1.2000000E-001  1.3500000E-001 0.0
 -1.2000000E-001  1.4000000E-001 0.0
 -1.2000000E-001  1.4500000E-001 0.0
 -1.2000000E-001  1.5000000E-001 0.0
 -1.2000000E-001  1.5500000E-001 0.0
 -1.2000000E-001  1.6000000E-001 0.0
 -1.2000000E-001  1.6500000E-001 0.0
 -1.2000000E-001  1.7000000E-001 0.0
 -1.2000000E-001  1.7500000E-001 0.0
 -1.2000000E-001  1.8000000E-001 0.0
 -1.2000000E-001  1.8500000E-001 0.0
 -1.2000000E-001  1.9000000E-001 0.0
 -1.1500000E-001 -1.7000000E-001 0.0
 -1.1500000E-001 -1.6500000E-001 0.0
 -1.1500000E-001 -1.6000000E-001 0.0
 -1.1500000E-001 -1.5500000E-001 0.0
 -1.1500000E-001 -1.5000000E-001 0.0
 -1.1500000E-001 -1.4500000E-001 0.0
 -1.1500000E-001 -1.4000000E-001 0.0
 -1.1500000E-001 -1.3500000E-001 0.0
 -1.1500000E-001 -1.3000000E-001 0.0
 -1.1500000E-001 -1.2500000E-001 0.0
 -1.1500000E-001 -1.2000000E-001 0.0
 -1.1500000E-001 -1.1500000E-001 0.0
 -1.1500000E-001 -1.1000000E-001 0.0
 -1.1500000E-001 -1.0500000E-001 0.0
 -1.1500000E-001 -1.0000000E-001 0.0
 -1.1500000E-001 -9.5000000E-002 0.0
 -1.1500000E-001 -9.0000000E-002 0.0
 -1.1500000E-001 -8.5000000E-002 0.0
 -1.1500000E-001 -8.0000000E-002 0.0
 -1.1500000E-001 -7.5000000E-002 0.0
 -1.1500000E-001 -7.0000000E-002 0.0
 -1.1500000E-001 -6.5000000E-002 0.0
 -1.1500000E-001 -6.0000000E-002 0.0
 -1.1500000E-001 -5.5000000E-002 0.0
 -1.2000000E-001  1.0000000E-001 0.0
 -1.1500000E-001  1.0000000E-001 0.0
 -1.1500000E-001  1.0500000E-001 0.0
 -1.1500000E-001  1.1000000E-001 0.0
 -1.1500000E-001  1.1500000E-001 0.0
 -1.1500000E-001  1.2000000E-001 0.0
 -1.1500000E-001  1.2500000E-001 0.0
 -1.1500000E-001  1.3000000E-001 0.0
 -1.1500000E-001  1.3500000E-001 0.0
 -1.1500000E-001  1.4000000E-001 0.0
 -1.1500000E-001  1.4500000E-001 0.0
 -1.1500000E-001  1.5000000E-001 0.0
 -1.1500000E-001  1.5500000E-001 0.0
 -1.1500000E-001  1.6000000E-001 0.0
 -1.1500000E-001  1.6500000E-001 0.0
 -1.1500000E-001  1.7000000E-001 0.0
 -1.1500000E-001  1.7500000E-001 0.0
 -1.1500000E-001  1.8000000E-001 0.0
 -1.1500000E-001  1.8500000E-001 0.0
 -1.1500000E-001  1.9000000E-001 0.0
 -1.1000000E-001 -1.6000000E-001 0.0
 -1.1000000E-001 -1.5500000E-001 0.0
 -1.1000000E-001 -1.5000000E-001 0.0
 -1.1000000E-001 -1.4500000E-001 0.0
 -1.1000000E-001 -1.4000000E-001 0.0
 -1.1000000E-001 -1.3500000E-001 0.0
 -1.1000000E-001 -1.3000000E-001 0.0
 -1.1000000E-001 -1.2500000E-001 0.0
 -1.1000000E-001 -1.2000000E-001 0.0
 -1.1000000E-001 -1.1500000E-001 0.0
 -1.1000000E-001 -1.1000000E-001 0.0
 -1.1000000E-001 -1.0500000E-001 0.0
 -1.1000000E-001 -1.0000000E-001 0.0
 -1.1000000E-001 -9.5000000E-002 0.0
 -1.1000000E-001 -9.0000000E-002 0.0
 -1.1000000E-001 -8.5000000E-002 0.0
 -1.1000000E-001 -8.0000000E-002 0.0
 -1.1000000E-001 -7.5000000E-002 0.0
 -1.1000000E-001 -7.0000000E-002 0.0
 -1.1000000E-001 -6.5000000E-002 0.0
 -1.1000000E-001 -6.0000000E-002 0.0
 -1.1000000E-001 -5.5000000E-002 0.0
 -1.1500000E-001  9.0000000E-002 0.0
 -1.1000000E-001  9.0000000E-002 0.0
 -1.1000000E-001  9.5000000E-002 0.0
 -1.1500000E-001  9.5000000E-002 0.0
 -1.1000000E-001  1.0000000E-001 0.0
 -1.1000000E-001  1.0500000E-001 0.0
 -1.1000000E-001  1.1000000E-001 0.0
 -1.1000000E-001  1.1500000E-001 0.0
 -1.1000000E-001  1.2000000E-001 0.0
 -1.1000000E-001  1.2500000E-001 0.0
 -1.1000000E-001  1.3000000E-001 0.0
 -1.1000000E-001  1.3500000E-001 0.0
 -1.1000000E-001  1.4000000E-001 0.0
 -1.1000000E-001  1.4500000E-001 0.0
 -1.1000000E-001  1.5000000E-001 0.0
 -1.1000000E-001  1.5500000E-001 0.0
 -1.1000000E-001  1.6000000E-001 0.0
 -1.1000000E-001  1.6500000E-001 0.0
 -1.1000000E-001  1.7000000E-001 0.0
 -1.1000000E-001  1.7500000E-001 0.0
 -1.1000000E-001  1.8000000E-001 0.0
 -1.1000000E-001  1.8500000E-001 0.0
 -1.0500000E-001 -1.6000000E-001 0.0
 -1.0500000E-001 -1.5500000E-001 0.0
 -1.0500000E-001 -1.5000000E-001 0.0
 -1.0500000E-001 -1.4500000E-001 0.0
 -1.0500000E-001 -1.4000000E-001 0.0
 -1.0500000E-001 -1.3500000E-001 0.0
 -1.0500000E-001 -1.3000000E-001 0.0
 -1.0500000E-001 -1.2500000E-001 0.0
 -1.0500000E-001 -1.2000000E-001 0.0
 -1.0500000E-001 -1.1500000E-001 0.0
 -1.0500000E-001 -1.1000000E-001 0.0
 -1.0500000E-001 -1.0500000E-001 0.0
 -1.0500000E-001 -1.0000000E-001 0.0
 -1.0500000E-001 -9.5000000E-002 0.0
 -1.0500000E-001 -9.0000000E-002 0.0
 -1.0500000E-001 -8.5000000E-002 0.0
 -1.0500000E-001 -8.0000000E-002 0.0
 -1.0500000E-001 -7.5000000E-002 0.0
 -1.0500000E-001 -7.0000000E-002 0.0
 -1.0500000E-001 -6.5000000E-002 0.0
 -1.0500000E-001 -6.0000000E-002 0.0
 -1.0500000E-001 -5.5000000E-002 0.0
 -1.1000000E-001  8.5000000E-002 0.0
 -1.0500000E-001  8.5000000E-002 0.0
 -1.0500000E-001  9.0000000E-002 0.0
 -1.0500000E-001  9.5000000E-002 0.0
 -1.0500000E-001  1.0000000E-001 0.0
 -1.0500000E-001  1.0500000E-001 0.0
 -1.0500000E-001  1.1000000E-001 0.0
 -1.0500000E-001  1.1500000E-001 0.0
 -1.0500000E-001  1.2000000E-001 0.0
 -1.0500000E-001  1.2500000E-001 0.0
 -1.0500000E-001  1.3000000E-001 0.0
 -1.0500000E-001  1.3500000E-001 0.0
 -1.0500000E-001  1.4000000E-001 0.0
 -1.0500000E-001  1.4500000E-001 0.0
 -1.0500000E-001  1.5000000E-001 0.0
 -1.0500000E-001  1.5500000E-001 0.0
 -1.0500000E-001  1.6000000E-001 0.0
 -1.0500000E-001  1.6500000E-001 0.0
 -1.0500000E-001  1.7000000E-001 0.0
 -1.0500000E-001  1.7500000E-001 0.0
 -1.0500000E-001  1.8000000E-001 0.0
 -1.0500000E-001  1.8500000E-001 0.0
 -1.0000000E-001 -1.5000000E-001 0.0
 -1.0000000E-001 -1.4500000E-001 0.0
 -1.0000000E-001 -1.4000000E-001 0.0
 -1.0000000E-001 -1.3500000E-001 0.0
 -1.0000000E-001 -1.3000000E-001 0.0
 -1.0000000E-001 -1.2500000E-001 0.0
 -1.0000000E-001 -1.2000000E-001 0.0
 -1.0000000E-001 -1.1500000E-001 0.0
 -1.0000000E-001 -1.1000000E-001 0.0
 -1.0000000E-001 -1.0500000E-001 0.0
 -1.0000000E-001 -1.0000000E-001 0.0
 -1.0000000E-001 -9.5000000E-002 0.0
 -1.0000000E-001 -9.0000000E-002 0.0
 -1.0000000E-001 -8.5000000E-002 0.0
 -1.0000000E-001 -8.0000000E-002 0.0
 -1.0000000E-001 -7.5000000E-002 0.0
 -1.0000000E-001 -7.0000000E-002 0.0
 -1.0000000E-001 -6.5000000E-002 0.0
 -1.0000000E-001 -6.0000000E-002 0.0
 -1.0000000E-001 -5.5000000E-002 0.0
 -1.0500000E-001  7.5000000E-002 0.0
 -1.0000000E-001  7.5000000E-002 0.0
 -1.0000000E-001  8.0000000E-002 0.0
 -1.0500000E-001  8.0000000E-002 0.0
 -1.0000000E-001  8.5000000E-002 0.0
 -1.0000000E-001  9.0000000E-002 0.0
 -1.0000000E-001  9.5000000E-002 0.0
 -1.0000000E-001  1.0000000E-001 0.0
 -1.0000000E-001  1.0500000E-001 0.0
 -1.0000000E-001  1.1000000E-001 0.0
 -1.0000000E-001  1.1500000E-001 0.0
 -1.0000000E-001  1.2000000E-001 0.0
 -1.0000000E-001  1.2500000E-001 0.0
 -1.0000000E-001  1.3000000E-001 0.0
 -1.0000000E-001  1.3500000E-001 0.0
 -1.0000000E-001  1.4000000E-001 0.0
 -1.0000000E-001  1.4500000E-001 0.0
 -1.0000000E-001  1.5000000E-001 0.0
 -1.0000000E-001  1.5500000E-001 0.0
 -1.0000000E-001  1.6000000E-001 0.0
 -1.0000000E-001  1.6500000E-001 0.0
 -1.0000000E-001  1.7000000E-001 0.0
 -1.0000000E-001  1.7500000E-001 0.0
 -1.0000000E-001  1.8000000E-001 0.0
 -1.0000000E-001  1.8500000E-001 0.0
 -9.5000000E-002 -1.4500000E-001 0.0
 -9.5000000E-002 -1.4000000E-001 0.0
 -9.5000000E-002 -1.3500000E-001 0.0
 -9.5000000E-002 -1.3000000E-001 0.0
 -9.5000000E-002 -1.2500000E-001 0.0
 -9.5000000E-002 -1.2000000E-001 0.0
 -9.5000000E-002 -1.1500000E-001 0.0
 -9.5000000E-002 -1.1000000E-001 0.0
 -9.5000000E-002 -1.0500000E-001 0.0
 -9.5000000E-002 -1.0000000E-001 0.0
 -9.5000000E-002 -9.5000000E-002 0.0
 -9.5000000E-002 -9.0000000E-002 0.0
 -9.5000000E-002 -8.5000000E-002 0.0
 -9.5000000E-002 -8.0000000E-002 0.0
 -9.5000000E-002 -7.5000000E-002 0.0
 -9.5000000E-002 -7.0000000E-002 0.0
 -9.5000000E-002 -6.5000000E-002 0.0
 -9.5000000E-002 -6.0000000E-002 0.0
 -9.5000000E-002 -5.5000000E-002 0.0
 -9.5000000E-002 -5.0000000E-002 0.0
 -1.0000000E-001 -5.0000000E-002 0.0
 -1.0000000E-001  7.0000000E-002 0.0
 -9.5000000E-002  7.0000000E-002 0.0
 -9.5000000E-002  7.5000000E-002 0.0
 -9.5000000E-002  8.0000000E-002 0.0
 -9.5000000E-002  8.5000000E-002 0.0
 -9.5000000E-002  9.0000000E-002 0.0
 -9.5000000E-002  9.5000000E-002 0.0
 -9.5000000E-002  1.0000000E-001 0.0
 -9.5000000E-002  1.0500000E-001 0.0
 -9.5000000E-002  1.1000000E-001 0.0
 -9.5000000E-002  1.1500000E-001 0.0
 -9.5000000E-002  1.2000000E-001 0.0
 -9.5000000E-002  1.2500000E-001 0.0
 -9.5000000E-002  1.3000000E-001 0.0
 -9.5000000E-002  1.3500000E-001 0.0
 -9.5000000E-002  1.4000000E-001 0.0
 -9.5000000E-002  1.4500000E-001 0.0
 -9.5000000E-002  1.5000000E-001 0.0
 -9.5000000E-002  1.5500000E-001 0.0
 -9.5000000E-002  1.6000000E-001 0.0
 -9.5000000E-002  1.6500000E-001 0.0
 -9.5000000E-002  1.7000000E-001 0.0
 -9.5000000E-002  1.7500000E-001 0.0
 -9.5000000E-002  1.8000000E-001 0.0
 -9.5000000E-002  1.8500000E-001 0.0
 -9.0000000E-002 -1.4000000E-001 0.0
 -9.0000000E-002 -1.3500000E-001 0.0
 -9.0000000E-002 -1.3000000E-001 0.0
 -9.0000000E-002 -1.2500000E-001 0.0
 -9.0000000E-002 -1.2000000E-001 0.0
 -9.0000000E-002 -1.1500000E-001 0.0
 -9.0000000E-002 -1.1000000E-001 0.0
 -9.0000000E-002 -1.0500000E-001 0.0
 -9.0000000E-002 -1.0000000E-001 0.0
 -9.0000000E-002 -9.5000000E-002 0.0
 -9.0000000E-002 -9.0000000E-002 0.0
 -9.0000000E-002 -8.5000000E-002 0.0
 -9.0000000E-002 -8.0000000E-002 0.0
 -9.0000000E-002 -7.5000000E-002 0.0
 -9.0000000E-002 -7.0000000E-002 0.0
 -9.0000000E-002 -6.5000000E-002 0.0
 -9.0000000E-002 -6.0000000E-002 0.0
 -9.0000000E-002 -5.5000000E-002 0.0
 -9.0000000E-002 -5.0000000E-002 0.0
 -9.0000000E-002 -4.5000000E-002 0.0
 -9.5000000E-002 -4.5000000E-002 0.0
 -9.0000000E-002 -4.0000000E-002 0.0
 -9.5000000E-002 -4.0000000E-002 0.0
 -9.0000000E-002 -3.5000000E-002 0.0
 -9.5000000E-002 -3.5000000E-002 0.0
 -9.0000000E-002 -3.0000000E-002 0.0
 -9.5000000E-002 -3.0000000E-002 0.0
 -9.5000000E-002  6.0000000E-002 0.0
 -9.0000000E-002  6.0000000E-002 0.0
 -9.0000000E-002  6.5000000E-002 0.0
 -9.5000000E-002  6.5000000E-002 0.0
 -9.0000000E-002  7.0000000E-002 0.0
 -9.0000000E-002  7.5000000E-002 0.0
 -9.0000000E-002  8.0000000E-002 0.0
 -9.0000000E-002  8.5000000E-002 0.0
 -9.0000000E-002  9.0000000E-002 0.0
 -9.0000000E-002  9.5000000E-002 0.0
 -9.0000000E-002  1.0000000E-001 0.0
 -9.0000000E-002  1.0500000E-001 0.0
 -9.0000000E-002  1.1000000E-001 0.0
 -9.0000000E-002  1.1500000E-001 0.0
 -9.0000000E-002  1.2000000E-001 0.0
 -9.0000000E-002  1.2500000E-001 0.0
 -9.0000000E-002  1.3000000E-001 0.0
 -9.0000000E-002  1.3500000E-001 0.0
 -9.0000000E-002  1.4000000E-001 0.0
 -9.0000000E-002  1.4500000E-001 0.0
 -9.0000000E-002  1.5000000E-001 0.0
 -9.0000000E-002  1.5500000E-001 0.0
 -9.0000000E-002  1.6000000E-001 0.0
 -9.0000000E-002  1.6500000E-001 0.0
 -9.0000000E-002  1.7000000E-001 0.0
 -9.0000000E-002  1.7500000E-001 0.0
 -9.0000000E-002  1.8000000E-001 0.0
 -9.0000000E-002  1.8500000E-001 0.0
 -8.5000000E-002 -1.3500000E-001 0.0
 -8.5000000E-002 -1.3000000E-001 0.0
 -8.5000000E-002 -1.2500000E-001 0.0
 -8.5000000E-002 -1.2000000E-001 0.0
 -8.5000000E-002 -1.1500000E-001 0.0
 -8.5000000E-002 -1.1000000E-001 0.0
 -8.5000000E-002 -1.0500000E-001 0.0
 -8.5000000E-002 -1.0000000E-001 0.0
 -8.5000000E-002 -9.5000000E-002 0.0
 -8.5000000E-002 -9.0000000E-002 0.0
 -8.5000000E-002 -8.5000000E-002 0.0
 -8.5000000E-002 -8.0000000E-002 0.0
 -8.5000000E-002 -7.5000000E-002 0.0
 -8.5000000E-002 -7.0000000E-002 0.0
 -8.5000000E-002 -6.5000000E-002 0.0
 -8.5000000E-002 -6.0000000E-002 0.0
 -8.5000000E-002 -5.5000000E-002 0.0
 -8.5000000E-002 -5.0000000E-002 0.0
 -8.5000000E-002 -4.5000000E-002 0.0
 -8.5000000E-002 -4.0000000E-002 0.0
 -8.5000000E-002 -3.5000000E-002 0.0
 -8.5000000E-002 -3.0000000E-002 0.0
 -8.5000000E-002 -2.5000000E-002 0.0
 -9.0000000E-002 -2.5000000E-002 0.0
 -8.5000000E-002 -2.0000000E-002 0.0
 -9.0000000E-002 -2.0000000E-002 0.0
 -8.5000000E-002 -1.5000000E-002 0.0
 -9.0000000E-002 -1.5000000E-002 0.0
 -8.5000000E-002 -1.0000000E-002 0.0
 -9.0000000E-002 -1.0000000E-002 0.0
 -8.5000000E-002 -5.0000000E-003 0.0
 -9.0000000E-002 -5.0000000E-003 0.0
 -8.5000000E-002  0.0000000E+000 0.0
 -9.0000000E-002  0.0000000E+000 0.0
 -9.0000000E-002  5.5000000E-002 0.0
 -8.5000000E-002  5.5000000E-002 0.0
 -8.5000000E-002  6.0000000E-002 0.0
 -8.5000000E-002  6.5000000E-002 0.0
 -8.5000000E-002  7.0000000E-002 0.0
 -8.5000000E-002  7.5000000E-002 0.0
 -8.5000000E-002  8.0000000E-002 0.0
 -8.5000000E-002  8.5000000E-002 0.0
 -8.5000000E-002  9.0000000E-002 0.0
 -8.5000000E-002  9.5000000E-002 0.0
 -8.5000000E-002  1.0000000E-001 0.0
 -8.5000000E-002  1.0500000E-001 0.0
 -8.5000000E-002  1.1000000E-001 0.0
 -8.5000000E-002  1.1500000E-001 0.0
 -8.5000000E-002  1.2000000E-001 0.0
 -8.5000000E-002  1.2500000E-001 0.0
 -8.5000000E-002  1.3000000E-001 0.0
 -8.5000000E-002  1.3500000E-001 0.0
 -8.5000000E-002  1.4000000E-001 0.0
 -8.5000000E-002  1.4500000E-001 0.0
 -8.5000000E-002  1.5000000E-001 0.0
 -8.5000000E-002  1.5500000E-001 0.0
 -8.5000000E-002  1.6000000E-001 0.0
 -8.5000000E-002  1.6500000E-001 0.0
 -8.5000000E-002  1.7000000E-001 0.0
 -8.5000000E-002  1.7500000E-001 0.0
 -8.5000000E-002  1.8000000E-001 0.0
 -8.5000000E-002  1.8500000E-001 0.0
 -8.0000000E-002 -1.3500000E-001 0.0
 -8.0000000E-002 -1.3000000E-001 0.0
 -8.0000000E-002 -1.2500000E-001 0.0
 -8.0000000E-002 -1.2000000E-001 0.0
 -8.0000000E-002 -1.1500000E-001 0.0
 -8.0000000E-002 -1.1000000E-001 0.0
 -8.0000000E-002 -1.0500000E-001 0.0
 -8.0000000E-002 -1.0000000E-001 0.0
 -8.0000000E-002 -9.5000000E-002 0.0
 -8.0000000E-002 -9.0000000E-002 0.0
 -8.0000000E-002 -8.5000000E-002 0.0
 -8.0000000E-002 -8.0000000E-002 0.0
 -8.0000000E-002 -7.5000000E-002 0.0
 -8.0000000E-002 -7.0000000E-002 0.0
 -8.0000000E-002 -6.5000000E-002 0.0
 -8.0000000E-002 -6.0000000E-002 0.0
 -8.0000000E-002 -5.5000000E-002 0.0
 -8.0000000E-002 -5.0000000E-002 0.0
 -8.0000000E-002 -4.5000000E-002 0.0
 -8.0000000E-002 -4.0000000E-002 0.0
 -8.0000000E-002 -3.5000000E-002 0.0
 -8.0000000E-002 -3.0000000E-002 0.0
 -8.0000000E-002 -2.5000000E-002 0.0
 -8.0000000E-002 -2.0000000E-002 0.0
 -8.0000000E-002 -1.5000000E-002 0.0
 -8.0000000E-002 -1.0000000E-002 0.0
 -8.0000000E-002 -5.0000000E-003 0.0
 -8.0000000E-002  0.0000000E+000 0.0
 -8.0000000E-002  5.0000000E-003 0.0
 -8.5000000E-002  5.0000000E-003 0.0
 -8.5000000E-002  4.5000000E-002 0.0
 -8.0000000E-002  4.5000000E-002 0.0
 -8.0000000E-002  5.0000000E-002 0.0
 -8.5000000E-002  5.0000000E-002 0.0
 -8.0000000E-002  5.5000000E-002 0.0
 -8.0000000E-002  6.0000000E-002 0.0
 -8.0000000E-002  6.5000000E-002 0.0
 -8.0000000E-002  7.0000000E-002 0.0
 -8.0000000E-002  7.5000000E-002 0.0
 -8.0000000E-002  8.0000000E-002 0.0
 -8.0000000E-002  8.5000000E-002 0.0
 -8.0000000E-002  9.0000000E-002 0.0
 -8.0000000E-002  9.5000000E-002 0.0
 -8.0000000E-002  1.0000000E-001 0.0
 -8.0000000E-002  1.0500000E-001 0.0
 -8.0000000E-002  1.1000000E-001 0.0
 -8.0000000E-002  1.1500000E-001 0.0
 -8.0000000E-002  1.2000000E-001 0.0
 -8.0000000E-002  1.2500000E-001 0.0
 -8.0000000E-002  1.3000000E-001 0.0
 -8.0000000E-002  1.3500000E-001 0.0
 -8.0000000E-002  1.4000000E-001 0.0
 -8.0000000E-002  1.4500000E-001 0.0
 -8.0000000E-002  1.5000000E-001 0.0
 -8.0000000E-002  1.5500000E-001 0.0
 -8.0000000E-002  1.6000000E-001 0.0
 -8.0000000E-002  1.6500000E-001 0.0
 -8.0000000E-002  1.7000000E-001 0.0
 -8.0000000E-002  1.7500000E-001 0.0
 -8.0000000E-002  1.8000000E-001 0.0
 -7.5000000E-002 -1.3000000E-001 0.0
 -7.5000000E-002 -1.2500000E-001 0.0
 -7.5000000E-002 -1.2000000E-001 0.0
 -7.5000000E-002 -1.1500000E-001 0.0
 -7.5000000E-002 -1.1000000E-001 0.0
 -7.5000000E-002 -1.0500000E-001 0.0
 -7.5000000E-002 -1.0000000E-001 0.0
 -7.5000000E-002 -9.5000000E-002 0.0
 -7.5000000E-002 -9.0000000E-002 0.0
 -7.5000000E-002 -8.5000000E-002 0.0
 -7.5000000E-002 -8.0000000E-002 0.0
 -7.5000000E-002 -7.5000000E-002 0.0
 -7.5000000E-002 -7.0000000E-002 0.0
 -7.5000000E-002 -6.5000000E-002 0.0
 -7.5000000E-002 -6.0000000E-002 0.0
 -7.5000000E-002 -5.5000000E-002 0.0
 -7.5000000E-002 -5.0000000E-002 0.0
 -7.5000000E-002 -4.5000000E-002 0.0
 -7.5000000E-002 -4.0000000E-002 0.0
 -7.5000000E-002 -3.5000000E-002 0.0
 -7.5000000E-002 -3.0000000E-002 0.0
 -7.5000000E-002 -2.5000000E-002 0.0
 -7.5000000E-002 -2.0000000E-002 0.0
 -7.5000000E-002 -1.5000000E-002 0.0
 -7.5000000E-002 -1.0000000E-002 0.0
 -7.5000000E-002 -5.0000000E-003 0.0
 -7.5000000E-002  0.0000000E+000 0.0
 -7.5000000E-002  5.0000000E-003 0.0
 -7.5000000E-002  1.0000000E-002 0.0
 -8.0000000E-002  1.0000000E-002 0.0
 -7.5000000E-002  1.5000000E-002 0.0
 -8.0000000E-002  1.5000000E-002 0.0
 -7.5000000E-002  2.0000000E-002 0.0
 -8.0000000E-002  2.0000000E-002 0.0
 -7.5000000E-002  2.5000000E-002 0.0
 -8.0000000E-002  2.5000000E-002 0.0
 -7.5000000E-002  3.0000000E-002 0.0
 -8.0000000E-002  3.0000000E-002 0.0
 -7.5000000E-002  3.5000000E-002 0.0
 -8.0000000E-002  3.5000000E-002 0.0
 -7.5000000E-002  4.0000000E-002 0.0
 -8.0000000E-002  4.0000000E-002 0.0
 -7.5000000E-002  4.5000000E-002 0.0
 -7.5000000E-002  5.0000000E-002 0.0
 -7.5000000E-002  5.5000000E-002 0.0
 -7.5000000E-002  6.0000000E-002 0.0
 -7.5000000E-002  6.5000000E-002 0.0
 -7.5000000E-002  7.0000000E-002 0.0
 -7.5000000E-002  7.5000000E-002 0.0
 -7.5000000E-002  8.0000000E-002 0.0
 -7.5000000E-002  8.5000000E-002 0.0
 -7.5000000E-002  9.0000000E-002 0.0
 -7.5000000E-002  9.5000000E-002 0.0
 -7.5000000E-002  1.0000000E-001 0.0
 -7.5000000E-002  1.0500000E-001 0.0
 -7.5000000E-002  1.1000000E-001 0.0
 -7.5000000E-002  1.1500000E-001 0.0
 -7.5000000E-002  1.2000000E-001 0.0
 -7.5000000E-002  1.2500000E-001 0.0
 -7.5000000E-002  1.3000000E-001 0.0
 -7.5000000E-002  1.3500000E-001 0.0
 -7.5000000E-002  1.4000000E-001 0.0
 -7.5000000E-002  1.4500000E-001 0.0
 -7.5000000E-002  1.5000000E-001 0.0
 -7.5000000E-002  1.5500000E-001 0.0
 -7.5000000E-002  1.6000000E-001 0.0
 -7.5000000E-002  1.6500000E-001 0.0
 -7.5000000E-002  1.7000000E-001 0.0
 -7.5000000E-002  1.7500000E-001 0.0
 -7.5000000E-002  1.8000000E-001 0.0
 -7.0000000E-002 -1.2500000E-001 0.0
 -7.0000000E-002 -1.2000000E-001 0.0
 -7.0000000E-002 -1.1500000E-001 0.0
 -7.0000000E-002 -1.1000000E-001 0.0
 -7.0000000E-002 -1.0500000E-001 0.0
 -7.0000000E-002 -1.0000000E-001 0.0
 -7.0000000E-002 -9.5000000E-002 0.0
 -7.0000000E-002 -9.0000000E-002 0.0
 -7.0000000E-002 -8.5000000E-002 0.0
 -7.0000000E-002 -8.0000000E-002 0.0
 -7.0000000E-002 -7.5000000E-002 0.0
 -7.0000000E-002 -7.0000000E-002 0.0
 -7.0000000E-002 -6.5000000E-002 0.0
 -7.0000000E-002 -6.0000000E-002 0.0
 -7.0000000E-002 -5.5000000E-002 0.0
 -7.0000000E-002 -5.0000000E-002 0.0
 -7.0000000E-002 -4.5000000E-002 0.0
 -7.0000000E-002 -4.0000000E-002 0.0
 -7.0000000E-002 -3.5000000E-002 0.0
 -7.0000000E-002 -3.0000000E-002 0.0
 -7.0000000E-002 -2.5000000E-002 0.0
 -7.0000000E-002 -2.0000000E-002 0.0
 -7.0000000E-002 -1.5000000E-002 0.0
 -7.0000000E-002 -1.0000000E-002 0.0
 -7.0000000E-002 -5.0000000E-003 0.0
 -7.0000000E-002  0.0000000E+000 0.0
 -7.0000000E-002  5.0000000E-003 0.0
 -7.0000000E-002  1.0000000E-002 0.0
 -7.0000000E-002  1.5000000E-002 0.0
 -7.0000000E-002  2.0000000E-002 0.0
 -7.0000000E-002  2.5000000E-002 0.0
 -7.0000000E-002  3.0000000E-002 0.0
 -7.0000000E-002  3.5000000E-002 0.0
 -7.0000000E-002  4.0000000E-002 0.0
 -7.0000000E-002  4.5000000E-002 0.0
 -7.0000000E-002  5.0000000E-002 0.0
 -7.0000000E-002  5.5000000E-002 0.0
 -7.0000000E-002  6.0000000E-002 0.0
 -7.0000000E-002  6.5000000E-002 0.0
 -7.0000000E-002  7.0000000E-002 0.0
 -7.0000000E-002  7.5000000E-002 0.0
 -7.0000000E-002  8.0000000E-002 0.0
 -7.0000000E-002  8.5000000E-002 0.0
 -7.0000000E-002  9.0000000E-002 0.0
 -7.0000000E-002  9.5000000E-002 0.0
 -7.0000000E-002  1.0000000E-001 0.0
 -7.0000000E-002  1.0500000E-001 0.0
 -7.0000000E-002  1.1000000E-001 0.0
 -7.0000000E-002  1.1500000E-001 0.0
 -7.0000000E-002  1.2000000E-001 0.0
 -7.0000000E-002  1.2500000E-001 0.0
 -7.0000000E-002  1.3000000E-001 0.0
 -7.0000000E-002  1.3500000E-001 0.0
 -7.0000000E-002  1.4000000E-001 0.0
 -7.0000000E-002  1.4500000E-001 0.0
 -7.0000000E-002  1.5000000E-001 0.0
 -7.0000000E-002  1.5500000E-001 0.0
 -7.0000000E-002  1.6000000E-001 0.0
 -7.0000000E-002  1.6500000E-001 0.0
 -7.0000000E-002  1.7000000E-001 0.0
 -7.0000000E-002  1.7500000E-001 0.0
 -7.0000000E-002  1.8000000E-001 0.0
 -6.5000000E-002 -1.2000000E-001 0.0
 -6.5000000E-002 -1.1500000E-001 0.0
 -6.5000000E-002 -1.1000000E-001 0.0
 -6.5000000E-002 -1.0500000E-001 0.0
 -6.5000000E-002 -1.0000000E-001 0.0
 -6.5000000E-002 -9.5000000E-002 0.0
 -6.5000000E-002 -9.0000000E-002 0.0
 -6.5000000E-002 -8.5000000E-002 0.0
 -6.5000000E-002 -8.0000000E-002 0.0
 -6.5000000E-002 -7.5000000E-002 0.0
 -6.5000000E-002 -7.0000000E-002 0.0
 -6.5000000E-002 -6.5000000E-002 0.0
 -6.5000000E-002 -6.0000000E-002 0.0
 -6.5000000E-002 -5.5000000E-002 0.0
 -6.5000000E-002 -5.0000000E-002 0.0
 -6.5000000E-002 -4.5000000E-002 0.0
 -6.5000000E-002 -4.0000000E-002 0.0
 -6.5000000E-002 -3.5000000E-002 0.0
 -6.5000000E-002 -3.0000000E-002 0.0
 -6.5000000E-002 -2.5000000E-002 0.0
 -6.5000000E-002 -2.0000000E-002 0.0
 -6.5000000E-002 -1.5000000E-002 0.0
 -6.5000000E-002 -1.0000000E-002 0.0
 -6.5000000E-002 -5.0000000E-003 0.0
 -6.5000000E-002  0.0000000E+000 0.0
 -6.5000000E-002  5.0000000E-003 0.0
 -6.5000000E-002  1.0000000E-002 0.0
 -6.5000000E-002  1.5000000E-002 0.0
 -6.5000000E-002  2.0000000E-002 0.0
 -6.5000000E-002  2.5000000E-002 0.0
 -6.5000000E-002  3.0000000E-002 0.0
 -6.5000000E-002  3.5000000E-002 0.0
 -6.5000000E-002  4.0000000E-002 0.0
 -6.5000000E-002  4.5000000E-002 0.0
 -6.5000000E-002  5.0000000E-002 0.0
 -6.5000000E-002  5.5000000E-002 0.0
 -6.5000000E-002  6.0000000E-002 0.0
 -6.5000000E-002  6.5000000E-002 0.0
 -6.5000000E-002  7.0000000E-002 0.0
 -6.5000000E-002  7.5000000E-002 0.0
 -6.5000000E-002  8.0000000E-002 0.0
 -6.5000000E-002  8.5000000E-002 0.0
 -6.5000000E-002  9.0000000E-002 0.0
 -6.5000000E-002  9.5000000E-002 0.0
 -6.5000000E-002  1.0000000E-001 0.0
 -6.5000000E-002  1.0500000E-001 0.0
 -6.5000000E-002  1.1000000E-001 0.0
 -6.5000000E-002  1.1500000E-001 0.0
 -6.5000000E-002  1.2000000E-001 0.0
 -6.5000000E-002  1.2500000E-001 0.0
 -6.5000000E-002  1.3000000E-001 0.0
 -6.5000000E-002  1.3500000E-001 0.0
 -6.5000000E-002  1.4000000E-001 0.0
 -6.5000000E-002  1.4500000E-001 0.0
 -6.5000000E-002  1.5000000E-001 0.0
 -6.5000000E-002  1.5500000E-001 0.0
 -6.5000000E-002  1.6000000E-001 0.0
 -6.5000000E-002  1.6500000E-001 0.0
 -6.5000000E-002  1.7000000E-001 0.0
 -6.5000000E-002  1.7500000E-001 0.0
 -6.0000000E-002 -1.1500000E-001 0.0
 -6.0000000E-002 -1.1000000E-001 0.0
 -6.0000000E-002 -1.0500000E-001 0.0
 -6.0000000E-002 -1.0000000E-001 0.0
 -6.0000000E-002 -9.5000000E-002 0.0
 -6.0000000E-002 -9.0000000E-002 0.0
 -6.0000000E-002 -8.5000000E-002 0.0
 -6.0000000E-002 -8.0000000E-002 0.0
 -6.0000000E-002 -7.5000000E-002 0.0
 -6.0000000E-002 -7.0000000E-002 0.0
 -6.0000000E-002 -6.5000000E-002 0.0
 -6.0000000E-002 -6.0000000E-002 0.0
 -6.0000000E-002 -5.5000000E-002 0.0
 -6.0000000E-002 -5.0000000E-002 0.0
 -6.0000000E-002 -4.5000000E-002 0.0
 -6.0000000E-002 -4.0000000E-002 0.0
 -6.0000000E-002 -3.5000000E-002 0.0
 -6.0000000E-002 -3.0000000E-002 0.0
 -6.0000000E-002 -2.5000000E-002 0.0
 -6.0000000E-002 -2.0000000E-002 0.0
 -6.0000000E-002 -1.5000000E-002 0.0
 -6.0000000E-002 -1.0000000E-002 0.0
 -6.0000000E-002 -5.0000000E-003 0.0
 -6.0000000E-002  0.0000000E+000 0.0
 -6.0000000E-002  5.0000000E-003 0.0
 -6.0000000E-002  1.0000000E-002 0.0
 -6.0000000E-002  1.5000000E-002 0.0
 -6.0000000E-002  2.0000000E-002 0.0
 -6.0000000E-002  2.5000000E-002 0.0
 -6.0000000E-002  3.0000000E-002 0.0
 -6.0000000E-002  3.5000000E-002 0.0
 -6.0000000E-002  4.0000000E-002 0.0
 -6.0000000E-002  4.5000000E-002 0.0
 -6.0000000E-002  5.0000000E-002 0.0
 -6.0000000E-002  5.5000000E-002 0.0
 -6.0000000E-002  6.0000000E-002 0.0
 -6.0000000E-002  6.5000000E-002 0.0
 -6.0000000E-002  7.0000000E-002 0.0
 -6.0000000E-002  7.5000000E-002 0.0
 -6.0000000E-002  8.0000000E-002 0.0
 -6.0000000E-002  8.5000000E-002 0.0
 -6.0000000E-002  9.0000000E-002 0.0
 -6.0000000E-002  9.5000000E-002 0.0
 -6.0000000E-002  1.0000000E-001 0.0
 -6.0000000E-002  1.0500000E-001 0.0
 -6.0000000E-002  1.1000000E-001 0.0
 -6.0000000E-002  1.1500000E-001 0.0
 -6.0000000E-002  1.2000000E-001 0.0
 -6.0000000E-002  1.2500000E-001 0.0
 -6.0000000E-002  1.3000000E-001 0.0
 -6.0000000E-002  1.3500000E-001 0.0
 -6.0000000E-002  1.4000000E-001 0.0
 -6.0000000E-002  1.4500000E-001 0.0
 -6.0000000E-002  1.5000000E-001 0.0
 -6.0000000E-002  1.5500000E-001 0.0
 -6.0000000E-002  1.6000000E-001 0.0
 -6.0000000E-002  1.6500000E-001 0.0
 -6.0000000E-002  1.7000000E-001 0.0
 -6.0000000E-002  1.7500000E-001 0.0
 -5.5000000E-002 -1.1000000E-001 0.0
 -5.5000000E-002 -1.0500000E-001 0.0
 -5.5000000E-002 -1.0000000E-001 0.0
 -5.5000000E-002 -9.5000000E-002 0.0
 -5.5000000E-002 -9.0000000E-002 0.0
 -5.5000000E-002 -8.5000000E-002 0.0
 -5.5000000E-002 -8.0000000E-002 0.0
 -5.5000000E-002 -7.5000000E-002 0.0
 -5.5000000E-002 -7.0000000E-002 0.0
 -5.5000000E-002 -6.5000000E-002 0.0
 -5.5000000E-002 -6.0000000E-002 0.0
 -5.5000000E-002 -5.5000000E-002 0.0
 -5.5000000E-002 -5.0000000E-002 0.0
 -5.5000000E-002 -4.5000000E-002 0.0
 -5.5000000E-002 -4.0000000E-002 0.0
 -5.5000000E-002 -3.5000000E-002 0.0
 -5.5000000E-002 -3.0000000E-002 0.0
 -5.5000000E-002 -2.5000000E-002 0.0
 -5.5000000E-002 -2.0000000E-002 0.0
 -5.5000000E-002 -1.5000000E-002 0.0
 -5.5000000E-002 -1.0000000E-002 0.0
 -5.5000000E-002 -5.0000000E-003 0.0
 -5.5000000E-002  0.0000000E+000 0.0
 -5.5000000E-002  5.0000000E-003 0.0
 -5.5000000E-002  1.0000000E-002 0.0
 -5.5000000E-002  1.5000000E-002 0.0
 -5.5000000E-002  2.0000000E-002 0.0
 -5.5000000E-002  2.5000000E-002 0.0
 -5.5000000E-002  3.0000000E-002 0.0
 -5.5000000E-002  3.5000000E-002 0.0
 -5.5000000E-002  4.0000000E-002 0.0
 -5.5000000E-002  4.5000000E-002 0.0
 -5.5000000E-002  5.0000000E-002 0.0
 -5.5000000E-002  5.5000000E-002 0.0
 -5.5000000E-002  6.0000000E-002 0.0
 -5.5000000E-002  6.5000000E-002 0.0
 -5.5000000E-002  7.0000000E-002 0.0
 -5.5000000E-002  7.5000000E-002 0.0
 -5.5000000E-002  8.0000000E-002 0.0
 -5.5000000E-002  8.5000000E-002 0.0
 -5.5000000E-002  9.0000000E-002 0.0
 -5.5000000E-002  9.5000000E-002 0.0
 -5.5000000E-002  1.0000000E-001 0.0
 -5.5000000E-002  1.0500000E-001 0.0
 -5.5000000E-002  1.1000000E-001 0.0
 -5.5000000E-002  1.1500000E-001 0.0
 -5.5000000E-002  1.2000000E-001 0.0
 -5.5000000E-002  1.2500000E-001 0.0
 -5.5000000E-002  1.3000000E-001 0.0
 -5.5000000E-002  1.3500000E-001 0.0
 -5.5000000E-002  1.4000000E-001 0.0
 -5.5000000E-002  1.4500000E-001 0.0
 -5.5000000E-002  1.5000000E-001 0.0
 -5.5000000E-002  1.5500000E-001 0.0
 -5.5000000E-002  1.6000000E-001 0.0
 -5.5000000E-002  1.6500000E-001 0.0
 -5.5000000E-002  1.7000000E-001 0.0
 -5.5000000E-002  1.7500000E-001 0.0
 -5.0000000E-002 -1.1000000E-001 0.0
 -5.0000000E-002 -1.0500000E-001 0.0
 -5.0000000E-002 -1.0000000E-001 0.0
 -5.0000000E-002 -9.5000000E-002 0.0
 -5.0000000E-002 -9.0000000E-002 0.0
 -5.0000000E-002 -8.5000000E-002 0.0
 -5.0000000E-002 -8.0000000E-002 0.0
 -5.0000000E-002 -7.5000000E-002 0.0
 -5.0000000E-002 -7.0000000E-002 0.0
 -5.0000000E-002 -6.5000000E-002 0.0
 -5.0000000E-002 -6.0000000E-002 0.0
 -5.0000000E-002 -5.5000000E-002 0.0
 -5.0000000E-002 -5.0000000E-002 0.0
 -5.0000000E-002 -4.5000000E-002 0.0
 -5.0000000E-002 -4.0000000E-002 0.0
 -5.0000000E-002 -3.5000000E-002 0.0
 -5.0000000E-002 -3.0000000E-002 0.0
 -5.0000000E-002 -2.5000000E-002 0.0
 -5.0000000E-002 -2.0000000E-002 0.0
 -5.0000000E-002 -1.5000000E-002 0.0
 -5.0000000E-002 -1.0000000E-002 0.0
 -5.0000000E-002 -5.0000000E-003 0.0
 -5.0000000E-002  0.0000000E+000 0.0
 -5.0000000E-002  5.0000000E-003 0.0
 -5.0000000E-002  1.0000000E-002 0.0
 -5.0000000E-002  1.5000000E-002 0.0
 -5.0000000E-002  2.0000000E-002 0.0
 -5.0000000E-002  2.5000000E-002 0.0
 -5.0000000E-002  3.0000000E-002 0.0
 -5.0000000E-002  3.5000000E-002 0.0
 -5.0000000E-002  4.0000000E-002 0.0
 -5.0000000E-002  4.5000000E-002 0.0
 -5.0000000E-002  5.0000000E-002 0.0
 -5.0000000E-002  5.5000000E-002 0.0
 -5.0000000E-002  6.0000000E-002 0.0
 -5.0000000E-002  6.5000000E-002 0.0
 -5.0000000E-002  7.0000000E-002 0.0
 -5.0000000E-002  7.5000000E-002 0.0
 -5.0000000E-002  8.0000000E-002 0.0
 -5.0000000E-002  8.5000000E-002 0.0
 -5.0000000E-002  9.0000000E-002 0.0
 -5.0000000E-002  9.5000000E-002 0.0
 -5.0000000E-002  1.0000000E-001 0.0
 -5.0000000E-002  1.0500000E-001 0.0
 -5.0000000E-002  1.1000000E-001 0.0
 -5.0000000E-002  1.2500000E-001 0.0
 -5.0000000E-002  1.3000000E-001 0.0
 -5.0000000E-002  1.3500000E-001 0.0
 -5.0000000E-002  1.4000000E-001 0.0
 -5.0000000E-002  1.4500000E-001 0.0
 -5.0000000E-002  1.5000000E-001 0.0
 -5.0000000E-002  1.5500000E-001 0.0
 -5.0000000E-002  1.6000000E-001 0.0
 -5.0000000E-002  1.6500000E-001 0.0
 -5.0000000E-002  1.7000000E-001 0.0
 -5.0000000E-002  1.7500000E-001 0.0
 -4.5000000E-002 -1.1000000E-001 0.0
 -4.5000000E-002 -1.0500000E-001 0.0
 -4.5000000E-002 -1.0000000E-001 0.0
 -4.5000000E-002 -9.5000000E-002 0.0
 -4.5000000E-002 -9.0000000E-002 0.0
 -4.5000000E-002 -8.5000000E-002 0.0
 -4.5000000E-002 -8.0000000E-002 0.0
 -4.5000000E-002 -7.5000000E-002 0.0
 -4.5000000E-002 -7.0000000E-002 0.0
 -4.5000000E-002 -6.5000000E-002 0.0
 -4.5000000E-002 -6.0000000E-002 0.0
 -4.5000000E-002 -5.5000000E-002 0.0
 -4.5000000E-002 -5.0000000E-002 0.0
 -4.5000000E-002 -4.5000000E-002 0.0
 -4.5000000E-002 -4.0000000E-002 0.0
 -4.5000000E-002 -3.5000000E-002 0.0
 -4.5000000E-002 -3.0000000E-002 0.0
 -4.5000000E-002 -2.5000000E-002 0.0
 -4.5000000E-002 -2.0000000E-002 0.0
 -4.5000000E-002 -1.5000000E-002 0.0
 -4.5000000E-002 -1.0000000E-002 0.0
 -4.5000000E-002 -5.0000000E-003 0.0
 -4.5000000E-002  0.0000000E+000 0.0
 -4.5000000E-002  5.0000000E-003 0.0
 -4.5000000E-002  1.0000000E-002 0.0
 -4.5000000E-002  1.5000000E-002 0.0
 -4.5000000E-002  2.0000000E-002 0.0
 -4.5000000E-002  2.5000000E-002 0.0
 -4.5000000E-002  3.0000000E-002 0.0
 -4.5000000E-002  3.5000000E-002 0.0
 -4.5000000E-002  4.0000000E-002 0.0
 -4.5000000E-002  4.5000000E-002 0.0
 -4.5000000E-002  5.0000000E-002 0.0
 -4.5000000E-002  5.5000000E-002 0.0
 -4.5000000E-002  6.0000000E-002 0.0
 -4.5000000E-002  6.5000000E-002 0.0
 -4.5000000E-002  7.0000000E-002 0.0
 -4.5000000E-002  7.5000000E-002 0.0
 -4.5000000E-002  8.0000000E-002 0.0
 -4.5000000E-002  8.5000000E-002 0.0
 -4.5000000E-002  9.0000000E-002 0.0
 -4.5000000E-002  9.5000000E-002 0.0
 -4.5000000E-002  1.0000000E-001 0.0
 -4.5000000E-002  1.0500000E-001 0.0
 -4.5000000E-002  1.1000000E-001 0.0
 -4.5000000E-002  1.2500000E-001 0.0
 -4.5000000E-002  1.3000000E-001 0.0
 -4.5000000E-002  1.3500000E-001 0.0
 -4.5000000E-002  1.4000000E-001 0.0
 -4.5000000E-002  1.4500000E-001 0.0
 -4.5000000E-002  1.5000000E-001 0.0
 -4.5000000E-002  1.5500000E-001 0.0
 -4.5000000E-002  1.6000000E-001 0.0
 -4.5000000E-002  1.6500000E-001 0.0
 -4.5000000E-002  1.7000000E-001 0.0
 -4.5000000E-002  1.7500000E-001 0.0
 -4.5000000E-002 -1.1500000E-001 0.0
 -4.0000000E-002 -1.1500000E-001 0.0
 -4.0000000E-002 -1.1000000E-001 0.0
 -4.0000000E-002 -1.0500000E-001 0.0
 -4.0000000E-002 -1.0000000E-001 0.0
 -4.0000000E-002 -9.5000000E-002 0.0
 -4.0000000E-002 -9.0000000E-002 0.0
 -4.0000000E-002 -8.5000000E-002 0.0
 -4.0000000E-002 -8.0000000E-002 0.0
 -4.0000000E-002 -7.5000000E-002 0.0
 -4.0000000E-002 -7.0000000E-002 0.0
 -4.0000000E-002 -6.5000000E-002 0.0
 -4.0000000E-002 -6.0000000E-002 0.0
 -4.0000000E-002 -5.5000000E-002 0.0
 -4.0000000E-002 -5.0000000E-002 0.0
 -4.0000000E-002 -4.5000000E-002 0.0
 -4.0000000E-002 -4.0000000E-002 0.0
 -4.0000000E-002 -3.5000000E-002 0.0
 -4.0000000E-002 -3.0000000E-002 0.0
 -4.0000000E-002 -2.5000000E-002 0.0
 -4.0000000E-002 -2.0000000E-002 0.0
 -4.0000000E-002 -1.5000000E-002 0.0
 -4.0000000E-002 -1.0000000E-002 0.0
 -4.0000000E-002 -5.0000000E-003 0.0
 -4.0000000E-002  0.0000000E+000 0.0
 -4.0000000E-002  5.0000000E-003 0.0
 -4.0000000E-002  1.0000000E-002 0.0
 -4.0000000E-002  1.5000000E-002 0.0
 -4.0000000E-002  2.0000000E-002 0.0
 -4.0000000E-002  2.5000000E-002 0.0
 -4.0000000E-002  3.0000000E-002 0.0
 -4.0000000E-002  3.5000000E-002 0.0
 -4.0000000E-002  4.0000000E-002 0.0
 -4.0000000E-002  4.5000000E-002 0.0
 -4.0000000E-002  5.0000000E-002 0.0
 -4.0000000E-002  5.5000000E-002 0.0
 -4.0000000E-002  6.0000000E-002 0.0
 -4.0000000E-002  6.5000000E-002 0.0
 -4.0000000E-002  7.0000000E-002 0.0
 -4.0000000E-002  7.5000000E-002 0.0
 -4.0000000E-002  8.0000000E-002 0.0
 -4.0000000E-002  8.5000000E-002 0.0
 -4.0000000E-002  9.0000000E-002 0.0
 -4.0000000E-002  9.5000000E-002 0.0
 -4.0000000E-002  1.0000000E-001 0.0
 -4.0000000E-002  1.0500000E-001 0.0
 -4.0000000E-002  1.2500000E-001 0.0
 -4.0000000E-002  1.3000000E-001 0.0
 -4.0000000E-002  1.3500000E-001 0.0
 -4.0000000E-002  1.4000000E-001 0.0
 -4.0000000E-002  1.4500000E-001 0.0
 -4.0000000E-002  1.5000000E-001 0.0
 -4.0000000E-002  1.5500000E-001 0.0
 -4.0000000E-002  1.6000000E-001 0.0
 -4.0000000E-002  1.6500000E-001 0.0
 -4.0000000E-002  1.7000000E-001 0.0
 -4.0000000E-002  1.7500000E-001 0.0
 -3.5000000E-002 -1.1500000E-001 0.0
 -3.5000000E-002 -1.1000000E-001 0.0
 -3.5000000E-002 -1.0500000E-001 0.0
 -3.5000000E-002 -1.0000000E-001 0.0
 -3.5000000E-002 -9.5000000E-002 0.0
 -3.5000000E-002 -9.0000000E-002 0.0
 -3.5000000E-002 -8.5000000E-002 0.0
 -3.5000000E-002 -8.0000000E-002 0.0
 -3.5000000E-002 -7.5000000E-002 0.0
 -3.5000000E-002 -7.0000000E-002 0.0
 -3.5000000E-002 -6.5000000E-002 0.0
 -3.5000000E-002 -6.0000000E-002 0.0
 -3.5000000E-002 -5.5000000E-002 0.0
 -3.5000000E-002 -5.0000000E-002 0.0
 -3.5000000E-002 -4.5000000E-002 0.0
 -3.5000000E-002 -4.0000000E-002 0.0
 -3.5000000E-002 -3.5000000E-002 0.0
 -3.5000000E-002 -3.0000000E-002 0.0
 -3.5000000E-002 -2.5000000E-002 0.0
 -3.5000000E-002 -2.0000000E-002 0.0
 -3.5000000E-002 -1.5000000E-002 0.0
 -3.5000000E-002 -1.0000000E-002 0.0
 -3.5000000E-002 -5.0000000E-003 0.0
 -3.5000000E-002  0.0000000E+000 0.0
 -3.5000000E-002  5.0000000E-003 0.0
 -3.5000000E-002  1.0000000E-002 0.0
 -3.5000000E-002  1.5000000E-002 0.0
 -3.5000000E-002  2.0000000E-002 0.0
 -3.5000000E-002  2.5000000E-002 0.0
 -3.5000000E-002  3.0000000E-002 0.0
 -3.5000000E-002  3.5000000E-002 0.0
 -3.5000000E-002  4.0000000E-002 0.0
 -3.5000000E-002  4.5000000E-002 0.0
 -3.5000000E-002  5.0000000E-002 0.0
 -3.5000000E-002  5.5000000E-002 0.0
 -3.5000000E-002  6.0000000E-002 0.0
 -3.5000000E-002  6.5000000E-002 0.0
 -3.5000000E-002  7.0000000E-002 0.0
 -3.5000000E-002  7.5000000E-002 0.0
 -3.5000000E-002  8.0000000E-002 0.0
 -3.5000000E-002  8.5000000E-002 0.0
 -3.5000000E-002  9.0000000E-002 0.0
 -3.5000000E-002  9.5000000E-002 0.0
 -3.5000000E-002  1.0000000E-001 0.0
 -3.5000000E-002  1.2500000E-001 0.0
 -3.5000000E-002  1.3000000E-001 0.0
 -3.5000000E-002  1.3500000E-001 0.0
 -3.5000000E-002  1.4000000E-001 0.0
 -3.5000000E-002  1.4500000E-001 0.0
 -3.5000000E-002  1.5000000E-001 0.0
 -3.5000000E-002  1.5500000E-001 0.0
 -3.5000000E-002  1.6000000E-001 0.0
 -3.5000000E-002  1.6500000E-001 0.0
 -3.5000000E-002  1.7000000E-001 0.0
 -3.5000000E-002  1.7500000E-001 0.0
 -3.0000000E-002 -1.1500000E-001 0.0
 -3.0000000E-002 -1.1000000E-001 0.0
 -3.0000000E-002 -1.0500000E-001 0.0
 -3.0000000E-002 -1.0000000E-001 0.0
 -3.0000000E-002 -9.5000000E-002 0.0
 -3.0000000E-002 -9.0000000E-002 0.0
 -3.0000000E-002 -8.5000000E-002 0.0
 -3.0000000E-002 -8.0000000E-002 0.0
 -3.0000000E-002 -7.5000000E-002 0.0
 -3.0000000E-002 -7.0000000E-002 0.0
 -3.0000000E-002 -6.5000000E-002 0.0
 -3.0000000E-002 -6.0000000E-002 0.0
 -3.0000000E-002 -5.5000000E-002 0.0
 -3.0000000E-002 -5.0000000E-002 0.0
 -3.0000000E-002 -4.5000000E-002 0.0
 -3.0000000E-002 -4.0000000E-002 0.0
 -3.0000000E-002 -3.5000000E-002 0.0
 -3.0000000E-002 -3.0000000E-002 0.0
 -3.0000000E-002 -2.5000000E-002 0.0
 -3.0000000E-002 -2.0000000E-002 0.0
 -3.0000000E-002 -1.5000000E-002 0.0
 -3.0000000E-002 -1.0000000E-002 0.0
 -3.0000000E-002 -5.0000000E-003 0.0
 -3.0000000E-002  0.0000000E+000 0.0
 -3.0000000E-002  5.0000000E-003 0.0
 -3.0000000E-002  1.0000000E-002 0.0
 -3.0000000E-002  1.5000000E-002 0.0
 -3.0000000E-002  2.0000000E-002 0.0
 -3.0000000E-002  2.5000000E-002 0.0
 -3.0000000E-002  3.0000000E-002 0.0
 -3.0000000E-002  3.5000000E-002 0.0
 -3.0000000E-002  4.0000000E-002 0.0
 -3.0000000E-002  4.5000000E-002 0.0
 -3.0000000E-002  5.0000000E-002 0.0
 -3.0000000E-002  5.5000000E-002 0.0
 -3.0000000E-002  6.0000000E-002 0.0
 -3.0000000E-002  6.5000000E-002 0.0
 -3.0000000E-002  7.0000000E-002 0.0
 -3.0000000E-002  7.5000000E-002 0.0
 -3.0000000E-002  8.0000000E-002 0.0
 -3.0000000E-002  8.5000000E-002 0.0
 -3.0000000E-002  9.0000000E-002 0.0
 -3.0000000E-002  9.5000000E-002 0.0
 -3.0000000E-002  1.2500000E-001 0.0
 -3.0000000E-002  1.3000000E-001 0.0
 -3.0000000E-002  1.3500000E-001 0.0
 -3.0000000E-002  1.4000000E-001 0.0
 -3.0000000E-002  1.4500000E-001 0.0
 -3.0000000E-002  1.5000000E-001 0.0
 -3.0000000E-002  1.5500000E-001 0.0
 -3.0000000E-002  1.6000000E-001 0.0
 -3.0000000E-002  1.6500000E-001 0.0
 -3.0000000E-002  1.7000000E-001 0.0
 -3.0000000E-002  1.7500000E-001 0.0
 -2.5000000E-002 -1.1500000E-001 0.0
 -2.5000000E-002 -1.1000000E-001 0.0
 -2.5000000E-002 -1.0500000E-001 0.0
 -2.5000000E-002 -1.0000000E-001 0.0
 -2.5000000E-002 -9.5000000E-002 0.0
 -2.5000000E-002 -9.0000000E-002 0.0
 -2.5000000E-002 -8.5000000E-002 0.0
 -2.5000000E-002 -8.0000000E-002 0.0
 -2.5000000E-002 -7.5000000E-002 0.0
 -2.5000000E-002 -7.0000000E-002 0.0
 -2.5000000E-002 -6.5000000E-002 0.0
 -2.5000000E-002 -6.0000000E-002 0.0
 -2.5000000E-002 -5.5000000E-002 0.0
 -2.5000000E-002 -5.0000000E-002 0.0
 -2.5000000E-002 -4.5000000E-002 0.0
 -2.5000000E-002 -4.0000000E-002 0.0
 -2.5000000E-002 -3.5000000E-002 0.0
 -2.5000000E-002 -3.0000000E-002 0.0
 -2.5000000E-002 -2.5000000E-002 0.0
 -2.5000000E-002 -2.0000000E-002 0.0
 -2.5000000E-002 -1.5000000E-002 0.0
 -2.5000000E-002 -1.0000000E-002 0.0
 -2.5000000E-002 -5.0000000E-003 0.0
 -2.5000000E-002  0.0000000E+000 0.0
 -2.5000000E-002  5.0000000E-003 0.0
 -2.5000000E-002  1.0000000E-002 0.0
 -2.5000000E-002  1.5000000E-002 0.0
 -2.5000000E-002  2.0000000E-002 0.0
 -2.5000000E-002  2.5000000E-002 0.0
 -2.5000000E-002  3.0000000E-002 0.0
 -2.5000000E-002  3.5000000E-002 0.0
 -2.5000000E-002  4.0000000E-002 0.0
 -2.5000000E-002  4.5000000E-002 0.0
 -2.5000000E-002  5.0000000E-002 0.0
 -2.5000000E-002  5.5000000E-002 0.0
 -2.5000000E-002  6.0000000E-002 0.0
 -2.5000000E-002  6.5000000E-002 0.0
 -2.5000000E-002  7.0000000E-002 0.0
 -2.5000000E-002  7.5000000E-002 0.0
 -2.5000000E-002  8.0000000E-002 0.0
 -2.5000000E-002  8.5000000E-002 0.0
 -2.5000000E-002  1.2500000E-001 0.0
 -2.5000000E-002  1.3000000E-001 0.0
 -2.5000000E-002  1.3500000E-001 0.0
 -2.5000000E-002  1.4000000E-001 0.0
 -2.5000000E-002  1.4500000E-001 0.0
 -2.5000000E-002  1.5000000E-001 0.0
 -2.5000000E-002  1.5500000E-001 0.0
 -2.5000000E-002  1.6000000E-001 0.0
 -2.5000000E-002  1.6500000E-001 0.0
 -2.5000000E-002  1.7000000E-001 0.0
 -2.5000000E-002  1.7500000E-001 0.0
 -2.0000000E-002 -1.1500000E-001 0.0
 -2.0000000E-002 -1.1000000E-001 0.0
 -2.0000000E-002 -1.0500000E-001 0.0
 -2.0000000E-002 -1.0000000E-001 0.0
 -2.0000000E-002 -9.5000000E-002 0.0
 -2.0000000E-002 -9.0000000E-002 0.0
 -2.0000000E-002 -8.5000000E-002 0.0
 -2.0000000E-002 -8.0000000E-002 0.0
 -2.0000000E-002 -7.5000000E-002 0.0
 -2.0000000E-002 -7.0000000E-002 0.0
 -2.0000000E-002 -6.5000000E-002 0.0
 -2.0000000E-002 -6.0000000E-002 0.0
 -2.0000000E-002 -5.5000000E-002 0.0
 -2.0000000E-002 -5.0000000E-002 0.0
 -2.0000000E-002 -4.5000000E-002 0.0
 -2.0000000E-002 -4.0000000E-002 0.0
 -2.0000000E-002 -3.5000000E-002 0.0
 -2.0000000E-002 -3.0000000E-002 0.0
 -2.0000000E-002 -2.5000000E-002 0.0
 -2.0000000E-002 -2.0000000E-002 0.0
 -2.0000000E-002 -1.5000000E-002 0.0
 -2.0000000E-002 -1.0000000E-002 0.0
 -2.0000000E-002  2.5000000E-002 0.0
 -2.0000000E-002  3.0000000E-002 0.0
 -2.0000000E-002  3.5000000E-002 0.0
 -2.0000000E-002  4.0000000E-002 0.0
 -2.0000000E-002  4.5000000E-002 0.0
 -2.0000000E-002  5.0000000E-002 0.0
 -2.0000000E-002  5.5000000E-002 0.0
 -2.0000000E-002  6.0000000E-002 0.0
 -2.0000000E-002  6.5000000E-002 0.0
 -2.0000000E-002  7.0000000E-002 0.0
 -2.0000000E-002  7.5000000E-002 0.0
 -2.0000000E-002  8.0000000E-002 0.0
 -2.5000000E-002  1.2000000E-001 0.0
 -2.0000000E-002  1.2000000E-001 0.0
 -2.0000000E-002  1.2500000E-001 0.0
 -2.0000000E-002  1.3000000E-001 0.0
 -2.0000000E-002  1.3500000E-001 0.0
 -2.0000000E-002  1.4000000E-001 0.0
 -2.0000000E-002  1.4500000E-001 0.0
 -2.0000000E-002  1.5000000E-001 0.0
 -2.0000000E-002  1.5500000E-001 0.0
 -2.0000000E-002  1.6000000E-001 0.0
 -2.0000000E-002  1.6500000E-001 0.0
 -2.0000000E-002  1.7000000E-001 0.0
 -2.0000000E-002  1.7500000E-001 0.0
 -1.5000000E-002 -1.1500000E-001 0.0
 -1.5000000E-002 -1.1000000E-001 0.0
 -1.5000000E-002 -1.0500000E-001 0.0
 -1.5000000E-002 -1.0000000E-001 0.0
 -1.5000000E-002 -9.5000000E-002 0.0
 -1.5000000E-002 -9.0000000E-002 0.0
 -1.5000000E-002 -8.5000000E-002 0.0
 -1.5000000E-002 -8.0000000E-002 0.0
 -1.5000000E-002 -7.5000000E-002 0.0
 -1.5000000E-002 -7.0000000E-002 0.0
 -1.5000000E-002 -6.5000000E-002 0.0
 -1.5000000E-002 -6.0000000E-002 0.0
 -1.5000000E-002 -5.5000000E-002 0.0
 -1.5000000E-002 -5.0000000E-002 0.0
 -1.5000000E-002 -4.5000000E-002 0.0
 -1.5000000E-002 -4.0000000E-002 0.0
 -1.5000000E-002 -3.5000000E-002 0.0
 -1.5000000E-002 -3.0000000E-002 0.0
 -1.5000000E-002 -2.5000000E-002 0.0
 -1.5000000E-002 -2.0000000E-002 0.0
 -1.5000000E-002 -1.5000000E-002 0.0
 -1.5000000E-002  1.2000000E-001 0.0
 -1.5000000E-002  1.2500000E-001 0.0
 -1.5000000E-002  1.3000000E-001 0.0
 -1.5000000E-002  1.3500000E-001 0.0
 -1.5000000E-002  1.4000000E-001 0.0
 -1.5000000E-002  1.4500000E-001 0.0
 -1.5000000E-002  1.5000000E-001 0.0
 -1.5000000E-002  1.5500000E-001 0.0
 -1.5000000E-002  1.6000000E-001 0.0
 -1.5000000E-002  1.6500000E-001 0.0
 -1.5000000E-002  1.7000000E-001 0.0
 -1.5000000E-002  1.7500000E-001 0.0
 -1.0000000E-002 -1.1500000E-001 0.0
 -1.0000000E-002 -1.1000000E-001 0.0
 -1.0000000E-002 -1.0500000E-001 0.0
 -1.0000000E-002 -1.0000000E-001 0.0
 -1.0000000E-002 -9.5000000E-002 0.0
 -1.0000000E-002 -9.0000000E-002 0.0
 -1.0000000E-002 -8.5000000E-002 0.0
 -1.0000000E-002 -8.0000000E-002 0.0
 -1.0000000E-002 -7.5000000E-002 0.0
 -1.0000000E-002 -7.0000000E-002 0.0
 -1.0000000E-002 -6.5000000E-002 0.0
 -1.0000000E-002 -6.0000000E-002 0.0
 -1.0000000E-002 -5.5000000E-002 0.0
 -1.0000000E-002 -5.0000000E-002 0.0
 -1.0000000E-002 -4.5000000E-002 0.0
 -1.0000000E-002 -4.0000000E-002 0.0
 -1.0000000E-002 -3.5000000E-002 0.0
 -1.0000000E-002 -3.0000000E-002 0.0
 -1.0000000E-002 -2.5000000E-002 0.0
 -1.0000000E-002  1.2000000E-001 0.0
 -1.0000000E-002  1.2500000E-001 0.0
 -1.0000000E-002  1.3000000E-001 0.0
 -1.0000000E-002  1.3500000E-001 0.0
 -1.0000000E-002  1.4000000E-001 0.0
 -1.0000000E-002  1.4500000E-001 0.0
 -1.0000000E-002  1.5000000E-001 0.0
 -1.0000000E-002  1.5500000E-001 0.0
 -1.0000000E-002  1.6000000E-001 0.0
 -1.0000000E-002  1.6500000E-001 0.0
 -1.0000000E-002  1.7000000E-001 0.0
 -1.0000000E-002  1.7500000E-001 0.0
 -5.0000000E-003 -1.1500000E-001 0.0
 -5.0000000E-003 -1.1000000E-001 0.0
 -5.0000000E-003 -1.0500000E-001 0.0
 -5.0000000E-003 -1.0000000E-001 0.0
 -5.0000000E-003 -9.5000000E-002 0.0
 -5.0000000E-003 -9.0000000E-002 0.0
 -5.0000000E-003 -8.5000000E-002 0.0
 -5.0000000E-003 -8.0000000E-002 0.0
 -5.0000000E-003 -7.5000000E-002 0.0
 -5.0000000E-003 -7.0000000E-002 0.0
 -5.0000000E-003 -6.5000000E-002 0.0
 -5.0000000E-003 -6.0000000E-002 0.0
 -5.0000000E-003 -5.5000000E-002 0.0
 -5.0000000E-003 -5.0000000E-002 0.0
 -5.0000000E-003 -4.5000000E-002 0.0
 -5.0000000E-003 -4.0000000E-002 0.0
 -5.0000000E-003 -3.5000000E-002 0.0
 -5.0000000E-003 -3.0000000E-002 0.0
 -5.0000000E-003  1.2000000E-001 0.0
 -5.0000000E-003  1.2500000E-001 0.0
 -5.0000000E-003  1.3000000E-001 0.0
 -5.0000000E-003  1.3500000E-001 0.0
 -5.0000000E-003  1.4000000E-001 0.0
 -5.0000000E-003  1.4500000E-001 0.0
 -5.0000000E-003  1.5000000E-001 0.0
 -5.0000000E-003  1.5500000E-001 0.0
 -5.0000000E-003  1.6000000E-001 0.0
 -5.0000000E-003  1.6500000E-001 0.0
 -5.0000000E-003  1.7000000E-001 0.0
 -5.0000000E-003  1.7500000E-001 0.0
  0.0000000E+000 -1.1000000E-001 0.0
  0.0000000E+000 -1.0500000E-001 0.0
  0.0000000E+000 -1.0000000E-001 0.0
  0.0000000E+000 -9.5000000E-002 0.0
  0.0000000E+000 -9.0000000E-002 0.0
  0.0000000E+000 -8.5000000E-002 0.0
  0.0000000E+000 -8.0000000E-002 0.0
  0.0000000E+000 -7.5000000E-002 0.0
  0.0000000E+000 -7.0000000E-002 0.0
  0.0000000E+000 -6.5000000E-002 0.0
  0.0000000E+000 -6.0000000E-002 0.0
  0.0000000E+000 -5.5000000E-002 0.0
  0.0000000E+000 -5.0000000E-002 0.0
  0.0000000E+000 -4.5000000E-002 0.0
  0.0000000E+000 -4.0000000E-002 0.0
  0.0000000E+000 -3.5000000E-002 0.0
 -5.0000000E-003  1.1500000E-001 0.0
  0.0000000E+000  1.1500000E-001 0.0
  0.0000000E+000  1.2000000E-001 0.0
  0.0000000E+000  1.2500000E-001 0.0
  0.0000000E+000  1.3000000E-001 0.0
  0.0000000E+000  1.3500000E-001 0.0
  0.0000000E+000  1.4000000E-001 0.0
  0.0000000E+000  1.4500000E-001 0.0
  0.0000000E+000  1.5000000E-001 0.0
  0.0000000E+000  1.5500000E-001 0.0
  0.0000000E+000  1.6000000E-001 0.0
  0.0000000E+000  1.6500000E-001 0.0
  0.0000000E+000  1.7000000E-001 0.0
  0.0000000E+000  1.7500000E-001 0.0
  5.0000000E-003 -1.1000000E-001 0.0
  5.0000000E-003 -1.0500000E-001 0.0
  5.0000000E-003 -1.0000000E-001 0.0
  5.0000000E-003 -9.5000000E-002 0.0
  5.0000000E-003 -9.0000000E-002 0.0
  5.0000000E-003 -8.5000000E-002 0.0
  5.0000000E-003 -8.0000000E-002 0.0
  5.0000000E-003 -7.5000000E-002 0.0
  5.0000000E-003 -7.0000000E-002 0.0
  5.0000000E-003 -6.5000000E-002 0.0
  5.0000000E-003 -6.0000000E-002 0.0
  5.0000000E-003 -5.5000000E-002 0.0
  5.0000000E-003 -5.0000000E-002 0.0
  5.0000000E-003 -4.5000000E-002 0.0
  5.0000000E-003  1.1500000E-001 0.0
  5.0000000E-003  1.2000000E-001 0.0
  5.0000000E-003  1.2500000E-001 0.0
  5.0000000E-003  1.3000000E-001 0.0
  5.0000000E-003  1.3500000E-001 0.0
  5.0000000E-003  1.4000000E-001 0.0
  5.0000000E-003  1.4500000E-001 0.0
  5.0000000E-003  1.5000000E-001 0.0
  5.0000000E-003  1.5500000E-001 0.0
  5.0000000E-003  1.6000000E-001 0.0
  5.0000000E-003  1.6500000E-001 0.0
  5.0000000E-003  1.7000000E-001 0.0
  1.0000000E-002 -1.1000000E-001 0.0
  1.0000000E-002 -1.0500000E-001 0.0
  1.0000000E-002 -1.0000000E-001 0.0
  1.0000000E-002 -9.5000000E-002 0.0
  1.0000000E-002 -9.0000000E-002 0.0
  1.0000000E-002 -8.5000000E-002 0.0
  1.0000000E-002 -8.0000000E-002 0.0
  1.0000000E-002 -7.5000000E-002 0.0
  1.0000000E-002 -7.0000000E-002 0.0
  1.0000000E-002 -6.5000000E-002 0.0
  1.0000000E-002 -6.0000000E-002 0.0
  1.0000000E-002 -5.5000000E-002 0.0
  1.0000000E-002 -5.0000000E-002 0.0
  1.0000000E-002  1.1500000E-001 0.0
  1.0000000E-002  1.2000000E-001 0.0
  1.0000000E-002  1.2500000E-001 0.0
  1.0000000E-002  1.3000000E-001 0.0
  1.0000000E-002  1.3500000E-001 0.0
  1.0000000E-002  1.4000000E-001 0.0
  1.0000000E-002  1.4500000E-001 0.0
  1.0000000E-002  1.5000000E-001 0.0
  1.0000000E-002  1.5500000E-001 0.0
  1.0000000E-002  1.6000000E-001 0.0
  1.0000000E-002  1.6500000E-001 0.0
  1.0000000E-002  1.7000000E-001 0.0
  1.5000000E-002 -1.1000000E-001 0.0
  1.5000000E-002 -1.0500000E-001 0.0
  1.5000000E-002 -1.0000000E-001 0.0
  1.5000000E-002 -9.5000000E-002 0.0
  1.5000000E-002 -9.0000000E-002 0.0
  1.5000000E-002 -8.5000000E-002 0.0
  1.5000000E-002 -8.0000000E-002 0.0
  1.5000000E-002 -7.5000000E-002 0.0
  1.5000000E-002 -7.0000000E-002 0.0
  1.5000000E-002 -6.5000000E-002 0.0
  1.5000000E-002 -6.0000000E-002 0.0
  1.5000000E-002 -5.5000000E-002 0.0
  1.5000000E-002  1.1500000E-001 0.0
  1.5000000E-002  1.2000000E-001 0.0
  1.5000000E-002  1.2500000E-001 0.0
  1.5000000E-002  1.3000000E-001 0.0
  1.5000000E-002  1.3500000E-001 0.0
  1.5000000E-002  1.4000000E-001 0.0
  1.5000000E-002  1.4500000E-001 0.0
  1.5000000E-002  1.5000000E-001 0.0
  1.5000000E-002  1.5500000E-001 0.0
  1.5000000E-002  1.6000000E-001 0.0
  1.5000000E-002  1.6500000E-001 0.0
  1.5000000E-002  1.7000000E-001 0.0
  2.0000000E-002 -1.1000000E-001 0.0
  2.0000000E-002 -1.0500000E-001 0.0
  2.0000000E-002 -1.0000000E-001 0.0
  2.0000000E-002 -9.5000000E-002 0.0
  2.0000000E-002 -9.0000000E-002 0.0
  2.0000000E-002 -8.5000000E-002 0.0
  2.0000000E-002 -8.0000000E-002 0.0
  2.0000000E-002 -7.5000000E-002 0.0
  2.0000000E-002 -7.0000000E-002 0.0
  2.0000000E-002 -6.5000000E-002 0.0
  2.0000000E-002 -6.0000000E-002 0.0
  2.0000000E-002  1.1500000E-001 0.0
  2.0000000E-002  1.2000000E-001 0.0
  2.0000000E-002  1.2500000E-001 0.0
  2.0000000E-002  1.3000000E-001 0.0
  2.0000000E-002  1.3500000E-001 0.0
  2.0000000E-002  1.4000000E-001 0.0
  2.0000000E-002  1.4500000E-001 0.0
  2.0000000E-002  1.5000000E-001 0.0
  2.0000000E-002  1.5500000E-001 0.0
  2.0000000E-002  1.6000000E-001 0.0
  2.0000000E-002  1.6500000E-001 0.0
  2.0000000E-002  1.7000000E-001 0.0
  2.5000000E-002 -1.1000000E-001 0.0
  2.5000000E-002 -1.0500000E-001 0.0
  2.5000000E-002 -1.0000000E-001 0.0
  2.5000000E-002 -9.5000000E-002 0.0
  2.5000000E-002 -9.0000000E-002 0.0
  2.5000000E-002 -8.5000000E-002 0.0
  2.5000000E-002 -8.0000000E-002 0.0
  2.5000000E-002 -7.5000000E-002 0.0
  2.5000000E-002 -7.0000000E-002 0.0
  2.5000000E-002 -6.5000000E-002 0.0
  2.5000000E-002 -6.0000000E-002 0.0
  2.5000000E-002  1.1500000E-001 0.0
  2.5000000E-002  1.2000000E-001 0.0
  2.5000000E-002  1.2500000E-001 0.0
  2.5000000E-002  1.3000000E-001 0.0
  2.5000000E-002  1.3500000E-001 0.0
  2.5000000E-002  1.4000000E-001 0.0
  2.5000000E-002  1.4500000E-001 0.0
  2.5000000E-002  1.5000000E-001 0.0
  2.5000000E-002  1.5500000E-001 0.0
  2.5000000E-002  1.6000000E-001 0.0
  2.5000000E-002  1.6500000E-001 0.0
  2.5000000E-002  1.7000000E-001 0.0
  2.5000000E-002 -1.1500000E-001 0.0
  3.0000000E-002 -1.1500000E-001 0.0
  3.0000000E-002 -1.1000000E-001 0.0
  3.0000000E-002 -1.0500000E-001 0.0
  3.0000000E-002 -1.0000000E-001 0.0
  3.0000000E-002 -9.5000000E-002 0.0
  3.0000000E-002 -9.0000000E-002 0.0
  3.0000000E-002 -8.5000000E-002 0.0
  3.0000000E-002 -8.0000000E-002 0.0
  3.0000000E-002 -7.5000000E-002 0.0
  3.0000000E-002 -7.0000000E-002 0.0
  3.0000000E-002 -6.5000000E-002 0.0
  3.0000000E-002 -6.0000000E-002 0.0
  2.5000000E-002  1.1000000E-001 0.0
  3.0000000E-002  1.1000000E-001 0.0
  3.0000000E-002  1.1500000E-001 0.0
  3.0000000E-002  1.2000000E-001 0.0
  3.0000000E-002  1.2500000E-001 0.0
  3.0000000E-002  1.3000000E-001 0.0
  3.0000000E-002  1.3500000E-001 0.0
  3.0000000E-002  1.4000000E-001 0.0
  3.0000000E-002  1.4500000E-001 0.0
  3.0000000E-002  1.5000000E-001 0.0
  3.0000000E-002  1.5500000E-001 0.0
  3.0000000E-002  1.6000000E-001 0.0
  3.0000000E-002  1.6500000E-001 0.0
  3.0000000E-002  1.7000000E-001 0.0
  3.5000000E-002 -1.1500000E-001 0.0
  3.5000000E-002 -1.1000000E-001 0.0
  3.5000000E-002 -1.0500000E-001 0.0
  3.5000000E-002 -1.0000000E-001 0.0
  3.5000000E-002 -9.5000000E-002 0.0
  3.5000000E-002 -9.0000000E-002 0.0
  3.5000000E-002 -8.5000000E-002 0.0
  3.5000000E-002 -8.0000000E-002 0.0
  3.5000000E-002 -7.5000000E-002 0.0
  3.5000000E-002 -7.0000000E-002 0.0
  3.5000000E-002 -6.5000000E-002 0.0
  3.5000000E-002 -6.0000000E-002 0.0
  3.5000000E-002  1.1000000E-001 0.0
  3.5000000E-002  1.1500000E-001 0.0
  3.5000000E-002  1.2000000E-001 0.0
  3.5000000E-002  1.2500000E-001 0.0
  3.5000000E-002  1.3000000E-001 0.0
  3.5000000E-002  1.3500000E-001 0.0
  3.5000000E-002  1.4000000E-001 0.0
  3.5000000E-002  1.4500000E-001 0.0
  3.5000000E-002  1.5000000E-001 0.0
  3.5000000E-002  1.5500000E-001 0.0
  3.5000000E-002  1.6000000E-001 0.0
  3.5000000E-002  1.6500000E-001 0.0
  3.5000000E-002  1.7000000E-001 0.0
  4.0000000E-002 -1.1500000E-001 0.0
  4.0000000E-002 -1.1000000E-001 0.0
  4.0000000E-002 -1.0500000E-001 0.0
  4.0000000E-002 -1.0000000E-001 0.0
  4.0000000E-002 -9.5000000E-002 0.0
  4.0000000E-002 -9.0000000E-002 0.0
  4.0000000E-002 -8.5000000E-002 0.0
  4.0000000E-002 -8.0000000E-002 0.0
  4.0000000E-002 -7.5000000E-002 0.0
  4.0000000E-002 -7.0000000E-002 0.0
  4.0000000E-002 -6.5000000E-002 0.0
  4.0000000E-002 -6.0000000E-002 0.0
  4.0000000E-002  1.1000000E-001 0.0
  4.0000000E-002  1.1500000E-001 0.0
  4.0000000E-002  1.2000000E-001 0.0
  4.0000000E-002  1.2500000E-001 0.0
  4.0000000E-002  1.3000000E-001 0.0
  4.0000000E-002  1.3500000E-001 0.0
  4.0000000E-002  1.4000000E-001 0.0
  4.0000000E-002  1.4500000E-001 0.0
  4.0000000E-002  1.5000000E-001 0.0
  4.0000000E-002  1.5500000E-001 0.0
  4.0000000E-002  1.6000000E-001 0.0
  4.0000000E-002  1.6500000E-001 0.0
  4.0000000E-002  1.7000000E-001 0.0
  4.5000000E-002 -1.1000000E-001 0.0
  4.5000000E-002 -1.0500000E-001 0.0
  4.5000000E-002 -1.0000000E-001 0.0
  4.5000000E-002 -9.5000000E-002 0.0
  4.5000000E-002 -9.0000000E-002 0.0
  4.5000000E-002 -8.5000000E-002 0.0
  4.5000000E-002 -8.0000000E-002 0.0
  4.5000000E-002 -7.5000000E-002 0.0
  4.5000000E-002 -7.0000000E-002 0.0
  4.5000000E-002 -6.5000000E-002 0.0
  4.5000000E-002  1.1000000E-001 0.0
  4.5000000E-002  1.1500000E-001 0.0
  4.5000000E-002  1.2000000E-001 0.0
  4.5000000E-002  1.2500000E-001 0.0
  4.5000000E-002  1.3000000E-001 0.0
  4.5000000E-002  1.3500000E-001 0.0
  4.5000000E-002  1.4000000E-001 0.0
  4.5000000E-002  1.4500000E-001 0.0
  4.5000000E-002  1.5000000E-001 0.0
  4.5000000E-002  1.5500000E-001 0.0
  4.5000000E-002  1.6000000E-001 0.0
  4.5000000E-002  1.6500000E-001 0.0
  4.5000000E-002  1.7000000E-001 0.0
  5.0000000E-002 -1.1000000E-001 0.0
  5.0000000E-002 -1.0500000E-001 0.0
  5.0000000E-002 -1.0000000E-001 0.0
  5.0000000E-002 -9.5000000E-002 0.0
  5.0000000E-002 -9.0000000E-002 0.0
  5.0000000E-002 -8.5000000E-002 0.0
  5.0000000E-002 -8.0000000E-002 0.0
  5.0000000E-002 -7.5000000E-002 0.0
  5.0000000E-002 -7.0000000E-002 0.0
  5.0000000E-002 -6.5000000E-002 0.0
  5.0000000E-002  1.1000000E-001 0.0
  5.0000000E-002  1.1500000E-001 0.0
  5.0000000E-002  1.2000000E-001 0.0
  5.0000000E-002  1.2500000E-001 0.0
  5.0000000E-002  1.3000000E-001 0.0
  5.0000000E-002  1.3500000E-001 0.0
  5.0000000E-002  1.4000000E-001 0.0
  5.0000000E-002  1.4500000E-001 0.0
  5.0000000E-002  1.5000000E-001 0.0
  5.0000000E-002  1.5500000E-001 0.0
  5.0000000E-002  1.6000000E-001 0.0
  5.0000000E-002  1.6500000E-001 0.0
  5.0000000E-002  1.7000000E-001 0.0
  5.5000000E-002 -1.1000000E-001 0.0
  5.5000000E-002 -1.0500000E-001 0.0
  5.5000000E-002 -1.0000000E-001 0.0
  5.5000000E-002 -9.5000000E-002 0.0
  5.5000000E-002 -9.0000000E-002 0.0
  5.5000000E-002 -8.5000000E-002 0.0
  5.5000000E-002 -8.0000000E-002 0.0
  5.5000000E-002 -7.5000000E-002 0.0
  5.5000000E-002 -7.0000000E-002 0.0
  5.5000000E-002 -6.5000000E-002 0.0
  5.5000000E-002  1.1000000E-001 0.0
  5.5000000E-002  1.1500000E-001 0.0
  5.5000000E-002  1.2000000E-001 0.0
  5.5000000E-002  1.2500000E-001 0.0
  5.5000000E-002  1.3000000E-001 0.0
  5.5000000E-002  1.3500000E-001 0.0
  5.5000000E-002  1.4000000E-001 0.0
  5.5000000E-002  1.4500000E-001 0.0
  5.5000000E-002  1.5000000E-001 0.0
  5.5000000E-002  1.5500000E-001 0.0
  5.5000000E-002  1.6000000E-001 0.0
  5.5000000E-002  1.6500000E-001 0.0
  5.5000000E-002  1.7000000E-001 0.0
  6.0000000E-002 -1.1000000E-001 0.0
  6.0000000E-002 -1.0500000E-001 0.0
  6.0000000E-002 -1.0000000E-001 0.0
  6.0000000E-002 -9.5000000E-002 0.0
  6.0000000E-002 -9.0000000E-002 0.0
  6.0000000E-002 -8.5000000E-002 0.0
  6.0000000E-002 -8.0000000E-002 0.0
  6.0000000E-002 -7.5000000E-002 0.0
  6.0000000E-002 -7.0000000E-002 0.0
  6.0000000E-002 -6.5000000E-002 0.0
  6.0000000E-002  1.1000000E-001 0.0
  6.0000000E-002  1.1500000E-001 0.0
  6.0000000E-002  1.2000000E-001 0.0
  6.0000000E-002  1.2500000E-001 0.0
  6.0000000E-002  1.3000000E-001 0.0
  6.0000000E-002  1.3500000E-001 0.0
  6.0000000E-002  1.4000000E-001 0.0
  6.0000000E-002  1.4500000E-001 0.0
  6.0000000E-002  1.5000000E-001 0.0
  6.0000000E-002  1.5500000E-001 0.0
  6.0000000E-002  1.6000000E-001 0.0
  6.0000000E-002  1.6500000E-001 0.0
  6.0000000E-002  1.7000000E-001 0.0
  6.5000000E-002 -1.1000000E-001 0.0
  6.5000000E-002 -1.0500000E-001 0.0
  6.5000000E-002 -1.0000000E-001 0.0
  6.5000000E-002 -9.5000000E-002 0.0
  6.5000000E-002 -9.0000000E-002 0.0
  6.5000000E-002 -8.5000000E-002 0.0
  6.5000000E-002 -8.0000000E-002 0.0
  6.5000000E-002 -7.5000000E-002 0.0
  6.5000000E-002 -7.0000000E-002 0.0
  6.5000000E-002 -6.5000000E-002 0.0
  6.0000000E-002  1.0500000E-001 0.0
  6.5000000E-002  1.0500000E-001 0.0
  6.5000000E-002  1.1000000E-001 0.0
  6.5000000E-002  1.1500000E-001 0.0
  6.5000000E-002  1.2000000E-001 0.0
  6.5000000E-002  1.2500000E-001 0.0
  6.5000000E-002  1.3000000E-001 0.0
  6.5000000E-002  1.3500000E-001 0.0
  6.5000000E-002  1.4000000E-001 0.0
  6.5000000E-002  1.4500000E-001 0.0
  6.5000000E-002  1.5000000E-001 0.0
  6.5000000E-002  1.5500000E-001 0.0
  6.5000000E-002  1.6000000E-001 0.0
  6.5000000E-002  1.6500000E-001 0.0
  6.5000000E-002  1.7000000E-001 0.0
  7.0000000E-002 -1.1000000E-001 0.0
  7.0000000E-002 -1.0500000E-001 0.0
  7.0000000E-002 -1.0000000E-001 0.0
  7.0000000E-002 -9.5000000E-002 0.0
  7.0000000E-002 -9.0000000E-002 0.0
  7.0000000E-002 -8.5000000E-002 0.0
  7.0000000E-002 -8.0000000E-002 0.0
  7.0000000E-002 -7.5000000E-002 0.0
  7.0000000E-002 -7.0000000E-002 0.0
  7.0000000E-002 -6.5000000E-002 0.0
  7.0000000E-002  1.0500000E-001 0.0
  7.0000000E-002  1.1000000E-001 0.0
  7.0000000E-002  1.1500000E-001 0.0
  7.0000000E-002  1.2000000E-001 0.0
  7.0000000E-002  1.2500000E-001 0.0
  7.0000000E-002  1.3000000E-001 0.0
  7.0000000E-002  1.3500000E-001 0.0
  7.0000000E-002  1.4000000E-001 0.0
  7.0000000E-002  1.4500000E-001 0.0
  7.0000000E-002  1.5000000E-001 0.0
  7.0000000E-002  1.5500000E-001 0.0
  7.0000000E-002  1.6000000E-001 0.0
  7.0000000E-002  1.6500000E-001 0.0
  7.0000000E-002  1.7000000E-001 0.0
  7.5000000E-002 -1.1000000E-001 0.0
  7.5000000E-002 -1.0500000E-001 0.0
  7.5000000E-002 -1.0000000E-001 0.0
  7.5000000E-002 -9.5000000E-002 0.0
  7.5000000E-002 -9.0000000E-002 0.0
  7.5000000E-002 -8.5000000E-002 0.0
  7.5000000E-002 -8.0000000E-002 0.0
  7.5000000E-002 -7.5000000E-002 0.0
  7.5000000E-002 -7.0000000E-002 0.0
  7.5000000E-002 -6.5000000E-002 0.0
  7.5000000E-002  1.0500000E-001 0.0
  7.5000000E-002  1.1000000E-001 0.0
  7.5000000E-002  1.1500000E-001 0.0
  7.5000000E-002  1.2000000E-001 0.0
  7.5000000E-002  1.2500000E-001 0.0
  7.5000000E-002  1.3000000E-001 0.0
  7.5000000E-002  1.3500000E-001 0.0
  7.5000000E-002  1.4000000E-001 0.0
  7.5000000E-002  1.4500000E-001 0.0
  7.5000000E-002  1.5000000E-001 0.0
  7.5000000E-002  1.5500000E-001 0.0
  7.5000000E-002  1.6000000E-001 0.0
  7.5000000E-002  1.6500000E-001 0.0
  7.5000000E-002  1.7000000E-001 0.0
  8.0000000E-002 -1.1000000E-001 0.0
  8.0000000E-002 -1.0500000E-001 0.0
  8.0000000E-002 -1.0000000E-001 0.0
  8.0000000E-002 -9.5000000E-002 0.0
  8.0000000E-002 -9.0000000E-002 0.0
  8.0000000E-002 -8.5000000E-002 0.0
  8.0000000E-002 -8.0000000E-002 0.0
  8.0000000E-002 -7.5000000E-002 0.0
  8.0000000E-002 -7.0000000E-002 0.0
  8.0000000E-002 -6.5000000E-002 0.0
  8.0000000E-002  1.0500000E-001 0.0
  8.0000000E-002  1.1000000E-001 0.0
  8.0000000E-002  1.1500000E-001 0.0
  8.0000000E-002  1.2000000E-001 0.0
  8.0000000E-002  1.2500000E-001 0.0
  8.0000000E-002  1.3000000E-001 0.0
  8.0000000E-002  1.3500000E-001 0.0
  8.0000000E-002  1.4000000E-001 0.0
  8.0000000E-002  1.4500000E-001 0.0
  8.0000000E-002  1.5000000E-001 0.0
  8.0000000E-002  1.5500000E-001 0.0
  8.0000000E-002  1.6000000E-001 0.0
  8.0000000E-002  1.6500000E-001 0.0
  8.0000000E-002  1.7000000E-001 0.0
  8.5000000E-002 -1.1000000E-001 0.0
  8.5000000E-002 -1.0500000E-001 0.0
  8.5000000E-002 -1.0000000E-001 0.0
  8.5000000E-002 -9.5000000E-002 0.0
  8.5000000E-002 -9.0000000E-002 0.0
  8.5000000E-002 -8.5000000E-002 0.0
  8.5000000E-002 -8.0000000E-002 0.0
  8.5000000E-002 -7.5000000E-002 0.0
  8.5000000E-002 -7.0000000E-002 0.0
  8.5000000E-002 -6.5000000E-002 0.0
  8.5000000E-002 -6.0000000E-002 0.0
  8.0000000E-002 -6.0000000E-002 0.0
  8.5000000E-002  1.0500000E-001 0.0
  8.5000000E-002  1.1000000E-001 0.0
  8.5000000E-002  1.1500000E-001 0.0
  8.5000000E-002  1.2000000E-001 0.0
  8.5000000E-002  1.2500000E-001 0.0
  8.5000000E-002  1.3000000E-001 0.0
  8.5000000E-002  1.3500000E-001 0.0
  8.5000000E-002  1.4000000E-001 0.0
  8.5000000E-002  1.4500000E-001 0.0
  8.5000000E-002  1.5000000E-001 0.0
  8.5000000E-002  1.5500000E-001 0.0
  8.5000000E-002  1.6000000E-001 0.0
  8.5000000E-002  1.6500000E-001 0.0
  8.5000000E-002  1.7000000E-001 0.0
  9.0000000E-002 -1.1000000E-001 0.0
  9.0000000E-002 -1.0500000E-001 0.0
  9.0000000E-002 -1.0000000E-001 0.0
  9.0000000E-002 -9.5000000E-002 0.0
  9.0000000E-002 -9.0000000E-002 0.0
  9.0000000E-002 -8.5000000E-002 0.0
  9.0000000E-002 -8.0000000E-002 0.0
  9.0000000E-002 -7.5000000E-002 0.0
  9.0000000E-002 -7.0000000E-002 0.0
  9.0000000E-002 -6.5000000E-002 0.0
  9.0000000E-002 -6.0000000E-002 0.0
  9.0000000E-002  1.0500000E-001 0.0
  9.0000000E-002  1.1000000E-001 0.0
  9.0000000E-002  1.1500000E-001 0.0
  9.0000000E-002  1.2000000E-001 0.0
  9.0000000E-002  1.2500000E-001 0.0
  9.0000000E-002  1.3000000E-001 0.0
  9.0000000E-002  1.3500000E-001 0.0
  9.0000000E-002  1.4000000E-001 0.0
  9.0000000E-002  1.4500000E-001 0.0
  9.0000000E-002  1.5000000E-001 0.0
  9.0000000E-002  1.5500000E-001 0.0
  9.0000000E-002  1.6000000E-001 0.0
  9.0000000E-002  1.6500000E-001 0.0
  9.0000000E-002  1.7000000E-001 0.0
  9.5000000E-002 -1.1000000E-001 0.0
  9.5000000E-002 -1.0500000E-001 0.0
  9.5000000E-002 -1.0000000E-001 0.0
  9.5000000E-002 -9.5000000E-002 0.0
  9.5000000E-002 -9.0000000E-002 0.0
  9.5000000E-002 -8.5000000E-002 0.0
  9.5000000E-002 -8.0000000E-002 0.0
  9.5000000E-002 -7.5000000E-002 0.0
  9.5000000E-002 -7.0000000E-002 0.0
  9.5000000E-002 -6.5000000E-002 0.0
  9.5000000E-002 -6.0000000E-002 0.0
  9.0000000E-002  1.0000000E-001 0.0
  9.5000000E-002  1.0000000E-001 0.0
  9.5000000E-002  1.0500000E-001 0.0
  9.5000000E-002  1.1000000E-001 0.0
  9.5000000E-002  1.1500000E-001 0.0
  9.5000000E-002  1.2000000E-001 0.0
  9.5000000E-002  1.2500000E-001 0.0
  9.5000000E-002  1.3000000E-001 0.0
  9.5000000E-002  1.3500000E-001 0.0
  9.5000000E-002  1.4000000E-001 0.0
  9.5000000E-002  1.4500000E-001 0.0
  9.5000000E-002  1.5000000E-001 0.0
  9.5000000E-002  1.5500000E-001 0.0
  9.5000000E-002  1.6000000E-001 0.0
  9.5000000E-002  1.6500000E-001 0.0
  9.5000000E-002  1.7000000E-001 0.0
  1.0000000E-001 -1.1000000E-001 0.0
  1.0000000E-001 -1.0500000E-001 0.0
  1.0000000E-001 -1.0000000E-001 0.0
  1.0000000E-001 -9.5000000E-002 0.0
  1.0000000E-001 -9.0000000E-002 0.0
  1.0000000E-001 -8.5000000E-002 0.0
  1.0000000E-001 -8.0000000E-002 0.0
  1.0000000E-001 -7.5000000E-002 0.0
  1.0000000E-001 -7.0000000E-002 0.0
  1.0000000E-001 -6.5000000E-002 0.0
  1.0000000E-001 -6.0000000E-002 0.0
  1.0000000E-001  1.0000000E-001 0.0
  1.0000000E-001  1.0500000E-001 0.0
  1.0000000E-001  1.1000000E-001 0.0
  1.0000000E-001  1.1500000E-001 0.0
  1.0000000E-001  1.2000000E-001 0.0
  1.0000000E-001  1.2500000E-001 0.0
  1.0000000E-001  1.3000000E-001 0.0
  1.0000000E-001  1.3500000E-001 0.0
  1.0000000E-001  1.4000000E-001 0.0
  1.0000000E-001  1.4500000E-001 0.0
  1.0000000E-001  1.5000000E-001 0.0
  1.0000000E-001  1.5500000E-001 0.0
  1.0000000E-001  1.6000000E-001 0.0
  1.0000000E-001  1.6500000E-001 0.0
  1.0500000E-001 -1.1000000E-001 0.0
  1.0500000E-001 -1.0500000E-001 0.0
  1.0500000E-001 -1.0000000E-001 0.0
  1.0500000E-001 -9.5000000E-002 0.0
  1.0500000E-001 -9.0000000E-002 0.0
  1.0500000E-001 -8.5000000E-002 0.0
  1.0500000E-001 -8.0000000E-002 0.0
  1.0500000E-001 -7.5000000E-002 0.0
  1.0500000E-001 -7.0000000E-002 0.0
  1.0500000E-001 -6.5000000E-002 0.0
  1.0500000E-001 -6.0000000E-002 0.0
  1.0500000E-001 -5.5000000E-002 0.0
  1.0000000E-001 -5.5000000E-002 0.0
  1.0500000E-001  1.0000000E-001 0.0
  1.0500000E-001  1.0500000E-001 0.0
  1.0500000E-001  1.1000000E-001 0.0
  1.0500000E-001  1.1500000E-001 0.0
  1.0500000E-001  1.2000000E-001 0.0
  1.0500000E-001  1.2500000E-001 0.0
  1.0500000E-001  1.3000000E-001 0.0
  1.0500000E-001  1.3500000E-001 0.0
  1.0500000E-001  1.4000000E-001 0.0
  1.0500000E-001  1.4500000E-001 0.0
  1.0500000E-001  1.5000000E-001 0.0
  1.0500000E-001  1.5500000E-001 0.0
  1.0500000E-001  1.6000000E-001 0.0
  1.0500000E-001  1.6500000E-001 0.0
  1.1000000E-001 -1.1000000E-001 0.0
  1.1000000E-001 -1.0500000E-001 0.0
  1.1000000E-001 -1.0000000E-001 0.0
  1.1000000E-001 -9.5000000E-002 0.0
  1.1000000E-001 -9.0000000E-002 0.0
  1.1000000E-001 -8.5000000E-002 0.0
  1.1000000E-001 -8.0000000E-002 0.0
  1.1000000E-001 -7.5000000E-002 0.0
  1.1000000E-001 -7.0000000E-002 0.0
  1.1000000E-001 -6.5000000E-002 0.0
  1.1000000E-001 -6.0000000E-002 0.0
  1.1000000E-001 -5.5000000E-002 0.0
  1.1000000E-001  1.0000000E-001 0.0
  1.1000000E-001  1.0500000E-001 0.0
  1.1000000E-001  1.1000000E-001 0.0
  1.1000000E-001  1.1500000E-001 0.0
  1.1000000E-001  1.2000000E-001 0.0
  1.1000000E-001  1.2500000E-001 0.0
  1.1000000E-001  1.3000000E-001 0.0
  1.1000000E-001  1.3500000E-001 0.0
  1.1000000E-001  1.4000000E-001 0.0
  1.1000000E-001  1.4500000E-001 0.0
  1.1000000E-001  1.5000000E-001 0.0
  1.1000000E-001  1.5500000E-001 0.0
  1.1000000E-001  1.6000000E-001 0.0
  1.1000000E-001  1.6500000E-001 0.0
  1.1500000E-001 -1.1000000E-001 0.0
  1.1500000E-001 -1.0500000E-001 0.0
  1.1500000E-001 -1.0000000E-001 0.0
  1.1500000E-001 -9.5000000E-002 0.0
  1.1500000E-001 -9.0000000E-002 0.0
  1.1500000E-001 -8.5000000E-002 0.0
  1.1500000E-001 -8.0000000E-002 0.0
  1.1500000E-001 -7.5000000E-002 0.0
  1.1500000E-001 -7.0000000E-002 0.0
  1.1500000E-001 -6.5000000E-002 0.0
  1.1500000E-001 -6.0000000E-002 0.0
  1.1500000E-001 -5.5000000E-002 0.0
  1.1500000E-001 -5.0000000E-002 0.0
  1.1000000E-001 -5.0000000E-002 0.0
  1.1000000E-001  9.5000000E-002 0.0
  1.1500000E-001  9.5000000E-002 0.0
  1.1500000E-001  1.0000000E-001 0.0
  1.1500000E-001  1.0500000E-001 0.0
  1.1500000E-001  1.1000000E-001 0.0
  1.1500000E-001  1.1500000E-001 0.0
  1.1500000E-001  1.2000000E-001 0.0
  1.1500000E-001  1.2500000E-001 0.0
  1.1500000E-001  1.3000000E-001 0.0
  1.1500000E-001  1.3500000E-001 0.0
  1.1500000E-001  1.4000000E-001 0.0
  1.1500000E-001  1.4500000E-001 0.0
  1.1500000E-001  1.5000000E-001 0.0
  1.1500000E-001  1.5500000E-001 0.0
  1.1500000E-001  1.6000000E-001 0.0
  1.1500000E-001  1.6500000E-001 0.0
  1.2000000E-001 -1.1000000E-001 0.0
  1.2000000E-001 -1.0500000E-001 0.0
  1.2000000E-001 -1.0000000E-001 0.0
  1.2000000E-001 -9.5000000E-002 0.0
  1.2000000E-001 -9.0000000E-002 0.0
  1.2000000E-001 -8.5000000E-002 0.0
  1.2000000E-001 -8.0000000E-002 0.0
  1.2000000E-001 -7.5000000E-002 0.0
  1.2000000E-001 -7.0000000E-002 0.0
  1.2000000E-001 -6.5000000E-002 0.0
  1.2000000E-001 -6.0000000E-002 0.0
  1.2000000E-001 -5.5000000E-002 0.0
  1.2000000E-001 -5.0000000E-002 0.0
  1.2000000E-001 -4.5000000E-002 0.0
  1.1500000E-001 -4.5000000E-002 0.0
  1.2000000E-001  9.5000000E-002 0.0
  1.2000000E-001  1.0000000E-001 0.0
  1.2000000E-001  1.0500000E-001 0.0
  1.2000000E-001  1.1000000E-001 0.0
  1.2000000E-001  1.1500000E-001 0.0
  1.2000000E-001  1.2000000E-001 0.0
  1.2000000E-001  1.2500000E-001 0.0
  1.2000000E-001  1.3000000E-001 0.0
  1.2000000E-001  1.3500000E-001 0.0
  1.2000000E-001  1.4000000E-001 0.0
  1.2000000E-001  1.4500000E-001 0.0
  1.2000000E-001  1.5000000E-001 0.0
  1.2000000E-001  1.5500000E-001 0.0
  1.2000000E-001  1.6000000E-001 0.0
  1.2000000E-001 -1.1500000E-001 0.0
  1.2500000E-001 -1.1500000E-001 0.0
  1.2500000E-001 -1.1000000E-001 0.0
  1.2500000E-001 -1.0500000E-001 0.0
  1.2500000E-001 -1.0000000E-001 0.0
  1.2500000E-001 -9.5000000E-002 0.0
  1.2500000E-001 -9.0000000E-002 0.0
  1.2500000E-001 -8.5000000E-002 0.0
  1.2500000E-001 -8.0000000E-002 0.0
  1.2500000E-001 -7.5000000E-002 0.0
  1.2500000E-001 -7.0000000E-002 0.0
  1.2500000E-001 -6.5000000E-002 0.0
  1.2500000E-001 -6.0000000E-002 0.0
  1.2500000E-001 -5.5000000E-002 0.0
  1.2500000E-001 -5.0000000E-002 0.0
  1.2500000E-001 -4.5000000E-002 0.0
  1.2000000E-001  9.0000000E-002 0.0
  1.2500000E-001  9.0000000E-002 0.0
  1.2500000E-001  9.5000000E-002 0.0
  1.2500000E-001  1.0000000E-001 0.0
  1.2500000E-001  1.0500000E-001 0.0
  1.2500000E-001  1.1000000E-001 0.0
  1.2500000E-001  1.1500000E-001 0.0
  1.2500000E-001  1.2000000E-001 0.0
  1.2500000E-001  1.2500000E-001 0.0
  1.2500000E-001  1.3000000E-001 0.0
  1.2500000E-001  1.3500000E-001 0.0
  1.2500000E-001  1.4000000E-001 0.0
  1.2500000E-001  1.4500000E-001 0.0
  1.2500000E-001  1.5000000E-001 0.0
  1.2500000E-001  1.5500000E-001 0.0
  1.2500000E-001  1.6000000E-001 0.0
  1.3000000E-001 -1.1500000E-001 0.0
  1.3000000E-001 -1.1000000E-001 0.0
  1.3000000E-001 -1.0500000E-001 0.0
  1.3000000E-001 -1.0000000E-001 0.0
  1.3000000E-001 -9.5000000E-002 0.0
  1.3000000E-001 -9.0000000E-002 0.0
  1.3000000E-001 -8.5000000E-002 0.0
  1.3000000E-001 -8.0000000E-002 0.0
  1.3000000E-001 -7.5000000E-002 0.0
  1.3000000E-001 -7.0000000E-002 0.0
  1.3000000E-001 -6.5000000E-002 0.0
  1.3000000E-001 -6.0000000E-002 0.0
  1.3000000E-001 -5.5000000E-002 0.0
  1.3000000E-001 -5.0000000E-002 0.0
  1.3000000E-001 -4.5000000E-002 0.0
  1.3000000E-001 -4.0000000E-002 0.0
  1.2500000E-001 -4.0000000E-002 0.0
  1.2500000E-001  8.5000000E-002 0.0
  1.3000000E-001  8.5000000E-002 0.0
  1.3000000E-001  9.0000000E-002 0.0
  1.3000000E-001  9.5000000E-002 0.0
  1.3000000E-001  1.0000000E-001 0.0
  1.3000000E-001  1.0500000E-001 0.0
  1.3000000E-001  1.1000000E-001 0.0
  1.3000000E-001  1.1500000E-001 0.0
  1.3000000E-001  1.2000000E-001 0.0
  1.3000000E-001  1.2500000E-001 0.0
  1.3000000E-001  1.3000000E-001 0.0
  1.3000000E-001  1.3500000E-001 0.0
  1.3000000E-001  1.4000000E-001 0.0
  1.3000000E-001  1.4500000E-001 0.0
  1.3000000E-001  1.5000000E-001 0.0
  1.3000000E-001  1.5500000E-001 0.0
  1.3000000E-001  1.6000000E-001 0.0
  1.3500000E-001 -1.1500000E-001 0.0
  1.3500000E-001 -1.1000000E-001 0.0
  1.3500000E-001 -1.0500000E-001 0.0
  1.3500000E-001 -1.0000000E-001 0.0
  1.3500000E-001 -9.5000000E-002 0.0
  1.3500000E-001 -9.0000000E-002 0.0
  1.3500000E-001 -8.5000000E-002 0.0
  1.3500000E-001 -8.0000000E-002 0.0
  1.3500000E-001 -7.5000000E-002 0.0
  1.3500000E-001 -7.0000000E-002 0.0
  1.3500000E-001 -6.5000000E-002 0.0
  1.3500000E-001 -6.0000000E-002 0.0
  1.3500000E-001 -5.5000000E-002 0.0
  1.3500000E-001 -5.0000000E-002 0.0
  1.3500000E-001 -4.5000000E-002 0.0
  1.3500000E-001 -4.0000000E-002 0.0
  1.3500000E-001 -3.5000000E-002 0.0
  1.3000000E-001 -3.5000000E-002 0.0
  1.3500000E-001 -3.0000000E-002 0.0
  1.3000000E-001 -3.0000000E-002 0.0
  1.3000000E-001  8.0000000E-002 0.0
  1.3500000E-001  8.0000000E-002 0.0
  1.3500000E-001  8.5000000E-002 0.0
  1.3500000E-001  9.0000000E-002 0.0
  1.3500000E-001  9.5000000E-002 0.0
  1.3500000E-001  1.0000000E-001 0.0
  1.3500000E-001  1.0500000E-001 0.0
  1.3500000E-001  1.1000000E-001 0.0
  1.3500000E-001  1.1500000E-001 0.0
  1.3500000E-001  1.2000000E-001 0.0
  1.3500000E-001  1.2500000E-001 0.0
  1.3500000E-001  1.3000000E-001 0.0
  1.3500000E-001  1.3500000E-001 0.0
  1.3500000E-001  1.4000000E-001 0.0
  1.3500000E-001  1.4500000E-001 0.0
  1.3500000E-001  1.5000000E-001 0.0
  1.3500000E-001  1.5500000E-001 0.0
  1.3500000E-001  1.6000000E-001 0.0
  1.4000000E-001 -1.1500000E-001 0.0
  1.4000000E-001 -1.1000000E-001 0.0
  1.4000000E-001 -1.0500000E-001 0.0
  1.4000000E-001 -1.0000000E-001 0.0
  1.4000000E-001 -9.5000000E-002 0.0
  1.4000000E-001 -9.0000000E-002 0.0
  1.4000000E-001 -8.5000000E-002 0.0
  1.4000000E-001 -8.0000000E-002 0.0
  1.4000000E-001 -7.5000000E-002 0.0
  1.4000000E-001 -7.0000000E-002 0.0
  1.4000000E-001 -6.5000000E-002 0.0
  1.4000000E-001 -6.0000000E-002 0.0
  1.4000000E-001 -5.5000000E-002 0.0
  1.4000000E-001 -5.0000000E-002 0.0
  1.4000000E-001 -4.5000000E-002 0.0
  1.4000000E-001 -4.0000000E-002 0.0
  1.4000000E-001 -3.5000000E-002 0.0
  1.4000000E-001 -3.0000000E-002 0.0
  1.4000000E-001 -2.5000000E-002 0.0
  1.3500000E-001 -2.5000000E-002 0.0
  1.4000000E-001 -2.0000000E-002 0.0
  1.3500000E-001 -2.0000000E-002 0.0
  1.3500000E-001  7.5000000E-002 0.0
  1.4000000E-001  7.5000000E-002 0.0
  1.4000000E-001  8.0000000E-002 0.0
  1.4000000E-001  8.5000000E-002 0.0
  1.4000000E-001  9.0000000E-002 0.0
  1.4000000E-001  9.5000000E-002 0.0
  1.4000000E-001  1.0000000E-001 0.0
  1.4000000E-001  1.0500000E-001 0.0
  1.4000000E-001  1.1000000E-001 0.0
  1.4000000E-001  1.1500000E-001 0.0
  1.4000000E-001  1.2000000E-001 0.0
  1.4000000E-001  1.2500000E-001 0.0
  1.4000000E-001  1.3000000E-001 0.0
  1.4000000E-001  1.3500000E-001 0.0
  1.4000000E-001  1.4000000E-001 0.0
  1.4000000E-001  1.4500000E-001 0.0
  1.4000000E-001  1.5000000E-001 0.0
  1.4000000E-001  1.5500000E-001 0.0
  1.4000000E-001  1.6000000E-001 0.0
  1.4500000E-001 -1.1500000E-001 0.0
  1.4500000E-001 -1.1000000E-001 0.0
  1.4500000E-001 -1.0500000E-001 0.0
  1.4500000E-001 -1.0000000E-001 0.0
  1.4500000E-001 -9.5000000E-002 0.0
  1.4500000E-001 -9.0000000E-002 0.0
  1.4500000E-001 -8.5000000E-002 0.0
  1.4500000E-001 -8.0000000E-002 0.0
  1.4500000E-001 -7.5000000E-002 0.0
  1.4500000E-001 -7.0000000E-002 0.0
  1.4500000E-001 -6.5000000E-002 0.0
  1.4500000E-001 -6.0000000E-002 0.0
  1.4500000E-001 -5.5000000E-002 0.0
  1.4500000E-001 -5.0000000E-002 0.0
  1.4500000E-001 -4.5000000E-002 0.0
  1.4500000E-001 -4.0000000E-002 0.0
  1.4500000E-001 -3.5000000E-002 0.0
  1.4500000E-001 -3.0000000E-002 0.0
  1.4500000E-001 -2.5000000E-002 0.0
  1.4500000E-001 -2.0000000E-002 0.0
  1.4500000E-001 -1.5000000E-002 0.0
  1.4000000E-001 -1.5000000E-002 0.0
  1.4500000E-001 -1.0000000E-002 0.0
  1.4000000E-001 -1.0000000E-002 0.0
  1.4500000E-001 -5.0000000E-003 0.0
  1.4000000E-001 -5.0000000E-003 0.0
  1.4500000E-001  0.0000000E+000 0.0
  1.4000000E-001  0.0000000E+000 0.0
  1.4500000E-001  5.0000000E-003 0.0
  1.4000000E-001  5.0000000E-003 0.0
  1.4000000E-001  6.5000000E-002 0.0
  1.4500000E-001  6.5000000E-002 0.0
  1.4500000E-001  7.0000000E-002 0.0
  1.4000000E-001  7.0000000E-002 0.0
  1.4500000E-001  7.5000000E-002 0.0
  1.4500000E-001  8.0000000E-002 0.0
  1.4500000E-001  8.5000000E-002 0.0
  1.4500000E-001  9.0000000E-002 0.0
  1.4500000E-001  9.5000000E-002 0.0
  1.4500000E-001  1.0000000E-001 0.0
  1.4500000E-001  1.0500000E-001 0.0
  1.4500000E-001  1.1000000E-001 0.0
  1.4500000E-001  1.1500000E-001 0.0
  1.4500000E-001  1.2000000E-001 0.0
  1.4500000E-001  1.2500000E-001 0.0
  1.4500000E-001  1.3000000E-001 0.0
  1.4500000E-001  1.3500000E-001 0.0
  1.4500000E-001  1.4000000E-001 0.0
  1.4500000E-001  1.4500000E-001 0.0
  1.4500000E-001  1.5000000E-001 0.0
  1.4500000E-001  1.5500000E-001 0.0
  1.4500000E-001  1.6000000E-001 0.0
  1.4500000E-001 -1.2000000E-001 0.0
  1.5000000E-001 -1.2000000E-001 0.0
  1.5000000E-001 -1.1500000E-001 0.0
  1.5000000E-001 -1.1000000E-001 0.0
  1.5000000E-001 -1.0500000E-001 0.0
  1.5000000E-001 -1.0000000E-001 0.0
  1.5000000E-001 -9.5000000E-002 0.0
  1.5000000E-001 -9.0000000E-002 0.0
  1.5000000E-001 -8.5000000E-002 0.0
  1.5000000E-001 -8.0000000E-002 0.0
  1.5000000E-001 -7.5000000E-002 0.0
  1.5000000E-001 -7.0000000E-002 0.0
  1.5000000E-001 -6.5000000E-002 0.0
  1.5000000E-001 -6.0000000E-002 0.0
  1.5000000E-001 -5.5000000E-002 0.0
  1.5000000E-001 -5.0000000E-002 0.0
  1.5000000E-001 -4.5000000E-002 0.0
  1.5000000E-001 -4.0000000E-002 0.0
  1.5000000E-001 -3.5000000E-002 0.0
  1.5000000E-001 -3.0000000E-002 0.0
  1.5000000E-001 -2.5000000E-002 0.0
  1.5000000E-001 -2.0000000E-002 0.0
  1.5000000E-001 -1.5000000E-002 0.0
  1.5000000E-001 -1.0000000E-002 0.0
  1.5000000E-001 -5.0000000E-003 0.0
  1.5000000E-001  0.0000000E+000 0.0
  1.5000000E-001  5.0000000E-003 0.0
  1.5000000E-001  1.0000000E-002 0.0
  1.4500000E-001  1.0000000E-002 0.0
  1.5000000E-001  1.5000000E-002 0.0
  1.4500000E-001  1.5000000E-002 0.0
  1.5000000E-001  2.0000000E-002 0.0
  1.4500000E-001  2.0000000E-002 0.0
  1.5000000E-001  2.5000000E-002 0.0
  1.4500000E-001  2.5000000E-002 0.0
  1.5000000E-001  3.0000000E-002 0.0
  1.4500000E-001  3.0000000E-002 0.0
  1.5000000E-001  3.5000000E-002 0.0
  1.4500000E-001  3.5000000E-002 0.0
  1.5000000E-001  4.0000000E-002 0.0
  1.4500000E-001  4.0000000E-002 0.0
  1.5000000E-001  4.5000000E-002 0.0
  1.4500000E-001  4.5000000E-002 0.0
  1.5000000E-001  5.0000000E-002 0.0
  1.4500000E-001  5.0000000E-002 0.0
  1.5000000E-001  5.5000000E-002 0.0
  1.4500000E-001  5.5000000E-002 0.0
  1.5000000E-001  6.0000000E-002 0.0
  1.4500000E-001  6.0000000E-002 0.0
  1.5000000E-001  6.5000000E-002 0.0
  1.5000000E-001  7.0000000E-002 0.0
  1.5000000E-001  7.5000000E-002 0.0
  1.5000000E-001  8.0000000E-002 0.0
  1.5000000E-001  8.5000000E-002 0.0
  1.5000000E-001  9.0000000E-002 0.0
  1.5000000E-001  9.5000000E-002 0.0
  1.5000000E-001  1.0000000E-001 0.0
  1.5000000E-001  1.0500000E-001 0.0
  1.5000000E-001  1.1000000E-001 0.0
  1.5000000E-001  1.1500000E-001 0.0
  1.5000000E-001  1.2000000E-001 0.0
  1.5000000E-001  1.2500000E-001 0.0
  1.5000000E-001  1.3000000E-001 0.0
  1.5000000E-001  1.3500000E-001 0.0
  1.5000000E-001  1.4000000E-001 0.0
  1.5000000E-001  1.4500000E-001 0.0
  1.5000000E-001  1.5000000E-001 0.0
  1.5000000E-001  1.5500000E-001 0.0
  1.5000000E-001  1.6000000E-001 0.0
  1.5500000E-001 -1.2000000E-001 0.0
  1.5500000E-001 -1.1500000E-001 0.0
  1.5500000E-001 -1.1000000E-001 0.0
  1.5500000E-001 -1.0500000E-001 0.0
  1.5500000E-001 -1.0000000E-001 0.0
  1.5500000E-001 -9.5000000E-002 0.0
  1.5500000E-001 -9.0000000E-002 0.0
  1.5500000E-001 -8.5000000E-002 0.0
  1.5500000E-001 -8.0000000E-002 0.0
  1.5500000E-001 -7.5000000E-002 0.0
  1.5500000E-001 -7.0000000E-002 0.0
  1.5500000E-001 -6.5000000E-002 0.0
  1.5500000E-001 -6.0000000E-002 0.0
  1.5500000E-001 -5.5000000E-002 0.0
  1.5500000E-001 -5.0000000E-002 0.0
  1.5500000E-001 -4.5000000E-002 0.0
  1.5500000E-001 -4.0000000E-002 0.0
  1.5500000E-001 -3.5000000E-002 0.0
  1.5500000E-001 -3.0000000E-002 0.0
  1.5500000E-001 -2.5000000E-002 0.0
  1.5500000E-001 -2.0000000E-002 0.0
  1.5500000E-001 -1.5000000E-002 0.0
  1.5500000E-001 -1.0000000E-002 0.0
  1.5500000E-001 -5.0000000E-003 0.0
  1.5500000E-001  0.0000000E+000 0.0
  1.5500000E-001  5.0000000E-003 0.0
  1.5500000E-001  1.0000000E-002 0.0
  1.5500000E-001  1.5000000E-002 0.0
  1.5500000E-001  2.0000000E-002 0.0
  1.5500000E-001  2.5000000E-002 0.0
  1.5500000E-001  3.0000000E-002 0.0
  1.5500000E-001  3.5000000E-002 0.0
  1.5500000E-001  4.0000000E-002 0.0
  1.5500000E-001  4.5000000E-002 0.0
  1.5500000E-001  5.0000000E-002 0.0
  1.5500000E-001  5.5000000E-002 0.0
  1.5500000E-001  6.0000000E-002 0.0
  1.5500000E-001  6.5000000E-002 0.0
  1.5500000E-001  7.0000000E-002 0.0
  1.5500000E-001  7.5000000E-002 0.0
  1.5500000E-001  8.0000000E-002 0.0
  1.5500000E-001  8.5000000E-002 0.0
  1.5500000E-001  9.0000000E-002 0.0
  1.5500000E-001  9.5000000E-002 0.0
  1.5500000E-001  1.0000000E-001 0.0
  1.5500000E-001  1.0500000E-001 0.0
  1.5500000E-001  1.1000000E-001 0.0
  1.5500000E-001  1.1500000E-001 0.0
  1.5500000E-001  1.2000000E-001 0.0
  1.5500000E-001  1.2500000E-001 0.0
  1.5500000E-001  1.3000000E-001 0.0
  1.5500000E-001  1.3500000E-001 0.0
  1.5500000E-001  1.4000000E-001 0.0
  1.5500000E-001  1.4500000E-001 0.0
  1.5500000E-001  1.5000000E-001 0.0
  1.5500000E-001  1.5500000E-001 0.0
  1.5500000E-001  1.6000000E-001 0.0
  1.6000000E-001 -1.2000000E-001 0.0
  1.6000000E-001 -1.1500000E-001 0.0
  1.6000000E-001 -1.1000000E-001 0.0
  1.6000000E-001 -1.0500000E-001 0.0
  1.6000000E-001 -1.0000000E-001 0.0
  1.6000000E-001 -9.5000000E-002 0.0
  1.6000000E-001 -9.0000000E-002 0.0
  1.6000000E-001 -8.5000000E-002 0.0
  1.6000000E-001 -8.0000000E-002 0.0
  1.6000000E-001 -7.5000000E-002 0.0
  1.6000000E-001 -7.0000000E-002 0.0
  1.6000000E-001 -6.5000000E-002 0.0
  1.6000000E-001 -6.0000000E-002 0.0
  1.6000000E-001 -5.5000000E-002 0.0
  1.6000000E-001 -5.0000000E-002 0.0
  1.6000000E-001 -4.5000000E-002 0.0
  1.6000000E-001 -4.0000000E-002 0.0
  1.6000000E-001 -3.5000000E-002 0.0
  1.6000000E-001 -3.0000000E-002 0.0
  1.6000000E-001 -2.5000000E-002 0.0
  1.6000000E-001 -2.0000000E-002 0.0
  1.6000000E-001 -1.5000000E-002 0.0
  1.6000000E-001 -1.0000000E-002 0.0
  1.6000000E-001 -5.0000000E-003 0.0
  1.6000000E-001  0.0000000E+000 0.0
  1.6000000E-001  5.0000000E-003 0.0
  1.6000000E-001  1.0000000E-002 0.0
  1.6000000E-001  1.5000000E-002 0.0
  1.6000000E-001  2.0000000E-002 0.0
  1.6000000E-001  2.5000000E-002 0.0
  1.6000000E-001  3.0000000E-002 0.0
  1.6000000E-001  3.5000000E-002 0.0
  1.6000000E-001  4.0000000E-002 0.0
  1.6000000E-001  4.5000000E-002 0.0
  1.6000000E-001  5.0000000E-002 0.0
  1.6000000E-001  5.5000000E-002 0.0
  1.6000000E-001  6.0000000E-002 0.0
  1.6000000E-001  6.5000000E-002 0.0
  1.6000000E-001  7.0000000E-002 0.0
  1.6000000E-001  7.5000000E-002 0.0
  1.6000000E-001  8.0000000E-002 0.0
  1.6000000E-001  8.5000000E-002 0.0
  1.6000000E-001  9.0000000E-002 0.0
  1.6000000E-001  9.5000000E-002 0.0
  1.6000000E-001  1.0000000E-001 0.0
  1.6000000E-001  1.0500000E-001 0.0
  1.6000000E-001  1.1000000E-001 0.0
  1.6000000E-001  1.1500000E-001 0.0
  1.6000000E-001  1.2000000E-001 0.0
  1.6000000E-001  1.2500000E-001 0.0
  1.6000000E-001  1.3000000E-001 0.0
  1.6000000E-001  1.3500000E-001 0.0
  1.6000000E-001  1.4000000E-001 0.0
  1.6000000E-001  1.4500000E-001 0.0
  1.6000000E-001  1.5000000E-001 0.0
  1.6000000E-001  1.5500000E-001 0.0
  1.6000000E-001  1.6000000E-001 0.0
  1.6000000E-001  1.6500000E-001 0.0
  1.5500000E-001  1.6500000E-001 0.0
  1.6500000E-001 -1.2000000E-001 0.0
  1.6500000E-001 -1.1500000E-001 0.0
  1.6500000E-001 -1.1000000E-001 0.0
  1.6500000E-001 -1.0500000E-001 0.0
  1.6500000E-001 -1.0000000E-001 0.0
  1.6500000E-001 -9.5000000E-002 0.0
  1.6500000E-001 -9.0000000E-002 0.0
  1.6500000E-001 -8.5000000E-002 0.0
  1.6500000E-001 -8.0000000E-002 0.0
  1.6500000E-001 -7.5000000E-002 0.0
  1.6500000E-001 -7.0000000E-002 0.0
  1.6500000E-001 -6.5000000E-002 0.0
  1.6500000E-001 -6.0000000E-002 0.0
  1.6500000E-001 -5.5000000E-002 0.0
  1.6500000E-001 -5.0000000E-002 0.0
  1.6500000E-001 -4.5000000E-002 0.0
  1.6500000E-001 -4.0000000E-002 0.0
  1.6500000E-001 -3.5000000E-002 0.0
  1.6500000E-001 -3.0000000E-002 0.0
  1.6500000E-001 -2.5000000E-002 0.0
  1.6500000E-001 -2.0000000E-002 0.0
  1.6500000E-001 -1.5000000E-002 0.0
  1.6500000E-001 -1.0000000E-002 0.0
  1.6500000E-001 -5.0000000E-003 0.0
  1.6500000E-001  0.0000000E+000 0.0
  1.6500000E-001  5.0000000E-003 0.0
  1.6500000E-001  1.0000000E-002 0.0
  1.6500000E-001  1.5000000E-002 0.0
  1.6500000E-001  2.0000000E-002 0.0
  1.6500000E-001  2.5000000E-002 0.0
  1.6500000E-001  3.0000000E-002 0.0
  1.6500000E-001  3.5000000E-002 0.0
  1.6500000E-001  4.0000000E-002 0.0
  1.6500000E-001  4.5000000E-002 0.0
  1.6500000E-001  5.0000000E-002 0.0
  1.6500000E-001  5.5000000E-002 0.0
  1.6500000E-001  6.0000000E-002 0.0
  1.6500000E-001  6.5000000E-002 0.0
  1.6500000E-001  7.0000000E-002 0.0
  1.6500000E-001  7.5000000E-002 0.0
  1.6500000E-001  8.0000000E-002 0.0
  1.6500000E-001  8.5000000E-002 0.0
  1.6500000E-001  9.0000000E-002 0.0
  1.6500000E-001  9.5000000E-002 0.0
  1.6500000E-001  1.0000000E-001 0.0
  1.6500000E-001  1.0500000E-001 0.0
  1.6500000E-001  1.1000000E-001 0.0
  1.6500000E-001  1.1500000E-001 0.0
  1.6500000E-001  1.2000000E-001 0.0
  1.6500000E-001  1.2500000E-001 0.0
  1.6500000E-001  1.3000000E-001 0.0
  1.6500000E-001  1.3500000E-001 0.0
  1.6500000E-001  1.4000000E-001 0.0
  1.6500000E-001  1.4500000E-001 0.0
  1.6500000E-001  1.5000000E-001 0.0
  1.6500000E-001  1.5500000E-001 0.0
  1.6500000E-001  1.6000000E-001 0.0
  1.6500000E-001  1.6500000E-001 0.0
  1.7000000E-001 -1.2000000E-001 0.0
  1.7000000E-001 -1.1500000E-001 0.0
  1.7000000E-001 -1.1000000E-001 0.0
  1.7000000E-001 -1.0500000E-001 0.0
  1.7000000E-001 -1.0000000E-001 0.0
  1.7000000E-001 -9.5000000E-002 0.0
  1.7000000E-001 -9.0000000E-002 0.0
  1.7000000E-001 -8.5000000E-002 0.0
  1.7000000E-001 -8.0000000E-002 0.0
  1.7000000E-001 -7.5000000E-002 0.0
  1.7000000E-001 -7.0000000E-002 0.0
  1.7000000E-001 -6.5000000E-002 0.0
  1.7000000E-001 -6.0000000E-002 0.0
  1.7000000E-001 -5.5000000E-002 0.0
  1.7000000E-001 -5.0000000E-002 0.0
  1.7000000E-001 -4.5000000E-002 0.0
  1.7000000E-001 -4.0000000E-002 0.0
  1.7000000E-001 -3.5000000E-002 0.0
  1.7000000E-001 -3.0000000E-002 0.0
  1.7000000E-001 -2.5000000E-002 0.0
  1.7000000E-001 -2.0000000E-002 0.0
  1.7000000E-001 -1.5000000E-002 0.0
  1.7000000E-001 -1.0000000E-002 0.0
  1.7000000E-001 -5.0000000E-003 0.0
  1.7000000E-001  0.0000000E+000 0.0
  1.7000000E-001  5.0000000E-003 0.0
  1.7000000E-001  1.0000000E-002 0.0
  1.7000000E-001  1.5000000E-002 0.0
  1.7000000E-001  2.0000000E-002 0.0
  1.7000000E-001  2.5000000E-002 0.0
  1.7000000E-001  3.0000000E-002 0.0
  1.7000000E-001  3.5000000E-002 0.0
  1.7000000E-001  4.0000000E-002 0.0
  1.7000000E-001  4.5000000E-002 0.0
  1.7000000E-001  5.0000000E-002 0.0
  1.7000000E-001  5.5000000E-002 0.0
  1.7000000E-001  6.0000000E-002 0.0
  1.7000000E-001  6.5000000E-002 0.0
  1.7000000E-001  7.0000000E-002 0.0
  1.7000000E-001  7.5000000E-002 0.0
  1.7000000E-001  8.0000000E-002 0.0
  1.7000000E-001  8.5000000E-002 0.0
  1.7000000E-001  9.0000000E-002 0.0
  1.7000000E-001  9.5000000E-002 0.0
  1.7000000E-001  1.0000000E-001 0.0
  1.7000000E-001  1.0500000E-001 0.0
  1.7000000E-001  1.1000000E-001 0.0
  1.7000000E-001  1.1500000E-001 0.0
  1.7000000E-001  1.2000000E-001 0.0
  1.7000000E-001  1.2500000E-001 0.0
  1.7000000E-001  1.3000000E-001 0.0
  1.7000000E-001  1.3500000E-001 0.0
  1.7000000E-001  1.4000000E-001 0.0
  1.7000000E-001  1.4500000E-001 0.0
  1.7000000E-001  1.5000000E-001 0.0
  1.7000000E-001  1.5500000E-001 0.0
  1.7000000E-001  1.6000000E-001 0.0
  1.7000000E-001  1.6500000E-001 0.0
  1.7500000E-001 -1.2000000E-001 0.0
  1.7500000E-001 -1.1500000E-001 0.0
  1.7500000E-001 -1.1000000E-001 0.0
  1.7500000E-001 -1.0500000E-001 0.0
  1.7500000E-001 -1.0000000E-001 0.0
  1.7500000E-001 -9.5000000E-002 0.0
  1.7500000E-001 -9.0000000E-002 0.0
  1.7500000E-001 -8.5000000E-002 0.0
  1.7500000E-001 -8.0000000E-002 0.0
  1.7500000E-001 -7.5000000E-002 0.0
  1.7500000E-001 -7.0000000E-002 0.0
  1.7500000E-001 -6.5000000E-002 0.0
  1.7500000E-001 -6.0000000E-002 0.0
  1.7500000E-001 -5.5000000E-002 0.0
  1.7500000E-001 -5.0000000E-002 0.0
  1.7500000E-001 -4.5000000E-002 0.0
  1.7500000E-001 -4.0000000E-002 0.0
  1.7500000E-001 -3.5000000E-002 0.0
  1.7500000E-001 -3.0000000E-002 0.0
  1.7500000E-001 -2.5000000E-002 0.0
  1.7500000E-001 -2.0000000E-002 0.0
  1.7500000E-001 -1.5000000E-002 0.0
  1.7500000E-001 -1.0000000E-002 0.0
  1.7500000E-001 -5.0000000E-003 0.0
  1.7500000E-001  0.0000000E+000 0.0
  1.7500000E-001  5.0000000E-003 0.0
  1.7500000E-001  1.0000000E-002 0.0
  1.7500000E-001  1.5000000E-002 0.0
  1.7500000E-001  2.0000000E-002 0.0
  1.7500000E-001  4.0000000E-002 0.0
  1.7500000E-001  4.5000000E-002 0.0
  1.7500000E-001  5.0000000E-002 0.0
  1.7500000E-001  5.5000000E-002 0.0
  1.7500000E-001  6.0000000E-002 0.0
  1.7500000E-001  6.5000000E-002 0.0
  1.7500000E-001  7.0000000E-002 0.0
  1.7500000E-001  7.5000000E-002 0.0
  1.7500000E-001  8.0000000E-002 0.0
  1.7500000E-001  8.5000000E-002 0.0
  1.7500000E-001  9.0000000E-002 0.0
  1.7500000E-001  9.5000000E-002 0.0
  1.7500000E-001  1.0000000E-001 0.0
  1.7500000E-001  1.0500000E-001 0.0
  1.7500000E-001  1.1000000E-001 0.0
  1.7500000E-001  1.1500000E-001 0.0
  1.7500000E-001  1.2000000E-001 0.0
  1.7500000E-001  1.2500000E-001 0.0
  1.7500000E-001  1.3000000E-001 0.0
  1.7500000E-001  1.3500000E-001 0.0
  1.7500000E-001  1.4000000E-001 0.0
  1.7500000E-001  1.4500000E-001 0.0
  1.7500000E-001  1.5000000E-001 0.0
  1.7500000E-001  1.5500000E-001 0.0
  1.7500000E-001  1.6000000E-001 0.0
  1.8000000E-001 -1.2000000E-001 0.0
  1.8000000E-001 -1.1500000E-001 0.0
  1.8000000E-001 -1.1000000E-001 0.0
  1.8000000E-001 -1.0500000E-001 0.0
  1.8000000E-001 -1.0000000E-001 0.0
  1.8000000E-001 -9.5000000E-002 0.0
  1.8000000E-001 -9.0000000E-002 0.0
  1.8000000E-001 -8.5000000E-002 0.0
  1.8000000E-001 -8.0000000E-002 0.0
  1.8000000E-001 -7.5000000E-002 0.0
  1.8000000E-001 -7.0000000E-002 0.0
  1.8000000E-001 -6.5000000E-002 0.0
  1.8000000E-001 -6.0000000E-002 0.0
  1.8000000E-001 -5.5000000E-002 0.0
  1.8000000E-001 -5.0000000E-002 0.0
  1.8000000E-001 -4.5000000E-002 0.0
  1.8000000E-001 -4.0000000E-002 0.0
  1.8000000E-001 -3.5000000E-002 0.0
  1.8000000E-001 -3.0000000E-002 0.0
  1.8000000E-001 -2.5000000E-002 0.0
  1.8000000E-001 -2.0000000E-002 0.0
  1.8000000E-001 -1.5000000E-002 0.0
  1.8000000E-001 -1.0000000E-002 0.0
  1.8000000E-001 -5.0000000E-003 0.0
  1.8000000E-001  0.0000000E+000 0.0
  1.8000000E-001  5.0000000E-003 0.0
  1.8000000E-001  5.0000000E-002 0.0
  1.8000000E-001  5.5000000E-002 0.0
  1.8000000E-001  6.0000000E-002 0.0
  1.8000000E-001  6.5000000E-002 0.0
  1.8000000E-001  7.0000000E-002 0.0
  1.8000000E-001  7.5000000E-002 0.0
  1.8000000E-001  8.0000000E-002 0.0
  1.8000000E-001  8.5000000E-002 0.0
  1.8000000E-001  9.0000000E-002 0.0
  1.8000000E-001  9.5000000E-002 0.0
  1.8000000E-001  1.0000000E-001 0.0
  1.8000000E-001  1.0500000E-001 0.0
  1.8000000E-001  1.1000000E-001 0.0
  1.8000000E-001  1.1500000E-001 0.0
  1.8000000E-001  1.2000000E-001 0.0
  1.8000000E-001  1.2500000E-001 0.0
  1.8000000E-001  1.3000000E-001 0.0
  1.8000000E-001  1.3500000E-001 0.0
  1.8000000E-001  1.4000000E-001 0.0
  1.8000000E-001  1.4500000E-001 0.0
  1.8000000E-001  1.5000000E-001 0.0
  1.8000000E-001  1.5500000E-001 0.0
  1.8000000E-001  1.6000000E-001 0.0
  1.8500000E-001 -1.2000000E-001 0.0
  1.8500000E-001 -1.1500000E-001 0.0
  1.8500000E-001 -1.1000000E-001 0.0
  1.8500000E-001 -1.0500000E-001 0.0
  1.8500000E-001 -1.0000000E-001 0.0
  1.8500000E-001 -9.5000000E-002 0.0
  1.8500000E-001 -9.0000000E-002 0.0
  1.8500000E-001 -8.5000000E-002 0.0
  1.8500000E-001 -8.0000000E-002 0.0
  1.8500000E-001 -7.5000000E-002 0.0
  1.8500000E-001 -7.0000000E-002 0.0
  1.8500000E-001 -6.5000000E-002 0.0
  1.8500000E-001 -6.0000000E-002 0.0
  1.8500000E-001 -5.5000000E-002 0.0
  1.8500000E-001 -5.0000000E-002 0.0
  1.8500000E-001 -4.5000000E-002 0.0
  1.8500000E-001 -4.0000000E-002 0.0
  1.8500000E-001 -3.5000000E-002 0.0
  1.8500000E-001 -3.0000000E-002 0.0
  1.8500000E-001 -2.5000000E-002 0.0
  1.8500000E-001 -2.0000000E-002 0.0
  1.8500000E-001 -1.5000000E-002 0.0
  1.8500000E-001 -1.0000000E-002 0.0
  1.8500000E-001 -5.0000000E-003 0.0
  1.8500000E-001  0.0000000E+000 0.0
  1.8500000E-001  5.5000000E-002 0.0
  1.8500000E-001  6.0000000E-002 0.0
  1.8500000E-001  6.5000000E-002 0.0
  1.8500000E-001  7.0000000E-002 0.0
  1.8500000E-001  7.5000000E-002 0.0
  1.8500000E-001  8.0000000E-002 0.0
  1.8500000E-001  8.5000000E-002 0.0
  1.8500000E-001  9.0000000E-002 0.0
  1.8500000E-001  9.5000000E-002 0.0
  1.8500000E-001  1.0000000E-001 0.0
  1.8500000E-001  1.0500000E-001 0.0
  1.8500000E-001  1.1000000E-001 0.0
  1.8500000E-001  1.1500000E-001 0.0
  1.8500000E-001  1.2000000E-001 0.0
  1.8500000E-001  1.2500000E-001 0.0
  1.8500000E-001  1.3000000E-001 0.0
  1.8500000E-001  1.3500000E-001 0.0
  1.8500000E-001  1.4000000E-001 0.0
  1.8500000E-001  1.4500000E-001 0.0
  1.8500000E-001  1.5000000E-001 0.0
  1.8500000E-001  1.5500000E-001 0.0
  1.8500000E-001  1.6000000E-001 0.0
  1.9000000E-001 -1.2000000E-001 0.0
  1.9000000E-001 -1.1500000E-001 0.0
  1.9000000E-001 -1.1000000E-001 0.0
  1.9000000E-001 -1.0500000E-001 0.0
  1.9000000E-001 -1.0000000E-001 0.0
  1.9000000E-001 -9.5000000E-002 0.0
  1.9000000E-001 -9.0000000E-002 0.0
  1.9000000E-001 -8.5000000E-002 0.0
  1.9000000E-001 -8.0000000E-002 0.0
  1.9000000E-001 -7.5000000E-002 0.0
  1.9000000E-001 -7.0000000E-002 0.0
  1.9000000E-001 -6.5000000E-002 0.0
  1.9000000E-001 -6.0000000E-002 0.0
  1.9000000E-001 -5.5000000E-002 0.0
  1.9000000E-001 -5.0000000E-002 0.0
  1.9000000E-001 -4.5000000E-002 0.0
  1.9000000E-001 -4.0000000E-002 0.0
  1.9000000E-001 -3.5000000E-002 0.0
  1.9000000E-001 -3.0000000E-002 0.0
  1.9000000E-001 -2.5000000E-002 0.0
  1.9000000E-001 -2.0000000E-002 0.0
  1.9000000E-001 -1.5000000E-002 0.0
  1.9000000E-001 -1.0000000E-002 0.0
  1.9000000E-001 -5.0000000E-003 0.0
  1.9000000E-001  0.0000000E+000 0.0
  1.9000000E-001  6.0000000E-002 0.0
  1.9000000E-001  6.5000000E-002 0.0
  1.9000000E-001  7.0000000E-002 0.0
  1.9000000E-001  7.5000000E-002 0.0
  1.9000000E-001  8.0000000E-002 0.0
  1.9000000E-001  8.5000000E-002 0.0
  1.9000000E-001  9.0000000E-002 0.0
  1.9000000E-001  9.5000000E-002 0.0
  1.9000000E-001  1.0000000E-001 0.0
  1.9000000E-001  1.0500000E-001 0.0
  1.9000000E-001  1.1000000E-001 0.0
  1.9000000E-001  1.1500000E-001 0.0
  1.9000000E-001  1.2000000E-001 0.0
  1.9000000E-001  1.2500000E-001 0.0
  1.9000000E-001  1.3000000E-001 0.0
  1.9000000E-001  1.3500000E-001 0.0
  1.9000000E-001  1.4000000E-001 0.0
  1.9000000E-001  1.4500000E-001 0.0
  1.9000000E-001  1.5000000E-001 0.0
  1.9000000E-001  1.5500000E-001 0.0
  1.9000000E-001  1.6000000E-001 0.0
  1.9500000E-001 -1.2000000E-001 0.0
  1.9500000E-001 -1.1500000E-001 0.0
  1.9500000E-001 -1.1000000E-001 0.0
  1.9500000E-001 -1.0500000E-001 0.0
  1.9500000E-001 -1.0000000E-001 0.0
  1.9500000E-001 -9.5000000E-002 0.0
  1.9500000E-001 -9.0000000E-002 0.0
  1.9500000E-001 -8.5000000E-002 0.0
  1.9500000E-001 -8.0000000E-002 0.0
  1.9500000E-001 -7.5000000E-002 0.0
  1.9500000E-001 -7.0000000E-002 0.0
  1.9500000E-001 -6.5000000E-002 0.0
  1.9500000E-001 -6.0000000E-002 0.0
  1.9500000E-001 -5.5000000E-002 0.0
  1.9500000E-001 -5.0000000E-002 0.0
  1.9500000E-001 -4.5000000E-002 0.0
  1.9500000E-001 -4.0000000E-002 0.0
  1.9500000E-001 -3.5000000E-002 0.0
  1.9500000E-001 -3.0000000E-002 0.0
  1.9500000E-001 -2.5000000E-002 0.0
  1.9500000E-001 -2.0000000E-002 0.0
  1.9500000E-001 -1.5000000E-002 0.0
  1.9500000E-001 -1.0000000E-002 0.0
  1.9500000E-001 -5.0000000E-003 0.0
  1.9500000E-001  0.0000000E+000 0.0
  1.9500000E-001  6.5000000E-002 0.0
  1.9500000E-001  7.0000000E-002 0.0
  1.9500000E-001  7.5000000E-002 0.0
  1.9500000E-001  8.0000000E-002 0.0
  1.9500000E-001  8.5000000E-002 0.0
  1.9500000E-001  9.0000000E-002 0.0
  1.9500000E-001  9.5000000E-002 0.0
  1.9500000E-001  1.0000000E-001 0.0
  1.9500000E-001  1.0500000E-001 0.0
  1.9500000E-001  1.1000000E-001 0.0
  1.9500000E-001  1.1500000E-001 0.0
  1.9500000E-001  1.2000000E-001 0.0
  1.9500000E-001  1.2500000E-001 0.0
  1.9500000E-001  1.3000000E-001 0.0
  1.9500000E-001  1.3500000E-001 0.0
  1.9500000E-001  1.4000000E-001 0.0
  1.9500000E-001  1.4500000E-001 0.0
  1.9500000E-001  1.5000000E-001 0.0
  1.9500000E-001  1.5500000E-001 0.0
  1.9500000E-001  1.6000000E-001 0.0
  2.0000000E-001 -1.2000000E-001 0.0
  2.0000000E-001 -1.1500000E-001 0.0
  2.0000000E-001 -1.1000000E-001 0.0
  2.0000000E-001 -1.0500000E-001 0.0
  2.0000000E-001 -1.0000000E-001 0.0
  2.0000000E-001 -9.5000000E-002 0.0
  2.0000000E-001 -9.0000000E-002 0.0
  2.0000000E-001 -8.5000000E-002 0.0
  2.0000000E-001 -8.0000000E-002 0.0
  2.0000000E-001 -7.5000000E-002 0.0
  2.0000000E-001 -7.0000000E-002 0.0
  2.0000000E-001 -6.5000000E-002 0.0
  2.0000000E-001 -6.0000000E-002 0.0
  2.0000000E-001 -5.5000000E-002 0.0
  2.0000000E-001 -5.0000000E-002 0.0
  2.0000000E-001 -4.5000000E-002 0.0
  2.0000000E-001 -4.0000000E-002 0.0
  2.0000000E-001 -3.5000000E-002 0.0
  2.0000000E-001 -3.0000000E-002 0.0
  2.0000000E-001 -2.5000000E-002 0.0
  2.0000000E-001 -2.0000000E-002 0.0
  2.0000000E-001 -1.5000000E-002 0.0
  2.0000000E-001 -1.0000000E-002 0.0
  2.0000000E-001 -5.0000000E-003 0.0
  2.0000000E-001  0.0000000E+000 0.0
  2.0000000E-001  6.5000000E-002 0.0
  2.0000000E-001  7.0000000E-002 0.0
  2.0000000E-001  7.5000000E-002 0.0
  2.0000000E-001  8.0000000E-002 0.0
  2.0000000E-001  8.5000000E-002 0.0
  2.0000000E-001  9.0000000E-002 0.0
  2.0000000E-001  9.5000000E-002 0.0
  2.0000000E-001  1.0000000E-001 0.0
  2.0000000E-001  1.0500000E-001 0.0
  2.0000000E-001  1.1000000E-001 0.0
  2.0000000E-001  1.1500000E-001 0.0
  2.0000000E-001  1.2000000E-001 0.0
  2.0000000E-001  1.2500000E-001 0.0
  2.0000000E-001  1.3000000E-001 0.0
  2.0000000E-001  1.3500000E-001 0.0
  2.0000000E-001  1.4000000E-001 0.0
  2.0000000E-001  1.4500000E-001 0.0
  2.0000000E-001  1.5000000E-001 0.0
  2.0000000E-001  1.5500000E-001 0.0
  2.0000000E-001  1.6000000E-001 0.0
  2.0500000E-001 -1.2000000E-001 0.0
  2.0500000E-001 -1.1500000E-001 0.0
  2.0500000E-001 -1.1000000E-001 0.0
  2.0500000E-001 -1.0500000E-001 0.0
  2.0500000E-001 -1.0000000E-001 0.0
  2.0500000E-001 -9.5000000E-002 0.0
  2.0500000E-001 -9.0000000E-002 0.0
  2.0500000E-001 -8.5000000E-002 0.0
  2.0500000E-001 -8.0000000E-002 0.0
  2.0500000E-001 -7.5000000E-002 0.0
  2.0500000E-001 -7.0000000E-002 0.0
  2.0500000E-001 -6.5000000E-002 0.0
  2.0500000E-001 -6.0000000E-002 0.0
  2.0500000E-001 -5.5000000E-002 0.0
  2.0500000E-001 -5.0000000E-002 0.0
  2.0500000E-001 -4.5000000E-002 0.0
  2.0500000E-001 -4.0000000E-002 0.0
  2.0500000E-001 -3.5000000E-002 0.0
  2.0500000E-001 -3.0000000E-002 0.0
  2.0500000E-001 -2.5000000E-002 0.0
  2.0500000E-001 -2.0000000E-002 0.0
  2.0500000E-001 -1.5000000E-002 0.0
  2.0500000E-001 -1.0000000E-002 0.0
  2.0500000E-001 -5.0000000E-003 0.0
  2.0500000E-001  0.0000000E+000 0.0
  2.0000000E-001  6.0000000E-002 0.0
  2.0500000E-001  6.0000000E-002 0.0
  2.0500000E-001  6.5000000E-002 0.0
  2.0500000E-001  7.0000000E-002 0.0
  2.0500000E-001  7.5000000E-002 0.0
  2.0500000E-001  8.0000000E-002 0.0
  2.0500000E-001  8.5000000E-002 0.0
  2.0500000E-001  9.0000000E-002 0.0
  2.0500000E-001  9.5000000E-002 0.0
  2.0500000E-001  1.0000000E-001 0.0
  2.0500000E-001  1.0500000E-001 0.0
  2.0500000E-001  1.1000000E-001 0.0
  2.0500000E-001  1.1500000E-001 0.0
  2.0500000E-001  1.2000000E-001 0.0
  2.0500000E-001  1.2500000E-001 0.0
  2.0500000E-001  1.3000000E-001 0.0
  2.0500000E-001  1.3500000E-001 0.0
  2.0500000E-001  1.4000000E-001 0.0
  2.0500000E-001  1.4500000E-001 0.0
  2.0500000E-001  1.5000000E-001 0.0
  2.0500000E-001  1.5500000E-001 0.0
  2.0500000E-001  1.6000000E-001 0.0
  2.1000000E-001 -1.2000000E-001 0.0
  2.1000000E-001 -1.1500000E-001 0.0
  2.1000000E-001 -1.1000000E-001 0.0
  2.1000000E-001 -1.0500000E-001 0.0
  2.1000000E-001 -1.0000000E-001 0.0
  2.1000000E-001 -9.5000000E-002 0.0
  2.1000000E-001 -9.0000000E-002 0.0
  2.1000000E-001 -8.5000000E-002 0.0
  2.1000000E-001 -8.0000000E-002 0.0
  2.1000000E-001 -7.5000000E-002 0.0
  2.1000000E-001 -7.0000000E-002 0.0
  2.1000000E-001 -6.5000000E-002 0.0
  2.1000000E-001 -6.0000000E-002 0.0
  2.1000000E-001 -5.5000000E-002 0.0
  2.1000000E-001 -5.0000000E-002 0.0
  2.1000000E-001 -4.5000000E-002 0.0
  2.1000000E-001 -4.0000000E-002 0.0
  2.1000000E-001 -3.5000000E-002 0.0
  2.1000000E-001 -3.0000000E-002 0.0
  2.1000000E-001 -2.5000000E-002 0.0
  2.1000000E-001 -2.0000000E-002 0.0
  2.1000000E-001 -1.5000000E-002 0.0
  2.1000000E-001 -1.0000000E-002 0.0
  2.1000000E-001 -5.0000000E-003 0.0
  2.1000000E-001  0.0000000E+000 0.0
  2.1000000E-001  5.0000000E-003 0.0
  2.0500000E-001  5.0000000E-003 0.0
  2.1000000E-001  6.0000000E-002 0.0
  2.1000000E-001  6.5000000E-002 0.0
  2.1000000E-001  7.0000000E-002 0.0
  2.1000000E-001  7.5000000E-002 0.0
  2.1000000E-001  8.0000000E-002 0.0
  2.1000000E-001  8.5000000E-002 0.0
  2.1000000E-001  9.0000000E-002 0.0
  2.1000000E-001  9.5000000E-002 0.0
  2.1000000E-001  1.0000000E-001 0.0
  2.1000000E-001  1.0500000E-001 0.0
  2.1000000E-001  1.1000000E-001 0.0
  2.1000000E-001  1.1500000E-001 0.0
  2.1000000E-001  1.2000000E-001 0.0
  2.1000000E-001  1.2500000E-001 0.0
  2.1000000E-001  1.3000000E-001 0.0
  2.1000000E-001  1.3500000E-001 0.0
  2.1000000E-001  1.4000000E-001 0.0
  2.1000000E-001  1.4500000E-001 0.0
  2.1000000E-001  1.5000000E-001 0.0
  2.1000000E-001  1.5500000E-001 0.0
  2.1000000E-001  1.6000000E-001 0.0
  2.1500000E-001 -1.2000000E-001 0.0
  2.1500000E-001 -1.1500000E-001 0.0
  2.1500000E-001 -1.1000000E-001 0.0
  2.1500000E-001 -1.0500000E-001 0.0
  2.1500000E-001 -1.0000000E-001 0.0
  2.1500000E-001 -9.5000000E-002 0.0
  2.1500000E-001 -9.0000000E-002 0.0
  2.1500000E-001 -8.5000000E-002 0.0
  2.1500000E-001 -8.0000000E-002 0.0
  2.1500000E-001 -7.5000000E-002 0.0
  2.1500000E-001 -7.0000000E-002 0.0
  2.1500000E-001 -6.5000000E-002 0.0
  2.1500000E-001 -6.0000000E-002 0.0
  2.1500000E-001 -5.5000000E-002 0.0
  2.1500000E-001 -5.0000000E-002 0.0
  2.1500000E-001 -4.5000000E-002 0.0
  2.1500000E-001 -4.0000000E-002 0.0
  2.1500000E-001 -3.5000000E-002 0.0
  2.1500000E-001 -3.0000000E-002 0.0
  2.1500000E-001 -2.5000000E-002 0.0
  2.1500000E-001 -2.0000000E-002 0.0
  2.1500000E-001 -1.5000000E-002 0.0
  2.1500000E-001 -1.0000000E-002 0.0
  2.1500000E-001 -5.0000000E-003 0.0
  2.1500000E-001  0.0000000E+000 0.0
  2.1500000E-001  5.0000000E-003 0.0
  2.1500000E-001  1.0000000E-002 0.0
  2.1000000E-001  1.0000000E-002 0.0
  2.1500000E-001  6.0000000E-002 0.0
  2.1500000E-001  6.5000000E-002 0.0
  2.1500000E-001  7.0000000E-002 0.0
  2.1500000E-001  7.5000000E-002 0.0
  2.1500000E-001  8.0000000E-002 0.0
  2.1500000E-001  8.5000000E-002 0.0
  2.1500000E-001  9.0000000E-002 0.0
  2.1500000E-001  9.5000000E-002 0.0
  2.1500000E-001  1.0000000E-001 0.0
  2.1500000E-001  1.0500000E-001 0.0
  2.1500000E-001  1.1000000E-001 0.0
  2.1500000E-001  1.1500000E-001 0.0
  2.1500000E-001  1.2000000E-001 0.0
  2.1500000E-001  1.2500000E-001 0.0
  2.1500000E-001  1.3000000E-001 0.0
  2.1500000E-001  1.3500000E-001 0.0
  2.1500000E-001  1.4000000E-001 0.0
  2.1500000E-001  1.4500000E-001 0.0
  2.1500000E-001  1.5000000E-001 0.0
  2.1500000E-001  1.5500000E-001 0.0
  2.2000000E-001 -1.2000000E-001 0.0
  2.2000000E-001 -1.1500000E-001 0.0
  2.2000000E-001 -1.1000000E-001 0.0
  2.2000000E-001 -1.0500000E-001 0.0
  2.2000000E-001 -1.0000000E-001 0.0
  2.2000000E-001 -9.5000000E-002 0.0
  2.2000000E-001 -9.0000000E-002 0.0
  2.2000000E-001 -8.5000000E-002 0.0
  2.2000000E-001 -8.0000000E-002 0.0
  2.2000000E-001 -7.5000000E-002 0.0
  2.2000000E-001 -7.0000000E-002 0.0
  2.2000000E-001 -6.5000000E-002 0.0
  2.2000000E-001 -6.0000000E-002 0.0
  2.2000000E-001 -5.5000000E-002 0.0
  2.2000000E-001 -5.0000000E-002 0.0
  2.2000000E-001 -4.5000000E-002 0.0
  2.2000000E-001 -4.0000000E-002 0.0
  2.2000000E-001 -3.5000000E-002 0.0
  2.2000000E-001 -3.0000000E-002 0.0
  2.2000000E-001 -2.5000000E-002 0.0
  2.2000000E-001 -2.0000000E-002 0.0
  2.2000000E-001 -1.5000000E-002 0.0
  2.2000000E-001 -1.0000000E-002 0.0
  2.2000000E-001 -5.0000000E-003 0.0
  2.2000000E-001  0.0000000E+000 0.0
  2.2000000E-001  5.0000000E-003 0.0
  2.2000000E-001  1.0000000E-002 0.0
  2.2000000E-001  1.5000000E-002 0.0
  2.1500000E-001  1.5000000E-002 0.0
  2.1500000E-001  5.5000000E-002 0.0
  2.2000000E-001  5.5000000E-002 0.0
  2.2000000E-001  6.0000000E-002 0.0
  2.2000000E-001  6.5000000E-002 0.0
  2.2000000E-001  7.0000000E-002 0.0
  2.2000000E-001  7.5000000E-002 0.0
  2.2000000E-001  8.0000000E-002 0.0
  2.2000000E-001  8.5000000E-002 0.0
  2.2000000E-001  9.0000000E-002 0.0
  2.2000000E-001  9.5000000E-002 0.0
  2.2000000E-001  1.0000000E-001 0.0
  2.2000000E-001  1.0500000E-001 0.0
  2.2000000E-001  1.1000000E-001 0.0
  2.2000000E-001  1.1500000E-001 0.0
  2.2000000E-001  1.2000000E-001 0.0
  2.2000000E-001  1.2500000E-001 0.0
  2.2000000E-001  1.3000000E-001 0.0
  2.2000000E-001  1.3500000E-001 0.0
  2.2000000E-001  1.4000000E-001 0.0
  2.2000000E-001  1.4500000E-001 0.0
  2.2000000E-001  1.5000000E-001 0.0
  2.2500000E-001 -1.2000000E-001 0.0
  2.2500000E-001 -1.1500000E-001 0.0
  2.2500000E-001 -1.1000000E-001 0.0
  2.2500000E-001 -1.0500000E-001 0.0
  2.2500000E-001 -1.0000000E-001 0.0
  2.2500000E-001 -9.5000000E-002 0.0
  2.2500000E-001 -9.0000000E-002 0.0
  2.2500000E-001 -8.5000000E-002 0.0
  2.2500000E-001 -8.0000000E-002 0.0
  2.2500000E-001 -7.5000000E-002 0.0
  2.2500000E-001 -7.0000000E-002 0.0
  2.2500000E-001 -6.5000000E-002 0.0
  2.2500000E-001 -6.0000000E-002 0.0
  2.2500000E-001 -5.5000000E-002 0.0
  2.2500000E-001 -5.0000000E-002 0.0
  2.2500000E-001 -4.5000000E-002 0.0
  2.2500000E-001 -4.0000000E-002 0.0
  2.2500000E-001 -3.5000000E-002 0.0
  2.2500000E-001 -3.0000000E-002 0.0
  2.2500000E-001 -2.5000000E-002 0.0
  2.2500000E-001 -2.0000000E-002 0.0
  2.2500000E-001 -1.5000000E-002 0.0
  2.2500000E-001 -1.0000000E-002 0.0
  2.2500000E-001 -5.0000000E-003 0.0
  2.2500000E-001  0.0000000E+000 0.0
  2.2500000E-001  5.0000000E-003 0.0
  2.2500000E-001  1.0000000E-002 0.0
  2.2500000E-001  1.5000000E-002 0.0
  2.2500000E-001  2.0000000E-002 0.0
  2.2000000E-001  2.0000000E-002 0.0
  2.2500000E-001  5.5000000E-002 0.0
  2.2500000E-001  6.0000000E-002 0.0
  2.2500000E-001  6.5000000E-002 0.0
  2.2500000E-001  7.0000000E-002 0.0
  2.2500000E-001  7.5000000E-002 0.0
  2.2500000E-001  8.0000000E-002 0.0
  2.2500000E-001  8.5000000E-002 0.0
  2.2500000E-001  9.0000000E-002 0.0
  2.2500000E-001  9.5000000E-002 0.0
  2.2500000E-001  1.0000000E-001 0.0
  2.2500000E-001  1.0500000E-001 0.0
  2.2500000E-001  1.1000000E-001 0.0
  2.2500000E-001  1.1500000E-001 0.0
  2.2500000E-001  1.2000000E-001 0.0
  2.2500000E-001  1.2500000E-001 0.0
  2.2500000E-001  1.3000000E-001 0.0
  2.2500000E-001  1.3500000E-001 0.0
  2.2500000E-001  1.4000000E-001 0.0
  2.2500000E-001  1.4500000E-001 0.0
  2.2500000E-001  1.5000000E-001 0.0
  2.3000000E-001 -1.2000000E-001 0.0
  2.3000000E-001 -1.1500000E-001 0.0
  2.3000000E-001 -1.1000000E-001 0.0
  2.3000000E-001 -1.0500000E-001 0.0
  2.3000000E-001 -1.0000000E-001 0.0
  2.3000000E-001 -9.5000000E-002 0.0
  2.3000000E-001 -9.0000000E-002 0.0
  2.3000000E-001 -8.5000000E-002 0.0
  2.3000000E-001 -8.0000000E-002 0.0
  2.3000000E-001 -7.5000000E-002 0.0
  2.3000000E-001 -7.0000000E-002 0.0
  2.3000000E-001 -6.5000000E-002 0.0
  2.3000000E-001 -6.0000000E-002 0.0
  2.3000000E-001 -5.5000000E-002 0.0
  2.3000000E-001 -5.0000000E-002 0.0
  2.3000000E-001 -4.5000000E-002 0.0
  2.3000000E-001 -4.0000000E-002 0.0
  2.3000000E-001 -3.5000000E-002 0.0
  2.3000000E-001 -3.0000000E-002 0.0
  2.3000000E-001 -2.5000000E-002 0.0
  2.3000000E-001 -2.0000000E-002 0.0
  2.3000000E-001 -1.5000000E-002 0.0
  2.3000000E-001 -1.0000000E-002 0.0
  2.3000000E-001 -5.0000000E-003 0.0
  2.3000000E-001  0.0000000E+000 0.0
  2.3000000E-001  5.0000000E-003 0.0
  2.3000000E-001  1.0000000E-002 0.0
  2.3000000E-001  1.5000000E-002 0.0
  2.3000000E-001  2.0000000E-002 0.0
  2.3000000E-001  2.5000000E-002 0.0
  2.2500000E-001  2.5000000E-002 0.0
  2.2500000E-001  5.0000000E-002 0.0
  2.3000000E-001  5.0000000E-002 0.0
  2.3000000E-001  5.5000000E-002 0.0
  2.3000000E-001  6.0000000E-002 0.0
  2.3000000E-001  6.5000000E-002 0.0
  2.3000000E-001  7.0000000E-002 0.0
  2.3000000E-001  7.5000000E-002 0.0
  2.3000000E-001  8.0000000E-002 0.0
  2.3000000E-001  8.5000000E-002 0.0
  2.3000000E-001  9.0000000E-002 0.0
  2.3000000E-001  9.5000000E-002 0.0
  2.3000000E-001  1.0000000E-001 0.0
  2.3000000E-001  1.0500000E-001 0.0
  2.3000000E-001  1.1000000E-001 0.0
  2.3000000E-001  1.1500000E-001 0.0
  2.3000000E-001  1.2000000E-001 0.0
  2.3000000E-001  1.2500000E-001 0.0
  2.3000000E-001  1.3000000E-001 0.0
  2.3000000E-001  1.3500000E-001 0.0
  2.3000000E-001  1.4000000E-001 0.0
  2.3000000E-001  1.4500000E-001 0.0
  2.3500000E-001 -1.2000000E-001 0.0
  2.3500000E-001 -1.1500000E-001 0.0
  2.3500000E-001 -1.1000000E-001 0.0
  2.3500000E-001 -1.0500000E-001 0.0
  2.3500000E-001 -1.0000000E-001 0.0
  2.3500000E-001 -9.5000000E-002 0.0
  2.3500000E-001 -9.0000000E-002 0.0
  2.3500000E-001 -8.5000000E-002 0.0
  2.3500000E-001 -8.0000000E-002 0.0
  2.3500000E-001 -7.5000000E-002 0.0
  2.3500000E-001 -7.0000000E-002 0.0
  2.3500000E-001 -6.5000000E-002 0.0
  2.3500000E-001 -6.0000000E-002 0.0
  2.3500000E-001 -5.5000000E-002 0.0
  2.3500000E-001 -5.0000000E-002 0.0
  2.3500000E-001 -4.5000000E-002 0.0
  2.3500000E-001 -4.0000000E-002 0.0
  2.3500000E-001 -3.5000000E-002 0.0
  2.3500000E-001 -3.0000000E-002 0.0
  2.3500000E-001 -2.5000000E-002 0.0
  2.3500000E-001 -2.0000000E-002 0.0
  2.3500000E-001 -1.5000000E-002 0.0
  2.3500000E-001 -1.0000000E-002 0.0
  2.3500000E-001 -5.0000000E-003 0.0
  2.3500000E-001  0.0000000E+000 0.0
  2.3500000E-001  5.0000000E-003 0.0
  2.3500000E-001  1.0000000E-002 0.0
  2.3500000E-001  1.5000000E-002 0.0
  2.3500000E-001  2.0000000E-002 0.0
  2.3500000E-001  2.5000000E-002 0.0
  2.3500000E-001  3.0000000E-002 0.0
  2.3000000E-001  3.0000000E-002 0.0
  2.3500000E-001  3.5000000E-002 0.0
  2.3000000E-001  3.5000000E-002 0.0
  2.3500000E-001  4.0000000E-002 0.0
  2.3000000E-001  4.0000000E-002 0.0
  2.3500000E-001  4.5000000E-002 0.0
  2.3000000E-001  4.5000000E-002 0.0
  2.3500000E-001  5.0000000E-002 0.0
  2.3500000E-001  5.5000000E-002 0.0
  2.3500000E-001  6.0000000E-002 0.0
  2.3500000E-001  6.5000000E-002 0.0
  2.3500000E-001  7.0000000E-002 0.0
  2.3500000E-001  7.5000000E-002 0.0
  2.3500000E-001  8.0000000E-002 0.0
  2.3500000E-001  8.5000000E-002 0.0
  2.3500000E-001  9.0000000E-002 0.0
  2.3500000E-001  9.5000000E-002 0.0
  2.3500000E-001  1.0000000E-001 0.0
  2.3500000E-001  1.0500000E-001 0.0
  2.3500000E-001  1.1000000E-001 0.0
  2.3500000E-001  1.1500000E-001 0.0
  2.3500000E-001  1.2000000E-001 0.0
  2.3500000E-001  1.2500000E-001 0.0
  2.3500000E-001  1.3000000E-001 0.0
  2.3500000E-001  1.3500000E-001 0.0
  2.3500000E-001  1.4000000E-001 0.0
  2.3500000E-001  1.4500000E-001 0.0
  2.4000000E-001 -1.2000000E-001 0.0
  2.4000000E-001 -1.1500000E-001 0.0
  2.4000000E-001 -1.1000000E-001 0.0
  2.4000000E-001 -1.0500000E-001 0.0
  2.4000000E-001 -1.0000000E-001 0.0
  2.4000000E-001 -9.5000000E-002 0.0
  2.4000000E-001 -9.0000000E-002 0.0
  2.4000000E-001 -8.5000000E-002 0.0
  2.4000000E-001 -8.0000000E-002 0.0
  2.4000000E-001 -7.5000000E-002 0.0
  2.4000000E-001 -7.0000000E-002 0.0
  2.4000000E-001 -6.5000000E-002 0.0
  2.4000000E-001 -6.0000000E-002 0.0
  2.4000000E-001 -5.5000000E-002 0.0
  2.4000000E-001 -5.0000000E-002 0.0
  2.4000000E-001 -4.5000000E-002 0.0
  2.4000000E-001 -4.0000000E-002 0.0
  2.4000000E-001 -3.5000000E-002 0.0
  2.4000000E-001 -3.0000000E-002 0.0
  2.4000000E-001 -2.5000000E-002 0.0
  2.4000000E-001 -2.0000000E-002 0.0
  2.4000000E-001 -1.5000000E-002 0.0
  2.4000000E-001 -1.0000000E-002 0.0
  2.4000000E-001 -5.0000000E-003 0.0
  2.4000000E-001  0.0000000E+000 0.0
  2.4000000E-001  5.0000000E-003 0.0
  2.4000000E-001  1.0000000E-002 0.0
  2.4000000E-001  1.5000000E-002 0.0
  2.4000000E-001  2.0000000E-002 0.0
  2.4000000E-001  2.5000000E-002 0.0
  2.4000000E-001  3.0000000E-002 0.0
  2.4000000E-001  3.5000000E-002 0.0
  2.4000000E-001  4.0000000E-002 0.0
  2.4000000E-001  4.5000000E-002 0.0
  2.4000000E-001  5.0000000E-002 0.0
  2.4000000E-001  5.5000000E-002 0.0
  2.4000000E-001  6.0000000E-002 0.0
  2.4000000E-001  6.5000000E-002 0.0
  2.4000000E-001  7.0000000E-002 0.0
  2.4000000E-001  7.5000000E-002 0.0
  2.4000000E-001  8.0000000E-002 0.0
  2.4000000E-001  8.5000000E-002 0.0
  2.4000000E-001  9.0000000E-002 0.0
  2.4000000E-001  9.5000000E-002 0.0
  2.4000000E-001  1.0000000E-001 0.0
  2.4000000E-001  1.0500000E-001 0.0
  2.4000000E-001  1.1000000E-001 0.0
  2.4000000E-001  1.1500000E-001 0.0
  2.4000000E-001  1.2000000E-001 0.0
  2.4000000E-001  1.2500000E-001 0.0
  2.4000000E-001  1.3000000E-001 0.0
  2.4000000E-001  1.3500000E-001 0.0
  2.4000000E-001  1.4000000E-001 0.0
  2.4000000E-001  1.4500000E-001 0.0
  2.4000000E-001  1.5000000E-001 0.0
  2.3500000E-001  1.5000000E-001 0.0
  2.4500000E-001 -1.2000000E-001 0.0
  2.4500000E-001 -1.1500000E-001 0.0
  2.4500000E-001 -1.1000000E-001 0.0
  2.4500000E-001 -1.0500000E-001 0.0
  2.4500000E-001 -1.0000000E-001 0.0
  2.4500000E-001 -9.5000000E-002 0.0
  2.4500000E-001 -9.0000000E-002 0.0
  2.4500000E-001 -8.5000000E-002 0.0
  2.4500000E-001 -8.0000000E-002 0.0
  2.4500000E-001 -7.5000000E-002 0.0
  2.4500000E-001 -7.0000000E-002 0.0
  2.4500000E-001 -6.5000000E-002 0.0
  2.4500000E-001 -6.0000000E-002 0.0
  2.4500000E-001 -5.5000000E-002 0.0
  2.4500000E-001 -5.0000000E-002 0.0
  2.4500000E-001 -4.5000000E-002 0.0
  2.4500000E-001 -4.0000000E-002 0.0
  2.4500000E-001 -3.5000000E-002 0.0
  2.4500000E-001 -3.0000000E-002 0.0
  2.4500000E-001 -2.5000000E-002 0.0
  2.4500000E-001 -2.0000000E-002 0.0
  2.4500000E-001 -1.5000000E-002 0.0
  2.4500000E-001 -1.0000000E-002 0.0
  2.4500000E-001 -5.0000000E-003 0.0
  2.4500000E-001  0.0000000E+000 0.0
  2.4500000E-001  5.0000000E-003 0.0
  2.4500000E-001  1.0000000E-002 0.0
  2.4500000E-001  1.5000000E-002 0.0
  2.4500000E-001  2.0000000E-002 0.0
  2.4500000E-001  2.5000000E-002 0.0
  2.4500000E-001  3.0000000E-002 0.0
  2.4500000E-001  3.5000000E-002 0.0
  2.4500000E-001  4.0000000E-002 0.0
  2.4500000E-001  4.5000000E-002 0.0
  2.4500000E-001  5.0000000E-002 0.0
  2.4500000E-001  5.5000000E-002 0.0
  2.4500000E-001  6.0000000E-002 0.0
  2.4500000E-001  6.5000000E-002 0.0
  2.4500000E-001  7.0000000E-002 0.0
  2.4500000E-001  7.5000000E-002 0.0
  2.4500000E-001  8.0000000E-002 0.0
  2.4500000E-001  8.5000000E-002 0.0
  2.4500000E-001  9.0000000E-002 0.0
  2.4500000E-001  9.5000000E-002 0.0
  2.4500000E-001  1.0000000E-001 0.0
  2.4500000E-001  1.0500000E-001 0.0
  2.4500000E-001  1.1000000E-001 0.0
  2.4500000E-001  1.1500000E-001 0.0
  2.4500000E-001  1.2000000E-001 0.0
  2.4500000E-001  1.2500000E-001 0.0
  2.4500000E-001  1.3000000E-001 0.0
  2.4500000E-001  1.3500000E-001 0.0
  2.4500000E-001  1.4000000E-001 0.0
  2.4500000E-001  1.4500000E-001 0.0
  2.4500000E-001  1.5000000E-001 0.0
  2.5000000E-001 -1.2000000E-001 0.0
  2.5000000E-001 -1.1500000E-001 0.0
  2.5000000E-001 -1.1000000E-001 0.0
  2.5000000E-001 -1.0500000E-001 0.0
  2.5000000E-001 -1.0000000E-001 0.0
  2.5000000E-001 -9.5000000E-002 0.0
  2.5000000E-001 -9.0000000E-002 0.0
  2.5000000E-001 -8.5000000E-002 0.0
  2.5000000E-001 -8.0000000E-002 0.0
  2.5000000E-001 -7.5000000E-002 0.0
  2.5000000E-001 -7.0000000E-002 0.0
  2.5000000E-001 -6.5000000E-002 0.0
  2.5000000E-001 -6.0000000E-002 0.0
  2.5000000E-001 -5.5000000E-002 0.0
  2.5000000E-001 -5.0000000E-002 0.0
  2.5000000E-001 -4.5000000E-002 0.0
  2.5000000E-001 -4.0000000E-002 0.0
  2.5000000E-001 -3.5000000E-002 0.0
  2.5000000E-001 -3.0000000E-002 0.0
  2.5000000E-001 -2.5000000E-002 0.0
  2.5000000E-001 -2.0000000E-002 0.0
  2.5000000E-001 -1.5000000E-002 0.0
  2.5000000E-001 -1.0000000E-002 0.0
  2.5000000E-001 -5.0000000E-003 0.0
  2.5000000E-001  0.0000000E+000 0.0
  2.5000000E-001  5.0000000E-003 0.0
  2.5000000E-001  1.0000000E-002 0.0
  2.5000000E-001  1.5000000E-002 0.0
  2.5000000E-001  2.0000000E-002 0.0
  2.5000000E-001  2.5000000E-002 0.0
  2.5000000E-001  3.0000000E-002 0.0
  2.5000000E-001  3.5000000E-002 0.0
  2.5000000E-001  4.0000000E-002 0.0
  2.5000000E-001  4.5000000E-002 0.0
  2.5000000E-001  5.0000000E-002 0.0
  2.5000000E-001  5.5000000E-002 0.0
  2.5000000E-001  6.0000000E-002 0.0
  2.5000000E-001  6.5000000E-002 0.0
  2.5000000E-001  7.0000000E-002 0.0
  2.5000000E-001  7.5000000E-002 0.0
  2.5000000E-001  8.0000000E-002 0.0
  2.5000000E-001  8.5000000E-002 0.0
  2.5000000E-001  9.0000000E-002 0.0
  2.5000000E-001  9.5000000E-002 0.0
  2.5000000E-001  1.0000000E-001 0.0
  2.5000000E-001  1.0500000E-001 0.0
  2.5000000E-001  1.1000000E-001 0.0
  2.5000000E-001  1.1500000E-001 0.0
  2.5000000E-001  1.2000000E-001 0.0
  2.5000000E-001  1.2500000E-001 0.0
  2.5000000E-001  1.3000000E-001 0.0
  2.5000000E-001  1.3500000E-001 0.0
  2.5000000E-001  1.4000000E-001 0.0
  2.5000000E-001  1.4500000E-001 0.0
  2.5000000E-001  1.5000000E-001 0.0
  2.5500000E-001 -1.2000000E-001 0.0
  2.5500000E-001 -1.1500000E-001 0.0
  2.5500000E-001 -1.1000000E-001 0.0
  2.5500000E-001 -1.0500000E-001 0.0
  2.5500000E-001 -1.0000000E-001 0.0
  2.5500000E-001 -9.5000000E-002 0.0
  2.5500000E-001 -9.0000000E-002 0.0
  2.5500000E-001 -8.5000000E-002 0.0
  2.5500000E-001 -8.0000000E-002 0.0
  2.5500000E-001 -7.5000000E-002 0.0
  2.5500000E-001 -7.0000000E-002 0.0
  2.5500000E-001 -6.5000000E-002 0.0
  2.5500000E-001 -6.0000000E-002 0.0
  2.5500000E-001 -5.5000000E-002 0.0
  2.5500000E-001 -5.0000000E-002 0.0
  2.5500000E-001 -4.5000000E-002 0.0
  2.5500000E-001 -4.0000000E-002 0.0
  2.5500000E-001 -3.5000000E-002 0.0
  2.5500000E-001 -3.0000000E-002 0.0
  2.5500000E-001 -2.5000000E-002 0.0
  2.5500000E-001 -2.0000000E-002 0.0
  2.5500000E-001 -1.5000000E-002 0.0
  2.5500000E-001 -1.0000000E-002 0.0
  2.5500000E-001 -5.0000000E-003 0.0
  2.5500000E-001  0.0000000E+000 0.0
  2.5500000E-001  5.0000000E-003 0.0
  2.5500000E-001  1.0000000E-002 0.0
  2.5500000E-001  1.5000000E-002 0.0
  2.5500000E-001  2.0000000E-002 0.0
  2.5500000E-001  2.5000000E-002 0.0
  2.5500000E-001  3.0000000E-002 0.0
  2.5500000E-001  3.5000000E-002 0.0
  2.5500000E-001  4.0000000E-002 0.0
  2.5500000E-001  4.5000000E-002 0.0
  2.5500000E-001  5.0000000E-002 0.0
  2.5500000E-001  5.5000000E-002 0.0
  2.5500000E-001  6.0000000E-002 0.0
  2.5500000E-001  6.5000000E-002 0.0
  2.5500000E-001  7.0000000E-002 0.0
  2.5500000E-001  7.5000000E-002 0.0
  2.5500000E-001  8.0000000E-002 0.0
  2.5500000E-001  8.5000000E-002 0.0
  2.5500000E-001  9.0000000E-002 0.0
  2.5500000E-001  9.5000000E-002 0.0
  2.5500000E-001  1.0000000E-001 0.0
  2.5500000E-001  1.0500000E-001 0.0
  2.5500000E-001  1.1000000E-001 0.0
  2.5500000E-001  1.1500000E-001 0.0
  2.5500000E-001  1.2000000E-001 0.0
  2.5500000E-001  1.2500000E-001 0.0
  2.5500000E-001  1.3000000E-001 0.0
  2.5500000E-001  1.3500000E-001 0.0
  2.5500000E-001  1.4000000E-001 0.0
  2.5500000E-001  1.4500000E-001 0.0
  2.5500000E-001  1.5000000E-001 0.0
  2.6000000E-001 -1.2000000E-001 0.0
  2.6000000E-001 -1.1500000E-001 0.0
  2.6000000E-001 -1.1000000E-001 0.0
  2.6000000E-001 -1.0500000E-001 0.0
  2.6000000E-001 -1.0000000E-001 0.0
  2.6000000E-001 -9.5000000E-002 0.0
  2.6000000E-001 -9.0000000E-002 0.0
  2.6000000E-001 -8.5000000E-002 0.0
  2.6000000E-001 -8.0000000E-002 0.0
  2.6000000E-001 -7.5000000E-002 0.0
  2.6000000E-001 -7.0000000E-002 0.0
  2.6000000E-001 -6.5000000E-002 0.0
  2.6000000E-001 -6.0000000E-002 0.0
  2.6000000E-001 -5.5000000E-002 0.0
  2.6000000E-001 -5.0000000E-002 0.0
  2.6000000E-001 -4.5000000E-002 0.0
  2.6000000E-001 -4.0000000E-002 0.0
  2.6000000E-001 -3.5000000E-002 0.0
  2.6000000E-001 -3.0000000E-002 0.0
  2.6000000E-001 -2.5000000E-002 0.0
  2.6000000E-001 -2.0000000E-002 0.0
  2.6000000E-001 -1.5000000E-002 0.0
  2.6000000E-001 -1.0000000E-002 0.0
  2.6000000E-001 -5.0000000E-003 0.0
  2.6000000E-001  0.0000000E+000 0.0
  2.6000000E-001  5.0000000E-003 0.0
  2.6000000E-001  1.0000000E-002 0.0
  2.6000000E-001  1.5000000E-002 0.0
  2.6000000E-001  2.0000000E-002 0.0
  2.6000000E-001  2.5000000E-002 0.0
  2.6000000E-001  3.0000000E-002 0.0
  2.6000000E-001  3.5000000E-002 0.0
  2.6000000E-001  4.0000000E-002 0.0
  2.6000000E-001  4.5000000E-002 0.0
  2.6000000E-001  5.0000000E-002 0.0
  2.6000000E-001  5.5000000E-002 0.0
  2.6000000E-001  6.0000000E-002 0.0
  2.6000000E-001  6.5000000E-002 0.0
  2.6000000E-001  7.0000000E-002 0.0
  2.6000000E-001  7.5000000E-002 0.0
  2.6000000E-001  8.0000000E-002 0.0
  2.6000000E-001  8.5000000E-002 0.0
  2.6000000E-001  9.0000000E-002 0.0
  2.6000000E-001  9.5000000E-002 0.0
  2.6000000E-001  1.0000000E-001 0.0
  2.6000000E-001  1.0500000E-001 0.0
  2.6000000E-001  1.1000000E-001 0.0
  2.6000000E-001  1.1500000E-001 0.0
  2.6000000E-001  1.2000000E-001 0.0
  2.6000000E-001  1.2500000E-001 0.0
  2.6000000E-001  1.3000000E-001 0.0
  2.6000000E-001  1.3500000E-001 0.0
  2.6000000E-001  1.4000000E-001 0.0
  2.6000000E-001  1.4500000E-001 0.0
  2.6000000E-001  1.5000000E-001 0.0
  2.6500000E-001 -1.2000000E-001 0.0
  2.6500000E-001 -1.1500000E-001 0.0
  2.6500000E-001 -1.1000000E-001 0.0
  2.6500000E-001 -1.0500000E-001 0.0
  2.6500000E-001 -1.0000000E-001 0.0
  2.6500000E-001 -9.5000000E-002 0.0
  2.6500000E-001 -9.0000000E-002 0.0
  2.6500000E-001 -8.5000000E-002 0.0
  2.6500000E-001 -8.0000000E-002 0.0
  2.6500000E-001 -7.5000000E-002 0.0
  2.6500000E-001 -7.0000000E-002 0.0
  2.6500000E-001 -6.5000000E-002 0.0
  2.6500000E-001 -6.0000000E-002 0.0
  2.6500000E-001 -5.5000000E-002 0.0
  2.6500000E-001 -5.0000000E-002 0.0
  2.6500000E-001 -4.5000000E-002 0.0
  2.6500000E-001 -4.0000000E-002 0.0
  2.6500000E-001 -3.5000000E-002 0.0
  2.6500000E-001 -3.0000000E-002 0.0
  2.6500000E-001 -2.5000000E-002 0.0
  2.6500000E-001 -2.0000000E-002 0.0
  2.6500000E-001 -1.5000000E-002 0.0
  2.6500000E-001 -1.0000000E-002 0.0
  2.6500000E-001 -5.0000000E-003 0.0
  2.6500000E-001  0.0000000E+000 0.0
  2.6500000E-001  5.0000000E-003 0.0
  2.6500000E-001  1.0000000E-002 0.0
  2.6500000E-001  1.5000000E-002 0.0
  2.6500000E-001  2.0000000E-002 0.0
  2.6500000E-001  2.5000000E-002 0.0
  2.6500000E-001  3.0000000E-002 0.0
  2.6500000E-001  3.5000000E-002 0.0
  2.6500000E-001  4.0000000E-002 0.0
  2.6500000E-001  4.5000000E-002 0.0
  2.6500000E-001  5.0000000E-002 0.0
  2.6500000E-001  5.5000000E-002 0.0
  2.6500000E-001  6.0000000E-002 0.0
  2.6500000E-001  6.5000000E-002 0.0
  2.6500000E-001  7.0000000E-002 0.0
  2.6500000E-001  7.5000000E-002 0.0
  2.6500000E-001  8.0000000E-002 0.0
  2.6500000E-001  8.5000000E-002 0.0
  2.6500000E-001  9.0000000E-002 0.0
  2.6500000E-001  9.5000000E-002 0.0
  2.6500000E-001  1.0000000E-001 0.0
  2.6500000E-001  1.0500000E-001 0.0
  2.6500000E-001  1.1000000E-001 0.0
  2.6500000E-001  1.1500000E-001 0.0
  2.6500000E-001  1.2000000E-001 0.0
  2.6500000E-001  1.2500000E-001 0.0
  2.6500000E-001  1.3000000E-001 0.0
  2.6500000E-001  1.3500000E-001 0.0
  2.6500000E-001  1.4000000E-001 0.0
  2.6500000E-001  1.4500000E-001 0.0
  2.7000000E-001 -1.2000000E-001 0.0
  2.7000000E-001 -1.1500000E-001 0.0
  2.7000000E-001 -1.1000000E-001 0.0
  2.7000000E-001 -1.0500000E-001 0.0
  2.7000000E-001 -1.0000000E-001 0.0
  2.7000000E-001 -9.5000000E-002 0.0
  2.7000000E-001 -9.0000000E-002 0.0
  2.7000000E-001 -8.5000000E-002 0.0
  2.7000000E-001 -8.0000000E-002 0.0
  2.7000000E-001 -7.5000000E-002 0.0
  2.7000000E-001 -7.0000000E-002 0.0
  2.7000000E-001 -6.5000000E-002 0.0
  2.7000000E-001 -6.0000000E-002 0.0
  2.7000000E-001 -5.5000000E-002 0.0
  2.7000000E-001 -5.0000000E-002 0.0
  2.7000000E-001 -4.5000000E-002 0.0
  2.7000000E-001 -4.0000000E-002 0.0
  2.7000000E-001 -3.5000000E-002 0.0
  2.7000000E-001 -3.0000000E-002 0.0
  2.7000000E-001 -2.5000000E-002 0.0
  2.7000000E-001 -2.0000000E-002 0.0
  2.7000000E-001 -1.5000000E-002 0.0
  2.7000000E-001 -1.0000000E-002 0.0
  2.7000000E-001 -5.0000000E-003 0.0
  2.7000000E-001  0.0000000E+000 0.0
  2.7000000E-001  5.0000000E-003 0.0
  2.7000000E-001  1.0000000E-002 0.0
  2.7000000E-001  1.5000000E-002 0.0
  2.7000000E-001  2.0000000E-002 0.0
  2.7000000E-001  2.5000000E-002 0.0
  2.7000000E-001  3.0000000E-002 0.0
  2.7000000E-001  3.5000000E-002 0.0
  2.7000000E-001  4.0000000E-002 0.0
  2.7000000E-001  4.5000000E-002 0.0
  2.7000000E-001  5.0000000E-002 0.0
  2.7000000E-001  5.5000000E-002 0.0
  2.7000000E-001  6.0000000E-002 0.0
  2.7000000E-001  6.5000000E-002 0.0
  2.7000000E-001  7.0000000E-002 0.0
  2.7000000E-001  7.5000000E-002 0.0
  2.7000000E-001  8.0000000E-002 0.0
  2.7000000E-001  8.5000000E-002 0.0
  2.7000000E-001  9.0000000E-002 0.0
  2.7000000E-001  9.5000000E-002 0.0
  2.7000000E-001  1.0000000E-001 0.0
  2.7000000E-001  1.0500000E-001 0.0
  2.7000000E-001  1.1000000E-001 0.0
  2.7000000E-001  1.1500000E-001 0.0
  2.7000000E-001  1.2000000E-001 0.0
  2.7000000E-001  1.2500000E-001 0.0
  2.7000000E-001  1.3000000E-001 0.0
  2.7000000E-001  1.3500000E-001 0.0
  2.7000000E-001  1.4000000E-001 0.0
  2.7000000E-001  1.4500000E-001 0.0
  2.7500000E-001 -1.2000000E-001 0.0
  2.7500000E-001 -1.1500000E-001 0.0
  2.7500000E-001 -1.1000000E-001 0.0
  2.7500000E-001 -1.0500000E-001 0.0
  2.7500000E-001 -1.0000000E-001 0.0
  2.7500000E-001 -9.5000000E-002 0.0
  2.7500000E-001 -9.0000000E-002 0.0
  2.7500000E-001 -8.5000000E-002 0.0
  2.7500000E-001 -8.0000000E-002 0.0
  2.7500000E-001 -7.5000000E-002 0.0
  2.7500000E-001 -7.0000000E-002 0.0
  2.7500000E-001 -6.5000000E-002 0.0
  2.7500000E-001 -6.0000000E-002 0.0
  2.7500000E-001 -5.5000000E-002 0.0
  2.7500000E-001 -5.0000000E-002 0.0
  2.7500000E-001 -4.5000000E-002 0.0
  2.7500000E-001 -4.0000000E-002 0.0
  2.7500000E-001 -3.5000000E-002 0.0
  2.7500000E-001 -3.0000000E-002 0.0
  2.7500000E-001 -2.5000000E-002 0.0
  2.7500000E-001 -2.0000000E-002 0.0
  2.7500000E-001 -1.5000000E-002 0.0
  2.7500000E-001 -1.0000000E-002 0.0
  2.7500000E-001 -5.0000000E-003 0.0
  2.7500000E-001  0.0000000E+000 0.0
  2.7500000E-001  5.0000000E-003 0.0
  2.7500000E-001  1.0000000E-002 0.0
  2.7500000E-001  1.5000000E-002 0.0
  2.7500000E-001  2.0000000E-002 0.0
  2.7500000E-001  2.5000000E-002 0.0
  2.7500000E-001  3.0000000E-002 0.0
  2.7500000E-001  3.5000000E-002 0.0
  2.7500000E-001  4.0000000E-002 0.0
  2.7500000E-001  4.5000000E-002 0.0
  2.7500000E-001  5.0000000E-002 0.0
  2.7500000E-001  5.5000000E-002 0.0
  2.7500000E-001  6.0000000E-002 0.0
  2.7500000E-001  6.5000000E-002 0.0
  2.7500000E-001  7.0000000E-002 0.0
  2.7500000E-001  7.5000000E-002 0.0
  2.7500000E-001  8.0000000E-002 0.0
  2.7500000E-001  8.5000000E-002 0.0
  2.7500000E-001  9.0000000E-002 0.0
  2.7500000E-001  9.5000000E-002 0.0
  2.7500000E-001  1.0000000E-001 0.0
  2.7500000E-001  1.0500000E-001 0.0
  2.7500000E-001  1.1000000E-001 0.0
  2.7500000E-001  1.1500000E-001 0.0
  2.7500000E-001  1.2000000E-001 0.0
  2.7500000E-001  1.2500000E-001 0.0
  2.7500000E-001  1.3000000E-001 0.0
  2.7500000E-001  1.3500000E-001 0.0
  2.7500000E-001  1.4000000E-001 0.0
  2.7500000E-001  1.4500000E-001 0.0
  2.8000000E-001 -1.2000000E-001 0.0
  2.8000000E-001 -1.1500000E-001 0.0
  2.8000000E-001 -1.1000000E-001 0.0
  2.8000000E-001 -1.0500000E-001 0.0
  2.8000000E-001 -1.0000000E-001 0.0
  2.8000000E-001 -9.5000000E-002 0.0
  2.8000000E-001 -9.0000000E-002 0.0
  2.8000000E-001 -8.5000000E-002 0.0
  2.8000000E-001 -8.0000000E-002 0.0
  2.8000000E-001 -7.5000000E-002 0.0
  2.8000000E-001 -7.0000000E-002 0.0
  2.8000000E-001 -6.5000000E-002 0.0
  2.8000000E-001 -6.0000000E-002 0.0
  2.8000000E-001 -5.5000000E-002 0.0
  2.8000000E-001 -5.0000000E-002 0.0
  2.8000000E-001 -4.5000000E-002 0.0
  2.8000000E-001 -4.0000000E-002 0.0
  2.8000000E-001 -3.5000000E-002 0.0
  2.8000000E-001 -3.0000000E-002 0.0
  2.8000000E-001 -2.5000000E-002 0.0
  2.8000000E-001 -2.0000000E-002 0.0
  2.8000000E-001 -1.5000000E-002 0.0
  2.8000000E-001 -1.0000000E-002 0.0
  2.8000000E-001 -5.0000000E-003 0.0
  2.8000000E-001  0.0000000E+000 0.0
  2.8000000E-001  5.0000000E-003 0.0
  2.8000000E-001  1.0000000E-002 0.0
  2.8000000E-001  1.5000000E-002 0.0
  2.8000000E-001  2.0000000E-002 0.0
  2.8000000E-001  2.5000000E-002 0.0
  2.8000000E-001  3.0000000E-002 0.0
  2.8000000E-001  3.5000000E-002 0.0
  2.8000000E-001  4.0000000E-002 0.0
  2.8000000E-001  4.5000000E-002 0.0
  2.8000000E-001  5.0000000E-002 0.0
  2.8000000E-001  5.5000000E-002 0.0
  2.8000000E-001  6.0000000E-002 0.0
  2.8000000E-001  6.5000000E-002 0.0
  2.8000000E-001  7.0000000E-002 0.0
  2.8000000E-001  7.5000000E-002 0.0
  2.8000000E-001  8.0000000E-002 0.0
  2.8000000E-001  8.5000000E-002 0.0
  2.8000000E-001  9.0000000E-002 0.0
  2.8000000E-001  9.5000000E-002 0.0
  2.8000000E-001  1.0000000E-001 0.0
  2.8000000E-001  1.0500000E-001 0.0
  2.8000000E-001  1.1000000E-001 0.0
  2.8000000E-001  1.1500000E-001 0.0
  2.8000000E-001  1.2000000E-001 0.0
  2.8000000E-001  1.2500000E-001 0.0
  2.8000000E-001  1.3000000E-001 0.0
  2.8000000E-001  1.3500000E-001 0.0
  2.8000000E-001  1.4000000E-001 0.0
  2.8000000E-001  1.4500000E-001 0.0
  2.8500000E-001 -1.2000000E-001 0.0
  2.8500000E-001 -1.1500000E-001 0.0
  2.8500000E-001 -1.1000000E-001 0.0
  2.8500000E-001 -1.0500000E-001 0.0
  2.8500000E-001 -1.0000000E-001 0.0
  2.8500000E-001 -9.5000000E-002 0.0
  2.8500000E-001 -9.0000000E-002 0.0
  2.8500000E-001 -8.5000000E-002 0.0
  2.8500000E-001 -8.0000000E-002 0.0
  2.8500000E-001 -7.5000000E-002 0.0
  2.8500000E-001 -7.0000000E-002 0.0
  2.8500000E-001 -6.5000000E-002 0.0
  2.8500000E-001 -6.0000000E-002 0.0
  2.8500000E-001 -5.5000000E-002 0.0
  2.8500000E-001 -5.0000000E-002 0.0
  2.8500000E-001 -4.5000000E-002 0.0
  2.8500000E-001 -4.0000000E-002 0.0
  2.8500000E-001 -3.5000000E-002 0.0
  2.8500000E-001 -3.0000000E-002 0.0
  2.8500000E-001 -2.5000000E-002 0.0
  2.8500000E-001 -2.0000000E-002 0.0
  2.8500000E-001 -1.5000000E-002 0.0
  2.8500000E-001 -1.0000000E-002 0.0
  2.8500000E-001 -5.0000000E-003 0.0
  2.8500000E-001  0.0000000E+000 0.0
  2.8500000E-001  5.0000000E-003 0.0
  2.8500000E-001  1.0000000E-002 0.0
  2.8500000E-001  1.5000000E-002 0.0
  2.8500000E-001  2.0000000E-002 0.0
  2.8500000E-001  2.5000000E-002 0.0
  2.8500000E-001  3.0000000E-002 0.0
  2.8500000E-001  3.5000000E-002 0.0
  2.8500000E-001  4.0000000E-002 0.0
  2.8500000E-001  4.5000000E-002 0.0
  2.8500000E-001  5.0000000E-002 0.0
  2.8500000E-001  5.5000000E-002 0.0
  2.8500000E-001  6.0000000E-002 0.0
  2.8500000E-001  6.5000000E-002 0.0
  2.8500000E-001  7.0000000E-002 0.0
  2.8500000E-001  7.5000000E-002 0.0
  2.8500000E-001  8.0000000E-002 0.0
  2.8500000E-001  8.5000000E-002 0.0
  2.8500000E-001  9.0000000E-002 0.0
  2.8500000E-001  9.5000000E-002 0.0
  2.8500000E-001  1.0000000E-001 0.0
  2.8500000E-001  1.0500000E-001 0.0
  2.8500000E-001  1.1000000E-001 0.0
  2.8500000E-001  1.1500000E-001 0.0
  2.8500000E-001  1.2000000E-001 0.0
  2.8500000E-001  1.2500000E-001 0.0
  2.8500000E-001  1.3000000E-001 0.0
  2.8500000E-001  1.3500000E-001 0.0
  2.8500000E-001  1.4000000E-001 0.0
  2.8500000E-001  1.4500000E-001 0.0
  2.9000000E-001 -1.1500000E-001 0.0
  2.9000000E-001 -1.1000000E-001 0.0
  2.9000000E-001 -1.0500000E-001 0.0
  2.9000000E-001 -1.0000000E-001 0.0
  2.9000000E-001 -9.5000000E-002 0.0
  2.9000000E-001 -9.0000000E-002 0.0
  2.9000000E-001 -8.5000000E-002 0.0
  2.9000000E-001 -8.0000000E-002 0.0
  2.9000000E-001 -7.5000000E-002 0.0
  2.9000000E-001 -7.0000000E-002 0.0
  2.9000000E-001 -6.5000000E-002 0.0
  2.9000000E-001 -6.0000000E-002 0.0
  2.9000000E-001 -5.5000000E-002 0.0
  2.9000000E-001 -5.0000000E-002 0.0
  2.9000000E-001 -4.5000000E-002 0.0
  2.9000000E-001 -4.0000000E-002 0.0
  2.9000000E-001 -3.5000000E-002 0.0
  2.9000000E-001 -3.0000000E-002 0.0
  2.9000000E-001 -2.5000000E-002 0.0
  2.9000000E-001 -2.0000000E-002 0.0
  2.9000000E-001 -1.5000000E-002 0.0
  2.9000000E-001 -1.0000000E-002 0.0
  2.9000000E-001 -5.0000000E-003 0.0
  2.9000000E-001  0.0000000E+000 0.0
  2.9000000E-001  5.0000000E-003 0.0
  2.9000000E-001  1.0000000E-002 0.0
  2.9000000E-001  1.5000000E-002 0.0
  2.9000000E-001  2.0000000E-002 0.0
  2.9000000E-001  2.5000000E-002 0.0
  2.9000000E-001  3.0000000E-002 0.0
  2.9000000E-001  3.5000000E-002 0.0
  2.9000000E-001  4.0000000E-002 0.0
  2.9000000E-001  4.5000000E-002 0.0
  2.9000000E-001  5.0000000E-002 0.0
  2.9000000E-001  5.5000000E-002 0.0
  2.9000000E-001  6.0000000E-002 0.0
  2.9000000E-001  6.5000000E-002 0.0
  2.9000000E-001  7.0000000E-002 0.0
  2.9000000E-001  7.5000000E-002 0.0
  2.9000000E-001  8.0000000E-002 0.0
  2.9000000E-001  8.5000000E-002 0.0
  2.9000000E-001  9.0000000E-002 0.0
  2.9000000E-001  9.5000000E-002 0.0
  2.9000000E-001  1.0000000E-001 0.0
  2.9000000E-001  1.0500000E-001 0.0
  2.9000000E-001  1.1000000E-001 0.0
  2.9000000E-001  1.1500000E-001 0.0
  2.9000000E-001  1.2000000E-001 0.0
  2.9000000E-001  1.2500000E-001 0.0
  2.9000000E-001  1.3000000E-001 0.0
  2.9000000E-001  1.3500000E-001 0.0
  2.9000000E-001  1.4000000E-001 0.0
  2.9000000E-001  1.4500000E-001 0.0
  2.9500000E-001 -1.1500000E-001 0.0
  2.9500000E-001 -1.1000000E-001 0.0
  2.9500000E-001 -1.0500000E-001 0.0
  2.9500000E-001 -1.0000000E-001 0.0
  2.9500000E-001 -9.5000000E-002 0.0
  2.9500000E-001 -9.0000000E-002 0.0
  2.9500000E-001 -8.5000000E-002 0.0
  2.9500000E-001 -8.0000000E-002 0.0
  2.9500000E-001 -7.5000000E-002 0.0
  2.9500000E-001 -7.0000000E-002 0.0
  2.9500000E-001 -6.5000000E-002 0.0
  2.9500000E-001 -6.0000000E-002 0.0
  2.9500000E-001 -5.5000000E-002 0.0
  2.9500000E-001 -5.0000000E-002 0.0
  2.9500000E-001 -4.5000000E-002 0.0
  2.9500000E-001 -4.0000000E-002 0.0
  2.9500000E-001 -3.5000000E-002 0.0
  2.9500000E-001 -3.0000000E-002 0.0
  2.9500000E-001 -2.5000000E-002 0.0
  2.9500000E-001 -2.0000000E-002 0.0
  2.9500000E-001 -1.5000000E-002 0.0
  2.9500000E-001 -1.0000000E-002 0.0
  2.9500000E-001 -5.0000000E-003 0.0
  2.9500000E-001  0.0000000E+000 0.0
  2.9500000E-001  5.0000000E-003 0.0
  2.9500000E-001  1.0000000E-002 0.0
  2.9500000E-001  1.5000000E-002 0.0
  2.9500000E-001  2.0000000E-002 0.0
  2.9500000E-001  2.5000000E-002 0.0
  2.9500000E-001  3.0000000E-002 0.0
  2.9500000E-001  3.5000000E-002 0.0
  2.9500000E-001  4.0000000E-002 0.0
  2.9500000E-001  4.5000000E-002 0.0
  2.9500000E-001  5.0000000E-002 0.0
  2.9500000E-001  5.5000000E-002 0.0
  2.9500000E-001  6.0000000E-002 0.0
  2.9500000E-001  6.5000000E-002 0.0
  2.9500000E-001  7.0000000E-002 0.0
  2.9500000E-001  7.5000000E-002 0.0
  2.9500000E-001  8.0000000E-002 0.0
  2.9500000E-001  8.5000000E-002 0.0
  2.9500000E-001  9.0000000E-002 0.0
  2.9500000E-001  9.5000000E-002 0.0
  2.9500000E-001  1.0000000E-001 0.0
  2.9500000E-001  1.0500000E-001 0.0
  2.9500000E-001  1.1000000E-001 0.0
  2.9500000E-001  1.1500000E-001 0.0
  2.9500000E-001  1.2000000E-001 0.0
  2.9500000E-001  1.2500000E-001 0.0
  2.9500000E-001  1.3000000E-001 0.0
  2.9500000E-001  1.3500000E-001 0.0
  2.9500000E-001  1.4000000E-001 0.0
  2.9500000E-001  1.4500000E-001 0.0
  3.0000000E-001 -1.1500000E-001 0.0
  3.0000000E-001 -1.1000000E-001 0.0
  3.0000000E-001 -1.0500000E-001 0.0
  3.0000000E-001 -1.0000000E-001 0.0
  3.0000000E-001 -9.5000000E-002 0.0
  3.0000000E-001 -9.0000000E-002 0.0
  3.0000000E-001 -8.5000000E-002 0.0
  3.0000000E-001 -8.0000000E-002 0.0
  3.0000000E-001 -7.5000000E-002 0.0
  3.0000000E-001 -7.0000000E-002 0.0
  3.0000000E-001 -6.5000000E-002 0.0
  3.0000000E-001 -6.0000000E-002 0.0
  3.0000000E-001 -5.5000000E-002 0.0
  3.0000000E-001 -5.0000000E-002 0.0
  3.0000000E-001 -4.5000000E-002 0.0
  3.0000000E-001 -4.0000000E-002 0.0
  3.0000000E-001 -3.5000000E-002 0.0
  3.0000000E-001 -3.0000000E-002 0.0
  3.0000000E-001 -2.5000000E-002 0.0
  3.0000000E-001 -2.0000000E-002 0.0
  3.0000000E-001 -1.5000000E-002 0.0
  3.0000000E-001 -1.0000000E-002 0.0
  3.0000000E-001 -5.0000000E-003 0.0
  3.0000000E-001  0.0000000E+000 0.0
  3.0000000E-001  5.0000000E-003 0.0
  3.0000000E-001  1.0000000E-002 0.0
  3.0000000E-001  1.5000000E-002 0.0
  3.0000000E-001  2.0000000E-002 0.0
  3.0000000E-001  2.5000000E-002 0.0
  3.0000000E-001  3.0000000E-002 0.0
  3.0000000E-001  3.5000000E-002 0.0
  3.0000000E-001  4.0000000E-002 0.0
  3.0000000E-001  4.5000000E-002 0.0
  3.0000000E-001  5.0000000E-002 0.0
  3.0000000E-001  5.5000000E-002 0.0
  3.0000000E-001  6.0000000E-002 0.0
  3.0000000E-001  6.5000000E-002 0.0
  3.0000000E-001  7.0000000E-002 0.0
  3.0000000E-001  7.5000000E-002 0.0
  3.0000000E-001  8.0000000E-002 0.0
  3.0000000E-001  8.5000000E-002 0.0
  3.0000000E-001  9.0000000E-002 0.0
  3.0000000E-001  9.5000000E-002 0.0
  3.0000000E-001  1.0000000E-001 0.0
  3.0000000E-001  1.0500000E-001 0.0
  3.0000000E-001  1.1000000E-001 0.0
  3.0000000E-001  1.1500000E-001 0.0
  3.0000000E-001  1.2000000E-001 0.0
  3.0000000E-001  1.2500000E-001 0.0
  3.0000000E-001  1.3000000E-001 0.0
  3.0000000E-001  1.3500000E-001 0.0
  3.0000000E-001  1.4000000E-001 0.0
  3.0500000E-001 -1.1000000E-001 0.0
  3.0500000E-001 -1.0500000E-001 0.0
  3.0500000E-001 -1.0000000E-001 0.0
  3.0500000E-001 -9.5000000E-002 0.0
  3.0500000E-001 -9.0000000E-002 0.0
  3.0500000E-001 -8.5000000E-002 0.0
  3.0500000E-001 -8.0000000E-002 0.0
  3.0500000E-001 -7.5000000E-002 0.0
  3.0500000E-001 -7.0000000E-002 0.0
  3.0500000E-001 -6.5000000E-002 0.0
  3.0500000E-001 -6.0000000E-002 0.0
  3.0500000E-001 -5.5000000E-002 0.0
  3.0500000E-001 -5.0000000E-002 0.0
  3.0500000E-001 -4.5000000E-002 0.0
  3.0500000E-001 -4.0000000E-002 0.0
  3.0500000E-001 -3.5000000E-002 0.0
  3.0500000E-001 -3.0000000E-002 0.0
  3.0500000E-001 -2.5000000E-002 0.0
  3.0500000E-001 -2.0000000E-002 0.0
  3.0500000E-001 -1.5000000E-002 0.0
  3.0500000E-001 -1.0000000E-002 0.0
  3.0500000E-001 -5.0000000E-003 0.0
  3.0500000E-001  0.0000000E+000 0.0
  3.0500000E-001  5.0000000E-003 0.0
  3.0500000E-001  1.0000000E-002 0.0
  3.0500000E-001  1.5000000E-002 0.0
  3.0500000E-001  2.0000000E-002 0.0
  3.0500000E-001  2.5000000E-002 0.0
  3.0500000E-001  3.0000000E-002 0.0
  3.0500000E-001  3.5000000E-002 0.0
  3.0500000E-001  4.0000000E-002 0.0
  3.0500000E-001  4.5000000E-002 0.0
  3.0500000E-001  5.0000000E-002 0.0
  3.0500000E-001  5.5000000E-002 0.0
  3.0500000E-001  6.0000000E-002 0.0
  3.0500000E-001  6.5000000E-002 0.0
  3.0500000E-001  7.0000000E-002 0.0
  3.0500000E-001  7.5000000E-002 0.0
  3.0500000E-001  8.0000000E-002 0.0
  3.0500000E-001  8.5000000E-002 0.0
  3.0500000E-001  9.0000000E-002 0.0
  3.0500000E-001  9.5000000E-002 0.0
  3.0500000E-001  1.0000000E-001 0.0
  3.0500000E-001  1.0500000E-001 0.0
  3.0500000E-001  1.1000000E-001 0.0
  3.0500000E-001  1.1500000E-001 0.0
  3.0500000E-001  1.2000000E-001 0.0
  3.0500000E-001  1.2500000E-001 0.0
  3.0500000E-001  1.3000000E-001 0.0
  3.0500000E-001  1.3500000E-001 0.0
  3.0500000E-001  1.4000000E-001 0.0
  3.1000000E-001 -1.1000000E-001 0.0
  3.1000000E-001 -1.0500000E-001 0.0
  3.1000000E-001 -1.0000000E-001 0.0
  3.1000000E-001 -9.5000000E-002 0.0
  3.1000000E-001 -9.0000000E-002 0.0
  3.1000000E-001 -8.5000000E-002 0.0
  3.1000000E-001 -8.0000000E-002 0.0
  3.1000000E-001 -7.5000000E-002 0.0
  3.1000000E-001 -7.0000000E-002 0.0
  3.1000000E-001 -6.5000000E-002 0.0
  3.1000000E-001 -6.0000000E-002 0.0
  3.1000000E-001 -5.5000000E-002 0.0
  3.1000000E-001 -5.0000000E-002 0.0
  3.1000000E-001 -4.5000000E-002 0.0
  3.1000000E-001 -4.0000000E-002 0.0
  3.1000000E-001 -3.5000000E-002 0.0
  3.1000000E-001 -3.0000000E-002 0.0
  3.1000000E-001 -2.5000000E-002 0.0
  3.1000000E-001 -2.0000000E-002 0.0
  3.1000000E-001 -1.5000000E-002 0.0
  3.1000000E-001 -1.0000000E-002 0.0
  3.1000000E-001 -5.0000000E-003 0.0
  3.1000000E-001  0.0000000E+000 0.0
  3.1000000E-001  5.0000000E-003 0.0
  3.1000000E-001  1.0000000E-002 0.0
  3.1000000E-001  1.5000000E-002 0.0
  3.1000000E-001  2.0000000E-002 0.0
  3.1000000E-001  2.5000000E-002 0.0
  3.1000000E-001  3.0000000E-002 0.0
  3.1000000E-001  3.5000000E-002 0.0
  3.1000000E-001  4.0000000E-002 0.0
  3.1000000E-001  4.5000000E-002 0.0
  3.1000000E-001  5.0000000E-002 0.0
  3.1000000E-001  5.5000000E-002 0.0
  3.1000000E-001  6.0000000E-002 0.0
  3.1000000E-001  6.5000000E-002 0.0
  3.1000000E-001  7.0000000E-002 0.0
  3.1000000E-001  7.5000000E-002 0.0
  3.1000000E-001  8.0000000E-002 0.0
  3.1000000E-001  8.5000000E-002 0.0
  3.1000000E-001  9.0000000E-002 0.0
  3.1000000E-001  9.5000000E-002 0.0
  3.1000000E-001  1.0000000E-001 0.0
  3.1000000E-001  1.0500000E-001 0.0
  3.1000000E-001  1.1000000E-001 0.0
  3.1000000E-001  1.1500000E-001 0.0
  3.1000000E-001  1.2000000E-001 0.0
  3.1000000E-001  1.2500000E-001 0.0
  3.1000000E-001  1.3000000E-001 0.0
  3.1000000E-001  1.3500000E-001 0.0
  3.1000000E-001  1.4000000E-001 0.0
  3.1500000E-001 -1.1000000E-001 0.0
  3.1500000E-001 -1.0500000E-001 0.0
  3.1500000E-001 -1.0000000E-001 0.0
  3.1500000E-001 -9.5000000E-002 0.0
  3.1500000E-001 -9.0000000E-002 0.0
  3.1500000E-001 -8.5000000E-002 0.0
  3.1500000E-001 -8.0000000E-002 0.0
  3.1500000E-001 -7.5000000E-002 0.0
  3.1500000E-001 -7.0000000E-002 0.0
  3.1500000E-001 -6.5000000E-002 0.0
  3.1500000E-001 -6.0000000E-002 0.0
  3.1500000E-001 -5.5000000E-002 0.0
  3.1500000E-001 -5.0000000E-002 0.0
  3.1500000E-001 -4.5000000E-002 0.0
  3.1500000E-001 -4.0000000E-002 0.0
  3.1500000E-001 -3.5000000E-002 0.0
  3.1500000E-001 -3.0000000E-002 0.0
  3.1500000E-001 -2.5000000E-002 0.0
  3.1500000E-001 -2.0000000E-002 0.0
  3.1500000E-001 -1.5000000E-002 0.0
  3.1500000E-001 -1.0000000E-002 0.0
  3.1500000E-001 -5.0000000E-003 0.0
  3.1500000E-001  0.0000000E+000 0.0
  3.1500000E-001  5.0000000E-003 0.0
  3.1500000E-001  1.0000000E-002 0.0
  3.1500000E-001  1.5000000E-002 0.0
  3.1500000E-001  2.0000000E-002 0.0
  3.1500000E-001  2.5000000E-002 0.0
  3.1500000E-001  3.0000000E-002 0.0
  3.1500000E-001  3.5000000E-002 0.0
  3.1500000E-001  4.0000000E-002 0.0
  3.1500000E-001  4.5000000E-002 0.0
  3.1500000E-001  5.0000000E-002 0.0
  3.1500000E-001  5.5000000E-002 0.0
  3.1500000E-001  6.0000000E-002 0.0
  3.1500000E-001  6.5000000E-002 0.0
  3.1500000E-001  7.0000000E-002 0.0
  3.1500000E-001  7.5000000E-002 0.0
  3.1500000E-001  8.0000000E-002 0.0
  3.1500000E-001  8.5000000E-002 0.0
  3.1500000E-001  9.0000000E-002 0.0
  3.1500000E-001  9.5000000E-002 0.0
  3.1500000E-001  1.0000000E-001 0.0
  3.1500000E-001  1.0500000E-001 0.0
  3.1500000E-001  1.1000000E-001 0.0
  3.1500000E-001  1.1500000E-001 0.0
  3.1500000E-001  1.2000000E-001 0.0
  3.1500000E-001  1.2500000E-001 0.0
  3.1500000E-001  1.3000000E-001 0.0
  3.1500000E-001  1.3500000E-001 0.0
  3.1500000E-001  1.4000000E-001 0.0
  3.2000000E-001 -1.1000000E-001 0.0
  3.2000000E-001 -1.0500000E-001 0.0
  3.2000000E-001 -1.0000000E-001 0.0
  3.2000000E-001 -9.5000000E-002 0.0
  3.2000000E-001 -9.0000000E-002 0.0
  3.2000000E-001 -8.5000000E-002 0.0
  3.2000000E-001 -8.0000000E-002 0.0
  3.2000000E-001 -7.5000000E-002 0.0
  3.2000000E-001 -7.0000000E-002 0.0
  3.2000000E-001 -6.5000000E-002 0.0
  3.2000000E-001 -6.0000000E-002 0.0
  3.2000000E-001 -5.5000000E-002 0.0
  3.2000000E-001 -5.0000000E-002 0.0
  3.2000000E-001 -4.5000000E-002 0.0
  3.2000000E-001 -4.0000000E-002 0.0
  3.2000000E-001 -3.5000000E-002 0.0
  3.2000000E-001 -3.0000000E-002 0.0
  3.2000000E-001 -2.5000000E-002 0.0
  3.2000000E-001 -2.0000000E-002 0.0
  3.2000000E-001 -1.5000000E-002 0.0
  3.2000000E-001 -1.0000000E-002 0.0
  3.2000000E-001 -5.0000000E-003 0.0
  3.2000000E-001  0.0000000E+000 0.0
  3.2000000E-001  5.0000000E-003 0.0
  3.2000000E-001  1.0000000E-002 0.0
  3.2000000E-001  1.5000000E-002 0.0
  3.2000000E-001  2.0000000E-002 0.0
  3.2000000E-001  2.5000000E-002 0.0
  3.2000000E-001  3.0000000E-002 0.0
  3.2000000E-001  3.5000000E-002 0.0
  3.2000000E-001  4.0000000E-002 0.0
  3.2000000E-001  4.5000000E-002 0.0
  3.2000000E-001  5.0000000E-002 0.0
  3.2000000E-001  5.5000000E-002 0.0
  3.2000000E-001  6.0000000E-002 0.0
  3.2000000E-001  6.5000000E-002 0.0
  3.2000000E-001  7.0000000E-002 0.0
  3.2000000E-001  7.5000000E-002 0.0
  3.2000000E-001  8.0000000E-002 0.0
  3.2000000E-001  8.5000000E-002 0.0
  3.2000000E-001  9.0000000E-002 0.0
  3.2000000E-001  9.5000000E-002 0.0
  3.2000000E-001  1.0000000E-001 0.0
  3.2000000E-001  1.0500000E-001 0.0
  3.2000000E-001  1.1000000E-001 0.0
  3.2000000E-001  1.1500000E-001 0.0
  3.2000000E-001  1.2000000E-001 0.0
  3.2000000E-001  1.2500000E-001 0.0
  3.2000000E-001  1.3000000E-001 0.0
  3.2000000E-001  1.3500000E-001 0.0
  3.2500000E-001 -1.0500000E-001 0.0
  3.2500000E-001 -1.0000000E-001 0.0
  3.2500000E-001 -9.5000000E-002 0.0
  3.2500000E-001 -9.0000000E-002 0.0
  3.2500000E-001 -8.5000000E-002 0.0
  3.2500000E-001 -8.0000000E-002 0.0
  3.2500000E-001 -7.5000000E-002 0.0
  3.2500000E-001 -7.0000000E-002 0.0
  3.2500000E-001 -6.5000000E-002 0.0
  3.2500000E-001 -6.0000000E-002 0.0
  3.2500000E-001 -5.5000000E-002 0.0
  3.2500000E-001 -5.0000000E-002 0.0
  3.2500000E-001 -4.5000000E-002 0.0
  3.2500000E-001 -4.0000000E-002 0.0
  3.2500000E-001 -3.5000000E-002 0.0
  3.2500000E-001 -3.0000000E-002 0.0
  3.2500000E-001 -2.5000000E-002 0.0
  3.2500000E-001 -2.0000000E-002 0.0
  3.2500000E-001 -1.5000000E-002 0.0
  3.2500000E-001 -1.0000000E-002 0.0
  3.2500000E-001 -5.0000000E-003 0.0
  3.2500000E-001  0.0000000E+000 0.0
  3.2500000E-001  5.0000000E-003 0.0
  3.2500000E-001  1.0000000E-002 0.0
  3.2500000E-001  1.5000000E-002 0.0
  3.2500000E-001  2.0000000E-002 0.0
  3.2500000E-001  2.5000000E-002 0.0
  3.2500000E-001  3.0000000E-002 0.0
  3.2500000E-001  3.5000000E-002 0.0
  3.2500000E-001  4.0000000E-002 0.0
  3.2500000E-001  4.5000000E-002 0.0
  3.2500000E-001  5.0000000E-002 0.0
  3.2500000E-001  5.5000000E-002 0.0
  3.2500000E-001  6.0000000E-002 0.0
  3.2500000E-001  6.5000000E-002 0.0
  3.2500000E-001  7.0000000E-002 0.0
  3.2500000E-001  7.5000000E-002 0.0
  3.2500000E-001  8.0000000E-002 0.0
  3.2500000E-001  8.5000000E-002 0.0
  3.2500000E-001  1.0000000E-001 0.0
  3.2500000E-001  1.0500000E-001 0.0
  3.2500000E-001  1.1000000E-001 0.0
  3.2500000E-001  1.1500000E-001 0.0
  3.2500000E-001  1.2000000E-001 0.0
  3.2500000E-001  1.2500000E-001 0.0
  3.2500000E-001  1.3000000E-001 0.0
  3.2500000E-001  1.3500000E-001 0.0
  3.3000000E-001 -1.0500000E-001 0.0
  3.3000000E-001 -1.0000000E-001 0.0
  3.3000000E-001 -9.5000000E-002 0.0
  3.3000000E-001 -9.0000000E-002 0.0
  3.3000000E-001 -8.5000000E-002 0.0
  3.3000000E-001 -8.0000000E-002 0.0
  3.3000000E-001 -7.5000000E-002 0.0
  3.3000000E-001 -7.0000000E-002 0.0
  3.3000000E-001 -6.5000000E-002 0.0
  3.3000000E-001 -6.0000000E-002 0.0
  3.3000000E-001 -5.5000000E-002 0.0
  3.3000000E-001 -5.0000000E-002 0.0
  3.3000000E-001 -4.5000000E-002 0.0
  3.3000000E-001 -4.0000000E-002 0.0
  3.3000000E-001 -3.5000000E-002 0.0
  3.3000000E-001 -3.0000000E-002 0.0
  3.3000000E-001 -2.5000000E-002 0.0
  3.3000000E-001 -2.0000000E-002 0.0
  3.3000000E-001 -1.5000000E-002 0.0
  3.3000000E-001 -1.0000000E-002 0.0
  3.3000000E-001 -5.0000000E-003 0.0
  3.3000000E-001  0.0000000E+000 0.0
  3.3000000E-001  5.0000000E-003 0.0
  3.3000000E-001  1.0000000E-002 0.0
  3.3000000E-001  1.5000000E-002 0.0
  3.3000000E-001  2.0000000E-002 0.0
  3.3000000E-001  2.5000000E-002 0.0
  3.3000000E-001  3.0000000E-002 0.0
  3.3000000E-001  3.5000000E-002 0.0
  3.3000000E-001  4.0000000E-002 0.0
  3.3000000E-001  4.5000000E-002 0.0
  3.3000000E-001  5.0000000E-002 0.0
  3.3000000E-001  5.5000000E-002 0.0
  3.3000000E-001  6.0000000E-002 0.0
  3.3000000E-001  6.5000000E-002 0.0
  3.3000000E-001  7.0000000E-002 0.0
  3.3000000E-001  7.5000000E-002 0.0
  3.3000000E-001  8.0000000E-002 0.0
  3.3000000E-001  1.0000000E-001 0.0
  3.3000000E-001  1.0500000E-001 0.0
  3.3000000E-001  1.1000000E-001 0.0
  3.3000000E-001  1.1500000E-001 0.0
  3.3000000E-001  1.2000000E-001 0.0
  3.3000000E-001  1.2500000E-001 0.0
  3.3000000E-001  1.3000000E-001 0.0
  3.3000000E-001  1.3500000E-001 0.0
  3.3500000E-001 -1.0500000E-001 0.0
  3.3500000E-001 -1.0000000E-001 0.0
  3.3500000E-001 -9.5000000E-002 0.0
  3.3500000E-001 -9.0000000E-002 0.0
  3.3500000E-001 -8.5000000E-002 0.0
  3.3500000E-001 -8.0000000E-002 0.0
  3.3500000E-001 -7.5000000E-002 0.0
  3.3500000E-001 -7.0000000E-002 0.0
  3.3500000E-001 -6.5000000E-002 0.0
  3.3500000E-001 -6.0000000E-002 0.0
  3.3500000E-001 -5.5000000E-002 0.0
  3.3500000E-001 -5.0000000E-002 0.0
  3.3500000E-001 -4.5000000E-002 0.0
  3.3500000E-001 -4.0000000E-002 0.0
  3.3500000E-001 -3.5000000E-002 0.0
  3.3500000E-001 -3.0000000E-002 0.0
  3.3500000E-001 -2.5000000E-002 0.0
  3.3500000E-001 -2.0000000E-002 0.0
  3.3500000E-001 -1.5000000E-002 0.0
  3.3500000E-001 -1.0000000E-002 0.0
  3.3500000E-001 -5.0000000E-003 0.0
  3.3500000E-001  0.0000000E+000 0.0
  3.3500000E-001  5.0000000E-003 0.0
  3.3500000E-001  1.0000000E-002 0.0
  3.3500000E-001  1.5000000E-002 0.0
  3.3500000E-001  2.0000000E-002 0.0
  3.3500000E-001  2.5000000E-002 0.0
  3.3500000E-001  3.0000000E-002 0.0
  3.3500000E-001  3.5000000E-002 0.0
  3.3500000E-001  4.0000000E-002 0.0
  3.3500000E-001  4.5000000E-002 0.0
  3.3500000E-001  5.0000000E-002 0.0
  3.3500000E-001  5.5000000E-002 0.0
  3.3500000E-001  6.0000000E-002 0.0
  3.3500000E-001  6.5000000E-002 0.0
  3.3500000E-001  7.0000000E-002 0.0
  3.3500000E-001  7.5000000E-002 0.0
  3.3500000E-001  1.0000000E-001 0.0
  3.3500000E-001  1.0500000E-001 0.0
  3.3500000E-001  1.1000000E-001 0.0
  3.3500000E-001  1.1500000E-001 0.0
  3.3500000E-001  1.2000000E-001 0.0
  3.3500000E-001  1.2500000E-001 0.0
  3.3500000E-001  1.3000000E-001 0.0
  3.4000000E-001 -1.0000000E-001 0.0
  3.4000000E-001 -9.5000000E-002 0.0
  3.4000000E-001 -9.0000000E-002 0.0
  3.4000000E-001 -8.5000000E-002 0.0
  3.4000000E-001 -8.0000000E-002 0.0
  3.4000000E-001 -7.5000000E-002 0.0
  3.4000000E-001 -7.0000000E-002 0.0
  3.4000000E-001 -6.5000000E-002 0.0
  3.4000000E-001 -6.0000000E-002 0.0
  3.4000000E-001 -5.5000000E-002 0.0
  3.4000000E-001 -5.0000000E-002 0.0
  3.4000000E-001 -4.5000000E-002 0.0
  3.4000000E-001 -4.0000000E-002 0.0
  3.4000000E-001 -3.5000000E-002 0.0
  3.4000000E-001 -3.0000000E-002 0.0
  3.4000000E-001 -2.5000000E-002 0.0
  3.4000000E-001 -2.0000000E-002 0.0
  3.4000000E-001 -1.5000000E-002 0.0
  3.4000000E-001 -1.0000000E-002 0.0
  3.4000000E-001 -5.0000000E-003 0.0
  3.4000000E-001  0.0000000E+000 0.0
  3.4000000E-001  5.0000000E-003 0.0
  3.4000000E-001  1.0000000E-002 0.0
  3.4000000E-001  1.5000000E-002 0.0
  3.4000000E-001  2.0000000E-002 0.0
  3.4000000E-001  2.5000000E-002 0.0
  3.4000000E-001  3.0000000E-002 0.0
  3.4000000E-001  3.5000000E-002 0.0
  3.4000000E-001  4.0000000E-002 0.0
  3.4000000E-001  4.5000000E-002 0.0
  3.4000000E-001  5.0000000E-002 0.0
  3.4000000E-001  5.5000000E-002 0.0
  3.4000000E-001  6.0000000E-002 0.0
  3.4000000E-001  6.5000000E-002 0.0
  3.4000000E-001  7.0000000E-002 0.0
  3.3500000E-001  9.5000000E-002 0.0
  3.4000000E-001  9.5000000E-002 0.0
  3.4000000E-001  1.0000000E-001 0.0
  3.4000000E-001  1.0500000E-001 0.0
  3.4000000E-001  1.1000000E-001 0.0
  3.4000000E-001  1.1500000E-001 0.0
  3.4000000E-001  1.2000000E-001 0.0
  3.4000000E-001  1.2500000E-001 0.0
  3.4000000E-001  1.3000000E-001 0.0
  3.4500000E-001 -1.0000000E-001 0.0
  3.4500000E-001 -9.5000000E-002 0.0
  3.4500000E-001 -9.0000000E-002 0.0
  3.4500000E-001 -8.5000000E-002 0.0
  3.4500000E-001 -8.0000000E-002 0.0
  3.4500000E-001 -7.5000000E-002 0.0
  3.4500000E-001 -7.0000000E-002 0.0
  3.4500000E-001 -6.5000000E-002 0.0
  3.4500000E-001 -6.0000000E-002 0.0
  3.4500000E-001 -5.5000000E-002 0.0
  3.4500000E-001 -5.0000000E-002 0.0
  3.4500000E-001 -4.5000000E-002 0.0
  3.4500000E-001 -4.0000000E-002 0.0
  3.4500000E-001 -3.5000000E-002 0.0
  3.4500000E-001 -3.0000000E-002 0.0
  3.4500000E-001 -2.5000000E-002 0.0
  3.4500000E-001 -2.0000000E-002 0.0
  3.4500000E-001 -1.5000000E-002 0.0
  3.4500000E-001 -1.0000000E-002 0.0
  3.4500000E-001 -5.0000000E-003 0.0
  3.4500000E-001  0.0000000E+000 0.0
  3.4500000E-001  5.0000000E-003 0.0
  3.4500000E-001  1.0000000E-002 0.0
  3.4500000E-001  1.5000000E-002 0.0
  3.4500000E-001  2.0000000E-002 0.0
  3.4500000E-001  2.5000000E-002 0.0
  3.4500000E-001  3.0000000E-002 0.0
  3.4500000E-001  3.5000000E-002 0.0
  3.4500000E-001  4.0000000E-002 0.0
  3.4500000E-001  4.5000000E-002 0.0
  3.4500000E-001  5.0000000E-002 0.0
  3.4500000E-001  5.5000000E-002 0.0
  3.4500000E-001  6.0000000E-002 0.0
  3.4500000E-001  6.5000000E-002 0.0
  3.4500000E-001  7.0000000E-002 0.0
  3.4500000E-001  9.5000000E-002 0.0
  3.4500000E-001  1.0000000E-001 0.0
  3.4500000E-001  1.0500000E-001 0.0
  3.4500000E-001  1.1000000E-001 0.0
  3.4500000E-001  1.1500000E-001 0.0
  3.4500000E-001  1.2000000E-001 0.0
  3.4500000E-001  1.2500000E-001 0.0
  3.4500000E-001  1.3000000E-001 0.0
  3.5000000E-001 -9.5000000E-002 0.0
  3.5000000E-001 -9.0000000E-002 0.0
  3.5000000E-001 -8.5000000E-002 0.0
  3.5000000E-001 -8.0000000E-002 0.0
  3.5000000E-001 -7.5000000E-002 0.0
  3.5000000E-001 -7.0000000E-002 0.0
  3.5000000E-001 -6.5000000E-002 0.0
  3.5000000E-001 -6.0000000E-002 0.0
  3.5000000E-001 -5.5000000E-002 0.0
  3.5000000E-001 -5.0000000E-002 0.0
  3.5000000E-001 -4.5000000E-002 0.0
  3.5000000E-001 -4.0000000E-002 0.0
  3.5000000E-001 -3.5000000E-002 0.0
  3.5000000E-001 -3.0000000E-002 0.0
  3.5000000E-001 -2.5000000E-002 0.0
  3.5000000E-001 -2.0000000E-002 0.0
  3.5000000E-001 -1.5000000E-002 0.0
  3.5000000E-001 -1.0000000E-002 0.0
  3.5000000E-001 -5.0000000E-003 0.0
  3.5000000E-001  0.0000000E+000 0.0
  3.5000000E-001  5.0000000E-003 0.0
  3.5000000E-001  1.0000000E-002 0.0
  3.5000000E-001  1.5000000E-002 0.0
  3.5000000E-001  2.0000000E-002 0.0
  3.5000000E-001  2.5000000E-002 0.0
  3.5000000E-001  3.0000000E-002 0.0
  3.5000000E-001  3.5000000E-002 0.0
  3.5000000E-001  4.0000000E-002 0.0
  3.5000000E-001  4.5000000E-002 0.0
  3.5000000E-001  5.0000000E-002 0.0
  3.5000000E-001  5.5000000E-002 0.0
  3.5000000E-001  6.0000000E-002 0.0
  3.5000000E-001  6.5000000E-002 0.0
  3.5000000E-001  9.5000000E-002 0.0
  3.5000000E-001  1.0000000E-001 0.0
  3.5000000E-001  1.0500000E-001 0.0
  3.5000000E-001  1.1000000E-001 0.0
  3.5000000E-001  1.1500000E-001 0.0
  3.5000000E-001  1.2000000E-001 0.0
  3.5000000E-001  1.2500000E-001 0.0
  3.5500000E-001 -9.5000000E-002 0.0
  3.5500000E-001 -9.0000000E-002 0.0
  3.5500000E-001 -8.5000000E-002 0.0
  3.5500000E-001 -8.0000000E-002 0.0
  3.5500000E-001 -7.5000000E-002 0.0
  3.5500000E-001 -7.0000000E-002 0.0
  3.5500000E-001 -6.5000000E-002 0.0
  3.5500000E-001 -6.0000000E-002 0.0
  3.5500000E-001 -5.5000000E-002 0.0
  3.5500000E-001 -5.0000000E-002 0.0
  3.5500000E-001 -4.5000000E-002 0.0
  3.5500000E-001 -4.0000000E-002 0.0
  3.5500000E-001 -3.5000000E-002 0.0
  3.5500000E-001 -3.0000000E-002 0.0
  3.5500000E-001 -2.5000000E-002 0.0
  3.5500000E-001 -2.0000000E-002 0.0
  3.5500000E-001 -1.5000000E-002 0.0
  3.5500000E-001 -1.0000000E-002 0.0
  3.5500000E-001 -5.0000000E-003 0.0
  3.5500000E-001  0.0000000E+000 0.0
  3.5500000E-001  5.0000000E-003 0.0
  3.5500000E-001  1.0000000E-002 0.0
  3.5500000E-001  1.5000000E-002 0.0
  3.5500000E-001  2.0000000E-002 0.0
  3.5500000E-001  2.5000000E-002 0.0
  3.5500000E-001  3.0000000E-002 0.0
  3.5500000E-001  3.5000000E-002 0.0
  3.5500000E-001  4.0000000E-002 0.0
  3.5500000E-001  4.5000000E-002 0.0
  3.5500000E-001  5.0000000E-002 0.0
  3.5500000E-001  5.5000000E-002 0.0
  3.5500000E-001  6.0000000E-002 0.0
  3.5500000E-001  6.5000000E-002 0.0
  3.5000000E-001  9.0000000E-002 0.0
  3.5500000E-001  9.0000000E-002 0.0
  3.5500000E-001  9.5000000E-002 0.0
  3.5500000E-001  1.0000000E-001 0.0
  3.5500000E-001  1.0500000E-001 0.0
  3.5500000E-001  1.1000000E-001 0.0
  3.5500000E-001  1.1500000E-001 0.0
  3.5500000E-001  1.2000000E-001 0.0
  3.5500000E-001  1.2500000E-001 0.0
  3.6000000E-001 -9.5000000E-002 0.0
  3.6000000E-001 -9.0000000E-002 0.0
  3.6000000E-001 -8.5000000E-002 0.0
  3.6000000E-001 -8.0000000E-002 0.0
  3.6000000E-001 -7.5000000E-002 0.0
  3.6000000E-001 -7.0000000E-002 0.0
  3.6000000E-001 -6.5000000E-002 0.0
  3.6000000E-001 -6.0000000E-002 0.0
  3.6000000E-001 -5.5000000E-002 0.0
  3.6000000E-001 -5.0000000E-002 0.0
  3.6000000E-001 -4.5000000E-002 0.0
  3.6000000E-001 -4.0000000E-002 0.0
  3.6000000E-001 -3.5000000E-002 0.0
  3.6000000E-001 -3.0000000E-002 0.0
  3.6000000E-001 -2.5000000E-002 0.0
  3.6000000E-001 -2.0000000E-002 0.0
  3.6000000E-001 -1.5000000E-002 0.0
  3.6000000E-001 -1.0000000E-002 0.0
  3.6000000E-001 -5.0000000E-003 0.0
  3.6000000E-001  0.0000000E+000 0.0
  3.6000000E-001  5.0000000E-003 0.0
  3.6000000E-001  1.0000000E-002 0.0
  3.6000000E-001  1.5000000E-002 0.0
  3.6000000E-001  2.0000000E-002 0.0
  3.6000000E-001  2.5000000E-002 0.0
  3.6000000E-001  3.0000000E-002 0.0
  3.6000000E-001  3.5000000E-002 0.0
  3.6000000E-001  4.0000000E-002 0.0
  3.6000000E-001  4.5000000E-002 0.0
  3.6000000E-001  5.0000000E-002 0.0
  3.6000000E-001  5.5000000E-002 0.0
  3.6000000E-001  6.0000000E-002 0.0
  3.6000000E-001  9.0000000E-002 0.0
  3.6000000E-001  9.5000000E-002 0.0
  3.6000000E-001  1.0000000E-001 0.0
  3.6000000E-001  1.0500000E-001 0.0
  3.6000000E-001  1.1000000E-001 0.0
  3.6000000E-001  1.1500000E-001 0.0
  3.6000000E-001  1.2000000E-001 0.0
  3.6000000E-001  1.2500000E-001 0.0
  3.6500000E-001 -9.0000000E-002 0.0
  3.6500000E-001 -8.5000000E-002 0.0
  3.6500000E-001 -8.0000000E-002 0.0
  3.6500000E-001 -7.5000000E-002 0.0
  3.6500000E-001 -7.0000000E-002 0.0
  3.6500000E-001 -6.5000000E-002 0.0
  3.6500000E-001 -6.0000000E-002 0.0
  3.6500000E-001 -5.5000000E-002 0.0
  3.6500000E-001 -5.0000000E-002 0.0
  3.6500000E-001 -4.5000000E-002 0.0
  3.6500000E-001 -4.0000000E-002 0.0
  3.6500000E-001 -3.5000000E-002 0.0
  3.6500000E-001 -3.0000000E-002 0.0
  3.6500000E-001 -2.5000000E-002 0.0
  3.6500000E-001 -2.0000000E-002 0.0
  3.6500000E-001 -1.5000000E-002 0.0
  3.6500000E-001 -1.0000000E-002 0.0
  3.6500000E-001 -5.0000000E-003 0.0
  3.6500000E-001  0.0000000E+000 0.0
  3.6500000E-001  5.0000000E-003 0.0
  3.6500000E-001  1.0000000E-002 0.0
  3.6500000E-001  1.5000000E-002 0.0
  3.6500000E-001  2.0000000E-002 0.0
  3.6500000E-001  2.5000000E-002 0.0
  3.6500000E-001  3.0000000E-002 0.0
  3.6500000E-001  3.5000000E-002 0.0
  3.6500000E-001  4.0000000E-002 0.0
  3.6500000E-001  4.5000000E-002 0.0
  3.6500000E-001  5.0000000E-002 0.0
  3.6500000E-001  5.5000000E-002 0.0
  3.6500000E-001  6.0000000E-002 0.0
  3.6500000E-001  9.0000000E-002 0.0
  3.6500000E-001  9.5000000E-002 0.0
  3.6500000E-001  1.0000000E-001 0.0
  3.6500000E-001  1.0500000E-001 0.0
  3.6500000E-001  1.1000000E-001 0.0
  3.6500000E-001  1.1500000E-001 0.0
  3.6500000E-001  1.2000000E-001 0.0
  3.6500000E-001  1.2500000E-001 0.0
  3.7000000E-001 -9.0000000E-002 0.0
  3.7000000E-001 -8.5000000E-002 0.0
  3.7000000E-001 -8.0000000E-002 0.0
  3.7000000E-001 -7.5000000E-002 0.0
  3.7000000E-001 -7.0000000E-002 0.0
  3.7000000E-001 -6.5000000E-002 0.0
  3.7000000E-001 -6.0000000E-002 0.0
  3.7000000E-001 -5.5000000E-002 0.0
  3.7000000E-001 -5.0000000E-002 0.0
  3.7000000E-001 -4.5000000E-002 0.0
  3.7000000E-001 -4.0000000E-002 0.0
  3.7000000E-001 -3.5000000E-002 0.0
  3.7000000E-001 -3.0000000E-002 0.0
  3.7000000E-001 -2.5000000E-002 0.0
  3.7000000E-001 -2.0000000E-002 0.0
  3.7000000E-001 -1.5000000E-002 0.0
  3.7000000E-001 -1.0000000E-002 0.0
  3.7000000E-001 -5.0000000E-003 0.0
  3.7000000E-001  0.0000000E+000 0.0
  3.7000000E-001  5.0000000E-003 0.0
  3.7000000E-001  1.0000000E-002 0.0
  3.7000000E-001  1.5000000E-002 0.0
  3.7000000E-001  2.0000000E-002 0.0
  3.7000000E-001  2.5000000E-002 0.0
  3.7000000E-001  3.0000000E-002 0.0
  3.7000000E-001  3.5000000E-002 0.0
  3.7000000E-001  4.0000000E-002 0.0
  3.7000000E-001  4.5000000E-002 0.0
  3.7000000E-001  5.0000000E-002 0.0
  3.7000000E-001  5.5000000E-002 0.0
  3.7000000E-001  9.0000000E-002 0.0
  3.7000000E-001  9.5000000E-002 0.0
  3.7000000E-001  1.0000000E-001 0.0
  3.7000000E-001  1.0500000E-001 0.0
  3.7000000E-001  1.1000000E-001 0.0
  3.7000000E-001  1.1500000E-001 0.0
  3.7000000E-001  1.2000000E-001 0.0
  3.7500000E-001 -8.5000000E-002 0.0
  3.7500000E-001 -8.0000000E-002 0.0
  3.7500000E-001 -7.5000000E-002 0.0
  3.7500000E-001 -7.0000000E-002 0.0
  3.7500000E-001 -6.5000000E-002 0.0
  3.7500000E-001 -6.0000000E-002 0.0
  3.7500000E-001 -5.5000000E-002 0.0
  3.7500000E-001 -5.0000000E-002 0.0
  3.7500000E-001 -4.5000000E-002 0.0
  3.7500000E-001 -4.0000000E-002 0.0
  3.7500000E-001 -3.5000000E-002 0.0
  3.7500000E-001 -3.0000000E-002 0.0
  3.7500000E-001 -2.5000000E-002 0.0
  3.7500000E-001 -2.0000000E-002 0.0
  3.7500000E-001 -1.5000000E-002 0.0
  3.7500000E-001 -1.0000000E-002 0.0
  3.7500000E-001 -5.0000000E-003 0.0
  3.7500000E-001  0.0000000E+000 0.0
  3.7500000E-001  5.0000000E-003 0.0
  3.7500000E-001  1.0000000E-002 0.0
  3.7500000E-001  1.5000000E-002 0.0
  3.7500000E-001  2.0000000E-002 0.0
  3.7500000E-001  2.5000000E-002 0.0
  3.7500000E-001  3.0000000E-002 0.0
  3.7500000E-001  3.5000000E-002 0.0
  3.7500000E-001  4.0000000E-002 0.0
  3.7500000E-001  4.5000000E-002 0.0
  3.7500000E-001  5.0000000E-002 0.0
  3.7000000E-001  8.5000000E-002 0.0
  3.7500000E-001  8.5000000E-002 0.0
  3.7500000E-001  9.0000000E-002 0.0
  3.7500000E-001  9.5000000E-002 0.0
  3.7500000E-001  1.0000000E-001 0.0
  3.7500000E-001  1.0500000E-001 0.0
  3.7500000E-001  1.1000000E-001 0.0
  3.7500000E-001  1.1500000E-001 0.0
  3.7500000E-001  1.2000000E-001 0.0
  3.8000000E-001 -8.5000000E-002 0.0
  3.8000000E-001 -8.0000000E-002 0.0
  3.8000000E-001 -7.5000000E-002 0.0
  3.8000000E-001 -7.0000000E-002 0.0
  3.8000000E-001 -6.5000000E-002 0.0
  3.8000000E-001 -6.0000000E-002 0.0
  3.8000000E-001 -5.5000000E-002 0.0
  3.8000000E-001 -5.0000000E-002 0.0
  3.8000000E-001 -4.5000000E-002 0.0
  3.8000000E-001 -4.0000000E-002 0.0
  3.8000000E-001 -3.5000000E-002 0.0
  3.8000000E-001 -3.0000000E-002 0.0
  3.8000000E-001 -2.5000000E-002 0.0
  3.8000000E-001 -2.0000000E-002 0.0
  3.8000000E-001 -1.5000000E-002 0.0
  3.8000000E-001 -1.0000000E-002 0.0
  3.8000000E-001 -5.0000000E-003 0.0
  3.8000000E-001  0.0000000E+000 0.0
  3.8000000E-001  5.0000000E-003 0.0
  3.8000000E-001  1.0000000E-002 0.0
  3.8000000E-001  1.5000000E-002 0.0
  3.8000000E-001  2.0000000E-002 0.0
  3.8000000E-001  2.5000000E-002 0.0
  3.8000000E-001  3.0000000E-002 0.0
  3.8000000E-001  3.5000000E-002 0.0
  3.8000000E-001  4.0000000E-002 0.0
  3.8000000E-001  4.5000000E-002 0.0
  3.8000000E-001  5.0000000E-002 0.0
  3.8000000E-001  8.5000000E-002 0.0
  3.8000000E-001  9.0000000E-002 0.0
  3.8000000E-001  9.5000000E-002 0.0
  3.8000000E-001  1.0000000E-001 0.0
  3.8000000E-001  1.0500000E-001 0.0
  3.8000000E-001  1.1000000E-001 0.0
  3.8000000E-001  1.1500000E-001 0.0
  3.8000000E-001  1.2000000E-001 0.0
  3.8500000E-001 -8.5000000E-002 0.0
  3.8500000E-001 -8.0000000E-002 0.0
  3.8500000E-001 -7.5000000E-002 0.0
  3.8500000E-001 -7.0000000E-002 0.0
  3.8500000E-001 -6.5000000E-002 0.0
  3.8500000E-001 -6.0000000E-002 0.0
  3.8500000E-001 -5.5000000E-002 0.0
  3.8500000E-001 -5.0000000E-002 0.0
  3.8500000E-001 -4.5000000E-002 0.0
  3.8500000E-001 -4.0000000E-002 0.0
  3.8500000E-001 -3.5000000E-002 0.0
  3.8500000E-001 -3.0000000E-002 0.0
  3.8500000E-001 -2.5000000E-002 0.0
  3.8500000E-001 -2.0000000E-002 0.0
  3.8500000E-001 -1.5000000E-002 0.0
  3.8500000E-001 -1.0000000E-002 0.0
  3.8500000E-001 -5.0000000E-003 0.0
  3.8500000E-001  0.0000000E+000 0.0
  3.8500000E-001  5.0000000E-003 0.0
  3.8500000E-001  1.0000000E-002 0.0
  3.8500000E-001  1.5000000E-002 0.0
  3.8500000E-001  2.0000000E-002 0.0
  3.8500000E-001  2.5000000E-002 0.0
  3.8500000E-001  3.0000000E-002 0.0
  3.8500000E-001  3.5000000E-002 0.0
  3.8500000E-001  4.0000000E-002 0.0
  3.8500000E-001  4.5000000E-002 0.0
  3.8500000E-001  5.0000000E-002 0.0
  3.8500000E-001  8.5000000E-002 0.0
  3.8500000E-001  9.0000000E-002 0.0
  3.8500000E-001  9.5000000E-002 0.0
  3.8500000E-001  1.0000000E-001 0.0
  3.8500000E-001  1.0500000E-001 0.0
  3.8500000E-001  1.1000000E-001 0.0
  3.8500000E-001  1.1500000E-001 0.0
  3.9000000E-001 -8.0000000E-002 0.0
  3.9000000E-001 -7.5000000E-002 0.0
  3.9000000E-001 -7.0000000E-002 0.0
  3.9000000E-001 -6.5000000E-002 0.0
  3.9000000E-001 -6.0000000E-002 0.0
  3.9000000E-001 -5.5000000E-002 0.0
  3.9000000E-001 -5.0000000E-002 0.0
  3.9000000E-001 -4.5000000E-002 0.0
  3.9000000E-001 -4.0000000E-002 0.0
  3.9000000E-001 -3.5000000E-002 0.0
  3.9000000E-001 -3.0000000E-002 0.0
  3.9000000E-001 -2.5000000E-002 0.0
  3.9000000E-001 -2.0000000E-002 0.0
  3.9000000E-001 -1.5000000E-002 0.0
  3.9000000E-001 -1.0000000E-002 0.0
  3.9000000E-001 -5.0000000E-003 0.0
  3.9000000E-001  0.0000000E+000 0.0
  3.9000000E-001  5.0000000E-003 0.0
  3.9000000E-001  1.0000000E-002 0.0
  3.9000000E-001  1.5000000E-002 0.0
  3.9000000E-001  2.0000000E-002 0.0
  3.9000000E-001  2.5000000E-002 0.0
  3.9000000E-001  3.0000000E-002 0.0
  3.9000000E-001  3.5000000E-002 0.0
  3.9000000E-001  4.0000000E-002 0.0
  3.9000000E-001  4.5000000E-002 0.0
  3.9000000E-001  5.0000000E-002 0.0
  3.9000000E-001  8.5000000E-002 0.0
  3.9000000E-001  9.0000000E-002 0.0
  3.9000000E-001  9.5000000E-002 0.0
  3.9000000E-001  1.0000000E-001 0.0
  3.9000000E-001  1.0500000E-001 0.0
  3.9000000E-001  1.1000000E-001 0.0
  3.9000000E-001  1.1500000E-001 0.0
  3.9500000E-001 -8.0000000E-002 0.0
  3.9500000E-001 -7.5000000E-002 0.0
  3.9500000E-001 -7.0000000E-002 0.0
  3.9500000E-001 -6.5000000E-002 0.0
  3.9500000E-001 -6.0000000E-002 0.0
  3.9500000E-001 -5.5000000E-002 0.0
  3.9500000E-001 -5.0000000E-002 0.0
  3.9500000E-001 -4.5000000E-002 0.0
  3.9500000E-001 -4.0000000E-002 0.0
  3.9500000E-001 -3.5000000E-002 0.0
  3.9500000E-001 -3.0000000E-002 0.0
  3.9500000E-001 -2.5000000E-002 0.0
  3.9500000E-001 -2.0000000E-002 0.0
  3.9500000E-001 -1.5000000E-002 0.0
  3.9500000E-001 -1.0000000E-002 0.0
  3.9500000E-001 -5.0000000E-003 0.0
  3.9500000E-001  0.0000000E+000 0.0
  3.9500000E-001  5.0000000E-003 0.0
  3.9500000E-001  1.0000000E-002 0.0
  3.9500000E-001  1.5000000E-002 0.0
  3.9500000E-001  2.0000000E-002 0.0
  3.9500000E-001  2.5000000E-002 0.0
  3.9500000E-001  3.0000000E-002 0.0
  3.9500000E-001  3.5000000E-002 0.0
  3.9500000E-001  4.0000000E-002 0.0
  3.9500000E-001  4.5000000E-002 0.0
  3.9000000E-001  8.0000000E-002 0.0
  3.9500000E-001  8.0000000E-002 0.0
  3.9500000E-001  8.5000000E-002 0.0
  3.9500000E-001  9.0000000E-002 0.0
  3.9500000E-001  9.5000000E-002 0.0
  3.9500000E-001  1.0000000E-001 0.0
  3.9500000E-001  1.0500000E-001 0.0
  3.9500000E-001  1.1000000E-001 0.0
  3.9500000E-001  1.1500000E-001 0.0
  4.0000000E-001 -8.0000000E-002 0.0
  4.0000000E-001 -7.5000000E-002 0.0
  4.0000000E-001 -7.0000000E-002 0.0
  4.0000000E-001 -6.5000000E-002 0.0
  4.0000000E-001 -6.0000000E-002 0.0
  4.0000000E-001 -5.5000000E-002 0.0
  4.0000000E-001 -5.0000000E-002 0.0
  4.0000000E-001 -4.5000000E-002 0.0
  4.0000000E-001 -4.0000000E-002 0.0
  4.0000000E-001 -3.5000000E-002 0.0
  4.0000000E-001 -3.0000000E-002 0.0
  4.0000000E-001 -2.5000000E-002 0.0
  4.0000000E-001 -2.0000000E-002 0.0
  4.0000000E-001 -1.5000000E-002 0.0
  4.0000000E-001 -1.0000000E-002 0.0
  4.0000000E-001 -5.0000000E-003 0.0
  4.0000000E-001  0.0000000E+000 0.0
  4.0000000E-001  5.0000000E-003 0.0
  4.0000000E-001  1.0000000E-002 0.0
  4.0000000E-001  1.5000000E-002 0.0
  4.0000000E-001  2.0000000E-002 0.0
  4.0000000E-001  2.5000000E-002 0.0
  4.0000000E-001  3.0000000E-002 0.0
  4.0000000E-001  3.5000000E-002 0.0
  4.0000000E-001  4.0000000E-002 0.0
  4.0000000E-001  4.5000000E-002 0.0
  4.0000000E-001  8.0000000E-002 0.0
  4.0000000E-001  8.5000000E-002 0.0
  4.0000000E-001  9.0000000E-002 0.0
  4.0000000E-001  9.5000000E-002 0.0
  4.0000000E-001  1.0000000E-001 0.0
  4.0000000E-001  1.0500000E-001 0.0
  4.0000000E-001  1.1000000E-001 0.0
  4.0500000E-001 -7.5000000E-002 0.0
  4.0500000E-001 -7.0000000E-002 0.0
  4.0500000E-001 -6.5000000E-002 0.0
  4.0500000E-001 -6.0000000E-002 0.0
  4.0500000E-001 -5.5000000E-002 0.0
  4.0500000E-001 -5.0000000E-002 0.0
  4.0500000E-001 -4.5000000E-002 0.0
  4.0500000E-001 -4.0000000E-002 0.0
  4.0500000E-001 -3.5000000E-002 0.0
  4.0500000E-001 -3.0000000E-002 0.0
  4.0500000E-001 -2.5000000E-002 0.0
  4.0500000E-001 -2.0000000E-002 0.0
  4.0500000E-001 -1.5000000E-002 0.0
  4.0500000E-001 -1.0000000E-002 0.0
  4.0500000E-001 -5.0000000E-003 0.0
  4.0500000E-001  0.0000000E+000 0.0
  4.0500000E-001  5.0000000E-003 0.0
  4.0500000E-001  1.0000000E-002 0.0
  4.0500000E-001  1.5000000E-002 0.0
  4.0500000E-001  2.0000000E-002 0.0
  4.0500000E-001  2.5000000E-002 0.0
  4.0500000E-001  3.0000000E-002 0.0
  4.0500000E-001  3.5000000E-002 0.0
  4.0500000E-001  4.0000000E-002 0.0
  4.0500000E-001  4.5000000E-002 0.0
  4.0500000E-001  8.0000000E-002 0.0
  4.0500000E-001  8.5000000E-002 0.0
  4.0500000E-001  9.0000000E-002 0.0
  4.0500000E-001  9.5000000E-002 0.0
  4.0500000E-001  1.0000000E-001 0.0
  4.0500000E-001  1.0500000E-001 0.0
  4.0500000E-001  1.1000000E-001 0.0
  4.1000000E-001 -7.5000000E-002 0.0
  4.1000000E-001 -7.0000000E-002 0.0
  4.1000000E-001 -6.5000000E-002 0.0
  4.1000000E-001 -6.0000000E-002 0.0
  4.1000000E-001 -5.5000000E-002 0.0
  4.1000000E-001 -5.0000000E-002 0.0
  4.1000000E-001 -4.5000000E-002 0.0
  4.1000000E-001 -4.0000000E-002 0.0
  4.1000000E-001 -3.5000000E-002 0.0
  4.1000000E-001 -3.0000000E-002 0.0
  4.1000000E-001 -2.5000000E-002 0.0
  4.1000000E-001 -2.0000000E-002 0.0
  4.1000000E-001 -1.5000000E-002 0.0
  4.1000000E-001 -1.0000000E-002 0.0
  4.1000000E-001 -5.0000000E-003 0.0
  4.1000000E-001  0.0000000E+000 0.0
  4.1000000E-001  5.0000000E-003 0.0
  4.1000000E-001  1.0000000E-002 0.0
  4.1000000E-001  1.5000000E-002 0.0
  4.1000000E-001  2.0000000E-002 0.0
  4.1000000E-001  2.5000000E-002 0.0
  4.1000000E-001  3.0000000E-002 0.0
  4.1000000E-001  3.5000000E-002 0.0
  4.1000000E-001  4.0000000E-002 0.0
  4.0500000E-001  7.5000000E-002 0.0
  4.1000000E-001  7.5000000E-002 0.0
  4.1000000E-001  8.0000000E-002 0.0
  4.1000000E-001  8.5000000E-002 0.0
  4.1000000E-001  9.0000000E-002 0.0
  4.1000000E-001  9.5000000E-002 0.0
  4.1000000E-001  1.0000000E-001 0.0
  4.1000000E-001  1.0500000E-001 0.0
  4.1000000E-001  1.1000000E-001 0.0
  4.1500000E-001 -7.5000000E-002 0.0
  4.1500000E-001 -7.0000000E-002 0.0
  4.1500000E-001 -6.5000000E-002 0.0
  4.1500000E-001 -6.0000000E-002 0.0
  4.1500000E-001 -5.5000000E-002 0.0
  4.1500000E-001 -5.0000000E-002 0.0
  4.1500000E-001 -4.5000000E-002 0.0
  4.1500000E-001 -4.0000000E-002 0.0
  4.1500000E-001 -3.5000000E-002 0.0
  4.1500000E-001 -3.0000000E-002 0.0
  4.1500000E-001 -2.5000000E-002 0.0
  4.1500000E-001 -2.0000000E-002 0.0
  4.1500000E-001 -1.5000000E-002 0.0
  4.1500000E-001 -1.0000000E-002 0.0
  4.1500000E-001 -5.0000000E-003 0.0
  4.1500000E-001  0.0000000E+000 0.0
  4.1500000E-001  5.0000000E-003 0.0
  4.1500000E-001  1.0000000E-002 0.0
  4.1500000E-001  1.5000000E-002 0.0
  4.1500000E-001  2.0000000E-002 0.0
  4.1500000E-001  2.5000000E-002 0.0
  4.1500000E-001  3.0000000E-002 0.0
  4.1500000E-001  3.5000000E-002 0.0
  4.1500000E-001  4.0000000E-002 0.0
  4.1500000E-001  7.5000000E-002 0.0
  4.1500000E-001  8.0000000E-002 0.0
  4.1500000E-001  8.5000000E-002 0.0
  4.1500000E-001  9.0000000E-002 0.0
  4.1500000E-001  9.5000000E-002 0.0
  4.1500000E-001  1.0000000E-001 0.0
  4.1500000E-001  1.0500000E-001 0.0
  4.1500000E-001  1.1000000E-001 0.0
  4.2000000E-001 -6.5000000E-002 0.0
  4.2000000E-001 -6.0000000E-002 0.0
  4.2000000E-001 -5.5000000E-002 0.0
  4.2000000E-001 -5.0000000E-002 0.0
  4.2000000E-001 -4.5000000E-002 0.0
  4.2000000E-001 -4.0000000E-002 0.0
  4.2000000E-001 -3.5000000E-002 0.0
  4.2000000E-001 -3.0000000E-002 0.0
  4.2000000E-001 -2.5000000E-002 0.0
  4.2000000E-001 -2.0000000E-002 0.0
  4.2000000E-001 -1.5000000E-002 0.0
  4.2000000E-001 -1.0000000E-002 0.0
  4.2000000E-001 -5.0000000E-003 0.0
  4.2000000E-001  0.0000000E+000 0.0
  4.2000000E-001  5.0000000E-003 0.0
  4.2000000E-001  1.0000000E-002 0.0
  4.2000000E-001  1.5000000E-002 0.0
  4.2000000E-001  2.0000000E-002 0.0
  4.2000000E-001  2.5000000E-002 0.0
  4.2000000E-001  3.0000000E-002 0.0
  4.2000000E-001  3.5000000E-002 0.0
  4.1500000E-001  7.0000000E-002 0.0
  4.2000000E-001  7.0000000E-002 0.0
  4.2000000E-001  7.5000000E-002 0.0
  4.2000000E-001  8.0000000E-002 0.0
  4.2000000E-001  8.5000000E-002 0.0
  4.2000000E-001  9.0000000E-002 0.0
  4.2000000E-001  9.5000000E-002 0.0
  4.2000000E-001  1.0000000E-001 0.0
  4.2000000E-001  1.0500000E-001 0.0
  4.2500000E-001 -6.5000000E-002 0.0
  4.2500000E-001 -6.0000000E-002 0.0
  4.2500000E-001 -5.5000000E-002 0.0
  4.2500000E-001 -5.0000000E-002 0.0
  4.2500000E-001 -4.5000000E-002 0.0
  4.2500000E-001 -4.0000000E-002 0.0
  4.2500000E-001 -3.5000000E-002 0.0
  4.2500000E-001 -3.0000000E-002 0.0
  4.2500000E-001 -2.5000000E-002 0.0
  4.2500000E-001 -2.0000000E-002 0.0
  4.2500000E-001 -1.5000000E-002 0.0
  4.2500000E-001 -1.0000000E-002 0.0
  4.2500000E-001 -5.0000000E-003 0.0
  4.2500000E-001  0.0000000E+000 0.0
  4.2500000E-001  5.0000000E-003 0.0
  4.2500000E-001  1.0000000E-002 0.0
  4.2500000E-001  1.5000000E-002 0.0
  4.2500000E-001  2.0000000E-002 0.0
  4.2500000E-001  2.5000000E-002 0.0
  4.2500000E-001  3.0000000E-002 0.0
  4.2500000E-001  3.5000000E-002 0.0
  4.2000000E-001  6.5000000E-002 0.0
  4.2500000E-001  6.5000000E-002 0.0
  4.2500000E-001  7.0000000E-002 0.0
  4.2500000E-001  7.5000000E-002 0.0
  4.2500000E-001  8.0000000E-002 0.0
  4.2500000E-001  8.5000000E-002 0.0
  4.2500000E-001  9.0000000E-002 0.0
  4.2500000E-001  9.5000000E-002 0.0
  4.2500000E-001  1.0000000E-001 0.0
  4.2500000E-001  1.0500000E-001 0.0
  4.3000000E-001 -6.0000000E-002 0.0
  4.3000000E-001 -5.5000000E-002 0.0
  4.3000000E-001 -5.0000000E-002 0.0
  4.3000000E-001 -4.5000000E-002 0.0
  4.3000000E-001 -4.0000000E-002 0.0
  4.3000000E-001 -3.5000000E-002 0.0
  4.3000000E-001 -3.0000000E-002 0.0
  4.3000000E-001 -2.5000000E-002 0.0
  4.3000000E-001 -2.0000000E-002 0.0
  4.3000000E-001 -1.5000000E-002 0.0
  4.3000000E-001 -1.0000000E-002 0.0
  4.3000000E-001 -5.0000000E-003 0.0
  4.3000000E-001  0.0000000E+000 0.0
  4.3000000E-001  5.0000000E-003 0.0
  4.3000000E-001  1.0000000E-002 0.0
  4.3000000E-001  1.5000000E-002 0.0
  4.3000000E-001  2.0000000E-002 0.0
  4.3000000E-001  2.5000000E-002 0.0
  4.3000000E-001  3.0000000E-002 0.0
  4.3000000E-001  3.5000000E-002 0.0
  4.2500000E-001  6.0000000E-002 0.0
  4.3000000E-001  6.0000000E-002 0.0
  4.3000000E-001  6.5000000E-002 0.0
  4.3000000E-001  7.0000000E-002 0.0
  4.3000000E-001  7.5000000E-002 0.0
  4.3000000E-001  8.0000000E-002 0.0
  4.3000000E-001  8.5000000E-002 0.0
  4.3000000E-001  9.0000000E-002 0.0
  4.3000000E-001  9.5000000E-002 0.0
  4.3000000E-001  1.0000000E-001 0.0
  4.3000000E-001  1.0500000E-001 0.0
  4.3500000E-001 -6.0000000E-002 0.0
  4.3500000E-001 -5.5000000E-002 0.0
  4.3500000E-001 -5.0000000E-002 0.0
  4.3500000E-001 -4.5000000E-002 0.0
  4.3500000E-001 -4.0000000E-002 0.0
  4.3500000E-001 -3.5000000E-002 0.0
  4.3500000E-001 -3.0000000E-002 0.0
  4.3500000E-001 -2.5000000E-002 0.0
  4.3500000E-001 -2.0000000E-002 0.0
  4.3500000E-001 -1.5000000E-002 0.0
  4.3500000E-001 -1.0000000E-002 0.0
  4.3500000E-001 -5.0000000E-003 0.0
  4.3500000E-001  0.0000000E+000 0.0
  4.3500000E-001  5.0000000E-003 0.0
  4.3500000E-001  1.0000000E-002 0.0
  4.3500000E-001  1.5000000E-002 0.0
  4.3500000E-001  2.0000000E-002 0.0
  4.3500000E-001  2.5000000E-002 0.0
  4.3500000E-001  3.0000000E-002 0.0
  4.3500000E-001  3.5000000E-002 0.0
  4.3000000E-001  5.5000000E-002 0.0
  4.3500000E-001  5.5000000E-002 0.0
  4.3500000E-001  6.0000000E-002 0.0
  4.3500000E-001  6.5000000E-002 0.0
  4.3500000E-001  7.0000000E-002 0.0
  4.3500000E-001  7.5000000E-002 0.0
  4.3500000E-001  8.0000000E-002 0.0
  4.3500000E-001  8.5000000E-002 0.0
  4.3500000E-001  9.0000000E-002 0.0
  4.3500000E-001  9.5000000E-002 0.0
  4.3500000E-001  1.0000000E-001 0.0
  4.4000000E-001 -5.5000000E-002 0.0
  4.4000000E-001 -5.0000000E-002 0.0
  4.4000000E-001 -4.5000000E-002 0.0
  4.4000000E-001 -4.0000000E-002 0.0
  4.4000000E-001 -3.5000000E-002 0.0
  4.4000000E-001 -3.0000000E-002 0.0
  4.4000000E-001 -2.5000000E-002 0.0
  4.4000000E-001 -2.0000000E-002 0.0
  4.4000000E-001 -1.5000000E-002 0.0
  4.4000000E-001 -1.0000000E-002 0.0
  4.4000000E-001 -5.0000000E-003 0.0
  4.4000000E-001  0.0000000E+000 0.0
  4.4000000E-001  5.0000000E-003 0.0
  4.4000000E-001  1.0000000E-002 0.0
  4.4000000E-001  1.5000000E-002 0.0
  4.4000000E-001  2.0000000E-002 0.0
  4.4000000E-001  2.5000000E-002 0.0
  4.4000000E-001  3.0000000E-002 0.0
  4.4000000E-001  3.5000000E-002 0.0
  4.4000000E-001  4.0000000E-002 0.0
  4.3500000E-001  4.0000000E-002 0.0
  4.4000000E-001  4.5000000E-002 0.0
  4.3500000E-001  4.5000000E-002 0.0
  4.4000000E-001  5.0000000E-002 0.0
  4.3500000E-001  5.0000000E-002 0.0
  4.4000000E-001  5.5000000E-002 0.0
  4.4000000E-001  6.0000000E-002 0.0
  4.4000000E-001  6.5000000E-002 0.0
  4.4000000E-001  7.0000000E-002 0.0
  4.4000000E-001  7.5000000E-002 0.0
  4.4000000E-001  8.0000000E-002 0.0
  4.4000000E-001  8.5000000E-002 0.0
  4.4000000E-001  9.0000000E-002 0.0
  4.4000000E-001  9.5000000E-002 0.0
  4.4500000E-001 -5.5000000E-002 0.0
  4.4500000E-001 -5.0000000E-002 0.0
  4.4500000E-001 -4.5000000E-002 0.0
  4.4500000E-001 -4.0000000E-002 0.0
  4.4500000E-001 -3.5000000E-002 0.0
  4.4500000E-001 -3.0000000E-002 0.0
  4.4500000E-001 -2.5000000E-002 0.0
  4.4500000E-001 -2.0000000E-002 0.0
  4.4500000E-001 -1.5000000E-002 0.0
  4.4500000E-001 -1.0000000E-002 0.0
  4.4500000E-001 -5.0000000E-003 0.0
  4.4500000E-001  0.0000000E+000 0.0
  4.4500000E-001  5.0000000E-003 0.0
  4.4500000E-001  1.0000000E-002 0.0
  4.4500000E-001  1.5000000E-002 0.0
  4.4500000E-001  2.0000000E-002 0.0
  4.4500000E-001  2.5000000E-002 0.0
  4.4500000E-001  3.0000000E-002 0.0
  4.4500000E-001  3.5000000E-002 0.0
  4.4500000E-001  4.0000000E-002 0.0
  4.4500000E-001  4.5000000E-002 0.0
  4.4500000E-001  5.0000000E-002 0.0
  4.4500000E-001  5.5000000E-002 0.0
  4.4500000E-001  6.0000000E-002 0.0
  4.4500000E-001  6.5000000E-002 0.0
  4.4500000E-001  7.0000000E-002 0.0
  4.4500000E-001  7.5000000E-002 0.0
  4.4500000E-001  8.0000000E-002 0.0
  4.4500000E-001  8.5000000E-002 0.0
  4.4500000E-001  9.0000000E-002 0.0
  4.5000000E-001 -5.0000000E-002 0.0
  4.5000000E-001 -4.5000000E-002 0.0
  4.5000000E-001 -4.0000000E-002 0.0
  4.5000000E-001 -3.5000000E-002 0.0
  4.5000000E-001 -3.0000000E-002 0.0
  4.5000000E-001 -2.5000000E-002 0.0
  4.5000000E-001 -2.0000000E-002 0.0
  4.5000000E-001 -1.5000000E-002 0.0
  4.5000000E-001 -1.0000000E-002 0.0
  4.5000000E-001 -5.0000000E-003 0.0
  4.5000000E-001  0.0000000E+000 0.0
  4.5000000E-001  5.0000000E-003 0.0
  4.5000000E-001  1.0000000E-002 0.0
  4.5000000E-001  1.5000000E-002 0.0
  4.5000000E-001  2.0000000E-002 0.0
  4.5000000E-001  2.5000000E-002 0.0
  4.5000000E-001  3.0000000E-002 0.0
  4.5000000E-001  3.5000000E-002 0.0
  4.5000000E-001  4.0000000E-002 0.0
  4.5000000E-001  4.5000000E-002 0.0
  4.5000000E-001  5.0000000E-002 0.0
  4.5000000E-001  5.5000000E-002 0.0
  4.5000000E-001  6.0000000E-002 0.0
  4.5000000E-001  6.5000000E-002 0.0
  4.5000000E-001  7.0000000E-002 0.0
  4.5000000E-001  7.5000000E-002 0.0
  4.5000000E-001  8.0000000E-002 0.0
  4.5000000E-001  8.5000000E-002 0.0
  4.5500000E-001 -5.0000000E-002 0.0
  4.5500000E-001 -4.5000000E-002 0.0
  4.5500000E-001 -4.0000000E-002 0.0
  4.5500000E-001 -3.5000000E-002 0.0
  4.5500000E-001 -3.0000000E-002 0.0
  4.5500000E-001 -2.5000000E-002 0.0
  4.5500000E-001 -2.0000000E-002 0.0
  4.5500000E-001 -1.5000000E-002 0.0
  4.5500000E-001 -1.0000000E-002 0.0
  4.5500000E-001 -5.0000000E-003 0.0
  4.5500000E-001  0.0000000E+000 0.0
  4.5500000E-001  5.0000000E-003 0.0
  4.5500000E-001  1.0000000E-002 0.0
  4.5500000E-001  1.5000000E-002 0.0
  4.5500000E-001  2.0000000E-002 0.0
  4.5500000E-001  2.5000000E-002 0.0
  4.5500000E-001  3.0000000E-002 0.0
  4.5500000E-001  3.5000000E-002 0.0
  4.5500000E-001  4.0000000E-002 0.0
  4.5500000E-001  4.5000000E-002 0.0
  4.5500000E-001  5.0000000E-002 0.0
  4.5500000E-001  5.5000000E-002 0.0
  4.5500000E-001  6.0000000E-002 0.0
  4.5500000E-001  6.5000000E-002 0.0
  4.5500000E-001  7.0000000E-002 0.0
  4.5500000E-001  7.5000000E-002 0.0
  4.6000000E-001 -5.0000000E-002 0.0
  4.6000000E-001 -4.5000000E-002 0.0
  4.6000000E-001 -4.0000000E-002 0.0
  4.6000000E-001 -3.5000000E-002 0.0
  4.6000000E-001 -3.0000000E-002 0.0
  4.6000000E-001 -2.5000000E-002 0.0
  4.6000000E-001 -2.0000000E-002 0.0
  4.6000000E-001 -1.5000000E-002 0.0
  4.6000000E-001 -1.0000000E-002 0.0
  4.6000000E-001 -5.0000000E-003 0.0
  4.6000000E-001  0.0000000E+000 0.0
  4.6000000E-001  5.0000000E-003 0.0
  4.6000000E-001  1.0000000E-002 0.0
  4.6000000E-001  1.5000000E-002 0.0
  4.6000000E-001  2.0000000E-002 0.0
  4.6000000E-001  2.5000000E-002 0.0
  4.6000000E-001  3.0000000E-002 0.0
  4.6000000E-001  3.5000000E-002 0.0
  4.6000000E-001  4.0000000E-002 0.0
  4.6000000E-001  4.5000000E-002 0.0
  4.6000000E-001  5.0000000E-002 0.0
  4.6000000E-001  5.5000000E-002 0.0
  4.6000000E-001  6.0000000E-002 0.0
  4.6000000E-001  6.5000000E-002 0.0
  4.6500000E-001 -4.5000000E-002 0.0
  4.6500000E-001 -4.0000000E-002 0.0
  4.6500000E-001 -3.5000000E-002 0.0
  4.6500000E-001 -3.0000000E-002 0.0
  4.6500000E-001 -2.5000000E-002 0.0
  4.6500000E-001 -2.0000000E-002 0.0
  4.6500000E-001 -1.5000000E-002 0.0
  4.6500000E-001 -1.0000000E-002 0.0
  4.6500000E-001 -5.0000000E-003 0.0
  4.6500000E-001  0.0000000E+000 0.0
  4.6500000E-001  5.0000000E-003 0.0
  4.6500000E-001  1.0000000E-002 0.0
  4.6500000E-001  1.5000000E-002 0.0
  4.6500000E-001  2.0000000E-002 0.0
  4.6500000E-001  2.5000000E-002 0.0
  4.6500000E-001  3.0000000E-002 0.0
  4.6500000E-001  3.5000000E-002 0.0
  4.6500000E-001  4.0000000E-002 0.0
  4.6500000E-001  4.5000000E-002 0.0
  4.6500000E-001  5.0000000E-002 0.0
  4.6500000E-001  5.5000000E-002 0.0
  4.7000000E-001 -4.5000000E-002 0.0
  4.7000000E-001 -4.0000000E-002 0.0
  4.7000000E-001 -3.5000000E-002 0.0
  4.7000000E-001 -3.0000000E-002 0.0
  4.7000000E-001 -2.5000000E-002 0.0
  4.7000000E-001 -2.0000000E-002 0.0
  4.7000000E-001 -1.5000000E-002 0.0
  4.7000000E-001 -1.0000000E-002 0.0
  4.7000000E-001 -5.0000000E-003 0.0
  4.7000000E-001  0.0000000E+000 0.0
  4.7000000E-001  5.0000000E-003 0.0
  4.7000000E-001  1.0000000E-002 0.0
  4.7000000E-001  1.5000000E-002 0.0
  4.7000000E-001  2.0000000E-002 0.0
  4.7000000E-001  2.5000000E-002 0.0
  4.7000000E-001  3.0000000E-002 0.0
  4.7000000E-001  3.5000000E-002 0.0
  4.7000000E-001  4.0000000E-002 0.0
  4.7500000E-001 -4.5000000E-002 0.0
  4.7500000E-001 -4.0000000E-002 0.0
  4.7500000E-001 -3.5000000E-002 0.0
  4.7500000E-001 -3.0000000E-002 0.0
  4.7500000E-001 -2.5000000E-002 0.0
  4.7500000E-001 -2.0000000E-002 0.0
  4.7500000E-001 -1.5000000E-002 0.0
  4.7500000E-001 -1.0000000E-002 0.0
  4.7500000E-001 -5.0000000E-003 0.0
  4.7500000E-001  0.0000000E+000 0.0
  4.7500000E-001  5.0000000E-003 0.0
  4.7500000E-001  1.0000000E-002 0.0
  4.7500000E-001  1.5000000E-002 0.0
  4.7500000E-001  2.0000000E-002 0.0
  4.7500000E-001  2.5000000E-002 0.0
  4.7500000E-001  3.0000000E-002 0.0
  4.8000000E-001 -4.0000000E-002 0.0
  4.8000000E-001 -3.5000000E-002 0.0
  4.8000000E-001 -3.0000000E-002 0.0
  4.8000000E-001 -2.5000000E-002 0.0
  4.8000000E-001 -2.0000000E-002 0.0
  4.8000000E-001 -1.5000000E-002 0.0
  4.8000000E-001 -1.0000000E-002 0.0
  4.8000000E-001 -5.0000000E-003 0.0
  4.8000000E-001  0.0000000E+000 0.0
  4.8000000E-001  5.0000000E-003 0.0
  4.8000000E-001  1.0000000E-002 0.0
  4.8500000E-001 -3.5000000E-002 0.0
  4.8500000E-001 -3.0000000E-002 0.0
  4.8500000E-001 -2.5000000E-002 0.0
  4.8500000E-001 -2.0000000E-002 0.0

CELLS 9646 45782
4 1 2 3 0 
4 2 4 5 3 
4 4 6 7 5 
4 6 8 9 7 
4 8 10 11 9 
4 13 14 15 12 
4 14 16 17 15 
4 16 18 19 17 
4 18 20 21 19 
4 20 22 23 21 
4 22 24 25 23 
4 24 26 27 25 
4 26 28 29 27 
4 28 30 31 29 
4 30 32 33 31 
4 32 34 35 33 
4 34 36 1 35 
4 36 37 2 1 
4 37 38 4 2 
4 38 39 6 4 
4 39 40 8 6 
4 40 41 10 8 
4 41 42 43 10 
4 42 44 45 43 
4 44 46 47 45 
4 48 49 14 13 
4 49 50 16 14 
4 50 51 18 16 
4 51 52 20 18 
4 52 53 22 20 
4 53 54 24 22 
4 54 55 26 24 
4 55 56 28 26 
4 56 57 30 28 
4 57 58 32 30 
4 58 59 34 32 
4 59 60 36 34 
4 60 61 37 36 
4 61 62 38 37 
4 62 63 39 38 
4 63 64 40 39 
4 64 65 41 40 
4 65 66 42 41 
4 66 67 44 42 
4 67 68 46 44 
4 68 69 70 46 
4 69 71 72 70 
4 74 75 48 73 
4 75 76 49 48 
4 76 77 50 49 
4 77 78 51 50 
4 78 79 52 51 
4 79 80 53 52 
4 80 81 54 53 
4 81 82 55 54 
4 82 83 56 55 
4 83 84 57 56 
4 84 85 58 57 
4 85 86 59 58 
4 86 87 60 59 
4 87 88 61 60 
4 88 89 62 61 
4 89 90 63 62 
4 90 91 64 63 
4 91 92 65 64 
4 92 93 66 65 
4 93 94 67 66 
4 94 95 68 67 
4 95 96 69 68 
4 96 97 71 69 
4 97 98 99 71 
4 100 101 75 74 
4 101 102 76 75 
4 102 103 77 76 
4 103 104 78 77 
4 104 105 79 78 
4 105 106 80 79 
4 106 107 81 80 
4 107 108 82 81 
4 108 109 83 82 
4 109 110 84 83 
4 110 111 85 84 
4 111 112 86 85 
4 112 113 87 86 
4 113 114 88 87 
4 114 115 89 88 
4 115 116 90 89 
4 116 117 91 90 
4 117 118 92 91 
4 118 119 93 92 
4 119 120 94 93 
4 120 121 95 94 
4 121 122 96 95 
4 122 123 97 96 
4 123 124 98 97 
4 125 126 101 100 
4 126 127 102 101 
4 127 128 103 102 
4 128 129 104 103 
4 129 130 105 104 
4 130 131 106 105 
4 131 132 107 106 
4 132 133 108 107 
4 133 134 109 108 
4 134 135 110 109 
4 135 136 111 110 
4 136 137 112 111 
4 137 138 113 112 
4 138 139 114 113 
4 139 140 115 114 
4 140 141 116 115 
4 141 142 117 116 
4 142 143 118 117 
4 143 144 119 118 
4 144 145 120 119 
4 145 146 121 120 
4 146 147 122 121 
4 147 148 123 122 
4 148 149 124 123 
4 149 150 151 124 
4 150 152 153 151 
4 155 156 125 154 
4 156 157 126 125 
4 157 158 127 126 
4 158 159 128 127 
4 159 160 129 128 
4 160 161 130 129 
4 161 162 131 130 
4 162 163 132 131 
4 163 164 133 132 
4 164 165 134 133 
4 165 166 135 134 
4 166 167 136 135 
4 167 168 137 136 
4 168 169 138 137 
4 169 170 139 138 
4 170 171 140 139 
4 171 172 141 140 
4 172 173 142 141 
4 173 174 143 142 
4 174 175 144 143 
4 175 176 145 144 
4 176 177 146 145 
4 177 178 147 146 
4 178 179 148 147 
4 179 180 149 148 
4 180 181 150 149 
4 181 182 152 150 
4 182 183 184 152 
4 183 185 186 184 
4 187 188 156 155 
4 188 189 157 156 
4 189 190 158 157 
4 190 191 159 158 
4 191 192 160 159 
4 192 193 161 160 
4 193 194 162 161 
4 194 195 163 162 
4 195 196 164 163 
4 196 197 165 164 
4 197 198 166 165 
4 198 199 167 166 
4 199 200 168 167 
4 200 201 169 168 
4 201 202 170 169 
4 202 203 171 170 
4 203 204 172 171 
4 204 205 173 172 
4 205 206 174 173 
4 206 207 175 174 
4 207 208 176 175 
4 208 209 177 176 
4 209 210 178 177 
4 210 211 179 178 
4 211 212 180 179 
4 212 213 181 180 
4 213 214 182 181 
4 214 215 183 182 
4 215 216 185 183 
4 216 217 218 185 
4 217 219 220 218 
4 222 223 187 221 
4 223 224 188 187 
4 224 225 189 188 
4 225 226 190 189 
4 226 227 191 190 
4 227 228 192 191 
4 228 229 193 192 
4 229 230 194 193 
4 230 231 195 194 
4 231 232 196 195 
4 232 233 197 196 
4 233 234 198 197 
4 234 235 199 198 
4 235 236 200 199 
4 236 237 201 200 
4 237 238 202 201 
4 238 239 203 202 
4 239 240 204 203 
4 240 241 205 204 
4 241 242 206 205 
4 242 243 207 206 
4 243 244 208 207 
4 244 245 209 208 
4 245 246 210 209 
4 246 247 211 210 
4 247 248 212 211 
4 248 249 213 212 
4 249 250 214 213 
4 250 251 215 214 
4 251 252 216 215 
4 252 253 217 216 
4 253 254 219 217 
4 254 255 256 219 
4 255 257 258 256 
4 259 260 223 222 
4 260 261 224 223 
4 261 262 225 224 
4 262 263 226 225 
4 263 264 227 226 
4 264 265 228 227 
4 265 266 229 228 
4 266 267 230 229 
4 267 268 231 230 
4 268 269 232 231 
4 269 270 233 232 
4 270 271 234 233 
4 271 272 235 234 
4 272 273 236 235 
4 273 274 237 236 
4 274 275 238 237 
4 275 276 239 238 
4 276 277 240 239 
4 277 278 241 240 
4 278 279 242 241 
4 279 280 243 242 
4 280 281 244 243 
4 281 282 245 244 
4 282 283 246 245 
4 283 284 247 246 
4 284 285 248 247 
4 285 286 249 248 
4 286 287 250 249 
4 287 288 251 250 
4 288 289 252 251 
4 289 290 253 252 
4 290 291 254 253 
4 291 292 255 254 
4 292 293 257 255 
4 293 294 295 257 
4 294 296 297 295 
4 298 299 261 260 
4 299 300 262 261 
4 300 301 263 262 
4 301 302 264 263 
4 302 303 265 264 
4 303 304 266 265 
4 304 305 267 266 
4 305 306 268 267 
4 306 307 269 268 
4 307 308 270 269 
4 308 309 271 270 
4 309 310 272 271 
4 310 311 273 272 
4 311 312 274 273 
4 312 313 275 274 
4 313 314 276 275 
4 314 315 277 276 
4 315 316 278 277 
4 316 317 279 278 
4 317 318 280 279 
4 318 319 281 280 
4 319 320 282 281 
4 320 321 283 282 
4 321 322 284 283 
4 322 323 285 284 
4 323 324 286 285 
4 324 325 287 286 
4 325 326 288 287 
4 326 327 289 288 
4 327 328 290 289 
4 328 329 291 290 
4 329 330 292 291 
4 330 331 293 292 
4 331 332 294 293 
4 332 333 296 294 
4 333 334 335 296 
4 336 337 300 299 
4 337 338 301 300 
4 338 339 302 301 
4 339 340 303 302 
4 340 341 304 303 
4 341 342 305 304 
4 342 343 306 305 
4 343 344 307 306 
4 344 345 308 307 
4 345 346 309 308 
4 346 347 310 309 
4 347 348 311 310 
4 348 349 312 311 
4 349 350 313 312 
4 350 351 314 313 
4 351 352 315 314 
4 352 353 316 315 
4 353 354 317 316 
4 354 355 318 317 
4 355 356 319 318 
4 356 357 320 319 
4 357 358 321 320 
4 358 359 322 321 
4 359 360 323 322 
4 360 361 324 323 
4 361 362 325 324 
4 362 363 326 325 
4 363 364 327 326 
4 364 365 328 327 
4 365 366 329 328 
4 366 367 330 329 
4 367 368 331 330 
4 368 369 332 331 
4 369 370 333 332 
4 370 371 334 333 
4 371 372 373 334 
4 374 375 338 337 
4 375 376 339 338 
4 376 377 340 339 
4 377 378 341 340 
4 378 379 342 341 
4 379 380 343 342 
4 380 381 344 343 
4 381 382 345 344 
4 382 383 346 345 
4 383 384 347 346 
4 384 385 348 347 
4 385 386 349 348 
4 386 387 350 349 
4 387 388 351 350 
4 388 389 352 351 
4 389 390 353 352 
4 390 391 354 353 
4 391 392 355 354 
4 392 393 356 355 
4 393 394 357 356 
4 394 395 358 357 
4 395 396 359 358 
4 396 397 360 359 
4 397 398 361 360 
4 398 399 362 361 
4 399 400 363 362 
4 400 401 364 363 
4 401 402 365 364 
4 402 403 366 365 
4 403 404 367 366 
4 404 405 368 367 
4 405 406 369 368 
4 406 407 370 369 
4 407 408 371 370 
4 408 409 372 371 
4 409 410 411 372 
4 412 413 375 374 
4 413 414 376 375 
4 414 415 377 376 
4 415 416 378 377 
4 416 417 379 378 
4 417 418 380 379 
4 418 419 381 380 
4 419 420 382 381 
4 420 421 383 382 
4 421 422 384 383 
4 422 423 385 384 
4 423 424 386 385 
4 424 425 387 386 
4 425 426 388 387 
4 426 427 389 388 
4 427 428 390 389 
4 428 429 391 390 
4 429 430 392 391 
4 430 431 393 392 
4 431 432 394 393 
4 432 433 395 394 
4 433 434 396 395 
4 434 435 397 396 
4 435 436 398 397 
4 436 437 399 398 
4 437 438 400 399 
4 438 439 401 400 
4 439 440 402 401 
4 440 441 403 402 
4 441 442 404 403 
4 442 443 405 404 
4 443 444 406 405 
4 444 445 407 406 
4 445 446 408 407 
4 446 447 409 408 
4 447 448 410 409 
4 449 450 413 412 
4 450 451 414 413 
4 451 452 415 414 
4 452 453 416 415 
4 453 454 417 416 
4 454 455 418 417 
4 455 456 419 418 
4 456 457 420 419 
4 457 458 421 420 
4 458 459 422 421 
4 459 460 423 422 
4 460 461 424 423 
4 461 462 425 424 
4 462 463 426 425 
4 463 464 427 426 
4 464 465 428 427 
4 465 466 429 428 
4 466 467 430 429 
4 467 468 431 430 
4 468 469 432 431 
4 469 470 433 432 
4 470 471 434 433 
4 471 472 435 434 
4 472 473 436 435 
4 473 474 437 436 
4 474 475 438 437 
4 475 476 439 438 
4 476 477 440 439 
4 477 478 441 440 
4 478 479 442 441 
4 479 480 443 442 
4 480 481 444 443 
4 481 482 445 444 
4 482 483 446 445 
4 483 484 447 446 
4 484 485 448 447 
4 485 486 487 448 
4 489 490 491 488 
4 490 492 493 491 
4 492 494 495 493 
4 494 496 497 495 
4 499 500 501 498 
4 500 502 503 501 
4 502 504 449 503 
4 504 505 450 449 
4 505 506 451 450 
4 506 507 452 451 
4 507 508 453 452 
4 508 509 454 453 
4 509 510 455 454 
4 510 511 456 455 
4 511 512 457 456 
4 512 513 458 457 
4 513 514 459 458 
4 514 515 460 459 
4 515 516 461 460 
4 516 517 462 461 
4 517 518 463 462 
4 518 519 464 463 
4 519 520 465 464 
4 521 522 470 469 
4 522 523 471 470 
4 523 524 472 471 
4 524 525 473 472 
4 525 526 474 473 
4 526 527 475 474 
4 527 528 476 475 
4 528 529 477 476 
4 529 530 478 477 
4 530 531 479 478 
4 531 532 480 479 
4 532 533 481 480 
4 533 534 482 481 
4 534 535 483 482 
4 535 536 484 483 
4 536 537 485 484 
4 537 538 486 485 
4 540 541 489 539 
4 541 542 490 489 
4 542 543 492 490 
4 543 544 494 492 
4 544 545 496 494 
4 545 546 547 496 
4 546 548 549 547 
4 548 550 551 549 
4 553 554 555 552 
4 554 556 499 555 
4 556 557 500 499 
4 557 558 502 500 
4 558 559 504 502 
4 559 560 505 504 
4 560 561 506 505 
4 561 562 507 506 
4 562 563 508 507 
4 563 564 509 508 
4 564 565 510 509 
4 565 566 511 510 
4 566 567 512 511 
4 567 568 513 512 
4 568 569 514 513 
4 569 570 515 514 
4 570 571 516 515 
4 571 572 517 516 
4 572 573 518 517 
4 573 574 519 518 
4 574 575 520 519 
4 576 577 524 523 
4 577 578 525 524 
4 578 579 526 525 
4 579 580 527 526 
4 580 581 528 527 
4 581 582 529 528 
4 582 583 530 529 
4 583 584 531 530 
4 584 585 532 531 
4 585 586 533 532 
4 586 587 534 533 
4 587 588 535 534 
4 588 589 536 535 
4 589 590 537 536 
4 590 591 538 537 
4 591 592 593 538 
4 594 595 541 540 
4 595 596 542 541 
4 596 597 543 542 
4 597 598 544 543 
4 598 599 545 544 
4 599 600 546 545 
4 600 601 548 546 
4 601 602 550 548 
4 602 603 604 550 
4 603 605 606 604 
4 605 607 608 606 
4 607 609 610 608 
4 612 613 614 611 
4 613 615 553 614 
4 615 616 554 553 
4 616 617 556 554 
4 617 618 557 556 
4 618 619 558 557 
4 619 620 559 558 
4 620 621 560 559 
4 621 622 561 560 
4 622 623 562 561 
4 623 624 563 562 
4 624 625 564 563 
4 625 626 565 564 
4 626 627 566 565 
4 627 628 567 566 
4 628 629 568 567 
4 629 630 569 568 
4 630 631 570 569 
4 631 632 571 570 
4 632 633 572 571 
4 633 634 573 572 
4 634 635 574 573 
4 635 636 575 574 
4 637 638 580 579 
4 638 639 581 580 
4 639 640 582 581 
4 640 641 583 582 
4 641 642 584 583 
4 642 643 585 584 
4 643 644 586 585 
4 644 645 587 586 
4 645 646 588 587 
4 646 647 589 588 
4 647 648 590 589 
4 648 649 591 590 
4 649 650 592 591 
4 650 651 652 592 
4 654 655 594 653 
4 655 656 595 594 
4 656 657 596 595 
4 657 658 597 596 
4 658 659 598 597 
4 659 660 599 598 
4 660 661 600 599 
4 661 662 601 600 
4 662 663 602 601 
4 663 664 603 602 
4 664 665 605 603 
4 665 666 607 605 
4 666 667 609 607 
4 667 668 669 609 
4 668 670 671 669 
4 670 672 673 671 
4 672 674 675 673 
4 674 676 677 675 
4 676 678 679 677 
4 678 680 681 679 
4 680 682 683 681 
4 682 684 685 683 
4 684 686 687 685 
4 686 688 689 687 
4 688 690 691 689 
4 690 692 693 691 
4 692 694 695 693 
4 694 696 697 695 
4 696 698 699 697 
4 698 700 612 699 
4 700 701 613 612 
4 701 702 615 613 
4 702 703 616 615 
4 703 704 617 616 
4 704 705 618 617 
4 705 706 619 618 
4 706 707 620 619 
4 707 708 621 620 
4 708 709 622 621 
4 709 710 623 622 
4 710 711 624 623 
4 711 712 625 624 
4 712 713 626 625 
4 713 714 627 626 
4 714 715 628 627 
4 715 716 629 628 
4 716 717 630 629 
4 717 718 631 630 
4 718 719 632 631 
4 719 720 633 632 
4 720 721 634 633 
4 721 722 635 634 
4 722 723 636 635 
4 724 725 640 639 
4 725 726 641 640 
4 726 727 642 641 
4 727 728 643 642 
4 728 729 644 643 
4 729 730 645 644 
4 730 731 646 645 
4 731 732 647 646 
4 732 733 648 647 
4 733 734 649 648 
4 734 735 650 649 
4 735 736 651 650 
4 737 738 655 654 
4 738 739 656 655 
4 739 740 657 656 
4 740 741 658 657 
4 741 742 659 658 
4 742 743 660 659 
4 743 744 661 660 
4 744 745 662 661 
4 745 746 663 662 
4 746 747 664 663 
4 747 748 665 664 
4 748 749 666 665 
4 749 750 667 666 
4 750 751 668 667 
4 751 752 670 668 
4 752 753 672 670 
4 753 754 674 672 
4 754 755 676 674 
4 755 756 678 676 
4 756 757 680 678 
4 757 758 682 680 
4 758 759 684 682 
4 759 760 686 684 
4 760 761 688 686 
4 761 762 690 688 
4 762 763 692 690 
4 763 764 694 692 
4 764 765 696 694 
4 765 766 698 696 
4 766 767 700 698 
4 767 768 701 700 
4 768 769 702 701 
4 769 770 703 702 
4 770 771 704 703 
4 771 772 705 704 
4 772 773 706 705 
4 773 774 707 706 
4 774 775 708 707 
4 775 776 709 708 
4 776 777 710 709 
4 777 778 711 710 
4 778 779 712 711 
4 779 780 713 712 
4 780 781 714 713 
4 781 782 715 714 
4 782 783 716 715 
4 783 784 717 716 
4 784 785 718 717 
4 785 786 719 718 
4 786 787 720 719 
4 787 788 721 720 
4 788 789 722 721 
4 789 790 723 722 
4 790 791 792 723 
4 793 794 726 725 
4 794 795 727 726 
4 795 796 728 727 
4 796 797 729 728 
4 797 798 730 729 
4 798 799 731 730 
4 799 800 732 731 
4 800 801 733 732 
4 801 802 734 733 
4 802 803 735 734 
4 803 804 736 735 
4 804 805 806 736 
4 805 807 808 806 
4 807 809 810 808 
4 809 811 812 810 
4 811 813 814 812 
4 813 815 816 814 
4 815 817 818 816 
4 817 819 820 818 
4 819 821 822 820 
4 821 823 824 822 
4 823 825 826 824 
4 827 828 738 737 
4 828 829 739 738 
4 829 830 740 739 
4 830 831 741 740 
4 831 832 742 741 
4 832 833 743 742 
4 833 834 744 743 
4 834 835 745 744 
4 835 836 746 745 
4 836 837 747 746 
4 837 838 748 747 
4 838 839 749 748 
4 839 840 750 749 
4 840 841 751 750 
4 841 842 752 751 
4 842 843 753 752 
4 843 844 754 753 
4 844 845 755 754 
4 845 846 756 755 
4 846 847 757 756 
4 847 848 758 757 
4 848 849 759 758 
4 849 850 760 759 
4 850 851 761 760 
4 851 852 762 761 
4 852 853 763 762 
4 853 854 764 763 
4 854 855 765 764 
4 855 856 766 765 
4 856 857 767 766 
4 857 858 768 767 
4 858 859 769 768 
4 859 860 770 769 
4 860 861 771 770 
4 861 862 772 771 
4 862 863 773 772 
4 863 864 774 773 
4 864 865 775 774 
4 865 866 776 775 
4 866 867 777 776 
4 867 868 778 777 
4 868 869 779 778 
4 869 870 780 779 
4 870 871 781 780 
4 871 872 782 781 
4 872 873 783 782 
4 873 874 784 783 
4 874 875 785 784 
4 875 876 786 785 
4 876 877 787 786 
4 877 878 788 787 
4 878 879 789 788 
4 879 880 790 789 
4 880 881 791 790 
4 881 882 883 791 
4 884 885 795 794 
4 885 886 796 795 
4 886 887 797 796 
4 887 888 798 797 
4 888 889 799 798 
4 889 890 800 799 
4 890 891 801 800 
4 891 892 802 801 
4 892 893 803 802 
4 893 894 804 803 
4 894 895 805 804 
4 895 896 807 805 
4 896 897 809 807 
4 897 898 811 809 
4 898 899 813 811 
4 899 900 815 813 
4 900 901 817 815 
4 901 902 819 817 
4 902 903 821 819 
4 903 904 823 821 
4 904 905 825 823 
4 905 906 907 825 
4 906 908 909 907 
4 908 910 911 909 
4 912 913 828 827 
4 913 914 829 828 
4 914 915 830 829 
4 915 916 831 830 
4 916 917 832 831 
4 917 918 833 832 
4 918 919 834 833 
4 919 920 835 834 
4 920 921 836 835 
4 921 922 837 836 
4 922 923 838 837 
4 923 924 839 838 
4 924 925 840 839 
4 925 926 841 840 
4 926 927 842 841 
4 927 928 843 842 
4 928 929 844 843 
4 929 930 845 844 
4 930 931 846 845 
4 931 932 847 846 
4 932 933 848 847 
4 933 934 849 848 
4 934 935 850 849 
4 935 936 851 850 
4 936 937 852 851 
4 937 938 853 852 
4 938 939 854 853 
4 939 940 855 854 
4 940 941 856 855 
4 941 942 857 856 
4 942 943 858 857 
4 943 944 859 858 
4 944 945 860 859 
4 945 946 861 860 
4 946 947 862 861 
4 947 948 863 862 
4 948 949 864 863 
4 949 950 865 864 
4 950 951 866 865 
4 951 952 867 866 
4 952 953 868 867 
4 953 954 869 868 
4 954 955 870 869 
4 955 956 871 870 
4 956 957 872 871 
4 957 958 873 872 
4 958 959 874 873 
4 959 960 875 874 
4 960 961 876 875 
4 961 962 877 876 
4 962 963 878 877 
4 963 964 879 878 
4 964 965 880 879 
4 965 966 881 880 
4 966 967 882 881 
4 968 969 885 884 
4 969 970 886 885 
4 970 971 887 886 
4 971 972 888 887 
4 972 973 889 888 
4 973 974 890 889 
4 974 975 891 890 
4 975 976 892 891 
4 976 977 893 892 
4 977 978 894 893 
4 978 979 895 894 
4 979 980 896 895 
4 980 981 897 896 
4 981 982 898 897 
4 982 983 899 898 
4 983 984 900 899 
4 984 985 901 900 
4 985 986 902 901 
4 986 987 903 902 
4 987 988 904 903 
4 988 989 905 904 
4 989 990 906 905 
4 990 991 908 906 
4 991 992 910 908 
4 992 993 994 910 
4 995 996 913 912 
4 996 997 914 913 
4 997 998 915 914 
4 998 999 916 915 
4 999 1000 917 916 
4 1000 1001 918 917 
4 1001 1002 919 918 
4 1002 1003 920 919 
4 1003 1004 921 920 
4 1004 1005 922 921 
4 1005 1006 923 922 
4 1006 1007 924 923 
4 1007 1008 925 924 
4 1008 1009 926 925 
4 1009 1010 927 926 
4 1010 1011 928 927 
4 1011 1012 929 928 
4 1012 1013 930 929 
4 1013 1014 931 930 
4 1014 1015 932 931 
4 1015 1016 933 932 
4 1016 1017 934 933 
4 1017 1018 935 934 
4 1018 1019 936 935 
4 1019 1020 937 936 
4 1020 1021 938 937 
4 1021 1022 939 938 
4 1022 1023 940 939 
4 1023 1024 941 940 
4 1024 1025 942 941 
4 1025 1026 943 942 
4 1026 1027 944 943 
4 1027 1028 945 944 
4 1028 1029 946 945 
4 1029 1030 947 946 
4 1030 1031 948 947 
4 1031 1032 949 948 
4 1032 1033 950 949 
4 1033 1034 951 950 
4 1034 1035 952 951 
4 1035 1036 953 952 
4 1036 1037 954 953 
4 1037 1038 955 954 
4 1038 1039 956 955 
4 1039 1040 957 956 
4 1040 1041 958 957 
4 1041 1042 959 958 
4 1042 1043 960 959 
4 1043 1044 961 960 
4 1044 1045 962 961 
4 1045 1046 963 962 
4 1046 1047 964 963 
4 1047 1048 965 964 
4 1048 1049 966 965 
4 1049 1050 967 966 
4 1050 1051 1052 967 
4 1053 1054 970 969 
4 1054 1055 971 970 
4 1055 1056 972 971 
4 1056 1057 973 972 
4 1057 1058 974 973 
4 1058 1059 975 974 
4 1059 1060 976 975 
4 1060 1061 977 976 
4 1061 1062 978 977 
4 1062 1063 979 978 
4 1063 1064 980 979 
4 1064 1065 981 980 
4 1065 1066 982 981 
4 1066 1067 983 982 
4 1067 1068 984 983 
4 1068 1069 985 984 
4 1069 1070 986 985 
4 1070 1071 987 986 
4 1071 1072 988 987 
4 1072 1073 989 988 
4 1073 1074 990 989 
4 1074 1075 991 990 
4 1075 1076 992 991 
4 1076 1077 993 992 
4 1078 1079 996 995 
4 1079 1080 997 996 
4 1080 1081 998 997 
4 1081 1082 999 998 
4 1082 1083 1000 999 
4 1083 1084 1001 1000 
4 1084 1085 1002 1001 
4 1085 1086 1003 1002 
4 1086 1087 1004 1003 
4 1087 1088 1005 1004 
4 1088 1089 1006 1005 
4 1089 1090 1007 1006 
4 1090 1091 1008 1007 
4 1091 1092 1009 1008 
4 1092 1093 1010 1009 
4 1093 1094 1011 1010 
4 1094 1095 1012 1011 
4 1095 1096 1013 1012 
4 1096 1097 1014 1013 
4 1097 1098 1015 1014 
4 1098 1099 1016 1015 
4 1099 1100 1017 1016 
4 1100 1101 1018 1017 
4 1101 1102 1019 1018 
4 1102 1103 1020 1019 
4 1103 1104 1021 1020 
4 1104 1105 1022 1021 
4 1105 1106 1023 1022 
4 1106 1107 1024 1023 
4 1107 1108 1025 1024 
4 1108 1109 1026 1025 
4 1109 1110 1027 1026 
4 1110 1111 1028 1027 
4 1111 1112 1029 1028 
4 1112 1113 1030 1029 
4 1113 1114 1031 1030 
4 1114 1115 1032 1031 
4 1115 1116 1033 1032 
4 1116 1117 1034 1033 
4 1117 1118 1035 1034 
4 1118 1119 1036 1035 
4 1119 1120 1037 1036 
4 1120 1121 1038 1037 
4 1121 1122 1039 1038 
4 1122 1123 1040 1039 
4 1123 1124 1041 1040 
4 1124 1125 1042 1041 
4 1125 1126 1043 1042 
4 1126 1127 1044 1043 
4 1127 1128 1045 1044 
4 1128 1129 1046 1045 
4 1129 1130 1047 1046 
4 1130 1131 1048 1047 
4 1131 1132 1049 1048 
4 1132 1133 1050 1049 
4 1133 1134 1051 1050 
4 1135 1136 1054 1053 
4 1136 1137 1055 1054 
4 1137 1138 1056 1055 
4 1138 1139 1057 1056 
4 1139 1140 1058 1057 
4 1140 1141 1059 1058 
4 1141 1142 1060 1059 
4 1142 1143 1061 1060 
4 1143 1144 1062 1061 
4 1144 1145 1063 1062 
4 1145 1146 1064 1063 
4 1146 1147 1065 1064 
4 1147 1148 1066 1065 
4 1148 1149 1067 1066 
4 1149 1150 1068 1067 
4 1150 1151 1069 1068 
4 1151 1152 1070 1069 
4 1152 1153 1071 1070 
4 1153 1154 1072 1071 
4 1154 1155 1073 1072 
4 1155 1156 1074 1073 
4 1156 1157 1075 1074 
4 1157 1158 1076 1075 
4 1158 1159 1077 1076 
4 1160 1161 1080 1079 
4 1161 1162 1081 1080 
4 1162 1163 1082 1081 
4 1163 1164 1083 1082 
4 1164 1165 1084 1083 
4 1165 1166 1085 1084 
4 1166 1167 1086 1085 
4 1167 1168 1087 1086 
4 1168 1169 1088 1087 
4 1169 1170 1089 1088 
4 1170 1171 1090 1089 
4 1171 1172 1091 1090 
4 1172 1173 1092 1091 
4 1173 1174 1093 1092 
4 1174 1175 1094 1093 
4 1175 1176 1095 1094 
4 1176 1177 1096 1095 
4 1177 1178 1097 1096 
4 1178 1179 1098 1097 
4 1179 1180 1099 1098 
4 1180 1181 1100 1099 
4 1181 1182 1101 1100 
4 1182 1183 1102 1101 
4 1183 1184 1103 1102 
4 1184 1185 1104 1103 
4 1185 1186 1105 1104 
4 1186 1187 1106 1105 
4 1187 1188 1107 1106 
4 1188 1189 1108 1107 
4 1189 1190 1109 1108 
4 1190 1191 1110 1109 
4 1191 1192 1111 1110 
4 1192 1193 1112 1111 
4 1193 1194 1113 1112 
4 1194 1195 1114 1113 
4 1195 1196 1115 1114 
4 1196 1197 1116 1115 
4 1197 1198 1117 1116 
4 1198 1199 1118 1117 
4 1199 1200 1119 1118 
4 1200 1201 1120 1119 
4 1201 1202 1121 1120 
4 1202 1203 1122 1121 
4 1203 1204 1123 1122 
4 1204 1205 1124 1123 
4 1205 1206 1125 1124 
4 1206 1207 1126 1125 
4 1207 1208 1127 1126 
4 1208 1209 1128 1127 
4 1209 1210 1129 1128 
4 1210 1211 1130 1129 
4 1211 1212 1131 1130 
4 1212 1213 1132 1131 
4 1213 1214 1133 1132 
4 1214 1215 1134 1133 
4 1216 1217 1137 1136 
4 1217 1218 1138 1137 
4 1218 1219 1139 1138 
4 1219 1220 1140 1139 
4 1220 1221 1141 1140 
4 1221 1222 1142 1141 
4 1222 1223 1143 1142 
4 1223 1224 1144 1143 
4 1224 1225 1145 1144 
4 1225 1226 1146 1145 
4 1226 1227 1147 1146 
4 1227 1228 1148 1147 
4 1228 1229 1149 1148 
4 1229 1230 1150 1149 
4 1230 1231 1151 1150 
4 1231 1232 1152 1151 
4 1232 1233 1153 1152 
4 1233 1234 1154 1153 
4 1234 1235 1155 1154 
4 1235 1236 1156 1155 
4 1236 1237 1157 1156 
4 1237 1238 1158 1157 
4 1238 1239 1159 1158 
4 1240 1241 1161 1160 
4 1241 1242 1162 1161 
4 1242 1243 1163 1162 
4 1243 1244 1164 1163 
4 1244 1245 1165 1164 
4 1245 1246 1166 1165 
4 1246 1247 1167 1166 
4 1247 1248 1168 1167 
4 1248 1249 1169 1168 
4 1249 1250 1170 1169 
4 1250 1251 1171 1170 
4 1251 1252 1172 1171 
4 1252 1253 1173 1172 
4 1253 1254 1174 1173 
4 1254 1255 1175 1174 
4 1255 1256 1176 1175 
4 1256 1257 1177 1176 
4 1257 1258 1178 1177 
4 1258 1259 1179 1178 
4 1260 1261 1186 1185 
4 1261 1262 1187 1186 
4 1262 1263 1188 1187 
4 1263 1264 1189 1188 
4 1264 1265 1190 1189 
4 1265 1266 1191 1190 
4 1266 1267 1192 1191 
4 1267 1268 1193 1192 
4 1268 1269 1194 1193 
4 1269 1270 1195 1194 
4 1270 1271 1196 1195 
4 1271 1272 1197 1196 
4 1272 1273 1198 1197 
4 1273 1274 1199 1198 
4 1274 1275 1200 1199 
4 1275 1276 1201 1200 
4 1276 1277 1202 1201 
4 1277 1278 1203 1202 
4 1278 1279 1204 1203 
4 1279 1280 1205 1204 
4 1280 1281 1206 1205 
4 1281 1282 1207 1206 
4 1282 1283 1208 1207 
4 1283 1284 1209 1208 
4 1284 1285 1210 1209 
4 1285 1286 1211 1210 
4 1286 1287 1212 1211 
4 1287 1288 1213 1212 
4 1288 1289 1214 1213 
4 1289 1290 1215 1214 
4 1291 1292 1218 1217 
4 1292 1293 1219 1218 
4 1293 1294 1220 1219 
4 1294 1295 1221 1220 
4 1295 1296 1222 1221 
4 1296 1297 1223 1222 
4 1297 1298 1224 1223 
4 1298 1299 1225 1224 
4 1299 1300 1226 1225 
4 1300 1301 1227 1226 
4 1301 1302 1228 1227 
4 1302 1303 1229 1228 
4 1303 1304 1230 1229 
4 1304 1305 1231 1230 
4 1305 1306 1232 1231 
4 1306 1307 1233 1232 
4 1307 1308 1234 1233 
4 1308 1309 1235 1234 
4 1309 1310 1236 1235 
4 1310 1311 1237 1236 
4 1311 1312 1238 1237 
4 1312 1313 1239 1238 
4 1314 1315 1241 1240 
4 1315 1316 1242 1241 
4 1316 1317 1243 1242 
4 1317 1318 1244 1243 
4 1318 1319 1245 1244 
4 1319 1320 1246 1245 
4 1320 1321 1247 1246 
4 1321 1322 1248 1247 
4 1322 1323 1249 1248 
4 1323 1324 1250 1249 
4 1324 1325 1251 1250 
4 1325 1326 1252 1251 
4 1326 1327 1253 1252 
4 1327 1328 1254 1253 
4 1328 1329 1255 1254 
4 1329 1330 1256 1255 
4 1330 1331 1257 1256 
4 1331 1332 1258 1257 
4 1332 1333 1259 1258 
4 1334 1335 1264 1263 
4 1335 1336 1265 1264 
4 1336 1337 1266 1265 
4 1337 1338 1267 1266 
4 1338 1339 1268 1267 
4 1339 1340 1269 1268 
4 1340 1341 1270 1269 
4 1341 1342 1271 1270 
4 1342 1343 1272 1271 
4 1343 1344 1273 1272 
4 1344 1345 1274 1273 
4 1345 1346 1275 1274 
4 1346 1347 1276 1275 
4 1347 1348 1277 1276 
4 1348 1349 1278 1277 
4 1349 1350 1279 1278 
4 1350 1351 1280 1279 
4 1351 1352 1281 1280 
4 1352 1353 1282 1281 
4 1353 1354 1283 1282 
4 1354 1355 1284 1283 
4 1355 1356 1285 1284 
4 1356 1357 1286 1285 
4 1357 1358 1287 1286 
4 1358 1359 1288 1287 
4 1359 1360 1289 1288 
4 1361 1362 1292 1291 
4 1362 1363 1293 1292 
4 1363 1364 1294 1293 
4 1364 1365 1295 1294 
4 1365 1366 1296 1295 
4 1366 1367 1297 1296 
4 1367 1368 1298 1297 
4 1368 1369 1299 1298 
4 1369 1370 1300 1299 
4 1370 1371 1301 1300 
4 1371 1372 1302 1301 
4 1372 1373 1303 1302 
4 1373 1374 1304 1303 
4 1374 1375 1305 1304 
4 1375 1376 1306 1305 
4 1376 1377 1307 1306 
4 1377 1378 1308 1307 
4 1378 1379 1309 1308 
4 1379 1380 1310 1309 
4 1380 1381 1311 1310 
4 1381 1382 1312 1311 
4 1382 1383 1313 1312 
4 1384 1385 1316 1315 
4 1385 1386 1317 1316 
4 1386 1387 1318 1317 
4 1387 1388 1319 1318 
4 1388 1389 1320 1319 
4 1389 1390 1321 1320 
4 1390 1391 1322 1321 
4 1391 1392 1323 1322 
4 1392 1393 1324 1323 
4 1393 1394 1325 1324 
4 1394 1395 1326 1325 
4 1395 1396 1327 1326 
4 1396 1397 1328 1327 
4 1397 1398 1329 1328 
4 1398 1399 1330 1329 
4 1399 1400 1331 1330 
4 1400 1401 1332 1331 
4 1401 1402 1333 1332 
4 1403 1404 1337 1336 
4 1404 1405 1338 1337 
4 1405 1406 1339 1338 
4 1406 1407 1340 1339 
4 1407 1408 1341 1340 
4 1408 1409 1342 1341 
4 1409 1410 1343 1342 
4 1410 1411 1344 1343 
4 1411 1412 1345 1344 
4 1412 1413 1346 1345 
4 1413 1414 1347 1346 
4 1414 1415 1348 1347 
4 1415 1416 1349 1348 
4 1416 1417 1350 1349 
4 1417 1418 1351 1350 
4 1418 1419 1352 1351 
4 1419 1420 1353 1352 
4 1420 1421 1354 1353 
4 1421 1422 1355 1354 
4 1422 1423 1356 1355 
4 1423 1424 1357 1356 
4 1424 1425 1358 1357 
4 1425 1426 1359 1358 
4 1426 1427 1360 1359 
4 1428 1429 1363 1362 
4 1429 1430 1364 1363 
4 1430 1431 1365 1364 
4 1431 1432 1366 1365 
4 1432 1433 1367 1366 
4 1433 1434 1368 1367 
4 1434 1435 1369 1368 
4 1435 1436 1370 1369 
4 1436 1437 1371 1370 
4 1437 1438 1372 1371 
4 1438 1439 1373 1372 
4 1439 1440 1374 1373 
4 1440 1441 1375 1374 
4 1441 1442 1376 1375 
4 1442 1443 1377 1376 
4 1443 1444 1378 1377 
4 1444 1445 1379 1378 
4 1445 1446 1380 1379 
4 1447 1448 1386 1385 
4 1448 1449 1387 1386 
4 1449 1450 1388 1387 
4 1450 1451 1389 1388 
4 1451 1452 1390 1389 
4 1452 1453 1391 1390 
4 1453 1454 1392 1391 
4 1454 1455 1393 1392 
4 1455 1456 1394 1393 
4 1456 1457 1395 1394 
4 1457 1458 1396 1395 
4 1458 1459 1397 1396 
4 1459 1460 1398 1397 
4 1460 1461 1399 1398 
4 1461 1462 1400 1399 
4 1462 1463 1401 1400 
4 1463 1464 1402 1401 
4 1465 1466 1406 1405 
4 1466 1467 1407 1406 
4 1467 1468 1408 1407 
4 1468 1469 1409 1408 
4 1469 1470 1410 1409 
4 1470 1471 1411 1410 
4 1471 1472 1412 1411 
4 1472 1473 1413 1412 
4 1473 1474 1414 1413 
4 1474 1475 1415 1414 
4 1475 1476 1416 1415 
4 1476 1477 1417 1416 
4 1477 1478 1418 1417 
4 1478 1479 1419 1418 
4 1479 1480 1420 1419 
4 1480 1481 1421 1420 
4 1481 1482 1422 1421 
4 1482 1483 1423 1422 
4 1483 1484 1424 1423 
4 1484 1485 1425 1424 
4 1485 1486 1426 1425 
4 1486 1487 1427 1426 
4 1488 1489 1429 1428 
4 1489 1490 1430 1429 
4 1490 1491 1431 1430 
4 1491 1492 1432 1431 
4 1492 1493 1433 1432 
4 1493 1494 1434 1433 
4 1494 1495 1435 1434 
4 1495 1496 1436 1435 
4 1496 1497 1437 1436 
4 1497 1498 1438 1437 
4 1498 1499 1439 1438 
4 1499 1500 1440 1439 
4 1500 1501 1441 1440 
4 1501 1502 1442 1441 
4 1502 1503 1443 1442 
4 1503 1504 1444 1443 
4 1505 1506 1450 1449 
4 1506 1507 1451 1450 
4 1507 1508 1452 1451 
4 1508 1509 1453 1452 
4 1509 1510 1454 1453 
4 1510 1511 1455 1454 
4 1511 1512 1456 1455 
4 1512 1513 1457 1456 
4 1513 1514 1458 1457 
4 1514 1515 1459 1458 
4 1515 1516 1460 1459 
4 1516 1517 1461 1460 
4 1517 1518 1462 1461 
4 1518 1519 1463 1462 
4 1519 1520 1464 1463 
4 1521 1522 1468 1467 
4 1522 1523 1469 1468 
4 1523 1524 1470 1469 
4 1524 1525 1471 1470 
4 1525 1526 1472 1471 
4 1526 1527 1473 1472 
4 1527 1528 1474 1473 
4 1528 1529 1475 1474 
4 1529 1530 1476 1475 
4 1530 1531 1477 1476 
4 1531 1532 1478 1477 
4 1532 1533 1479 1478 
4 1533 1534 1480 1479 
4 1534 1535 1481 1480 
4 1535 1536 1482 1481 
4 1536 1537 1483 1482 
4 1537 1538 1484 1483 
4 1538 1539 1485 1484 
4 1539 1540 1486 1485 
4 1540 1541 1487 1486 
4 1542 1543 1490 1489 
4 1543 1544 1491 1490 
4 1544 1545 1492 1491 
4 1545 1546 1493 1492 
4 1546 1547 1494 1493 
4 1547 1548 1495 1494 
4 1548 1549 1496 1495 
4 1549 1550 1497 1496 
4 1550 1551 1498 1497 
4 1551 1552 1499 1498 
4 1552 1553 1500 1499 
4 1553 1554 1501 1500 
4 1554 1555 1502 1501 
4 1555 1556 1503 1502 
4 1557 1558 1506 1505 
4 1558 1559 1507 1506 
4 1559 1560 1508 1507 
4 1560 1561 1509 1508 
4 1561 1562 1510 1509 
4 1562 1563 1511 1510 
4 1563 1564 1512 1511 
4 1564 1565 1513 1512 
4 1565 1566 1514 1513 
4 1566 1567 1515 1514 
4 1567 1568 1516 1515 
4 1568 1569 1517 1516 
4 1569 1570 1518 1517 
4 1570 1571 1519 1518 
4 1571 1572 1520 1519 
4 1573 1574 1524 1523 
4 1574 1575 1525 1524 
4 1575 1576 1526 1525 
4 1576 1577 1527 1526 
4 1577 1578 1528 1527 
4 1578 1579 1529 1528 
4 1579 1580 1530 1529 
4 1580 1581 1531 1530 
4 1581 1582 1532 1531 
4 1582 1583 1533 1532 
4 1583 1584 1534 1533 
4 1584 1585 1535 1534 
4 1585 1586 1536 1535 
4 1586 1587 1537 1536 
4 1587 1588 1538 1537 
4 1588 1589 1539 1538 
4 1589 1590 1540 1539 
4 1590 1591 1541 1540 
4 1592 1593 1544 1543 
4 1593 1594 1545 1544 
4 1594 1595 1546 1545 
4 1595 1596 1547 1546 
4 1596 1597 1548 1547 
4 1597 1598 1549 1548 
4 1598 1599 1550 1549 
4 1599 1600 1551 1550 
4 1600 1601 1552 1551 
4 1601 1602 1553 1552 
4 1602 1603 1554 1553 
4 1603 1604 1555 1554 
4 1604 1605 1556 1555 
4 1606 1607 1558 1557 
4 1607 1608 1559 1558 
4 1608 1609 1560 1559 
4 1609 1610 1561 1560 
4 1610 1611 1562 1561 
4 1611 1612 1563 1562 
4 1612 1613 1564 1563 
4 1613 1614 1565 1564 
4 1614 1615 1566 1565 
4 1615 1616 1567 1566 
4 1616 1617 1568 1567 
4 1617 1618 1569 1568 
4 1618 1619 1570 1569 
4 1619 1620 1571 1570 
4 1620 1621 1572 1571 
4 1622 1623 1575 1574 
4 1623 1624 1576 1575 
4 1624 1625 1577 1576 
4 1625 1626 1578 1577 
4 1626 1627 1579 1578 
4 1627 1628 1580 1579 
4 1628 1629 1581 1580 
4 1629 1630 1582 1581 
4 1630 1631 1583 1582 
4 1631 1632 1584 1583 
4 1632 1633 1585 1584 
4 1633 1634 1586 1585 
4 1634 1635 1587 1586 
4 1635 1636 1588 1587 
4 1636 1637 1589 1588 
4 1637 1638 1590 1589 
4 1638 1639 1591 1590 
4 1640 1641 1593 1592 
4 1641 1642 1594 1593 
4 1642 1643 1595 1594 
4 1643 1644 1596 1595 
4 1644 1645 1597 1596 
4 1645 1646 1598 1597 
4 1646 1647 1599 1598 
4 1647 1648 1600 1599 
4 1648 1649 1601 1600 
4 1649 1650 1602 1601 
4 1650 1651 1603 1602 
4 1651 1652 1604 1603 
4 1653 1654 1608 1607 
4 1654 1655 1609 1608 
4 1655 1656 1610 1609 
4 1656 1657 1611 1610 
4 1657 1658 1612 1611 
4 1658 1659 1613 1612 
4 1659 1660 1614 1613 
4 1660 1661 1615 1614 
4 1661 1662 1616 1615 
4 1662 1663 1617 1616 
4 1663 1664 1618 1617 
4 1664 1665 1619 1618 
4 1665 1666 1620 1619 
4 1666 1667 1621 1620 
4 1668 1669 1625 1624 
4 1669 1670 1626 1625 
4 1670 1671 1627 1626 
4 1671 1672 1628 1627 
4 1672 1673 1629 1628 
4 1673 1674 1630 1629 
4 1674 1675 1631 1630 
4 1675 1676 1632 1631 
4 1676 1677 1633 1632 
4 1677 1678 1634 1633 
4 1678 1679 1635 1634 
4 1679 1680 1636 1635 
4 1680 1681 1637 1636 
4 1681 1682 1638 1637 
4 1682 1683 1639 1638 
4 1684 1685 1641 1640 
4 1685 1686 1642 1641 
4 1686 1687 1643 1642 
4 1687 1688 1644 1643 
4 1688 1689 1645 1644 
4 1689 1690 1646 1645 
4 1690 1691 1647 1646 
4 1691 1692 1648 1647 
4 1692 1693 1649 1648 
4 1693 1694 1650 1649 
4 1694 1695 1651 1650 
4 1695 1696 1652 1651 
4 1697 1698 1654 1653 
4 1698 1699 1655 1654 
4 1699 1700 1656 1655 
4 1700 1701 1657 1656 
4 1701 1702 1658 1657 
4 1702 1703 1659 1658 
4 1703 1704 1660 1659 
4 1704 1705 1661 1660 
4 1705 1706 1662 1661 
4 1706 1707 1663 1662 
4 1707 1708 1664 1663 
4 1708 1709 1665 1664 
4 1709 1710 1666 1665 
4 1710 1711 1667 1666 
4 1712 1713 1671 1670 
4 1713 1714 1672 1671 
4 1714 1715 1673 1672 
4 1715 1716 1674 1673 
4 1716 1717 1675 1674 
4 1717 1718 1676 1675 
4 1718 1719 1677 1676 
4 1719 1720 1678 1677 
4 1720 1721 1679 1678 
4 1721 1722 1680 1679 
4 1722 1723 1681 1680 
4 1723 1724 1682 1681 
4 1725 1726 1685 1684 
4 1726 1727 1686 1685 
4 1727 1728 1687 1686 
4 1728 1729 1688 1687 
4 1729 1730 1689 1688 
4 1730 1731 1690 1689 
4 1731 1732 1691 1690 
4 1732 1733 1692 1691 
4 1733 1734 1693 1692 
4 1734 1735 1694 1693 
4 1735 1736 1695 1694 
4 1736 1737 1696 1695 
4 1737 1738 1739 1696 
4 1740 1741 1698 1697 
4 1741 1742 1699 1698 
4 1742 1743 1700 1699 
4 1743 1744 1701 1700 
4 1744 1745 1702 1701 
4 1745 1746 1703 1702 
4 1746 1747 1704 1703 
4 1747 1748 1705 1704 
4 1748 1749 1706 1705 
4 1749 1750 1707 1706 
4 1750 1751 1708 1707 
4 1751 1752 1709 1708 
4 1752 1753 1710 1709 
4 1753 1754 1711 1710 
4 1754 1755 1756 1711 
4 1757 1758 1714 1713 
4 1758 1759 1715 1714 
4 1759 1760 1716 1715 
4 1760 1761 1717 1716 
4 1761 1762 1718 1717 
4 1762 1763 1719 1718 
4 1763 1764 1720 1719 
4 1764 1765 1721 1720 
4 1765 1766 1722 1721 
4 1766 1767 1723 1722 
4 1767 1768 1724 1723 
4 1770 1771 1725 1769 
4 1771 1772 1726 1725 
4 1772 1773 1727 1726 
4 1773 1774 1728 1727 
4 1774 1775 1729 1728 
4 1775 1776 1730 1729 
4 1776 1777 1731 1730 
4 1777 1778 1732 1731 
4 1778 1779 1733 1732 
4 1779 1780 1734 1733 
4 1780 1781 1735 1734 
4 1781 1782 1736 1735 
4 1782 1783 1737 1736 
4 1783 1784 1738 1737 
4 1785 1786 1741 1740 
4 1786 1787 1742 1741 
4 1787 1788 1743 1742 
4 1788 1789 1744 1743 
4 1789 1790 1745 1744 
4 1790 1791 1746 1745 
4 1791 1792 1747 1746 
4 1792 1793 1748 1747 
4 1793 1794 1749 1748 
4 1794 1795 1750 1749 
4 1795 1796 1751 1750 
4 1796 1797 1752 1751 
4 1797 1798 1753 1752 
4 1798 1799 1754 1753 
4 1799 1800 1755 1754 
4 1801 1802 1760 1759 
4 1802 1803 1761 1760 
4 1803 1804 1762 1761 
4 1804 1805 1763 1762 
4 1805 1806 1764 1763 
4 1806 1807 1765 1764 
4 1807 1808 1766 1765 
4 1808 1809 1767 1766 
4 1809 1810 1768 1767 
4 1812 1813 1814 1811 
4 1813 1815 1770 1814 
4 1815 1816 1771 1770 
4 1816 1817 1772 1771 
4 1817 1818 1773 1772 
4 1818 1819 1774 1773 
4 1819 1820 1775 1774 
4 1820 1821 1776 1775 
4 1821 1822 1777 1776 
4 1822 1823 1778 1777 
4 1823 1824 1779 1778 
4 1824 1825 1780 1779 
4 1825 1826 1781 1780 
4 1826 1827 1782 1781 
4 1827 1828 1783 1782 
4 1828 1829 1784 1783 
4 1829 1830 1831 1784 
4 1832 1833 1786 1785 
4 1833 1834 1787 1786 
4 1834 1835 1788 1787 
4 1835 1836 1789 1788 
4 1836 1837 1790 1789 
4 1837 1838 1791 1790 
4 1838 1839 1792 1791 
4 1839 1840 1793 1792 
4 1840 1841 1794 1793 
4 1841 1842 1795 1794 
4 1842 1843 1796 1795 
4 1843 1844 1797 1796 
4 1844 1845 1798 1797 
4 1845 1846 1799 1798 
4 1846 1847 1800 1799 
4 1848 1849 1805 1804 
4 1849 1850 1806 1805 
4 1850 1851 1807 1806 
4 1851 1852 1808 1807 
4 1852 1853 1809 1808 
4 1855 1856 1857 1854 
4 1856 1858 1859 1857 
4 1858 1860 1861 1859 
4 1860 1862 1863 1861 
4 1862 1864 1865 1863 
4 1864 1866 1867 1865 
4 1866 1868 1869 1867 
4 1868 1870 1871 1869 
4 1870 1872 1873 1871 
4 1872 1874 1875 1873 
4 1874 1876 1812 1875 
4 1876 1877 1813 1812 
4 1877 1878 1815 1813 
4 1878 1879 1816 1815 
4 1879 1880 1817 1816 
4 1880 1881 1818 1817 
4 1881 1882 1819 1818 
4 1882 1883 1820 1819 
4 1883 1884 1821 1820 
4 1884 1885 1822 1821 
4 1885 1886 1823 1822 
4 1886 1887 1824 1823 
4 1887 1888 1825 1824 
4 1888 1889 1826 1825 
4 1889 1890 1827 1826 
4 1890 1891 1828 1827 
4 1891 1892 1829 1828 
4 1892 1893 1830 1829 
4 1893 1894 1895 1830 
4 1896 1897 1834 1833 
4 1897 1898 1835 1834 
4 1898 1899 1836 1835 
4 1899 1900 1837 1836 
4 1900 1901 1838 1837 
4 1901 1902 1839 1838 
4 1902 1903 1840 1839 
4 1903 1904 1841 1840 
4 1904 1905 1842 1841 
4 1905 1906 1843 1842 
4 1906 1907 1844 1843 
4 1907 1908 1845 1844 
4 1908 1909 1846 1845 
4 1909 1910 1847 1846 
4 1910 1911 1912 1847 
4 1914 1915 1916 1913 
4 1915 1917 1918 1916 
4 1917 1919 1855 1918 
4 1919 1920 1856 1855 
4 1920 1921 1858 1856 
4 1921 1922 1860 1858 
4 1922 1923 1862 1860 
4 1923 1924 1864 1862 
4 1924 1925 1866 1864 
4 1925 1926 1868 1866 
4 1926 1927 1870 1868 
4 1927 1928 1872 1870 
4 1928 1929 1874 1872 
4 1929 1930 1876 1874 
4 1930 1931 1877 1876 
4 1931 1932 1878 1877 
4 1932 1933 1879 1878 
4 1933 1934 1880 1879 
4 1934 1935 1881 1880 
4 1935 1936 1882 1881 
4 1936 1937 1883 1882 
4 1937 1938 1884 1883 
4 1938 1939 1885 1884 
4 1939 1940 1886 1885 
4 1940 1941 1887 1886 
4 1941 1942 1888 1887 
4 1942 1943 1889 1888 
4 1943 1944 1890 1889 
4 1944 1945 1891 1890 
4 1945 1946 1892 1891 
4 1946 1947 1893 1892 
4 1947 1948 1894 1893 
4 1948 1949 1950 1894 
4 1951 1952 1897 1896 
4 1952 1953 1898 1897 
4 1953 1954 1899 1898 
4 1954 1955 1900 1899 
4 1955 1956 1901 1900 
4 1956 1957 1902 1901 
4 1957 1958 1903 1902 
4 1958 1959 1904 1903 
4 1959 1960 1905 1904 
4 1960 1961 1906 1905 
4 1961 1962 1907 1906 
4 1962 1963 1908 1907 
4 1963 1964 1909 1908 
4 1964 1965 1910 1909 
4 1965 1966 1911 1910 
4 1968 1969 1970 1967 
4 1969 1971 1914 1970 
4 1971 1972 1915 1914 
4 1972 1973 1917 1915 
4 1973 1974 1919 1917 
4 1974 1975 1920 1919 
4 1975 1976 1921 1920 
4 1976 1977 1922 1921 
4 1977 1978 1923 1922 
4 1978 1979 1924 1923 
4 1979 1980 1925 1924 
4 1980 1981 1926 1925 
4 1981 1982 1927 1926 
4 1982 1983 1928 1927 
4 1983 1984 1929 1928 
4 1984 1985 1930 1929 
4 1985 1986 1931 1930 
4 1986 1987 1932 1931 
4 1987 1988 1933 1932 
4 1988 1989 1934 1933 
4 1989 1990 1935 1934 
4 1990 1991 1936 1935 
4 1991 1992 1937 1936 
4 1992 1993 1938 1937 
4 1993 1994 1939 1938 
4 1994 1995 1940 1939 
4 1995 1996 1941 1940 
4 1996 1997 1942 1941 
4 1997 1998 1943 1942 
4 1998 1999 1944 1943 
4 1999 2000 1945 1944 
4 2000 2001 1946 1945 
4 2001 2002 1947 1946 
4 2002 2003 1948 1947 
4 2003 2004 1949 1948 
4 2005 2006 1952 1951 
4 2006 2007 1953 1952 
4 2007 2008 1954 1953 
4 2008 2009 1955 1954 
4 2009 2010 1956 1955 
4 2010 2011 1957 1956 
4 2011 2012 1958 1957 
4 2012 2013 1959 1958 
4 2013 2014 1960 1959 
4 2014 2015 1961 1960 
4 2015 2016 1962 1961 
4 2016 2017 1963 1962 
4 2017 2018 1964 1963 
4 2018 2019 1965 1964 
4 2019 2020 1966 1965 
4 2020 2021 2022 1966 
4 2024 2025 2026 2023 
4 2025 2027 2028 2026 
4 2027 2029 1968 2028 
4 2029 2030 1969 1968 
4 2030 2031 1971 1969 
4 2031 2032 1972 1971 
4 2032 2033 1973 1972 
4 2033 2034 1974 1973 
4 2034 2035 1975 1974 
4 2035 2036 1976 1975 
4 2036 2037 1977 1976 
4 2037 2038 1978 1977 
4 2038 2039 1979 1978 
4 2039 2040 1980 1979 
4 2040 2041 1981 1980 
4 2041 2042 1982 1981 
4 2042 2043 1983 1982 
4 2043 2044 1984 1983 
4 2044 2045 1985 1984 
4 2045 2046 1986 1985 
4 2046 2047 1987 1986 
4 2047 2048 1988 1987 
4 2048 2049 1989 1988 
4 2049 2050 1990 1989 
4 2050 2051 1991 1990 
4 2051 2052 1992 1991 
4 2052 2053 1993 1992 
4 2053 2054 1994 1993 
4 2054 2055 1995 1994 
4 2055 2056 1996 1995 
4 2056 2057 1997 1996 
4 2057 2058 1998 1997 
4 2058 2059 1999 1998 
4 2059 2060 2000 1999 
4 2060 2061 2001 2000 
4 2061 2062 2002 2001 
4 2062 2063 2003 2002 
4 2063 2064 2004 2003 
4 2064 2065 2066 2004 
4 2067 2068 2006 2005 
4 2068 2069 2007 2006 
4 2069 2070 2008 2007 
4 2070 2071 2009 2008 
4 2071 2072 2010 2009 
4 2072 2073 2011 2010 
4 2073 2074 2012 2011 
4 2074 2075 2013 2012 
4 2075 2076 2014 2013 
4 2076 2077 2015 2014 
4 2077 2078 2016 2015 
4 2078 2079 2017 2016 
4 2079 2080 2018 2017 
4 2080 2081 2019 2018 
4 2081 2082 2020 2019 
4 2082 2083 2021 2020 
4 2085 2086 2087 2084 
4 2086 2088 2089 2087 
4 2088 2090 2024 2089 
4 2090 2091 2025 2024 
4 2091 2092 2027 2025 
4 2092 2093 2029 2027 
4 2093 2094 2030 2029 
4 2094 2095 2031 2030 
4 2095 2096 2032 2031 
4 2096 2097 2033 2032 
4 2097 2098 2034 2033 
4 2098 2099 2035 2034 
4 2099 2100 2036 2035 
4 2100 2101 2037 2036 
4 2101 2102 2038 2037 
4 2102 2103 2039 2038 
4 2103 2104 2040 2039 
4 2104 2105 2041 2040 
4 2105 2106 2042 2041 
4 2106 2107 2043 2042 
4 2107 2108 2044 2043 
4 2108 2109 2045 2044 
4 2109 2110 2046 2045 
4 2110 2111 2047 2046 
4 2111 2112 2048 2047 
4 2112 2113 2049 2048 
4 2113 2114 2050 2049 
4 2114 2115 2051 2050 
4 2115 2116 2052 2051 
4 2116 2117 2053 2052 
4 2117 2118 2054 2053 
4 2118 2119 2055 2054 
4 2119 2120 2056 2055 
4 2120 2121 2057 2056 
4 2121 2122 2058 2057 
4 2122 2123 2059 2058 
4 2123 2124 2060 2059 
4 2124 2125 2061 2060 
4 2125 2126 2062 2061 
4 2126 2127 2063 2062 
4 2127 2128 2064 2063 
4 2128 2129 2065 2064 
4 2130 2131 2069 2068 
4 2131 2132 2070 2069 
4 2132 2133 2071 2070 
4 2133 2134 2072 2071 
4 2134 2135 2073 2072 
4 2135 2136 2074 2073 
4 2136 2137 2075 2074 
4 2137 2138 2076 2075 
4 2138 2139 2077 2076 
4 2139 2140 2078 2077 
4 2140 2141 2079 2078 
4 2141 2142 2080 2079 
4 2142 2143 2081 2080 
4 2143 2144 2082 2081 
4 2144 2145 2083 2082 
4 2147 2148 2149 2146 
4 2148 2150 2151 2149 
4 2150 2152 2153 2151 
4 2152 2154 2155 2153 
4 2154 2156 2157 2155 
4 2156 2158 2085 2157 
4 2158 2159 2086 2085 
4 2159 2160 2088 2086 
4 2160 2161 2090 2088 
4 2161 2162 2091 2090 
4 2162 2163 2092 2091 
4 2163 2164 2093 2092 
4 2164 2165 2094 2093 
4 2165 2166 2095 2094 
4 2166 2167 2096 2095 
4 2167 2168 2097 2096 
4 2168 2169 2098 2097 
4 2169 2170 2099 2098 
4 2170 2171 2100 2099 
4 2171 2172 2101 2100 
4 2172 2173 2102 2101 
4 2173 2174 2103 2102 
4 2174 2175 2104 2103 
4 2175 2176 2105 2104 
4 2176 2177 2106 2105 
4 2177 2178 2107 2106 
4 2178 2179 2108 2107 
4 2179 2180 2109 2108 
4 2180 2181 2110 2109 
4 2181 2182 2111 2110 
4 2182 2183 2112 2111 
4 2183 2184 2113 2112 
4 2184 2185 2114 2113 
4 2185 2186 2115 2114 
4 2186 2187 2116 2115 
4 2187 2188 2117 2116 
4 2188 2189 2118 2117 
4 2189 2190 2119 2118 
4 2190 2191 2120 2119 
4 2191 2192 2121 2120 
4 2192 2193 2122 2121 
4 2193 2194 2123 2122 
4 2194 2195 2124 2123 
4 2195 2196 2125 2124 
4 2196 2197 2126 2125 
4 2197 2198 2127 2126 
4 2198 2199 2128 2127 
4 2199 2200 2129 2128 
4 2200 2201 2202 2129 
4 2203 2204 2131 2130 
4 2204 2205 2132 2131 
4 2205 2206 2133 2132 
4 2206 2207 2134 2133 
4 2207 2208 2135 2134 
4 2208 2209 2136 2135 
4 2209 2210 2137 2136 
4 2210 2211 2138 2137 
4 2211 2212 2139 2138 
4 2212 2213 2140 2139 
4 2213 2214 2141 2140 
4 2214 2215 2142 2141 
4 2215 2216 2143 2142 
4 2216 2217 2144 2143 
4 2217 2218 2145 2144 
4 2218 2219 2220 2145 
4 2222 2223 2224 2221 
4 2223 2225 2226 2224 
4 2225 2227 2228 2226 
4 2227 2229 2147 2228 
4 2229 2230 2148 2147 
4 2230 2231 2150 2148 
4 2231 2232 2152 2150 
4 2232 2233 2154 2152 
4 2233 2234 2156 2154 
4 2234 2235 2158 2156 
4 2235 2236 2159 2158 
4 2236 2237 2160 2159 
4 2237 2238 2161 2160 
4 2238 2239 2162 2161 
4 2239 2240 2163 2162 
4 2240 2241 2164 2163 
4 2241 2242 2165 2164 
4 2242 2243 2166 2165 
4 2243 2244 2167 2166 
4 2244 2245 2168 2167 
4 2245 2246 2169 2168 
4 2246 2247 2170 2169 
4 2247 2248 2171 2170 
4 2248 2249 2172 2171 
4 2249 2250 2173 2172 
4 2250 2251 2174 2173 
4 2251 2252 2175 2174 
4 2252 2253 2176 2175 
4 2253 2254 2177 2176 
4 2254 2255 2178 2177 
4 2255 2256 2179 2178 
4 2256 2257 2180 2179 
4 2257 2258 2181 2180 
4 2258 2259 2182 2181 
4 2259 2260 2183 2182 
4 2260 2261 2184 2183 
4 2261 2262 2185 2184 
4 2262 2263 2186 2185 
4 2263 2264 2187 2186 
4 2264 2265 2188 2187 
4 2265 2266 2189 2188 
4 2266 2267 2190 2189 
4 2267 2268 2191 2190 
4 2268 2269 2192 2191 
4 2269 2270 2193 2192 
4 2270 2271 2194 2193 
4 2271 2272 2195 2194 
4 2272 2273 2196 2195 
4 2273 2274 2197 2196 
4 2274 2275 2198 2197 
4 2275 2276 2199 2198 
4 2276 2277 2200 2199 
4 2277 2278 2201 2200 
4 2279 2280 2205 2204 
4 2280 2281 2206 2205 
4 2281 2282 2207 2206 
4 2282 2283 2208 2207 
4 2283 2284 2209 2208 
4 2284 2285 2210 2209 
4 2285 2286 2211 2210 
4 2286 2287 2212 2211 
4 2287 2288 2213 2212 
4 2288 2289 2214 2213 
4 2289 2290 2215 2214 
4 2290 2291 2216 2215 
4 2291 2292 2217 2216 
4 2292 2293 2218 2217 
4 2293 2294 2219 2218 
4 2294 2295 2296 2219 
4 2298 2299 2300 2297 
4 2299 2301 2302 2300 
4 2301 2303 2222 2302 
4 2303 2304 2223 2222 
4 2304 2305 2225 2223 
4 2305 2306 2227 2225 
4 2306 2307 2229 2227 
4 2307 2308 2230 2229 
4 2308 2309 2231 2230 
4 2309 2310 2232 2231 
4 2310 2311 2233 2232 
4 2311 2312 2234 2233 
4 2312 2313 2235 2234 
4 2313 2314 2236 2235 
4 2314 2315 2237 2236 
4 2315 2316 2238 2237 
4 2316 2317 2239 2238 
4 2317 2318 2240 2239 
4 2318 2319 2241 2240 
4 2319 2320 2242 2241 
4 2320 2321 2243 2242 
4 2321 2322 2244 2243 
4 2322 2323 2245 2244 
4 2323 2324 2246 2245 
4 2324 2325 2247 2246 
4 2325 2326 2248 2247 
4 2326 2327 2249 2248 
4 2327 2328 2250 2249 
4 2328 2329 2251 2250 
4 2329 2330 2252 2251 
4 2330 2331 2253 2252 
4 2331 2332 2254 2253 
4 2332 2333 2255 2254 
4 2333 2334 2256 2255 
4 2334 2335 2257 2256 
4 2335 2336 2258 2257 
4 2336 2337 2259 2258 
4 2337 2338 2260 2259 
4 2338 2339 2261 2260 
4 2339 2340 2262 2261 
4 2340 2341 2263 2262 
4 2341 2342 2264 2263 
4 2342 2343 2265 2264 
4 2343 2344 2266 2265 
4 2344 2345 2267 2266 
4 2345 2346 2268 2267 
4 2346 2347 2269 2268 
4 2347 2348 2270 2269 
4 2348 2349 2271 2270 
4 2349 2350 2272 2271 
4 2350 2351 2273 2272 
4 2351 2352 2274 2273 
4 2352 2353 2275 2274 
4 2353 2354 2276 2275 
4 2354 2355 2277 2276 
4 2355 2356 2278 2277 
4 2357 2358 2280 2279 
4 2358 2359 2281 2280 
4 2359 2360 2282 2281 
4 2360 2361 2283 2282 
4 2361 2362 2284 2283 
4 2362 2363 2285 2284 
4 2363 2364 2286 2285 
4 2364 2365 2287 2286 
4 2365 2366 2288 2287 
4 2366 2367 2289 2288 
4 2367 2368 2290 2289 
4 2368 2369 2291 2290 
4 2369 2370 2292 2291 
4 2370 2371 2293 2292 
4 2371 2372 2294 2293 
4 2372 2373 2295 2294 
4 2373 2374 2375 2295 
4 2374 2376 2377 2375 
4 2376 2378 2379 2377 
4 2378 2380 2381 2379 
4 2380 2382 2383 2381 
4 2382 2384 2385 2383 
4 2384 2386 2387 2385 
4 2386 2388 2389 2387 
4 2388 2390 2298 2389 
4 2390 2391 2299 2298 
4 2391 2392 2301 2299 
4 2392 2393 2303 2301 
4 2393 2394 2304 2303 
4 2394 2395 2305 2304 
4 2395 2396 2306 2305 
4 2396 2397 2307 2306 
4 2397 2398 2308 2307 
4 2398 2399 2309 2308 
4 2399 2400 2310 2309 
4 2400 2401 2311 2310 
4 2401 2402 2312 2311 
4 2402 2403 2313 2312 
4 2403 2404 2314 2313 
4 2404 2405 2315 2314 
4 2405 2406 2316 2315 
4 2406 2407 2317 2316 
4 2407 2408 2318 2317 
4 2408 2409 2319 2318 
4 2409 2410 2320 2319 
4 2410 2411 2321 2320 
4 2411 2412 2322 2321 
4 2412 2413 2323 2322 
4 2413 2414 2324 2323 
4 2414 2415 2325 2324 
4 2415 2416 2326 2325 
4 2416 2417 2327 2326 
4 2417 2418 2328 2327 
4 2418 2419 2329 2328 
4 2419 2420 2330 2329 
4 2420 2421 2331 2330 
4 2421 2422 2332 2331 
4 2422 2423 2333 2332 
4 2423 2424 2334 2333 
4 2424 2425 2335 2334 
4 2425 2426 2336 2335 
4 2426 2427 2337 2336 
4 2427 2428 2338 2337 
4 2428 2429 2339 2338 
4 2429 2430 2340 2339 
4 2430 2431 2341 2340 
4 2431 2432 2342 2341 
4 2432 2433 2343 2342 
4 2433 2434 2344 2343 
4 2434 2435 2345 2344 
4 2435 2436 2346 2345 
4 2436 2437 2347 2346 
4 2437 2438 2348 2347 
4 2438 2439 2349 2348 
4 2439 2440 2350 2349 
4 2440 2441 2351 2350 
4 2441 2442 2352 2351 
4 2442 2443 2353 2352 
4 2443 2444 2354 2353 
4 2444 2445 2355 2354 
4 2445 2446 2356 2355 
4 2447 2448 2359 2358 
4 2448 2449 2360 2359 
4 2449 2450 2361 2360 
4 2450 2451 2362 2361 
4 2451 2452 2363 2362 
4 2452 2453 2364 2363 
4 2453 2454 2365 2364 
4 2454 2455 2366 2365 
4 2455 2456 2367 2366 
4 2456 2457 2368 2367 
4 2457 2458 2369 2368 
4 2458 2459 2370 2369 
4 2459 2460 2371 2370 
4 2460 2461 2372 2371 
4 2461 2462 2373 2372 
4 2462 2463 2374 2373 
4 2463 2464 2376 2374 
4 2464 2465 2378 2376 
4 2465 2466 2380 2378 
4 2466 2467 2382 2380 
4 2467 2468 2384 2382 
4 2468 2469 2386 2384 
4 2469 2470 2388 2386 
4 2470 2471 2390 2388 
4 2471 2472 2391 2390 
4 2472 2473 2392 2391 
4 2473 2474 2393 2392 
4 2474 2475 2394 2393 
4 2475 2476 2395 2394 
4 2476 2477 2396 2395 
4 2477 2478 2397 2396 
4 2478 2479 2398 2397 
4 2479 2480 2399 2398 
4 2480 2481 2400 2399 
4 2481 2482 2401 2400 
4 2482 2483 2402 2401 
4 2483 2484 2403 2402 
4 2484 2485 2404 2403 
4 2485 2486 2405 2404 
4 2486 2487 2406 2405 
4 2487 2488 2407 2406 
4 2488 2489 2408 2407 
4 2489 2490 2409 2408 
4 2490 2491 2410 2409 
4 2491 2492 2411 2410 
4 2492 2493 2412 2411 
4 2493 2494 2413 2412 
4 2494 2495 2414 2413 
4 2495 2496 2415 2414 
4 2496 2497 2416 2415 
4 2497 2498 2417 2416 
4 2498 2499 2418 2417 
4 2499 2500 2419 2418 
4 2500 2501 2420 2419 
4 2501 2502 2421 2420 
4 2502 2503 2422 2421 
4 2503 2504 2423 2422 
4 2504 2505 2424 2423 
4 2505 2506 2425 2424 
4 2506 2507 2426 2425 
4 2507 2508 2427 2426 
4 2508 2509 2428 2427 
4 2509 2510 2429 2428 
4 2510 2511 2430 2429 
4 2511 2512 2431 2430 
4 2512 2513 2432 2431 
4 2513 2514 2433 2432 
4 2514 2515 2434 2433 
4 2515 2516 2435 2434 
4 2516 2517 2436 2435 
4 2517 2518 2437 2436 
4 2518 2519 2438 2437 
4 2519 2520 2439 2438 
4 2520 2521 2440 2439 
4 2521 2522 2441 2440 
4 2522 2523 2442 2441 
4 2523 2524 2443 2442 
4 2524 2525 2444 2443 
4 2525 2526 2445 2444 
4 2526 2527 2446 2445 
4 2527 2528 2529 2446 
4 2530 2531 2448 2447 
4 2531 2532 2449 2448 
4 2532 2533 2450 2449 
4 2533 2534 2451 2450 
4 2534 2535 2452 2451 
4 2535 2536 2453 2452 
4 2536 2537 2454 2453 
4 2537 2538 2455 2454 
4 2538 2539 2456 2455 
4 2539 2540 2457 2456 
4 2540 2541 2458 2457 
4 2541 2542 2459 2458 
4 2542 2543 2460 2459 
4 2543 2544 2461 2460 
4 2544 2545 2462 2461 
4 2545 2546 2463 2462 
4 2546 2547 2464 2463 
4 2547 2548 2465 2464 
4 2548 2549 2466 2465 
4 2549 2550 2467 2466 
4 2550 2551 2468 2467 
4 2551 2552 2469 2468 
4 2552 2553 2470 2469 
4 2553 2554 2471 2470 
4 2554 2555 2472 2471 
4 2555 2556 2473 2472 
4 2556 2557 2474 2473 
4 2557 2558 2475 2474 
4 2558 2559 2476 2475 
4 2559 2560 2477 2476 
4 2560 2561 2478 2477 
4 2561 2562 2479 2478 
4 2562 2563 2480 2479 
4 2563 2564 2481 2480 
4 2564 2565 2482 2481 
4 2565 2566 2483 2482 
4 2566 2567 2484 2483 
4 2567 2568 2485 2484 
4 2568 2569 2486 2485 
4 2569 2570 2487 2486 
4 2570 2571 2488 2487 
4 2571 2572 2489 2488 
4 2572 2573 2490 2489 
4 2573 2574 2491 2490 
4 2574 2575 2492 2491 
4 2575 2576 2493 2492 
4 2576 2577 2494 2493 
4 2577 2578 2495 2494 
4 2578 2579 2496 2495 
4 2579 2580 2497 2496 
4 2580 2581 2498 2497 
4 2581 2582 2499 2498 
4 2582 2583 2500 2499 
4 2583 2584 2501 2500 
4 2584 2585 2502 2501 
4 2585 2586 2503 2502 
4 2586 2587 2504 2503 
4 2587 2588 2505 2504 
4 2588 2589 2506 2505 
4 2589 2590 2507 2506 
4 2590 2591 2508 2507 
4 2591 2592 2509 2508 
4 2592 2593 2510 2509 
4 2593 2594 2511 2510 
4 2594 2595 2512 2511 
4 2595 2596 2513 2512 
4 2596 2597 2514 2513 
4 2597 2598 2515 2514 
4 2598 2599 2516 2515 
4 2599 2600 2517 2516 
4 2600 2601 2518 2517 
4 2601 2602 2519 2518 
4 2602 2603 2520 2519 
4 2603 2604 2521 2520 
4 2604 2605 2522 2521 
4 2605 2606 2523 2522 
4 2606 2607 2524 2523 
4 2607 2608 2525 2524 
4 2608 2609 2526 2525 
4 2609 2610 2527 2526 
4 2610 2611 2528 2527 
4 2612 2613 2532 2531 
4 2613 2614 2533 2532 
4 2614 2615 2534 2533 
4 2615 2616 2535 2534 
4 2616 2617 2536 2535 
4 2617 2618 2537 2536 
4 2618 2619 2538 2537 
4 2619 2620 2539 2538 
4 2620 2621 2540 2539 
4 2621 2622 2541 2540 
4 2622 2623 2542 2541 
4 2623 2624 2543 2542 
4 2624 2625 2544 2543 
4 2625 2626 2545 2544 
4 2626 2627 2546 2545 
4 2627 2628 2547 2546 
4 2628 2629 2548 2547 
4 2629 2630 2549 2548 
4 2630 2631 2550 2549 
4 2631 2632 2551 2550 
4 2632 2633 2552 2551 
4 2633 2634 2553 2552 
4 2634 2635 2554 2553 
4 2635 2636 2555 2554 
4 2636 2637 2556 2555 
4 2637 2638 2557 2556 
4 2638 2639 2558 2557 
4 2639 2640 2559 2558 
4 2640 2641 2560 2559 
4 2641 2642 2561 2560 
4 2642 2643 2562 2561 
4 2643 2644 2563 2562 
4 2644 2645 2564 2563 
4 2645 2646 2565 2564 
4 2646 2647 2566 2565 
4 2647 2648 2567 2566 
4 2648 2649 2568 2567 
4 2649 2650 2569 2568 
4 2650 2651 2570 2569 
4 2651 2652 2571 2570 
4 2652 2653 2572 2571 
4 2653 2654 2573 2572 
4 2654 2655 2574 2573 
4 2655 2656 2575 2574 
4 2656 2657 2576 2575 
4 2657 2658 2577 2576 
4 2658 2659 2578 2577 
4 2659 2660 2579 2578 
4 2660 2661 2580 2579 
4 2661 2662 2581 2580 
4 2662 2663 2582 2581 
4 2663 2664 2583 2582 
4 2664 2665 2584 2583 
4 2665 2666 2585 2584 
4 2666 2667 2586 2585 
4 2667 2668 2587 2586 
4 2668 2669 2588 2587 
4 2669 2670 2589 2588 
4 2670 2671 2590 2589 
4 2671 2672 2591 2590 
4 2672 2673 2592 2591 
4 2673 2674 2593 2592 
4 2674 2675 2594 2593 
4 2675 2676 2595 2594 
4 2676 2677 2596 2595 
4 2677 2678 2597 2596 
4 2678 2679 2598 2597 
4 2679 2680 2599 2598 
4 2680 2681 2600 2599 
4 2681 2682 2601 2600 
4 2682 2683 2602 2601 
4 2683 2684 2603 2602 
4 2684 2685 2604 2603 
4 2685 2686 2605 2604 
4 2686 2687 2606 2605 
4 2687 2688 2607 2606 
4 2688 2689 2608 2607 
4 2689 2690 2609 2608 
4 2690 2691 2610 2609 
4 2692 2693 2613 2612 
4 2693 2694 2614 2613 
4 2694 2695 2615 2614 
4 2695 2696 2616 2615 
4 2696 2697 2617 2616 
4 2697 2698 2618 2617 
4 2698 2699 2619 2618 
4 2699 2700 2620 2619 
4 2700 2701 2621 2620 
4 2701 2702 2622 2621 
4 2702 2703 2623 2622 
4 2703 2704 2624 2623 
4 2704 2705 2625 2624 
4 2705 2706 2626 2625 
4 2706 2707 2627 2626 
4 2707 2708 2628 2627 
4 2708 2709 2629 2628 
4 2709 2710 2630 2629 
4 2710 2711 2631 2630 
4 2711 2712 2632 2631 
4 2712 2713 2633 2632 
4 2713 2714 2634 2633 
4 2714 2715 2635 2634 
4 2715 2716 2636 2635 
4 2716 2717 2637 2636 
4 2717 2718 2638 2637 
4 2718 2719 2639 2638 
4 2719 2720 2640 2639 
4 2720 2721 2641 2640 
4 2721 2722 2642 2641 
4 2722 2723 2643 2642 
4 2723 2724 2644 2643 
4 2724 2725 2645 2644 
4 2725 2726 2646 2645 
4 2726 2727 2647 2646 
4 2727 2728 2648 2647 
4 2728 2729 2649 2648 
4 2729 2730 2650 2649 
4 2730 2731 2651 2650 
4 2731 2732 2652 2651 
4 2732 2733 2653 2652 
4 2733 2734 2654 2653 
4 2734 2735 2655 2654 
4 2735 2736 2656 2655 
4 2736 2737 2657 2656 
4 2737 2738 2658 2657 
4 2738 2739 2659 2658 
4 2739 2740 2660 2659 
4 2740 2741 2661 2660 
4 2741 2742 2662 2661 
4 2742 2743 2663 2662 
4 2743 2744 2664 2663 
4 2744 2745 2665 2664 
4 2745 2746 2666 2665 
4 2746 2747 2667 2666 
4 2747 2748 2668 2667 
4 2748 2749 2669 2668 
4 2749 2750 2670 2669 
4 2750 2751 2671 2670 
4 2751 2752 2672 2671 
4 2752 2753 2673 2672 
4 2753 2754 2674 2673 
4 2754 2755 2675 2674 
4 2755 2756 2676 2675 
4 2756 2757 2677 2676 
4 2757 2758 2678 2677 
4 2758 2759 2679 2678 
4 2759 2760 2680 2679 
4 2760 2761 2681 2680 
4 2761 2762 2682 2681 
4 2762 2763 2683 2682 
4 2763 2764 2684 2683 
4 2764 2765 2685 2684 
4 2765 2766 2686 2685 
4 2766 2767 2687 2686 
4 2767 2768 2688 2687 
4 2768 2769 2689 2688 
4 2769 2770 2690 2689 
4 2770 2771 2691 2690 
4 2772 2773 2694 2693 
4 2773 2774 2695 2694 
4 2774 2775 2696 2695 
4 2775 2776 2697 2696 
4 2776 2777 2698 2697 
4 2777 2778 2699 2698 
4 2778 2779 2700 2699 
4 2779 2780 2701 2700 
4 2780 2781 2702 2701 
4 2781 2782 2703 2702 
4 2782 2783 2704 2703 
4 2783 2784 2705 2704 
4 2784 2785 2706 2705 
4 2785 2786 2707 2706 
4 2786 2787 2708 2707 
4 2787 2788 2709 2708 
4 2788 2789 2710 2709 
4 2789 2790 2711 2710 
4 2790 2791 2712 2711 
4 2791 2792 2713 2712 
4 2792 2793 2714 2713 
4 2793 2794 2715 2714 
4 2794 2795 2716 2715 
4 2795 2796 2717 2716 
4 2796 2797 2718 2717 
4 2797 2798 2719 2718 
4 2798 2799 2720 2719 
4 2799 2800 2721 2720 
4 2800 2801 2722 2721 
4 2801 2802 2723 2722 
4 2802 2803 2724 2723 
4 2803 2804 2725 2724 
4 2804 2805 2726 2725 
4 2805 2806 2727 2726 
4 2806 2807 2728 2727 
4 2807 2808 2729 2728 
4 2808 2809 2730 2729 
4 2809 2810 2731 2730 
4 2810 2811 2732 2731 
4 2811 2812 2733 2732 
4 2812 2813 2734 2733 
4 2813 2814 2735 2734 
4 2814 2815 2736 2735 
4 2815 2816 2737 2736 
4 2816 2817 2738 2737 
4 2817 2818 2739 2738 
4 2818 2819 2740 2739 
4 2819 2820 2741 2740 
4 2820 2821 2742 2741 
4 2821 2822 2743 2742 
4 2822 2823 2744 2743 
4 2823 2824 2745 2744 
4 2824 2825 2746 2745 
4 2825 2826 2747 2746 
4 2826 2827 2748 2747 
4 2827 2828 2749 2748 
4 2828 2829 2750 2749 
4 2829 2830 2751 2750 
4 2830 2831 2752 2751 
4 2831 2832 2753 2752 
4 2832 2833 2754 2753 
4 2833 2834 2755 2754 
4 2834 2835 2756 2755 
4 2835 2836 2757 2756 
4 2836 2837 2758 2757 
4 2837 2838 2759 2758 
4 2838 2839 2760 2759 
4 2839 2840 2761 2760 
4 2840 2841 2762 2761 
4 2841 2842 2763 2762 
4 2842 2843 2764 2763 
4 2843 2844 2765 2764 
4 2844 2845 2766 2765 
4 2845 2846 2767 2766 
4 2846 2847 2768 2767 
4 2847 2848 2769 2768 
4 2848 2849 2770 2769 
4 2850 2851 2773 2772 
4 2851 2852 2774 2773 
4 2852 2853 2775 2774 
4 2853 2854 2776 2775 
4 2854 2855 2777 2776 
4 2855 2856 2778 2777 
4 2856 2857 2779 2778 
4 2857 2858 2780 2779 
4 2858 2859 2781 2780 
4 2859 2860 2782 2781 
4 2860 2861 2783 2782 
4 2861 2862 2784 2783 
4 2862 2863 2785 2784 
4 2863 2864 2786 2785 
4 2864 2865 2787 2786 
4 2865 2866 2788 2787 
4 2866 2867 2789 2788 
4 2867 2868 2790 2789 
4 2868 2869 2791 2790 
4 2869 2870 2792 2791 
4 2870 2871 2793 2792 
4 2871 2872 2794 2793 
4 2872 2873 2795 2794 
4 2873 2874 2796 2795 
4 2874 2875 2797 2796 
4 2875 2876 2798 2797 
4 2876 2877 2799 2798 
4 2877 2878 2800 2799 
4 2878 2879 2801 2800 
4 2879 2880 2802 2801 
4 2880 2881 2803 2802 
4 2881 2882 2804 2803 
4 2882 2883 2805 2804 
4 2883 2884 2806 2805 
4 2884 2885 2807 2806 
4 2885 2886 2808 2807 
4 2886 2887 2809 2808 
4 2887 2888 2810 2809 
4 2888 2889 2811 2810 
4 2889 2890 2812 2811 
4 2890 2891 2813 2812 
4 2891 2892 2814 2813 
4 2892 2893 2815 2814 
4 2893 2894 2816 2815 
4 2894 2895 2817 2816 
4 2895 2896 2818 2817 
4 2896 2897 2819 2818 
4 2897 2898 2820 2819 
4 2898 2899 2821 2820 
4 2899 2900 2822 2821 
4 2900 2901 2823 2822 
4 2901 2902 2824 2823 
4 2902 2903 2825 2824 
4 2903 2904 2826 2825 
4 2904 2905 2827 2826 
4 2905 2906 2828 2827 
4 2906 2907 2829 2828 
4 2907 2908 2830 2829 
4 2908 2909 2831 2830 
4 2909 2910 2832 2831 
4 2910 2911 2833 2832 
4 2911 2912 2834 2833 
4 2912 2913 2835 2834 
4 2913 2914 2836 2835 
4 2914 2915 2837 2836 
4 2915 2916 2838 2837 
4 2916 2917 2839 2838 
4 2917 2918 2840 2839 
4 2918 2919 2841 2840 
4 2919 2920 2842 2841 
4 2920 2921 2843 2842 
4 2921 2922 2844 2843 
4 2922 2923 2845 2844 
4 2923 2924 2846 2845 
4 2924 2925 2847 2846 
4 2925 2926 2848 2847 
4 2927 2928 2851 2850 
4 2928 2929 2852 2851 
4 2929 2930 2853 2852 
4 2930 2931 2854 2853 
4 2931 2932 2855 2854 
4 2932 2933 2856 2855 
4 2933 2934 2857 2856 
4 2934 2935 2858 2857 
4 2935 2936 2859 2858 
4 2936 2937 2860 2859 
4 2937 2938 2861 2860 
4 2938 2939 2862 2861 
4 2939 2940 2863 2862 
4 2940 2941 2864 2863 
4 2941 2942 2865 2864 
4 2942 2943 2866 2865 
4 2943 2944 2867 2866 
4 2944 2945 2868 2867 
4 2945 2946 2869 2868 
4 2946 2947 2870 2869 
4 2947 2948 2871 2870 
4 2948 2949 2872 2871 
4 2949 2950 2873 2872 
4 2950 2951 2874 2873 
4 2951 2952 2875 2874 
4 2952 2953 2876 2875 
4 2953 2954 2877 2876 
4 2954 2955 2878 2877 
4 2955 2956 2879 2878 
4 2956 2957 2880 2879 
4 2957 2958 2881 2880 
4 2958 2959 2882 2881 
4 2959 2960 2883 2882 
4 2960 2961 2884 2883 
4 2961 2962 2885 2884 
4 2962 2963 2886 2885 
4 2963 2964 2887 2886 
4 2964 2965 2888 2887 
4 2965 2966 2889 2888 
4 2966 2967 2890 2889 
4 2967 2968 2891 2890 
4 2968 2969 2892 2891 
4 2969 2970 2893 2892 
4 2970 2971 2894 2893 
4 2971 2972 2895 2894 
4 2972 2973 2896 2895 
4 2973 2974 2897 2896 
4 2974 2975 2898 2897 
4 2975 2976 2899 2898 
4 2976 2977 2900 2899 
4 2977 2978 2901 2900 
4 2978 2979 2902 2901 
4 2979 2980 2903 2902 
4 2980 2981 2904 2903 
4 2981 2982 2905 2904 
4 2982 2983 2906 2905 
4 2983 2984 2907 2906 
4 2984 2985 2908 2907 
4 2985 2986 2909 2908 
4 2986 2987 2910 2909 
4 2987 2988 2911 2910 
4 2988 2989 2912 2911 
4 2989 2990 2913 2912 
4 2990 2991 2914 2913 
4 2991 2992 2915 2914 
4 2992 2993 2916 2915 
4 2993 2994 2917 2916 
4 2994 2995 2918 2917 
4 2995 2996 2919 2918 
4 2996 2997 2920 2919 
4 2997 2998 2921 2920 
4 2998 2999 2922 2921 
4 2999 3000 2923 2922 
4 3000 3001 2924 2923 
4 3001 3002 2925 2924 
4 3002 3003 2926 2925 
4 3004 3005 2928 2927 
4 3005 3006 2929 2928 
4 3006 3007 2930 2929 
4 3007 3008 2931 2930 
4 3008 3009 2932 2931 
4 3009 3010 2933 2932 
4 3010 3011 2934 2933 
4 3011 3012 2935 2934 
4 3012 3013 2936 2935 
4 3013 3014 2937 2936 
4 3014 3015 2938 2937 
4 3015 3016 2939 2938 
4 3016 3017 2940 2939 
4 3017 3018 2941 2940 
4 3018 3019 2942 2941 
4 3019 3020 2943 2942 
4 3020 3021 2944 2943 
4 3021 3022 2945 2944 
4 3022 3023 2946 2945 
4 3023 3024 2947 2946 
4 3024 3025 2948 2947 
4 3025 3026 2949 2948 
4 3026 3027 2950 2949 
4 3027 3028 2951 2950 
4 3028 3029 2952 2951 
4 3029 3030 2953 2952 
4 3030 3031 2954 2953 
4 3031 3032 2955 2954 
4 3032 3033 2956 2955 
4 3033 3034 2957 2956 
4 3034 3035 2958 2957 
4 3035 3036 2959 2958 
4 3036 3037 2960 2959 
4 3037 3038 2961 2960 
4 3038 3039 2962 2961 
4 3039 3040 2963 2962 
4 3040 3041 2964 2963 
4 3041 3042 2965 2964 
4 3042 3043 2966 2965 
4 3043 3044 2967 2966 
4 3044 3045 2968 2967 
4 3045 3046 2969 2968 
4 3046 3047 2970 2969 
4 3047 3048 2971 2970 
4 3048 3049 2972 2971 
4 3049 3050 2973 2972 
4 3050 3051 2974 2973 
4 3051 3052 2975 2974 
4 3052 3053 2976 2975 
4 3053 3054 2977 2976 
4 3054 3055 2978 2977 
4 3055 3056 2979 2978 
4 3057 3058 2983 2982 
4 3058 3059 2984 2983 
4 3059 3060 2985 2984 
4 3060 3061 2986 2985 
4 3061 3062 2987 2986 
4 3062 3063 2988 2987 
4 3063 3064 2989 2988 
4 3064 3065 2990 2989 
4 3065 3066 2991 2990 
4 3066 3067 2992 2991 
4 3067 3068 2993 2992 
4 3068 3069 2994 2993 
4 3069 3070 2995 2994 
4 3070 3071 2996 2995 
4 3071 3072 2997 2996 
4 3072 3073 2998 2997 
4 3073 3074 2999 2998 
4 3074 3075 3000 2999 
4 3075 3076 3001 3000 
4 3076 3077 3002 3001 
4 3077 3078 3003 3002 
4 3079 3080 3005 3004 
4 3080 3081 3006 3005 
4 3081 3082 3007 3006 
4 3082 3083 3008 3007 
4 3083 3084 3009 3008 
4 3084 3085 3010 3009 
4 3085 3086 3011 3010 
4 3086 3087 3012 3011 
4 3087 3088 3013 3012 
4 3088 3089 3014 3013 
4 3089 3090 3015 3014 
4 3090 3091 3016 3015 
4 3091 3092 3017 3016 
4 3092 3093 3018 3017 
4 3093 3094 3019 3018 
4 3094 3095 3020 3019 
4 3095 3096 3021 3020 
4 3096 3097 3022 3021 
4 3097 3098 3023 3022 
4 3098 3099 3024 3023 
4 3099 3100 3025 3024 
4 3100 3101 3026 3025 
4 3101 3102 3027 3026 
4 3102 3103 3028 3027 
4 3103 3104 3029 3028 
4 3104 3105 3030 3029 
4 3105 3106 3031 3030 
4 3106 3107 3032 3031 
4 3107 3108 3033 3032 
4 3108 3109 3034 3033 
4 3109 3110 3035 3034 
4 3110 3111 3036 3035 
4 3111 3112 3037 3036 
4 3112 3113 3038 3037 
4 3113 3114 3039 3038 
4 3114 3115 3040 3039 
4 3115 3116 3041 3040 
4 3116 3117 3042 3041 
4 3117 3118 3043 3042 
4 3118 3119 3044 3043 
4 3119 3120 3045 3044 
4 3120 3121 3046 3045 
4 3121 3122 3047 3046 
4 3122 3123 3048 3047 
4 3123 3124 3049 3048 
4 3124 3125 3050 3049 
4 3125 3126 3051 3050 
4 3126 3127 3052 3051 
4 3127 3128 3053 3052 
4 3128 3129 3054 3053 
4 3129 3130 3055 3054 
4 3131 3132 3060 3059 
4 3132 3133 3061 3060 
4 3133 3134 3062 3061 
4 3134 3135 3063 3062 
4 3135 3136 3064 3063 
4 3136 3137 3065 3064 
4 3137 3138 3066 3065 
4 3138 3139 3067 3066 
4 3139 3140 3068 3067 
4 3140 3141 3069 3068 
4 3141 3142 3070 3069 
4 3142 3143 3071 3070 
4 3143 3144 3072 3071 
4 3144 3145 3073 3072 
4 3145 3146 3074 3073 
4 3146 3147 3075 3074 
4 3147 3148 3076 3075 
4 3148 3149 3077 3076 
4 3149 3150 3078 3077 
4 3151 3152 3080 3079 
4 3152 3153 3081 3080 
4 3153 3154 3082 3081 
4 3154 3155 3083 3082 
4 3155 3156 3084 3083 
4 3156 3157 3085 3084 
4 3157 3158 3086 3085 
4 3158 3159 3087 3086 
4 3159 3160 3088 3087 
4 3160 3161 3089 3088 
4 3161 3162 3090 3089 
4 3162 3163 3091 3090 
4 3163 3164 3092 3091 
4 3164 3165 3093 3092 
4 3165 3166 3094 3093 
4 3166 3167 3095 3094 
4 3167 3168 3096 3095 
4 3168 3169 3097 3096 
4 3169 3170 3098 3097 
4 3170 3171 3099 3098 
4 3171 3172 3100 3099 
4 3172 3173 3101 3100 
4 3173 3174 3102 3101 
4 3174 3175 3103 3102 
4 3175 3176 3104 3103 
4 3176 3177 3105 3104 
4 3177 3178 3106 3105 
4 3178 3179 3107 3106 
4 3179 3180 3108 3107 
4 3180 3181 3109 3108 
4 3181 3182 3110 3109 
4 3182 3183 3111 3110 
4 3183 3184 3112 3111 
4 3184 3185 3113 3112 
4 3185 3186 3114 3113 
4 3186 3187 3115 3114 
4 3187 3188 3116 3115 
4 3188 3189 3117 3116 
4 3189 3190 3118 3117 
4 3190 3191 3119 3118 
4 3191 3192 3120 3119 
4 3192 3193 3121 3120 
4 3193 3194 3122 3121 
4 3194 3195 3123 3122 
4 3195 3196 3124 3123 
4 3196 3197 3125 3124 
4 3197 3198 3126 3125 
4 3198 3199 3127 3126 
4 3199 3200 3128 3127 
4 3200 3201 3129 3128 
4 3202 3203 3133 3132 
4 3203 3204 3134 3133 
4 3204 3205 3135 3134 
4 3205 3206 3136 3135 
4 3206 3207 3137 3136 
4 3207 3208 3138 3137 
4 3208 3209 3139 3138 
4 3209 3210 3140 3139 
4 3210 3211 3141 3140 
4 3211 3212 3142 3141 
4 3212 3213 3143 3142 
4 3213 3214 3144 3143 
4 3214 3215 3145 3144 
4 3215 3216 3146 3145 
4 3216 3217 3147 3146 
4 3217 3218 3148 3147 
4 3218 3219 3149 3148 
4 3220 3221 3153 3152 
4 3221 3222 3154 3153 
4 3222 3223 3155 3154 
4 3223 3224 3156 3155 
4 3224 3225 3157 3156 
4 3225 3226 3158 3157 
4 3226 3227 3159 3158 
4 3227 3228 3160 3159 
4 3228 3229 3161 3160 
4 3229 3230 3162 3161 
4 3230 3231 3163 3162 
4 3231 3232 3164 3163 
4 3232 3233 3165 3164 
4 3233 3234 3166 3165 
4 3234 3235 3167 3166 
4 3235 3236 3168 3167 
4 3236 3237 3169 3168 
4 3237 3238 3170 3169 
4 3238 3239 3171 3170 
4 3239 3240 3172 3171 
4 3240 3241 3173 3172 
4 3241 3242 3174 3173 
4 3242 3243 3175 3174 
4 3243 3244 3176 3175 
4 3244 3245 3177 3176 
4 3245 3246 3178 3177 
4 3246 3247 3179 3178 
4 3247 3248 3180 3179 
4 3248 3249 3181 3180 
4 3249 3250 3182 3181 
4 3250 3251 3183 3182 
4 3251 3252 3184 3183 
4 3252 3253 3185 3184 
4 3253 3254 3186 3185 
4 3254 3255 3187 3186 
4 3255 3256 3188 3187 
4 3256 3257 3189 3188 
4 3257 3258 3190 3189 
4 3258 3259 3191 3190 
4 3259 3260 3192 3191 
4 3260 3261 3193 3192 
4 3261 3262 3194 3193 
4 3262 3263 3195 3194 
4 3263 3264 3196 3195 
4 3264 3265 3197 3196 
4 3265 3266 3198 3197 
4 3266 3267 3199 3198 
4 3267 3268 3200 3199 
4 3269 3270 3205 3204 
4 3270 3271 3206 3205 
4 3271 3272 3207 3206 
4 3272 3273 3208 3207 
4 3273 3274 3209 3208 
4 3274 3275 3210 3209 
4 3275 3276 3211 3210 
4 3276 3277 3212 3211 
4 3277 3278 3213 3212 
4 3278 3279 3214 3213 
4 3279 3280 3215 3214 
4 3280 3281 3216 3215 
4 3281 3282 3217 3216 
4 3282 3283 3218 3217 
4 3283 3284 3219 3218 
4 3285 3286 3221 3220 
4 3286 3287 3222 3221 
4 3287 3288 3223 3222 
4 3288 3289 3224 3223 
4 3289 3290 3225 3224 
4 3290 3291 3226 3225 
4 3291 3292 3227 3226 
4 3292 3293 3228 3227 
4 3293 3294 3229 3228 
4 3294 3295 3230 3229 
4 3295 3296 3231 3230 
4 3296 3297 3232 3231 
4 3297 3298 3233 3232 
4 3298 3299 3234 3233 
4 3299 3300 3235 3234 
4 3300 3301 3236 3235 
4 3301 3302 3237 3236 
4 3302 3303 3238 3237 
4 3303 3304 3239 3238 
4 3304 3305 3240 3239 
4 3305 3306 3241 3240 
4 3306 3307 3242 3241 
4 3307 3308 3243 3242 
4 3308 3309 3244 3243 
4 3309 3310 3245 3244 
4 3310 3311 3246 3245 
4 3311 3312 3247 3246 
4 3312 3313 3248 3247 
4 3313 3314 3249 3248 
4 3314 3315 3250 3249 
4 3315 3316 3251 3250 
4 3316 3317 3252 3251 
4 3317 3318 3253 3252 
4 3318 3319 3254 3253 
4 3319 3320 3255 3254 
4 3320 3321 3256 3255 
4 3321 3322 3257 3256 
4 3322 3323 3258 3257 
4 3323 3324 3259 3258 
4 3324 3325 3260 3259 
4 3325 3326 3261 3260 
4 3326 3327 3262 3261 
4 3327 3328 3263 3262 
4 3328 3329 3264 3263 
4 3329 3330 3265 3264 
4 3330 3331 3266 3265 
4 3331 3332 3267 3266 
4 3333 3334 3272 3271 
4 3334 3335 3273 3272 
4 3335 3336 3274 3273 
4 3336 3337 3275 3274 
4 3337 3338 3276 3275 
4 3338 3339 3277 3276 
4 3339 3340 3278 3277 
4 3340 3341 3279 3278 
4 3341 3342 3280 3279 
4 3342 3343 3281 3280 
4 3343 3344 3282 3281 
4 3344 3345 3283 3282 
4 3345 3346 3284 3283 
4 3347 3348 3286 3285 
4 3348 3349 3287 3286 
4 3349 3350 3288 3287 
4 3350 3351 3289 3288 
4 3351 3352 3290 3289 
4 3352 3353 3291 3290 
4 3353 3354 3292 3291 
4 3354 3355 3293 3292 
4 3355 3356 3294 3293 
4 3356 3357 3295 3294 
4 3357 3358 3296 3295 
4 3358 3359 3297 3296 
4 3359 3360 3298 3297 
4 3360 3361 3299 3298 
4 3361 3362 3300 3299 
4 3362 3363 3301 3300 
4 3363 3364 3302 3301 
4 3364 3365 3303 3302 
4 3365 3366 3304 3303 
4 3366 3367 3305 3304 
4 3367 3368 3306 3305 
4 3368 3369 3307 3306 
4 3369 3370 3308 3307 
4 3370 3371 3309 3308 
4 3371 3372 3310 3309 
4 3372 3373 3311 3310 
4 3373 3374 3312 3311 
4 3374 3375 3313 3312 
4 3375 3376 3314 3313 
4 3376 3377 3315 3314 
4 3377 3378 3316 3315 
4 3378 3379 3317 3316 
4 3379 3380 3318 3317 
4 3380 3381 3319 3318 
4 3381 3382 3320 3319 
4 3382 3383 3321 3320 
4 3383 3384 3322 3321 
4 3384 3385 3323 3322 
4 3385 3386 3324 3323 
4 3386 3387 3325 3324 
4 3387 3388 3326 3325 
4 3388 3389 3327 3326 
4 3389 3390 3328 3327 
4 3390 3391 3329 3328 
4 3391 3392 3330 3329 
4 3392 3393 3331 3330 
4 3394 3395 3335 3334 
4 3395 3396 3336 3335 
4 3396 3397 3337 3336 
4 3397 3398 3338 3337 
4 3398 3399 3339 3338 
4 3399 3400 3340 3339 
4 3400 3401 3341 3340 
4 3401 3402 3342 3341 
4 3402 3403 3343 3342 
4 3403 3404 3344 3343 
4 3404 3405 3345 3344 
4 3405 3406 3346 3345 
4 3406 3407 3408 3346 
4 3409 3410 3348 3347 
4 3410 3411 3349 3348 
4 3411 3412 3350 3349 
4 3412 3413 3351 3350 
4 3413 3414 3352 3351 
4 3414 3415 3353 3352 
4 3415 3416 3354 3353 
4 3416 3417 3355 3354 
4 3417 3418 3356 3355 
4 3418 3419 3357 3356 
4 3419 3420 3358 3357 
4 3420 3421 3359 3358 
4 3421 3422 3360 3359 
4 3422 3423 3361 3360 
4 3423 3424 3362 3361 
4 3424 3425 3363 3362 
4 3425 3426 3364 3363 
4 3426 3427 3365 3364 
4 3427 3428 3366 3365 
4 3428 3429 3367 3366 
4 3429 3430 3368 3367 
4 3430 3431 3369 3368 
4 3431 3432 3370 3369 
4 3432 3433 3371 3370 
4 3433 3434 3372 3371 
4 3434 3435 3373 3372 
4 3435 3436 3374 3373 
4 3436 3437 3375 3374 
4 3437 3438 3376 3375 
4 3438 3439 3377 3376 
4 3439 3440 3378 3377 
4 3440 3441 3379 3378 
4 3441 3442 3380 3379 
4 3442 3443 3381 3380 
4 3443 3444 3382 3381 
4 3444 3445 3383 3382 
4 3445 3446 3384 3383 
4 3446 3447 3385 3384 
4 3447 3448 3386 3385 
4 3448 3449 3387 3386 
4 3449 3450 3388 3387 
4 3450 3451 3389 3388 
4 3451 3452 3390 3389 
4 3452 3453 3391 3390 
4 3453 3454 3392 3391 
4 3454 3455 3393 3392 
4 3456 3457 3395 3394 
4 3457 3458 3396 3395 
4 3458 3459 3397 3396 
4 3459 3460 3398 3397 
4 3460 3461 3399 3398 
4 3461 3462 3400 3399 
4 3462 3463 3401 3400 
4 3463 3464 3402 3401 
4 3464 3465 3403 3402 
4 3465 3466 3404 3403 
4 3466 3467 3405 3404 
4 3467 3468 3406 3405 
4 3468 3469 3407 3406 
4 3471 3472 3473 3470 
4 3472 3474 3409 3473 
4 3474 3475 3410 3409 
4 3475 3476 3411 3410 
4 3476 3477 3412 3411 
4 3477 3478 3413 3412 
4 3478 3479 3414 3413 
4 3479 3480 3415 3414 
4 3480 3481 3416 3415 
4 3481 3482 3417 3416 
4 3482 3483 3418 3417 
4 3483 3484 3419 3418 
4 3484 3485 3420 3419 
4 3485 3486 3421 3420 
4 3486 3487 3422 3421 
4 3487 3488 3423 3422 
4 3488 3489 3424 3423 
4 3489 3490 3425 3424 
4 3490 3491 3426 3425 
4 3491 3492 3427 3426 
4 3492 3493 3428 3427 
4 3493 3494 3429 3428 
4 3494 3495 3430 3429 
4 3495 3496 3431 3430 
4 3496 3497 3432 3431 
4 3497 3498 3433 3432 
4 3498 3499 3434 3433 
4 3499 3500 3435 3434 
4 3500 3501 3436 3435 
4 3501 3502 3437 3436 
4 3502 3503 3438 3437 
4 3503 3504 3439 3438 
4 3504 3505 3440 3439 
4 3505 3506 3441 3440 
4 3506 3507 3442 3441 
4 3507 3508 3443 3442 
4 3508 3509 3444 3443 
4 3509 3510 3445 3444 
4 3510 3511 3446 3445 
4 3511 3512 3447 3446 
4 3512 3513 3448 3447 
4 3513 3514 3449 3448 
4 3514 3515 3450 3449 
4 3515 3516 3451 3450 
4 3516 3517 3452 3451 
4 3517 3518 3453 3452 
4 3518 3519 3454 3453 
4 3520 3521 3457 3456 
4 3521 3522 3458 3457 
4 3522 3523 3459 3458 
4 3523 3524 3460 3459 
4 3524 3525 3461 3460 
4 3525 3526 3462 3461 
4 3526 3527 3463 3462 
4 3527 3528 3464 3463 
4 3528 3529 3465 3464 
4 3529 3530 3466 3465 
4 3530 3531 3467 3466 
4 3531 3532 3468 3467 
4 3532 3533 3469 3468 
4 3535 3536 3471 3534 
4 3536 3537 3472 3471 
4 3537 3538 3474 3472 
4 3538 3539 3475 3474 
4 3539 3540 3476 3475 
4 3540 3541 3477 3476 
4 3541 3542 3478 3477 
4 3542 3543 3479 3478 
4 3543 3544 3480 3479 
4 3544 3545 3481 3480 
4 3545 3546 3482 3481 
4 3546 3547 3483 3482 
4 3547 3548 3484 3483 
4 3548 3549 3485 3484 
4 3549 3550 3486 3485 
4 3550 3551 3487 3486 
4 3551 3552 3488 3487 
4 3552 3553 3489 3488 
4 3553 3554 3490 3489 
4 3554 3555 3491 3490 
4 3555 3556 3492 3491 
4 3556 3557 3493 3492 
4 3557 3558 3494 3493 
4 3558 3559 3495 3494 
4 3559 3560 3496 3495 
4 3560 3561 3497 3496 
4 3561 3562 3498 3497 
4 3562 3563 3499 3498 
4 3563 3564 3500 3499 
4 3564 3565 3501 3500 
4 3565 3566 3502 3501 
4 3566 3567 3503 3502 
4 3567 3568 3504 3503 
4 3568 3569 3505 3504 
4 3569 3570 3506 3505 
4 3570 3571 3507 3506 
4 3571 3572 3508 3507 
4 3572 3573 3509 3508 
4 3573 3574 3510 3509 
4 3574 3575 3511 3510 
4 3575 3576 3512 3511 
4 3576 3577 3513 3512 
4 3577 3578 3514 3513 
4 3578 3579 3515 3514 
4 3579 3580 3516 3515 
4 3580 3581 3517 3516 
4 3581 3582 3518 3517 
4 3582 3583 3519 3518 
4 3584 3585 3521 3520 
4 3585 3586 3522 3521 
4 3586 3587 3523 3522 
4 3587 3588 3524 3523 
4 3588 3589 3525 3524 
4 3589 3590 3526 3525 
4 3590 3591 3527 3526 
4 3591 3592 3528 3527 
4 3592 3593 3529 3528 
4 3593 3594 3530 3529 
4 3594 3595 3531 3530 
4 3595 3596 3532 3531 
4 3596 3597 3533 3532 
4 3598 3599 3536 3535 
4 3599 3600 3537 3536 
4 3600 3601 3538 3537 
4 3601 3602 3539 3538 
4 3602 3603 3540 3539 
4 3603 3604 3541 3540 
4 3604 3605 3542 3541 
4 3605 3606 3543 3542 
4 3606 3607 3544 3543 
4 3607 3608 3545 3544 
4 3608 3609 3546 3545 
4 3609 3610 3547 3546 
4 3610 3611 3548 3547 
4 3611 3612 3549 3548 
4 3612 3613 3550 3549 
4 3613 3614 3551 3550 
4 3614 3615 3552 3551 
4 3615 3616 3553 3552 
4 3616 3617 3554 3553 
4 3617 3618 3555 3554 
4 3618 3619 3556 3555 
4 3619 3620 3557 3556 
4 3620 3621 3558 3557 
4 3621 3622 3559 3558 
4 3622 3623 3560 3559 
4 3623 3624 3561 3560 
4 3624 3625 3562 3561 
4 3625 3626 3563 3562 
4 3626 3627 3564 3563 
4 3627 3628 3565 3564 
4 3628 3629 3566 3565 
4 3629 3630 3567 3566 
4 3630 3631 3568 3567 
4 3631 3632 3569 3568 
4 3632 3633 3570 3569 
4 3633 3634 3571 3570 
4 3634 3635 3572 3571 
4 3635 3636 3573 3572 
4 3636 3637 3574 3573 
4 3637 3638 3575 3574 
4 3638 3639 3576 3575 
4 3639 3640 3577 3576 
4 3640 3641 3578 3577 
4 3641 3642 3579 3578 
4 3642 3643 3580 3579 
4 3643 3644 3581 3580 
4 3644 3645 3582 3581 
4 3645 3646 3583 3582 
4 3648 3649 3584 3647 
4 3649 3650 3585 3584 
4 3650 3651 3586 3585 
4 3651 3652 3587 3586 
4 3652 3653 3588 3587 
4 3653 3654 3589 3588 
4 3654 3655 3590 3589 
4 3655 3656 3591 3590 
4 3656 3657 3592 3591 
4 3657 3658 3593 3592 
4 3658 3659 3594 3593 
4 3659 3660 3595 3594 
4 3660 3661 3596 3595 
4 3662 3663 3599 3598 
4 3663 3664 3600 3599 
4 3664 3665 3601 3600 
4 3665 3666 3602 3601 
4 3666 3667 3603 3602 
4 3667 3668 3604 3603 
4 3668 3669 3605 3604 
4 3669 3670 3606 3605 
4 3670 3671 3607 3606 
4 3671 3672 3608 3607 
4 3672 3673 3609 3608 
4 3673 3674 3610 3609 
4 3674 3675 3611 3610 
4 3675 3676 3612 3611 
4 3676 3677 3613 3612 
4 3677 3678 3614 3613 
4 3678 3679 3615 3614 
4 3679 3680 3616 3615 
4 3680 3681 3617 3616 
4 3681 3682 3618 3617 
4 3682 3683 3619 3618 
4 3683 3684 3620 3619 
4 3684 3685 3621 3620 
4 3685 3686 3622 3621 
4 3686 3687 3623 3622 
4 3687 3688 3624 3623 
4 3688 3689 3625 3624 
4 3689 3690 3626 3625 
4 3690 3691 3627 3626 
4 3691 3692 3628 3627 
4 3692 3693 3629 3628 
4 3693 3694 3630 3629 
4 3694 3695 3631 3630 
4 3695 3696 3632 3631 
4 3696 3697 3633 3632 
4 3697 3698 3634 3633 
4 3698 3699 3635 3634 
4 3699 3700 3636 3635 
4 3700 3701 3637 3636 
4 3701 3702 3638 3637 
4 3702 3703 3639 3638 
4 3703 3704 3640 3639 
4 3704 3705 3641 3640 
4 3705 3706 3642 3641 
4 3706 3707 3643 3642 
4 3707 3708 3644 3643 
4 3708 3709 3645 3644 
4 3709 3710 3646 3645 
4 3712 3713 3648 3711 
4 3713 3714 3649 3648 
4 3714 3715 3650 3649 
4 3715 3716 3651 3650 
4 3716 3717 3652 3651 
4 3717 3718 3653 3652 
4 3718 3719 3654 3653 
4 3719 3720 3655 3654 
4 3720 3721 3656 3655 
4 3721 3722 3657 3656 
4 3722 3723 3658 3657 
4 3723 3724 3659 3658 
4 3724 3725 3660 3659 
4 3725 3726 3661 3660 
4 3727 3728 3663 3662 
4 3728 3729 3664 3663 
4 3729 3730 3665 3664 
4 3730 3731 3666 3665 
4 3731 3732 3667 3666 
4 3732 3733 3668 3667 
4 3733 3734 3669 3668 
4 3734 3735 3670 3669 
4 3735 3736 3671 3670 
4 3736 3737 3672 3671 
4 3737 3738 3673 3672 
4 3738 3739 3674 3673 
4 3739 3740 3675 3674 
4 3740 3741 3676 3675 
4 3741 3742 3677 3676 
4 3742 3743 3678 3677 
4 3743 3744 3679 3678 
4 3744 3745 3680 3679 
4 3745 3746 3681 3680 
4 3746 3747 3682 3681 
4 3747 3748 3683 3682 
4 3748 3749 3684 3683 
4 3749 3750 3685 3684 
4 3750 3751 3686 3685 
4 3751 3752 3687 3686 
4 3752 3753 3688 3687 
4 3753 3754 3689 3688 
4 3754 3755 3690 3689 
4 3755 3756 3691 3690 
4 3756 3757 3692 3691 
4 3757 3758 3693 3692 
4 3758 3759 3694 3693 
4 3759 3760 3695 3694 
4 3760 3761 3696 3695 
4 3761 3762 3697 3696 
4 3762 3763 3698 3697 
4 3763 3764 3699 3698 
4 3764 3765 3700 3699 
4 3765 3766 3701 3700 
4 3766 3767 3702 3701 
4 3767 3768 3703 3702 
4 3768 3769 3704 3703 
4 3769 3770 3705 3704 
4 3770 3771 3706 3705 
4 3771 3772 3707 3706 
4 3772 3773 3708 3707 
4 3773 3774 3709 3708 
4 3774 3775 3710 3709 
4 3777 3778 3712 3776 
4 3778 3779 3713 3712 
4 3779 3780 3714 3713 
4 3780 3781 3715 3714 
4 3781 3782 3716 3715 
4 3782 3783 3717 3716 
4 3783 3784 3718 3717 
4 3784 3785 3719 3718 
4 3785 3786 3720 3719 
4 3786 3787 3721 3720 
4 3787 3788 3722 3721 
4 3788 3789 3723 3722 
4 3789 3790 3724 3723 
4 3790 3791 3725 3724 
4 3791 3792 3726 3725 
4 3793 3794 3728 3727 
4 3794 3795 3729 3728 
4 3795 3796 3730 3729 
4 3796 3797 3731 3730 
4 3797 3798 3732 3731 
4 3798 3799 3733 3732 
4 3799 3800 3734 3733 
4 3800 3801 3735 3734 
4 3801 3802 3736 3735 
4 3802 3803 3737 3736 
4 3803 3804 3738 3737 
4 3804 3805 3739 3738 
4 3805 3806 3740 3739 
4 3806 3807 3741 3740 
4 3807 3808 3742 3741 
4 3808 3809 3743 3742 
4 3809 3810 3744 3743 
4 3810 3811 3745 3744 
4 3811 3812 3746 3745 
4 3812 3813 3747 3746 
4 3813 3814 3748 3747 
4 3814 3815 3749 3748 
4 3815 3816 3750 3749 
4 3816 3817 3751 3750 
4 3817 3818 3752 3751 
4 3818 3819 3753 3752 
4 3819 3820 3754 3753 
4 3820 3821 3755 3754 
4 3821 3822 3756 3755 
4 3822 3823 3757 3756 
4 3823 3824 3758 3757 
4 3824 3825 3759 3758 
4 3825 3826 3760 3759 
4 3826 3827 3761 3760 
4 3827 3828 3762 3761 
4 3828 3829 3763 3762 
4 3829 3830 3764 3763 
4 3830 3831 3765 3764 
4 3831 3832 3766 3765 
4 3833 3834 3770 3769 
4 3834 3835 3771 3770 
4 3835 3836 3772 3771 
4 3836 3837 3773 3772 
4 3837 3838 3774 3773 
4 3838 3839 3775 3774 
4 3840 3841 3778 3777 
4 3841 3842 3779 3778 
4 3842 3843 3780 3779 
4 3843 3844 3781 3780 
4 3844 3845 3782 3781 
4 3845 3846 3783 3782 
4 3846 3847 3784 3783 
4 3847 3848 3785 3784 
4 3848 3849 3786 3785 
4 3849 3850 3787 3786 
4 3850 3851 3788 3787 
4 3851 3852 3789 3788 
4 3852 3853 3790 3789 
4 3853 3854 3791 3790 
4 3854 3855 3792 3791 
4 3856 3857 3794 3793 
4 3857 3858 3795 3794 
4 3858 3859 3796 3795 
4 3859 3860 3797 3796 
4 3860 3861 3798 3797 
4 3861 3862 3799 3798 
4 3862 3863 3800 3799 
4 3863 3864 3801 3800 
4 3864 3865 3802 3801 
4 3865 3866 3803 3802 
4 3866 3867 3804 3803 
4 3867 3868 3805 3804 
4 3868 3869 3806 3805 
4 3869 3870 3807 3806 
4 3870 3871 3808 3807 
4 3871 3872 3809 3808 
4 3872 3873 3810 3809 
4 3873 3874 3811 3810 
4 3874 3875 3812 3811 
4 3875 3876 3813 3812 
4 3876 3877 3814 3813 
4 3877 3878 3815 3814 
4 3878 3879 3816 3815 
4 3879 3880 3817 3816 
4 3880 3881 3818 3817 
4 3881 3882 3819 3818 
4 3882 3883 3820 3819 
4 3883 3884 3821 3820 
4 3884 3885 3822 3821 
4 3885 3886 3823 3822 
4 3886 3887 3824 3823 
4 3887 3888 3825 3824 
4 3889 3890 3834 3833 
4 3890 3891 3835 3834 
4 3891 3892 3836 3835 
4 3892 3893 3837 3836 
4 3893 3894 3838 3837 
4 3895 3896 3841 3840 
4 3896 3897 3842 3841 
4 3897 3898 3843 3842 
4 3898 3899 3844 3843 
4 3899 3900 3845 3844 
4 3900 3901 3846 3845 
4 3901 3902 3847 3846 
4 3902 3903 3848 3847 
4 3903 3904 3849 3848 
4 3904 3905 3850 3849 
4 3905 3906 3851 3850 
4 3906 3907 3852 3851 
4 3907 3908 3853 3852 
4 3908 3909 3854 3853 
4 3909 3910 3855 3854 
4 3911 3912 3858 3857 
4 3912 3913 3859 3858 
4 3913 3914 3860 3859 
4 3914 3915 3861 3860 
4 3915 3916 3862 3861 
4 3916 3917 3863 3862 
4 3917 3918 3864 3863 
4 3918 3919 3865 3864 
4 3919 3920 3866 3865 
4 3920 3921 3867 3866 
4 3921 3922 3868 3867 
4 3922 3923 3869 3868 
4 3923 3924 3870 3869 
4 3924 3925 3871 3870 
4 3925 3926 3872 3871 
4 3926 3927 3873 3872 
4 3927 3928 3874 3873 
4 3928 3929 3875 3874 
4 3929 3930 3876 3875 
4 3930 3931 3877 3876 
4 3931 3932 3878 3877 
4 3932 3933 3879 3878 
4 3933 3934 3880 3879 
4 3934 3935 3881 3880 
4 3935 3936 3882 3881 
4 3936 3937 3883 3882 
4 3937 3938 3884 3883 
4 3938 3939 3885 3884 
4 3939 3940 3886 3885 
4 3942 3943 3889 3941 
4 3943 3944 3890 3889 
4 3944 3945 3891 3890 
4 3945 3946 3892 3891 
4 3946 3947 3893 3892 
4 3947 3948 3894 3893 
4 3950 3951 3895 3949 
4 3951 3952 3896 3895 
4 3952 3953 3897 3896 
4 3953 3954 3898 3897 
4 3954 3955 3899 3898 
4 3955 3956 3900 3899 
4 3956 3957 3901 3900 
4 3957 3958 3902 3901 
4 3958 3959 3903 3902 
4 3959 3960 3904 3903 
4 3960 3961 3905 3904 
4 3961 3962 3906 3905 
4 3962 3963 3907 3906 
4 3963 3964 3908 3907 
4 3964 3965 3909 3908 
4 3965 3966 3910 3909 
4 3967 3968 3912 3911 
4 3968 3969 3913 3912 
4 3969 3970 3914 3913 
4 3970 3971 3915 3914 
4 3971 3972 3916 3915 
4 3972 3973 3917 3916 
4 3973 3974 3918 3917 
4 3974 3975 3919 3918 
4 3975 3976 3920 3919 
4 3976 3977 3921 3920 
4 3977 3978 3922 3921 
4 3978 3979 3923 3922 
4 3979 3980 3924 3923 
4 3980 3981 3925 3924 
4 3981 3982 3926 3925 
4 3982 3983 3927 3926 
4 3983 3984 3928 3927 
4 3984 3985 3929 3928 
4 3985 3986 3930 3929 
4 3986 3987 3931 3930 
4 3987 3988 3932 3931 
4 3988 3989 3933 3932 
4 3989 3990 3934 3933 
4 3990 3991 3935 3934 
4 3991 3992 3936 3935 
4 3992 3993 3937 3936 
4 3993 3994 3938 3937 
4 3995 3996 3943 3942 
4 3996 3997 3944 3943 
4 3997 3998 3945 3944 
4 3998 3999 3946 3945 
4 3999 4000 3947 3946 
4 4002 4003 3950 4001 
4 4003 4004 3951 3950 
4 4004 4005 3952 3951 
4 4005 4006 3953 3952 
4 4006 4007 3954 3953 
4 4007 4008 3955 3954 
4 4008 4009 3956 3955 
4 4009 4010 3957 3956 
4 4010 4011 3958 3957 
4 4011 4012 3959 3958 
4 4012 4013 3960 3959 
4 4013 4014 3961 3960 
4 4014 4015 3962 3961 
4 4015 4016 3963 3962 
4 4016 4017 3964 3963 
4 4017 4018 3965 3964 
4 4019 4020 3969 3968 
4 4020 4021 3970 3969 
4 4021 4022 3971 3970 
4 4022 4023 3972 3971 
4 4023 4024 3973 3972 
4 4024 4025 3974 3973 
4 4025 4026 3975 3974 
4 4026 4027 3976 3975 
4 4027 4028 3977 3976 
4 4028 4029 3978 3977 
4 4029 4030 3979 3978 
4 4030 4031 3980 3979 
4 4031 4032 3981 3980 
4 4032 4033 3982 3981 
4 4033 4034 3983 3982 
4 4034 4035 3984 3983 
4 4035 4036 3985 3984 
4 4036 4037 3986 3985 
4 4037 4038 3987 3986 
4 4038 4039 3988 3987 
4 4039 4040 3989 3988 
4 4040 4041 3990 3989 
4 4041 4042 3991 3990 
4 4042 4043 3992 3991 
4 4043 4044 3993 3992 
4 4045 4046 3997 3996 
4 4046 4047 3998 3997 
4 4049 4050 4002 4048 
4 4050 4051 4003 4002 
4 4051 4052 4004 4003 
4 4052 4053 4005 4004 
4 4053 4054 4006 4005 
4 4054 4055 4007 4006 
4 4055 4056 4008 4007 
4 4056 4057 4009 4008 
4 4057 4058 4010 4009 
4 4058 4059 4011 4010 
4 4059 4060 4012 4011 
4 4060 4061 4013 4012 
4 4061 4062 4014 4013 
4 4062 4063 4015 4014 
4 4063 4064 4016 4015 
4 4064 4065 4017 4016 
4 4066 4067 4021 4020 
4 4067 4068 4022 4021 
4 4068 4069 4023 4022 
4 4069 4070 4024 4023 
4 4070 4071 4025 4024 
4 4071 4072 4026 4025 
4 4072 4073 4027 4026 
4 4073 4074 4028 4027 
4 4074 4075 4029 4028 
4 4075 4076 4030 4029 
4 4076 4077 4031 4030 
4 4077 4078 4032 4031 
4 4078 4079 4033 4032 
4 4079 4080 4034 4033 
4 4080 4081 4035 4034 
4 4081 4082 4036 4035 
4 4082 4083 4037 4036 
4 4083 4084 4038 4037 
4 4084 4085 4039 4038 
4 4085 4086 4040 4039 
4 4086 4087 4041 4040 
4 4087 4088 4042 4041 
4 4088 4089 4043 4042 
4 4089 4090 4044 4043 
4 4092 4093 4049 4091 
4 4093 4094 4050 4049 
4 4094 4095 4051 4050 
4 4095 4096 4052 4051 
4 4096 4097 4053 4052 
4 4097 4098 4054 4053 
4 4098 4099 4055 4054 
4 4099 4100 4056 4055 
4 4100 4101 4057 4056 
4 4101 4102 4058 4057 
4 4102 4103 4059 4058 
4 4103 4104 4060 4059 
4 4104 4105 4061 4060 
4 4105 4106 4062 4061 
4 4106 4107 4063 4062 
4 4107 4108 4064 4063 
4 4108 4109 4065 4064 
4 4110 4111 4067 4066 
4 4111 4112 4068 4067 
4 4112 4113 4069 4068 
4 4113 4114 4070 4069 
4 4114 4115 4071 4070 
4 4115 4116 4072 4071 
4 4116 4117 4073 4072 
4 4117 4118 4074 4073 
4 4118 4119 4075 4074 
4 4119 4120 4076 4075 
4 4120 4121 4077 4076 
4 4121 4122 4078 4077 
4 4122 4123 4079 4078 
4 4123 4124 4080 4079 
4 4124 4125 4081 4080 
4 4125 4126 4082 4081 
4 4126 4127 4083 4082 
4 4127 4128 4084 4083 
4 4128 4129 4085 4084 
4 4129 4130 4086 4085 
4 4130 4131 4087 4086 
4 4131 4132 4088 4087 
4 4132 4133 4089 4088 
4 4135 4136 4092 4134 
4 4136 4137 4093 4092 
4 4137 4138 4094 4093 
4 4138 4139 4095 4094 
4 4139 4140 4096 4095 
4 4140 4141 4097 4096 
4 4141 4142 4098 4097 
4 4142 4143 4099 4098 
4 4143 4144 4100 4099 
4 4144 4145 4101 4100 
4 4145 4146 4102 4101 
4 4146 4147 4103 4102 
4 4147 4148 4104 4103 
4 4148 4149 4105 4104 
4 4149 4150 4106 4105 
4 4150 4151 4107 4106 
4 4151 4152 4108 4107 
4 4152 4153 4109 4108 
4 4154 4155 4113 4112 
4 4155 4156 4114 4113 
4 4156 4157 4115 4114 
4 4157 4158 4116 4115 
4 4158 4159 4117 4116 
4 4159 4160 4118 4117 
4 4160 4161 4119 4118 
4 4161 4162 4120 4119 
4 4162 4163 4121 4120 
4 4163 4164 4122 4121 
4 4164 4165 4123 4122 
4 4165 4166 4124 4123 
4 4166 4167 4125 4124 
4 4167 4168 4126 4125 
4 4168 4169 4127 4126 
4 4169 4170 4128 4127 
4 4170 4171 4129 4128 
4 4171 4172 4130 4129 
4 4172 4173 4131 4130 
4 4173 4174 4132 4131 
4 4174 4175 4133 4132 
4 4177 4178 4179 4176 
4 4178 4180 4135 4179 
4 4180 4181 4136 4135 
4 4181 4182 4137 4136 
4 4182 4183 4138 4137 
4 4183 4184 4139 4138 
4 4184 4185 4140 4139 
4 4185 4186 4141 4140 
4 4186 4187 4142 4141 
4 4187 4188 4143 4142 
4 4188 4189 4144 4143 
4 4189 4190 4145 4144 
4 4190 4191 4146 4145 
4 4191 4192 4147 4146 
4 4192 4193 4148 4147 
4 4193 4194 4149 4148 
4 4194 4195 4150 4149 
4 4195 4196 4151 4150 
4 4196 4197 4152 4151 
4 4198 4199 4155 4154 
4 4199 4200 4156 4155 
4 4200 4201 4157 4156 
4 4201 4202 4158 4157 
4 4202 4203 4159 4158 
4 4203 4204 4160 4159 
4 4204 4205 4161 4160 
4 4205 4206 4162 4161 
4 4206 4207 4163 4162 
4 4207 4208 4164 4163 
4 4208 4209 4165 4164 
4 4209 4210 4166 4165 
4 4210 4211 4167 4166 
4 4211 4212 4168 4167 
4 4212 4213 4169 4168 
4 4213 4214 4170 4169 
4 4214 4215 4171 4170 
4 4215 4216 4172 4171 
4 4216 4217 4173 4172 
4 4217 4218 4174 4173 
4 4218 4219 4175 4174 
4 4221 4222 4177 4220 
4 4222 4223 4178 4177 
4 4223 4224 4180 4178 
4 4224 4225 4181 4180 
4 4225 4226 4182 4181 
4 4226 4227 4183 4182 
4 4227 4228 4184 4183 
4 4228 4229 4185 4184 
4 4229 4230 4186 4185 
4 4230 4231 4187 4186 
4 4231 4232 4188 4187 
4 4232 4233 4189 4188 
4 4233 4234 4190 4189 
4 4234 4235 4191 4190 
4 4235 4236 4192 4191 
4 4236 4237 4193 4192 
4 4237 4238 4194 4193 
4 4238 4239 4195 4194 
4 4239 4240 4196 4195 
4 4240 4241 4197 4196 
4 4242 4243 4201 4200 
4 4243 4244 4202 4201 
4 4244 4245 4203 4202 
4 4245 4246 4204 4203 
4 4246 4247 4205 4204 
4 4247 4248 4206 4205 
4 4248 4249 4207 4206 
4 4249 4250 4208 4207 
4 4250 4251 4209 4208 
4 4251 4252 4210 4209 
4 4252 4253 4211 4210 
4 4253 4254 4212 4211 
4 4254 4255 4213 4212 
4 4255 4256 4214 4213 
4 4256 4257 4215 4214 
4 4257 4258 4216 4215 
4 4258 4259 4217 4216 
4 4259 4260 4218 4217 
4 4260 4261 4219 4218 
4 4263 4264 4265 4262 
4 4264 4266 4221 4265 
4 4266 4267 4222 4221 
4 4267 4268 4223 4222 
4 4268 4269 4224 4223 
4 4269 4270 4225 4224 
4 4270 4271 4226 4225 
4 4271 4272 4227 4226 
4 4272 4273 4228 4227 
4 4273 4274 4229 4228 
4 4274 4275 4230 4229 
4 4275 4276 4231 4230 
4 4276 4277 4232 4231 
4 4277 4278 4233 4232 
4 4278 4279 4234 4233 
4 4279 4280 4235 4234 
4 4280 4281 4236 4235 
4 4281 4282 4237 4236 
4 4282 4283 4238 4237 
4 4283 4284 4239 4238 
4 4284 4285 4240 4239 
4 4285 4286 4241 4240 
4 4287 4288 4244 4243 
4 4288 4289 4245 4244 
4 4289 4290 4246 4245 
4 4290 4291 4247 4246 
4 4291 4292 4248 4247 
4 4292 4293 4249 4248 
4 4293 4294 4250 4249 
4 4294 4295 4251 4250 
4 4295 4296 4252 4251 
4 4296 4297 4253 4252 
4 4297 4298 4254 4253 
4 4298 4299 4255 4254 
4 4299 4300 4256 4255 
4 4300 4301 4257 4256 
4 4301 4302 4258 4257 
4 4302 4303 4259 4258 
4 4303 4304 4260 4259 
4 4304 4305 4261 4260 
4 4305 4306 4307 4261 
4 4309 4310 4263 4308 
4 4310 4311 4264 4263 
4 4311 4312 4266 4264 
4 4312 4313 4267 4266 
4 4313 4314 4268 4267 
4 4314 4315 4269 4268 
4 4315 4316 4270 4269 
4 4316 4317 4271 4270 
4 4317 4318 4272 4271 
4 4318 4319 4273 4272 
4 4319 4320 4274 4273 
4 4320 4321 4275 4274 
4 4321 4322 4276 4275 
4 4322 4323 4277 4276 
4 4323 4324 4278 4277 
4 4324 4325 4279 4278 
4 4325 4326 4280 4279 
4 4326 4327 4281 4280 
4 4327 4328 4282 4281 
4 4328 4329 4283 4282 
4 4329 4330 4284 4283 
4 4330 4331 4285 4284 
4 4331 4332 4286 4285 
4 4333 4334 4289 4288 
4 4334 4335 4290 4289 
4 4335 4336 4291 4290 
4 4336 4337 4292 4291 
4 4337 4338 4293 4292 
4 4338 4339 4294 4293 
4 4339 4340 4295 4294 
4 4340 4341 4296 4295 
4 4341 4342 4297 4296 
4 4342 4343 4298 4297 
4 4343 4344 4299 4298 
4 4344 4345 4300 4299 
4 4345 4346 4301 4300 
4 4346 4347 4302 4301 
4 4347 4348 4303 4302 
4 4348 4349 4304 4303 
4 4349 4350 4305 4304 
4 4350 4351 4306 4305 
4 4351 4352 4353 4306 
4 4352 4354 4355 4353 
4 4354 4356 4357 4355 
4 4356 4358 4359 4357 
4 4361 4362 4363 4360 
4 4362 4364 4309 4363 
4 4364 4365 4310 4309 
4 4365 4366 4311 4310 
4 4366 4367 4312 4311 
4 4367 4368 4313 4312 
4 4368 4369 4314 4313 
4 4369 4370 4315 4314 
4 4370 4371 4316 4315 
4 4371 4372 4317 4316 
4 4372 4373 4318 4317 
4 4373 4374 4319 4318 
4 4374 4375 4320 4319 
4 4375 4376 4321 4320 
4 4376 4377 4322 4321 
4 4377 4378 4323 4322 
4 4378 4379 4324 4323 
4 4379 4380 4325 4324 
4 4380 4381 4326 4325 
4 4381 4382 4327 4326 
4 4382 4383 4328 4327 
4 4383 4384 4329 4328 
4 4384 4385 4330 4329 
4 4385 4386 4331 4330 
4 4386 4387 4332 4331 
4 4388 4389 4335 4334 
4 4389 4390 4336 4335 
4 4390 4391 4337 4336 
4 4391 4392 4338 4337 
4 4392 4393 4339 4338 
4 4393 4394 4340 4339 
4 4394 4395 4341 4340 
4 4395 4396 4342 4341 
4 4396 4397 4343 4342 
4 4397 4398 4344 4343 
4 4398 4399 4345 4344 
4 4399 4400 4346 4345 
4 4400 4401 4347 4346 
4 4401 4402 4348 4347 
4 4402 4403 4349 4348 
4 4403 4404 4350 4349 
4 4404 4405 4351 4350 
4 4405 4406 4352 4351 
4 4406 4407 4354 4352 
4 4407 4408 4356 4354 
4 4408 4409 4358 4356 
4 4409 4410 4411 4358 
4 4410 4412 4413 4411 
4 4412 4414 4415 4413 
4 4414 4416 4417 4415 
4 4416 4418 4419 4417 
4 4418 4420 4421 4419 
4 4423 4424 4361 4422 
4 4424 4425 4362 4361 
4 4425 4426 4364 4362 
4 4426 4427 4365 4364 
4 4427 4428 4366 4365 
4 4428 4429 4367 4366 
4 4429 4430 4368 4367 
4 4430 4431 4369 4368 
4 4431 4432 4370 4369 
4 4432 4433 4371 4370 
4 4433 4434 4372 4371 
4 4434 4435 4373 4372 
4 4435 4436 4374 4373 
4 4436 4437 4375 4374 
4 4437 4438 4376 4375 
4 4438 4439 4377 4376 
4 4439 4440 4378 4377 
4 4440 4441 4379 4378 
4 4441 4442 4380 4379 
4 4442 4443 4381 4380 
4 4443 4444 4382 4381 
4 4444 4445 4383 4382 
4 4445 4446 4384 4383 
4 4446 4447 4385 4384 
4 4447 4448 4386 4385 
4 4448 4449 4387 4386 
4 4450 4451 4389 4388 
4 4451 4452 4390 4389 
4 4452 4453 4391 4390 
4 4453 4454 4392 4391 
4 4454 4455 4393 4392 
4 4455 4456 4394 4393 
4 4456 4457 4395 4394 
4 4457 4458 4396 4395 
4 4458 4459 4397 4396 
4 4459 4460 4398 4397 
4 4460 4461 4399 4398 
4 4461 4462 4400 4399 
4 4462 4463 4401 4400 
4 4463 4464 4402 4401 
4 4464 4465 4403 4402 
4 4465 4466 4404 4403 
4 4466 4467 4405 4404 
4 4467 4468 4406 4405 
4 4468 4469 4407 4406 
4 4469 4470 4408 4407 
4 4470 4471 4409 4408 
4 4471 4472 4410 4409 
4 4472 4473 4412 4410 
4 4473 4474 4414 4412 
4 4474 4475 4416 4414 
4 4475 4476 4418 4416 
4 4476 4477 4420 4418 
4 4477 4478 4479 4420 
4 4481 4482 4483 4480 
4 4482 4484 4423 4483 
4 4484 4485 4424 4423 
4 4485 4486 4425 4424 
4 4486 4487 4426 4425 
4 4487 4488 4427 4426 
4 4488 4489 4428 4427 
4 4489 4490 4429 4428 
4 4490 4491 4430 4429 
4 4491 4492 4431 4430 
4 4492 4493 4432 4431 
4 4493 4494 4433 4432 
4 4494 4495 4434 4433 
4 4495 4496 4435 4434 
4 4496 4497 4436 4435 
4 4497 4498 4437 4436 
4 4498 4499 4438 4437 
4 4499 4500 4439 4438 
4 4500 4501 4440 4439 
4 4501 4502 4441 4440 
4 4502 4503 4442 4441 
4 4503 4504 4443 4442 
4 4504 4505 4444 4443 
4 4505 4506 4445 4444 
4 4506 4507 4446 4445 
4 4507 4508 4447 4446 
4 4508 4509 4448 4447 
4 4510 4511 4452 4451 
4 4511 4512 4453 4452 
4 4512 4513 4454 4453 
4 4513 4514 4455 4454 
4 4514 4515 4456 4455 
4 4515 4516 4457 4456 
4 4516 4517 4458 4457 
4 4517 4518 4459 4458 
4 4518 4519 4460 4459 
4 4519 4520 4461 4460 
4 4520 4521 4462 4461 
4 4521 4522 4463 4462 
4 4522 4523 4464 4463 
4 4523 4524 4465 4464 
4 4524 4525 4466 4465 
4 4525 4526 4467 4466 
4 4526 4527 4468 4467 
4 4527 4528 4469 4468 
4 4528 4529 4470 4469 
4 4529 4530 4471 4470 
4 4530 4531 4472 4471 
4 4531 4532 4473 4472 
4 4532 4533 4474 4473 
4 4533 4534 4475 4474 
4 4534 4535 4476 4475 
4 4535 4536 4477 4476 
4 4536 4537 4478 4477 
4 4537 4538 4539 4478 
4 4538 4540 4541 4539 
4 4540 4542 4543 4541 
4 4542 4544 4545 4543 
4 4544 4546 4547 4545 
4 4546 4548 4549 4547 
4 4548 4550 4551 4549 
4 4550 4552 4481 4551 
4 4552 4553 4482 4481 
4 4553 4554 4484 4482 
4 4554 4555 4485 4484 
4 4555 4556 4486 4485 
4 4556 4557 4487 4486 
4 4557 4558 4488 4487 
4 4558 4559 4489 4488 
4 4559 4560 4490 4489 
4 4560 4561 4491 4490 
4 4561 4562 4492 4491 
4 4562 4563 4493 4492 
4 4563 4564 4494 4493 
4 4564 4565 4495 4494 
4 4565 4566 4496 4495 
4 4566 4567 4497 4496 
4 4567 4568 4498 4497 
4 4568 4569 4499 4498 
4 4569 4570 4500 4499 
4 4570 4571 4501 4500 
4 4571 4572 4502 4501 
4 4572 4573 4503 4502 
4 4573 4574 4504 4503 
4 4574 4575 4505 4504 
4 4575 4576 4506 4505 
4 4576 4577 4507 4506 
4 4577 4578 4508 4507 
4 4578 4579 4509 4508 
4 4580 4581 4512 4511 
4 4581 4582 4513 4512 
4 4582 4583 4514 4513 
4 4583 4584 4515 4514 
4 4584 4585 4516 4515 
4 4585 4586 4517 4516 
4 4586 4587 4518 4517 
4 4587 4588 4519 4518 
4 4588 4589 4520 4519 
4 4589 4590 4521 4520 
4 4590 4591 4522 4521 
4 4591 4592 4523 4522 
4 4592 4593 4524 4523 
4 4593 4594 4525 4524 
4 4594 4595 4526 4525 
4 4595 4596 4527 4526 
4 4596 4597 4528 4527 
4 4597 4598 4529 4528 
4 4598 4599 4530 4529 
4 4599 4600 4531 4530 
4 4600 4601 4532 4531 
4 4601 4602 4533 4532 
4 4602 4603 4534 4533 
4 4603 4604 4535 4534 
4 4604 4605 4536 4535 
4 4605 4606 4537 4536 
4 4606 4607 4538 4537 
4 4607 4608 4540 4538 
4 4608 4609 4542 4540 
4 4609 4610 4544 4542 
4 4610 4611 4546 4544 
4 4611 4612 4548 4546 
4 4612 4613 4550 4548 
4 4613 4614 4552 4550 
4 4614 4615 4553 4552 
4 4615 4616 4554 4553 
4 4616 4617 4555 4554 
4 4617 4618 4556 4555 
4 4618 4619 4557 4556 
4 4619 4620 4558 4557 
4 4620 4621 4559 4558 
4 4621 4622 4560 4559 
4 4622 4623 4561 4560 
4 4623 4624 4562 4561 
4 4624 4625 4563 4562 
4 4625 4626 4564 4563 
4 4626 4627 4565 4564 
4 4627 4628 4566 4565 
4 4628 4629 4567 4566 
4 4629 4630 4568 4567 
4 4630 4631 4569 4568 
4 4631 4632 4570 4569 
4 4632 4633 4571 4570 
4 4633 4634 4572 4571 
4 4634 4635 4573 4572 
4 4635 4636 4574 4573 
4 4636 4637 4575 4574 
4 4637 4638 4576 4575 
4 4638 4639 4577 4576 
4 4639 4640 4578 4577 
4 4640 4641 4579 4578 
4 4642 4643 4582 4581 
4 4643 4644 4583 4582 
4 4644 4645 4584 4583 
4 4645 4646 4585 4584 
4 4646 4647 4586 4585 
4 4647 4648 4587 4586 
4 4648 4649 4588 4587 
4 4649 4650 4589 4588 
4 4650 4651 4590 4589 
4 4651 4652 4591 4590 
4 4652 4653 4592 4591 
4 4653 4654 4593 4592 
4 4654 4655 4594 4593 
4 4655 4656 4595 4594 
4 4656 4657 4596 4595 
4 4657 4658 4597 4596 
4 4658 4659 4598 4597 
4 4659 4660 4599 4598 
4 4660 4661 4600 4599 
4 4661 4662 4601 4600 
4 4662 4663 4602 4601 
4 4663 4664 4603 4602 
4 4664 4665 4604 4603 
4 4665 4666 4605 4604 
4 4666 4667 4606 4605 
4 4667 4668 4607 4606 
4 4668 4669 4608 4607 
4 4669 4670 4609 4608 
4 4670 4671 4610 4609 
4 4671 4672 4611 4610 
4 4672 4673 4612 4611 
4 4673 4674 4613 4612 
4 4674 4675 4614 4613 
4 4675 4676 4615 4614 
4 4676 4677 4616 4615 
4 4677 4678 4617 4616 
4 4678 4679 4618 4617 
4 4679 4680 4619 4618 
4 4680 4681 4620 4619 
4 4681 4682 4621 4620 
4 4682 4683 4622 4621 
4 4683 4684 4623 4622 
4 4684 4685 4624 4623 
4 4685 4686 4625 4624 
4 4686 4687 4626 4625 
4 4687 4688 4627 4626 
4 4688 4689 4628 4627 
4 4689 4690 4629 4628 
4 4690 4691 4630 4629 
4 4691 4692 4631 4630 
4 4692 4693 4632 4631 
4 4693 4694 4633 4632 
4 4694 4695 4634 4633 
4 4695 4696 4635 4634 
4 4696 4697 4636 4635 
4 4697 4698 4637 4636 
4 4698 4699 4638 4637 
4 4699 4700 4639 4638 
4 4700 4701 4640 4639 
4 4702 4703 4644 4643 
4 4703 4704 4645 4644 
4 4704 4705 4646 4645 
4 4705 4706 4647 4646 
4 4706 4707 4648 4647 
4 4707 4708 4649 4648 
4 4708 4709 4650 4649 
4 4709 4710 4651 4650 
4 4710 4711 4652 4651 
4 4711 4712 4653 4652 
4 4712 4713 4654 4653 
4 4713 4714 4655 4654 
4 4714 4715 4656 4655 
4 4715 4716 4657 4656 
4 4716 4717 4658 4657 
4 4717 4718 4659 4658 
4 4718 4719 4660 4659 
4 4719 4720 4661 4660 
4 4720 4721 4662 4661 
4 4721 4722 4663 4662 
4 4722 4723 4664 4663 
4 4723 4724 4665 4664 
4 4724 4725 4666 4665 
4 4725 4726 4667 4666 
4 4726 4727 4668 4667 
4 4727 4728 4669 4668 
4 4728 4729 4670 4669 
4 4729 4730 4671 4670 
4 4730 4731 4672 4671 
4 4731 4732 4673 4672 
4 4732 4733 4674 4673 
4 4733 4734 4675 4674 
4 4734 4735 4676 4675 
4 4735 4736 4677 4676 
4 4736 4737 4678 4677 
4 4737 4738 4679 4678 
4 4738 4739 4680 4679 
4 4739 4740 4681 4680 
4 4740 4741 4682 4681 
4 4741 4742 4683 4682 
4 4742 4743 4684 4683 
4 4743 4744 4685 4684 
4 4744 4745 4686 4685 
4 4745 4746 4687 4686 
4 4746 4747 4688 4687 
4 4747 4748 4689 4688 
4 4748 4749 4690 4689 
4 4749 4750 4691 4690 
4 4750 4751 4692 4691 
4 4751 4752 4693 4692 
4 4752 4753 4694 4693 
4 4753 4754 4695 4694 
4 4754 4755 4696 4695 
4 4755 4756 4697 4696 
4 4756 4757 4698 4697 
4 4757 4758 4699 4698 
4 4758 4759 4700 4699 
4 4759 4760 4701 4700 
4 4761 4762 4704 4703 
4 4762 4763 4705 4704 
4 4763 4764 4706 4705 
4 4764 4765 4707 4706 
4 4765 4766 4708 4707 
4 4766 4767 4709 4708 
4 4767 4768 4710 4709 
4 4768 4769 4711 4710 
4 4769 4770 4712 4711 
4 4770 4771 4713 4712 
4 4771 4772 4714 4713 
4 4772 4773 4715 4714 
4 4773 4774 4716 4715 
4 4774 4775 4717 4716 
4 4775 4776 4718 4717 
4 4776 4777 4719 4718 
4 4777 4778 4720 4719 
4 4778 4779 4721 4720 
4 4779 4780 4722 4721 
4 4780 4781 4723 4722 
4 4781 4782 4724 4723 
4 4782 4783 4725 4724 
4 4783 4784 4726 4725 
4 4784 4785 4727 4726 
4 4785 4786 4728 4727 
4 4786 4787 4729 4728 
4 4787 4788 4730 4729 
4 4788 4789 4731 4730 
4 4789 4790 4732 4731 
4 4790 4791 4733 4732 
4 4791 4792 4734 4733 
4 4792 4793 4735 4734 
4 4793 4794 4736 4735 
4 4794 4795 4737 4736 
4 4795 4796 4738 4737 
4 4796 4797 4739 4738 
4 4797 4798 4740 4739 
4 4798 4799 4741 4740 
4 4799 4800 4742 4741 
4 4800 4801 4743 4742 
4 4801 4802 4744 4743 
4 4802 4803 4745 4744 
4 4803 4804 4746 4745 
4 4804 4805 4747 4746 
4 4805 4806 4748 4747 
4 4806 4807 4749 4748 
4 4807 4808 4750 4749 
4 4808 4809 4751 4750 
4 4809 4810 4752 4751 
4 4810 4811 4753 4752 
4 4811 4812 4754 4753 
4 4812 4813 4755 4754 
4 4813 4814 4756 4755 
4 4814 4815 4757 4756 
4 4815 4816 4758 4757 
4 4816 4817 4759 4758 
4 4817 4818 4760 4759 
4 4819 4820 4762 4761 
4 4820 4821 4763 4762 
4 4821 4822 4764 4763 
4 4822 4823 4765 4764 
4 4823 4824 4766 4765 
4 4824 4825 4767 4766 
4 4825 4826 4768 4767 
4 4826 4827 4769 4768 
4 4827 4828 4770 4769 
4 4828 4829 4771 4770 
4 4829 4830 4772 4771 
4 4830 4831 4773 4772 
4 4831 4832 4774 4773 
4 4832 4833 4775 4774 
4 4833 4834 4776 4775 
4 4834 4835 4777 4776 
4 4835 4836 4778 4777 
4 4836 4837 4779 4778 
4 4837 4838 4780 4779 
4 4838 4839 4781 4780 
4 4839 4840 4782 4781 
4 4840 4841 4783 4782 
4 4841 4842 4784 4783 
4 4842 4843 4785 4784 
4 4843 4844 4786 4785 
4 4844 4845 4787 4786 
4 4845 4846 4788 4787 
4 4846 4847 4789 4788 
4 4847 4848 4790 4789 
4 4848 4849 4791 4790 
4 4849 4850 4792 4791 
4 4850 4851 4793 4792 
4 4851 4852 4794 4793 
4 4852 4853 4795 4794 
4 4853 4854 4796 4795 
4 4854 4855 4797 4796 
4 4855 4856 4798 4797 
4 4856 4857 4799 4798 
4 4857 4858 4800 4799 
4 4858 4859 4801 4800 
4 4859 4860 4802 4801 
4 4860 4861 4803 4802 
4 4861 4862 4804 4803 
4 4862 4863 4805 4804 
4 4864 4865 4809 4808 
4 4865 4866 4810 4809 
4 4866 4867 4811 4810 
4 4867 4868 4812 4811 
4 4868 4869 4813 4812 
4 4869 4870 4814 4813 
4 4870 4871 4815 4814 
4 4871 4872 4816 4815 
4 4872 4873 4817 4816 
4 4873 4874 4818 4817 
4 4875 4876 4820 4819 
4 4876 4877 4821 4820 
4 4877 4878 4822 4821 
4 4878 4879 4823 4822 
4 4879 4880 4824 4823 
4 4880 4881 4825 4824 
4 4881 4882 4826 4825 
4 4882 4883 4827 4826 
4 4883 4884 4828 4827 
4 4884 4885 4829 4828 
4 4885 4886 4830 4829 
4 4886 4887 4831 4830 
4 4887 4888 4832 4831 
4 4888 4889 4833 4832 
4 4889 4890 4834 4833 
4 4890 4891 4835 4834 
4 4891 4892 4836 4835 
4 4892 4893 4837 4836 
4 4893 4894 4838 4837 
4 4894 4895 4839 4838 
4 4895 4896 4840 4839 
4 4896 4897 4841 4840 
4 4897 4898 4842 4841 
4 4898 4899 4843 4842 
4 4899 4900 4844 4843 
4 4900 4901 4845 4844 
4 4901 4902 4846 4845 
4 4902 4903 4847 4846 
4 4903 4904 4848 4847 
4 4904 4905 4849 4848 
4 4905 4906 4850 4849 
4 4906 4907 4851 4850 
4 4907 4908 4852 4851 
4 4908 4909 4853 4852 
4 4909 4910 4854 4853 
4 4910 4911 4855 4854 
4 4911 4912 4856 4855 
4 4912 4913 4857 4856 
4 4913 4914 4858 4857 
4 4914 4915 4859 4858 
4 4915 4916 4860 4859 
4 4916 4917 4861 4860 
4 4917 4918 4862 4861 
4 4918 4919 4863 4862 
4 4920 4921 4865 4864 
4 4921 4922 4866 4865 
4 4922 4923 4867 4866 
4 4923 4924 4868 4867 
4 4924 4925 4869 4868 
4 4925 4926 4870 4869 
4 4926 4927 4871 4870 
4 4927 4928 4872 4871 
4 4928 4929 4873 4872 
4 4929 4930 4874 4873 
4 4932 4933 4875 4931 
4 4933 4934 4876 4875 
4 4934 4935 4877 4876 
4 4935 4936 4878 4877 
4 4936 4937 4879 4878 
4 4937 4938 4880 4879 
4 4938 4939 4881 4880 
4 4939 4940 4882 4881 
4 4940 4941 4883 4882 
4 4941 4942 4884 4883 
4 4942 4943 4885 4884 
4 4943 4944 4886 4885 
4 4944 4945 4887 4886 
4 4945 4946 4888 4887 
4 4946 4947 4889 4888 
4 4947 4948 4890 4889 
4 4948 4949 4891 4890 
4 4949 4950 4892 4891 
4 4950 4951 4893 4892 
4 4951 4952 4894 4893 
4 4952 4953 4895 4894 
4 4953 4954 4896 4895 
4 4954 4955 4897 4896 
4 4955 4956 4898 4897 
4 4956 4957 4899 4898 
4 4957 4958 4900 4899 
4 4958 4959 4901 4900 
4 4959 4960 4902 4901 
4 4960 4961 4903 4902 
4 4961 4962 4904 4903 
4 4962 4963 4905 4904 
4 4963 4964 4906 4905 
4 4964 4965 4907 4906 
4 4965 4966 4908 4907 
4 4966 4967 4909 4908 
4 4967 4968 4910 4909 
4 4968 4969 4911 4910 
4 4969 4970 4912 4911 
4 4970 4971 4913 4912 
4 4971 4972 4914 4913 
4 4972 4973 4915 4914 
4 4973 4974 4916 4915 
4 4974 4975 4917 4916 
4 4975 4976 4918 4917 
4 4977 4978 4921 4920 
4 4978 4979 4922 4921 
4 4979 4980 4923 4922 
4 4980 4981 4924 4923 
4 4981 4982 4925 4924 
4 4982 4983 4926 4925 
4 4983 4984 4927 4926 
4 4984 4985 4928 4927 
4 4985 4986 4929 4928 
4 4986 4987 4930 4929 
4 4988 4989 4933 4932 
4 4989 4990 4934 4933 
4 4990 4991 4935 4934 
4 4991 4992 4936 4935 
4 4992 4993 4937 4936 
4 4993 4994 4938 4937 
4 4994 4995 4939 4938 
4 4995 4996 4940 4939 
4 4996 4997 4941 4940 
4 4997 4998 4942 4941 
4 4998 4999 4943 4942 
4 4999 5000 4944 4943 
4 5000 5001 4945 4944 
4 5001 5002 4946 4945 
4 5002 5003 4947 4946 
4 5003 5004 4948 4947 
4 5004 5005 4949 4948 
4 5005 5006 4950 4949 
4 5006 5007 4951 4950 
4 5007 5008 4952 4951 
4 5008 5009 4953 4952 
4 5009 5010 4954 4953 
4 5010 5011 4955 4954 
4 5011 5012 4956 4955 
4 5012 5013 4957 4956 
4 5013 5014 4958 4957 
4 5014 5015 4959 4958 
4 5015 5016 4960 4959 
4 5016 5017 4961 4960 
4 5017 5018 4962 4961 
4 5018 5019 4963 4962 
4 5019 5020 4964 4963 
4 5020 5021 4965 4964 
4 5021 5022 4966 4965 
4 5022 5023 4967 4966 
4 5023 5024 4968 4967 
4 5024 5025 4969 4968 
4 5025 5026 4970 4969 
4 5026 5027 4971 4970 
4 5027 5028 4972 4971 
4 5028 5029 4973 4972 
4 5029 5030 4974 4973 
4 5030 5031 4975 4974 
4 5032 5033 4978 4977 
4 5033 5034 4979 4978 
4 5034 5035 4980 4979 
4 5035 5036 4981 4980 
4 5036 5037 4982 4981 
4 5037 5038 4983 4982 
4 5038 5039 4984 4983 
4 5039 5040 4985 4984 
4 5040 5041 4986 4985 
4 5041 5042 4987 4986 
4 5043 5044 4989 4988 
4 5044 5045 4990 4989 
4 5045 5046 4991 4990 
4 5046 5047 4992 4991 
4 5047 5048 4993 4992 
4 5048 5049 4994 4993 
4 5049 5050 4995 4994 
4 5050 5051 4996 4995 
4 5051 5052 4997 4996 
4 5052 5053 4998 4997 
4 5053 5054 4999 4998 
4 5054 5055 5000 4999 
4 5055 5056 5001 5000 
4 5056 5057 5002 5001 
4 5057 5058 5003 5002 
4 5058 5059 5004 5003 
4 5059 5060 5005 5004 
4 5060 5061 5006 5005 
4 5061 5062 5007 5006 
4 5062 5063 5008 5007 
4 5063 5064 5009 5008 
4 5064 5065 5010 5009 
4 5065 5066 5011 5010 
4 5066 5067 5012 5011 
4 5067 5068 5013 5012 
4 5068 5069 5014 5013 
4 5069 5070 5015 5014 
4 5070 5071 5016 5015 
4 5071 5072 5017 5016 
4 5072 5073 5018 5017 
4 5073 5074 5019 5018 
4 5074 5075 5020 5019 
4 5075 5076 5021 5020 
4 5076 5077 5022 5021 
4 5077 5078 5023 5022 
4 5078 5079 5024 5023 
4 5079 5080 5025 5024 
4 5080 5081 5026 5025 
4 5081 5082 5027 5026 
4 5082 5083 5028 5027 
4 5083 5084 5029 5028 
4 5084 5085 5030 5029 
4 5086 5087 5033 5032 
4 5087 5088 5034 5033 
4 5088 5089 5035 5034 
4 5089 5090 5036 5035 
4 5090 5091 5037 5036 
4 5091 5092 5038 5037 
4 5092 5093 5039 5038 
4 5093 5094 5040 5039 
4 5094 5095 5041 5040 
4 5095 5096 5042 5041 
4 5097 5098 5044 5043 
4 5098 5099 5045 5044 
4 5099 5100 5046 5045 
4 5100 5101 5047 5046 
4 5101 5102 5048 5047 
4 5102 5103 5049 5048 
4 5103 5104 5050 5049 
4 5104 5105 5051 5050 
4 5105 5106 5052 5051 
4 5106 5107 5053 5052 
4 5107 5108 5054 5053 
4 5108 5109 5055 5054 
4 5109 5110 5056 5055 
4 5110 5111 5057 5056 
4 5111 5112 5058 5057 
4 5112 5113 5059 5058 
4 5113 5114 5060 5059 
4 5114 5115 5061 5060 
4 5115 5116 5062 5061 
4 5116 5117 5063 5062 
4 5117 5118 5064 5063 
4 5118 5119 5065 5064 
4 5119 5120 5066 5065 
4 5120 5121 5067 5066 
4 5121 5122 5068 5067 
4 5122 5123 5069 5068 
4 5123 5124 5070 5069 
4 5124 5125 5071 5070 
4 5125 5126 5072 5071 
4 5126 5127 5073 5072 
4 5127 5128 5074 5073 
4 5128 5129 5075 5074 
4 5129 5130 5076 5075 
4 5130 5131 5077 5076 
4 5131 5132 5078 5077 
4 5132 5133 5079 5078 
4 5133 5134 5080 5079 
4 5134 5135 5081 5080 
4 5135 5136 5082 5081 
4 5136 5137 5083 5082 
4 5138 5139 5087 5086 
4 5139 5140 5088 5087 
4 5140 5141 5089 5088 
4 5141 5142 5090 5089 
4 5142 5143 5091 5090 
4 5143 5144 5092 5091 
4 5144 5145 5093 5092 
4 5145 5146 5094 5093 
4 5146 5147 5095 5094 
4 5147 5148 5096 5095 
4 5149 5150 5098 5097 
4 5150 5151 5099 5098 
4 5151 5152 5100 5099 
4 5152 5153 5101 5100 
4 5153 5154 5102 5101 
4 5154 5155 5103 5102 
4 5155 5156 5104 5103 
4 5156 5157 5105 5104 
4 5157 5158 5106 5105 
4 5158 5159 5107 5106 
4 5159 5160 5108 5107 
4 5160 5161 5109 5108 
4 5161 5162 5110 5109 
4 5162 5163 5111 5110 
4 5163 5164 5112 5111 
4 5164 5165 5113 5112 
4 5165 5166 5114 5113 
4 5166 5167 5115 5114 
4 5167 5168 5116 5115 
4 5168 5169 5117 5116 
4 5169 5170 5118 5117 
4 5171 5172 5126 5125 
4 5172 5173 5127 5126 
4 5173 5174 5128 5127 
4 5174 5175 5129 5128 
4 5175 5176 5130 5129 
4 5176 5177 5131 5130 
4 5177 5178 5132 5131 
4 5178 5179 5133 5132 
4 5179 5180 5134 5133 
4 5180 5181 5135 5134 
4 5181 5182 5136 5135 
4 5184 5185 5138 5183 
4 5185 5186 5139 5138 
4 5186 5187 5140 5139 
4 5187 5188 5141 5140 
4 5188 5189 5142 5141 
4 5189 5190 5143 5142 
4 5190 5191 5144 5143 
4 5191 5192 5145 5144 
4 5192 5193 5146 5145 
4 5193 5194 5147 5146 
4 5194 5195 5148 5147 
4 5196 5197 5150 5149 
4 5197 5198 5151 5150 
4 5198 5199 5152 5151 
4 5199 5200 5153 5152 
4 5200 5201 5154 5153 
4 5201 5202 5155 5154 
4 5202 5203 5156 5155 
4 5203 5204 5157 5156 
4 5204 5205 5158 5157 
4 5205 5206 5159 5158 
4 5206 5207 5160 5159 
4 5207 5208 5161 5160 
4 5208 5209 5162 5161 
4 5209 5210 5163 5162 
4 5210 5211 5164 5163 
4 5211 5212 5165 5164 
4 5212 5213 5166 5165 
4 5213 5214 5167 5166 
4 5214 5215 5168 5167 
4 5215 5216 5169 5168 
4 5217 5218 5185 5184 
4 5218 5219 5186 5185 
4 5219 5220 5187 5186 
4 5220 5221 5188 5187 
4 5221 5222 5189 5188 
4 5222 5223 5190 5189 
4 5223 5224 5191 5190 
4 5224 5225 5192 5191 
4 5225 5226 5193 5192 
4 5226 5227 5194 5193 
4 5227 5228 5195 5194 
4 5229 5230 5197 5196 
4 5230 5231 5198 5197 
4 5231 5232 5199 5198 
4 5232 5233 5200 5199 
4 5233 5234 5201 5200 
4 5234 5235 5202 5201 
4 5235 5236 5203 5202 
4 5236 5237 5204 5203 
4 5237 5238 5205 5204 
4 5238 5239 5206 5205 
4 5239 5240 5207 5206 
4 5240 5241 5208 5207 
4 5241 5242 5209 5208 
4 5242 5243 5210 5209 
4 5243 5244 5211 5210 
4 5244 5245 5212 5211 
4 5245 5246 5213 5212 
4 5246 5247 5214 5213 
4 5248 5249 5218 5217 
4 5249 5250 5219 5218 
4 5250 5251 5220 5219 
4 5251 5252 5221 5220 
4 5252 5253 5222 5221 
4 5253 5254 5223 5222 
4 5254 5255 5224 5223 
4 5255 5256 5225 5224 
4 5256 5257 5226 5225 
4 5257 5258 5227 5226 
4 5258 5259 5228 5227 
4 5260 5261 5230 5229 
4 5261 5262 5231 5230 
4 5262 5263 5232 5231 
4 5263 5264 5233 5232 
4 5264 5265 5234 5233 
4 5265 5266 5235 5234 
4 5266 5267 5236 5235 
4 5267 5268 5237 5236 
4 5268 5269 5238 5237 
4 5269 5270 5239 5238 
4 5270 5271 5240 5239 
4 5271 5272 5241 5240 
4 5272 5273 5242 5241 
4 5273 5274 5243 5242 
4 5274 5275 5244 5243 
4 5275 5276 5245 5244 
4 5276 5277 5246 5245 
4 5278 5279 5249 5248 
4 5279 5280 5250 5249 
4 5280 5281 5251 5250 
4 5281 5282 5252 5251 
4 5282 5283 5253 5252 
4 5283 5284 5254 5253 
4 5284 5285 5255 5254 
4 5285 5286 5256 5255 
4 5286 5287 5257 5256 
4 5287 5288 5258 5257 
4 5288 5289 5259 5258 
4 5290 5291 5262 5261 
4 5291 5292 5263 5262 
4 5292 5293 5264 5263 
4 5293 5294 5265 5264 
4 5294 5295 5266 5265 
4 5295 5296 5267 5266 
4 5296 5297 5268 5267 
4 5297 5298 5269 5268 
4 5298 5299 5270 5269 
4 5299 5300 5271 5270 
4 5300 5301 5272 5271 
4 5301 5302 5273 5272 
4 5302 5303 5274 5273 
4 5303 5304 5275 5274 
4 5304 5305 5276 5275 
4 5307 5308 5278 5306 
4 5308 5309 5279 5278 
4 5309 5310 5280 5279 
4 5310 5311 5281 5280 
4 5311 5312 5282 5281 
4 5312 5313 5283 5282 
4 5313 5314 5284 5283 
4 5314 5315 5285 5284 
4 5315 5316 5286 5285 
4 5316 5317 5287 5286 
4 5317 5318 5288 5287 
4 5318 5319 5289 5288 
4 5320 5321 5291 5290 
4 5321 5322 5292 5291 
4 5322 5323 5293 5292 
4 5323 5324 5294 5293 
4 5324 5325 5295 5294 
4 5325 5326 5296 5295 
4 5326 5327 5297 5296 
4 5327 5328 5298 5297 
4 5328 5329 5299 5298 
4 5329 5330 5300 5299 
4 5330 5331 5301 5300 
4 5331 5332 5302 5301 
4 5332 5333 5303 5302 
4 5334 5335 5308 5307 
4 5335 5336 5309 5308 
4 5336 5337 5310 5309 
4 5337 5338 5311 5310 
4 5338 5339 5312 5311 
4 5339 5340 5313 5312 
4 5340 5341 5314 5313 
4 5341 5342 5315 5314 
4 5342 5343 5316 5315 
4 5343 5344 5317 5316 
4 5344 5345 5318 5317 
4 5346 5347 5321 5320 
4 5347 5348 5322 5321 
4 5348 5349 5323 5322 
4 5349 5350 5324 5323 
4 5350 5351 5325 5324 
4 5351 5352 5326 5325 
4 5352 5353 5327 5326 
4 5353 5354 5328 5327 
4 5354 5355 5329 5328 
4 5355 5356 5330 5329 
4 5356 5357 5331 5330 
4 5357 5358 5332 5331 
4 5359 5360 5335 5334 
4 5360 5361 5336 5335 
4 5361 5362 5337 5336 
4 5362 5363 5338 5337 
4 5363 5364 5339 5338 
4 5364 5365 5340 5339 
4 5365 5366 5341 5340 
4 5366 5367 5342 5341 
4 5367 5368 5343 5342 
4 5368 5369 5344 5343 
4 5369 5370 5345 5344 
4 5371 5372 5347 5346 
4 5372 5373 5348 5347 
4 5373 5374 5349 5348 
4 5374 5375 5350 5349 
4 5375 5376 5351 5350 
4 5376 5377 5352 5351 
4 5377 5378 5353 5352 
4 5378 5379 5354 5353 
4 5379 5380 5355 5354 
4 5380 5381 5356 5355 
4 5381 5382 5357 5356 
4 5383 5384 5360 5359 
4 5384 5385 5361 5360 
4 5385 5386 5362 5361 
4 5386 5387 5363 5362 
4 5387 5388 5364 5363 
4 5388 5389 5365 5364 
4 5389 5390 5366 5365 
4 5390 5391 5367 5366 
4 5391 5392 5368 5367 
4 5392 5393 5369 5368 
4 5393 5394 5370 5369 
4 5395 5396 5372 5371 
4 5396 5397 5373 5372 
4 5397 5398 5374 5373 
4 5398 5399 5375 5374 
4 5399 5400 5376 5375 
4 5400 5401 5377 5376 
4 5401 5402 5378 5377 
4 5402 5403 5379 5378 
4 5403 5404 5380 5379 
4 5404 5405 5381 5380 
4 5406 5407 5384 5383 
4 5407 5408 5385 5384 
4 5408 5409 5386 5385 
4 5409 5410 5387 5386 
4 5410 5411 5388 5387 
4 5411 5412 5389 5388 
4 5412 5413 5390 5389 
4 5413 5414 5391 5390 
4 5414 5415 5392 5391 
4 5415 5416 5393 5392 
4 5416 5417 5394 5393 
4 5418 5419 5396 5395 
4 5419 5420 5397 5396 
4 5420 5421 5398 5397 
4 5421 5422 5399 5398 
4 5422 5423 5400 5399 
4 5423 5424 5401 5400 
4 5424 5425 5402 5401 
4 5425 5426 5403 5402 
4 5426 5427 5404 5403 
4 5427 5428 5405 5404 
4 5429 5430 5407 5406 
4 5430 5431 5408 5407 
4 5431 5432 5409 5408 
4 5432 5433 5410 5409 
4 5433 5434 5411 5410 
4 5434 5435 5412 5411 
4 5435 5436 5413 5412 
4 5436 5437 5414 5413 
4 5437 5438 5415 5414 
4 5438 5439 5416 5415 
4 5439 5440 5417 5416 
4 5442 5443 5418 5441 
4 5443 5444 5419 5418 
4 5444 5445 5420 5419 
4 5445 5446 5421 5420 
4 5446 5447 5422 5421 
4 5447 5448 5423 5422 
4 5448 5449 5424 5423 
4 5449 5450 5425 5424 
4 5450 5451 5426 5425 
4 5451 5452 5427 5426 
4 5452 5453 5428 5427 
4 5455 5456 5429 5454 
4 5456 5457 5430 5429 
4 5457 5458 5431 5430 
4 5458 5459 5432 5431 
4 5459 5460 5433 5432 
4 5460 5461 5434 5433 
4 5461 5462 5435 5434 
4 5462 5463 5436 5435 
4 5463 5464 5437 5436 
4 5464 5465 5438 5437 
4 5465 5466 5439 5438 
4 5466 5467 5440 5439 
4 5468 5469 5443 5442 
4 5469 5470 5444 5443 
4 5470 5471 5445 5444 
4 5471 5472 5446 5445 
4 5472 5473 5447 5446 
4 5473 5474 5448 5447 
4 5474 5475 5449 5448 
4 5475 5476 5450 5449 
4 5476 5477 5451 5450 
4 5477 5478 5452 5451 
4 5478 5479 5453 5452 
4 5480 5481 5456 5455 
4 5481 5482 5457 5456 
4 5482 5483 5458 5457 
4 5483 5484 5459 5458 
4 5484 5485 5460 5459 
4 5485 5486 5461 5460 
4 5486 5487 5462 5461 
4 5487 5488 5463 5462 
4 5488 5489 5464 5463 
4 5489 5490 5465 5464 
4 5490 5491 5466 5465 
4 5491 5492 5467 5466 
4 5493 5494 5469 5468 
4 5494 5495 5470 5469 
4 5495 5496 5471 5470 
4 5496 5497 5472 5471 
4 5497 5498 5473 5472 
4 5498 5499 5474 5473 
4 5499 5500 5475 5474 
4 5500 5501 5476 5475 
4 5501 5502 5477 5476 
4 5502 5503 5478 5477 
4 5503 5504 5479 5478 
4 5505 5506 5481 5480 
4 5506 5507 5482 5481 
4 5507 5508 5483 5482 
4 5508 5509 5484 5483 
4 5509 5510 5485 5484 
4 5510 5511 5486 5485 
4 5511 5512 5487 5486 
4 5512 5513 5488 5487 
4 5513 5514 5489 5488 
4 5514 5515 5490 5489 
4 5515 5516 5491 5490 
4 5516 5517 5492 5491 
4 5518 5519 5495 5494 
4 5519 5520 5496 5495 
4 5520 5521 5497 5496 
4 5521 5522 5498 5497 
4 5522 5523 5499 5498 
4 5523 5524 5500 5499 
4 5524 5525 5501 5500 
4 5525 5526 5502 5501 
4 5526 5527 5503 5502 
4 5528 5529 5506 5505 
4 5529 5530 5507 5506 
4 5530 5531 5508 5507 
4 5531 5532 5509 5508 
4 5532 5533 5510 5509 
4 5533 5534 5511 5510 
4 5534 5535 5512 5511 
4 5535 5536 5513 5512 
4 5536 5537 5514 5513 
4 5537 5538 5515 5514 
4 5538 5539 5516 5515 
4 5539 5540 5517 5516 
4 5541 5542 5519 5518 
4 5542 5543 5520 5519 
4 5543 5544 5521 5520 
4 5544 5545 5522 5521 
4 5545 5546 5523 5522 
4 5546 5547 5524 5523 
4 5547 5548 5525 5524 
4 5548 5549 5526 5525 
4 5549 5550 5527 5526 
4 5551 5552 5529 5528 
4 5552 5553 5530 5529 
4 5553 5554 5531 5530 
4 5554 5555 5532 5531 
4 5555 5556 5533 5532 
4 5556 5557 5534 5533 
4 5557 5558 5535 5534 
4 5558 5559 5536 5535 
4 5559 5560 5537 5536 
4 5560 5561 5538 5537 
4 5561 5562 5539 5538 
4 5562 5563 5540 5539 
4 5564 5565 5542 5541 
4 5565 5566 5543 5542 
4 5566 5567 5544 5543 
4 5567 5568 5545 5544 
4 5568 5569 5546 5545 
4 5569 5570 5547 5546 
4 5570 5571 5548 5547 
4 5571 5572 5549 5548 
4 5572 5573 5550 5549 
4 5574 5575 5552 5551 
4 5575 5576 5553 5552 
4 5576 5577 5554 5553 
4 5577 5578 5555 5554 
4 5578 5579 5556 5555 
4 5579 5580 5557 5556 
4 5580 5581 5558 5557 
4 5581 5582 5559 5558 
4 5582 5583 5560 5559 
4 5583 5584 5561 5560 
4 5584 5585 5562 5561 
4 5585 5586 5563 5562 
4 5587 5588 5565 5564 
4 5588 5589 5566 5565 
4 5589 5590 5567 5566 
4 5590 5591 5568 5567 
4 5591 5592 5569 5568 
4 5592 5593 5570 5569 
4 5593 5594 5571 5570 
4 5594 5595 5572 5571 
4 5595 5596 5573 5572 
4 5597 5598 5575 5574 
4 5598 5599 5576 5575 
4 5599 5600 5577 5576 
4 5600 5601 5578 5577 
4 5601 5602 5579 5578 
4 5602 5603 5580 5579 
4 5603 5604 5581 5580 
4 5604 5605 5582 5581 
4 5605 5606 5583 5582 
4 5606 5607 5584 5583 
4 5607 5608 5585 5584 
4 5608 5609 5586 5585 
4 5610 5611 5588 5587 
4 5611 5612 5589 5588 
4 5612 5613 5590 5589 
4 5613 5614 5591 5590 
4 5614 5615 5592 5591 
4 5615 5616 5593 5592 
4 5616 5617 5594 5593 
4 5617 5618 5595 5594 
4 5618 5619 5596 5595 
4 5621 5622 5597 5620 
4 5622 5623 5598 5597 
4 5623 5624 5599 5598 
4 5624 5625 5600 5599 
4 5625 5626 5601 5600 
4 5626 5627 5602 5601 
4 5627 5628 5603 5602 
4 5628 5629 5604 5603 
4 5629 5630 5605 5604 
4 5630 5631 5606 5605 
4 5631 5632 5607 5606 
4 5632 5633 5608 5607 
4 5633 5634 5609 5608 
4 5635 5636 5611 5610 
4 5636 5637 5612 5611 
4 5637 5638 5613 5612 
4 5638 5639 5614 5613 
4 5639 5640 5615 5614 
4 5640 5641 5616 5615 
4 5641 5642 5617 5616 
4 5642 5643 5618 5617 
4 5643 5644 5619 5618 
4 5645 5646 5622 5621 
4 5646 5647 5623 5622 
4 5647 5648 5624 5623 
4 5648 5649 5625 5624 
4 5649 5650 5626 5625 
4 5650 5651 5627 5626 
4 5651 5652 5628 5627 
4 5652 5653 5629 5628 
4 5653 5654 5630 5629 
4 5654 5655 5631 5630 
4 5655 5656 5632 5631 
4 5656 5657 5633 5632 
4 5657 5658 5634 5633 
4 5659 5660 5636 5635 
4 5660 5661 5637 5636 
4 5661 5662 5638 5637 
4 5662 5663 5639 5638 
4 5663 5664 5640 5639 
4 5664 5665 5641 5640 
4 5665 5666 5642 5641 
4 5666 5667 5643 5642 
4 5667 5668 5644 5643 
4 5669 5670 5646 5645 
4 5670 5671 5647 5646 
4 5671 5672 5648 5647 
4 5672 5673 5649 5648 
4 5673 5674 5650 5649 
4 5674 5675 5651 5650 
4 5675 5676 5652 5651 
4 5676 5677 5653 5652 
4 5677 5678 5654 5653 
4 5678 5679 5655 5654 
4 5679 5680 5656 5655 
4 5680 5681 5657 5656 
4 5681 5682 5658 5657 
4 5683 5684 5660 5659 
4 5684 5685 5661 5660 
4 5685 5686 5662 5661 
4 5686 5687 5663 5662 
4 5687 5688 5664 5663 
4 5688 5689 5665 5664 
4 5689 5690 5666 5665 
4 5690 5691 5667 5666 
4 5691 5692 5668 5667 
4 5693 5694 5670 5669 
4 5694 5695 5671 5670 
4 5695 5696 5672 5671 
4 5696 5697 5673 5672 
4 5697 5698 5674 5673 
4 5698 5699 5675 5674 
4 5699 5700 5676 5675 
4 5700 5701 5677 5676 
4 5701 5702 5678 5677 
4 5702 5703 5679 5678 
4 5703 5704 5680 5679 
4 5704 5705 5681 5680 
4 5705 5706 5682 5681 
4 5707 5708 5684 5683 
4 5708 5709 5685 5684 
4 5709 5710 5686 5685 
4 5710 5711 5687 5686 
4 5711 5712 5688 5687 
4 5712 5713 5689 5688 
4 5713 5714 5690 5689 
4 5714 5715 5691 5690 
4 5715 5716 5692 5691 
4 5716 5717 5718 5692 
4 5719 5720 5694 5693 
4 5720 5721 5695 5694 
4 5721 5722 5696 5695 
4 5722 5723 5697 5696 
4 5723 5724 5698 5697 
4 5724 5725 5699 5698 
4 5725 5726 5700 5699 
4 5726 5727 5701 5700 
4 5727 5728 5702 5701 
4 5728 5729 5703 5702 
4 5729 5730 5704 5703 
4 5730 5731 5705 5704 
4 5731 5732 5706 5705 
4 5733 5734 5708 5707 
4 5734 5735 5709 5708 
4 5735 5736 5710 5709 
4 5736 5737 5711 5710 
4 5737 5738 5712 5711 
4 5738 5739 5713 5712 
4 5739 5740 5714 5713 
4 5740 5741 5715 5714 
4 5741 5742 5716 5715 
4 5742 5743 5717 5716 
4 5744 5745 5720 5719 
4 5745 5746 5721 5720 
4 5746 5747 5722 5721 
4 5747 5748 5723 5722 
4 5748 5749 5724 5723 
4 5749 5750 5725 5724 
4 5750 5751 5726 5725 
4 5751 5752 5727 5726 
4 5752 5753 5728 5727 
4 5753 5754 5729 5728 
4 5754 5755 5730 5729 
4 5755 5756 5731 5730 
4 5756 5757 5732 5731 
4 5758 5759 5734 5733 
4 5759 5760 5735 5734 
4 5760 5761 5736 5735 
4 5761 5762 5737 5736 
4 5762 5763 5738 5737 
4 5763 5764 5739 5738 
4 5764 5765 5740 5739 
4 5765 5766 5741 5740 
4 5766 5767 5742 5741 
4 5767 5768 5743 5742 
4 5770 5771 5744 5769 
4 5771 5772 5745 5744 
4 5772 5773 5746 5745 
4 5773 5774 5747 5746 
4 5774 5775 5748 5747 
4 5775 5776 5749 5748 
4 5776 5777 5750 5749 
4 5777 5778 5751 5750 
4 5778 5779 5752 5751 
4 5779 5780 5753 5752 
4 5780 5781 5754 5753 
4 5781 5782 5755 5754 
4 5782 5783 5756 5755 
4 5783 5784 5757 5756 
4 5785 5786 5759 5758 
4 5786 5787 5760 5759 
4 5787 5788 5761 5760 
4 5788 5789 5762 5761 
4 5789 5790 5763 5762 
4 5790 5791 5764 5763 
4 5791 5792 5765 5764 
4 5792 5793 5766 5765 
4 5793 5794 5767 5766 
4 5794 5795 5768 5767 
4 5796 5797 5771 5770 
4 5797 5798 5772 5771 
4 5798 5799 5773 5772 
4 5799 5800 5774 5773 
4 5800 5801 5775 5774 
4 5801 5802 5776 5775 
4 5802 5803 5777 5776 
4 5803 5804 5778 5777 
4 5804 5805 5779 5778 
4 5805 5806 5780 5779 
4 5806 5807 5781 5780 
4 5807 5808 5782 5781 
4 5808 5809 5783 5782 
4 5810 5811 5786 5785 
4 5811 5812 5787 5786 
4 5812 5813 5788 5787 
4 5813 5814 5789 5788 
4 5814 5815 5790 5789 
4 5815 5816 5791 5790 
4 5816 5817 5792 5791 
4 5817 5818 5793 5792 
4 5818 5819 5794 5793 
4 5819 5820 5795 5794 
4 5820 5821 5822 5795 
4 5823 5824 5797 5796 
4 5824 5825 5798 5797 
4 5825 5826 5799 5798 
4 5826 5827 5800 5799 
4 5827 5828 5801 5800 
4 5828 5829 5802 5801 
4 5829 5830 5803 5802 
4 5830 5831 5804 5803 
4 5831 5832 5805 5804 
4 5832 5833 5806 5805 
4 5833 5834 5807 5806 
4 5834 5835 5808 5807 
4 5835 5836 5809 5808 
4 5837 5838 5811 5810 
4 5838 5839 5812 5811 
4 5839 5840 5813 5812 
4 5840 5841 5814 5813 
4 5841 5842 5815 5814 
4 5842 5843 5816 5815 
4 5843 5844 5817 5816 
4 5844 5845 5818 5817 
4 5845 5846 5819 5818 
4 5846 5847 5820 5819 
4 5847 5848 5821 5820 
4 5849 5850 5824 5823 
4 5850 5851 5825 5824 
4 5851 5852 5826 5825 
4 5852 5853 5827 5826 
4 5853 5854 5828 5827 
4 5854 5855 5829 5828 
4 5855 5856 5830 5829 
4 5856 5857 5831 5830 
4 5857 5858 5832 5831 
4 5858 5859 5833 5832 
4 5859 5860 5834 5833 
4 5860 5861 5835 5834 
4 5861 5862 5836 5835 
4 5863 5864 5838 5837 
4 5864 5865 5839 5838 
4 5865 5866 5840 5839 
4 5866 5867 5841 5840 
4 5867 5868 5842 5841 
4 5868 5869 5843 5842 
4 5869 5870 5844 5843 
4 5870 5871 5845 5844 
4 5871 5872 5846 5845 
4 5872 5873 5847 5846 
4 5873 5874 5848 5847 
4 5874 5875 5876 5848 
4 5878 5879 5849 5877 
4 5879 5880 5850 5849 
4 5880 5881 5851 5850 
4 5881 5882 5852 5851 
4 5882 5883 5853 5852 
4 5883 5884 5854 5853 
4 5884 5885 5855 5854 
4 5885 5886 5856 5855 
4 5886 5887 5857 5856 
4 5887 5888 5858 5857 
4 5888 5889 5859 5858 
4 5889 5890 5860 5859 
4 5890 5891 5861 5860 
4 5891 5892 5862 5861 
4 5893 5894 5864 5863 
4 5894 5895 5865 5864 
4 5895 5896 5866 5865 
4 5896 5897 5867 5866 
4 5897 5898 5868 5867 
4 5898 5899 5869 5868 
4 5899 5900 5870 5869 
4 5900 5901 5871 5870 
4 5901 5902 5872 5871 
4 5902 5903 5873 5872 
4 5903 5904 5874 5873 
4 5904 5905 5875 5874 
4 5905 5906 5907 5875 
4 5908 5909 5879 5878 
4 5909 5910 5880 5879 
4 5910 5911 5881 5880 
4 5911 5912 5882 5881 
4 5912 5913 5883 5882 
4 5913 5914 5884 5883 
4 5914 5915 5885 5884 
4 5915 5916 5886 5885 
4 5916 5917 5887 5886 
4 5917 5918 5888 5887 
4 5918 5919 5889 5888 
4 5919 5920 5890 5889 
4 5920 5921 5891 5890 
4 5923 5924 5893 5922 
4 5924 5925 5894 5893 
4 5925 5926 5895 5894 
4 5926 5927 5896 5895 
4 5927 5928 5897 5896 
4 5928 5929 5898 5897 
4 5929 5930 5899 5898 
4 5930 5931 5900 5899 
4 5931 5932 5901 5900 
4 5932 5933 5902 5901 
4 5933 5934 5903 5902 
4 5934 5935 5904 5903 
4 5935 5936 5905 5904 
4 5936 5937 5906 5905 
4 5939 5940 5908 5938 
4 5940 5941 5909 5908 
4 5941 5942 5910 5909 
4 5942 5943 5911 5910 
4 5943 5944 5912 5911 
4 5944 5945 5913 5912 
4 5945 5946 5914 5913 
4 5946 5947 5915 5914 
4 5947 5948 5916 5915 
4 5948 5949 5917 5916 
4 5949 5950 5918 5917 
4 5950 5951 5919 5918 
4 5951 5952 5920 5919 
4 5952 5953 5921 5920 
4 5954 5955 5924 5923 
4 5955 5956 5925 5924 
4 5956 5957 5926 5925 
4 5957 5958 5927 5926 
4 5958 5959 5928 5927 
4 5959 5960 5929 5928 
4 5960 5961 5930 5929 
4 5961 5962 5931 5930 
4 5962 5963 5932 5931 
4 5963 5964 5933 5932 
4 5964 5965 5934 5933 
4 5965 5966 5935 5934 
4 5966 5967 5936 5935 
4 5967 5968 5937 5936 
4 5968 5969 5970 5937 
4 5972 5973 5939 5971 
4 5973 5974 5940 5939 
4 5974 5975 5941 5940 
4 5975 5976 5942 5941 
4 5976 5977 5943 5942 
4 5977 5978 5944 5943 
4 5978 5979 5945 5944 
4 5979 5980 5946 5945 
4 5980 5981 5947 5946 
4 5981 5982 5948 5947 
4 5982 5983 5949 5948 
4 5983 5984 5950 5949 
4 5984 5985 5951 5950 
4 5985 5986 5952 5951 
4 5986 5987 5953 5952 
4 5988 5989 5955 5954 
4 5989 5990 5956 5955 
4 5990 5991 5957 5956 
4 5991 5992 5958 5957 
4 5992 5993 5959 5958 
4 5993 5994 5960 5959 
4 5994 5995 5961 5960 
4 5995 5996 5962 5961 
4 5996 5997 5963 5962 
4 5997 5998 5964 5963 
4 5998 5999 5965 5964 
4 5999 6000 5966 5965 
4 6000 6001 5967 5966 
4 6001 6002 5968 5967 
4 6002 6003 5969 5968 
4 6003 6004 6005 5969 
4 6004 6006 6007 6005 
4 6009 6010 5972 6008 
4 6010 6011 5973 5972 
4 6011 6012 5974 5973 
4 6012 6013 5975 5974 
4 6013 6014 5976 5975 
4 6014 6015 5977 5976 
4 6015 6016 5978 5977 
4 6016 6017 5979 5978 
4 6017 6018 5980 5979 
4 6018 6019 5981 5980 
4 6019 6020 5982 5981 
4 6020 6021 5983 5982 
4 6021 6022 5984 5983 
4 6022 6023 5985 5984 
4 6023 6024 5986 5985 
4 6024 6025 5987 5986 
4 6026 6027 5989 5988 
4 6027 6028 5990 5989 
4 6028 6029 5991 5990 
4 6029 6030 5992 5991 
4 6030 6031 5993 5992 
4 6031 6032 5994 5993 
4 6032 6033 5995 5994 
4 6033 6034 5996 5995 
4 6034 6035 5997 5996 
4 6035 6036 5998 5997 
4 6036 6037 5999 5998 
4 6037 6038 6000 5999 
4 6038 6039 6001 6000 
4 6039 6040 6002 6001 
4 6040 6041 6003 6002 
4 6041 6042 6004 6003 
4 6042 6043 6006 6004 
4 6043 6044 6045 6006 
4 6044 6046 6047 6045 
4 6049 6050 6009 6048 
4 6050 6051 6010 6009 
4 6051 6052 6011 6010 
4 6052 6053 6012 6011 
4 6053 6054 6013 6012 
4 6054 6055 6014 6013 
4 6055 6056 6015 6014 
4 6056 6057 6016 6015 
4 6057 6058 6017 6016 
4 6058 6059 6018 6017 
4 6059 6060 6019 6018 
4 6060 6061 6020 6019 
4 6061 6062 6021 6020 
4 6062 6063 6022 6021 
4 6063 6064 6023 6022 
4 6064 6065 6024 6023 
4 6065 6066 6025 6024 
4 6067 6068 6027 6026 
4 6068 6069 6028 6027 
4 6069 6070 6029 6028 
4 6070 6071 6030 6029 
4 6071 6072 6031 6030 
4 6072 6073 6032 6031 
4 6073 6074 6033 6032 
4 6074 6075 6034 6033 
4 6075 6076 6035 6034 
4 6076 6077 6036 6035 
4 6077 6078 6037 6036 
4 6078 6079 6038 6037 
4 6079 6080 6039 6038 
4 6080 6081 6040 6039 
4 6081 6082 6041 6040 
4 6082 6083 6042 6041 
4 6083 6084 6043 6042 
4 6084 6085 6044 6043 
4 6085 6086 6046 6044 
4 6086 6087 6088 6046 
4 6087 6089 6090 6088 
4 6089 6091 6092 6090 
4 6091 6093 6094 6092 
4 6093 6095 6096 6094 
4 6098 6099 6100 6097 
4 6099 6101 6049 6100 
4 6101 6102 6050 6049 
4 6102 6103 6051 6050 
4 6103 6104 6052 6051 
4 6104 6105 6053 6052 
4 6105 6106 6054 6053 
4 6106 6107 6055 6054 
4 6107 6108 6056 6055 
4 6108 6109 6057 6056 
4 6109 6110 6058 6057 
4 6110 6111 6059 6058 
4 6111 6112 6060 6059 
4 6112 6113 6061 6060 
4 6113 6114 6062 6061 
4 6114 6115 6063 6062 
4 6115 6116 6064 6063 
4 6116 6117 6065 6064 
4 6117 6118 6066 6065 
4 6120 6121 6067 6119 
4 6121 6122 6068 6067 
4 6122 6123 6069 6068 
4 6123 6124 6070 6069 
4 6124 6125 6071 6070 
4 6125 6126 6072 6071 
4 6126 6127 6073 6072 
4 6127 6128 6074 6073 
4 6128 6129 6075 6074 
4 6129 6130 6076 6075 
4 6130 6131 6077 6076 
4 6131 6132 6078 6077 
4 6132 6133 6079 6078 
4 6133 6134 6080 6079 
4 6134 6135 6081 6080 
4 6135 6136 6082 6081 
4 6136 6137 6083 6082 
4 6137 6138 6084 6083 
4 6138 6139 6085 6084 
4 6139 6140 6086 6085 
4 6140 6141 6087 6086 
4 6141 6142 6089 6087 
4 6142 6143 6091 6089 
4 6143 6144 6093 6091 
4 6144 6145 6095 6093 
4 6145 6146 6147 6095 
4 6146 6148 6149 6147 
4 6148 6150 6151 6149 
4 6150 6152 6153 6151 
4 6152 6154 6155 6153 
4 6154 6156 6157 6155 
4 6156 6158 6159 6157 
4 6158 6160 6161 6159 
4 6160 6162 6163 6161 
4 6162 6164 6165 6163 
4 6164 6166 6167 6165 
4 6166 6168 6098 6167 
4 6168 6169 6099 6098 
4 6169 6170 6101 6099 
4 6170 6171 6102 6101 
4 6171 6172 6103 6102 
4 6172 6173 6104 6103 
4 6173 6174 6105 6104 
4 6174 6175 6106 6105 
4 6175 6176 6107 6106 
4 6176 6177 6108 6107 
4 6177 6178 6109 6108 
4 6178 6179 6110 6109 
4 6179 6180 6111 6110 
4 6180 6181 6112 6111 
4 6181 6182 6113 6112 
4 6182 6183 6114 6113 
4 6183 6184 6115 6114 
4 6184 6185 6116 6115 
4 6185 6186 6117 6116 
4 6186 6187 6118 6117 
4 6188 6189 6121 6120 
4 6189 6190 6122 6121 
4 6190 6191 6123 6122 
4 6191 6192 6124 6123 
4 6192 6193 6125 6124 
4 6193 6194 6126 6125 
4 6194 6195 6127 6126 
4 6195 6196 6128 6127 
4 6196 6197 6129 6128 
4 6197 6198 6130 6129 
4 6198 6199 6131 6130 
4 6199 6200 6132 6131 
4 6200 6201 6133 6132 
4 6201 6202 6134 6133 
4 6202 6203 6135 6134 
4 6203 6204 6136 6135 
4 6204 6205 6137 6136 
4 6205 6206 6138 6137 
4 6206 6207 6139 6138 
4 6207 6208 6140 6139 
4 6208 6209 6141 6140 
4 6209 6210 6142 6141 
4 6210 6211 6143 6142 
4 6211 6212 6144 6143 
4 6212 6213 6145 6144 
4 6213 6214 6146 6145 
4 6214 6215 6148 6146 
4 6215 6216 6150 6148 
4 6216 6217 6152 6150 
4 6217 6218 6154 6152 
4 6218 6219 6156 6154 
4 6219 6220 6158 6156 
4 6220 6221 6160 6158 
4 6221 6222 6162 6160 
4 6222 6223 6164 6162 
4 6223 6224 6166 6164 
4 6224 6225 6168 6166 
4 6225 6226 6169 6168 
4 6226 6227 6170 6169 
4 6227 6228 6171 6170 
4 6228 6229 6172 6171 
4 6229 6230 6173 6172 
4 6230 6231 6174 6173 
4 6231 6232 6175 6174 
4 6232 6233 6176 6175 
4 6233 6234 6177 6176 
4 6234 6235 6178 6177 
4 6235 6236 6179 6178 
4 6236 6237 6180 6179 
4 6237 6238 6181 6180 
4 6238 6239 6182 6181 
4 6239 6240 6183 6182 
4 6240 6241 6184 6183 
4 6241 6242 6185 6184 
4 6242 6243 6186 6185 
4 6243 6244 6187 6186 
4 6245 6246 6189 6188 
4 6246 6247 6190 6189 
4 6247 6248 6191 6190 
4 6248 6249 6192 6191 
4 6249 6250 6193 6192 
4 6250 6251 6194 6193 
4 6251 6252 6195 6194 
4 6252 6253 6196 6195 
4 6253 6254 6197 6196 
4 6254 6255 6198 6197 
4 6255 6256 6199 6198 
4 6256 6257 6200 6199 
4 6257 6258 6201 6200 
4 6258 6259 6202 6201 
4 6259 6260 6203 6202 
4 6260 6261 6204 6203 
4 6261 6262 6205 6204 
4 6262 6263 6206 6205 
4 6263 6264 6207 6206 
4 6264 6265 6208 6207 
4 6265 6266 6209 6208 
4 6266 6267 6210 6209 
4 6267 6268 6211 6210 
4 6268 6269 6212 6211 
4 6269 6270 6213 6212 
4 6270 6271 6214 6213 
4 6271 6272 6215 6214 
4 6272 6273 6216 6215 
4 6273 6274 6217 6216 
4 6274 6275 6218 6217 
4 6275 6276 6219 6218 
4 6276 6277 6220 6219 
4 6277 6278 6221 6220 
4 6278 6279 6222 6221 
4 6279 6280 6223 6222 
4 6280 6281 6224 6223 
4 6281 6282 6225 6224 
4 6282 6283 6226 6225 
4 6283 6284 6227 6226 
4 6284 6285 6228 6227 
4 6285 6286 6229 6228 
4 6286 6287 6230 6229 
4 6287 6288 6231 6230 
4 6288 6289 6232 6231 
4 6289 6290 6233 6232 
4 6290 6291 6234 6233 
4 6291 6292 6235 6234 
4 6292 6293 6236 6235 
4 6293 6294 6237 6236 
4 6294 6295 6238 6237 
4 6295 6296 6239 6238 
4 6296 6297 6240 6239 
4 6297 6298 6241 6240 
4 6298 6299 6242 6241 
4 6299 6300 6243 6242 
4 6300 6301 6244 6243 
4 6301 6302 6303 6244 
4 6304 6305 6246 6245 
4 6305 6306 6247 6246 
4 6306 6307 6248 6247 
4 6307 6308 6249 6248 
4 6308 6309 6250 6249 
4 6309 6310 6251 6250 
4 6310 6311 6252 6251 
4 6311 6312 6253 6252 
4 6312 6313 6254 6253 
4 6313 6314 6255 6254 
4 6314 6315 6256 6255 
4 6315 6316 6257 6256 
4 6316 6317 6258 6257 
4 6317 6318 6259 6258 
4 6318 6319 6260 6259 
4 6319 6320 6261 6260 
4 6320 6321 6262 6261 
4 6321 6322 6263 6262 
4 6322 6323 6264 6263 
4 6323 6324 6265 6264 
4 6324 6325 6266 6265 
4 6325 6326 6267 6266 
4 6326 6327 6268 6267 
4 6327 6328 6269 6268 
4 6328 6329 6270 6269 
4 6329 6330 6271 6270 
4 6330 6331 6272 6271 
4 6331 6332 6273 6272 
4 6332 6333 6274 6273 
4 6333 6334 6275 6274 
4 6334 6335 6276 6275 
4 6335 6336 6277 6276 
4 6336 6337 6278 6277 
4 6337 6338 6279 6278 
4 6338 6339 6280 6279 
4 6339 6340 6281 6280 
4 6340 6341 6282 6281 
4 6341 6342 6283 6282 
4 6342 6343 6284 6283 
4 6343 6344 6285 6284 
4 6344 6345 6286 6285 
4 6345 6346 6287 6286 
4 6346 6347 6288 6287 
4 6347 6348 6289 6288 
4 6348 6349 6290 6289 
4 6349 6350 6291 6290 
4 6350 6351 6292 6291 
4 6351 6352 6293 6292 
4 6352 6353 6294 6293 
4 6353 6354 6295 6294 
4 6354 6355 6296 6295 
4 6355 6356 6297 6296 
4 6356 6357 6298 6297 
4 6357 6358 6299 6298 
4 6358 6359 6300 6299 
4 6359 6360 6301 6300 
4 6360 6361 6302 6301 
4 6362 6363 6305 6304 
4 6363 6364 6306 6305 
4 6364 6365 6307 6306 
4 6365 6366 6308 6307 
4 6366 6367 6309 6308 
4 6367 6368 6310 6309 
4 6368 6369 6311 6310 
4 6369 6370 6312 6311 
4 6370 6371 6313 6312 
4 6371 6372 6314 6313 
4 6372 6373 6315 6314 
4 6373 6374 6316 6315 
4 6374 6375 6317 6316 
4 6375 6376 6318 6317 
4 6376 6377 6319 6318 
4 6377 6378 6320 6319 
4 6378 6379 6321 6320 
4 6379 6380 6322 6321 
4 6380 6381 6323 6322 
4 6381 6382 6324 6323 
4 6382 6383 6325 6324 
4 6383 6384 6326 6325 
4 6384 6385 6327 6326 
4 6385 6386 6328 6327 
4 6386 6387 6329 6328 
4 6387 6388 6330 6329 
4 6388 6389 6331 6330 
4 6389 6390 6332 6331 
4 6390 6391 6333 6332 
4 6391 6392 6334 6333 
4 6392 6393 6335 6334 
4 6393 6394 6336 6335 
4 6394 6395 6337 6336 
4 6395 6396 6338 6337 
4 6396 6397 6339 6338 
4 6397 6398 6340 6339 
4 6398 6399 6341 6340 
4 6399 6400 6342 6341 
4 6400 6401 6343 6342 
4 6401 6402 6344 6343 
4 6402 6403 6345 6344 
4 6403 6404 6346 6345 
4 6404 6405 6347 6346 
4 6405 6406 6348 6347 
4 6406 6407 6349 6348 
4 6407 6408 6350 6349 
4 6408 6409 6351 6350 
4 6409 6410 6352 6351 
4 6410 6411 6353 6352 
4 6411 6412 6354 6353 
4 6412 6413 6355 6354 
4 6413 6414 6356 6355 
4 6414 6415 6357 6356 
4 6415 6416 6358 6357 
4 6416 6417 6359 6358 
4 6417 6418 6360 6359 
4 6418 6419 6361 6360 
4 6420 6421 6363 6362 
4 6421 6422 6364 6363 
4 6422 6423 6365 6364 
4 6423 6424 6366 6365 
4 6424 6425 6367 6366 
4 6425 6426 6368 6367 
4 6426 6427 6369 6368 
4 6427 6428 6370 6369 
4 6428 6429 6371 6370 
4 6429 6430 6372 6371 
4 6430 6431 6373 6372 
4 6431 6432 6374 6373 
4 6432 6433 6375 6374 
4 6433 6434 6376 6375 
4 6434 6435 6377 6376 
4 6435 6436 6378 6377 
4 6436 6437 6379 6378 
4 6437 6438 6380 6379 
4 6438 6439 6381 6380 
4 6439 6440 6382 6381 
4 6440 6441 6383 6382 
4 6441 6442 6384 6383 
4 6442 6443 6385 6384 
4 6443 6444 6386 6385 
4 6444 6445 6387 6386 
4 6445 6446 6388 6387 
4 6446 6447 6389 6388 
4 6447 6448 6390 6389 
4 6449 6450 6395 6394 
4 6450 6451 6396 6395 
4 6451 6452 6397 6396 
4 6452 6453 6398 6397 
4 6453 6454 6399 6398 
4 6454 6455 6400 6399 
4 6455 6456 6401 6400 
4 6456 6457 6402 6401 
4 6457 6458 6403 6402 
4 6458 6459 6404 6403 
4 6459 6460 6405 6404 
4 6460 6461 6406 6405 
4 6461 6462 6407 6406 
4 6462 6463 6408 6407 
4 6463 6464 6409 6408 
4 6464 6465 6410 6409 
4 6465 6466 6411 6410 
4 6466 6467 6412 6411 
4 6467 6468 6413 6412 
4 6468 6469 6414 6413 
4 6469 6470 6415 6414 
4 6470 6471 6416 6415 
4 6471 6472 6417 6416 
4 6472 6473 6418 6417 
4 6474 6475 6421 6420 
4 6475 6476 6422 6421 
4 6476 6477 6423 6422 
4 6477 6478 6424 6423 
4 6478 6479 6425 6424 
4 6479 6480 6426 6425 
4 6480 6481 6427 6426 
4 6481 6482 6428 6427 
4 6482 6483 6429 6428 
4 6483 6484 6430 6429 
4 6484 6485 6431 6430 
4 6485 6486 6432 6431 
4 6486 6487 6433 6432 
4 6487 6488 6434 6433 
4 6488 6489 6435 6434 
4 6489 6490 6436 6435 
4 6490 6491 6437 6436 
4 6491 6492 6438 6437 
4 6492 6493 6439 6438 
4 6493 6494 6440 6439 
4 6494 6495 6441 6440 
4 6495 6496 6442 6441 
4 6496 6497 6443 6442 
4 6497 6498 6444 6443 
4 6498 6499 6445 6444 
4 6500 6501 6452 6451 
4 6501 6502 6453 6452 
4 6502 6503 6454 6453 
4 6503 6504 6455 6454 
4 6504 6505 6456 6455 
4 6505 6506 6457 6456 
4 6506 6507 6458 6457 
4 6507 6508 6459 6458 
4 6508 6509 6460 6459 
4 6509 6510 6461 6460 
4 6510 6511 6462 6461 
4 6511 6512 6463 6462 
4 6512 6513 6464 6463 
4 6513 6514 6465 6464 
4 6514 6515 6466 6465 
4 6515 6516 6467 6466 
4 6516 6517 6468 6467 
4 6517 6518 6469 6468 
4 6518 6519 6470 6469 
4 6519 6520 6471 6470 
4 6520 6521 6472 6471 
4 6521 6522 6473 6472 
4 6523 6524 6475 6474 
4 6524 6525 6476 6475 
4 6525 6526 6477 6476 
4 6526 6527 6478 6477 
4 6527 6528 6479 6478 
4 6528 6529 6480 6479 
4 6529 6530 6481 6480 
4 6530 6531 6482 6481 
4 6531 6532 6483 6482 
4 6532 6533 6484 6483 
4 6533 6534 6485 6484 
4 6534 6535 6486 6485 
4 6535 6536 6487 6486 
4 6536 6537 6488 6487 
4 6537 6538 6489 6488 
4 6538 6539 6490 6489 
4 6539 6540 6491 6490 
4 6540 6541 6492 6491 
4 6541 6542 6493 6492 
4 6542 6543 6494 6493 
4 6543 6544 6495 6494 
4 6544 6545 6496 6495 
4 6545 6546 6497 6496 
4 6546 6547 6498 6497 
4 6548 6549 6502 6501 
4 6549 6550 6503 6502 
4 6550 6551 6504 6503 
4 6551 6552 6505 6504 
4 6552 6553 6506 6505 
4 6553 6554 6507 6506 
4 6554 6555 6508 6507 
4 6555 6556 6509 6508 
4 6556 6557 6510 6509 
4 6557 6558 6511 6510 
4 6558 6559 6512 6511 
4 6559 6560 6513 6512 
4 6560 6561 6514 6513 
4 6561 6562 6515 6514 
4 6562 6563 6516 6515 
4 6563 6564 6517 6516 
4 6564 6565 6518 6517 
4 6565 6566 6519 6518 
4 6566 6567 6520 6519 
4 6567 6568 6521 6520 
4 6568 6569 6522 6521 
4 6570 6571 6524 6523 
4 6571 6572 6525 6524 
4 6572 6573 6526 6525 
4 6573 6574 6527 6526 
4 6574 6575 6528 6527 
4 6575 6576 6529 6528 
4 6576 6577 6530 6529 
4 6577 6578 6531 6530 
4 6578 6579 6532 6531 
4 6579 6580 6533 6532 
4 6580 6581 6534 6533 
4 6581 6582 6535 6534 
4 6582 6583 6536 6535 
4 6583 6584 6537 6536 
4 6584 6585 6538 6537 
4 6585 6586 6539 6538 
4 6586 6587 6540 6539 
4 6587 6588 6541 6540 
4 6588 6589 6542 6541 
4 6589 6590 6543 6542 
4 6590 6591 6544 6543 
4 6591 6592 6545 6544 
4 6592 6593 6546 6545 
4 6593 6594 6547 6546 
4 6595 6596 6550 6549 
4 6596 6597 6551 6550 
4 6597 6598 6552 6551 
4 6598 6599 6553 6552 
4 6599 6600 6554 6553 
4 6600 6601 6555 6554 
4 6601 6602 6556 6555 
4 6602 6603 6557 6556 
4 6603 6604 6558 6557 
4 6604 6605 6559 6558 
4 6605 6606 6560 6559 
4 6606 6607 6561 6560 
4 6607 6608 6562 6561 
4 6608 6609 6563 6562 
4 6609 6610 6564 6563 
4 6610 6611 6565 6564 
4 6611 6612 6566 6565 
4 6612 6613 6567 6566 
4 6613 6614 6568 6567 
4 6614 6615 6569 6568 
4 6616 6617 6571 6570 
4 6617 6618 6572 6571 
4 6618 6619 6573 6572 
4 6619 6620 6574 6573 
4 6620 6621 6575 6574 
4 6621 6622 6576 6575 
4 6622 6623 6577 6576 
4 6623 6624 6578 6577 
4 6624 6625 6579 6578 
4 6625 6626 6580 6579 
4 6626 6627 6581 6580 
4 6627 6628 6582 6581 
4 6628 6629 6583 6582 
4 6629 6630 6584 6583 
4 6630 6631 6585 6584 
4 6631 6632 6586 6585 
4 6632 6633 6587 6586 
4 6633 6634 6588 6587 
4 6634 6635 6589 6588 
4 6635 6636 6590 6589 
4 6636 6637 6591 6590 
4 6637 6638 6592 6591 
4 6638 6639 6593 6592 
4 6639 6640 6594 6593 
4 6641 6642 6597 6596 
4 6642 6643 6598 6597 
4 6643 6644 6599 6598 
4 6644 6645 6600 6599 
4 6645 6646 6601 6600 
4 6646 6647 6602 6601 
4 6647 6648 6603 6602 
4 6648 6649 6604 6603 
4 6649 6650 6605 6604 
4 6650 6651 6606 6605 
4 6651 6652 6607 6606 
4 6652 6653 6608 6607 
4 6653 6654 6609 6608 
4 6654 6655 6610 6609 
4 6655 6656 6611 6610 
4 6656 6657 6612 6611 
4 6657 6658 6613 6612 
4 6658 6659 6614 6613 
4 6659 6660 6615 6614 
4 6661 6662 6617 6616 
4 6662 6663 6618 6617 
4 6663 6664 6619 6618 
4 6664 6665 6620 6619 
4 6665 6666 6621 6620 
4 6666 6667 6622 6621 
4 6667 6668 6623 6622 
4 6668 6669 6624 6623 
4 6669 6670 6625 6624 
4 6670 6671 6626 6625 
4 6671 6672 6627 6626 
4 6672 6673 6628 6627 
4 6673 6674 6629 6628 
4 6674 6675 6630 6629 
4 6675 6676 6631 6630 
4 6676 6677 6632 6631 
4 6677 6678 6633 6632 
4 6678 6679 6634 6633 
4 6679 6680 6635 6634 
4 6680 6681 6636 6635 
4 6681 6682 6637 6636 
4 6682 6683 6638 6637 
4 6683 6684 6639 6638 
4 6684 6685 6640 6639 
4 6686 6687 6642 6641 
4 6687 6688 6643 6642 
4 6688 6689 6644 6643 
4 6689 6690 6645 6644 
4 6690 6691 6646 6645 
4 6691 6692 6647 6646 
4 6692 6693 6648 6647 
4 6693 6694 6649 6648 
4 6694 6695 6650 6649 
4 6695 6696 6651 6650 
4 6696 6697 6652 6651 
4 6697 6698 6653 6652 
4 6698 6699 6654 6653 
4 6699 6700 6655 6654 
4 6700 6701 6656 6655 
4 6701 6702 6657 6656 
4 6702 6703 6658 6657 
4 6703 6704 6659 6658 
4 6704 6705 6660 6659 
4 6706 6707 6662 6661 
4 6707 6708 6663 6662 
4 6708 6709 6664 6663 
4 6709 6710 6665 6664 
4 6710 6711 6666 6665 
4 6711 6712 6667 6666 
4 6712 6713 6668 6667 
4 6713 6714 6669 6668 
4 6714 6715 6670 6669 
4 6715 6716 6671 6670 
4 6716 6717 6672 6671 
4 6717 6718 6673 6672 
4 6718 6719 6674 6673 
4 6719 6720 6675 6674 
4 6720 6721 6676 6675 
4 6721 6722 6677 6676 
4 6722 6723 6678 6677 
4 6723 6724 6679 6678 
4 6724 6725 6680 6679 
4 6725 6726 6681 6680 
4 6726 6727 6682 6681 
4 6727 6728 6683 6682 
4 6728 6729 6684 6683 
4 6729 6730 6685 6684 
4 6732 6733 6686 6731 
4 6733 6734 6687 6686 
4 6734 6735 6688 6687 
4 6735 6736 6689 6688 
4 6736 6737 6690 6689 
4 6737 6738 6691 6690 
4 6738 6739 6692 6691 
4 6739 6740 6693 6692 
4 6740 6741 6694 6693 
4 6741 6742 6695 6694 
4 6742 6743 6696 6695 
4 6743 6744 6697 6696 
4 6744 6745 6698 6697 
4 6745 6746 6699 6698 
4 6746 6747 6700 6699 
4 6747 6748 6701 6700 
4 6748 6749 6702 6701 
4 6749 6750 6703 6702 
4 6750 6751 6704 6703 
4 6751 6752 6705 6704 
4 6753 6754 6707 6706 
4 6754 6755 6708 6707 
4 6755 6756 6709 6708 
4 6756 6757 6710 6709 
4 6757 6758 6711 6710 
4 6758 6759 6712 6711 
4 6759 6760 6713 6712 
4 6760 6761 6714 6713 
4 6761 6762 6715 6714 
4 6762 6763 6716 6715 
4 6763 6764 6717 6716 
4 6764 6765 6718 6717 
4 6765 6766 6719 6718 
4 6766 6767 6720 6719 
4 6767 6768 6721 6720 
4 6768 6769 6722 6721 
4 6769 6770 6723 6722 
4 6770 6771 6724 6723 
4 6771 6772 6725 6724 
4 6772 6773 6726 6725 
4 6773 6774 6727 6726 
4 6774 6775 6728 6727 
4 6775 6776 6729 6728 
4 6776 6777 6730 6729 
4 6777 6778 6779 6730 
4 6780 6781 6733 6732 
4 6781 6782 6734 6733 
4 6782 6783 6735 6734 
4 6783 6784 6736 6735 
4 6784 6785 6737 6736 
4 6785 6786 6738 6737 
4 6786 6787 6739 6738 
4 6787 6788 6740 6739 
4 6788 6789 6741 6740 
4 6789 6790 6742 6741 
4 6790 6791 6743 6742 
4 6791 6792 6744 6743 
4 6792 6793 6745 6744 
4 6793 6794 6746 6745 
4 6794 6795 6747 6746 
4 6795 6796 6748 6747 
4 6796 6797 6749 6748 
4 6797 6798 6750 6749 
4 6798 6799 6751 6750 
4 6799 6800 6752 6751 
4 6801 6802 6754 6753 
4 6802 6803 6755 6754 
4 6803 6804 6756 6755 
4 6804 6805 6757 6756 
4 6805 6806 6758 6757 
4 6806 6807 6759 6758 
4 6807 6808 6760 6759 
4 6808 6809 6761 6760 
4 6809 6810 6762 6761 
4 6810 6811 6763 6762 
4 6811 6812 6764 6763 
4 6812 6813 6765 6764 
4 6813 6814 6766 6765 
4 6814 6815 6767 6766 
4 6815 6816 6768 6767 
4 6816 6817 6769 6768 
4 6817 6818 6770 6769 
4 6818 6819 6771 6770 
4 6819 6820 6772 6771 
4 6820 6821 6773 6772 
4 6821 6822 6774 6773 
4 6822 6823 6775 6774 
4 6823 6824 6776 6775 
4 6824 6825 6777 6776 
4 6825 6826 6778 6777 
4 6826 6827 6828 6778 
4 6829 6830 6781 6780 
4 6830 6831 6782 6781 
4 6831 6832 6783 6782 
4 6832 6833 6784 6783 
4 6833 6834 6785 6784 
4 6834 6835 6786 6785 
4 6835 6836 6787 6786 
4 6836 6837 6788 6787 
4 6837 6838 6789 6788 
4 6838 6839 6790 6789 
4 6839 6840 6791 6790 
4 6840 6841 6792 6791 
4 6841 6842 6793 6792 
4 6842 6843 6794 6793 
4 6843 6844 6795 6794 
4 6844 6845 6796 6795 
4 6845 6846 6797 6796 
4 6846 6847 6798 6797 
4 6847 6848 6799 6798 
4 6849 6850 6802 6801 
4 6850 6851 6803 6802 
4 6851 6852 6804 6803 
4 6852 6853 6805 6804 
4 6853 6854 6806 6805 
4 6854 6855 6807 6806 
4 6855 6856 6808 6807 
4 6856 6857 6809 6808 
4 6857 6858 6810 6809 
4 6858 6859 6811 6810 
4 6859 6860 6812 6811 
4 6860 6861 6813 6812 
4 6861 6862 6814 6813 
4 6862 6863 6815 6814 
4 6863 6864 6816 6815 
4 6864 6865 6817 6816 
4 6865 6866 6818 6817 
4 6866 6867 6819 6818 
4 6867 6868 6820 6819 
4 6868 6869 6821 6820 
4 6869 6870 6822 6821 
4 6870 6871 6823 6822 
4 6871 6872 6824 6823 
4 6872 6873 6825 6824 
4 6873 6874 6826 6825 
4 6874 6875 6827 6826 
4 6875 6876 6877 6827 
4 6879 6880 6829 6878 
4 6880 6881 6830 6829 
4 6881 6882 6831 6830 
4 6882 6883 6832 6831 
4 6883 6884 6833 6832 
4 6884 6885 6834 6833 
4 6885 6886 6835 6834 
4 6886 6887 6836 6835 
4 6887 6888 6837 6836 
4 6888 6889 6838 6837 
4 6889 6890 6839 6838 
4 6890 6891 6840 6839 
4 6891 6892 6841 6840 
4 6892 6893 6842 6841 
4 6893 6894 6843 6842 
4 6894 6895 6844 6843 
4 6895 6896 6845 6844 
4 6896 6897 6846 6845 
4 6897 6898 6847 6846 
4 6899 6900 6850 6849 
4 6900 6901 6851 6850 
4 6901 6902 6852 6851 
4 6902 6903 6853 6852 
4 6903 6904 6854 6853 
4 6904 6905 6855 6854 
4 6905 6906 6856 6855 
4 6906 6907 6857 6856 
4 6907 6908 6858 6857 
4 6908 6909 6859 6858 
4 6909 6910 6860 6859 
4 6910 6911 6861 6860 
4 6911 6912 6862 6861 
4 6912 6913 6863 6862 
4 6913 6914 6864 6863 
4 6914 6915 6865 6864 
4 6915 6916 6866 6865 
4 6916 6917 6867 6866 
4 6917 6918 6868 6867 
4 6918 6919 6869 6868 
4 6919 6920 6870 6869 
4 6920 6921 6871 6870 
4 6921 6922 6872 6871 
4 6922 6923 6873 6872 
4 6923 6924 6874 6873 
4 6924 6925 6875 6874 
4 6925 6926 6876 6875 
4 6926 6927 6928 6876 
4 6929 6930 6880 6879 
4 6930 6931 6881 6880 
4 6931 6932 6882 6881 
4 6932 6933 6883 6882 
4 6933 6934 6884 6883 
4 6934 6935 6885 6884 
4 6935 6936 6886 6885 
4 6936 6937 6887 6886 
4 6937 6938 6888 6887 
4 6938 6939 6889 6888 
4 6939 6940 6890 6889 
4 6940 6941 6891 6890 
4 6941 6942 6892 6891 
4 6942 6943 6893 6892 
4 6943 6944 6894 6893 
4 6944 6945 6895 6894 
4 6945 6946 6896 6895 
4 6946 6947 6897 6896 
4 6947 6948 6898 6897 
4 6949 6950 6900 6899 
4 6950 6951 6901 6900 
4 6951 6952 6902 6901 
4 6952 6953 6903 6902 
4 6953 6954 6904 6903 
4 6954 6955 6905 6904 
4 6955 6956 6906 6905 
4 6956 6957 6907 6906 
4 6957 6958 6908 6907 
4 6958 6959 6909 6908 
4 6959 6960 6910 6909 
4 6960 6961 6911 6910 
4 6961 6962 6912 6911 
4 6962 6963 6913 6912 
4 6963 6964 6914 6913 
4 6964 6965 6915 6914 
4 6965 6966 6916 6915 
4 6966 6967 6917 6916 
4 6967 6968 6918 6917 
4 6968 6969 6919 6918 
4 6969 6970 6920 6919 
4 6970 6971 6921 6920 
4 6971 6972 6922 6921 
4 6972 6973 6923 6922 
4 6973 6974 6924 6923 
4 6974 6975 6925 6924 
4 6975 6976 6926 6925 
4 6976 6977 6927 6926 
4 6977 6978 6979 6927 
4 6981 6982 6929 6980 
4 6982 6983 6930 6929 
4 6983 6984 6931 6930 
4 6984 6985 6932 6931 
4 6985 6986 6933 6932 
4 6986 6987 6934 6933 
4 6987 6988 6935 6934 
4 6988 6989 6936 6935 
4 6989 6990 6937 6936 
4 6990 6991 6938 6937 
4 6991 6992 6939 6938 
4 6992 6993 6940 6939 
4 6993 6994 6941 6940 
4 6994 6995 6942 6941 
4 6995 6996 6943 6942 
4 6996 6997 6944 6943 
4 6997 6998 6945 6944 
4 6998 6999 6946 6945 
4 6999 7000 6947 6946 
4 7001 7002 6950 6949 
4 7002 7003 6951 6950 
4 7003 7004 6952 6951 
4 7004 7005 6953 6952 
4 7005 7006 6954 6953 
4 7006 7007 6955 6954 
4 7007 7008 6956 6955 
4 7008 7009 6957 6956 
4 7009 7010 6958 6957 
4 7010 7011 6959 6958 
4 7011 7012 6960 6959 
4 7012 7013 6961 6960 
4 7013 7014 6962 6961 
4 7014 7015 6963 6962 
4 7015 7016 6964 6963 
4 7016 7017 6965 6964 
4 7017 7018 6966 6965 
4 7018 7019 6967 6966 
4 7019 7020 6968 6967 
4 7020 7021 6969 6968 
4 7021 7022 6970 6969 
4 7022 7023 6971 6970 
4 7023 7024 6972 6971 
4 7024 7025 6973 6972 
4 7025 7026 6974 6973 
4 7026 7027 6975 6974 
4 7027 7028 6976 6975 
4 7028 7029 6977 6976 
4 7029 7030 6978 6977 
4 7030 7031 7032 6978 
4 7031 7033 7034 7032 
4 7033 7035 7036 7034 
4 7035 7037 7038 7036 
4 7037 7039 6981 7038 
4 7039 7040 6982 6981 
4 7040 7041 6983 6982 
4 7041 7042 6984 6983 
4 7042 7043 6985 6984 
4 7043 7044 6986 6985 
4 7044 7045 6987 6986 
4 7045 7046 6988 6987 
4 7046 7047 6989 6988 
4 7047 7048 6990 6989 
4 7048 7049 6991 6990 
4 7049 7050 6992 6991 
4 7050 7051 6993 6992 
4 7051 7052 6994 6993 
4 7052 7053 6995 6994 
4 7053 7054 6996 6995 
4 7054 7055 6997 6996 
4 7055 7056 6998 6997 
4 7056 7057 6999 6998 
4 7057 7058 7000 6999 
4 7059 7060 7002 7001 
4 7060 7061 7003 7002 
4 7061 7062 7004 7003 
4 7062 7063 7005 7004 
4 7063 7064 7006 7005 
4 7064 7065 7007 7006 
4 7065 7066 7008 7007 
4 7066 7067 7009 7008 
4 7067 7068 7010 7009 
4 7068 7069 7011 7010 
4 7069 7070 7012 7011 
4 7070 7071 7013 7012 
4 7071 7072 7014 7013 
4 7072 7073 7015 7014 
4 7073 7074 7016 7015 
4 7074 7075 7017 7016 
4 7075 7076 7018 7017 
4 7076 7077 7019 7018 
4 7077 7078 7020 7019 
4 7078 7079 7021 7020 
4 7079 7080 7022 7021 
4 7080 7081 7023 7022 
4 7081 7082 7024 7023 
4 7082 7083 7025 7024 
4 7083 7084 7026 7025 
4 7084 7085 7027 7026 
4 7085 7086 7028 7027 
4 7086 7087 7029 7028 
4 7087 7088 7030 7029 
4 7088 7089 7031 7030 
4 7089 7090 7033 7031 
4 7090 7091 7035 7033 
4 7091 7092 7037 7035 
4 7092 7093 7039 7037 
4 7093 7094 7040 7039 
4 7094 7095 7041 7040 
4 7095 7096 7042 7041 
4 7096 7097 7043 7042 
4 7097 7098 7044 7043 
4 7098 7099 7045 7044 
4 7099 7100 7046 7045 
4 7100 7101 7047 7046 
4 7101 7102 7048 7047 
4 7102 7103 7049 7048 
4 7103 7104 7050 7049 
4 7104 7105 7051 7050 
4 7105 7106 7052 7051 
4 7106 7107 7053 7052 
4 7107 7108 7054 7053 
4 7108 7109 7055 7054 
4 7109 7110 7056 7055 
4 7110 7111 7057 7056 
4 7111 7112 7058 7057 
4 7112 7113 7114 7058 
4 7115 7116 7060 7059 
4 7116 7117 7061 7060 
4 7117 7118 7062 7061 
4 7118 7119 7063 7062 
4 7119 7120 7064 7063 
4 7120 7121 7065 7064 
4 7121 7122 7066 7065 
4 7122 7123 7067 7066 
4 7123 7124 7068 7067 
4 7124 7125 7069 7068 
4 7125 7126 7070 7069 
4 7126 7127 7071 7070 
4 7127 7128 7072 7071 
4 7128 7129 7073 7072 
4 7129 7130 7074 7073 
4 7130 7131 7075 7074 
4 7131 7132 7076 7075 
4 7132 7133 7077 7076 
4 7133 7134 7078 7077 
4 7134 7135 7079 7078 
4 7135 7136 7080 7079 
4 7136 7137 7081 7080 
4 7137 7138 7082 7081 
4 7138 7139 7083 7082 
4 7139 7140 7084 7083 
4 7140 7141 7085 7084 
4 7141 7142 7086 7085 
4 7142 7143 7087 7086 
4 7143 7144 7088 7087 
4 7144 7145 7089 7088 
4 7145 7146 7090 7089 
4 7146 7147 7091 7090 
4 7147 7148 7092 7091 
4 7148 7149 7093 7092 
4 7149 7150 7094 7093 
4 7150 7151 7095 7094 
4 7151 7152 7096 7095 
4 7152 7153 7097 7096 
4 7153 7154 7098 7097 
4 7154 7155 7099 7098 
4 7155 7156 7100 7099 
4 7156 7157 7101 7100 
4 7157 7158 7102 7101 
4 7158 7159 7103 7102 
4 7159 7160 7104 7103 
4 7160 7161 7105 7104 
4 7161 7162 7106 7105 
4 7162 7163 7107 7106 
4 7163 7164 7108 7107 
4 7164 7165 7109 7108 
4 7165 7166 7110 7109 
4 7166 7167 7111 7110 
4 7167 7168 7112 7111 
4 7168 7169 7113 7112 
4 7170 7171 7116 7115 
4 7171 7172 7117 7116 
4 7172 7173 7118 7117 
4 7173 7174 7119 7118 
4 7174 7175 7120 7119 
4 7175 7176 7121 7120 
4 7176 7177 7122 7121 
4 7177 7178 7123 7122 
4 7178 7179 7124 7123 
4 7179 7180 7125 7124 
4 7180 7181 7126 7125 
4 7181 7182 7127 7126 
4 7182 7183 7128 7127 
4 7183 7184 7129 7128 
4 7184 7185 7130 7129 
4 7185 7186 7131 7130 
4 7186 7187 7132 7131 
4 7187 7188 7133 7132 
4 7188 7189 7134 7133 
4 7189 7190 7135 7134 
4 7190 7191 7136 7135 
4 7191 7192 7137 7136 
4 7192 7193 7138 7137 
4 7193 7194 7139 7138 
4 7194 7195 7140 7139 
4 7195 7196 7141 7140 
4 7196 7197 7142 7141 
4 7197 7198 7143 7142 
4 7198 7199 7144 7143 
4 7199 7200 7145 7144 
4 7200 7201 7146 7145 
4 7201 7202 7147 7146 
4 7202 7203 7148 7147 
4 7203 7204 7149 7148 
4 7204 7205 7150 7149 
4 7205 7206 7151 7150 
4 7206 7207 7152 7151 
4 7207 7208 7153 7152 
4 7208 7209 7154 7153 
4 7209 7210 7155 7154 
4 7210 7211 7156 7155 
4 7211 7212 7157 7156 
4 7212 7213 7158 7157 
4 7213 7214 7159 7158 
4 7214 7215 7160 7159 
4 7215 7216 7161 7160 
4 7216 7217 7162 7161 
4 7217 7218 7163 7162 
4 7218 7219 7164 7163 
4 7219 7220 7165 7164 
4 7220 7221 7166 7165 
4 7221 7222 7167 7166 
4 7222 7223 7168 7167 
4 7223 7224 7169 7168 
4 7225 7226 7171 7170 
4 7226 7227 7172 7171 
4 7227 7228 7173 7172 
4 7228 7229 7174 7173 
4 7229 7230 7175 7174 
4 7230 7231 7176 7175 
4 7231 7232 7177 7176 
4 7232 7233 7178 7177 
4 7233 7234 7179 7178 
4 7234 7235 7180 7179 
4 7235 7236 7181 7180 
4 7236 7237 7182 7181 
4 7237 7238 7183 7182 
4 7238 7239 7184 7183 
4 7239 7240 7185 7184 
4 7240 7241 7186 7185 
4 7241 7242 7187 7186 
4 7242 7243 7188 7187 
4 7243 7244 7189 7188 
4 7244 7245 7190 7189 
4 7245 7246 7191 7190 
4 7246 7247 7192 7191 
4 7247 7248 7193 7192 
4 7248 7249 7194 7193 
4 7249 7250 7195 7194 
4 7250 7251 7196 7195 
4 7251 7252 7197 7196 
4 7252 7253 7198 7197 
4 7253 7254 7199 7198 
4 7254 7255 7200 7199 
4 7255 7256 7201 7200 
4 7256 7257 7202 7201 
4 7257 7258 7203 7202 
4 7258 7259 7204 7203 
4 7259 7260 7205 7204 
4 7260 7261 7206 7205 
4 7261 7262 7207 7206 
4 7262 7263 7208 7207 
4 7263 7264 7209 7208 
4 7264 7265 7210 7209 
4 7265 7266 7211 7210 
4 7266 7267 7212 7211 
4 7267 7268 7213 7212 
4 7268 7269 7214 7213 
4 7269 7270 7215 7214 
4 7270 7271 7216 7215 
4 7271 7272 7217 7216 
4 7272 7273 7218 7217 
4 7273 7274 7219 7218 
4 7274 7275 7220 7219 
4 7275 7276 7221 7220 
4 7276 7277 7222 7221 
4 7277 7278 7223 7222 
4 7278 7279 7224 7223 
4 7280 7281 7226 7225 
4 7281 7282 7227 7226 
4 7282 7283 7228 7227 
4 7283 7284 7229 7228 
4 7284 7285 7230 7229 
4 7285 7286 7231 7230 
4 7286 7287 7232 7231 
4 7287 7288 7233 7232 
4 7288 7289 7234 7233 
4 7289 7290 7235 7234 
4 7290 7291 7236 7235 
4 7291 7292 7237 7236 
4 7292 7293 7238 7237 
4 7293 7294 7239 7238 
4 7294 7295 7240 7239 
4 7295 7296 7241 7240 
4 7296 7297 7242 7241 
4 7297 7298 7243 7242 
4 7298 7299 7244 7243 
4 7299 7300 7245 7244 
4 7300 7301 7246 7245 
4 7301 7302 7247 7246 
4 7302 7303 7248 7247 
4 7303 7304 7249 7248 
4 7304 7305 7250 7249 
4 7305 7306 7251 7250 
4 7306 7307 7252 7251 
4 7307 7308 7253 7252 
4 7308 7309 7254 7253 
4 7309 7310 7255 7254 
4 7310 7311 7256 7255 
4 7311 7312 7257 7256 
4 7312 7313 7258 7257 
4 7313 7314 7259 7258 
4 7314 7315 7260 7259 
4 7315 7316 7261 7260 
4 7316 7317 7262 7261 
4 7317 7318 7263 7262 
4 7318 7319 7264 7263 
4 7319 7320 7265 7264 
4 7320 7321 7266 7265 
4 7321 7322 7267 7266 
4 7322 7323 7268 7267 
4 7323 7324 7269 7268 
4 7324 7325 7270 7269 
4 7325 7326 7271 7270 
4 7326 7327 7272 7271 
4 7327 7328 7273 7272 
4 7328 7329 7274 7273 
4 7329 7330 7275 7274 
4 7330 7331 7276 7275 
4 7331 7332 7277 7276 
4 7332 7333 7278 7277 
4 7333 7334 7279 7278 
4 7335 7336 7281 7280 
4 7336 7337 7282 7281 
4 7337 7338 7283 7282 
4 7338 7339 7284 7283 
4 7339 7340 7285 7284 
4 7340 7341 7286 7285 
4 7341 7342 7287 7286 
4 7342 7343 7288 7287 
4 7343 7344 7289 7288 
4 7344 7345 7290 7289 
4 7345 7346 7291 7290 
4 7346 7347 7292 7291 
4 7347 7348 7293 7292 
4 7348 7349 7294 7293 
4 7349 7350 7295 7294 
4 7350 7351 7296 7295 
4 7351 7352 7297 7296 
4 7352 7353 7298 7297 
4 7353 7354 7299 7298 
4 7354 7355 7300 7299 
4 7355 7356 7301 7300 
4 7356 7357 7302 7301 
4 7357 7358 7303 7302 
4 7358 7359 7304 7303 
4 7359 7360 7305 7304 
4 7360 7361 7306 7305 
4 7361 7362 7307 7306 
4 7362 7363 7308 7307 
4 7363 7364 7309 7308 
4 7364 7365 7310 7309 
4 7365 7366 7311 7310 
4 7366 7367 7312 7311 
4 7367 7368 7313 7312 
4 7368 7369 7314 7313 
4 7369 7370 7315 7314 
4 7370 7371 7316 7315 
4 7371 7372 7317 7316 
4 7372 7373 7318 7317 
4 7373 7374 7319 7318 
4 7374 7375 7320 7319 
4 7375 7376 7321 7320 
4 7376 7377 7322 7321 
4 7377 7378 7323 7322 
4 7378 7379 7324 7323 
4 7379 7380 7325 7324 
4 7380 7381 7326 7325 
4 7381 7382 7327 7326 
4 7382 7383 7328 7327 
4 7383 7384 7329 7328 
4 7384 7385 7330 7329 
4 7385 7386 7331 7330 
4 7386 7387 7332 7331 
4 7387 7388 7333 7332 
4 7389 7390 7336 7335 
4 7390 7391 7337 7336 
4 7391 7392 7338 7337 
4 7392 7393 7339 7338 
4 7393 7394 7340 7339 
4 7394 7395 7341 7340 
4 7395 7396 7342 7341 
4 7396 7397 7343 7342 
4 7397 7398 7344 7343 
4 7398 7399 7345 7344 
4 7399 7400 7346 7345 
4 7400 7401 7347 7346 
4 7401 7402 7348 7347 
4 7402 7403 7349 7348 
4 7403 7404 7350 7349 
4 7404 7405 7351 7350 
4 7405 7406 7352 7351 
4 7406 7407 7353 7352 
4 7407 7408 7354 7353 
4 7408 7409 7355 7354 
4 7409 7410 7356 7355 
4 7410 7411 7357 7356 
4 7411 7412 7358 7357 
4 7412 7413 7359 7358 
4 7413 7414 7360 7359 
4 7414 7415 7361 7360 
4 7415 7416 7362 7361 
4 7416 7417 7363 7362 
4 7417 7418 7364 7363 
4 7418 7419 7365 7364 
4 7419 7420 7366 7365 
4 7420 7421 7367 7366 
4 7421 7422 7368 7367 
4 7422 7423 7369 7368 
4 7423 7424 7370 7369 
4 7424 7425 7371 7370 
4 7425 7426 7372 7371 
4 7426 7427 7373 7372 
4 7427 7428 7374 7373 
4 7428 7429 7375 7374 
4 7429 7430 7376 7375 
4 7430 7431 7377 7376 
4 7431 7432 7378 7377 
4 7432 7433 7379 7378 
4 7433 7434 7380 7379 
4 7434 7435 7381 7380 
4 7435 7436 7382 7381 
4 7436 7437 7383 7382 
4 7437 7438 7384 7383 
4 7438 7439 7385 7384 
4 7439 7440 7386 7385 
4 7440 7441 7387 7386 
4 7441 7442 7388 7387 
4 7443 7444 7390 7389 
4 7444 7445 7391 7390 
4 7445 7446 7392 7391 
4 7446 7447 7393 7392 
4 7447 7448 7394 7393 
4 7448 7449 7395 7394 
4 7449 7450 7396 7395 
4 7450 7451 7397 7396 
4 7451 7452 7398 7397 
4 7452 7453 7399 7398 
4 7453 7454 7400 7399 
4 7454 7455 7401 7400 
4 7455 7456 7402 7401 
4 7456 7457 7403 7402 
4 7457 7458 7404 7403 
4 7458 7459 7405 7404 
4 7459 7460 7406 7405 
4 7460 7461 7407 7406 
4 7461 7462 7408 7407 
4 7462 7463 7409 7408 
4 7463 7464 7410 7409 
4 7464 7465 7411 7410 
4 7465 7466 7412 7411 
4 7466 7467 7413 7412 
4 7467 7468 7414 7413 
4 7468 7469 7415 7414 
4 7469 7470 7416 7415 
4 7470 7471 7417 7416 
4 7471 7472 7418 7417 
4 7472 7473 7419 7418 
4 7473 7474 7420 7419 
4 7474 7475 7421 7420 
4 7475 7476 7422 7421 
4 7476 7477 7423 7422 
4 7477 7478 7424 7423 
4 7478 7479 7425 7424 
4 7479 7480 7426 7425 
4 7480 7481 7427 7426 
4 7481 7482 7428 7427 
4 7482 7483 7429 7428 
4 7483 7484 7430 7429 
4 7484 7485 7431 7430 
4 7485 7486 7432 7431 
4 7486 7487 7433 7432 
4 7487 7488 7434 7433 
4 7488 7489 7435 7434 
4 7489 7490 7436 7435 
4 7490 7491 7437 7436 
4 7491 7492 7438 7437 
4 7492 7493 7439 7438 
4 7493 7494 7440 7439 
4 7494 7495 7441 7440 
4 7495 7496 7442 7441 
4 7497 7498 7444 7443 
4 7498 7499 7445 7444 
4 7499 7500 7446 7445 
4 7500 7501 7447 7446 
4 7501 7502 7448 7447 
4 7502 7503 7449 7448 
4 7503 7504 7450 7449 
4 7504 7505 7451 7450 
4 7505 7506 7452 7451 
4 7506 7507 7453 7452 
4 7507 7508 7454 7453 
4 7508 7509 7455 7454 
4 7509 7510 7456 7455 
4 7510 7511 7457 7456 
4 7511 7512 7458 7457 
4 7512 7513 7459 7458 
4 7513 7514 7460 7459 
4 7514 7515 7461 7460 
4 7515 7516 7462 7461 
4 7516 7517 7463 7462 
4 7517 7518 7464 7463 
4 7518 7519 7465 7464 
4 7519 7520 7466 7465 
4 7520 7521 7467 7466 
4 7521 7522 7468 7467 
4 7522 7523 7469 7468 
4 7523 7524 7470 7469 
4 7524 7525 7471 7470 
4 7525 7526 7472 7471 
4 7526 7527 7473 7472 
4 7527 7528 7474 7473 
4 7528 7529 7475 7474 
4 7529 7530 7476 7475 
4 7530 7531 7477 7476 
4 7531 7532 7478 7477 
4 7532 7533 7479 7478 
4 7533 7534 7480 7479 
4 7534 7535 7481 7480 
4 7535 7536 7482 7481 
4 7536 7537 7483 7482 
4 7537 7538 7484 7483 
4 7538 7539 7485 7484 
4 7539 7540 7486 7485 
4 7540 7541 7487 7486 
4 7541 7542 7488 7487 
4 7542 7543 7489 7488 
4 7543 7544 7490 7489 
4 7544 7545 7491 7490 
4 7545 7546 7492 7491 
4 7546 7547 7493 7492 
4 7547 7548 7494 7493 
4 7548 7549 7495 7494 
4 7549 7550 7496 7495 
4 7551 7552 7498 7497 
4 7552 7553 7499 7498 
4 7553 7554 7500 7499 
4 7554 7555 7501 7500 
4 7555 7556 7502 7501 
4 7556 7557 7503 7502 
4 7557 7558 7504 7503 
4 7558 7559 7505 7504 
4 7559 7560 7506 7505 
4 7560 7561 7507 7506 
4 7561 7562 7508 7507 
4 7562 7563 7509 7508 
4 7563 7564 7510 7509 
4 7564 7565 7511 7510 
4 7565 7566 7512 7511 
4 7566 7567 7513 7512 
4 7567 7568 7514 7513 
4 7568 7569 7515 7514 
4 7569 7570 7516 7515 
4 7570 7571 7517 7516 
4 7571 7572 7518 7517 
4 7572 7573 7519 7518 
4 7573 7574 7520 7519 
4 7574 7575 7521 7520 
4 7575 7576 7522 7521 
4 7576 7577 7523 7522 
4 7577 7578 7524 7523 
4 7578 7579 7525 7524 
4 7579 7580 7526 7525 
4 7580 7581 7527 7526 
4 7581 7582 7528 7527 
4 7582 7583 7529 7528 
4 7583 7584 7530 7529 
4 7584 7585 7531 7530 
4 7585 7586 7532 7531 
4 7586 7587 7533 7532 
4 7587 7588 7534 7533 
4 7588 7589 7535 7534 
4 7589 7590 7536 7535 
4 7590 7591 7537 7536 
4 7591 7592 7538 7537 
4 7592 7593 7539 7538 
4 7593 7594 7540 7539 
4 7594 7595 7541 7540 
4 7595 7596 7542 7541 
4 7596 7597 7543 7542 
4 7597 7598 7544 7543 
4 7598 7599 7545 7544 
4 7599 7600 7546 7545 
4 7600 7601 7547 7546 
4 7601 7602 7548 7547 
4 7602 7603 7549 7548 
4 7603 7604 7550 7549 
4 7605 7606 7553 7552 
4 7606 7607 7554 7553 
4 7607 7608 7555 7554 
4 7608 7609 7556 7555 
4 7609 7610 7557 7556 
4 7610 7611 7558 7557 
4 7611 7612 7559 7558 
4 7612 7613 7560 7559 
4 7613 7614 7561 7560 
4 7614 7615 7562 7561 
4 7615 7616 7563 7562 
4 7616 7617 7564 7563 
4 7617 7618 7565 7564 
4 7618 7619 7566 7565 
4 7619 7620 7567 7566 
4 7620 7621 7568 7567 
4 7621 7622 7569 7568 
4 7622 7623 7570 7569 
4 7623 7624 7571 7570 
4 7624 7625 7572 7571 
4 7625 7626 7573 7572 
4 7626 7627 7574 7573 
4 7627 7628 7575 7574 
4 7628 7629 7576 7575 
4 7629 7630 7577 7576 
4 7630 7631 7578 7577 
4 7631 7632 7579 7578 
4 7632 7633 7580 7579 
4 7633 7634 7581 7580 
4 7634 7635 7582 7581 
4 7635 7636 7583 7582 
4 7636 7637 7584 7583 
4 7637 7638 7585 7584 
4 7638 7639 7586 7585 
4 7639 7640 7587 7586 
4 7640 7641 7588 7587 
4 7641 7642 7589 7588 
4 7642 7643 7590 7589 
4 7643 7644 7591 7590 
4 7644 7645 7592 7591 
4 7645 7646 7593 7592 
4 7646 7647 7594 7593 
4 7647 7648 7595 7594 
4 7648 7649 7596 7595 
4 7649 7650 7597 7596 
4 7650 7651 7598 7597 
4 7651 7652 7599 7598 
4 7652 7653 7600 7599 
4 7653 7654 7601 7600 
4 7654 7655 7602 7601 
4 7655 7656 7603 7602 
4 7656 7657 7604 7603 
4 7658 7659 7606 7605 
4 7659 7660 7607 7606 
4 7660 7661 7608 7607 
4 7661 7662 7609 7608 
4 7662 7663 7610 7609 
4 7663 7664 7611 7610 
4 7664 7665 7612 7611 
4 7665 7666 7613 7612 
4 7666 7667 7614 7613 
4 7667 7668 7615 7614 
4 7668 7669 7616 7615 
4 7669 7670 7617 7616 
4 7670 7671 7618 7617 
4 7671 7672 7619 7618 
4 7672 7673 7620 7619 
4 7673 7674 7621 7620 
4 7674 7675 7622 7621 
4 7675 7676 7623 7622 
4 7676 7677 7624 7623 
4 7677 7678 7625 7624 
4 7678 7679 7626 7625 
4 7679 7680 7627 7626 
4 7680 7681 7628 7627 
4 7681 7682 7629 7628 
4 7682 7683 7630 7629 
4 7683 7684 7631 7630 
4 7684 7685 7632 7631 
4 7685 7686 7633 7632 
4 7686 7687 7634 7633 
4 7687 7688 7635 7634 
4 7688 7689 7636 7635 
4 7689 7690 7637 7636 
4 7690 7691 7638 7637 
4 7691 7692 7639 7638 
4 7692 7693 7640 7639 
4 7693 7694 7641 7640 
4 7694 7695 7642 7641 
4 7695 7696 7643 7642 
4 7696 7697 7644 7643 
4 7697 7698 7645 7644 
4 7698 7699 7646 7645 
4 7699 7700 7647 7646 
4 7700 7701 7648 7647 
4 7701 7702 7649 7648 
4 7702 7703 7650 7649 
4 7703 7704 7651 7650 
4 7704 7705 7652 7651 
4 7705 7706 7653 7652 
4 7706 7707 7654 7653 
4 7707 7708 7655 7654 
4 7708 7709 7656 7655 
4 7709 7710 7657 7656 
4 7711 7712 7659 7658 
4 7712 7713 7660 7659 
4 7713 7714 7661 7660 
4 7714 7715 7662 7661 
4 7715 7716 7663 7662 
4 7716 7717 7664 7663 
4 7717 7718 7665 7664 
4 7718 7719 7666 7665 
4 7719 7720 7667 7666 
4 7720 7721 7668 7667 
4 7721 7722 7669 7668 
4 7722 7723 7670 7669 
4 7723 7724 7671 7670 
4 7724 7725 7672 7671 
4 7725 7726 7673 7672 
4 7726 7727 7674 7673 
4 7727 7728 7675 7674 
4 7728 7729 7676 7675 
4 7729 7730 7677 7676 
4 7730 7731 7678 7677 
4 7731 7732 7679 7678 
4 7732 7733 7680 7679 
4 7733 7734 7681 7680 
4 7734 7735 7682 7681 
4 7735 7736 7683 7682 
4 7736 7737 7684 7683 
4 7737 7738 7685 7684 
4 7738 7739 7686 7685 
4 7739 7740 7687 7686 
4 7740 7741 7688 7687 
4 7741 7742 7689 7688 
4 7742 7743 7690 7689 
4 7743 7744 7691 7690 
4 7744 7745 7692 7691 
4 7745 7746 7693 7692 
4 7746 7747 7694 7693 
4 7747 7748 7695 7694 
4 7748 7749 7696 7695 
4 7749 7750 7697 7696 
4 7750 7751 7698 7697 
4 7751 7752 7699 7698 
4 7752 7753 7700 7699 
4 7753 7754 7701 7700 
4 7754 7755 7702 7701 
4 7755 7756 7703 7702 
4 7756 7757 7704 7703 
4 7757 7758 7705 7704 
4 7758 7759 7706 7705 
4 7759 7760 7707 7706 
4 7760 7761 7708 7707 
4 7761 7762 7709 7708 
4 7763 7764 7713 7712 
4 7764 7765 7714 7713 
4 7765 7766 7715 7714 
4 7766 7767 7716 7715 
4 7767 7768 7717 7716 
4 7768 7769 7718 7717 
4 7769 7770 7719 7718 
4 7770 7771 7720 7719 
4 7771 7772 7721 7720 
4 7772 7773 7722 7721 
4 7773 7774 7723 7722 
4 7774 7775 7724 7723 
4 7775 7776 7725 7724 
4 7776 7777 7726 7725 
4 7777 7778 7727 7726 
4 7778 7779 7728 7727 
4 7779 7780 7729 7728 
4 7780 7781 7730 7729 
4 7781 7782 7731 7730 
4 7782 7783 7732 7731 
4 7783 7784 7733 7732 
4 7784 7785 7734 7733 
4 7785 7786 7735 7734 
4 7786 7787 7736 7735 
4 7787 7788 7737 7736 
4 7788 7789 7738 7737 
4 7789 7790 7739 7738 
4 7790 7791 7740 7739 
4 7791 7792 7741 7740 
4 7792 7793 7742 7741 
4 7793 7794 7743 7742 
4 7794 7795 7744 7743 
4 7795 7796 7745 7744 
4 7796 7797 7746 7745 
4 7797 7798 7747 7746 
4 7798 7799 7748 7747 
4 7799 7800 7749 7748 
4 7800 7801 7750 7749 
4 7801 7802 7751 7750 
4 7802 7803 7752 7751 
4 7803 7804 7753 7752 
4 7804 7805 7754 7753 
4 7805 7806 7755 7754 
4 7806 7807 7756 7755 
4 7807 7808 7757 7756 
4 7808 7809 7758 7757 
4 7809 7810 7759 7758 
4 7810 7811 7760 7759 
4 7811 7812 7761 7760 
4 7812 7813 7762 7761 
4 7814 7815 7764 7763 
4 7815 7816 7765 7764 
4 7816 7817 7766 7765 
4 7817 7818 7767 7766 
4 7818 7819 7768 7767 
4 7819 7820 7769 7768 
4 7820 7821 7770 7769 
4 7821 7822 7771 7770 
4 7822 7823 7772 7771 
4 7823 7824 7773 7772 
4 7824 7825 7774 7773 
4 7825 7826 7775 7774 
4 7826 7827 7776 7775 
4 7827 7828 7777 7776 
4 7828 7829 7778 7777 
4 7829 7830 7779 7778 
4 7830 7831 7780 7779 
4 7831 7832 7781 7780 
4 7832 7833 7782 7781 
4 7833 7834 7783 7782 
4 7834 7835 7784 7783 
4 7835 7836 7785 7784 
4 7836 7837 7786 7785 
4 7837 7838 7787 7786 
4 7838 7839 7788 7787 
4 7839 7840 7789 7788 
4 7840 7841 7790 7789 
4 7841 7842 7791 7790 
4 7842 7843 7792 7791 
4 7843 7844 7793 7792 
4 7844 7845 7794 7793 
4 7845 7846 7795 7794 
4 7846 7847 7796 7795 
4 7847 7848 7797 7796 
4 7848 7849 7798 7797 
4 7849 7850 7799 7798 
4 7850 7851 7800 7799 
4 7851 7852 7801 7800 
4 7852 7853 7802 7801 
4 7853 7854 7803 7802 
4 7854 7855 7804 7803 
4 7855 7856 7805 7804 
4 7856 7857 7806 7805 
4 7857 7858 7807 7806 
4 7858 7859 7808 7807 
4 7859 7860 7809 7808 
4 7860 7861 7810 7809 
4 7861 7862 7811 7810 
4 7862 7863 7812 7811 
4 7863 7864 7813 7812 
4 7865 7866 7815 7814 
4 7866 7867 7816 7815 
4 7867 7868 7817 7816 
4 7868 7869 7818 7817 
4 7869 7870 7819 7818 
4 7870 7871 7820 7819 
4 7871 7872 7821 7820 
4 7872 7873 7822 7821 
4 7873 7874 7823 7822 
4 7874 7875 7824 7823 
4 7875 7876 7825 7824 
4 7876 7877 7826 7825 
4 7877 7878 7827 7826 
4 7878 7879 7828 7827 
4 7879 7880 7829 7828 
4 7880 7881 7830 7829 
4 7881 7882 7831 7830 
4 7882 7883 7832 7831 
4 7883 7884 7833 7832 
4 7884 7885 7834 7833 
4 7885 7886 7835 7834 
4 7886 7887 7836 7835 
4 7887 7888 7837 7836 
4 7888 7889 7838 7837 
4 7889 7890 7839 7838 
4 7890 7891 7840 7839 
4 7891 7892 7841 7840 
4 7892 7893 7842 7841 
4 7893 7894 7843 7842 
4 7894 7895 7844 7843 
4 7895 7896 7845 7844 
4 7896 7897 7846 7845 
4 7897 7898 7847 7846 
4 7898 7899 7848 7847 
4 7899 7900 7849 7848 
4 7900 7901 7850 7849 
4 7901 7902 7851 7850 
4 7902 7903 7852 7851 
4 7903 7904 7853 7852 
4 7904 7905 7854 7853 
4 7905 7906 7855 7854 
4 7906 7907 7856 7855 
4 7907 7908 7857 7856 
4 7908 7909 7858 7857 
4 7909 7910 7859 7858 
4 7910 7911 7860 7859 
4 7911 7912 7861 7860 
4 7912 7913 7862 7861 
4 7913 7914 7863 7862 
4 7914 7915 7864 7863 
4 7916 7917 7866 7865 
4 7917 7918 7867 7866 
4 7918 7919 7868 7867 
4 7919 7920 7869 7868 
4 7920 7921 7870 7869 
4 7921 7922 7871 7870 
4 7922 7923 7872 7871 
4 7923 7924 7873 7872 
4 7924 7925 7874 7873 
4 7925 7926 7875 7874 
4 7926 7927 7876 7875 
4 7927 7928 7877 7876 
4 7928 7929 7878 7877 
4 7929 7930 7879 7878 
4 7930 7931 7880 7879 
4 7931 7932 7881 7880 
4 7932 7933 7882 7881 
4 7933 7934 7883 7882 
4 7934 7935 7884 7883 
4 7935 7936 7885 7884 
4 7936 7937 7886 7885 
4 7937 7938 7887 7886 
4 7938 7939 7888 7887 
4 7939 7940 7889 7888 
4 7940 7941 7890 7889 
4 7941 7942 7891 7890 
4 7942 7943 7892 7891 
4 7943 7944 7893 7892 
4 7944 7945 7894 7893 
4 7945 7946 7895 7894 
4 7946 7947 7896 7895 
4 7947 7948 7897 7896 
4 7948 7949 7898 7897 
4 7949 7950 7899 7898 
4 7950 7951 7900 7899 
4 7951 7952 7901 7900 
4 7952 7953 7902 7901 
4 7953 7954 7903 7902 
4 7954 7955 7904 7903 
4 7955 7956 7905 7904 
4 7956 7957 7906 7905 
4 7957 7958 7907 7906 
4 7958 7959 7908 7907 
4 7959 7960 7909 7908 
4 7960 7961 7910 7909 
4 7961 7962 7911 7910 
4 7962 7963 7912 7911 
4 7963 7964 7913 7912 
4 7964 7965 7914 7913 
4 7966 7967 7918 7917 
4 7967 7968 7919 7918 
4 7968 7969 7920 7919 
4 7969 7970 7921 7920 
4 7970 7971 7922 7921 
4 7971 7972 7923 7922 
4 7972 7973 7924 7923 
4 7973 7974 7925 7924 
4 7974 7975 7926 7925 
4 7975 7976 7927 7926 
4 7976 7977 7928 7927 
4 7977 7978 7929 7928 
4 7978 7979 7930 7929 
4 7979 7980 7931 7930 
4 7980 7981 7932 7931 
4 7981 7982 7933 7932 
4 7982 7983 7934 7933 
4 7983 7984 7935 7934 
4 7984 7985 7936 7935 
4 7985 7986 7937 7936 
4 7986 7987 7938 7937 
4 7987 7988 7939 7938 
4 7988 7989 7940 7939 
4 7989 7990 7941 7940 
4 7990 7991 7942 7941 
4 7991 7992 7943 7942 
4 7992 7993 7944 7943 
4 7993 7994 7945 7944 
4 7994 7995 7946 7945 
4 7995 7996 7947 7946 
4 7996 7997 7948 7947 
4 7997 7998 7949 7948 
4 7998 7999 7950 7949 
4 7999 8000 7951 7950 
4 8000 8001 7952 7951 
4 8001 8002 7953 7952 
4 8002 8003 7954 7953 
4 8003 8004 7955 7954 
4 8005 8006 7959 7958 
4 8006 8007 7960 7959 
4 8007 8008 7961 7960 
4 8008 8009 7962 7961 
4 8009 8010 7963 7962 
4 8010 8011 7964 7963 
4 8011 8012 7965 7964 
4 8013 8014 7967 7966 
4 8014 8015 7968 7967 
4 8015 8016 7969 7968 
4 8016 8017 7970 7969 
4 8017 8018 7971 7970 
4 8018 8019 7972 7971 
4 8019 8020 7973 7972 
4 8020 8021 7974 7973 
4 8021 8022 7975 7974 
4 8022 8023 7976 7975 
4 8023 8024 7977 7976 
4 8024 8025 7978 7977 
4 8025 8026 7979 7978 
4 8026 8027 7980 7979 
4 8027 8028 7981 7980 
4 8028 8029 7982 7981 
4 8029 8030 7983 7982 
4 8030 8031 7984 7983 
4 8031 8032 7985 7984 
4 8032 8033 7986 7985 
4 8033 8034 7987 7986 
4 8034 8035 7988 7987 
4 8035 8036 7989 7988 
4 8036 8037 7990 7989 
4 8037 8038 7991 7990 
4 8038 8039 7992 7991 
4 8039 8040 7993 7992 
4 8040 8041 7994 7993 
4 8041 8042 7995 7994 
4 8042 8043 7996 7995 
4 8043 8044 7997 7996 
4 8044 8045 7998 7997 
4 8045 8046 7999 7998 
4 8046 8047 8000 7999 
4 8047 8048 8001 8000 
4 8048 8049 8002 8001 
4 8049 8050 8003 8002 
4 8051 8052 8006 8005 
4 8052 8053 8007 8006 
4 8053 8054 8008 8007 
4 8054 8055 8009 8008 
4 8055 8056 8010 8009 
4 8056 8057 8011 8010 
4 8057 8058 8012 8011 
4 8059 8060 8014 8013 
4 8060 8061 8015 8014 
4 8061 8062 8016 8015 
4 8062 8063 8017 8016 
4 8063 8064 8018 8017 
4 8064 8065 8019 8018 
4 8065 8066 8020 8019 
4 8066 8067 8021 8020 
4 8067 8068 8022 8021 
4 8068 8069 8023 8022 
4 8069 8070 8024 8023 
4 8070 8071 8025 8024 
4 8071 8072 8026 8025 
4 8072 8073 8027 8026 
4 8073 8074 8028 8027 
4 8074 8075 8029 8028 
4 8075 8076 8030 8029 
4 8076 8077 8031 8030 
4 8077 8078 8032 8031 
4 8078 8079 8033 8032 
4 8079 8080 8034 8033 
4 8080 8081 8035 8034 
4 8081 8082 8036 8035 
4 8082 8083 8037 8036 
4 8083 8084 8038 8037 
4 8084 8085 8039 8038 
4 8085 8086 8040 8039 
4 8086 8087 8041 8040 
4 8087 8088 8042 8041 
4 8088 8089 8043 8042 
4 8089 8090 8044 8043 
4 8090 8091 8045 8044 
4 8091 8092 8046 8045 
4 8092 8093 8047 8046 
4 8093 8094 8048 8047 
4 8094 8095 8049 8048 
4 8096 8097 8052 8051 
4 8097 8098 8053 8052 
4 8098 8099 8054 8053 
4 8099 8100 8055 8054 
4 8100 8101 8056 8055 
4 8101 8102 8057 8056 
4 8103 8104 8061 8060 
4 8104 8105 8062 8061 
4 8105 8106 8063 8062 
4 8106 8107 8064 8063 
4 8107 8108 8065 8064 
4 8108 8109 8066 8065 
4 8109 8110 8067 8066 
4 8110 8111 8068 8067 
4 8111 8112 8069 8068 
4 8112 8113 8070 8069 
4 8113 8114 8071 8070 
4 8114 8115 8072 8071 
4 8115 8116 8073 8072 
4 8116 8117 8074 8073 
4 8117 8118 8075 8074 
4 8118 8119 8076 8075 
4 8119 8120 8077 8076 
4 8120 8121 8078 8077 
4 8121 8122 8079 8078 
4 8122 8123 8080 8079 
4 8123 8124 8081 8080 
4 8124 8125 8082 8081 
4 8125 8126 8083 8082 
4 8126 8127 8084 8083 
4 8127 8128 8085 8084 
4 8128 8129 8086 8085 
4 8129 8130 8087 8086 
4 8130 8131 8088 8087 
4 8131 8132 8089 8088 
4 8132 8133 8090 8089 
4 8133 8134 8091 8090 
4 8134 8135 8092 8091 
4 8135 8136 8093 8092 
4 8136 8137 8094 8093 
4 8139 8140 8096 8138 
4 8140 8141 8097 8096 
4 8141 8142 8098 8097 
4 8142 8143 8099 8098 
4 8143 8144 8100 8099 
4 8144 8145 8101 8100 
4 8145 8146 8102 8101 
4 8147 8148 8104 8103 
4 8148 8149 8105 8104 
4 8149 8150 8106 8105 
4 8150 8151 8107 8106 
4 8151 8152 8108 8107 
4 8152 8153 8109 8108 
4 8153 8154 8110 8109 
4 8154 8155 8111 8110 
4 8155 8156 8112 8111 
4 8156 8157 8113 8112 
4 8157 8158 8114 8113 
4 8158 8159 8115 8114 
4 8159 8160 8116 8115 
4 8160 8161 8117 8116 
4 8161 8162 8118 8117 
4 8162 8163 8119 8118 
4 8163 8164 8120 8119 
4 8164 8165 8121 8120 
4 8165 8166 8122 8121 
4 8166 8167 8123 8122 
4 8167 8168 8124 8123 
4 8168 8169 8125 8124 
4 8169 8170 8126 8125 
4 8170 8171 8127 8126 
4 8171 8172 8128 8127 
4 8172 8173 8129 8128 
4 8173 8174 8130 8129 
4 8174 8175 8131 8130 
4 8175 8176 8132 8131 
4 8176 8177 8133 8132 
4 8177 8178 8134 8133 
4 8178 8179 8135 8134 
4 8179 8180 8136 8135 
4 8180 8181 8137 8136 
4 8182 8183 8140 8139 
4 8183 8184 8141 8140 
4 8184 8185 8142 8141 
4 8185 8186 8143 8142 
4 8186 8187 8144 8143 
4 8187 8188 8145 8144 
4 8188 8189 8146 8145 
4 8190 8191 8149 8148 
4 8191 8192 8150 8149 
4 8192 8193 8151 8150 
4 8193 8194 8152 8151 
4 8194 8195 8153 8152 
4 8195 8196 8154 8153 
4 8196 8197 8155 8154 
4 8197 8198 8156 8155 
4 8198 8199 8157 8156 
4 8199 8200 8158 8157 
4 8200 8201 8159 8158 
4 8201 8202 8160 8159 
4 8202 8203 8161 8160 
4 8203 8204 8162 8161 
4 8204 8205 8163 8162 
4 8205 8206 8164 8163 
4 8206 8207 8165 8164 
4 8207 8208 8166 8165 
4 8208 8209 8167 8166 
4 8209 8210 8168 8167 
4 8210 8211 8169 8168 
4 8211 8212 8170 8169 
4 8212 8213 8171 8170 
4 8213 8214 8172 8171 
4 8214 8215 8173 8172 
4 8215 8216 8174 8173 
4 8216 8217 8175 8174 
4 8217 8218 8176 8175 
4 8218 8219 8177 8176 
4 8219 8220 8178 8177 
4 8220 8221 8179 8178 
4 8221 8222 8180 8179 
4 8223 8224 8183 8182 
4 8224 8225 8184 8183 
4 8225 8226 8185 8184 
4 8226 8227 8186 8185 
4 8227 8228 8187 8186 
4 8228 8229 8188 8187 
4 8230 8231 8191 8190 
4 8231 8232 8192 8191 
4 8232 8233 8193 8192 
4 8233 8234 8194 8193 
4 8234 8235 8195 8194 
4 8235 8236 8196 8195 
4 8236 8237 8197 8196 
4 8237 8238 8198 8197 
4 8238 8239 8199 8198 
4 8239 8240 8200 8199 
4 8240 8241 8201 8200 
4 8241 8242 8202 8201 
4 8242 8243 8203 8202 
4 8243 8244 8204 8203 
4 8244 8245 8205 8204 
4 8245 8246 8206 8205 
4 8246 8247 8207 8206 
4 8247 8248 8208 8207 
4 8248 8249 8209 8208 
4 8249 8250 8210 8209 
4 8250 8251 8211 8210 
4 8251 8252 8212 8211 
4 8252 8253 8213 8212 
4 8253 8254 8214 8213 
4 8254 8255 8215 8214 
4 8255 8256 8216 8215 
4 8256 8257 8217 8216 
4 8257 8258 8218 8217 
4 8258 8259 8219 8218 
4 8259 8260 8220 8219 
4 8260 8261 8221 8220 
4 8261 8262 8222 8221 
4 8264 8265 8223 8263 
4 8265 8266 8224 8223 
4 8266 8267 8225 8224 
4 8267 8268 8226 8225 
4 8268 8269 8227 8226 
4 8269 8270 8228 8227 
4 8270 8271 8229 8228 
4 8272 8273 8231 8230 
4 8273 8274 8232 8231 
4 8274 8275 8233 8232 
4 8275 8276 8234 8233 
4 8276 8277 8235 8234 
4 8277 8278 8236 8235 
4 8278 8279 8237 8236 
4 8279 8280 8238 8237 
4 8280 8281 8239 8238 
4 8281 8282 8240 8239 
4 8282 8283 8241 8240 
4 8283 8284 8242 8241 
4 8284 8285 8243 8242 
4 8285 8286 8244 8243 
4 8286 8287 8245 8244 
4 8287 8288 8246 8245 
4 8288 8289 8247 8246 
4 8289 8290 8248 8247 
4 8290 8291 8249 8248 
4 8291 8292 8250 8249 
4 8292 8293 8251 8250 
4 8293 8294 8252 8251 
4 8294 8295 8253 8252 
4 8295 8296 8254 8253 
4 8296 8297 8255 8254 
4 8297 8298 8256 8255 
4 8298 8299 8257 8256 
4 8299 8300 8258 8257 
4 8300 8301 8259 8258 
4 8301 8302 8260 8259 
4 8302 8303 8261 8260 
4 8304 8305 8265 8264 
4 8305 8306 8266 8265 
4 8306 8307 8267 8266 
4 8307 8308 8268 8267 
4 8308 8309 8269 8268 
4 8309 8310 8270 8269 
4 8310 8311 8271 8270 
4 8312 8313 8274 8273 
4 8313 8314 8275 8274 
4 8314 8315 8276 8275 
4 8315 8316 8277 8276 
4 8316 8317 8278 8277 
4 8317 8318 8279 8278 
4 8318 8319 8280 8279 
4 8319 8320 8281 8280 
4 8320 8321 8282 8281 
4 8321 8322 8283 8282 
4 8322 8323 8284 8283 
4 8323 8324 8285 8284 
4 8324 8325 8286 8285 
4 8325 8326 8287 8286 
4 8326 8327 8288 8287 
4 8327 8328 8289 8288 
4 8328 8329 8290 8289 
4 8329 8330 8291 8290 
4 8330 8331 8292 8291 
4 8331 8332 8293 8292 
4 8332 8333 8294 8293 
4 8333 8334 8295 8294 
4 8334 8335 8296 8295 
4 8335 8336 8297 8296 
4 8336 8337 8298 8297 
4 8337 8338 8299 8298 
4 8338 8339 8300 8299 
4 8339 8340 8301 8300 
4 8340 8341 8302 8301 
4 8341 8342 8303 8302 
4 8343 8344 8305 8304 
4 8344 8345 8306 8305 
4 8345 8346 8307 8306 
4 8346 8347 8308 8307 
4 8347 8348 8309 8308 
4 8348 8349 8310 8309 
4 8349 8350 8311 8310 
4 8351 8352 8313 8312 
4 8352 8353 8314 8313 
4 8353 8354 8315 8314 
4 8354 8355 8316 8315 
4 8355 8356 8317 8316 
4 8356 8357 8318 8317 
4 8357 8358 8319 8318 
4 8358 8359 8320 8319 
4 8359 8360 8321 8320 
4 8360 8361 8322 8321 
4 8361 8362 8323 8322 
4 8362 8363 8324 8323 
4 8363 8364 8325 8324 
4 8364 8365 8326 8325 
4 8365 8366 8327 8326 
4 8366 8367 8328 8327 
4 8367 8368 8329 8328 
4 8368 8369 8330 8329 
4 8369 8370 8331 8330 
4 8370 8371 8332 8331 
4 8371 8372 8333 8332 
4 8372 8373 8334 8333 
4 8373 8374 8335 8334 
4 8374 8375 8336 8335 
4 8375 8376 8337 8336 
4 8376 8377 8338 8337 
4 8377 8378 8339 8338 
4 8378 8379 8340 8339 
4 8379 8380 8341 8340 
4 8381 8382 8344 8343 
4 8382 8383 8345 8344 
4 8383 8384 8346 8345 
4 8384 8385 8347 8346 
4 8385 8386 8348 8347 
4 8386 8387 8349 8348 
4 8388 8389 8353 8352 
4 8389 8390 8354 8353 
4 8390 8391 8355 8354 
4 8391 8392 8356 8355 
4 8392 8393 8357 8356 
4 8393 8394 8358 8357 
4 8394 8395 8359 8358 
4 8395 8396 8360 8359 
4 8396 8397 8361 8360 
4 8397 8398 8362 8361 
4 8398 8399 8363 8362 
4 8399 8400 8364 8363 
4 8400 8401 8365 8364 
4 8401 8402 8366 8365 
4 8402 8403 8367 8366 
4 8403 8404 8368 8367 
4 8404 8405 8369 8368 
4 8405 8406 8370 8369 
4 8406 8407 8371 8370 
4 8407 8408 8372 8371 
4 8408 8409 8373 8372 
4 8409 8410 8374 8373 
4 8410 8411 8375 8374 
4 8411 8412 8376 8375 
4 8412 8413 8377 8376 
4 8413 8414 8378 8377 
4 8414 8415 8379 8378 
4 8417 8418 8381 8416 
4 8418 8419 8382 8381 
4 8419 8420 8383 8382 
4 8420 8421 8384 8383 
4 8421 8422 8385 8384 
4 8422 8423 8386 8385 
4 8423 8424 8387 8386 
4 8425 8426 8389 8388 
4 8426 8427 8390 8389 
4 8427 8428 8391 8390 
4 8428 8429 8392 8391 
4 8429 8430 8393 8392 
4 8430 8431 8394 8393 
4 8431 8432 8395 8394 
4 8432 8433 8396 8395 
4 8433 8434 8397 8396 
4 8434 8435 8398 8397 
4 8435 8436 8399 8398 
4 8436 8437 8400 8399 
4 8437 8438 8401 8400 
4 8438 8439 8402 8401 
4 8439 8440 8403 8402 
4 8440 8441 8404 8403 
4 8441 8442 8405 8404 
4 8442 8443 8406 8405 
4 8443 8444 8407 8406 
4 8444 8445 8408 8407 
4 8445 8446 8409 8408 
4 8446 8447 8410 8409 
4 8447 8448 8411 8410 
4 8448 8449 8412 8411 
4 8449 8450 8413 8412 
4 8450 8451 8414 8413 
4 8451 8452 8415 8414 
4 8453 8454 8418 8417 
4 8454 8455 8419 8418 
4 8455 8456 8420 8419 
4 8456 8457 8421 8420 
4 8457 8458 8422 8421 
4 8458 8459 8423 8422 
4 8459 8460 8424 8423 
4 8461 8462 8426 8425 
4 8462 8463 8427 8426 
4 8463 8464 8428 8427 
4 8464 8465 8429 8428 
4 8465 8466 8430 8429 
4 8466 8467 8431 8430 
4 8467 8468 8432 8431 
4 8468 8469 8433 8432 
4 8469 8470 8434 8433 
4 8470 8471 8435 8434 
4 8471 8472 8436 8435 
4 8472 8473 8437 8436 
4 8473 8474 8438 8437 
4 8474 8475 8439 8438 
4 8475 8476 8440 8439 
4 8476 8477 8441 8440 
4 8477 8478 8442 8441 
4 8478 8479 8443 8442 
4 8479 8480 8444 8443 
4 8480 8481 8445 8444 
4 8481 8482 8446 8445 
4 8482 8483 8447 8446 
4 8483 8484 8448 8447 
4 8484 8485 8449 8448 
4 8485 8486 8450 8449 
4 8486 8487 8451 8450 
4 8487 8488 8452 8451 
4 8489 8490 8454 8453 
4 8490 8491 8455 8454 
4 8491 8492 8456 8455 
4 8492 8493 8457 8456 
4 8493 8494 8458 8457 
4 8494 8495 8459 8458 
4 8496 8497 8463 8462 
4 8497 8498 8464 8463 
4 8498 8499 8465 8464 
4 8499 8500 8466 8465 
4 8500 8501 8467 8466 
4 8501 8502 8468 8467 
4 8502 8503 8469 8468 
4 8503 8504 8470 8469 
4 8504 8505 8471 8470 
4 8505 8506 8472 8471 
4 8506 8507 8473 8472 
4 8507 8508 8474 8473 
4 8508 8509 8475 8474 
4 8509 8510 8476 8475 
4 8510 8511 8477 8476 
4 8511 8512 8478 8477 
4 8512 8513 8479 8478 
4 8513 8514 8480 8479 
4 8514 8515 8481 8480 
4 8515 8516 8482 8481 
4 8516 8517 8483 8482 
4 8517 8518 8484 8483 
4 8518 8519 8485 8484 
4 8519 8520 8486 8485 
4 8520 8521 8487 8486 
4 8521 8522 8488 8487 
4 8523 8524 8490 8489 
4 8524 8525 8491 8490 
4 8525 8526 8492 8491 
4 8526 8527 8493 8492 
4 8527 8528 8494 8493 
4 8528 8529 8495 8494 
4 8530 8531 8497 8496 
4 8531 8532 8498 8497 
4 8532 8533 8499 8498 
4 8533 8534 8500 8499 
4 8534 8535 8501 8500 
4 8535 8536 8502 8501 
4 8536 8537 8503 8502 
4 8537 8538 8504 8503 
4 8538 8539 8505 8504 
4 8539 8540 8506 8505 
4 8540 8541 8507 8506 
4 8541 8542 8508 8507 
4 8542 8543 8509 8508 
4 8543 8544 8510 8509 
4 8544 8545 8511 8510 
4 8545 8546 8512 8511 
4 8546 8547 8513 8512 
4 8547 8548 8514 8513 
4 8548 8549 8515 8514 
4 8549 8550 8516 8515 
4 8550 8551 8517 8516 
4 8551 8552 8518 8517 
4 8552 8553 8519 8518 
4 8553 8554 8520 8519 
4 8554 8555 8521 8520 
4 8557 8558 8523 8556 
4 8558 8559 8524 8523 
4 8559 8560 8525 8524 
4 8560 8561 8526 8525 
4 8561 8562 8527 8526 
4 8562 8563 8528 8527 
4 8563 8564 8529 8528 
4 8565 8566 8531 8530 
4 8566 8567 8532 8531 
4 8567 8568 8533 8532 
4 8568 8569 8534 8533 
4 8569 8570 8535 8534 
4 8570 8571 8536 8535 
4 8571 8572 8537 8536 
4 8572 8573 8538 8537 
4 8573 8574 8539 8538 
4 8574 8575 8540 8539 
4 8575 8576 8541 8540 
4 8576 8577 8542 8541 
4 8577 8578 8543 8542 
4 8578 8579 8544 8543 
4 8579 8580 8545 8544 
4 8580 8581 8546 8545 
4 8581 8582 8547 8546 
4 8582 8583 8548 8547 
4 8583 8584 8549 8548 
4 8584 8585 8550 8549 
4 8585 8586 8551 8550 
4 8586 8587 8552 8551 
4 8587 8588 8553 8552 
4 8588 8589 8554 8553 
4 8589 8590 8555 8554 
4 8591 8592 8558 8557 
4 8592 8593 8559 8558 
4 8593 8594 8560 8559 
4 8594 8595 8561 8560 
4 8595 8596 8562 8561 
4 8596 8597 8563 8562 
4 8598 8599 8567 8566 
4 8599 8600 8568 8567 
4 8600 8601 8569 8568 
4 8601 8602 8570 8569 
4 8602 8603 8571 8570 
4 8603 8604 8572 8571 
4 8604 8605 8573 8572 
4 8605 8606 8574 8573 
4 8606 8607 8575 8574 
4 8607 8608 8576 8575 
4 8608 8609 8577 8576 
4 8609 8610 8578 8577 
4 8610 8611 8579 8578 
4 8611 8612 8580 8579 
4 8612 8613 8581 8580 
4 8613 8614 8582 8581 
4 8614 8615 8583 8582 
4 8615 8616 8584 8583 
4 8616 8617 8585 8584 
4 8617 8618 8586 8585 
4 8618 8619 8587 8586 
4 8619 8620 8588 8587 
4 8620 8621 8589 8588 
4 8621 8622 8590 8589 
4 8623 8624 8592 8591 
4 8624 8625 8593 8592 
4 8625 8626 8594 8593 
4 8626 8627 8595 8594 
4 8627 8628 8596 8595 
4 8628 8629 8597 8596 
4 8630 8631 8599 8598 
4 8631 8632 8600 8599 
4 8632 8633 8601 8600 
4 8633 8634 8602 8601 
4 8634 8635 8603 8602 
4 8635 8636 8604 8603 
4 8636 8637 8605 8604 
4 8637 8638 8606 8605 
4 8638 8639 8607 8606 
4 8639 8640 8608 8607 
4 8640 8641 8609 8608 
4 8641 8642 8610 8609 
4 8642 8643 8611 8610 
4 8643 8644 8612 8611 
4 8644 8645 8613 8612 
4 8645 8646 8614 8613 
4 8646 8647 8615 8614 
4 8647 8648 8616 8615 
4 8648 8649 8617 8616 
4 8649 8650 8618 8617 
4 8650 8651 8619 8618 
4 8651 8652 8620 8619 
4 8652 8653 8621 8620 
4 8655 8656 8623 8654 
4 8656 8657 8624 8623 
4 8657 8658 8625 8624 
4 8658 8659 8626 8625 
4 8659 8660 8627 8626 
4 8660 8661 8628 8627 
4 8661 8662 8629 8628 
4 8663 8664 8631 8630 
4 8664 8665 8632 8631 
4 8665 8666 8633 8632 
4 8666 8667 8634 8633 
4 8667 8668 8635 8634 
4 8668 8669 8636 8635 
4 8669 8670 8637 8636 
4 8670 8671 8638 8637 
4 8671 8672 8639 8638 
4 8672 8673 8640 8639 
4 8673 8674 8641 8640 
4 8674 8675 8642 8641 
4 8675 8676 8643 8642 
4 8676 8677 8644 8643 
4 8677 8678 8645 8644 
4 8678 8679 8646 8645 
4 8679 8680 8647 8646 
4 8680 8681 8648 8647 
4 8681 8682 8649 8648 
4 8682 8683 8650 8649 
4 8683 8684 8651 8650 
4 8684 8685 8652 8651 
4 8685 8686 8653 8652 
4 8687 8688 8656 8655 
4 8688 8689 8657 8656 
4 8689 8690 8658 8657 
4 8690 8691 8659 8658 
4 8691 8692 8660 8659 
4 8692 8693 8661 8660 
4 8693 8694 8662 8661 
4 8695 8696 8666 8665 
4 8696 8697 8667 8666 
4 8697 8698 8668 8667 
4 8698 8699 8669 8668 
4 8699 8700 8670 8669 
4 8700 8701 8671 8670 
4 8701 8702 8672 8671 
4 8702 8703 8673 8672 
4 8703 8704 8674 8673 
4 8704 8705 8675 8674 
4 8705 8706 8676 8675 
4 8706 8707 8677 8676 
4 8707 8708 8678 8677 
4 8708 8709 8679 8678 
4 8709 8710 8680 8679 
4 8710 8711 8681 8680 
4 8711 8712 8682 8681 
4 8712 8713 8683 8682 
4 8713 8714 8684 8683 
4 8714 8715 8685 8684 
4 8717 8718 8687 8716 
4 8718 8719 8688 8687 
4 8719 8720 8689 8688 
4 8720 8721 8690 8689 
4 8721 8722 8691 8690 
4 8722 8723 8692 8691 
4 8723 8724 8693 8692 
4 8725 8726 8696 8695 
4 8726 8727 8697 8696 
4 8727 8728 8698 8697 
4 8728 8729 8699 8698 
4 8729 8730 8700 8699 
4 8730 8731 8701 8700 
4 8731 8732 8702 8701 
4 8732 8733 8703 8702 
4 8733 8734 8704 8703 
4 8734 8735 8705 8704 
4 8735 8736 8706 8705 
4 8736 8737 8707 8706 
4 8737 8738 8708 8707 
4 8738 8739 8709 8708 
4 8739 8740 8710 8709 
4 8740 8741 8711 8710 
4 8741 8742 8712 8711 
4 8742 8743 8713 8712 
4 8743 8744 8714 8713 
4 8744 8745 8715 8714 
4 8747 8748 8717 8746 
4 8748 8749 8718 8717 
4 8749 8750 8719 8718 
4 8750 8751 8720 8719 
4 8751 8752 8721 8720 
4 8752 8753 8722 8721 
4 8753 8754 8723 8722 
4 8754 8755 8724 8723 
4 8756 8757 8727 8726 
4 8757 8758 8728 8727 
4 8758 8759 8729 8728 
4 8759 8760 8730 8729 
4 8760 8761 8731 8730 
4 8761 8762 8732 8731 
4 8762 8763 8733 8732 
4 8763 8764 8734 8733 
4 8764 8765 8735 8734 
4 8765 8766 8736 8735 
4 8766 8767 8737 8736 
4 8767 8768 8738 8737 
4 8768 8769 8739 8738 
4 8769 8770 8740 8739 
4 8770 8771 8741 8740 
4 8771 8772 8742 8741 
4 8772 8773 8743 8742 
4 8773 8774 8744 8743 
4 8774 8775 8745 8744 
4 8777 8778 8747 8776 
4 8778 8779 8748 8747 
4 8779 8780 8749 8748 
4 8780 8781 8750 8749 
4 8781 8782 8751 8750 
4 8782 8783 8752 8751 
4 8783 8784 8753 8752 
4 8784 8785 8754 8753 
4 8785 8786 8755 8754 
4 8787 8788 8757 8756 
4 8788 8789 8758 8757 
4 8789 8790 8759 8758 
4 8790 8791 8760 8759 
4 8791 8792 8761 8760 
4 8792 8793 8762 8761 
4 8793 8794 8763 8762 
4 8794 8795 8764 8763 
4 8795 8796 8765 8764 
4 8796 8797 8766 8765 
4 8797 8798 8767 8766 
4 8798 8799 8768 8767 
4 8799 8800 8769 8768 
4 8800 8801 8770 8769 
4 8801 8802 8771 8770 
4 8802 8803 8772 8771 
4 8803 8804 8773 8772 
4 8804 8805 8774 8773 
4 8805 8806 8775 8774 
4 8808 8809 8777 8807 
4 8809 8810 8778 8777 
4 8810 8811 8779 8778 
4 8811 8812 8780 8779 
4 8812 8813 8781 8780 
4 8813 8814 8782 8781 
4 8814 8815 8783 8782 
4 8815 8816 8784 8783 
4 8816 8817 8785 8784 
4 8818 8819 8789 8788 
4 8819 8820 8790 8789 
4 8820 8821 8791 8790 
4 8821 8822 8792 8791 
4 8822 8823 8793 8792 
4 8823 8824 8794 8793 
4 8824 8825 8795 8794 
4 8825 8826 8796 8795 
4 8826 8827 8797 8796 
4 8827 8828 8798 8797 
4 8828 8829 8799 8798 
4 8829 8830 8800 8799 
4 8830 8831 8801 8800 
4 8831 8832 8802 8801 
4 8832 8833 8803 8802 
4 8833 8834 8804 8803 
4 8834 8835 8805 8804 
4 8835 8836 8806 8805 
4 8836 8837 8838 8806 
4 8837 8839 8840 8838 
4 8839 8841 8842 8840 
4 8841 8843 8808 8842 
4 8843 8844 8809 8808 
4 8844 8845 8810 8809 
4 8845 8846 8811 8810 
4 8846 8847 8812 8811 
4 8847 8848 8813 8812 
4 8848 8849 8814 8813 
4 8849 8850 8815 8814 
4 8850 8851 8816 8815 
4 8852 8853 8819 8818 
4 8853 8854 8820 8819 
4 8854 8855 8821 8820 
4 8855 8856 8822 8821 
4 8856 8857 8823 8822 
4 8857 8858 8824 8823 
4 8858 8859 8825 8824 
4 8859 8860 8826 8825 
4 8860 8861 8827 8826 
4 8861 8862 8828 8827 
4 8862 8863 8829 8828 
4 8863 8864 8830 8829 
4 8864 8865 8831 8830 
4 8865 8866 8832 8831 
4 8866 8867 8833 8832 
4 8867 8868 8834 8833 
4 8868 8869 8835 8834 
4 8869 8870 8836 8835 
4 8870 8871 8837 8836 
4 8871 8872 8839 8837 
4 8872 8873 8841 8839 
4 8873 8874 8843 8841 
4 8874 8875 8844 8843 
4 8875 8876 8845 8844 
4 8876 8877 8846 8845 
4 8877 8878 8847 8846 
4 8878 8879 8848 8847 
4 8879 8880 8849 8848 
4 8880 8881 8850 8849 
4 8882 8883 8854 8853 
4 8883 8884 8855 8854 
4 8884 8885 8856 8855 
4 8885 8886 8857 8856 
4 8886 8887 8858 8857 
4 8887 8888 8859 8858 
4 8888 8889 8860 8859 
4 8889 8890 8861 8860 
4 8890 8891 8862 8861 
4 8891 8892 8863 8862 
4 8892 8893 8864 8863 
4 8893 8894 8865 8864 
4 8894 8895 8866 8865 
4 8895 8896 8867 8866 
4 8896 8897 8868 8867 
4 8897 8898 8869 8868 
4 8898 8899 8870 8869 
4 8899 8900 8871 8870 
4 8900 8901 8872 8871 
4 8901 8902 8873 8872 
4 8902 8903 8874 8873 
4 8903 8904 8875 8874 
4 8904 8905 8876 8875 
4 8905 8906 8877 8876 
4 8906 8907 8878 8877 
4 8907 8908 8879 8878 
4 8908 8909 8880 8879 
4 8910 8911 8883 8882 
4 8911 8912 8884 8883 
4 8912 8913 8885 8884 
4 8913 8914 8886 8885 
4 8914 8915 8887 8886 
4 8915 8916 8888 8887 
4 8916 8917 8889 8888 
4 8917 8918 8890 8889 
4 8918 8919 8891 8890 
4 8919 8920 8892 8891 
4 8920 8921 8893 8892 
4 8921 8922 8894 8893 
4 8922 8923 8895 8894 
4 8923 8924 8896 8895 
4 8924 8925 8897 8896 
4 8925 8926 8898 8897 
4 8926 8927 8899 8898 
4 8927 8928 8900 8899 
4 8928 8929 8901 8900 
4 8929 8930 8902 8901 
4 8930 8931 8903 8902 
4 8931 8932 8904 8903 
4 8932 8933 8905 8904 
4 8933 8934 8906 8905 
4 8934 8935 8907 8906 
4 8936 8937 8911 8910 
4 8937 8938 8912 8911 
4 8938 8939 8913 8912 
4 8939 8940 8914 8913 
4 8940 8941 8915 8914 
4 8941 8942 8916 8915 
4 8942 8943 8917 8916 
4 8943 8944 8918 8917 
4 8944 8945 8919 8918 
4 8945 8946 8920 8919 
4 8946 8947 8921 8920 
4 8947 8948 8922 8921 
4 8948 8949 8923 8922 
4 8949 8950 8924 8923 
4 8950 8951 8925 8924 
4 8951 8952 8926 8925 
4 8952 8953 8927 8926 
4 8953 8954 8928 8927 
4 8954 8955 8929 8928 
4 8955 8956 8930 8929 
4 8956 8957 8931 8930 
4 8957 8958 8932 8931 
4 8958 8959 8933 8932 
4 8960 8961 8938 8937 
4 8961 8962 8939 8938 
4 8962 8963 8940 8939 
4 8963 8964 8941 8940 
4 8964 8965 8942 8941 
4 8965 8966 8943 8942 
4 8966 8967 8944 8943 
4 8967 8968 8945 8944 
4 8968 8969 8946 8945 
4 8969 8970 8947 8946 
4 8970 8971 8948 8947 
4 8971 8972 8949 8948 
4 8972 8973 8950 8949 
4 8973 8974 8951 8950 
4 8974 8975 8952 8951 
4 8975 8976 8953 8952 
4 8976 8977 8954 8953 
4 8977 8978 8955 8954 
4 8978 8979 8956 8955 
4 8979 8980 8957 8956 
4 8981 8982 8961 8960 
4 8982 8983 8962 8961 
4 8983 8984 8963 8962 
4 8984 8985 8964 8963 
4 8985 8986 8965 8964 
4 8986 8987 8966 8965 
4 8987 8988 8967 8966 
4 8988 8989 8968 8967 
4 8989 8990 8969 8968 
4 8990 8991 8970 8969 
4 8991 8992 8971 8970 
4 8992 8993 8972 8971 
4 8993 8994 8973 8972 
4 8994 8995 8974 8973 
4 8995 8996 8975 8974 
4 8996 8997 8976 8975 
4 8997 8998 8977 8976 
4 8999 9000 8982 8981 
4 9000 9001 8983 8982 
4 9001 9002 8984 8983 
4 9002 9003 8985 8984 
4 9003 9004 8986 8985 
4 9004 9005 8987 8986 
4 9005 9006 8988 8987 
4 9006 9007 8989 8988 
4 9007 9008 8990 8989 
4 9008 9009 8991 8990 
4 9009 9010 8992 8991 
4 9010 9011 8993 8992 
4 9011 9012 8994 8993 
4 9012 9013 8995 8994 
4 9013 9014 8996 8995 
4 9015 9016 9001 9000 
4 9016 9017 9002 9001 
4 9017 9018 9003 9002 
4 9018 9019 9004 9003 
4 9019 9020 9005 9004 
4 9020 9021 9006 9005 
4 9021 9022 9007 9006 
4 9022 9023 9008 9007 
4 9023 9024 9009 9008 
4 9024 9025 9010 9009 
4 9026 9027 9017 9016 
4 9027 9028 9018 9017 
4 9028 9029 9019 9018 
2 0 3 
2 0 1 
2 1 35 
2 3 5 
2 5 7 
2 7 9 
2 9 11 
2 10 11 
2 10 43 
2 12 13 
2 12 15 
2 13 48 
2 15 17 
2 17 19 
2 19 21 
2 21 23 
2 23 25 
2 25 27 
2 27 29 
2 29 31 
2 31 33 
2 33 35 
2 43 45 
2 45 47 
2 46 47 
2 46 70 
2 48 73 
2 70 72 
2 71 72 
2 71 99 
2 73 74 
2 74 100 
2 98 99 
2 98 124 
2 100 125 
2 124 151 
2 125 154 
2 151 153 
2 152 153 
2 152 184 
2 154 155 
2 155 187 
2 184 186 
2 185 186 
2 185 218 
2 187 221 
2 218 220 
2 219 220 
2 219 256 
2 221 222 
2 222 259 
2 256 258 
2 257 258 
2 257 295 
2 259 260 
2 260 298 
2 295 297 
2 296 297 
2 296 335 
2 298 299 
2 299 336 
2 334 335 
2 334 373 
2 336 337 
2 337 374 
2 372 373 
2 372 411 
2 374 412 
2 410 411 
2 410 448 
2 412 449 
2 448 487 
2 449 503 
2 465 466 
2 465 520 
2 466 467 
2 467 468 
2 468 469 
2 469 521 
2 486 487 
2 486 538 
2 488 489 
2 488 491 
2 489 539 
2 491 493 
2 493 495 
2 495 497 
2 496 497 
2 496 547 
2 498 499 
2 498 501 
2 499 555 
2 501 503 
2 520 575 
2 521 522 
2 522 523 
2 523 576 
2 538 593 
2 539 540 
2 540 594 
2 547 549 
2 549 551 
2 550 551 
2 550 604 
2 552 553 
2 552 555 
2 553 614 
2 575 636 
2 576 577 
2 577 578 
2 578 579 
2 579 637 
2 592 593 
2 592 652 
2 594 653 
2 604 606 
2 606 608 
2 608 610 
2 609 610 
2 609 669 
2 611 612 
2 611 614 
2 612 699 
2 636 723 
2 637 638 
2 638 639 
2 639 724 
2 651 652 
2 651 736 
2 653 654 
2 654 737 
2 669 671 
2 671 673 
2 673 675 
2 675 677 
2 677 679 
2 679 681 
2 681 683 
2 683 685 
2 685 687 
2 687 689 
2 689 691 
2 691 693 
2 693 695 
2 695 697 
2 697 699 
2 723 792 
2 724 725 
2 725 793 
2 736 806 
2 737 827 
2 791 883 
2 791 792 
2 793 794 
2 794 884 
2 806 808 
2 808 810 
2 810 812 
2 812 814 
2 814 816 
2 816 818 
2 818 820 
2 820 822 
2 822 824 
2 824 826 
2 825 826 
2 825 907 
2 827 912 
2 882 967 
2 882 883 
2 884 968 
2 907 909 
2 909 911 
2 910 911 
2 910 994 
2 912 995 
2 967 1052 
2 968 969 
2 969 1053 
2 993 994 
2 993 1077 
2 995 1078 
2 1051 1134 
2 1051 1052 
2 1053 1135 
2 1077 1159 
2 1078 1079 
2 1079 1160 
2 1134 1215 
2 1135 1136 
2 1136 1216 
2 1159 1239 
2 1160 1240 
2 1179 1259 
2 1179 1180 
2 1180 1181 
2 1181 1182 
2 1182 1183 
2 1183 1184 
2 1184 1185 
2 1185 1260 
2 1215 1290 
2 1216 1217 
2 1217 1291 
2 1239 1313 
2 1240 1314 
2 1259 1333 
2 1260 1261 
2 1261 1262 
2 1262 1263 
2 1263 1334 
2 1289 1360 
2 1289 1290 
2 1291 1361 
2 1313 1383 
2 1314 1315 
2 1315 1384 
2 1333 1402 
2 1334 1335 
2 1335 1336 
2 1336 1403 
2 1360 1427 
2 1361 1362 
2 1362 1428 
2 1380 1381 
2 1380 1446 
2 1381 1382 
2 1382 1383 
2 1384 1385 
2 1385 1447 
2 1402 1464 
2 1403 1404 
2 1404 1405 
2 1405 1465 
2 1427 1487 
2 1428 1488 
2 1444 1445 
2 1444 1504 
2 1445 1446 
2 1447 1448 
2 1448 1449 
2 1449 1505 
2 1464 1520 
2 1465 1466 
2 1466 1467 
2 1467 1521 
2 1487 1541 
2 1488 1489 
2 1489 1542 
2 1503 1504 
2 1503 1556 
2 1505 1557 
2 1520 1572 
2 1521 1522 
2 1522 1523 
2 1523 1573 
2 1541 1591 
2 1542 1543 
2 1543 1592 
2 1556 1605 
2 1557 1606 
2 1572 1621 
2 1573 1574 
2 1574 1622 
2 1591 1639 
2 1592 1640 
2 1604 1605 
2 1604 1652 
2 1606 1607 
2 1607 1653 
2 1621 1667 
2 1622 1623 
2 1623 1624 
2 1624 1668 
2 1639 1683 
2 1640 1684 
2 1652 1696 
2 1653 1697 
2 1667 1711 
2 1668 1669 
2 1669 1670 
2 1670 1712 
2 1682 1724 
2 1682 1683 
2 1684 1725 
2 1696 1739 
2 1697 1740 
2 1711 1756 
2 1712 1713 
2 1713 1757 
2 1724 1768 
2 1725 1769 
2 1738 1739 
2 1738 1784 
2 1740 1785 
2 1755 1800 
2 1755 1756 
2 1757 1758 
2 1758 1759 
2 1759 1801 
2 1768 1810 
2 1769 1770 
2 1770 1814 
2 1784 1831 
2 1785 1832 
2 1800 1847 
2 1801 1802 
2 1802 1803 
2 1803 1804 
2 1804 1848 
2 1809 1853 
2 1809 1810 
2 1811 1814 
2 1811 1812 
2 1812 1875 
2 1830 1831 
2 1830 1895 
2 1832 1833 
2 1833 1896 
2 1847 1912 
2 1848 1849 
2 1849 1850 
2 1850 1851 
2 1851 1852 
2 1852 1853 
2 1854 1857 
2 1854 1855 
2 1855 1918 
2 1857 1859 
2 1859 1861 
2 1861 1863 
2 1863 1865 
2 1865 1867 
2 1867 1869 
2 1869 1871 
2 1871 1873 
2 1873 1875 
2 1894 1895 
2 1894 1950 
2 1896 1951 
2 1911 1966 
2 1911 1912 
2 1913 1916 
2 1913 1914 
2 1914 1970 
2 1916 1918 
2 1949 1950 
2 1949 2004 
2 1951 2005 
2 1966 2022 
2 1967 1970 
2 1967 1968 
2 1968 2028 
2 2004 2066 
2 2005 2067 
2 2021 2083 
2 2021 2022 
2 2023 2026 
2 2023 2024 
2 2024 2089 
2 2026 2028 
2 2065 2066 
2 2065 2129 
2 2067 2068 
2 2068 2130 
2 2083 2145 
2 2084 2087 
2 2084 2085 
2 2085 2157 
2 2087 2089 
2 2129 2202 
2 2130 2203 
2 2145 2220 
2 2146 2149 
2 2146 2147 
2 2147 2228 
2 2149 2151 
2 2151 2153 
2 2153 2155 
2 2155 2157 
2 2201 2202 
2 2201 2278 
2 2203 2204 
2 2204 2279 
2 2219 2296 
2 2219 2220 
2 2221 2224 
2 2221 2222 
2 2222 2302 
2 2224 2226 
2 2226 2228 
2 2278 2356 
2 2279 2357 
2 2295 2375 
2 2295 2296 
2 2297 2300 
2 2297 2298 
2 2298 2389 
2 2300 2302 
2 2356 2446 
2 2357 2358 
2 2358 2447 
2 2375 2377 
2 2377 2379 
2 2379 2381 
2 2381 2383 
2 2383 2385 
2 2385 2387 
2 2387 2389 
2 2446 2529 
2 2447 2530 
2 2528 2529 
2 2528 2611 
2 2530 2531 
2 2531 2612 
2 2610 2611 
2 2610 2691 
2 2612 2692 
2 2691 2771 
2 2692 2693 
2 2693 2772 
2 2770 2771 
2 2770 2849 
2 2772 2850 
2 2848 2849 
2 2848 2926 
2 2850 2927 
2 2926 3003 
2 2927 3004 
2 2979 2980 
2 2979 3056 
2 2980 2981 
2 2981 2982 
2 2982 3057 
2 3003 3078 
2 3004 3079 
2 3055 3130 
2 3055 3056 
2 3057 3058 
2 3058 3059 
2 3059 3131 
2 3078 3150 
2 3079 3151 
2 3129 3201 
2 3129 3130 
2 3131 3132 
2 3132 3202 
2 3149 3150 
2 3149 3219 
2 3151 3152 
2 3152 3220 
2 3200 3268 
2 3200 3201 
2 3202 3203 
2 3203 3204 
2 3204 3269 
2 3219 3284 
2 3220 3285 
2 3267 3332 
2 3267 3268 
2 3269 3270 
2 3270 3271 
2 3271 3333 
2 3284 3346 
2 3285 3347 
2 3331 3393 
2 3331 3332 
2 3333 3334 
2 3334 3394 
2 3346 3408 
2 3347 3409 
2 3393 3455 
2 3394 3456 
2 3407 3408 
2 3407 3469 
2 3409 3473 
2 3454 3519 
2 3454 3455 
2 3456 3520 
2 3469 3533 
2 3470 3471 
2 3470 3473 
2 3471 3534 
2 3519 3583 
2 3520 3584 
2 3533 3597 
2 3534 3535 
2 3535 3598 
2 3583 3646 
2 3584 3647 
2 3596 3597 
2 3596 3661 
2 3598 3662 
2 3646 3710 
2 3647 3648 
2 3648 3711 
2 3661 3726 
2 3662 3727 
2 3710 3775 
2 3711 3712 
2 3712 3776 
2 3726 3792 
2 3727 3793 
2 3766 3832 
2 3766 3767 
2 3767 3768 
2 3768 3769 
2 3769 3833 
2 3775 3839 
2 3776 3777 
2 3777 3840 
2 3792 3855 
2 3793 3856 
2 3825 3888 
2 3825 3826 
2 3826 3827 
2 3827 3828 
2 3828 3829 
2 3829 3830 
2 3830 3831 
2 3831 3832 
2 3833 3889 
2 3838 3894 
2 3838 3839 
2 3840 3895 
2 3855 3910 
2 3856 3857 
2 3857 3911 
2 3886 3940 
2 3886 3887 
2 3887 3888 
2 3889 3941 
2 3894 3948 
2 3895 3949 
2 3910 3966 
2 3911 3967 
2 3938 3994 
2 3938 3939 
2 3939 3940 
2 3941 3942 
2 3942 3995 
2 3947 4000 
2 3947 3948 
2 3949 3950 
2 3950 4001 
2 3965 3966 
2 3965 4018 
2 3967 3968 
2 3968 4019 
2 3993 4044 
2 3993 3994 
2 3995 3996 
2 3996 4045 
2 3998 4047 
2 3998 3999 
2 3999 4000 
2 4001 4002 
2 4002 4048 
2 4017 4018 
2 4017 4065 
2 4019 4020 
2 4020 4066 
2 4044 4090 
2 4045 4046 
2 4046 4047 
2 4048 4049 
2 4049 4091 
2 4065 4109 
2 4066 4110 
2 4089 4133 
2 4089 4090 
2 4091 4092 
2 4092 4134 
2 4109 4153 
2 4110 4111 
2 4111 4112 
2 4112 4154 
2 4133 4175 
2 4134 4135 
2 4135 4179 
2 4152 4153 
2 4152 4197 
2 4154 4198 
2 4175 4219 
2 4176 4179 
2 4176 4177 
2 4177 4220 
2 4197 4241 
2 4198 4199 
2 4199 4200 
2 4200 4242 
2 4219 4261 
2 4220 4221 
2 4221 4265 
2 4241 4286 
2 4242 4243 
2 4243 4287 
2 4261 4307 
2 4262 4265 
2 4262 4263 
2 4263 4308 
2 4286 4332 
2 4287 4288 
2 4288 4333 
2 4306 4353 
2 4306 4307 
2 4308 4309 
2 4309 4363 
2 4332 4387 
2 4333 4334 
2 4334 4388 
2 4353 4355 
2 4355 4357 
2 4357 4359 
2 4358 4411 
2 4358 4359 
2 4360 4363 
2 4360 4361 
2 4361 4422 
2 4387 4449 
2 4388 4450 
2 4411 4413 
2 4413 4415 
2 4415 4417 
2 4417 4419 
2 4419 4421 
2 4420 4479 
2 4420 4421 
2 4422 4423 
2 4423 4483 
2 4448 4449 
2 4448 4509 
2 4450 4451 
2 4451 4510 
2 4478 4539 
2 4478 4479 
2 4480 4483 
2 4480 4481 
2 4481 4551 
2 4509 4579 
2 4510 4511 
2 4511 4580 
2 4539 4541 
2 4541 4543 
2 4543 4545 
2 4545 4547 
2 4547 4549 
2 4549 4551 
2 4579 4641 
2 4580 4581 
2 4581 4642 
2 4640 4641 
2 4640 4701 
2 4642 4643 
2 4643 4702 
2 4701 4760 
2 4702 4703 
2 4703 4761 
2 4760 4818 
2 4761 4819 
2 4805 4806 
2 4805 4863 
2 4806 4807 
2 4807 4808 
2 4808 4864 
2 4818 4874 
2 4819 4875 
2 4863 4919 
2 4864 4920 
2 4874 4930 
2 4875 4931 
2 4918 4976 
2 4918 4919 
2 4920 4977 
2 4930 4987 
2 4931 4932 
2 4932 4988 
2 4975 5031 
2 4975 4976 
2 4977 5032 
2 4987 5042 
2 4988 5043 
2 5030 5085 
2 5030 5031 
2 5032 5086 
2 5042 5096 
2 5043 5097 
2 5083 5137 
2 5083 5084 
2 5084 5085 
2 5086 5138 
2 5096 5148 
2 5097 5149 
2 5118 5170 
2 5118 5119 
2 5119 5120 
2 5120 5121 
2 5121 5122 
2 5122 5123 
2 5123 5124 
2 5124 5125 
2 5125 5171 
2 5136 5182 
2 5136 5137 
2 5138 5183 
2 5148 5195 
2 5149 5196 
2 5169 5216 
2 5169 5170 
2 5171 5172 
2 5172 5173 
2 5173 5174 
2 5174 5175 
2 5175 5176 
2 5176 5177 
2 5177 5178 
2 5178 5179 
2 5179 5180 
2 5180 5181 
2 5181 5182 
2 5183 5184 
2 5184 5217 
2 5195 5228 
2 5196 5229 
2 5214 5247 
2 5214 5215 
2 5215 5216 
2 5217 5248 
2 5228 5259 
2 5229 5260 
2 5246 5277 
2 5246 5247 
2 5248 5278 
2 5259 5289 
2 5260 5261 
2 5261 5290 
2 5276 5305 
2 5276 5277 
2 5278 5306 
2 5289 5319 
2 5290 5320 
2 5303 5333 
2 5303 5304 
2 5304 5305 
2 5306 5307 
2 5307 5334 
2 5318 5319 
2 5318 5345 
2 5320 5346 
2 5332 5358 
2 5332 5333 
2 5334 5359 
2 5345 5370 
2 5346 5371 
2 5357 5382 
2 5357 5358 
2 5359 5383 
2 5370 5394 
2 5371 5395 
2 5381 5405 
2 5381 5382 
2 5383 5406 
2 5394 5417 
2 5395 5418 
2 5405 5428 
2 5406 5429 
2 5417 5440 
2 5418 5441 
2 5428 5453 
2 5429 5454 
2 5440 5467 
2 5441 5442 
2 5442 5468 
2 5453 5479 
2 5454 5455 
2 5455 5480 
2 5467 5492 
2 5468 5493 
2 5479 5504 
2 5480 5505 
2 5492 5517 
2 5493 5494 
2 5494 5518 
2 5503 5527 
2 5503 5504 
2 5505 5528 
2 5517 5540 
2 5518 5541 
2 5527 5550 
2 5528 5551 
2 5540 5563 
2 5541 5564 
2 5550 5573 
2 5551 5574 
2 5563 5586 
2 5564 5587 
2 5573 5596 
2 5574 5597 
2 5586 5609 
2 5587 5610 
2 5596 5619 
2 5597 5620 
2 5609 5634 
2 5610 5635 
2 5619 5644 
2 5620 5621 
2 5621 5645 
2 5634 5658 
2 5635 5659 
2 5644 5668 
2 5645 5669 
2 5658 5682 
2 5659 5683 
2 5668 5692 
2 5669 5693 
2 5682 5706 
2 5683 5707 
2 5692 5718 
2 5693 5719 
2 5706 5732 
2 5707 5733 
2 5717 5743 
2 5717 5718 
2 5719 5744 
2 5732 5757 
2 5733 5758 
2 5743 5768 
2 5744 5769 
2 5757 5784 
2 5758 5785 
2 5768 5795 
2 5769 5770 
2 5770 5796 
2 5783 5784 
2 5783 5809 
2 5785 5810 
2 5795 5822 
2 5796 5823 
2 5809 5836 
2 5810 5837 
2 5821 5848 
2 5821 5822 
2 5823 5849 
2 5836 5862 
2 5837 5863 
2 5848 5876 
2 5849 5877 
2 5862 5892 
2 5863 5893 
2 5875 5907 
2 5875 5876 
2 5877 5878 
2 5878 5908 
2 5891 5892 
2 5891 5921 
2 5893 5922 
2 5906 5937 
2 5906 5907 
2 5908 5938 
2 5921 5953 
2 5922 5923 
2 5923 5954 
2 5937 5970 
2 5938 5939 
2 5939 5971 
2 5953 5987 
2 5954 5988 
2 5969 6005 
2 5969 5970 
2 5971 5972 
2 5972 6008 
2 5987 6025 
2 5988 6026 
2 6005 6007 
2 6006 6045 
2 6006 6007 
2 6008 6009 
2 6009 6048 
2 6025 6066 
2 6026 6067 
2 6045 6047 
2 6046 6088 
2 6046 6047 
2 6048 6049 
2 6049 6100 
2 6066 6118 
2 6067 6119 
2 6088 6090 
2 6090 6092 
2 6092 6094 
2 6094 6096 
2 6095 6147 
2 6095 6096 
2 6097 6100 
2 6097 6098 
2 6098 6167 
2 6118 6187 
2 6119 6120 
2 6120 6188 
2 6147 6149 
2 6149 6151 
2 6151 6153 
2 6153 6155 
2 6155 6157 
2 6157 6159 
2 6159 6161 
2 6161 6163 
2 6163 6165 
2 6165 6167 
2 6187 6244 
2 6188 6245 
2 6244 6303 
2 6245 6304 
2 6302 6303 
2 6302 6361 
2 6304 6362 
2 6361 6419 
2 6362 6420 
2 6390 6391 
2 6390 6448 
2 6391 6392 
2 6392 6393 
2 6393 6394 
2 6394 6449 
2 6418 6419 
2 6418 6473 
2 6420 6474 
2 6445 6499 
2 6445 6446 
2 6446 6447 
2 6447 6448 
2 6449 6450 
2 6450 6451 
2 6451 6500 
2 6473 6522 
2 6474 6523 
2 6498 6547 
2 6498 6499 
2 6500 6501 
2 6501 6548 
2 6522 6569 
2 6523 6570 
2 6547 6594 
2 6548 6549 
2 6549 6595 
2 6569 6615 
2 6570 6616 
2 6594 6640 
2 6595 6596 
2 6596 6641 
2 6615 6660 
2 6616 6661 
2 6640 6685 
2 6641 6686 
2 6660 6705 
2 6661 6706 
2 6685 6730 
2 6686 6731 
2 6705 6752 
2 6706 6753 
2 6730 6779 
2 6731 6732 
2 6732 6780 
2 6752 6800 
2 6753 6801 
2 6778 6828 
2 6778 6779 
2 6780 6829 
2 6799 6800 
2 6799 6848 
2 6801 6849 
2 6827 6877 
2 6827 6828 
2 6829 6878 
2 6847 6848 
2 6847 6898 
2 6849 6899 
2 6876 6928 
2 6876 6877 
2 6878 6879 
2 6879 6929 
2 6898 6948 
2 6899 6949 
2 6927 6979 
2 6927 6928 
2 6929 6980 
2 6947 6948 
2 6947 7000 
2 6949 7001 
2 6978 7032 
2 6978 6979 
2 6980 6981 
2 6981 7038 
2 7000 7058 
2 7001 7059 
2 7032 7034 
2 7034 7036 
2 7036 7038 
2 7058 7114 
2 7059 7115 
2 7113 7114 
2 7113 7169 
2 7115 7170 
2 7169 7224 
2 7170 7225 
2 7224 7279 
2 7225 7280 
2 7279 7334 
2 7280 7335 
2 7333 7334 
2 7333 7388 
2 7335 7389 
2 7388 7442 
2 7389 7443 
2 7442 7496 
2 7443 7497 
2 7496 7550 
2 7497 7551 
2 7550 7604 
2 7551 7552 
2 7552 7605 
2 7604 7657 
2 7605 7658 
2 7657 7710 
2 7658 7711 
2 7709 7710 
2 7709 7762 
2 7711 7712 
2 7712 7763 
2 7762 7813 
2 7763 7814 
2 7813 7864 
2 7814 7865 
2 7864 7915 
2 7865 7916 
2 7914 7915 
2 7914 7965 
2 7916 7917 
2 7917 7966 
2 7955 7956 
2 7955 8004 
2 7956 7957 
2 7957 7958 
2 7958 8005 
2 7965 8012 
2 7966 8013 
2 8003 8050 
2 8003 8004 
2 8005 8051 
2 8012 8058 
2 8013 8059 
2 8049 8095 
2 8049 8050 
2 8051 8096 
2 8057 8058 
2 8057 8102 
2 8059 8060 
2 8060 8103 
2 8094 8137 
2 8094 8095 
2 8096 8138 
2 8102 8146 
2 8103 8147 
2 8137 8181 
2 8138 8139 
2 8139 8182 
2 8146 8189 
2 8147 8148 
2 8148 8190 
2 8180 8222 
2 8180 8181 
2 8182 8223 
2 8188 8189 
2 8188 8229 
2 8190 8230 
2 8222 8262 
2 8223 8263 
2 8229 8271 
2 8230 8272 
2 8261 8303 
2 8261 8262 
2 8263 8264 
2 8264 8304 
2 8271 8311 
2 8272 8273 
2 8273 8312 
2 8303 8342 
2 8304 8343 
2 8311 8350 
2 8312 8351 
2 8341 8380 
2 8341 8342 
2 8343 8381 
2 8349 8350 
2 8349 8387 
2 8351 8352 
2 8352 8388 
2 8379 8415 
2 8379 8380 
2 8381 8416 
2 8387 8424 
2 8388 8425 
2 8415 8452 
2 8416 8417 
2 8417 8453 
2 8424 8460 
2 8425 8461 
2 8452 8488 
2 8453 8489 
2 8459 8460 
2 8459 8495 
2 8461 8462 
2 8462 8496 
2 8488 8522 
2 8489 8523 
2 8495 8529 
2 8496 8530 
2 8521 8555 
2 8521 8522 
2 8523 8556 
2 8529 8564 
2 8530 8565 
2 8555 8590 
2 8556 8557 
2 8557 8591 
2 8563 8564 
2 8563 8597 
2 8565 8566 
2 8566 8598 
2 8590 8622 
2 8591 8623 
2 8597 8629 
2 8598 8630 
2 8621 8653 
2 8621 8622 
2 8623 8654 
2 8629 8662 
2 8630 8663 
2 8653 8686 
2 8654 8655 
2 8655 8687 
2 8662 8694 
2 8663 8664 
2 8664 8665 
2 8665 8695 
2 8685 8715 
2 8685 8686 
2 8687 8716 
2 8693 8694 
2 8693 8724 
2 8695 8725 
2 8715 8745 
2 8716 8717 
2 8717 8746 
2 8724 8755 
2 8725 8726 
2 8726 8756 
2 8745 8775 
2 8746 8747 
2 8747 8776 
2 8755 8786 
2 8756 8787 
2 8775 8806 
2 8776 8777 
2 8777 8807 
2 8785 8786 
2 8785 8817 
2 8787 8788 
2 8788 8818 
2 8806 8838 
2 8807 8808 
2 8808 8842 
2 8816 8817 
2 8816 8851 
2 8818 8852 
2 8838 8840 
2 8840 8842 
2 8850 8851 
2 8850 8881 
2 8852 8853 
2 8853 8882 
2 8880 8881 
2 8880 8909 
2 8882 8910 
2 8907 8908 
2 8907 8935 
2 8908 8909 
2 8910 8936 
2 8933 8934 
2 8933 8959 
2 8934 8935 
2 8936 8937 
2 8937 8960 
2 8957 8958 
2 8957 8980 
2 8958 8959 
2 8960 8981 
2 8977 8978 
2 8977 8998 
2 8978 8979 
2 8979 8980 
2 8981 8999 
2 8996 8997 
2 8996 9014 
2 8997 8998 
2 8999 9000 
2 9000 9015 
2 9010 9011 
2 9010 9025 
2 9011 9012 
2 9012 9013 
2 9013 9014 
2 9015 9016 
2 9016 9026 
2 9019 9020 
2 9019 9029 
2 9020 9021 
2 9021 9022 
2 9022 9023 
2 9023 9024 
2 9024 9025 
2 9026 9027 
2 9027 9028 
2 9028 9029 

CELL_TYPES 9646
9
9
9
9
9
9
9
9
9
9
9
9
9
9
9
9
9
9
9
9
9
9
9
9
9
9
9
9
9
9
9
9
9
9
9
9
9
9
9
9
9
9
9
9
9
9
9
9
9
9
9
9
9
9
9
9
9
9
9
9
9
9
9
9
9
9
9
9
9
9
9
9
9
9
9
9
9
9
9
9
9
9
9
9
9
9
9
9
9
9
9
9
9
9
9
9
9
9
9
9
9
9
9
9
9
9
9
9
9
9
9
9
9
9
9
9
9
9
9
9
9
9
9
9
9
9
9
9
9
9
9
9
9
9
9
9
9
9
9
9
9
9
9
9
9
9
9
9
9
9
9
9
9
9
9
9
9
9
9
9
9
9
9
9
9
9
9
9
9
9
9
9
9
9
9
9
9
9
9
9
9
9
9
9
9
9
9
9
9
9
9
9
9
9
9
9
9
9
9
9
9
9
9
9
9
9
9
9
9
9
9
9
9
9
9
9
9
9
9
9
9
9
9
9
9
9
9
9
9
9
9
9
9
9
9
9
9
9
9
9
9
9
9
9
9
9
9
9
9
9
9
9
9
9
9
9
9
9
9
9
9
9
9
9
9
9
9
9
9
9
9
9
9
9
9
9
9
9
9
9
9
9
9
9
9
9
9
9
9
9
9
9
9
9
9
9
9
9
9
9
9
9
9
9
9
9
9
9
9
9
9
9
9
9
9
9
9
9
9
9
9
9
9
9
9
9
9
9
9
9
9
9
9
9
9
9
9
9
9
9
9
9
9
9
9
9
9
9
9
9
9
9
9
9
9
9
9
9
9
9
9
9
9
9
9
9
9
9
9
9
9
9
9
9
9
9
9
9
9
9
9
9
9
9
9
9
9
9
9
9
9
9
9
9
9
9
9
9
9
9
9
9
9
9
9
9
9
9
9
9
9
9
9
9
9
9
9
9
9
9
9
9
9
9
9
9
9
9
9
9
9
9
9
9
9
9
9
9
9
9
9
9
9
9
9
9
9
9
9
9
9
9
9
9
9
9
9
9
9
9
9
9
9
9
9
9
9
9
9
9
9
9
9
9
9
9
9
9
9
9
9
9
9
9
9
9
9
9
9
9
9
9
9
9
9
9
9
9
9
9
9
9
9
9
9
9
9
9
9
9
9
9
9
9
9
9
9
9
9
9
9
9
9
9
9
9
9
9
9
9
9
9
9
9
9
9
9
9
9
9
9
9
9
9
9
9
9
9
9
9
9
9
9
9
9
9
9
9
9
9
9
9
9
9
9
9
9
9
9
9
9
9
9
9
9
9
9
9
9
9
9
9
9
9
9
9
9
9
9
9
9
9
9
9
9
9
9
9
9
9
9
9
9
9
9
9
9
9
9
9
9
9
9
9
9
9
9
9
9
9
9
9
9
9
9
9
9
9
9
9
9
9
9
9
9
9
9
9
9
9
9
9
9
9
9
9
9
9
9
9
9
9
9
9
9
9
9
9
9
9
9
9
9
9
9
9
9
9
9
9
9
9
9
9
9
9
9
9
9
9
9
9
9
9
9
9
9
9
9
9
9
9
9
9
9
9
9
9
9
9
9
9
9
9
9
9
9
9
9
9
9
9
9
9
9
9
9
9
9
9
9
9
9
9
9
9
9
9
9
9
9
9
9
9
9
9
9
9
9
9
9
9
9
9
9
9
9
9
9
9
9
9
9
9
9
9
9
9
9
9
9
9
9
9
9
9
9
9
9
9
9
9
9
9
9
9
9
9
9
9
9
9
9
9
9
9
9
9
9
9
9
9
9
9
9
9
9
9
9
9
9
9
9
9
9
9
9
9
9
9
9
9
9
9
9
9
9
9
9
9
9
9
9
9
9
9
9
9
9
9
9
9
9
9
9
9
9
9
9
9
9
9
9
9
9
9
9
9
9
9
9
9
9
9
9
9
9
9
9
9
9
9
9
9
9
9
9
9
9
9
9
9
9
9
9
9
9
9
9
9
9
9
9
9
9
9
9
9
9
9
9
9
9
9
9
9
9
9
9
9
9
9
9
9
9
9
9
9
9
9
9
9
9
9
9
9
9
9
9
9
9
9
9
9
9
9
9
9
9
9
9
9
9
9
9
9
9
9
9
9
9
9
9
9
9
9
9
9
9
9
9
9
9
9
9
9
9
9
9
9
9
9
9
9
9
9
9
9
9
9
9
9
9
9
9
9
9
9
9
9
9
9
9
9
9
9
9
9
9
9
9
9
9
9
9
9
9
9
9
9
9
9
9
9
9
9
9
9
9
9
9
9
9
9
9
9
9
9
9
9
9
9
9
9
9
9
9
9
9
9
9
9
9
9
9
9
9
9
9
9
9
9
9
9
9
9
9
9
9
9
9
9
9
9
9
9
9
9
9
9
9
9
9
9
9
9
9
9
9
9
9
9
9
9
9
9
9
9
9
9
9
9
9
9
9
9
9
9
9
9
9
9
9
9
9
9
9
9
9
9
9
9
9
9
9
9
9
9
9
9
9
9
9
9
9
9
9
9
9
9
9
9
9
9
9
9
9
9
9
9
9
9
9
9
9
9
9
9
9
9
9
9
9
9
9
9
9
9
9
9
9
9
9
9
9
9
9
9
9
9
9
9
9
9
9
9
9
9
9
9
9
9
9
9
9
9
9
9
9
9
9
9
9
9
9
9
9
9
9
9
9
9
9
9
9
9
9
9
9
9
9
9
9
9
9
9
9
9
9
9
9
9
9
9
9
9
9
9
9
9
9
9
9
9
9
9
9
9
9
9
9
9
9
9
9
9
9
9
9
9
9
9
9
9
9
9
9
9
9
9
9
9
9
9
9
9
9
9
9
9
9
9
9
9
9
9
9
9
9
9
9
9
9
9
9
9
9
9
9
9
9
9
9
9
9
9
9
9
9
9
9
9
9
9
9
9
9
9
9
9
9
9
9
9
9
9
9
9
9
9
9
9
9
9
9
9
9
9
9
9
9
9
9
9
9
9
9
9
9
9
9
9
9
9
9
9
9
9
9
9
9
9
9
9
9
9
9
9
9
9
9
9
9
9
9
9
9
9
9
9
9
9
9
9
9
9
9
9
9
9
9
9
9
9
9
9
9
9
9
9
9
9
9
9
9
9
9
9
9
9
9
9
9
9
9
9
9
9
9
9
9
9
9
9
9
9
9
9
9
9
9
9
9
9
9
9
9
9
9
9
9
9
9
9
9
9
9
9
9
9
9
9
9
9
9
9
9
9
9
9
9
9
9
9
9
9
9
9
9
9
9
9
9
9
9
9
9
9
9
9
9
9
9
9
9
9
9
9
9
9
9
9
9
9
9
9
9
9
9
9
9
9
9
9
9
9
9
9
9
9
9
9
9
9
9
9
9
9
9
9
9
9
9
9
9
9
9
9
9
9
9
9
9
9
9
9
9
9
9
9
9
9
9
9
9
9
9
9
9
9
9
9
9
9
9
9
9
9
9
9
9
9
9
9
9
9
9
9
9
9
9
9
9
9
9
9
9
9
9
9
9
9
9
9
9
9
9
9
9
9
9
9
9
9
9
9
9
9
9
9
9
9
9
9
9
9
9
9
9
9
9
9
9
9
9
9
9
9
9
9
9
9
9
9
9
9
9
9
9
9
9
9
9
9
9
9
9
9
9
9
9
9
9
9
9
9
9
9
9
9
9
9
9
9
9
9
9
9
9
9
9
9
9
9
9
9
9
9
9
9
9
9
9
9
9
9
9
9
9
9
9
9
9
9
9
9
9
9
9
9
9
9
9
9
9
9
9
9
9
9
9
9
9
9
9
9
9
9
9
9
9
9
9
9
9
9
9
9
9
9
9
9
9
9
9
9
9
9
9
9
9
9
9
9
9
9
9
9
9
9
9
9
9
9
9
9
9
9
9
9
9
9
9
9
9
9
9
9
9
9
9
9
9
9
9
9
9
9
9
9
9
9
9
9
9
9
9
9
9
9
9
9
9
9
9
9
9
9
9
9
9
9
9
9
9
9
9
9
9
9
9
9
9
9
9
9
9
9
9
9
9
9
9
9
9
9
9
9
9
9
9
9
9
9
9
9
9
9
9
9
9
9
9
9
9
9
9
9
9
9
9
9
9
9
9
9
9
9
9
9
9
9
9
9
9
9
9
9
9
9
9
9
9
9
9
9
9
9
9
9
9
9
9
9
9
9
9
9
9
9
9
9
9
9
9
9
9
9
9
9
9
9
9
9
9
9
9
9
9
9
9
9
9
9
9
9
9
9
9
9
9
9
9
9
9
9
9
9
9
9
9
9
9
9
9
9
9
9
9
9
9
9
9
9
9
9
9
9
9
9
9
9
9
9
9
9
9
9
9
9
9
9
9
9
9
9
9
9
9
9
9
9
9
9
9
9
9
9
9
9
9
9
9
9
9
9
9
9
9
9
9
9
9
9
9
9
9
9
9
9
9
9
9
9
9
9
9
9
9
9
9
9
9
9
9
9
9
9
9
9
9
9
9
9
9
9
9
9
9
9
9
9
9
9
9
9
9
9
9
9
9
9
9
9
9
9
9
9
9
9
9
9
9
9
9
9
9
9
9
9
9
9
9
9
9
9
9
9
9
9
9
9
9
9
9
9
9
9
9
9
9
9
9
9
9
9
9
9
9
9
9
9
9
9
9
9
9
9
9
9
9
9
9
9
9
9
9
9
9
9
9
9
9
9
9
9
9
9
9
9
9
9
9
9
9
9
9
9
9
9
9
9
9
9
9
9
9
9
9
9
9
9
9
9
9
9
9
9
9
9
9
9
9
9
9
9
9
9
9
9
9
9
9
9
9
9
9
9
9
9
9
9
9
9
9
9
9
9
9
9
9
9
9
9
9
9
9
9
9
9
9
9
9
9
9
9
9
9
9
9
9
9
9
9
9
9
9
9
9
9
9
9
9
9
9
9
9
9
9
9
9
9
9
9
9
9
9
9
9
9
9
9
9
9
9
9
9
9
9
9
9
9
9
9
9
9
9
9
9
9
9
9
9
9
9
9
9
9
9
9
9
9
9
9
9
9
9
9
9
9
9
9
9
9
9
9
9
9
9
9
9
9
9
9
9
9
9
9
9
9
9
9
9
9
9
9
9
9
9
9
9
9
9
9
9
9
9
9
9
9
9
9
9
9
9
9
9
9
9
9
9
9
9
9
9
9
9
9
9
9
9
9
9
9
9
9
9
9
9
9
9
9
9
9
9
9
9
9
9
9
9
9
9
9
9
9
9
9
9
9
9
9
9
9
9
9
9
9
9
9
9
9
9
9
9
9
9
9
9
9
9
9
9
9
9
9
9
9
9
9
9
9
9
9
9
9
9
9
9
9
9
9
9
9
9
9
9
9
9
9
9
9
9
9
9
9
9
9
9
9
9
9
9
9
9
9
9
9
9
9
9
9
9
9
9
9
9
9
9
9
9
9
9
9
9
9
9
9
9
9
9
9
9
9
9
9
9
9
9
9
9
9
9
9
9
9
9
9
9
9
9
9
9
9
9
9
9
9
9
9
9
9
9
9
9
9
9
9
9
9
9
9
9
9
9
9
9
9
9
9
9
9
9
9
9
9
9
9
9
9
9
9
9
9
9
9
9
9
9
9
9
9
9
9
9
9
9
9
9
9
9
9
9
9
9
9
9
9
9
9
9
9
9
9
9
9
9
9
9
9
9
9
9
9
9
9
9
9
9
9
9
9
9
9
9
9
9
9
9
9
9
9
9
9
9
9
9
9
9
9
9
9
9
9
9
9
9
9
9
9
9
9
9
9
9
9
9
9
9
9
9
9
9
9
9
9
9
9
9
9
9
9
9
9
9
9
9
9
9
9
9
9
9
9
9
9
9
9
9
9
9
9
9
9
9
9
9
9
9
9
9
9
9
9
9
9
9
9
9
9
9
9
9
9
9
9
9
9
9
9
9
9
9
9
9
9
9
9
9
9
9
9
9
9
9
9
9
9
9
9
9
9
9
9
9
9
9
9
9
9
9
9
9
9
9
9
9
9
9
9
9
9
9
9
9
9
9
9
9
9
9
9
9
9
9
9
9
9
9
9
9
9
9
9
9
9
9
9
9
9
9
9
9
9
9
9
9
9
9
9
9
9
9
9
9
9
9
9
9
9
9
9
9
9
9
9
9
9
9
9
9
9
9
9
9
9
9
9
9
9
9
9
9
9
9
9
9
9
9
9
9
9
9
9
9
9
9
9
9
9
9
9
9
9
9
9
9
9
9
9
9
9
9
9
9
9
9
9
9
9
9
9
9
9
9
9
9
9
9
9
9
9
9
9
9
9
9
9
9
9
9
9
9
9
9
9
9
9
9
9
9
9
9
9
9
9
9
9
9
9
9
9
9
9
9
9
9
9
9
9
9
9
9
9
9
9
9
9
9
9
9
9
9
9
9
9
9
9
9
9
9
9
9
9
9
9
9
9
9
9
9
9
9
9
9
9
9
9
9
9
9
9
9
9
9
9
9
9
9
9
9
9
9
9
9
9
9
9
9
9
9
9
9
9
9
9
9
9
9
9
9
9
9
9
9
9
9
9
9
9
9
9
9
9
9
9
9
9
9
9
9
9
9
9
9
9
9
9
9
9
9
9
9
9
9
9
9
9
9
9
9
9
9
9
9
9
9
9
9
9
9
9
9
9
9
9
9
9
9
9
9
9
9
9
9
9
9
9
9
9
9
9
9
9
9
9
9
9
9
9
9
9
9
9
9
9
9
9
9
9
9
9
9
9
9
9
9
9
9
9
9
9
9
9
9
9
9
9
9
9
9
9
9
9
9
9
9
9
9
9
9
9
9
9
9
9
9
9
9
9
9
9
9
9
9
9
9
9
9
9
9
9
9
9
9
9
9
9
9
9
9
9
9
9
9
9
9
9
9
9
9
9
9
9
9
9
9
9
9
9
9
9
9
9
9
9
9
9
9
9
9
9
9
9
9
9
9
9
9
9
9
9
9
9
9
9
9
9
9
9
9
9
9
9
9
9
9
9
9
9
9
9
9
9
9
9
9
9
9
9
9
9
9
9
9
9
9
9
9
9
9
9
9
9
9
9
9
9
9
9
9
9
9
9
9
9
9
9
9
9
9
9
9
9
9
9
9
9
9
9
9
9
9
9
9
9
9
9
9
9
9
9
9
9
9
9
9
9
9
9
9
9
9
9
9
9
9
9
9
9
9
9
9
9
9
9
9
9
9
9
9
9
9
9
9
9
9
9
9
9
9
9
9
9
9
9
9
9
9
9
9
9
9
9
9
9
9
9
9
9
9
9
9
9
9
9
9
9
9
9
9
9
9
9
9
9
9
9
9
9
9
9
9
9
9
9
9
9
9
9
9
9
9
9
9
9
9
9
9
9
9
9
9
9
9
9
9
9
9
9
9
9
9
9
9
9
9
9
9
9
9
9
9
9
9
9
9
9
9
9
9
9
9
9
9
9
9
9
9
9
9
9
9
9
9
9
9
9
9
9
9
9
9
9
9
9
9
9
9
9
9
9
9
9
9
9
9
9
9
9
9
9
9
9
9
9
9
9
9
9
9
9
9
9
9
9
9
9
9
9
9
9
9
9
9
9
9
9
9
9
9
9
9
9
9
9
9
9
9
9
9
9
9
9
9
9
9
9
9
9
9
9
9
9
9
9
9
9
9
9
9
9
9
9
9
9
9
9
9
9
9
9
9
9
9
9
9
9
9
9
9
9
9
9
9
9
9
9
9
9
9
9
9
9
9
9
9
9
9
9
9
9
9
9
9
9
9
9
9
9
9
9
9
9
9
9
9
9
9
9
9
9
9
9
9
9
9
9
9
9
9
9
9
9
9
9
9
9
9
9
9
9
9
9
9
9
9
9
9
9
9
9
9
9
9
9
9
9
9
9
9
9
9
9
9
9
9
9
9
9
9
9
9
9
9
9
9
9
9
9
9
9
9
9
9
9
9
9
9
9
9
9
9
9
9
9
9
9
9
9
9
9
9
9
9
9
9
9
9
9
9
9
9
9
9
9
9
9
9
9
9
9
9
9
9
9
9
9
9
9
9
9
9
9
9
9
9
9
9
9
9
9
9
9
9
9
9
9
9
9
9
9
9
9
9
9
9
9
9
9
9
9
9
9
9
9
9
9
9
9
9
9
9
9
9
9
9
9
9
9
9
9
9
9
9
9
9
9
9
9
9
9
9
9
9
9
9
9
9
9
9
9
9
9
9
9
9
9
9
9
9
9
9
9
9
9
9
9
9
9
9
9
9
9
9
9
9
9
9
9
9
9
9
9
9
9
9
9
9
9
9
9
9
9
9
9
9
9
9
9
9
9
9
9
9
9
9
9
9
9
9
9
9
9
9
9
9
9
9
9
9
9
9
9
9
9
9
9
9
9
9
9
9
9
9
9
9
9
9
9
9
9
9
9
9
9
9
9
9
9
9
9
9
9
9
9
9
9
9
9
9
9
9
9
9
9
9
9
9
9
9
9
9
9
9
9
9
9
9
9
9
9
9
9
9
9
9
9
9
9
9
9
9
9
9
9
9
9
9
9
9
9
9
9
9
9
9
9
9
9
9
9
9
9
9
9
9
9
9
9
9
9
9
9
9
9
9
9
9
9
9
9
9
9
9
9
9
9
9
9
9
9
9
9
9
9
9
9
9
9
9
9
9
9
9
9
9
9
9
9
9
9
9
9
9
9
9
9
9
9
9
9
9
9
9
9
9
9
9
9
9
9
9
9
9
9
9
9
9
9
9
9
9
9
9
9
9
9
9
9
9
9
9
9
9
9
9
9
9
9
9
9
9
9
9
9
9
9
9
9
9
9
9
9
9
9
9
9
9
9
9
9
9
9
9
9
9
9
9
9
9
9
9
9
9
9
9
9
9
9
9
9
9
9
9
9
9
9
9
9
9
9
9
9
9
9
9
9
9
9
9
9
9
9
9
9
9
9
9
9
9
9
9
9
9
9
9
9
9
9
9
9
9
9
9
9
9
9
9
9
9
9
9
9
9
9
9
9
9
9
9
9
9
9
9
9
9
9
9
9
9
9
9
9
9
9
9
9
9
9
9
9
9
9
9
9
9
9
9
9
9
9
9
9
9
9
9
9
9
9
9
9
9
9
9
9
9
9
9
9
9
9
9
9
9
9
9
9
9
9
9
9
9
9
9
9
9
9
9
9
9
9
9
9
9
9
9
9
9
9
9
9
9
9
9
9
9
9
9
9
9
9
9
9
9
9
9
9
9
9
9
9
9
9
9
9
9
9
9
9
9
9
9
9
9
9
9
9
9
9
9
9
9
9
9
9
9
9
9
9
9
9
9
9
9
9
9
9
9
9
9
9
9
9
9
9
9
9
9
9
9
9
9
9
9
9
9
9
9
9
9
9
9
9
9
9
9
9
9
9
9
9
9
9
9
9
9
9
9
9
9
9
9
9
9
9
9
9
9
9
9
9
9
9
9
9
9
9
9
9
9
9
9
9
9
9
9
9
9
9
9
9
9
9
9
9
9
9
9
9
9
9
9
9
9
9
9
9
9
9
9
9
9
9
9
9
9
9
9
9
9
9
9
9
9
9
9
9
9
9
9
9
9
9
9
9
9
9
9
9
9
9
9
9
9
9
9
9
9
9
9
9
9
9
9
9
9
9
9
9
9
9
9
9
9
9
9
9
9
9
9
9
9
9
9
9
9
9
9
9
9
9
9
9
9
9
9
9
9
9
9
9
9
9
9
9
9
9
9
9
9
9
9
9
9
9
9
9
9
9
9
9
9
9
9
9
9
9
9
9
9
9
9
9
9
9
9
9
9
9
9
9
9
9
9
9
9
9
9
9
9
9
9
9
9
9
9
9
9
9
9
9
9
9
9
9
9
9
9
9
9
9
9
9
9
9
9
9
9
9
9
9
9
9
9
9
9
9
9
9
9
9
9
9
9
9
9
9
9
9
9
9
9
9
9
9
9
9
9
9
9
9
9
9
9
9
9
9
9
9
9
9
9
9
9
9
9
9
9
9
9
9
9
9
9
9
9
9
9
9
9
9
9
9
9
9
9
9
9
9
9
9
9
9
9
9
9
9
9
9
9
9
9
9
9
9
9
9
9
9
9
9
9
9
9
9
9
9
9
9
9
9
9
9
9
9
9
9
9
9
9
9
9
9
9
9
9
9
9
9
9
9
9
9
9
9
9
9
9
9
9
9
9
9
9
9
9
9
9
9
9
9
9
9
9
9
9
9
9
9
9
9
9
9
9
9
9
9
9
9
9
9
9
9
9
9
9
9
9
9
9
9
9
9
9
9
9
9
9
9
9
9
9
9
9
9
9
9
9
9
9
9
9
9
9
9
9
9
9
9
9
9
9
9
9
9
9
9
9
9
9
9
9
9
9
9
9
9
9
9
9
9
9
9
9
9
9
9
9
9
9
9
9
9
9
9
9
9
9
9
9
9
9
9
9
9
9
9
9
9
9
9
9
9
9
9
9
9
9
9
9
9
9
9
9
9
9
9
9
9
9
9
9
9
9
9
9
9
9
9
9
9
9
9
9
9
9
9
9
9
9
9
9
9
9
9
9
9
9
9
9
9
9
9
9
9
9
9
9
9
9
9
9
9
9
9
9
9
9
9
9
9
9
9
9
9
9
9
9
9
9
9
9
9
9
9
9
9
9
9
9
9
9
9
9
9
9
9
9
9
9
9
9
9
9
9
9
9
9
9
9
9
9
9
9
9
9
9
9
9
9
9
9
9
9
9
9
9
9
9
9
9
9
9
9
9
9
9
9
9
9
9
9
9
9
9
9
9
9
9
9
9
9
9
9
9
9
9
9
9
9
9
9
9
9
9
9
9
9
9
9
9
9
9
9
9
9
9
9
9
9
9
9
9
9
9
9
9
9
9
9
9
9
9
9
9
9
9
9
9
9
9
9
9
9
9
9
9
9
9
9
9
9
9
9
9
9
9
9
9
9
9
9
9
9
9
9
9
9
9
9
9
9
9
9
9
9
9
9
9
9
9
9
9
9
9
9
9
9
9
9
9
9
9
9
9
9
9
9
9
9
9
9
9
9
9
9
9
9
9
9
9
9
9
9
9
9
9
9
9
9
9
9
9
9
9
9
9
9
9
9
9
9
9
9
9
9
9
9
9
9
9
9
9
9
9
9
9
9
9
9
9
9
9
9
9
9
9
9
9
9
9
9
9
9
9
9
9
9
9
9
9
9
9
9
9
9
9
9
9
9
9
9
9
9
9
9
9
9
9
9
9
9
9
9
9
9
9
9
9
9
9
9
9
9
9
9
9
9
9
9
9
9
9
9
9
9
9
9
9
9
9
9
9
9
9
9
9
9
9
9
9
9
9
9
9
9
9
9
9
9
9
9
9
9
9
9
9
9
9
9
9
9
9
9
9
9
9
9
9
9
9
9
9
9
9
9
9
9
9
9
9
9
9
9
9
9
9
9
9
9
9
9
9
9
9
9
9
9
9
9
9
9
9
9
9
9
9
9
9
9
9
9
9
9
9
9
9
9
9
9
9
9
9
9
9
9
9
9
9
9
9
9
9
9
9
9
9
9
9
9
9
9
9
9
9
9
9
9
9
9
9
9
9
9
9
9
9
9
9
9
9
9
9
9
9
9
9
9
9
9
9
9
9
9
9
9
9
9
9
9
9
9
9
9
9
9
9
9
9
9
9
9
9
9
9
9
9
9
9
9
9
9
9
9
9
9
9
9
9
9
9
9
9
9
9
9
9
9
9
9
9
9
9
9
9
9
9
9
9
9
9
9
9
9
9
9
9
9
9
9
9
9
9
9
9
9
9
9
9
9
9
9
9
9
9
9
9
9
9
9
9
9
9
9
9
9
9
9
9
9
9
9
9
9
9
9
9
9
9
9
9
9
9
9
9
9
9
9
9
9
9
9
9
9
9
9
9
9
9
9
9
9
9
9
9
9
9
9
9
9
9
9
9
9
9
9
9
9
9
9
9
9
9
9
9
9
9
9
9
9
9
9
9
9
9
9
9
9
9
9
9
9
9
9
9
9
9
9
9
9
9
9
9
9
9
9
9
9
9
9
9
9
9
9
9
9
9
9
9
9
9
9
9
9
9
9
9
9
9
9
9
9
9
9
9
9
9
9
9
9
9
9
9
9
9
9
9
9
9
9
9
9
9
9
9
9
9
9
9
9
9
9
9
9
9
9
9
9
9
9
9
9
9
9
9
9
9
9
9
9
9
9
9
9
9
9
9
9
9
9
9
9
9
9
9
9
9
9
9
9
9
9
9
9
9
9
9
9
9
9
9
9
9
9
9
9
9
9
9
9
9
9
9
9
9
9
9
9
9
9
9
9
9
9
9
9
9
9
9
9
9
9
9
9
9
9
9
9
9
9
9
9
9
9
9
9
9
9
9
9
9
9
9
9
9
9
9
9
9
9
9
9
9
9
9
9
9
9
9
9
9
9
9
9
9
9
9
9
9
9
9
9
9
9
9
9
9
9
9
9
9
9
9
9
9
9
9
9
9
9
9
9
9
9
9
9
9
9
9
9
9
9
9
9
9
9
9
9
9
9
9
9
9
9
9
9
9
9
9
9
9
9
9
9
9
9
9
9
9
9
9
9
9
9
9
9
9
9
9
9
9
9
9
9
9
9
9
9
9
9
9
9
9
9
9
9
9
9
9
9
9
9
9
9
9
9
9
9
9
9
9
9
9
9
9
9
9
9
9
9
9
9
9
9
9
9
9
9
9
9
9
9
9
9
9
9
9
9
9
9
9
9
9
9
9
9
9
9
9
9
9
9
9
9
9
9
9
9
9
9
9
9
9
9
9
9
9
9
9
9
9
9
9
9
9
9
9
9
9
9
9
9
9
9
9
9
9
9
9
9
9
9
9
9
9
9
9
9
9
9
9
9
9
9
9
9
9
9
9
9
9
9
9
9
9
9
9
9
9
9
9
9
9
9
9
9
9
9
9
9
9
9
9
9
9
9
9
9
9
9
9
9
9
9
9
9
9
9
9
9
9
9
9
9
9
9
9
9
9
9
9
9
9
9
9
9
9
9
9
9
9
9
9
9
9
9
9
9
9
9
9
9
9
9
9
9
9
9
9
9
9
9
9
9
9
9
9
9
9
9
9
9
9
9
9
9
9
9
9
9
9
9
9
9
9
9
9
9
9
9
9
9
9
9
9
9
9
9
9
9
9
9
9
9
9
9
9
9
9
9
9
9
9
9
9
9
9
9
9
9
9
9
9
9
9
9
9
9
9
9
9
9
9
9
9
9
9
9
9
9
9
9
9
9
9
9
9
9
9
9
9
9
9
9
9
9
9
9
9
9
9
9
9
9
9
9
9
9
9
9
9
9
9
9
9
9
9
9
9
9
9
9
9
9
9
9
9
9
9
9
9
9
9
9
9
9
9
9
9
9
9
9
9
9
9
9
9
9
9
9
9
9
9
9
9
9
9
9
9
9
9
9
9
9
9
9
9
9
9
9
9
9
9
9
9
9
9
9
9
9
9
9
9
9
9
9
9
9
9
9
9
9
9
9
9
9
9
9
9
9
9
9
9
9
9
9
9
9
9
9
9
9
9
9
9
9
9
9
9
9
9
9
9
9
9
9
9
9
9
9
9
9
9
9
9
9
9
9
9
9
9
9
9
9
9
9
9
9
9
9
9
9
9
9
9
9
9
9
9
9
9
9
9
9
9
9
9
9
9
9
9
9
9
9
9
9
9
9
9
9
9
9
9
9
9
9
9
9
9
9
9
9
9
9
9
9
9
9
9
9
9
9
9
9
9
9
9
9
9
9
9
9
9
9
9
9
9
9
9
9
9
9
9
9
9
9
9
9
9
9
9
9
9
9
9
9
9
9
9
9
9
9
9
9
9
9
9
9
9
9
9
9
9
9
9
9
9
9
9
9
9
9
9
9
9
9
9
9
9
9
9
9
9
9
9
9
9
9
9
9
9
9
9
9
9
9
9
9
9
9
9
9
9
9
9
9
9
9
9
9
9
9
9
9
9
9
9
9
9
9
9
9
9
9
9
9
9
9
9
9
9
9
9
9
9
9
9
9
9
9
9
9
9
9
9
9
9
9
9
9
9
9
9
9
9
9
9
9
9
9
9
9
9
9
9
9
9
9
9
9
9
9
9
9
9
9
9
9
9
9
9
9
9
9
9
9
9
9
9
9
9
9
9
9
9
9
9
9
9
9
9
9
9
9
9
9
9
9
9
9
9
9
9
9
9
9
9
9
9
9
9
9
9
9
9
9
9
9
9
9
9
9
9
9
9
9
9
9
9
9
9
9
9
9
9
9
9
9
9
9
9
9
9
9
9
9
9
9
9
9
9
9
9
9
9
9
9
9
9
9
9
9
9
9
9
9
9
9
9
9
9
9
9
9
9
9
9
9
9
9
9
9
9
9
9
9
9
9
9
9
9
9
9
9
9
9
9
9
9
9
9
9
9
9
9
9
9
9
9
9
9
9
9
9
9
9
9
9
9
9
9
9
9
9
9
9
9
9
9
9
9
9
9
9
9
9
9
9
9
9
9
9
9
9
9
9
9
9
9
9
9
9
9
9
9
9
9
9
9
9
9
9
9
9
9
9
9
9
9
9
9
9
9
9
9
9
9
9
9
9
9
9
9
9
9
9
9
9
9
9
9
9
9
9
9
9
9
9
9
9
9
9
9
9
9
9
9
9
9
9
9
9
9
9
9
9
9
9
9
9
9
9
9
9
9
9
9
9
9
9
9
9
9
9
9
9
9
9
9
9
9
9
9
9
9
9
9
9
9
9
9
9
9
9
9
9
9
9
9
9
9
9
9
9
9
9
9
9
9
9
9
9
9
9
9
9
9
9
9
9
9
9
9
9
9
9
9
9
9
9
9
9
9
9
9
9
9
9
9
9
9
9
9
9
9
9
9
9
9
9
9
9
9
9
9
9
9
9
9
9
9
9
9
9
9
9
9
9
9
9
9
9
9
9
9
9
9
9
9
9
9
9
9
9
9
9
9
9
9
9
9
9
9
9
9
9
9
9
9
9
9
9
9
9
9
9
9
9
9
9
9
9
9
9
9
9
9
9
9
9
9
9
9
9
9
9
9
9
9
9
9
9
9
9
9
9
9
9
9
9
9
9
9
9
9
9
9
9
9
9
9
9
9
9
9
9
9
9
9
9
9
9
9
9
9
9
9
9
9
9
9
9
9
9
9
9
9
9
9
9
9
9
9
9
9
9
9
9
9
9
9
9
9
9
9
9
9
9
9
9
9
9
9
9
9
9
9
9
9
9
9
9
9
9
9
9
9
9
9
9
9
9
9
9
9
9
9
9
9
9
9
9
9
9
9
9
9
9
9
9
9
9
9
9
9
9
9
9
9
9
9
9
9
9
9
9
9
9
9
9
9
9
9
9
9
9
9
9
9
9
9
9
9
9
9
9
9
9
9
9
9
9
9
9
9
9
9
9
9
9
9
9
9
9
9
9
9
9
9
9
9
9
9
9
9
9
9
9
9
9
9
9
9
9
9
9
9
9
9
9
9
9
9
9
9
9
9
9
9
9
9
9
9
9
9
9
9
9
9
9
9
9
9
9
9
9
9
9
9
9
9
9
9
9
9
9
9
9
9
9
9
9
9
9
9
9
9
9
9
9
9
9
9
9
9
9
9
9
9
9
9
9
9
9
9
9
9
9
9
9
9
9
9
9
9
9
9
9
9
9
9
9
9
9
9
9
9
9
9
9
9
9
9
9
9
9
9
9
9
9
9
9
9
9
9
9
9
9
9
9
9
9
9
9
9
9
9
9
9
9
9
9
9
9
9
9
9
9
9
9
9
9
9
9
9
9
9
9
9
9
9
9
9
9
9
9
9
9
9
9
9
9
9
9
9
9
9
9
9
9
9
9
9
9
9
9
9
9
9
9
9
9
9
9
9
9
9
9
9
9
9
9
9
9
9
9
9
9
9
9
9
9
9
9
9
9
9
9
9
9
9
9
9
9
9
9
9
9
9
9
9
9
9
9
9
9
9
9
9
9
9
9
9
9
9
9
9
9
9
9
9
9
9
9
9
9
9
9
9
9
9
9
9
9
9
9
9
9
9
9
9
9
9
9
9
9
9
9
9
9
9
9
9
9
9
9
9
9
9
9
9
9
9
9
9
9
9
9
9
9
9
9
9
9
9
9
9
9
9
9
9
9
9
9
9
9
9
9
9
9
9
9
9
9
9
9
9
9
9
9
9
9
9
9
9
9
9
9
9
9
9
9
9
9
9
9
9
9
9
9
9
9
9
9
9
9
9
9
9
9
9
9
9
9
9
9
9
9
9
9
9
9
9
9
9
9
9
9
9
9
9
9
9
9
9
9
9
9
9
9
9
9
9
9
9
9
9
9
9
9
9
9
9
9
9
9
9
9
9
9
9
9
9
9
9
9
9
9
9
9
9
9
9
9
9
9
9
9
9
9
9
9
9
9
9
9
9
9
9
9
9
9
9
9
9
9
9
9
9
9
9
9
9
9
9
9
9
9
9
9
9
9
9
9
9
9
9
9
9
9
9
9
9
9
9
9
9
9
9
9
9
9
9
9
9
9
9
9
9
9
9
9
9
9
9
9
9
9
9
9
9
9
9
9
9
9
9
9
9
9
9
9
9
9
9
9
9
9
9
9
9
9
9
9
9
9
9
9
9
9
9
9
9
9
9
9
9
9
9
9
9
9
9
9
9
9
9
9
9
9
9
9
9
9
9
9
9
9
9
9
9
9
9
9
9
9
9
9
9
9
9
9
9
9
9
9
9
9
9
9
9
9
9
9
9
9
9
9
9
9
9
9
9
9
9
9
9
9
9
9
9
9
9
9
9
9
9
9
9
9
9
9
9
9
9
9
9
9
9
9
9
9
9
9
9
9
9
9
9
9
9
9
9
9
9
9
9
9
9
9
9
9
9
9
9
9
9
9
9
9
9
9
9
9
9
9
9
9
9
9
9
9
9
9
9
9
9
9
9
9
9
9
9
9
9
9
9
9
9
9
9
9
9
9
9
9
9
9
9
9
9
9
9
9
9
9
9
9
9
9
9
9
9
9
9
9
9
9
9
9
9
9
9
9
9
9
9
9
9
9
9
9
9
9
9
9
9
9
9
9
9
9
9
9
9
9
9
9
9
9
9
9
9
9
9
9
9
9
9
9
9
9
9
9
9
9
9
9
9
9
9
9
9
9
9
9
9
9
9
9
9
9
9
9
9
9
9
9
9
9
9
9
9
9
9
9
9
9
9
9
9
9
9
9
9
9
9
9
9
9
9
9
9
9
9
9
9
9
9
9
9
9
9
9
9
9
9
9
9
9
9
9
9
9
9
9
9
9
9
9
9
9
9
9
9
9
9
9
9
9
9
9
9
9
9
9
9
9
9
9
9
9
9
9
9
9
9
9
9
9
9
9
9
9
9
9
9
9
9
9
9
9
9
9
9
9
9
9
9
9
9
9
9
9
9
9
9
9
9
9
9
9
9
9
9
9
9
9
9
9
9
9
9
9
9
9
9
9
9
9
9
9
9
9
9
9
9
9
9
9
9
9
9
9
9
9
9
9
9
9
9
9
9
9
9
9
9
9
9
9
9
9
9
9
9
9
9
9
9
9
9
9
9
9
9
9
9
9
9
9
9
9
9
9
9
9
9
9
9
9
9
9
9
9
9
9
9
9
9
9
9
9
9
9
9
9
9
9
9
9
9
9
9
9
9
9
9
9
9
9
9
9
9
9
9
9
9
9
9
9
9
9
9
9
9
9
9
9
9
9
9
9
9
9
9
9
9
9
9
9
9
9
9
9
9
9
9
9
9
9
9
9
9
9
9
9
9
9
9
9
9
9
9
9
9
9
9
9
9
9
9
9
9
9
9
9
9
9
9
9
9
9
9
9
9
9
9
9
9
9
9
9
9
9
9
9
9
9
9
9
9
9
9
9
9
9
9
9
9
9
9
9
9
9
9
9
9
9
9
9
9
9
9
9
9
9
9
9
9
9
9
9
9
9
9
9
9
9
9
9
9
9
9
9
9
9
9
9
9
9
9
9
9
9
9
9
9
9
9
9
9
9
9
9
9
9
9
9
9
9
9
9
9
9
9
9
9
9
9
9
9
9
9
9
9
9
9
9
9
9
9
9
9
9
9
9
9
9
9
9
9
9
9
9
9
9
9
9
9
9
9
9
9
9
9
9
9
9
9
9
9
9
9
9
9
9
9
9
9
9
9
9
9
9
9
9
9
9
9
9
9
9
9
9
9
9
9
9
9
9
9
9
9
9
9
9
9
9
9
9
9
9
9
9
9
9
9
9
9
9
9
9
9
9
9
9
9
9
9
9
9
9
9
9
9
9
9
9
9
9
9
9
9
9
9
9
9
9
9
9
9
9
9
9
9
9
9
9
9
9
9
9
9
9
9
9
9
9
9
9
9
9
9
9
9
9
9
9
9
9
9
9
9
9
9
9
9
9
9
9
9
9
9
9
9
9
9
9
9
9
9
9
9
9
9
9
9
9
9
9
9
9
9
9
9
9
9
9
9
9
9
9
9
9
9
9
9
9
9
9
9
9
9
9
9
9
9
9
9
9
9
9
9
9
9
9
9
9
9
9
9
9
9
9
9
9
9
9
9
9
9
9
9
9
9
9
9
9
9
9
9
9
9
9
9
9
9
9
9
9
9
9
9
9
9
9
9
9
9
9
9
9
9
9
9
9
9
9
9
9
9
9
9
9
9
9
9
9
9
9
9
9
9
9
9
9
9
9
9
9
9
9
9
9
9
9
9
9
9
9
9
9
9
9
9
9
9
9
9
9
9
9
9
9
9
9
9
9
9
9
9
9
9
9
9
9
9
9
9
9
9
9
9
9
9
9
9
9
9
9
9
9
9
9
9
9
9
9
9
9
9
9
9
9
9
9
9
9
9
9
9
9
9
9
9
9
9
9
9
9
9
9
9
9
9
9
9
9
9
9
9
3
3
3
3
3
3
3
3
3
3
3
3
3
3
3
3
3
3
3
3
3
3
3
3
3
3
3
3
3
3
3
3
3
3
3
3
3
3
3
3
3
3
3
3
3
3
3
3
3
3
3
3
3
3
3
3
3
3
3
3
3
3
3
3
3
3
3
3
3
3
3
3
3
3
3
3
3
3
3
3
3
3
3
3
3
3
3
3
3
3
3
3
3
3
3
3
3
3
3
3
3
3
3
3
3
3
3
3
3
3
3
3
3
3
3
3
3
3
3
3
3
3
3
3
3
3
3
3
3
3
3
3
3
3
3
3
3
3
3
3
3
3
3
3
3
3
3
3
3
3
3
3
3
3
3
3
3
3
3
3
3
3
3
3
3
3
3
3
3
3
3
3
3
3
3
3
3
3
3
3
3
3
3
3
3
3
3
3
3
3
3
3
3
3
3
3
3
3
3
3
3
3
3
3
3
3
3
3
3
3
3
3
3
3
3
3
3
3
3
3
3
3
3
3
3
3
3
3
3
3
3
3
3
3
3
3
3
3
3
3
3
3
3
3
3
3
3
3
3
3
3
3
3
3
3
3
3
3
3
3
3
3
3
3
3
3
3
3
3
3
3
3
3
3
3
3
3
3
3
3
3
3
3
3
3
3
3
3
3
3
3
3
3
3
3
3
3
3
3
3
3
3
3
3
3
3
3
3
3
3
3
3
3
3
3
3
3
3
3
3
3
3
3
3
3
3
3
3
3
3
3
3
3
3
3
3
3
3
3
3
3
3
3
3
3
3
3
3
3
3
3
3
3
3
3
3
3
3
3
3
3
3
3
3
3
3
3
3
3
3
3
3
3
3
3
3
3
3
3
3
3
3
3
3
3
3
3
3
3
3
3
3
3
3
3
3
3
3
3
3
3
3
3
3
3
3
3
3
3
3
3
3
3
3
3
3
3
3
3
3
3
3
3
3
3
3
3
3
3
3
3
3
3
3
3
3
3
3
3
3
3
3
3
3
3
3
3
3
3
3
3
3
3
3
3
3
3
3
3
3
3
3
3
3
3
3
3
3
3
3
3
3
3
3
3
3
3
3
3
3
3
3
3
3
3
3
3
3
3
3
3
3
3
3
3
3
3
3
3
3
3
3
3
3
3
3
3
3
3
3
3
3
3
3
3
3
3
3
3
3
3
3
3
3
3
3
3
3
3
3
3
3
3
3
3
3
3
3
3
3
3
3
3
3
3
3
3
3
3
3
3
3
3
3
3
3
3
3
3
3
3
3
3
3
3
3
3
3
3
3
3
3
3
3
3
3
3
3
3
3
3
3
3
3
3
3
3
3
3
3
3
3
3
3
3
3
3
3
3
3
3
3
3
3
3
3
3
3
3
3
3
3
3
3
3
3
3
3
3
3
3
3
3
3
3
3
3
3
3
3
3
3
3
3
3
3
3
3
3
3
3
3
3
3
3
3
3
3
3
3
3
3
3
3
3
3
3
3
3
3
3
3
3
3
3
3
3
3
3
3
3
3
3
3
3
3
3
3
3
3
3
3
3
3
3
3
3
3
3
3
3
3
3
3
3
3
3
3
3
3
3
3
3
3
3
3
3
3
3
3
3
3
3
3
3
3
3
3
3
3
3
3
3
3
3
3
3
3
3
3
3
3
3
3
3
3
3
3
3
3
3
3
3
3
3
3
3
3
3
3
3
3
3
3
3
3
3
3
3
3
3
3
3
3
3
3
3
3
3
3
3
3
3
3
3
3
3
3
3
3
3
3
3
3
3
3
3
3
3
3
3
3
3
3
3
3
3
3
3
3
3
3
3
3
3
3
3
3
3
3
3
3
3
3
3
3
3
3
3
3
3
3
3
3
3
3
3
3
3
3
3
3
3
3
3
3
3
3
3
3
3
3
3
3
3
3
3
3
3
3
3
3
3
3
3
3
3
3
3
3
3
3
3
3
3
3
3
3
3
3
3
3
3
3
3
3
3
3
3
3
3
3
3
3
3
3
3
3
3
3
3
3
3
3
3
3
3
3
3
3
3
3
3
3
3
3
3
3
3
3
3
3
3
3
3
3
3
3
3
3
3
3
3
3
3
3
3
3
3
3
3
3
3
3
3
3
3
3
3
3
3
3
3
3
3
3
3
3
3
3
3
3
3
3
3
3
3
3
3
3
3
3
3
3
3
3
3
3
3
3
3
3
3
3
3
3
3
3
3
3
3
3
3
3
3
3
3
3
3
3
3
3
3
3
3
3
3
3
3
3
3
3
3
3
3
3
3
3
3
3
3
3
3
3
3
3
3
3
3
3
3
3
3
3
3
3
3
3
3
3
3
3
3
3
3
3
3
3
3
3
3
3
3
3
3
3
3
3
3
3
3
3
3
3
3
3
3
3
3
3
3
3
3
3
3
3
3
3
3
3
3
3
3
3
3
3
3
3
3
3
3
3
3
3
3
3
3
3
3
3
3
3
3
3
3
3
3
3
3
3
3
3
3
3
3
3
3
3
3
3
3
3
3
3
3
3
3
3
3
3
3
3
3
3
3
3
3
3
3
3
3
3
3
3
3
3
3
3
3
3
3
3
3
3
3
3
3
3
3
3
3
3
3
3
3
3
3
3
3
3
3
3
3
3
3
3
3
3
3
3
3
3
3
3
3
3
3
3
3
3
3
3
3
3
3
3
3
3
3
3
3
3
3
3
3
3
3
3
3
3
3
3
3
3
3
3
3
3
3
3
3
3
3
3
3
3
3
3
3
3
3
3
3
3

 CELL_DATA        9646
SCALARS material int32
LOOKUP_TABLE default
           1
           1
           1
           1
           1
           1
           1
           1
           1
           1
           1
           1
           1
           1
           1
           1
           1
           1
           1
           1
           1
           1
           1
           1
           1
           1
           1
           1
           1
           1
           1
           1
           1
           1
           1
           1
           1
           1
           1
           1
           1
           1
           1
           1
           1
           1
           1
           1
           1
           1
           1
           1
           1
           1
           1
           1
           1
           1
           1
           1
           1
           1
           1
           1
           1
           1
           1
           1
           1
           1
           1
           1
           1
           1
           1
           1
           1
           1
           1
           1
           1
           1
           1
           1
           1
           1
           1
           1
           1
           1
           1
           1
           1
           1
           1
           1
           1
           1
           1
           1
           1
           1
           1
           1
           1
           1
           1
           1
           1
           1
           1
           1
           1
           1
           1
           1
           1
           1
           1
           1
           1
           1
           1
           1
           1
           1
           1
           1
           1
           1
           1
           1
           1
           1
           1
           1
           1
           1
           1
           1
           1
           1
           1
           1
           1
           1
           1
           1
           1
           1
           1
           1
           1
           1
           1
           1
           1
           1
           1
           1
           1
           1
           1
           1
           1
           1
           1
           1
           1
           1
           1
           1
           1
           1
           1
           1
           1
           1
           1
           1
           1
           1
           1
           1
           1
           1
           1
           1
           1
           1
           1
           1
           1
           1
           1
           1
           1
           1
           1
           1
           1
           1
           1
           1
           1
           1
           1
           1
           1
           1
           1
           1
           1
           1
           1
           1
           1
           1
           1
           1
           1
           1
           1
           1
           1
           1
           1
           1
           1
           1
           1
           1
           1
           1
           1
           1
           1
           1
           1
           1
           1
           1
           1
           1
           1
           1
           1
           1
           1
           1
           1
           1
           1
           1
           1
           1
           1
           1
           1
           1
           1
           1
           1
           1
           1
           1
           1
           1
           1
           1
           1
           1
           1
           1
           1
           1
           1
           1
           1
           1
           1
           1
           1
           1
           1
           1
           1
           1
           1
           1
           1
           1
           1
           1
           1
           1
           1
           1
           1
           1
           1
           1
           1
           1
           1
           1
           1
           1
           1
           1
           1
           1
           1
           1
           1
           1
           1
           1
           1
           1
           1
           1
           1
           1
           1
           1
           1
           1
           1
           1
           1
           1
           1
           1
           1
           1
           1
           1
           1
           1
           1
           1
           1
           1
           1
           1
           1
           1
           1
           1
           1
           1
           1
           1
           1
           1
           1
           1
           1
           1
           1
           1
           1
           1
           1
           1
           1
           1
           1
           1
           1
           1
           1
           1
           1
           1
           1
           1
           1
           1
           1
           1
           1
           1
           1
           1
           1
           1
           1
           1
           1
           1
           1
           1
           1
           1
           1
           1
           1
           1
           1
           1
           1
           1
           1
           1
           1
           1
           1
           1
           1
           1
           1
           1
           1
           1
           1
           1
           1
           1
           1
           1
           1
           1
           1
           1
           1
           1
           1
           1
           1
           1
           1
           1
           1
           1
           1
           1
           1
           1
           1
           1
           1
           1
           1
           1
           1
           1
           1
           1
           1
           1
           1
           1
           1
           1
           1
           1
           1
           1
           1
           1
           1
           1
           1
           1
           1
           1
           1
           1
           1
           1
           1
           1
           1
           1
           1
           1
           1
           1
           1
           1
           1
           1
           1
           1
           1
           1
           1
           1
           1
           1
           1
           1
           1
           1
           1
           1
           1
           1
           1
           1
           1
           1
           1
           1
           1
           1
           1
           1
           1
           1
           1
           1
           1
           1
           1
           1
           1
           1
           1
           1
           1
           1
           1
           1
           1
           1
           1
           1
           1
           1
           1
           1
           1
           1
           1
           1
           1
           1
           1
           1
           1
           1
           1
           1
           1
           1
           1
           1
           1
           1
           1
           1
           1
           1
           1
           1
           1
           1
           1
           1
           1
           1
           1
           1
           1
           1
           1
           1
           1
           1
           1
           1
           1
           1
           1
           1
           1
           1
           1
           1
           1
           1
           1
           1
           1
           1
           1
           1
           1
           1
           1
           1
           1
           1
           1
           1
           1
           1
           1
           1
           1
           1
           1
           1
           1
           1
           1
           1
           1
           1
           1
           1
           1
           1
           1
           1
           1
           1
           1
           1
           1
           1
           1
           1
           1
           1
           1
           1
           1
           1
           1
           1
           1
           1
           1
           1
           1
           1
           1
           1
           1
           1
           1
           1
           1
           1
           1
           1
           1
           1
           1
           1
           1
           1
           1
           1
           1
           1
           1
           1
           1
           1
           1
           1
           1
           1
           1
           1
           1
           1
           1
           1
           1
           1
           1
           1
           1
           1
           1
           1
           1
           1
           1
           1
           1
           1
           1
           1
           1
           1
           1
           1
           1
           1
           1
           1
           1
           1
           1
           1
           1
           1
           1
           1
           1
           1
           1
           1
           1
           1
           1
           1
           1
           1
           1
           1
           1
           1
           1
           1
           1
           1
           1
           1
           1
           1
           1
           1
           1
           1
           1
           1
           1
           1
           1
           1
           1
           1
           1
           1
           1
           1
           1
           1
           1
           1
           1
           1
           1
           1
           1
           1
           1
           1
           1
           1
           1
           1
           1
           1
           1
           1
           1
           1
           1
           1
           1
           1
           1
           1
           1
           1
           1
           1
           1
           1
           1
           1
           1
           1
           1
           1
           1
           1
           1
           1
           1
           1
           1
           1
           1
           1
           1
           1
           1
           1
           1
           1
           1
           1
           1
           1
           1
           1
           1
           1
           1
           1
           1
           1
           1
           1
           1
           1
           1
           1
           1
           1
           1
           1
           1
           1
           1
           1
           1
           1
           1
           1
           1
           1
           1
           1
           1
           1
           1
           1
           1
           1
           1
           1
           1
           1
           1
           1
           1
           1
           1
           1
           1
           1
           1
           1
           1
           1
           1
           1
           1
           1
           1
           1
           1
           1
           1
           1
           1
           1
           1
           1
           1
           1
           1
           1
           1
           1
           1
           1
           1
           1
           1
           1
           1
           1
           1
           1
           1
           1
           1
           1
           1
           1
           1
           1
           1
           1
           1
           1
           1
           1
           1
           1
           1
           1
           1
           1
           1
           1
           1
           1
           1
           1
           1
           1
           1
           1
           1
           1
           1
           1
           1
           1
           1
           1
           1
           1
           1
           1
           1
           1
           1
           1
           1
           1
           1
           1
           1
           1
           1
           1
           1
           1
           1
           1
           1
           1
           1
           1
           1
           1
           1
           1
           1
           1
           1
           1
           1
           1
           1
           1
           1
           1
           1
           1
           1
           1
           1
           1
           1
           1
           1
           1
           1
           1
           1
           1
           1
           1
           1
           1
           1
           1
           1
           1
           1
           1
           1
           1
           1
           1
           1
           1
           1
           1
           1
           1
           1
           1
           1
           1
           1
           1
           1
           1
           1
           1
           1
           1
           1
           1
           1
           1
           1
           1
           1
           1
           1
           1
           1
           1
           1
           1
           1
           1
           1
           1
           1
           1
           1
           1
           1
           1
           1
           1
           1
           1
           1
           1
           1
           1
           1
           1
           1
           1
           1
           1
           1
           1
           1
           1
           1
           1
           1
           1
           1
           1
           1
           1
           1
           1
           1
           1
           1
           1
           1
           1
           1
           1
           1
           1
           1
           1
           1
           1
           1
           1
           1
           1
           1
           1
           1
           1
           1
           1
           1
           1
           1
           1
           1
           1
           1
           1
           1
           1
           1
           1
           1
           1
           1
           1
           1
           1
           1
           1
           1
           1
           1
           1
           1
           1
           1
           1
           1
           1
           1
           1
           1
           1
           1
           1
           1
           1
           1
           1
           1
           1
           1
           1
           1
           1
           1
           1
           1
           1
           1
           1
           1
           1
           1
           1
           1
           1
           1
           1
           1
           1
           1
           1
           1
           1
           1
           1
           1
           1
           1
           1
           1
           1
           1
           1
           1
           1
           1
           1
           1
           1
           1
           1
           1
           1
           1
           1
           1
           1
           1
           1
           1
           1
           1
           1
           1
           1
           1
           1
           1
           1
           1
           1
           1
           1
           1
           1
           1
           1
           1
           1
           1
           1
           1
           1
           1
           1
           1
           1
           1
           1
           1
           1
           1
           1
           1
           1
           1
           1
           1
           1
           1
           1
           1
           1
           1
           1
           1
           1
           1
           1
           1
           1
           1
           1
           1
           1
           1
           1
           1
           1
           1
           1
           1
           1
           1
           1
           1
           1
           1
           1
           1
           1
           1
           1
           1
           1
           1
           1
           1
           1
           1
           1
           1
           1
           1
           1
           1
           1
           1
           1
           1
           1
           1
           1
           1
           1
           1
           1
           1
           1
           1
           1
           1
           1
           1
           1
           1
           1
           1
           1
           1
           1
           1
           1
           1
           1
           1
           1
           1
           1
           1
           1
           1
           1
           1
           1
           1
           1
           1
           1
           1
           1
           1
           1
           1
           1
           1
           1
           1
           1
           1
           1
           1
           1
           1
           1
           1
           1
           1
           1
           1
           1
           1
           1
           1
           1
           1
           1
           1
           1
           1
           1
           1
           1
           1
           1
           1
           1
           1
           1
           1
           1
           1
           1
           1
           1
           1
           1
           1
           1
           1
           1
           1
           1
           1
           1
           1
           1
           1
           1
           1
           1
           1
           1
           1
           1
           1
           1
           1
           1
           1
           1
           1
           1
           1
           1
           1
           1
           1
           1
           1
           1
           1
           1
           1
           1
           1
           1
           1
           1
           1
           1
           1
           1
           1
           1
           1
           1
           1
           1
           1
           1
           1
           1
           1
           1
           1
           1
           1
           1
           1
           1
           1
           1
           1
           1
           1
           1
           1
           1
           1
           1
           1
           1
           1
           1
           1
           1
           1
           1
           1
           1
           1
           1
           1
           1
           1
           1
           1
           1
           1
           1
           1
           1
           1
           1
           1
           1
           1
           1
           1
           1
           1
           1
           1
           1
           1
           1
           1
           1
           1
           1
           1
           1
           1
           1
           1
           1
           1
           1
           1
           1
           1
           1
           1
           1
           1
           1
           1
           1
           1
           1
           1
           1
           1
           1
           1
           1
           1
           1
           1
           1
           1
           1
           1
           1
           1
           1
           1
           1
           1
           1
           1
           1
           1
           1
           1
           1
           1
           1
           1
           1
           1
           1
           1
           1
           1
           1
           1
           1
           1
           1
           1
           1
           1
           1
           1
           1
           1
           1
           1
           1
           1
           1
           1
           1
           1
           1
           1
           1
           1
           1
           1
           1
           1
           1
           1
           1
           1
           1
           1
           1
           1
           1
           1
           1
           1
           1
           1
           1
           1
           1
           1
           1
           1
           1
           1
           1
           1
           1
           1
           1
           1
           1
           1
           1
           1
           1
           1
           1
           1
           1
           1
           1
           1
           1
           1
           1
           1
           1
           1
           1
           1
           1
           1
           1
           1
           1
           1
           1
           1
           1
           1
           1
           1
           1
           1
           1
           1
           1
           1
           1
           1
           1
           1
           1
           1
           1
           1
           1
           1
           1
           1
           1
           1
           1
           1
           1
           1
           1
           1
           1
           1
           1
           1
           1
           1
           1
           1
           1
           1
           1
           1
           1
           1
           1
           1
           1
           1
           1
           1
           1
           1
           1
           1
           1
           1
           1
           1
           1
           1
           1
           1
           1
           1
           1
           1
           1
           1
           1
           1
           1
           1
           1
           1
           1
           1
           1
           1
           1
           1
           1
           1
           1
           1
           1
           1
           1
           1
           1
           1
           1
           1
           1
           1
           1
           1
           1
           1
           1
           1
           1
           1
           1
           1
           1
           1
           1
           1
           1
           1
           1
           1
           1
           1
           1
           1
           1
           1
           1
           1
           1
           1
           1
           1
           1
           1
           1
           1
           1
           1
           1
           1
           1
           1
           1
           1
           1
           1
           1
           1
           1
           1
           1
           1
           1
           1
           1
           1
           1
           1
           1
           1
           1
           1
           1
           1
           1
           1
           1
           1
           1
           1
           1
           1
           1
           1
           1
           1
           1
           1
           1
           1
           1
           1
           1
           1
           1
           1
           1
           1
           1
           1
           1
           1
           1
           1
           1
           1
           1
           1
           1
           1
           1
           1
           1
           1
           1
           1
           1
           1
           1
           1
           1
           1
           1
           1
           1
           1
           1
           1
           1
           1
           1
           1
           1
           1
           1
           1
           1
           1
           1
           1
           1
           1
           1
           1
           1
           1
           1
           1
           1
           1
           1
           1
           1
           1
           1
           1
           1
           1
           1
           1
           1
           1
           1
           1
           1
           1
           1
           1
           1
           1
           1
           1
           1
           1
           1
           1
           1
           1
           1
           1
           1
           1
           1
           1
           1
           1
           1
           1
           1
           1
           1
           1
           1
           1
           1
           1
           1
           1
           1
           1
           1
           1
           1
           1
           1
           1
           1
           1
           1
           1
           1
           1
           1
           1
           1
           1
           1
           1
           1
           1
           1
           1
           1
           1
           1
           1
           1
           1
           1
           1
           1
           1
           1
           1
           1
           1
           1
           1
           1
           1
           1
           1
           1
           1
           1
           1
           1
           1
           1
           1
           1
           1
           1
           1
           1
           1
           1
           1
           1
           1
           1
           1
           1
           1
           1
           1
           1
           1
           1
           1
           1
           1
           1
           1
           1
           1
           1
           1
           1
           1
           1
           1
           1
           1
           1
           1
           1
           1
           1
           1
           1
           1
           1
           1
           1
           1
           1
           1
           1
           1
           1
           1
           1
           1
           1
           1
           1
           1
           1
           1
           1
           1
           1
           1
           1
           1
           1
           1
           1
           1
           1
           1
           1
           1
           1
           1
           1
           1
           1
           1
           1
           1
           1
           1
           1
           1
           1
           1
           1
           1
           1
           1
           1
           1
           1
           1
           1
           1
           1
           1
           1
           1
           1
           1
           1
           1
           1
           1
           1
           1
           1
           1
           1
           1
           1
           1
           1
           1
           1
           1
           1
           1
           1
           1
           1
           1
           1
           1
           1
           1
           1
           1
           1
           1
           1
           1
           1
           1
           1
           1
           1
           1
           1
           1
           1
           1
           1
           1
           1
           1
           1
           1
           1
           1
           1
           1
           1
           1
           1
           1
           1
           1
           1
           1
           1
           1
           1
           1
           1
           1
           1
           1
           1
           1
           1
           1
           1
           1
           1
           1
           1
           1
           1
           1
           1
           1
           1
           1
           1
           1
           1
           1
           1
           1
           1
           1
           1
           1
           1
           1
           1
           1
           1
           1
           1
           1
           1
           1
           1
           1
           1
           1
           1
           1
           1
           1
           1
           1
           1
           1
           1
           1
           1
           1
           1
           1
           1
           1
           1
           1
           1
           1
           1
           1
           1
           1
           1
           1
           1
           1
           1
           1
           1
           1
           1
           1
           1
           1
           1
           1
           1
           1
           1
           1
           1
           1
           1
           1
           1
           1
           1
           1
           1
           1
           1
           1
           1
           1
           1
           1
           1
           1
           1
           1
           1
           1
           1
           1
           1
           1
           1
           1
           1
           1
           1
           1
           1
           1
           1
           1
           1
           1
           1
           1
           1
           1
           1
           1
           1
           1
           1
           1
           1
           1
           1
           1
           1
           1
           1
           1
           1
           1
           1
           1
           1
           1
           1
           1
           1
           1
           1
           1
           1
           1
           1
           1
           1
           1
           1
           1
           1
           1
           1
           1
           1
           1
           1
           1
           1
           1
           1
           1
           1
           1
           1
           1
           1
           1
           1
           1
           1
           1
           1
           1
           1
           1
           1
           1
           1
           1
           1
           1
           1
           1
           1
           1
           1
           1
           1
           1
           1
           1
           1
           1
           1
           1
           1
           1
           1
           1
           1
           1
           1
           1
           1
           1
           1
           1
           1
           1
           1
           1
           1
           1
           1
           1
           1
           1
           1
           1
           1
           1
           1
           1
           1
           1
           1
           1
           1
           1
           1
           1
           1
           1
           1
           1
           1
           1
           1
           1
           1
           1
           1
           1
           1
           1
           1
           1
           1
           1
           1
           1
           1
           1
           1
           1
           1
           1
           1
           1
           1
           1
           1
           1
           1
           1
           1
           1
           1
           1
           1
           1
           1
           1
           1
           1
           1
           1
           1
           1
           1
           1
           1
           1
           1
           1
           1
           1
           1
           1
           1
           1
           1
           1
           1
           1
           1
           1
           1
           1
           1
           1
           1
           1
           1
           1
           1
           1
           1
           1
           1
           1
           1
           1
           1
           1
           1
           1
           1
           1
           1
           1
           1
           1
           1
           1
           1
           1
           1
           1
           1
           1
           1
           1
           1
           1
           1
           1
           1
           1
           1
           1
           1
           1
           1
           1
           1
           1
           1
           1
           1
           1
           1
           1
           1
           1
           1
           1
           1
           1
           1
           1
           1
           1
           1
           1
           1
           1
           1
           1
           1
           1
           1
           1
           1
           1
           1
           1
           1
           1
           1
           1
           1
           1
           1
           1
           1
           1
           1
           1
           1
           1
           1
           1
           1
           1
           1
           1
           1
           1
           1
           1
           1
           1
           1
           1
           1
           1
           1
           1
           1
           1
           1
           1
           1
           1
           1
           1
           1
           1
           1
           1
           1
           1
           1
           1
           1
           1
           1
           1
           1
           1
           1
           1
           1
           1
           1
           1
           1
           1
           1
           1
           1
           1
           1
           1
           1
           1
           1
           1
           1
           1
           1
           1
           1
           1
           1
           1
           1
           1
           1
           1
           1
           1
           1
           1
           1
           1
           1
           1
           1
           1
           1
           1
           1
           1
           1
           1
           1
           1
           1
           1
           1
           1
           1
           1
           1
           1
           1
           1
           1
           1
           1
           1
           1
           1
           1
           1
           1
           1
           1
           1
           1
           1
           1
           1
           1
           1
           1
           1
           1
           1
           1
           1
           1
           1
           1
           1
           1
           1
           1
           1
           1
           1
           1
           1
           1
           1
           1
           1
           1
           1
           1
           1
           1
           1
           1
           1
           1
           1
           1
           1
           1
           1
           1
           1
           1
           1
           1
           1
           1
           1
           1
           1
           1
           1
           1
           1
           1
           1
           1
           1
           1
           1
           1
           1
           1
           1
           1
           1
           1
           1
           1
           1
           1
           1
           1
           1
           1
           1
           1
           1
           1
           1
           1
           1
           1
           1
           1
           1
           1
           1
           1
           1
           1
           1
           1
           1
           1
           1
           1
           1
           1
           1
           1
           1
           1
           1
           1
           1
           1
           1
           1
           1
           1
           1
           1
           1
           1
           1
           1
           1
           1
           1
           1
           1
           1
           1
           1
           1
           1
           1
           1
           1
           1
           1
           1
           1
           1
           1
           1
           1
           1
           1
           1
           1
           1
           1
           1
           1
           1
           1
           1
           1
           1
           1
           1
           1
           1
           1
           1
           1
           1
           1
           1
           1
           1
           1
           1
           1
           1
           1
           1
           1
           1
           1
           1
           1
           1
           1
           1
           1
           1
           1
           1
           1
           1
           1
           1
           1
           1
           1
           1
           1
           1
           1
           1
           1
           1
           1
           1
           1
           1
           1
           1
           1
           1
           1
           1
           1
           1
           1
           1
           1
           1
           1
           1
           1
           1
           1
           1
           1
           1
           1
           1
           1
           1
           1
           1
           1
           1
           1
           1
           1
           1
           1
           1
           1
           1
           1
           1
           1
           1
           1
           1
           1
           1
           1
           1
           1
           1
           1
           1
           1
           1
           1
           1
           1
           1
           1
           1
           1
           1
           1
           1
           1
           1
           1
           1
           1
           1
           1
           1
           1
           1
           1
           1
           1
           1
           1
           1
           1
           1
           1
           1
           1
           1
           1
           1
           1
           1
           1
           1
           1
           1
           1
           1
           1
           1
           1
           1
           1
           1
           1
           1
           1
           1
           1
           1
           1
           1
           1
           1
           1
           1
           1
           1
           1
           1
           1
           1
           1
           1
           1
           1
           1
           1
           1
           1
           1
           1
           1
           1
           1
           1
           1
           1
           1
           1
           1
           1
           1
           1
           1
           1
           1
           1
           1
           1
           1
           1
           1
           1
           1
           1
           1
           1
           1
           1
           1
           1
           1
           1
           1
           1
           1
           1
           1
           1
           1
           1
           1
           1
           1
           1
           1
           1
           1
           1
           1
           1
           1
           1
           1
           1
           1
           1
           1
           1
           1
           1
           1
           1
           1
           1
           1
           1
           1
           1
           1
           1
           1
           1
           1
           1
           1
           1
           1
           1
           1
           1
           1
           1
           1
           1
           1
           1
           1
           1
           1
           1
           1
           1
           1
           1
           1
           1
           1
           1
           1
           1
           1
           1
           1
           1
           1
           1
           1
           1
           1
           1
           1
           1
           1
           1
           1
           1
           1
           1
           1
           1
           1
           1
           1
           1
           1
           1
           1
           1
           1
           1
           1
           1
           1
           1
           1
           1
           1
           1
           1
           1
           1
           1
           1
           1
           1
           1
           1
           1
           1
           1
           1
           1
           1
           1
           1
           1
           1
           1
           1
           1
           1
           1
           1
           1
           1
           1
           1
           1
           1
           1
           1
           1
           1
           1
           1
           1
           1
           1
           1
           1
           1
           1
           1
           1
           1
           1
           1
           1
           1
           1
           1
           1
           1
           1
           1
           1
           1
           1
           1
           1
           1
           1
           1
           1
           1
           1
           1
           1
           1
           1
           1
           1
           1
           1
           1
           1
           1
           1
           1
           1
           1
           1
           1
           1
           1
           1
           1
           1
           1
           1
           1
           1
           1
           1
           1
           1
           1
           1
           1
           1
           1
           1
           1
           1
           1
           1
           1
           1
           1
           1
           1
           1
           1
           1
           1
           1
           1
           1
           1
           1
           1
           1
           1
           1
           1
           1
           1
           1
           1
           1
           1
           1
           1
           1
           1
           1
           1
           1
           1
           1
           1
           1
           1
           1
           1
           1
           1
           1
           1
           1
           1
           1
           1
           1
           1
           1
           1
           1
           1
           1
           1
           1
           1
           1
           1
           1
           1
           1
           1
           1
           1
           1
           1
           1
           1
           1
           1
           1
           1
           1
           1
           1
           1
           1
           1
           1
           1
           1
           1
           1
           1
           1
           1
           1
           1
           1
           1
           1
           1
           1
           1
           1
           1
           1
           1
           1
           1
           1
           1
           1
           1
           1
           1
           1
           1
           1
           1
           1
           1
           1
           1
           1
           1
           1
           1
           1
           1
           1
           1
           1
           1
           1
           1
           1
           1
           1
           1
           1
           1
           1
           1
           1
           1
           1
           1
           1
           1
           1
           1
           1
           1
           1
           1
           1
           1
           1
           1
           1
           1
           1
           1
           1
           1
           1
           1
           1
           1
           1
           1
           1
           1
           1
           1
           1
           1
           1
           1
           1
           1
           1
           1
           1
           1
           1
           1
           1
           1
           1
           1
           1
           1
           1
           1
           1
           1
           1
           1
           1
           1
           1
           1
           1
           1
           1
           1
           1
           1
           1
           1
           1
           1
           1
           1
           1
           1
           1
           1
           1
           1
           1
           1
           1
           1
           1
           1
           1
           1
           1
           1
           1
           1
           1
           1
           1
           1
           1
           1
           1
           1
           1
           1
           1
           1
           1
           1
           1
           1
           1
           1
           1
           1
           1
           1
           1
           1
           1
           1
           1
           1
           1
           1
           1
           1
           1
           1
           1
           1
           1
           1
           1
           1
           1
           1
           1
           1
           1
           1
           1
           1
           1
           1
           1
           1
           1
           1
           1
           1
           1
           1
           1
           1
           1
           1
           1
           1
           1
           1
           1
           1
           1
           1
           1
           1
           1
           1
           1
           1
           1
           1
           1
           1
           1
           1
           1
           1
           1
           1
           1
           1
           1
           1
           1
           1
           1
           1
           1
           1
           1
           1
           1
           1
           1
           1
           1
           1
           1
           1
           1
           1
           1
           1
           1
           1
           1
           1
           1
           1
           1
           1
           1
           1
           1
           1
           1
           1
           1
           1
           1
           1
           1
           1
           1
           1
           1
           1
           1
           1
           1
           1
           1
           1
           1
           1
           1
           1
           1
           1
           1
           1
           1
           1
           1
           1
           1
           1
           1
           1
           1
           1
           1
           1
           1
           1
           1
           1
           1
           1
           1
           1
           1
           1
           1
           1
           1
           1
           1
           1
           1
           1
           1
           1
           1
           1
           1
           1
           1
           1
           1
           1
           1
           1
           1
           1
           1
           1
           1
           1
           1
           1
           1
           1
           1
           1
           1
           1
           1
           1
           1
           1
           1
           1
           1
           1
           1
           1
           1
           1
           1
           1
           1
           1
           1
           1
           1
           1
           1
           1
           1
           1
           1
           1
           1
           1
           1
           1
           1
           1
           1
           1
           1
           1
           1
           1
           1
           1
           1
           1
           1
           1
           1
           1
           1
           1
           1
           1
           1
           1
           1
           1
           1
           1
           1
           1
           1
           1
           1
           1
           1
           1
           1
           1
           1
           1
           1
           1
           1
           1
           1
           1
           1
           1
           1
           1
           1
           1
           1
           1
           1
           1
           1
           1
           1
           1
           1
           1
           1
           1
           1
           1
           1
           1
           1
           1
           1
           1
           1
           1
           1
           1
           1
           1
           1
           1
           1
           1
           1
           1
           1
           1
           1
           1
           1
           1
           1
           1
           1
           1
           1
           1
           1
           1
           1
           1
           1
           1
           1
           1
           1
           1
           1
           1
           1
           1
           1
           1
           1
           1
           1
           1
           1
           1
           1
           1
           1
           1
           1
           1
           1
           1
           1
           1
           1
           1
           1
           1
           1
           1
           1
           1
           1
           1
           1
           1
           1
           1
           1
           1
           1
           1
           1
           1
           1
           1
           1
           1
           1
           1
           1
           1
           1
           1
           1
           1
           1
           1
           1
           1
           1
           1
           1
           1
           1
           1
           1
           1
           1
           1
           1
           1
           1
           1
           1
           1
           1
           1
           1
           1
           1
           1
           1
           1
           1
           1
           1
           1
           1
           1
           1
           1
           1
           1
           1
           1
           1
           1
           1
           1
           1
           1
           1
           1
           1
           1
           1
           1
           1
           1
           1
           1
           1
           1
           1
           1
           1
           1
           1
           1
           1
           1
           1
           1
           1
           1
           1
           1
           1
           1
           1
           1
           1
           1
           1
           1
           1
           1
           1
           1
           1
           1
           1
           1
           1
           1
           1
           1
           1
           1
           1
           1
           1
           1
           1
           1
           1
           1
           1
           1
           1
           1
           1
           1
           1
           1
           1
           1
           1
           1
           1
           1
           1
           1
           1
           1
           1
           1
           1
           1
           1
           1
           1
           1
           1
           1
           1
           1
           1
           1
           1
           1
           1
           1
           1
           1
           1
           1
           1
           1
           1
           1
           1
           1
           1
           1
           1
           1
           1
           1
           1
           1
           1
           1
           1
           1
           1
           1
           1
           1
           1
           1
           1
           1
           1
           1
           1
           1
           1
           1
           1
           1
           1
           1
           1
           1
           1
           1
           1
           1
           1
           1
           1
           1
           1
           1
           1
           1
           1
           1
           1
           1
           1
           1
           1
           1
           1
           1
           1
           1
           1
           1
           1
           1
           1
           1
           1
           1
           1
           1
           1
           1
           1
           1
           1
           1
           1
           1
           1
           1
           1
           1
           1
           1
           1
           1
           1
           1
           1
           1
           1
           1
           1
           1
           1
           1
           1
           1
           1
           1
           1
           1
           1
           1
           1
           1
           1
           1
           1
           1
           1
           1
           1
           1
           1
           1
           1
           1
           1
           1
           1
           1
           1
           1
           1
           1
           1
           1
           1
           1
           1
           1
           1
           1
           1
           1
           1
           1
           1
           1
           1
           1
           1
           1
           1
           1
           1
           1
           1
           1
           1
           1
           1
           1
           1
           1
           1
           1
           1
           1
           1
           1
           1
           1
           1
           1
           1
           1
           1
           1
           1
           1
           1
           1
           1
           1
           1
           1
           1
           1
           1
           1
           1
           1
           1
           1
           1
           1
           1
           1
           1
           1
           1
           1
           1
           1
           1
           1
           1
           1
           1
           1
           1
           1
           1
           1
           1
           1
           1
           1
           1
           1
           1
           1
           1
           1
           1
           1
           1
           1
           1
           1
           1
           1
           1
           1
           1
           1
           1
           1
           1
           1
           1
           1
           1
           1
           1
           1
           1
           1
           1
           1
           1
           1
           1
           1
           1
           1
           1
           1
           1
           1
           1
           1
           1
           1
           1
           1
           1
           1
           1
           1
           1
           1
           1
           1
           1
           1
           1
           1
           1
           1
           1
           1
           1
           1
           1
           1
           1
           1
           1
           1
           1
           1
           1
           1
           1
           1
           1
           1
           1
           1
           1
           1
           1
           1
           1
           1
           1
           1
           1
           1
           1
           1
           1
           1
           1
           1
           1
           1
           1
           1
           1
           1
           1
           1
           1
           1
           1
           1
           1
           1
           1
           1
           1
           1
           1
           1
           1
           1
           1
           1
           1
           1
           1
           1
           1
           1
           1
           1
           1
           1
           1
           1
           1
           1
           1
           1
           1
           1
           1
           1
           1
           1
           1
           1
           1
           1
           1
           1
           1
           1
           1
           1
           1
           1
           1
           1
           1
           1
           1
           1
           1
           1
           1
           1
           1
           1
           1
           1
           1
           1
           1
           1
           1
           1
           1
           1
           1
           1
           1
           1
           1
           1
           1
           1
           1
           1
           1
           1
           1
           1
           1
           1
           1
           1
           1
           1
           1
           1
           1
           1
           1
           1
           1
           1
           1
           1
           1
           1
           1
           1
           1
           1
           1
           1
           1
           1
           1
           1
           1
           1
           1
           1
           1
           1
           1
           1
           1
           1
           1
           1
           1
           1
           1
           1
           1
           1
           1
           1
           1
           1
           1
           1
           1
           1
           1
           1
           1
           1
           1
           1
           1
           1
           1
           1
           1
           1
           1
           1
           1
           1
           1
           1
           1
           1
           1
           1
           1
           1
           1
           1
           1
           1
           1
           1
           1
           1
           1
           1
           1
           1
           1
           1
           1
           1
           1
           1
           1
           1
           1
           1
           1
           1
           1
           1
           1
           1
           1
           1
           1
           1
           1
           1
           1
           1
           1
           1
           1
           1
           1
           1
           1
           1
           1
           1
           1
           1
           1
           1
           1
           1
           1
           1
           1
           1
           1
           1
           1
           1
           1
           1
           1
           1
           1
           1
           1
           1
           1
           1
           1
           1
           1
           1
           1
           1
           1
           1
           1
           1
           1
           1
           1
           1
           1
           1
           1
           1
           1
           1
           1
           1
           1
           1
           1
           1
           1
           1
           1
           1
           1
           1
           1
           1
           1
           1
           1
           1
           1
           1
           1
           1
           1
           1
           1
           1
           1
           1
           1
           1
           1
           1
           1
           1
           1
           1
           1
           1
           1
           1
           1
           1
           1
           1
           1
           1
           1
           1
           1
           1
           1
           1
           1
           1
           1
           1
           1
           1
           1
           1
           1
           1
           1
           1
           1
           1
           1
           1
           1
           1
           1
           1
           1
           1
           1
           1
           1
           1
           1
           1
           1
           1
           1
           1
           1
           1
           1
           1
           1
           1
           1
           1
           1
           1
           1
           1
           1
           1
           1
           1
           1
           1
           1
           1
           1
           1
           1
           1
           1
           1
           1
           1
           1
           1
           1
           1
           1
           1
           1
           1
           1
           1
           1
           1
           1
           1
           1
           1
           1
           1
           1
           1
           1
           1
           1
           1
           1
           1
           1
           1
           1
           1
           1
           1
           1
           1
           1
           1
           1
           1
           1
           1
           1
           1
           1
           1
           1
           1
           1
           1
           1
           1
           1
           1
           1
           1
           1
           1
           1
           1
           1
           1
           1
           1
           1
           1
           1
           1
           1
           1
           1
           1
           1
           1
           1
           1
           1
           1
           1
           1
           1
           1
           1
           1
           1
           1
           1
           1
           1
           1
           1
           1
           1
           1
           1
           1
           1
           1
           1
           1
           1
           1
           1
           1
           1
           1
           1
           1
           1
           1
           1
           1
           1
           1
           1
           1
           1
           1
           1
           1
           1
           1
           1
           1
           1
           1
           1
           1
           1
           1
           1
           1
           1
           1
           1
           1
           1
           1
           1
           1
           1
           1
           1
           1
           1
           1
           1
           1
           1
           1
           1
           1
           1
           1
           1
           1
           1
           1
           1
           1
           1
           1
           1
           1
           1
           1
           1
           1
           1
           1
           1
           1
           1
           1
           1
           1
           1
           1
           1
           1
           1
           1
           1
           1
           1
           1
           1
           1
           1
           1
           1
           1
           1
           1
           1
           1
           1
           1
           1
           1
           1
           1
           1
           1
           1
           1
           1
           1
           1
           1
           1
           1
           1
           1
           1
           1
           1
           1
           1
           1
           1
           1
           1
           1
           1
           1
           1
           1
           1
           1
           1
           1
           1
           1
           1
           1
           1
           1
           1
           1
           1
           1
           1
           1
           1
           1
           1
           1
           1
           1
           1
           1
           1
           1
           1
           1
           1
           1
           1
           1
           1
           1
           1
           1
           1
           1
           1
           1
           1
           1
           1
           1
           1
           1
           1
           1
           1
           1
           1
           1
           1
           1
           1
           1
           1
           1
           1
           1
           1
           1
           1
           1
           1
           1
           1
           1
           1
           1
           1
           1
           1
           1
           1
           1
           1
           1
           1
           1
           1
           1
           1
           1
           1
           1
           1
           1
           1
           1
           1
           1
           1
           1
           1
           1
           1
           1
           1
           1
           1
           1
           1
           1
           1
           1
           1
           1
           1
           1
           1
           1
           1
           1
           1
           1
           1
           1
           1
           1
           1
           1
           1
           1
           1
           1
           1
           1
           1
           1
           1
           1
           1
           1
           1
           1
           1
           1
           1
           1
           1
           1
           1
           1
           1
           1
           1
           1
           1
           1
           1
           1
           1
           1
           1
           1
           1
           1
           1
           1
           1
           1
           1
           1
           1
           1
           1
           1
           1
           1
           1
           1
           1
           1
           1
           1
           1
           1
           1
           1
           1
           1
           1
           1
           1
           1
           1
           1
           1
           1
           1
           1
           1
           1
           1
           1
           1
           1
           1
           1
           1
           1
           1
           1
           1
           1
           1
           1
           1
           1
           1
           1
           1
           1
           1
           1
           1
           1
           1
           1
           1
           1
           1
           1
           1
           1
           1
           1
           1
           1
           1
           1
           1
           1
           1
           1
           1
           1
           1
           1
           1
           1
           1
           1
           1
           1
           1
           1
           1
           1
           1
           1
           1
           1
           1
           1
           1
           1
           1
           1
           1
           1
           1
           1
           1
           1
           1
           1
           1
           1
           1
           1
           1
           1
           1
           1
           1
           1
           1
           1
           1
           1
           1
           1
           1
           1
           1
           1
           1
           1
           1
           1
           1
           1
           1
           1
           1
           1
           1
           1
           1
           1
           1
           1
           1
           1
           1
           1
           1
           1
           1
           1
           1
           1
           1
           1
           1
           1
           1
           1
           1
           1
           1
           1
           1
           1
           1
           1
           1
           1
           1
           1
           1
           1
           1
           1
           1
           1
           1
           1
           1
           1
           1
           1
           1
           1
           1
           1
           1
           1
           1
           1
           1
           1
           1
           1
           1
           1
           1
           1
           1
           1
           1
           1
           1
           1
           1
           1
           1
           1
           1
           1
           1
           1
           1
           1
           1
           1
           1
           1
           1
           1
           1
           1
           1
           1
           1
           1
           1
           1
           1
           1
           1
           1
           1
           1
           1
           1
           1
           1
           1
           1
           1
           1
           1
           1
           1
           1
           1
           1
           1
           1
           1
           1
           1
           1
           1
           1
           1
           1
           1
           1
           1
           1
           1
           1
           1
           1
           1
           1
           1
           1
           1
           1
           1
           1
           1
           1
           1
           1
           1
           1
           1
           1
           1
           1
           1
           1
           1
           1
           1
           1
           1
           1
           1
           1
           1
           1
           1
           1
           1
           1
           1
           1
           1
           1
           1
           1
           1
           1
           1
           1
           1
           1
           1
           1
           1
           1
           1
           1
           1
           1
           1
           1
           1
           1
           1
           1
           1
           1
           1
           1
           1
           1
           1
           1
           1
           1
           1
           1
           1
           1
           1
           1
           1
           1
           1
           1
           1
           1
           1
           1
           1
           1
           1
           1
           1
           1
           1
           1
           1
           1
           1
           1
           1
           1
           1
           1
           1
           1
           1
           1
           1
           1
           1
           1
           1
           1
           1
           1
           1
           1
           1
           1
           1
           1
           1
           1
           1
           1
           1
           1
           1
           1
           1
           1
           1
           1
           1
           1
           1
           1
           1
           1
           1
           1
           1
           1
           1
           1
           1
           1
           1
           1
           1
           1
           1
           1
           1
           1
           1
           1
           1
           1
           1
           1
           1
           1
           1
           1
           1
           1
           1
           1
           1
           1
           1
           1
           1
           1
           1
           1
           1
           1
           1
           1
           1
           1
           1
           1
           1
           1
           1
           1
           1
           1
           1
           1
           1
           1
           1
           1
           1
           1
           1
           1
           1
           1
           1
           1
           1
           1
           1
           1
           1
           1
           1
           1
           1
           1
           1
           1
           1
           1
           1
           1
           1
           1
           1
           1
           1
           1
           1
           1
           1
           1
           1
           1
           1
           1
           1
           1
           1
           1
           1
           1
           1
           1
           1
           1
           1
           1
           1
           1
           1
           1
           1
           1
           1
           1
           1
           1
           1
           1
           1
           1
           1
           1
           1
           1
           1
           1
           1
           1
           1
           1
           1
           1
           1
           1
           1
           1
           1
           1
           1
           1
           1
           1
           1
           1
           1
           1
           1
           1
           1
           1
           1
           1
           1
           1
           1
           1
           1
           1
           1
           1
           1
           1
           1
           1
           1
           1
           1
           1
           1
           1
           1
           1
           1
           1
           1
           1
           1
           1
           1
           1
           1
           1
           1
           1
           1
           1
           1
           1
           1
           1
           1
           1
           1
           1
           1
           1
           1
           1
           1
           1
           1
           1
           1
           1
           1
           1
           1
           1
           1
           1
           1
           1
           1
           1
           1
           1
           1
           1
           1
           1
           1
           1
           1
           1
           1
           1
           1
           1
           1
           1
           1
           1
           1
           1
           1
           1
           1
           1
           1
           1
           1
           1
           1
           1
           1
           1
           1
           1
           1
           1
           1
           1
           1
           1
           1
           1
           1
           1
           1
           1
           1
           1
           1
           1
           1
           1
           1
           1
           1
           1
           1
           1
           1
           1
           1
           1
           1
           1
           1
           1
           1
           1
           1
           1
           1
           1
           1
           1
           1
           1
           1
           1
           1
           1
           1
           1
           1
           1
           1
           1
           1
           1
           1
           1
           1
           1
           1
           1
           1
           1
           1
           1
           1
           1
           1
           1
           1
           1
           1
           1
           1
           1
           1
           1
           1
           1
           1
           1
           1
           1
           1
           1
           1
           1
           1
           1
           1
           1
           1
           1
           1
           1
           1
           1
           1
           1
           1
           1
           1
           1
           1
           1
           1
           1
           1
           1
           1
           1
           1
           1
           1
           1
           1
           1
           1
           1
           1
           1
           1
           1
           1
           1
           1
           1
           1
           1
           1
           1
           1
           1
           1
           1
           1
           1
           1
           1
           1
           1
           1
           1
           1
           1
           1
           1
           1
           1
           1
           1
           1
           1
           1
           1
           1
           1
           1
           1
           1
           1
           1
           1
           1
           1
           1
           1
           1
           1
           1
           1
           1
           1
           1
           1
           1
           1
           1
           1
           1
           1
           1
           1
           1
           1
           1
           1
           1
           1
           1
           1
           1
           1
           1
           1
           1
           1
           1
           1
           1
           1
           1
           1
           1
           1
           1
           1
           1
           1
           1
           1
           1
           1
           1
           1
           1
           1
           1
           1
           1
           1
           1
           1
           1
           1
           1
           1
           1
           1
           1
           1
           1
           1
           1
           1
           1
           1
           1
           1
           1
           1
           1
           1
           1
           1
           1
           1
           1
           1
           1
           1
           1
           1
           1
           1
           1
           1
           1
           1
           1
           1
           1
           1
           1
           1
           1
           1
           1
           1
           1
           1
           1
           1
           1
           1
           1
           1
           1
           1
           1
           1
           1
           1
           1
           1
           1
           1
           1
           1
           1
           1
           1
           1
           1
           1
           1
           1
           1
           1
           1
           1
           1
           1
           1
           1
           1
           1
           1
           1
           1
           1
           1
           1
           1
           1
           1
           1
           1
           1
           1
           1
           1
           1
           1
           1
           1
           1
           1
           1
           1
           1
           1
           1
           1
           1
           1
           1
           1
           1
           1
           1
           1
           1
           1
           1
           1
           1
           1
           1
           1
           1
           1
           1
           1
           1
           1
           1
           1
           1
           1
           1
           1
           1
           1
           1
           1
           1
           1
           1
           1
           1
           1
           1
           1
           1
           1
           1
           1
           1
           1
           1
           1
           1
           1
           1
           1
           1
           1
           1
           1
           1
           1
           1
           1
           1
           1
           1
           1
           1
           1
           1
           1
           1
           1
           1
           1
           1
           1
           1
           1
           1
           1
           1
           1
           1
           1
           1
           1
           1
           1
           1
           1
           1
           1
           1
           1
           1
           1
           1
           1
           1
           1
           1
           1
           1
           1
           1
           1
           1
           1
           1
           1
           1
           1
           1
           1
           1
           1
           1
           1
           1
           1
           1
           1
           1
           1
           1
           1
           1
           1
           1
           1
           1
           1
           1
           1
           1
           1
           1
           1
           1
           1
           1
           1
           1
           1
           1
           1
           1
           1
           1
           1
           1
           1
           1
           1
           1
           1
           1
           1
           1
           1
           1
           1
           1
           1
           1
           1
           1
           1
           1
           1
           1
           1
           1
           1
           1
           1
           1
           1
           1
           1
           1
           1
           1
           1
           1
           1
           1
           1
           1
           1
           1
           1
           1
           1
           1
           1
           1
           1
           1
           1
           1
           1
           1
           1
           1
           1
           1
           1
           1
           1
           1
           1
           1
           1
           1
           1
           1
           1
           1
           1
           1
           1
           1
           1
           1
           1
           1
           1
           1
           1
           1
           1
           1
           1
           1
           1
           1
           1
           1
           1
           1
           1
           1
           1
           1
           1
           1
           1
           1
           1
           1
           1
           1
           1
           1
           1
           1
           1
           1
           1
           1
           1
           1
           1
           1
           1
           1
           1
           1
           1
           1
           1
           1
           1
           1
           1
           1
           1
           1
           1
           1
           1
           1
           1
           1
           1
           1
           1
           1
           1
           1
           1
           1
           1
           1
           1
           1
           1
           1
           1
           1
           1
           1
           1
           1
           1
           1
           1
           1
           1
           1
           1
           1
           1
           1
           1
           1
           1
           1
           1
           1
           1
           1
           1
           1
           1
           1
           1
           1
           1
           1
           1
           1
           1
           1
           1
           1
           1
           1
           1
           1
           1
           1
           1
           1
           1
           1
           1
           1
           1
           1
           1
           1
           1
           1
           1
           1
           1
           1
           1
           1
           1
           1
           1
           1
           1
           1
           1
           1
           1
           1
           1
           1
           1
           1
           1
           1
           1
           1
           1
           1
           1
           1
           1
           1
           1
           1
           1
           1
           1
           1
           1
           1
           1
           1
           1
           1
           1
           1
           1
           1
           1
           1
           1
           1
           1
           1
           1
           1
           1
           1
           1
           1
           1
           1
           1
           1
           1
           1
           1
           1
           1
           1
           1
           1
           1
           1
           1
           1
           1
           1
           1
           1
           1
           1
           1
           1
           1
           1
           1
           1
           1
           1
           1
           1
           1
           1
           1
           1
           1
           1
           1
           1
           1
           1
           1
           1
           1
           1
           1
           1
           1
           1
           1
           1
           1
           1
           1
           1
           1
           1
           1
           1
           1
           1
           1
           1
           1
           1
           1
           1
           1
           1
           1
           1
           1
           1
           1
           1
           1
           1
           1
           1
           1
           1
           1
           1
           1
           1
           1
           1
           1
           1
           1
           1
           1
           1
           1
           1
           1
           1
           1
           1
           1
           1
           1
           1
           1
           1
           1
           1
           1
           1
           1
           1
           1
           1
           1
           1
           1
           1
           1
           1
           1
           1
           1
           1
           1
           1
           1
           1
           1
           1
           1
           1
           1
           1
           1
           1
           1
           1
           1
           1
           1
           1
           1
           1
           1
           1
           1
           1
           1
           1
           1
           1
           1
           1
           1
           1
           1
           1
           1
           1
           1
           1
           1
           1
           1
           1
           1
           1
           1
           1
           1
           1
           1
           1
           1
           1
           1
           1
           1
           1
           1
           1
           1
           1
           1
           1
           1
           1
           1
           1
           1
           1
           1
           1
           1
           1
           1
           1
           1
           1
           1
           1
           1
           1
           1
           1
           1
           1
           1
           1
           1
           1
           1
           1
           1
           1
           1
           1
           1
           1
           1
           1
           1
           1
           1
           1
           1
           1
           1
           1
           1
           1
           1
           1
           1
           1
           1
           1
           1
           1
           1
           1
           1
           1
           1
           1
           1
           1
           1
           1
           1
           1
           1
           1
           1
           1
           1
           1
           1
           1
           1
           1
           1
           1
           1
           1
           1
           1
           1
           1
           1
           1
           1
           1
           1
           1
           1
           1
           1
           1
           1
           1
           1
           1
           1
           1
           1
           1
           1
           1
           1
           1
           1
           1
           1
           1
           1
           1
           1
           1
           1
           1
           1
           1
           1
           1
           1
           1
           1
           1
           1
           1
           1
           1
           1
           1
           1
           1
           1
           1
           1
           1
           1
           1
           1
           1
           1
           1
           1
           1
           1
           1
           1
           1
           1
           1
           1
           1
           1
           1
           1
           1
           1
           1
           1
           1
           1
           1
           1
           1
           1
           1
           1
           1
           1
           1
           1
           1
           1
           1
           1
           1
           1
           1
           1
           1
           1
           1
           1
           1
           1
           1
           1
           1
           1
           1
           1
           1
           1
           1
           1
           1
           1
           1
           1
           1
           1
           1
           1
           1
           1
           1
           1
           1
           1
           1
           1
           1
           1
           1
           1
           1
           1
           1
           1
           1
           1
           1
           1
           1
           1
           1
           1
           1
           1
           1
           1
           1
           1
           1
           1
           1
           1
           1
           1
           1
           1
           1
           1
           1
           1
           1
           1
           1
           1
           1
           1
           1
           1
           1
           1
           1
           1
           1
           1
           1
           1
           1
           1
           1
           1
           1
           1
           1
           1
           1
           1
           1
           1
           1
           1
           1
           1
           1
           1
           1
           1
           1
           1
           1
           1
           1
           1
           1
           1
           1
           1
           1
           1
           1
           1
           1
           1
           1
           1
           1
           1
           1
           1
           1
           1
           1
           1
           1
           1
           1
           1
           1
           1
           1
           1
           1
           1
           1
           1
           1
           1
           1
           1
           1
           1
           1
           1
           1
           1
           1
           1
           1
           1
           1
           1
           1
           1
           1
           1
           1
           1
           1
           1
           1
           1
           1
           1
           1
           1
           1
           1
           1
           1
           1
           1
           1
           1
           1
           1
           1
           1
           1
           1
           1
           1
           1
           1
           1
           1
           1
           1
           1
           1
           1
           1
           1
           1
           1
           1
           1
           1
           1
           1
           1
           1
           1
           1
           1
           1
           1
           1
           1
           1
           1
           1
           1
           1
           1
           1
           1
           1
           1
           1
           1
           1
           1
           1
           1
           1
           1
           1
           1
           1
           1
           1
           1
           1
           1
           1
           1
           1
           1
           1
           1
           1
           1
           1
           1
           1
           1
           1
           1
           1
           1
           1
           1
           1
           1
           1
           1
           1
           1
           1
           1
           1
           1
           1
           1
           1
           1
           1
           1
           1
           1
           1
           1
           1
           1
           1
           1
           1
           1
           1
           1
           1
           1
           1
           1
           1
           1
           1
           1
           1
           1
           1
           1
           1
           1
           1
           1
           1
           1
           1
           1
           1
           1
           1
           1
           1
           1
           1
           1
           1
           1
           1
           1
           1
           1
           1
           1
           1
           1
           1
           1
           1
           1
           1
           1
           1
           1
           1
           1
           1
           1
           1
           1
           1
           1
           1
           1
           1
           1
           1
           1
           1
           1
           1
           1
           1
           1
           1
           1
           1
           1
           1
           1
           1
           1
           1
           1
           1
           1
           1
           1
           1
           1
           1
           1
           1
           1
           1
           1
           1
           1
           1
           1
           1
           1
           1
           1
           1
           1
           1
           1
           1
           1
           1
           1
           1
           1
           1
           1
           1
           1
           1
           1
           1
           1
           1
           1
           1
           1
           1
           1
           1
           1
           1
           1
           1
           1
           1
           1
           1
           1
           1
           1
           1
           1
           1
           1
           1
           1
           1
           1
           1
           1
           1
           1
           1
           1
           1
           1
           1
           1
           1
           1
           1
           1
           1
           1
           1
           1
           1
           1
           1
           1
           1
           1
           1
           1
           1
           1
           1
           1
           1
           1
           1
           1
           1
           1
           1
           1
           1
           1
           1
           1
           1
           1
           1
           1
           1
           1
           1
           1
           1
           1
           1
           1
           1
           1
           1
           1
           1
           1
           1
           1
           1
           1
           1
           1
           1
           1
           1
           1
           1
           1
           1
           1
           1
           1
           1
           1
           1
           1
           1
           1
           1
           1
           1
           1
           1
           1
           1
           1
           1
           1
           1
           1
           1
           1
           1
           1
           1
           1
           1
           1
           1
           1
           1
           1
           1
           1
           1
           1
           1
           1
           1
           1
           1
           1
           1
           1
           1
           1
           1
           1
           1
           1
           1
           1
           1
           1
           1
           1
           1
           1
           1
           1
           1
           1
           1
           1
           1
           1
           1
           1
           1
           1
           1
           1
           1
           1
           1
           1
           1
           1
           1
           1
           1
           1
           1
           1
           1
           1
           1
           1
           1
           1
           1
           1
           1
           1
           1
           1
           1
           1
           1
           1
           1
           1
           1
           1
           1
           1
           1
           1
           1
           1
           1
           1
           1
           1
           1
           1
           1
           1
           1
           1
           1
           1
           1
           1
           1
           1
           1
           1
           1
           1
           1
           1
           1
           1
           1
           1
           1
           1
           1
           1
           1
           1
           1
           1
           1
           1
           1
           1
           1
           1
           1
           1
           1
           1
           1
           1
           1
           1
           1
           1
           1
           1
           1
           1
           1
           1
           1
           1
           1
           1
           1
           1
           1
           1
           1
           1
           1
           1
           1
           1
           1
           1
           1
           1
           1
           1
           1
           1
           1
           1
           1
           1
           1
           1
           1
           1
           1
           1
           1
           1
           1
           1
           1
           1
           1
           1
           1
           1
           1
           1
           1
           1
           1
           1
           1
           1
           1
           1
           1
           1
           1
           1
           1
           1
           1
           1
           1
           1
           1
           1
           1
           1
           1
           1
           1
           1
           1
           1
           1
           1
           1
           1
           1
           1
           1
           1
           1
           1
           1
           1
           1
           1
           1
           1
           1
           1
           1
           1
           1
           1
           1
           1
           1
           1
           1
           1
           1
           1
           1
           1
           1
           1
           1
           1
           1
           1
           1
           1
           1
           1
           1
           1
           1
           1
           1
           1
           1
           1
           1
           1
           1
           1
           1
           1
           1
           1
           1
           1
           1
           1
           1
           1
           1
           1
           1
           1
           1
           1
           1
           1
           1
           1
           1
           1
           1
           1
           1
           1
           1
           1
           1
           1
           1
           1
           1
           1
           1
           1
           1
           1
           1
           1
           1
           1
           1
           1
           1
           1
           1
           1
           1
           1
           1
           1
           1
           1
           1
           1
           1
           1
           1
           1
           1
           1
           1
           1
           1
           1
           1
           1
           1
           1
           1
           1
           1
           1
           1
           1
           1
           1
           1
           1
           1
           1
           1
           1
           1
           1
           1
           1
           1
           1
           1
           1
           1
           1
           1
           1
           1
           1
           1
           1
           1
           1
           1
           1
           1
           1
           1
           1
           1
           1
           1
           1
           1
           1
           1
           1
           1
           1
           1
           1
           1
           1
           1
           1
           1
           1
           1
           1
           1
           1
           1
           1
           1
           1
           1
           1
           1
           1
           1
           1
           1
           1
           1
           1
           1
           1
           1
           1
           1
           1
           1
           1
           1
           1
           1
           1
           1
           1
           1
           1
           1
           1
           1
           1
           1
           1
           1
           1
           1
           1
           1
           1
           1
           1
           1
           1
           1
           1
           1
           1
           1
           1
           1
           1
           1
           1
           1
           1
           1
           1
           1
           1
           1
           1
           1
           1
           1
           1
           1
           1
           1
           1
           1
           1
           1
           1
           1
           1
           1
           1
           1
           1
           1
           1
           1
           1
           1
           1
           1
           1
           1
           1
           1
           1
           1
           1
           1
           1
           1
           1
           1
           1
           1
           1
           1
           1
           1
           1
           1
           1
           1
           1
           1
           1
           1
           1
           1
           1
           1
           1
           1
           1
           1
           1
           1
           1
           1
           1
           1
           1
           1
           1
           1
           1
           1
           1
           1
           1
           1
           1
           1
           1
           1
           1
           1
           1
           1
           1
           1
           1
           1
           1
           1
           1
           1
           1
           1
           1
           1
           1
           1
           1
           1
           1
           1
           1
           1
           1
           1
           1
           1
           1
           1
           1
           1
           1
           1
           1
           1
           1
           1
           1
           1
           1
           1
           1
           1
           1
           1
           1
           1
           1
           1
           1
           1
           1
           1
           1
           1
           1
           1
           1
           1
           1
           1
           1
           1
           1
           1
           1
           1
           1
           1
           1
           1
           1
           1
           1
           1
           1
           1
           1
           1
           1
           1
           1
           1
           1
           1
           1
           1
           1
           1
           1
           1
           1
           1
           1
           1
           1
           1
           1
           1
           1
           1
           1
           1
           1
           1
           1
           1
           1
           1
           1
           1
           1
           1
           1
           1
           1
           1
           1
           1
           1
           1
           1
           1
           1
           1
           1
           1
           1
           1
           1
           1
           1
           1
           1
           1
           1
           1
           1
           1
           1
           1
           1
           1
           1
           1
           1
           1
           1
           1
           1
           1
           1
           1
           1
           1
           1
           1
           1
           1
           1
           1
           1
           1
           1
           1
           1
           1
           1
           1
           1
           1
           1
           1
           1
           1
           1
           1
           1
           1
           1
           1
           1
           1
           1
           1
           1
           1
           1
           1
           1
           1
           1
           1
           1
           1
           1
           1
           1
           1
           1
           1
           1
           1
           1
           1
           1
           1
           1
           1
           1
           1
           1
           1
           1
           1
           1
           1
           1
           1
           1
           1
           1
           1
           1
           1
           1
           1
           1
           1
           1
           1
           1
           1
           1
           1
           1
           1
           1
           1
           1
           1
           1
           1
           1
           1
           1
           1
           1
           1
           1
           1
           1
           1
           1
           1
           1
           1
           1
           1
           1
           1
           1
           1
           1
           1
           1
           1
           1
           1
           1
           1
           1
           1
           1
           1
           1
           1
           1
           1
           1
           1
           1
           1
           1
           1
           1
           1
           1
           1
           1
           1
           1
           1
           1
           1
           1
           1
           1
           1
           1
           1
           1
           1
           1
           1
           1
           1
           1
           1
           1
           1
           1
           1
           1
           1
           1
           1
           1
           1
           1
           1
           1
           1
           1
           1
           1
           1
           1
           1
           1
           1
           1
           1
           1
           1
           1
           1
           1
           1
           1
           1
           1
           1
           1
           1
           1
           1
           1
           1
           1
           1
           1
           1
           1
           1
           1
           1
           1
           1
           1
           1
           1
           1
           1
           1
           1
           1
           1
           1
           1
           1
           1
           1
           1
           1
           1
           1
           1
           1
           1
           1
           1
           1
           1
           1
           1
           1
           1
           1
           1
           1
           1
           1
           1
           1
           1
           1
           1
           1
           1
           1
           1
           1
           1
           1
           1
           1
           1
           1
           1
           1
           1
           1
           1
           1
           1
           1
           1
           1
           1
           1
           1
           1
           1
           1
           1
           1
           1
           1
           1
           1
           1
           1
           1
           1
           1
           1
           1
           1
           1
           1
           1
           1
           1
           1
           1
           1
           1
           1
           1
           1
           1
           1
           1
           1
           1
           1
           1
           1
           1
           1
           1
           1
           1
           1
           1
           1
           1
           1
           1
           1
           1
           1
           1
           1
           1
           1
           1
           1
           1
           1
           1
           1
           1
           1
           1
           1
           1
           1
           1
           1
           1
           1
           1
           1
           1
           1
           1
           1
           1
           1
           1
           1
           1
           1
           1
           1
           1
           1
           1
           1
           1
           1
           1
           1
           1
           1
           1
           1
           1
           1
           1
           1
           1
           1
           1
           1
           1
           1
           1
           1
           1
           1
           1
           1
           1
           1
           1
           1
           1
           1
           1
           1
           1
           1
           1
           1
           1
           1
           1
           1
           1
           1
           1
           1
           1
           1
           1
           1
           1
           1
           1
           1
           1
           1
           1
           1
           1
           1
         100
         100
         100
         100
         100
         100
         100
         100
         100
         100
         100
         100
         100
         100
         100
         100
         100
         100
         100
         100
         100
         100
         100
         100
         100
         100
         100
         100
         100
         100
         100
         100
         100
         100
         100
         100
         100
         100
         100
         100
         100
         100
         100
         100
         100
         100
         100
         100
         100
         100
         100
         100
         100
         100
         100
         100
         100
         100
         100
         100
         100
         100
         100
         100
         100
         100
         100
         100
         100
         100
         100
         100
         100
         100
         100
         100
         100
         100
         100
         100
         100
         101
         101
         101
         100
         100
         100
         100
         100
         100
         100
         100
         100
         100
         100
         100
         100
         100
         101
         101
         100
         100
         100
         100
         100
         100
         100
         100
         103
         103
         103
         103
         100
         100
         101
         100
         100
         100
         100
         100
         100
         100
         100
         100
         103
         103
         103
         100
         100
         101
         101
         100
         100
         100
         100
         100
         100
         100
         100
         100
         100
         100
         100
         100
         100
         100
         100
         103
         103
         100
         101
         100
         100
         103
         103
         100
         100
         100
         100
         100
         100
         100
         100
         100
         100
         100
         100
         101
         100
         100
         103
         100
         100
         100
         100
         101
         100
         103
         103
         100
         100
         101
         100
         100
         103
         100
         101
         101
         100
         103
         103
         100
         101
         100
         100
         100
         100
         100
         100
         100
         100
         100
         103
         103
         100
         101
         100
         100
         100
         100
         100
         100
         100
         103
         100
         100
         100
         100
         100
         100
         100
         100
         103
         103
         100
         100
         100
         100
         100
         100
         100
         100
         100
         100
         100
         103
         100
         100
         100
         100
         100
         100
         100
         100
         100
         100
         100
         103
         103
         100
         100
         100
         100
         100
         100
         100
         100
         103
         103
         100
         100
         100
         100
         100
         100
         103
         100
         100
         100
         100
         100
         100
         100
         100
         100
         100
         100
         100
         100
         100
         100
         100
         100
         100
         100
         100
         100
         100
         100
         100
         100
         100
         100
         100
         100
         100
         100
         100
         100
         100
         100
         100
         100
         100
         100
         100
         100
         100
         100
         100
         100
         100
         100
         100
         100
         100
         100
         100
         100
         100
         100
         100
         100
         100
         100
         100
         100
         100
         100
         100
         100
         100
         100
         100
         100
         100
         100
         100
         100
         100
         100
         100
         100
         100
         100
         100
         100
         100
         100
         100
         100
         100
         100
         100
         100
         100
         100
         100
         100
         100
         100
         100
         100
         100
         100
         100
         100
         100
         100
         100
         100
         100
         100
         100
         100
         100
         100
         100
         100
         100
         100
         100
         100
         100
         100
         100
         100
         100
         100
         100
         100
         100
         100
         100
         100
         100
         100
         100
         100
         100
         100
         100
         100
         100
         100
         100
         100
         100
         100
         100
         100
         100
         100
         100
         100
         100
         100
         100
         100
         100
         100
         100
         100
         100
         100
         100
         100
         100
         100
         100
         100
         100
         100
         100
         100
         100
         100
         100
         100
         100
         100
         100
         100
         100
         100
         100
         100
         100
         100
         100
         100
         100
         100
         100
         100
         100
         100
         100
         100
         100
         100
         100
         100
         100
         100
         100
         100
         100
         100
         100
         100
         100
         100
         100
         100
         100
         100
         100
         100
         100
         100
         100
         100
         100
         100
         100
         100
         100
         100
         100
         100
         100
         100
         100
         100
         100
         100
         100
         100
         100
         100
         100
         100
         100
         100
         100
         100
         100
         100
         100
         100
         100
         100
         100
         100
         100
         100
         100
         100
         100
         100
         100
         100
         100
         100
         100
         100
         100
         100
         100
         100
         100
         100
         100
         100
         100
         100
         100
         100
         100
         100
         100
         100
         100
         100
         100
         100
         100
         100
         100
         100
         100
         100
         100
         100
         100
         100
         100
         100
         100
         100
         100
         100
         100
         100
         100
         100
         100
         100
         100
         100
         100
         100
         100
         100
         100
         100
         100
         100
         100
         100
         100
         100
         100
         100
         100
         100
         100
         100
         100
         100
         100
         100
         100
         100
         100
         100
         100
         100
         100
         100
         100
         100
         100
         100
         100
         100
         100
         100
         100
         100
         100
         100
         100
         100
         100
         100
         100
         100
         100
         100
         100
         100
         100
         100
         100
         100
         100
         100
         100
         100
         100
         100
         100
         100
         100
         100
         100
         100
         100
         100
         100
         100
         100
         100
         100
         100
         100
         100
         100
         100
         100
         100
         100
         100
         100
         100
         100
         100
         100
         100
         100
         100
         100
         100
         100
         100
         100
         100
         100
         100
         100
         100
         100
         100
         100
         100
         100
         100
         100
         100
         100
         100
         100
         100
         100
         100
         100
         100
         100
         100
         100
         100
         100
         100
         100
         100
         100
         100
         100
         100
         100
         100
         100
         100
         100
         100
         100
         100
         100
         100
         100
         100
         100
         100
         100
         100
         100
         100
         100
         100
         100
         100
         100
         100
         100
         100
         100
         100
         100
         100
         100
         100
         100
         100
         100
         100
         100
         100
         100
         100
         100
         100
         100
         100
         100
         100
         100
         100
         100
         100
         100
         100
         100
         100
         100
         100
         100
         100
         100
         100
         100
         100
         100
         100
         100
         100
         100
         100
         100
         100
         100
         100
         100
         100
         100
         100
         100
         100
         100
         100
         100
         100
         100
         100
         100
         100
         100
         100
         100
         100
         100
         100
         100
         100
         100
         100
         100
         100
         100
         100
         100
         100
         100
         100
         100
         100
         100
         100
         100
         100
         100
         100
         100
         100
         100
         100
         100
         100
         100
         100
         100
         100
         100
         100
         102
         100
         100
         100
         102
         100
         100
         100
         100
         100
         102
         100
         100
         100
         102
         100
         100
         100
         100
         102
         100
         100
         100
         102
         100
         100
         100
         100
         100
         100
         102
         100
         100
         100
         100
         100
         100
         100
         100
         100
         100
         102
         100
         100
         100
         100
         100
         102
         100
         100
         100
         100
         100
         100
         102
         100
         100
         100
         100
         100
         100
         102
         100
         100
         100
         100
         100
         100
         100
         100
         100
         100
         102
         102
         100
         100
         100
         100
         100
         100
         100
         100
         100
         100
         100
         100
         100
         100
         100
         100
         102
         100
         102
         100
         100
         100
         100
         100
         100
         100
         100
         102
         100
         100
         100
         100
         100
         100
         100
         100
         102
         100
         100
         100
         100
         100
         102
         100
         100
         100
         100
         102
         100
         100
         100
         100
         102
         100
         100
         100
         100
         100
         100
         100
         100
         100
         100
         100
         100
         102
         100
         100
         100
         100
         100
         102
         100
         100
         100
         100
         100
         102
         100
         100
         100
         100
         100
         102
         100
         100
         100
         100
         100
         102
         100
         100
         100
         100
         100
         102
         100
         100
         100
         100
         102
         100
         100
         100
         100
         100
         100
         102
         100
         102
         100
         100
         102
         100
         102
         100
         102
         100
         102
         100
         102
         102
         100
         102
         100
         100
         100
         100
         100
         100
         100
         102
         100
         102
         100
         102
         100
         100
         102
         102
         100
         100
         100
         100
         100
         100
         102
         100
         100
         100
         100
         102
         100
         100
         100
         100
         100
         102
         102
         100
         100
         100
         100
         100
         100
         100
         100
         100
         100
         100
         100
         100
         100
         100
         100
         100
         100
         100
         100
         102
         100
         100
         100
         100
         100
         102
         102
         100
         100
         100
         102
         100
         100
         100
         100
         100
         102
         102
         100
         100
         100
         100
         102
         100
         100
         100
         100
         102
         100
         100
         100
         100
         102
         102
         100
         100
         100
         100
         100
         100
         100
         100
         100
         100
         100
         100
         100
         100
         100
         100
         100
         100
         100
         102
         100
         100
         100
         100
         102
         100
         100
         100
         100
         102
         102
         102
         100
         100
         100
         100
         100
         102
         100
         100
         100
         100
         102
         102
         100
         100
         100
         100
         102
         100
         100
         100
         100
         100
         102
         102
         100
         100
         100
         100
         100
         102
         100
         100
         100
         100
         100
         100
         100
         100
         100
         100
         100
         100
         102
         100
         100
         100
         102
         102
         100
         100
         100
         102
         100
         100
         100
         100
         102
         100
         100
         100
         102
         102
         100
         100
         100
         100
         100
         102
         100
         100
         100
         100
         100
         100
         100
         100
         100
         100
         100
POINT_DATA 9030
VECTORS Displacement double
 -2.5146572E-007 -5.1210813E-007 0.0
 -2.5093621E-007 -5.0691524E-007 0.0
 -2.6114226E-007 -5.0348990E-007 0.0
 -2.5989696E-007 -5.1230706E-007 0.0
 -2.7179155E-007 -5.0043250E-007 0.0
 -2.7054361E-007 -5.1037290E-007 0.0
 -2.8192932E-007 -4.9754421E-007 0.0
 -2.8067302E-007 -5.0783722E-007 0.0
 -2.9152402E-007 -4.9447342E-007 0.0
 -2.9026513E-007 -5.0588362E-007 0.0
 -3.0147361E-007 -4.9108005E-007 0.0
 -3.0202274E-007 -5.0606007E-007 0.0
 -5.4923854E-008 -5.3318729E-007 0.0
 -5.4910801E-008 -5.1659425E-007 0.0
 -7.1586159E-008 -5.1656213E-007 0.0
 -7.1595188E-008 -5.3317784E-007 0.0
 -8.8623798E-008 -5.1631768E-007 0.0
 -8.8518281E-008 -5.3306732E-007 0.0
 -1.0587880E-007 -5.1585995E-007 0.0
 -1.0566033E-007 -5.3268335E-007 0.0
 -1.2324893E-007 -5.1514975E-007 0.0
 -1.2289713E-007 -5.3195752E-007 0.0
 -1.4062560E-007 -5.1414508E-007 0.0
 -1.4012411E-007 -5.3083851E-007 0.0
 -1.5790113E-007 -5.1280822E-007 0.0
 -1.5723419E-007 -5.2928202E-007 0.0
 -1.7496304E-007 -5.1110547E-007 0.0
 -1.7411594E-007 -5.2724580E-007 0.0
 -1.9169179E-007 -5.0900677E-007 0.0
 -1.9065179E-007 -5.2468744E-007 0.0
 -2.0796283E-007 -5.0648715E-007 0.0
 -2.0671457E-007 -5.2155627E-007 0.0
 -2.2362729E-007 -5.0353996E-007 0.0
 -2.2219092E-007 -5.1777512E-007 0.0
 -2.3857004E-007 -5.0024586E-007 0.0
 -2.3683585E-007 -5.1309695E-007 0.0
 -2.5181376E-007 -4.9730092E-007 0.0
 -2.6296066E-007 -4.9397789E-007 0.0
 -2.7358643E-007 -4.9057493E-007 0.0
 -2.8375715E-007 -4.8719857E-007 0.0
 -2.9342122E-007 -4.8369993E-007 0.0
 -3.0240031E-007 -4.8025419E-007 0.0
 -3.0910315E-007 -4.7720311E-007 0.0
 -3.0741645E-007 -4.8536320E-007 0.0
 -3.1439859E-007 -4.7371947E-007 0.0
 -3.1309187E-007 -4.8218780E-007 0.0
 -3.2027720E-007 -4.7049906E-007 0.0
 -3.2110869E-007 -4.8206237E-007 0.0
 -5.4688290E-008 -5.0039027E-007 0.0
 -7.1553770E-008 -5.0028229E-007 0.0
 -8.8690828E-008 -5.0004119E-007 0.0
 -1.0604591E-007 -4.9963847E-007 0.0
 -1.2351924E-007 -4.9905083E-007 0.0
 -1.4100989E-007 -4.9825238E-007 0.0
 -1.5841017E-007 -4.9721706E-007 0.0
 -1.7560542E-007 -4.9592293E-007 0.0
 -1.9247106E-007 -4.9435628E-007 0.0
 -2.0886341E-007 -4.9252121E-007 0.0
 -2.2461051E-007 -4.9046054E-007 0.0
 -2.3936158E-007 -4.8831934E-007 0.0
 -2.5272510E-007 -4.8601108E-007 0.0
 -2.6466291E-007 -4.8342469E-007 0.0
 -2.7562129E-007 -4.8044284E-007 0.0
 -2.8588594E-007 -4.7724245E-007 0.0
 -2.9538624E-007 -4.7398628E-007 0.0
 -3.0372669E-007 -4.7085078E-007 0.0
 -3.1048930E-007 -4.6769602E-007 0.0
 -3.1598217E-007 -4.6446292E-007 0.0
 -3.2057120E-007 -4.6151020E-007 0.0
 -3.2369091E-007 -4.5933118E-007 0.0
 -3.2291312E-007 -4.6656884E-007 0.0
 -3.2772880E-007 -4.5787326E-007 0.0
 -3.2862764E-007 -4.6601869E-007 0.0
 -3.7889745E-008 -5.0049455E-007 0.0
 -3.7846514E-008 -4.8408150E-007 0.0
 -5.4405874E-008 -4.8419055E-007 0.0
 -7.1393325E-008 -4.8421657E-007 0.0
 -8.8644695E-008 -4.8408322E-007 0.0
 -1.0608662E-007 -4.8382539E-007 0.0
 -1.2364336E-007 -4.8344263E-007 0.0
 -1.4122048E-007 -4.8292123E-007 0.0
 -1.5871275E-007 -4.8224594E-007 0.0
 -1.7600374E-007 -4.8140467E-007 0.0
 -1.9296213E-007 -4.8039249E-007 0.0
 -2.0943329E-007 -4.7921645E-007 0.0
 -2.2520945E-007 -4.7790166E-007 0.0
 -2.4003931E-007 -4.7643369E-007 0.0
 -2.5370555E-007 -4.7474755E-007 0.0
 -2.6617090E-007 -4.7271584E-007 0.0
 -2.7757587E-007 -4.7030744E-007 0.0
 -2.8801783E-007 -4.6759550E-007 0.0
 -2.9741804E-007 -4.6472308E-007 0.0
 -3.0555397E-007 -4.6176590E-007 0.0
 -3.1224504E-007 -4.5872544E-007 0.0
 -3.1751578E-007 -4.5561859E-007 0.0
 -3.2139841E-007 -4.5259367E-007 0.0
 -3.2412808E-007 -4.4969510E-007 0.0
 -3.2642134E-007 -4.4751706E-007 0.0
 -3.3297788E-007 -4.4830955E-007 0.0
 -3.3369760E-007 -4.5682602E-007 0.0
 -3.7380779E-008 -4.6802256E-007 0.0
 -5.3958873E-008 -4.6825856E-007 0.0
 -7.1096400E-008 -4.6830787E-007 0.0
 -8.8436371E-008 -4.6830731E-007 0.0
 -1.0595104E-007 -4.6825091E-007 0.0
 -1.2357408E-007 -4.6812910E-007 0.0
 -1.4121800E-007 -4.6793224E-007 0.0
 -1.5877926E-007 -4.6765226E-007 0.0
 -1.7614211E-007 -4.6728293E-007 0.0
 -1.9317568E-007 -4.6681907E-007 0.0
 -2.0972544E-007 -4.6625482E-007 0.0
 -2.2561024E-007 -4.6557062E-007 0.0
 -2.4063722E-007 -4.6472068E-007 0.0
 -2.5464969E-007 -4.6362124E-007 0.0
 -2.6757284E-007 -4.6218870E-007 0.0
 -2.7939791E-007 -4.6038381E-007 0.0
 -2.9010093E-007 -4.5824198E-007 0.0
 -2.9958395E-007 -4.5583290E-007 0.0
 -3.0769565E-007 -4.5321581E-007 0.0
 -3.1430967E-007 -4.5041218E-007 0.0
 -3.1937829E-007 -4.4742830E-007 0.0
 -3.2295394E-007 -4.4422478E-007 0.0
 -3.2519486E-007 -4.4070770E-007 0.0
 -3.2665989E-007 -4.3649961E-007 0.0
 -3.2717183E-007 -4.3151864E-007 0.0
 -3.6308975E-008 -4.5214975E-007 0.0
 -5.3478363E-008 -4.5224916E-007 0.0
 -7.0646826E-008 -4.5238378E-007 0.0
 -8.8038035E-008 -4.5256846E-007 0.0
 -1.0560450E-007 -4.5275824E-007 0.0
 -1.2328190E-007 -4.5293306E-007 0.0
 -1.4097958E-007 -4.5308642E-007 0.0
 -1.5859504E-007 -4.5321750E-007 0.0
 -1.7601723E-007 -4.5332454E-007 0.0
 -1.9312403E-007 -4.5339947E-007 0.0
 -2.0977788E-007 -4.5342174E-007 0.0
 -2.2582573E-007 -4.5335178E-007 0.0
 -2.4111024E-007 -4.5312519E-007 0.0
 -2.5548956E-007 -4.5266017E-007 0.0
 -2.6885134E-007 -4.5187847E-007 0.0
 -2.8110204E-007 -4.5073562E-007 0.0
 -2.9213743E-007 -4.4923216E-007 0.0
 -3.0182574E-007 -4.4740277E-007 0.0
 -3.1002451E-007 -4.4528913E-007 0.0
 -3.1662111E-007 -4.4292144E-007 0.0
 -3.2157284E-007 -4.4030486E-007 0.0
 -3.2492159E-007 -4.3741825E-007 0.0
 -3.2681630E-007 -4.3420624E-007 0.0
 -3.2733579E-007 -4.3081338E-007 0.0
 -3.2498931E-007 -4.2788546E-007 0.0
 -3.1672861E-007 -4.2475948E-007 0.0
 -3.1427074E-007 -4.2253541E-007 0.0
 -3.0789097E-007 -4.1948561E-007 0.0
 -3.0987972E-007 -4.2175253E-007 0.0
 -1.8412193E-008 -4.5231528E-007 0.0
 -1.8407406E-008 -4.3517497E-007 0.0
 -3.5576116E-008 -4.3547271E-007 0.0
 -5.2780658E-008 -4.3586714E-007 0.0
 -6.9995115E-008 -4.3629257E-007 0.0
 -8.7411961E-008 -4.3673970E-007 0.0
 -1.0502541E-007 -4.3720922E-007 0.0
 -1.2275367E-007 -4.3769435E-007 0.0
 -1.4049766E-007 -4.3820210E-007 0.0
 -1.5815590E-007 -4.3874361E-007 0.0
 -1.7562744E-007 -4.3932365E-007 0.0
 -1.9280708E-007 -4.3993323E-007 0.0
 -2.0958003E-007 -4.4054455E-007 0.0
 -2.2581987E-007 -4.4110744E-007 0.0
 -2.4139104E-007 -4.4154994E-007 0.0
 -2.5615349E-007 -4.4178640E-007 0.0
 -2.6996351E-007 -4.4173499E-007 0.0
 -2.8266787E-007 -4.4133776E-007 0.0
 -2.9409748E-007 -4.4057404E-007 0.0
 -3.0407319E-007 -4.3945930E-007 0.0
 -3.1242880E-007 -4.3803324E-007 0.0
 -3.1904328E-007 -4.3634408E-007 0.0
 -3.2386422E-007 -4.3444047E-007 0.0
 -3.2690897E-007 -4.3237715E-007 0.0
 -3.2819819E-007 -4.3027409E-007 0.0
 -3.2745263E-007 -4.2839688E-007 0.0
 -3.2377739E-007 -4.2680704E-007 0.0
 -3.1685858E-007 -4.2477814E-007 0.0
 -3.0744888E-007 -4.2243372E-007 0.0
 -2.9480889E-007 -4.1977683E-007 0.0
 -2.9308428E-007 -4.1237707E-007 0.0
 -2.8217486E-007 -4.1597888E-007 0.0
 -2.8371462E-007 -4.1169864E-007 0.0
 -1.7810112E-008 -4.1855557E-007 0.0
 -3.4858040E-008 -4.1884255E-007 0.0
 -5.1877771E-008 -4.1936006E-007 0.0
 -6.9080882E-008 -4.2002586E-007 0.0
 -8.6536274E-008 -4.2074429E-007 0.0
 -1.0421045E-007 -4.2148681E-007 0.0
 -1.2199598E-007 -4.2226475E-007 0.0
 -1.3977973E-007 -4.2310775E-007 0.0
 -1.5746560E-007 -4.2404434E-007 0.0
 -1.7496992E-007 -4.2508792E-007 0.0
 -1.9221079E-007 -4.2623130E-007 0.0
 -2.0909971E-007 -4.2744460E-007 0.0
 -2.2553612E-007 -4.2867423E-007 0.0
 -2.4140303E-007 -4.2984427E-007 0.0
 -2.5656143E-007 -4.3086347E-007 0.0
 -2.7084259E-007 -4.3163926E-007 0.0
 -2.8404237E-007 -4.3209723E-007 0.0
 -2.9592594E-007 -4.3219919E-007 0.0
 -3.0625036E-007 -4.3195246E-007 0.0
 -3.1480103E-007 -4.3140543E-007 0.0
 -3.2142572E-007 -4.3063458E-007 0.0
 -3.2604820E-007 -4.2973362E-007 0.0
 -3.2864532E-007 -4.2881863E-007 0.0
 -3.2916118E-007 -4.2803989E-007 0.0
 -3.2738511E-007 -4.2751790E-007 0.0
 -3.2303420E-007 -4.2717475E-007 0.0
 -3.1600326E-007 -4.2683552E-007 0.0
 -3.0641102E-007 -4.2629462E-007 0.0
 -2.9472022E-007 -4.2523524E-007 0.0
 -2.8153250E-007 -4.2397843E-007 0.0
 -2.6617509E-007 -4.2258597E-007 0.0
 -2.6514842E-007 -4.1095868E-007 0.0
 -2.5090138E-007 -4.2041408E-007 0.0
 -2.5194713E-007 -4.1041179E-007 0.0
 -5.4749019E-010 -4.1854531E-007 0.0
 -6.4120506E-010 -4.0156893E-007 0.0
 -1.7393181E-008 -4.0168709E-007 0.0
 -3.4043356E-008 -4.0207063E-007 0.0
 -5.0796512E-008 -4.0273591E-007 0.0
 -6.7911314E-008 -4.0358967E-007 0.0
 -8.5421596E-008 -4.0452049E-007 0.0
 -1.0318840E-007 -4.0547715E-007 0.0
 -1.2103938E-007 -4.0649339E-007 0.0
 -1.3884781E-007 -4.0763137E-007 0.0
 -1.5653450E-007 -4.0893691E-007 0.0
 -1.7404215E-007 -4.1042886E-007 0.0
 -1.9131678E-007 -4.1210168E-007 0.0
 -2.0829813E-007 -4.1392727E-007 0.0
 -2.2491267E-007 -4.1585463E-007 0.0
 -2.4106483E-007 -4.1780918E-007 0.0
 -2.5662313E-007 -4.1969528E-007 0.0
 -2.7140217E-007 -4.2140666E-007 0.0
 -2.8514928E-007 -4.2284730E-007 0.0
 -2.9755248E-007 -4.2396003E-007 0.0
 -3.0828095E-007 -4.2474780E-007 0.0
 -3.1704705E-007 -4.2527465E-007 0.0
 -3.2365463E-007 -4.2564363E-007 0.0
 -3.2800492E-007 -4.2597453E-007 0.0
 -3.3006247E-007 -4.2639247E-007 0.0
 -3.2980087E-007 -4.2700998E-007 0.0
 -3.2717075E-007 -4.2787749E-007 0.0
 -3.2212046E-007 -4.2894821E-007 0.0
 -3.1467267E-007 -4.3007460E-007 0.0
 -3.0501015E-007 -4.3106592E-007 0.0
 -2.9342591E-007 -4.3183208E-007 0.0
 -2.8016748E-007 -4.3234785E-007 0.0
 -2.6558519E-007 -4.3245267E-007 0.0
 -2.5016786E-007 -4.3235971E-007 0.0
 -2.3363515E-007 -4.3211422E-007 0.0
 -2.3327138E-007 -4.1765980E-007 0.0
 -2.1727439E-007 -4.3141241E-007 0.0
 -2.1779444E-007 -4.1730595E-007 0.0
 -7.0433990E-010 -3.8498987E-007 0.0
 -1.7065329E-008 -3.8498344E-007 0.0
 -3.3169368E-008 -3.8528096E-007 0.0
 -4.9496797E-008 -3.8596498E-007 0.0
 -6.6494028E-008 -3.8693821E-007 0.0
 -8.4124071E-008 -3.8797637E-007 0.0
 -1.0202868E-007 -3.8903093E-007 0.0
 -1.1993574E-007 -3.9020431E-007 0.0
 -1.3773215E-007 -3.9159209E-007 0.0
 -1.5537661E-007 -3.9323988E-007 0.0
 -1.7284466E-007 -3.9516113E-007 0.0
 -1.9011101E-007 -3.9734921E-007 0.0
 -2.0714270E-007 -3.9978139E-007 0.0
 -2.2389417E-007 -4.0241716E-007 0.0
 -2.4029727E-007 -4.0519327E-007 0.0
 -2.5624122E-007 -4.0801826E-007 0.0
 -2.7153926E-007 -4.1077373E-007 0.0
 -2.8589492E-007 -4.1333619E-007 0.0
 -2.9889829E-007 -4.1561971E-007 0.0
 -3.1009085E-007 -4.1762463E-007 0.0
 -3.1908268E-007 -4.1943725E-007 0.0
 -3.2563749E-007 -4.2118445E-007 0.0
 -3.2965996E-007 -4.2297972E-007 0.0
 -3.3113749E-007 -4.2491520E-007 0.0
 -3.3011216E-007 -4.2705903E-007 0.0
 -3.2666720E-007 -4.2942767E-007 0.0
 -3.2091113E-007 -4.3195839E-007 0.0
 -3.1298349E-007 -4.3452147E-007 0.0
 -3.0306966E-007 -4.3698055E-007 0.0
 -2.9139689E-007 -4.3923200E-007 0.0
 -2.7823950E-007 -4.4120023E-007 0.0
 -2.6389772E-007 -4.4287092E-007 0.0
 -2.4864058E-007 -4.4424447E-007 0.0
 -2.3276142E-007 -4.4524416E-007 0.0
 -2.1663661E-007 -4.4595851E-007 0.0
 -2.0028564E-007 -4.4641263E-007 0.0
 -2.0034922E-007 -4.3061915E-007 0.0
 -1.8409923E-007 -4.4655790E-007 0.0
 -1.8418498E-007 -4.3050082E-007 0.0
 -1.7023761E-008 -3.6872334E-007 0.0
 -3.2410034E-008 -3.6851694E-007 0.0
 -4.7907374E-008 -3.6903112E-007 0.0
 -6.4849161E-008 -3.6998403E-007 0.0
 -8.2773973E-008 -3.7090676E-007 0.0
 -1.0083074E-007 -3.7190592E-007 0.0
 -1.1873433E-007 -3.7318331E-007 0.0
 -1.3645603E-007 -3.7480524E-007 0.0
 -1.5400356E-007 -3.7678369E-007 0.0
 -1.7138324E-007 -3.7911388E-007 0.0
 -1.8859249E-007 -3.8178654E-007 0.0
 -2.0562054E-007 -3.8478923E-007 0.0
 -2.2244770E-007 -3.8810222E-007 0.0
 -2.3903845E-007 -3.9168974E-007 0.0
 -2.5532050E-007 -3.9548524E-007 0.0
 -2.7113756E-007 -3.9937442E-007 0.0
 -2.8616876E-007 -4.0319865E-007 0.0
 -2.9988053E-007 -4.0682889E-007 0.0
 -3.1160689E-007 -4.1025364E-007 0.0
 -3.2080570E-007 -4.1361834E-007 0.0
 -3.2724794E-007 -4.1706968E-007 0.0
 -3.3090443E-007 -4.2066135E-007 0.0
 -3.3179521E-007 -4.2438752E-007 0.0
 -3.3001019E-007 -4.2825867E-007 0.0
 -3.2576657E-007 -4.3226990E-007 0.0
 -3.1932092E-007 -4.3633493E-007 0.0
 -3.1089109E-007 -4.4032590E-007 0.0
 -3.0066698E-007 -4.4412468E-007 0.0
 -2.8885290E-007 -4.4765606E-007 0.0
 -2.7569496E-007 -4.5088563E-007 0.0
 -2.6147214E-007 -4.5379293E-007 0.0
 -2.4648002E-007 -4.5635007E-007 0.0
 -2.3100322E-007 -4.5853322E-007 0.0
 -2.1528763E-007 -4.6031858E-007 0.0
 -1.9950530E-007 -4.6167708E-007 0.0
 -1.8376523E-007 -4.6262012E-007 0.0
 -1.6799234E-007 -4.6315675E-007 0.0
 -1.6787011E-007 -4.4654435E-007 0.0
 -3.2341587E-008 -3.5240419E-007 0.0
 -4.5868088E-008 -3.5193750E-007 0.0
 -6.3169013E-008 -3.5228211E-007 0.0
 -8.1556939E-008 -3.5279986E-007 0.0
 -9.9641864E-008 -3.5375596E-007 0.0
 -1.1743933E-007 -3.5520747E-007 0.0
 -1.3501634E-007 -3.5711420E-007 0.0
 -1.5241955E-007 -3.5943701E-007 0.0
 -1.6967186E-007 -3.6215324E-007 0.0
 -1.8678241E-007 -3.6525562E-007 0.0
 -2.0375363E-007 -3.6874819E-007 0.0
 -2.2058520E-007 -3.7264144E-007 0.0
 -2.3727273E-007 -3.7694435E-007 0.0
 -2.5379554E-007 -3.8164833E-007 0.0
 -2.7007252E-007 -3.8669123E-007 0.0
 -2.8583975E-007 -3.9190758E-007 0.0
 -3.0041804E-007 -3.9705831E-007 0.0
 -3.1276515E-007 -4.0214492E-007 0.0
 -3.2204346E-007 -4.0741740E-007 0.0
 -3.2821519E-007 -4.1312936E-007 0.0
 -3.3151874E-007 -4.1908359E-007 0.0
 -3.3189465E-007 -4.2501361E-007 0.0
 -3.2936677E-007 -4.3089673E-007 0.0
 -3.2434634E-007 -4.3672577E-007 0.0
 -3.1726864E-007 -4.4240302E-007 0.0
 -3.0839948E-007 -4.4777101E-007 0.0
 -2.9788748E-007 -4.5275671E-007 0.0
 -2.8590009E-007 -4.5735975E-007 0.0
 -2.7267390E-007 -4.6159995E-007 0.0
 -2.5850427E-007 -4.6549196E-007 0.0
 -2.4370557E-007 -4.6902396E-007 0.0
 -2.2856565E-007 -4.7215887E-007 0.0
 -2.1331520E-007 -4.7484907E-007 0.0
 -1.9810219E-007 -4.7704845E-007 0.0
 -1.8297376E-007 -4.7871291E-007 0.0
 -1.6785039E-007 -4.7979947E-007 0.0
 -1.5244678E-007 -4.8026859E-007 0.0
 -1.5212362E-007 -4.6338461E-007 0.0
 -4.1537484E-008 -3.3105684E-007 0.0
 -6.1759918E-008 -3.3227589E-007 0.0
 -8.0401536E-008 -3.3296680E-007 0.0
 -9.8363406E-008 -3.3428535E-007 0.0
 -1.1597692E-007 -3.3614509E-007 0.0
 -1.3337810E-007 -3.3844869E-007 0.0
 -1.5062367E-007 -3.4114336E-007 0.0
 -1.6773815E-007 -3.4421071E-007 0.0
 -1.8473207E-007 -3.4765635E-007 0.0
 -2.0161210E-007 -3.5150497E-007 0.0
 -2.1838743E-007 -3.5579872E-007 0.0
 -2.3507433E-007 -3.6059690E-007 0.0
 -2.5169531E-007 -3.6597153E-007 0.0
 -2.6826815E-007 -3.7198838E-007 0.0
 -2.8471206E-007 -3.7861222E-007 0.0
 -3.0045030E-007 -3.8554399E-007 0.0
 -3.1359151E-007 -3.9243269E-007 0.0
 -3.2241770E-007 -4.0023894E-007 0.0
 -3.2791621E-007 -4.0921446E-007 0.0
 -3.3105236E-007 -4.1857109E-007 0.0
 -3.3129034E-007 -4.2735430E-007 0.0
 -3.2800875E-007 -4.3551985E-007 0.0
 -3.2224644E-007 -4.4342699E-007 0.0
 -3.1473771E-007 -4.5070916E-007 0.0
 -3.0557827E-007 -4.5727516E-007 0.0
 -2.9485303E-007 -4.6322228E-007 0.0
 -2.8269309E-007 -4.6862270E-007 0.0
 -2.6933086E-007 -4.7359230E-007 0.0
 -2.5511890E-007 -4.7820743E-007 0.0
 -2.4042693E-007 -4.8247412E-007 0.0
 -2.2556612E-007 -4.8634927E-007 0.0
 -2.1075976E-007 -4.8977518E-007 0.0
 -1.9613592E-007 -4.9269156E-007 0.0
 -1.8171893E-007 -4.9503529E-007 0.0
 -1.6739940E-007 -4.9672773E-007 0.0
 -1.5293820E-007 -4.9762973E-007 0.0
 -1.3695847E-007 -4.9742608E-007 0.0
 -1.3669943E-007 -4.8063604E-007 0.0
 -3.8433076E-008 -3.0875309E-007 0.0
 -6.0295109E-008 -3.0948900E-007 0.0
 -7.8942137E-008 -3.1131976E-007 0.0
 -9.6761398E-008 -3.1355095E-007 0.0
 -1.1422954E-007 -3.1607904E-007 0.0
 -1.3149795E-007 -3.1887899E-007 0.0
 -1.4862405E-007 -3.2195002E-007 0.0
 -1.6563025E-007 -3.2530608E-007 0.0
 -1.8252583E-007 -3.2897442E-007 0.0
 -1.9931730E-007 -3.3299714E-007 0.0
 -2.1601559E-007 -3.3743545E-007 0.0
 -2.3264260E-007 -3.4237774E-007 0.0
 -2.4924111E-007 -3.4795367E-007 0.0
 -2.6587804E-007 -3.5435244E-007 0.0
 -2.8268466E-007 -3.6185740E-007 0.0
 -2.9961414E-007 -3.7059188E-007 0.0
 -3.1459017E-007 -3.8015218E-007 0.0
 -3.2119897E-007 -3.9066354E-007 0.0
 -3.2454994E-007 -4.0541829E-007 0.0
 -3.2891390E-007 -4.2020073E-007 0.0
 -3.3007839E-007 -4.3207460E-007 0.0
 -3.2540322E-007 -4.4346873E-007 0.0
 -3.1951508E-007 -4.5349965E-007 0.0
 -3.1189685E-007 -4.6185693E-007 0.0
 -3.0255260E-007 -4.6934350E-007 0.0
 -2.9178063E-007 -4.7592764E-007 0.0
 -2.7945805E-007 -4.8175019E-007 0.0
 -2.6584294E-007 -4.8710550E-007 0.0
 -2.5145509E-007 -4.9215344E-007 0.0
 -2.3676569E-007 -4.9688144E-007 0.0
 -2.2210634E-007 -5.0124467E-007 0.0
 -2.0769816E-007 -5.0519034E-007 0.0
 -1.9365418E-007 -5.0865768E-007 0.0
 -1.7997822E-007 -5.1158681E-007 0.0
 -1.6656597E-007 -5.1391416E-007 0.0
 -1.5311169E-007 -5.1560051E-007 0.0
 -1.3917241E-007 -5.1639886E-007 0.0
 -3.7407423E-008 -2.8083699E-007 0.0
 -5.8116675E-008 -2.8503415E-007 0.0
 -7.6812914E-008 -2.8872250E-007 0.0
 -9.4667736E-008 -2.9207404E-007 0.0
 -1.1212960E-007 -2.9533120E-007 0.0
 -1.2936945E-007 -2.9861832E-007 0.0
 -1.4645665E-007 -3.0200822E-007 0.0
 -1.6342055E-007 -3.0555267E-007 0.0
 -1.8027426E-007 -3.0929688E-007 0.0
 -1.9702663E-007 -3.1328786E-007 0.0
 -2.1369006E-007 -3.1758125E-007 0.0
 -2.3028861E-007 -3.2224971E-007 0.0
 -2.4686689E-007 -3.2739616E-007 0.0
 -2.6352078E-007 -3.3318289E-007 0.0
 -2.8038005E-007 -3.3988770E-007 0.0
 -2.9805021E-007 -3.4827897E-007 0.0
 -3.1611358E-007 -3.5903459E-007 0.0
 -3.1445348E-007 -3.8300986E-007 0.0
 -3.1854019E-007 -4.0172155E-007 0.0
 -3.2218708E-007 -4.2057769E-007 0.0
 -3.2784096E-007 -4.4454218E-007 0.0
 -3.2152765E-007 -4.5783224E-007 0.0
 -3.1723578E-007 -4.6745404E-007 0.0
 -3.0879394E-007 -4.7634888E-007 0.0
 -2.9946476E-007 -4.8456926E-007 0.0
 -2.8909892E-007 -4.9130333E-007 0.0
 -2.7650613E-007 -4.9699013E-007 0.0
 -2.6238491E-007 -5.0241529E-007 0.0
 -2.4768550E-007 -5.0755902E-007 0.0
 -2.3287975E-007 -5.1238393E-007 0.0
 -2.1831624E-007 -5.1691035E-007 0.0
 -2.0423780E-007 -5.2109367E-007 0.0
 -1.9073600E-007 -5.2486801E-007 0.0
 -1.7778858E-007 -5.2818358E-007 0.0
 -1.6528767E-007 -5.3099079E-007 0.0
 -1.5303430E-007 -5.3314249E-007 0.0
 -1.4106401E-007 -5.3425453E-007 0.0
 -1.2667818E-007 -5.3336016E-007 0.0
 -1.2613035E-007 -5.1738120E-007 0.0
 -3.8682008E-056  2.0741756E-031 0.0
 -2.2333067E-056 -2.2333067E-056 0.0
 -1.0294542E-010  3.8127972E-010 0.0
 -2.7352310E-056 -2.7352310E-056 0.0
  1.4950583E-009  6.2274721E-010 0.0
  1.9937147E-009  2.2796192E-009 0.0
  4.4834429E-009  1.2885296E-009 0.0
  4.9117897E-009  3.6062737E-009 0.0
  7.9734276E-009  2.1230842E-009 0.0
  7.6219565E-009  3.7607786E-009 0.0
  1.7285360E-008 -2.7041013E-007 0.0
  1.6407804E-008 -2.4526772E-007 0.0
 -1.7435721E-009 -2.4960602E-007 0.0
 -3.3249197E-009 -2.7036444E-007 0.0
 -1.8481056E-008 -2.5406295E-007 0.0
 -2.0435626E-008 -2.7396035E-007 0.0
 -3.6109740E-008 -2.5788545E-007 0.0
 -5.5402692E-008 -2.6219990E-007 0.0
 -7.4148526E-008 -2.6655218E-007 0.0
 -9.2157693E-008 -2.7056993E-007 0.0
 -1.0973652E-007 -2.7433121E-007 0.0
 -1.2705377E-007 -2.7795716E-007 0.0
 -1.4419444E-007 -2.8153846E-007 0.0
 -1.6120087E-007 -2.8513919E-007 0.0
 -1.7809656E-007 -2.8880591E-007 0.0
 -1.9489957E-007 -2.9257371E-007 0.0
 -2.1163265E-007 -2.9646894E-007 0.0
 -2.2833378E-007 -3.0050783E-007 0.0
 -2.4507685E-007 -3.0468779E-007 0.0
 -2.6199893E-007 -3.0895612E-007 0.0
 -2.7948802E-007 -3.1310152E-007 0.0
 -2.9815169E-007 -3.1620768E-007 0.0
 -3.2513630E-007 -3.1443011E-007 0.0
 -3.3068914E-007 -4.7272825E-007 0.0
 -3.1659944E-007 -4.7273505E-007 0.0
 -3.1662307E-007 -4.8587110E-007 0.0
 -3.0482986E-007 -4.9506525E-007 0.0
 -2.9672805E-007 -5.0350926E-007 0.0
 -2.8765981E-007 -5.0927669E-007 0.0
 -2.7391801E-007 -5.1477085E-007 0.0
 -2.5918148E-007 -5.2001193E-007 0.0
 -2.4410888E-007 -5.2464105E-007 0.0
 -2.2897836E-007 -5.2905055E-007 0.0
 -2.1436098E-007 -5.3334103E-007 0.0
 -2.0053211E-007 -5.3739737E-007 0.0
 -1.8751692E-007 -5.4114857E-007 0.0
 -1.7525290E-007 -5.4455882E-007 0.0
 -1.6364015E-007 -5.4759347E-007 0.0
 -1.5260692E-007 -5.5020181E-007 0.0
 -1.4188666E-007 -5.5249606E-007 0.0
 -1.3176651E-007 -5.5434937E-007 0.0
 -3.8682008E-056 -3.8682008E-056 0.0
  1.4666636E-031  1.4666636E-031 0.0
 -5.5062981E-010 -3.4291319E-010 0.0
 -1.6684258E-010 -6.3266222E-010 0.0
  1.4529050E-009 -9.3142209E-010 0.0
  4.2702333E-009 -1.1470130E-009 0.0
  8.1788053E-009 -1.3678962E-009 0.0
  1.3563114E-008 -1.7345867E-009 0.0
  1.3699016E-008  3.5434248E-009 0.0
  2.0025770E-008 -2.0285160E-009 0.0
  2.0023490E-008  4.2564415E-009 0.0
  2.7140468E-008 -2.4766886E-009 0.0
  2.6938473E-008  4.5286898E-009 0.0
  5.1128228E-008 -2.3941438E-007 0.0
  4.9804890E-008 -2.1311751E-007 0.0
  3.3078660E-008 -2.1872995E-007 0.0
  3.0913146E-008 -2.3952464E-007 0.0
  1.7319951E-008 -2.2346015E-007 0.0
  3.3016259E-010 -2.2819450E-007 0.0
 -1.6870636E-008 -2.3274769E-007 0.0
 -3.4560417E-008 -2.3697205E-007 0.0
 -5.2946539E-008 -2.4109905E-007 0.0
 -7.1408657E-008 -2.4534606E-007 0.0
 -8.9494086E-008 -2.4949219E-007 0.0
 -1.0721300E-007 -2.5342584E-007 0.0
 -1.2466855E-007 -2.5717050E-007 0.0
 -1.4193690E-007 -2.6077816E-007 0.0
 -1.5906791E-007 -2.6429419E-007 0.0
 -1.7609721E-007 -2.6774853E-007 0.0
 -1.9305835E-007 -2.7115256E-007 0.0
 -2.0999500E-007 -2.7449436E-007 0.0
 -2.2697838E-007 -2.7772769E-007 0.0
 -2.4413640E-007 -2.8074760E-007 0.0
 -2.6173835E-007 -2.8333637E-007 0.0
 -2.8031696E-007 -2.8506367E-007 0.0
 -3.0171677E-007 -2.8511033E-007 0.0
 -3.2784403E-007 -2.8469080E-007 0.0
 -3.2040079E-007 -5.1790241E-007 0.0
 -3.0171775E-007 -5.1628489E-007 0.0
 -2.9339016E-007 -5.2141892E-007 0.0
 -2.8789520E-007 -5.3170360E-007 0.0
 -2.7158070E-007 -5.3671809E-007 0.0
 -2.5701820E-007 -5.4034739E-007 0.0
 -2.4115119E-007 -5.4342845E-007 0.0
 -2.2528129E-007 -5.4688973E-007 0.0
 -2.1045579E-007 -5.5043780E-007 0.0
 -1.9678391E-007 -5.5391473E-007 0.0
 -1.8418357E-007 -5.5724437E-007 0.0
 -1.7253045E-007 -5.6039267E-007 0.0
 -1.6173149E-007 -5.6333618E-007 0.0
 -1.5170578E-007 -5.6603085E-007 0.0
 -1.4243507E-007 -5.6825955E-007 0.0
 -1.3451480E-007 -5.6957680E-007 0.0
 -1.2781687E-007 -5.7003475E-007 0.0
 -1.2617450E-007 -5.5634894E-007 0.0
  1.1975258E-031 -2.2333067E-056 0.0
 -8.3497630E-010 -1.0929608E-009 0.0
 -2.3676606E-010 -2.0403561E-009 0.0
  1.5155130E-009 -2.9823301E-009 0.0
  4.4771557E-009 -3.9910410E-009 0.0
  8.6610581E-009 -5.1390489E-009 0.0
  1.4071301E-008 -6.4142109E-009 0.0
  2.0516365E-008 -7.8342047E-009 0.0
  2.7828192E-008 -9.4859145E-009 0.0
  3.5786429E-008 -1.1347281E-008 0.0
  3.5065148E-008 -3.6028067E-009 0.0
  4.4082081E-008 -1.3503121E-008 0.0
  4.3256517E-008 -4.9169717E-009 0.0
  5.2904907E-008 -1.6123389E-008 0.0
  5.1956344E-008 -5.8725363E-009 0.0
  6.2950929E-008 -1.9348718E-008 0.0
  6.3146033E-008 -5.4166659E-009 0.0
  8.1826781E-008 -2.0557670E-007 0.0
  8.0144539E-008 -1.7647729E-007 0.0
  6.4779744E-008 -1.8511651E-007 0.0
  6.1663245E-008 -2.0542548E-007 0.0
  5.0919271E-008 -1.9160644E-007 0.0
  3.5219678E-008 -1.9746994E-007 0.0
  1.9008985E-008 -2.0294943E-007 0.0
  2.2998869E-009 -2.0783223E-007 0.0
 -1.4935657E-008 -2.1240566E-007 0.0
 -3.2608750E-008 -2.1670338E-007 0.0
 -5.0666757E-008 -2.2085277E-007 0.0
 -6.8852319E-008 -2.2494175E-007 0.0
 -8.6909703E-008 -2.2894991E-007 0.0
 -1.0473500E-007 -2.3279992E-007 0.0
 -1.2234457E-007 -2.3646039E-007 0.0
 -1.3978568E-007 -2.3993784E-007 0.0
 -1.5710494E-007 -2.4324651E-007 0.0
 -1.7434701E-007 -2.4639167E-007 0.0
 -1.9156225E-007 -2.4935981E-007 0.0
 -2.0881960E-007 -2.5210966E-007 0.0
 -2.2622682E-007 -2.5455985E-007 0.0
 -2.4396932E-007 -2.5657099E-007 0.0
 -2.6237049E-007 -2.5793110E-007 0.0
 -2.8207605E-007 -2.5837371E-007 0.0
 -3.0388692E-007 -2.5805783E-007 0.0
 -3.2839566E-007 -2.5776497E-007 0.0
 -2.9227768E-007 -5.6528721E-007 0.0
 -2.6982211E-007 -5.6166150E-007 0.0
 -2.5729509E-007 -5.6313141E-007 0.0
 -2.3905508E-007 -5.6408288E-007 0.0
 -2.2210620E-007 -5.6576127E-007 0.0
 -2.0685053E-007 -5.6791924E-007 0.0
 -1.9323368E-007 -5.7031912E-007 0.0
 -1.8095108E-007 -5.7279620E-007 0.0
 -1.6979752E-007 -5.7533376E-007 0.0
 -1.5969770E-007 -5.7786968E-007 0.0
 -1.5063411E-007 -5.8030347E-007 0.0
 -1.4275749E-007 -5.8248484E-007 0.0
 -1.3628731E-007 -5.8431762E-007 0.0
 -1.3127437E-007 -5.8548331E-007 0.0
 -1.2185398E-007 -5.8362148E-007 0.0
 -1.2092877E-007 -5.7178958E-007 0.0
 -3.8682008E-056 -3.8682008E-056 0.0
 -2.7352310E-056 -2.7352310E-056 0.0
 -8.3239382E-010 -1.2735470E-009 0.0
 -9.8535828E-010 -2.3586445E-009 0.0
 -2.7501081E-010 -3.7640109E-009 0.0
  1.6895290E-009 -5.2891961E-009 0.0
  4.8993598E-009 -6.9725072E-009 0.0
  9.3350637E-009 -8.8455859E-009 0.0
  1.4918382E-008 -1.0918845E-008 0.0
  2.1511071E-008 -1.3191796E-008 0.0
  2.8933272E-008 -1.5671376E-008 0.0
  3.6988419E-008 -1.8406763E-008 0.0
  4.5540995E-008 -2.1518469E-008 0.0
  5.4660723E-008 -2.5185653E-008 0.0
  6.4372858E-008 -2.9438333E-008 0.0
  7.3272524E-008 -3.3963161E-008 0.0
  7.0946730E-008 -2.5940970E-008 0.0
  8.1178444E-008 -3.9435138E-008 0.0
  7.8737794E-008 -3.2310436E-008 0.0
  8.8576329E-008 -4.5352550E-008 0.0
  8.5943244E-008 -3.8920685E-008 0.0
  9.5306659E-008 -5.1639227E-008 0.0
  9.2506175E-008 -4.5944224E-008 0.0
  1.0124273E-007 -5.8272495E-008 0.0
  9.8281899E-008 -5.3401313E-008 0.0
  1.0626528E-007 -6.5231067E-008 0.0
  1.0315820E-007 -6.1274730E-008 0.0
  1.1028345E-007 -7.2490740E-008 0.0
  1.0704316E-007 -6.9534255E-008 0.0
  1.1322857E-007 -8.0030722E-008 0.0
  1.0986363E-007 -7.8153085E-008 0.0
  1.1504134E-007 -8.7838390E-008 0.0
  1.1155468E-007 -8.7114839E-008 0.0
  1.1565850E-007 -9.5909201E-008 0.0
  1.1204999E-007 -9.6412393E-008 0.0
  1.1500980E-007 -1.0424284E-007 0.0
  1.1128010E-007 -1.0604178E-007 0.0
  1.1302973E-007 -1.1284081E-007 0.0
  1.0918135E-007 -1.1599855E-007 0.0
  1.0967863E-007 -1.2170930E-007 0.0
  1.0571603E-007 -1.2628525E-007 0.0
  1.0497605E-007 -1.3086653E-007 0.0
  1.0088548E-007 -1.3694822E-007 0.0
  9.8971620E-008 -1.4032697E-007 0.0
  9.4813935E-008 -1.4815828E-007 0.0
  9.1925547E-008 -1.4993672E-007 0.0
  8.7381683E-008 -1.6065978E-007 0.0
  8.1882162E-008 -1.5785293E-007 0.0
  6.7706735E-008 -1.6562664E-007 0.0
  5.2899084E-008 -1.7256614E-007 0.0
  3.7389308E-008 -1.7843648E-007 0.0
  2.1128560E-008 -1.8373219E-007 0.0
  4.3453295E-009 -1.8858091E-007 0.0
 -1.2890606E-008 -1.9304277E-007 0.0
 -3.0523090E-008 -1.9723578E-007 0.0
 -4.8443429E-008 -2.0124559E-007 0.0
 -6.6495348E-008 -2.0513314E-007 0.0
 -8.4521151E-008 -2.0890131E-007 0.0
 -1.0242649E-007 -2.1251848E-007 0.0
 -1.2018688E-007 -2.1595091E-007 0.0
 -1.3782151E-007 -2.1917986E-007 0.0
 -1.5536828E-007 -2.2219412E-007 0.0
 -1.7287595E-007 -2.2497776E-007 0.0
 -1.9040761E-007 -2.2750038E-007 0.0
 -2.0805130E-007 -2.2970925E-007 0.0
 -2.2593831E-007 -2.3152326E-007 0.0
 -2.4426900E-007 -2.3283322E-007 0.0
 -2.6335279E-007 -2.3352180E-007 0.0
 -2.8357825E-007 -2.3357067E-007 0.0
 -3.0525335E-007 -2.3314414E-007 0.0
 -3.2802504E-007 -2.3270510E-007 0.0
 -2.6034132E-007 -5.9043020E-007 0.0
 -2.3864971E-007 -5.8631297E-007 0.0
 -2.1970806E-007 -5.8499788E-007 0.0
 -2.0378807E-007 -5.8523089E-007 0.0
 -1.9014236E-007 -5.8600219E-007 0.0
 -1.7798346E-007 -5.8732441E-007 0.0
 -1.6719442E-007 -5.8900655E-007 0.0
 -1.5767805E-007 -5.9088479E-007 0.0
 -1.4942069E-007 -5.9287285E-007 0.0
 -1.4249815E-007 -5.9496773E-007 0.0
 -1.3704517E-007 -5.9735166E-007 0.0
 -1.3274140E-007 -6.0072402E-007 0.0
 -1.3015301E-007 -6.0559095E-007 0.0
 -2.7352310E-056 -2.7352310E-056 0.0
 -1.1512906E-009 -1.8916474E-009 0.0
 -1.2639675E-009 -3.7339938E-009 0.0
 -2.9636144E-010 -5.6192341E-009 0.0
  1.9129944E-009 -7.6882837E-009 0.0
  5.4261325E-009 -9.9705586E-009 0.0
  1.0164626E-008 -1.2493352E-008 0.0
  1.6004826E-008 -1.5245541E-008 0.0
  2.2797376E-008 -1.8205106E-008 0.0
  3.0381348E-008 -2.1366079E-008 0.0
  3.8605815E-008 -2.4755528E-008 0.0
  4.7367382E-008 -2.8430852E-008 0.0
  5.6600714E-008 -3.2405656E-008 0.0
  6.5993548E-008 -3.6560546E-008 0.0
  7.4991475E-008 -4.0981157E-008 0.0
  8.3300410E-008 -4.5747582E-008 0.0
  9.0905638E-008 -5.0962056E-008 0.0
  9.7805522E-008 -5.6518782E-008 0.0
  1.0387941E-007 -6.2364845E-008 0.0
  1.0901432E-007 -6.8459443E-008 0.0
  1.1312344E-007 -7.4766454E-008 0.0
  1.1614943E-007 -8.1259464E-008 0.0
  1.1804532E-007 -8.7928661E-008 0.0
  1.1875268E-007 -9.4777065E-008 0.0
  1.1819530E-007 -1.0180978E-007 0.0
  1.1629228E-007 -1.0902105E-007 0.0
  1.1298208E-007 -1.1638351E-007 0.0
  1.0822774E-007 -1.2382570E-007 0.0
  1.0200687E-007 -1.3117724E-007 0.0
  9.3884859E-008 -1.3796618E-007 0.0
  8.3199889E-008 -1.4422936E-007 0.0
  6.9932947E-008 -1.5009621E-007 0.0
  5.5124468E-008 -1.5582135E-007 0.0
  3.9498392E-008 -1.6112856E-007 0.0
  2.3216919E-008 -1.6597028E-007 0.0
  6.3911013E-009 -1.7043848E-007 0.0
 -1.0869551E-008 -1.7459931E-007 0.0
 -2.8479288E-008 -1.7851506E-007 0.0
 -4.6341626E-008 -1.8224926E-007 0.0
 -6.4341458E-008 -1.8583980E-007 0.0
 -8.2370729E-008 -1.8929382E-007 0.0
 -1.0035436E-007 -1.9259292E-007 0.0
 -1.1826057E-007 -1.9570921E-007 0.0
 -1.3609384E-007 -1.9861550E-007 0.0
 -1.5388384E-007 -2.0128665E-007 0.0
 -1.7167915E-007 -2.0369468E-007 0.0
 -1.8954820E-007 -2.0580316E-007 0.0
 -2.0758589E-007 -2.0756391E-007 0.0
 -2.2592399E-007 -2.0891866E-007 0.0
 -2.4474199E-007 -2.0981103E-007 0.0
 -2.6425888E-007 -2.1022258E-007 0.0
 -2.8467783E-007 -2.1022288E-007 0.0
 -3.0602616E-007 -2.1003463E-007 0.0
 -3.2782600E-007 -2.0997071E-007 0.0
 -3.4930787E-007 -2.0999791E-007 0.0
 -3.4958129E-007 -2.3239639E-007 0.0
 -2.4084605E-007 -6.0836575E-007 0.0
 -2.1793010E-007 -6.0353806E-007 0.0
 -2.0161922E-007 -6.0083708E-007 0.0
 -1.8749157E-007 -6.0009064E-007 0.0
 -1.7531475E-007 -6.0033193E-007 0.0
 -1.6480321E-007 -6.0103910E-007 0.0
 -1.5575662E-007 -6.0209647E-007 0.0
 -1.4814135E-007 -6.0339772E-007 0.0
 -1.4194913E-007 -6.0491664E-007 0.0
 -1.3715192E-007 -6.0675725E-007 0.0
 -1.3386136E-007 -6.0886643E-007 0.0
 -1.3390865E-007 -6.1067104E-007 0.0
 -1.4114180E-007 -6.1268147E-007 0.0
 -1.4348118E-007 -6.1683846E-007 0.0
 -1.5042972E-007 -6.1674528E-007 0.0
 -1.5177588E-007 -6.2275758E-007 0.0
 -1.5878871E-007 -6.1986302E-007 0.0
 -1.5985474E-007 -6.2634242E-007 0.0
 -1.6681336E-007 -6.2210043E-007 0.0
 -1.6754351E-007 -6.2875234E-007 0.0
 -1.7453858E-007 -6.2365679E-007 0.0
 -1.7502620E-007 -6.3034915E-007 0.0
 -1.8199300E-007 -6.2470251E-007 0.0
 -1.8229430E-007 -6.3135715E-007 0.0
 -1.8916741E-007 -6.2536941E-007 0.0
 -1.8933319E-007 -6.3193423E-007 0.0
 -1.9605761E-007 -6.2576288E-007 0.0
 -1.9613031E-007 -6.3220973E-007 0.0
 -2.0267486E-007 -6.2596785E-007 0.0
 -2.0269025E-007 -6.3229407E-007 0.0
 -2.0905573E-007 -6.2604665E-007 0.0
 -2.0903957E-007 -6.3228555E-007 0.0
 -2.1526850E-007 -6.2604138E-007 0.0
 -2.1527739E-007 -6.3228000E-007 0.0
 -2.7352310E-056  1.4666636E-031 0.0
 -1.2421770E-009 -2.5199654E-009 0.0
 -1.4196299E-009 -4.9900438E-009 0.0
 -3.4698014E-010 -7.4658038E-009 0.0
  2.1494820E-009 -1.0079085E-008 0.0
  6.0294216E-009 -1.2964631E-008 0.0
  1.1125034E-008 -1.6117444E-008 0.0
  1.7264635E-008 -1.9490550E-008 0.0
  2.4289968E-008 -2.3036540E-008 0.0
  3.2054325E-008 -2.6726833E-008 0.0
  4.0425135E-008 -3.0553958E-008 0.0
  4.9282002E-008 -3.4511906E-008 0.0
  5.8464707E-008 -3.8564577E-008 0.0
  6.7714406E-008 -4.2685621E-008 0.0
  7.6696181E-008 -4.6891152E-008 0.0
  8.5157897E-008 -5.1277406E-008 0.0
  9.2969567E-008 -5.5901926E-008 0.0
  1.0003299E-007 -6.0782889E-008 0.0
  1.0623319E-007 -6.5885945E-008 0.0
  1.1144723E-007 -7.1163724E-008 0.0
  1.1559340E-007 -7.6559902E-008 0.0
  1.1863970E-007 -8.2033841E-008 0.0
  1.2056859E-007 -8.7576068E-008 0.0
  1.2133077E-007 -9.3203182E-008 0.0
  1.2083325E-007 -9.8929121E-008 0.0
  1.1895955E-007 -1.0474405E-007 0.0
  1.1559655E-007 -1.1059396E-007 0.0
  1.1064796E-007 -1.1637032E-007 0.0
  1.0395877E-007 -1.2189090E-007 0.0
  9.5282294E-008 -1.2704178E-007 0.0
  8.4396394E-008 -1.3182049E-007 0.0
  7.1430476E-008 -1.3641975E-007 0.0
  5.6916079E-008 -1.4091192E-007 0.0
  4.1363204E-008 -1.4526290E-007 0.0
  2.5089542E-008 -1.4939199E-007 0.0
  8.2628884E-009 -1.5328367E-007 0.0
 -8.9986803E-009 -1.5696179E-007 0.0
 -2.6595405E-008 -1.6045789E-007 0.0
 -4.4434192E-008 -1.6380159E-007 0.0
 -6.2423481E-008 -1.6701155E-007 0.0
 -8.0481451E-008 -1.7008787E-007 0.0
 -9.8548955E-008 -1.7301436E-007 0.0
 -1.1659633E-007 -1.7576507E-007 0.0
 -1.3462284E-007 -1.7831067E-007 0.0
 -1.5265236E-007 -1.8062102E-007 0.0
 -1.7073007E-007 -1.8266467E-007 0.0
 -1.8892201E-007 -1.8440771E-007 0.0
 -2.0731744E-007 -1.8581480E-007 0.0
 -2.2603115E-007 -1.8685526E-007 0.0
 -2.4519929E-007 -1.8751816E-007 0.0
 -2.6495746E-007 -1.8783587E-007 0.0
 -2.8538393E-007 -1.8791168E-007 0.0
 -3.0639494E-007 -1.8791671E-007 0.0
 -3.2769560E-007 -1.8798973E-007 0.0
 -3.4888854E-007 -1.8815631E-007 0.0
 -3.7008239E-007 -1.8839976E-007 0.0
 -3.7017435E-007 -2.0980259E-007 0.0
 -2.1507974E-007 -6.1335657E-007 0.0
 -1.9935670E-007 -6.1307815E-007 0.0
 -1.8492113E-007 -6.1221225E-007 0.0
 -1.7293860E-007 -6.1139108E-007 0.0
 -1.6260922E-007 -6.1113444E-007 0.0
 -1.5398414E-007 -6.1131236E-007 0.0
 -1.4699158E-007 -6.1171463E-007 0.0
 -1.4154248E-007 -6.1222919E-007 0.0
 -1.3766362E-007 -6.1273476E-007 0.0
 -1.3580217E-007 -6.1296613E-007 0.0
 -1.3717689E-007 -6.1281901E-007 0.0
 -1.4244568E-007 -6.1310501E-007 0.0
 -1.5008089E-007 -6.1415253E-007 0.0
 -1.5832773E-007 -6.1574029E-007 0.0
 -1.6640811E-007 -6.1713482E-007 0.0
 -1.7425747E-007 -6.1820624E-007 0.0
 -1.8182586E-007 -6.1896520E-007 0.0
 -1.8909080E-007 -6.1946615E-007 0.0
 -1.9604426E-007 -6.1977011E-007 0.0
 -2.0270084E-007 -6.1993293E-007 0.0
 -2.0910047E-007 -6.2000178E-007 0.0
 -2.1528922E-007 -6.2002202E-007 0.0
 -2.2128658E-007 -6.2002451E-007 0.0
 -2.2126030E-007 -6.2596087E-007 0.0
 -2.2715562E-007 -6.2000953E-007 0.0
 -2.2713913E-007 -6.2589736E-007 0.0
 -2.3297734E-007 -6.1999270E-007 0.0
 -2.3299599E-007 -6.2588390E-007 0.0
 -2.7352310E-056 -2.7352310E-056 0.0
 -1.1304301E-009 -3.0899512E-009 0.0
 -1.5510869E-009 -6.2062528E-009 0.0
 -4.5746693E-010 -9.1709382E-009 0.0
  2.4208579E-009 -1.2431861E-008 0.0
  6.7415609E-009 -1.6019162E-008 0.0
  1.2228099E-008 -1.9848272E-008 0.0
  1.8675465E-008 -2.3827126E-008 0.0
  2.5927150E-008 -2.7887704E-008 0.0
  3.3848317E-008 -3.1989460E-008 0.0
  4.2310629E-008 -3.6105982E-008 0.0
  5.1178466E-008 -4.0210504E-008 0.0
  6.0287306E-008 -4.4275329E-008 0.0
  6.9425520E-008 -4.8284956E-008 0.0
  7.8357624E-008 -5.2265428E-008 0.0
  8.6875336E-008 -5.6274947E-008 0.0
  9.4815573E-008 -6.0381972E-008 0.0
  1.0203008E-007 -6.4631535E-008 0.0
  1.0835109E-007 -6.9034503E-008 0.0
  1.1361428E-007 -7.3545591E-008 0.0
  1.1772605E-007 -7.8081140E-008 0.0
  1.2070697E-007 -8.2564382E-008 0.0
  1.2260620E-007 -8.6991726E-008 0.0
  1.2338871E-007 -9.1397948E-008 0.0
  1.2292974E-007 -9.5818245E-008 0.0
  1.2105784E-007 -1.0024681E-007 0.0
  1.1759632E-007 -1.0463579E-007 0.0
  1.1239791E-007 -1.0888409E-007 0.0
  1.0535262E-007 -1.1290404E-007 0.0
  9.6350566E-008 -1.1665939E-007 0.0
  8.5356584E-008 -1.2020781E-007 0.0
  7.2531804E-008 -1.2364269E-007 0.0
  5.8226678E-008 -1.2704003E-007 0.0
  4.2827413E-008 -1.3040092E-007 0.0
  2.6634539E-008 -1.3369350E-007 0.0
  9.8523501E-009 -1.3688694E-007 0.0
 -7.3794630E-009 -1.3997031E-007 0.0
 -2.4953218E-008 -1.4294565E-007 0.0
 -4.2777474E-008 -1.4581748E-007 0.0
 -6.0771934E-008 -1.4858528E-007 0.0
 -7.8869447E-008 -1.5123932E-007 0.0
 -9.7021360E-008 -1.5376011E-007 0.0
 -1.1520164E-007 -1.5612134E-007 0.0
 -1.3340767E-007 -1.5829337E-007 0.0
 -1.5165872E-007 -1.6024582E-007 0.0
 -1.6999403E-007 -1.6194906E-007 0.0
 -1.8847148E-007 -1.6337577E-007 0.0
 -2.0716638E-007 -1.6450433E-007 0.0
 -2.2616803E-007 -1.6532582E-007 0.0
 -2.4556941E-007 -1.6585506E-007 0.0
 -2.6544406E-007 -1.6614339E-007 0.0
 -2.8580631E-007 -1.6628309E-007 0.0
 -3.0657262E-007 -1.6638329E-007 0.0
 -3.2755674E-007 -1.6651929E-007 0.0
 -3.4856937E-007 -1.6666635E-007 0.0
 -3.6939326E-007 -1.6676938E-007 0.0
 -2.1674283E-007 -6.3110004E-007 0.0
 -1.9628277E-007 -6.2537530E-007 0.0
 -1.8279701E-007 -6.2202379E-007 0.0
 -1.7068335E-007 -6.2015593E-007 0.0
 -1.6048318E-007 -6.1917406E-007 0.0
 -1.5235994E-007 -6.1850780E-007 0.0
 -1.4608663E-007 -6.1792792E-007 0.0
 -1.4150777E-007 -6.1730685E-007 0.0
 -1.3868529E-007 -6.1652348E-007 0.0
 -1.3798442E-007 -6.1546950E-007 0.0
 -1.3989222E-007 -6.1427410E-007 0.0
 -1.4450921E-007 -6.1329859E-007 0.0
 -1.5112159E-007 -6.1289535E-007 0.0
 -1.5872332E-007 -6.1298649E-007 0.0
 -1.6659978E-007 -6.1332953E-007 0.0
 -1.7439459E-007 -6.1367851E-007 0.0
 -1.8196824E-007 -6.1394221E-007 0.0
 -1.8924879E-007 -6.1410136E-007 0.0
 -1.9620844E-007 -6.1417147E-007 0.0
 -2.0285418E-007 -6.1418174E-007 0.0
 -2.0922136E-007 -6.1416473E-007 0.0
 -2.1535892E-007 -6.1414751E-007 0.0
 -2.2132017E-007 -6.1414006E-007 0.0
 -2.2716738E-007 -6.1414119E-007 0.0
 -2.3295691E-007 -6.1415107E-007 0.0
 -2.3873976E-007 -6.1416782E-007 0.0
 -2.3875087E-007 -6.1997579E-007 0.0
 -2.7352310E-056 -2.7352310E-056 0.0
 -7.0373765E-010 -3.6499739E-009 0.0
 -1.9714065E-009 -6.8443487E-009 0.0
 -5.4251143E-010 -1.0625276E-008 0.0
  2.8520561E-009 -1.4855499E-008 0.0
  7.6583157E-009 -1.9345196E-008 0.0
  1.3517607E-008 -2.3937439E-008 0.0
  2.0230178E-008 -2.8514388E-008 0.0
  2.7664663E-008 -3.3023835E-008 0.0
  3.5696214E-008 -3.7441756E-008 0.0
  4.4195944E-008 -4.1747160E-008 0.0
  5.3027958E-008 -4.5916039E-008 0.0
  6.2041442E-008 -4.9926905E-008 0.0
  7.1066514E-008 -5.3774566E-008 0.0
  7.9923752E-008 -5.7480060E-008 0.0
  8.8441929E-008 -6.1091573E-008 0.0
  9.6461572E-008 -6.4671684E-008 0.0
  1.0381469E-007 -6.8286797E-008 0.0
  1.1028373E-007 -7.1996472E-008 0.0
  1.1558877E-007 -7.5795911E-008 0.0
  1.1956790E-007 -7.9530785E-008 0.0
  1.2235171E-007 -8.3073387E-008 0.0
  1.2414967E-007 -8.6403511E-008 0.0
  1.2492387E-007 -8.9612663E-008 0.0
  1.2449039E-007 -9.2720642E-008 0.0
  1.2262650E-007 -9.5759907E-008 0.0
  1.1907255E-007 -9.8706523E-008 0.0
  1.1364145E-007 -1.0150809E-007 0.0
  1.0633234E-007 -1.0411644E-007 0.0
  9.7137757E-008 -1.0658987E-007 0.0
  8.6066865E-008 -1.0897808E-007 0.0
  7.3297763E-008 -1.1132956E-007 0.0
  5.9130654E-008 -1.1369506E-007 0.0
  4.3878264E-008 -1.1610408E-007 0.0
  2.7802814E-008 -1.1854720E-007 0.0
  1.1104577E-008 -1.2099851E-007 0.0
 -6.0676660E-009 -1.2343428E-007 0.0
 -2.3601049E-008 -1.2583689E-007 0.0
 -4.1404965E-008 -1.2819170E-007 0.0
 -5.9404705E-008 -1.3048304E-007 0.0
 -7.7540685E-008 -1.3269139E-007 0.0
 -9.5770269E-008 -1.3479259E-007 0.0
 -1.1406974E-007 -1.3675895E-007 0.0
 -1.3243492E-007 -1.3856118E-007 0.0
 -1.5088032E-007 -1.4017065E-007 0.0
 -1.6943750E-007 -1.4156155E-007 0.0
 -1.8815289E-007 -1.4271352E-007 0.0
 -2.0708454E-007 -1.4361553E-007 0.0
 -2.2629605E-007 -1.4427142E-007 0.0
 -2.4584550E-007 -1.4470638E-007 0.0
 -2.6576762E-007 -1.4497116E-007 0.0
 -2.8605293E-007 -1.4513773E-007 0.0
 -3.0663468E-007 -1.4528215E-007 0.0
 -3.2740436E-007 -1.4545517E-007 0.0
 -3.4823657E-007 -1.4567598E-007 0.0
 -3.6895969E-007 -1.4592935E-007 0.0
 -3.8955761E-007 -1.4611028E-007 0.0
 -3.8954859E-007 -1.6668256E-007 0.0
 -1.9207396E-007 -6.2872575E-007 0.0
 -1.8058604E-007 -6.2833900E-007 0.0
 -1.6811828E-007 -6.2678592E-007 0.0
 -1.5825709E-007 -6.2527546E-007 0.0
 -1.5085113E-007 -6.2377928E-007 0.0
 -1.4543487E-007 -6.2218763E-007 0.0
 -1.4176662E-007 -6.2053081E-007 0.0
 -1.3991455E-007 -6.1874457E-007 0.0
 -1.4006321E-007 -6.1680040E-007 0.0
 -1.4237708E-007 -6.1480818E-007 0.0
 -1.4677526E-007 -6.1300994E-007 0.0
 -1.5282068E-007 -6.1161107E-007 0.0
 -1.5988949E-007 -6.1066500E-007 0.0
 -1.6742161E-007 -6.1006481E-007 0.0
 -1.7503790E-007 -6.0966869E-007 0.0
 -1.8251492E-007 -6.0936455E-007 0.0
 -1.8973106E-007 -6.0909781E-007 0.0
 -1.9662720E-007 -6.0885402E-007 0.0
 -2.0319497E-007 -6.0864283E-007 0.0
 -2.0946818E-007 -6.0848204E-007 0.0
 -2.1550942E-007 -6.0838234E-007 0.0
 -2.2139220E-007 -6.0833862E-007 0.0
 -2.2718367E-007 -6.0833275E-007 0.0
 -2.3293375E-007 -6.0834532E-007 0.0
 -2.3868428E-007 -6.0836789E-007 0.0
 -3.8682008E-056 -3.8682008E-056 0.0
 -2.2333067E-056 -2.2333067E-056 0.0
 -2.1490394E-009 -6.4504766E-009 0.0
 -3.1476613E-010 -1.2117815E-008 0.0
  3.6718251E-009 -1.7762026E-008 0.0
  8.9133860E-009 -2.3390158E-008 0.0
  1.5023339E-008 -2.8781042E-008 0.0
  2.1904449E-008 -3.3890975E-008 0.0
  2.9456973E-008 -3.8751514E-008 0.0
  3.7549369E-008 -4.3386302E-008 0.0
  4.6042166E-008 -4.7792562E-008 0.0
  5.4801504E-008 -5.1952731E-008 0.0
  6.3695743E-008 -5.5851305E-008 0.0
  7.2589255E-008 -5.9486293E-008 0.0
  8.1343152E-008 -6.2875429E-008 0.0
  8.9819276E-008 -6.6056018E-008 0.0
  9.7877360E-008 -6.9081426E-008 0.0
  1.0535550E-007 -7.2018819E-008 0.0
  1.1203253E-007 -7.4954099E-008 0.0
  1.1750084E-007 -7.8008535E-008 0.0
  1.2120446E-007 -8.1094454E-008 0.0
  1.2354770E-007 -8.3729702E-008 0.0
  1.2523112E-007 -8.6082233E-008 0.0
  1.2595738E-007 -8.8186722E-008 0.0
  1.2547090E-007 -8.9982836E-008 0.0
  1.2365323E-007 -9.1480440E-008 0.0
  1.2009119E-007 -9.2939513E-008 0.0
  1.1436844E-007 -9.4189177E-008 0.0
  1.0691357E-007 -9.5335873E-008 0.0
  9.7662628E-008 -9.6555668E-008 0.0
  8.6513595E-008 -9.7828914E-008 0.0
  7.3741493E-008 -9.9118535E-008 0.0
  5.9670411E-008 -1.0050270E-007 0.0
  4.4550006E-008 -1.0201797E-007 0.0
  2.8600887E-008 -1.0364927E-007 0.0
  1.2009867E-008 -1.0537258E-007 0.0
 -5.0792999E-009 -1.0715945E-007 0.0
 -2.2554636E-008 -1.0898034E-007 0.0
 -4.0326672E-008 -1.1080791E-007 0.0
 -5.8323679E-008 -1.1261551E-007 0.0
 -7.6489591E-008 -1.1437588E-007 0.0
 -9.4784376E-008 -1.1606075E-007 0.0
 -1.1318484E-007 -1.1764119E-007 0.0
 -1.3168451E-007 -1.1908862E-007 0.0
 -1.5029259E-007 -1.2037663E-007 0.0
 -1.6903205E-007 -1.2148322E-007 0.0
 -1.8793694E-007 -1.2239345E-007 0.0
 -2.0704829E-007 -1.2310272E-007 0.0
 -2.2640777E-007 -1.2362032E-007 0.0
 -2.4604834E-007 -1.2397228E-007 0.0
 -2.6598257E-007 -1.2420140E-007 0.0
 -2.8619217E-007 -1.2436215E-007 0.0
 -3.0662590E-007 -1.2450983E-007 0.0
 -3.2721253E-007 -1.2469130E-007 0.0
 -3.4788254E-007 -1.2492814E-007 0.0
 -3.6858465E-007 -1.2516981E-007 0.0
 -3.8928695E-007 -1.2533497E-007 0.0
 -1.9336325E-007 -6.4125655E-007 0.0
 -1.7814708E-007 -6.3527392E-007 0.0
 -1.6517799E-007 -6.3213491E-007 0.0
 -1.5589624E-007 -6.2970088E-007 0.0
 -1.4952738E-007 -6.2703009E-007 0.0
 -1.4494208E-007 -6.2448523E-007 0.0
 -1.4213127E-007 -6.2202277E-007 0.0
 -1.4113274E-007 -6.1950684E-007 0.0
 -1.4198720E-007 -6.1692005E-007 0.0
 -1.4468984E-007 -6.1434406E-007 0.0
 -1.4908793E-007 -6.1193551E-007 0.0
 -1.5485394E-007 -6.0984876E-007 0.0
 -1.6155670E-007 -6.0815412E-007 0.0
 -1.6877340E-007 -6.0682785E-007 0.0
 -1.7616316E-007 -6.0578890E-007 0.0
 -1.8348313E-007 -6.0495219E-007 0.0
 -1.9057297E-007 -6.0425754E-007 0.0
 -1.9734106E-007 -6.0367954E-007 0.0
 -2.0376059E-007 -6.0322042E-007 0.0
 -2.0986794E-007 -6.0289264E-007 0.0
 -2.1574835E-007 -6.0269812E-007 0.0
 -2.2150291E-007 -6.0261380E-007 0.0
 -2.2721109E-007 -6.0259826E-007 0.0
 -2.3291081E-007 -6.0261072E-007 0.0
 -2.3860733E-007 -6.0263614E-007 0.0
 -2.7352310E-056 -2.7352310E-056 0.0
 -1.9822686E-009 -7.2882084E-009 0.0
  5.0948018E-010 -1.4647000E-008 0.0
  5.1735199E-009 -2.2098927E-008 0.0
  1.0547765E-008 -2.8872610E-008 0.0
  1.6678337E-008 -3.4883263E-008 0.0
  2.3613899E-008 -4.0327415E-008 0.0
  3.1236795E-008 -4.5378923E-008 0.0
  3.9358528E-008 -5.0110661E-008 0.0
  4.7811772E-008 -5.4523660E-008 0.0
  5.6467909E-008 -5.8600128E-008 0.0
  6.5217615E-008 -6.2327906E-008 0.0
  7.3955651E-008 -6.5706926E-008 0.0
  8.2575917E-008 -6.8750650E-008 0.0
  9.0970234E-008 -7.1485579E-008 0.0
  9.9022916E-008 -7.3949061E-008 0.0
  1.0659534E-007 -7.6187660E-008 0.0
  1.1348201E-007 -7.8258247E-008 0.0
  1.1934143E-007 -8.0243458E-008 0.0
  1.2286719E-007 -8.2262222E-008 0.0
  1.2440194E-007 -8.4813076E-008 0.0
  1.2595514E-007 -8.6517407E-008 0.0
  1.2650739E-007 -8.7578690E-008 0.0
  1.2586897E-007 -8.8084112E-008 0.0
  1.2385444E-007 -8.8004408E-008 0.0
  1.2060922E-007 -8.7147235E-008 0.0
  1.1439102E-007 -8.6630575E-008 0.0
  1.0710824E-007 -8.6286060E-008 0.0
  9.7978530E-008 -8.6327278E-008 0.0
  8.6630867E-008 -8.6406321E-008 0.0
  7.3871052E-008 -8.6635442E-008 0.0
  5.9898037E-008 -8.7140270E-008 0.0
  4.4888607E-008 -8.7845920E-008 0.0
  2.9066496E-008 -8.8734531E-008 0.0
  1.2593835E-008 -8.9786399E-008 0.0
 -4.3987371E-009 -9.0962528E-008 0.0
 -2.1802378E-008 -9.2227858E-008 0.0
 -3.9531137E-008 -9.3547927E-008 0.0
 -5.7515259E-008 -9.4888455E-008 0.0
 -7.5699464E-008 -9.6217272E-008 0.0
 -9.4044060E-008 -9.7503817E-008 0.0
 -1.1252501E-007 -9.8718697E-008 0.0
 -1.3113293E-007 -9.9834321E-008 0.0
 -1.4987139E-007 -1.0082631E-007 0.0
 -1.6875469E-007 -1.0167558E-007 0.0
 -1.8780498E-007 -1.0237068E-007 0.0
 -2.0704839E-007 -1.0291000E-007 0.0
 -2.2650945E-007 -1.0330368E-007 0.0
 -2.4620407E-007 -1.0357415E-007 0.0
 -2.6613213E-007 -1.0375460E-007 0.0
 -2.8627227E-007 -1.0388427E-007 0.0
 -3.0658295E-007 -1.0400205E-007 0.0
 -3.2701081E-007 -1.0413973E-007 0.0
 -3.4753184E-007 -1.0432554E-007 0.0
 -3.6821825E-007 -1.0455077E-007 0.0
 -3.8902469E-007 -1.0471719E-007 0.0
 -1.7856289E-007 -6.4287074E-007 0.0
 -1.6171269E-007 -6.3628382E-007 0.0
 -1.5392732E-007 -6.3132382E-007 0.0
 -1.4824258E-007 -6.2771508E-007 0.0
 -1.4438803E-007 -6.2470832E-007 0.0
 -1.4241137E-007 -6.2173903E-007 0.0
 -1.4219634E-007 -6.1875818E-007 0.0
 -1.4371316E-007 -6.1574105E-007 0.0
 -1.4684198E-007 -6.1274248E-007 0.0
 -1.5137936E-007 -6.0988946E-007 0.0
 -1.5704929E-007 -6.0731393E-007 0.0
 -1.6353161E-007 -6.0509639E-007 0.0
 -1.7050525E-007 -6.0324634E-007 0.0
 -1.7768400E-007 -6.0172032E-007 0.0
 -1.8483189E-007 -6.0045390E-007 0.0
 -1.9176555E-007 -5.9939272E-007 0.0
 -1.9835948E-007 -5.9851199E-007 0.0
 -2.0456346E-007 -5.9781945E-007 0.0
 -2.1042165E-007 -5.9733650E-007 0.0
 -2.1606011E-007 -5.9706311E-007 0.0
 -2.2163171E-007 -5.9695848E-007 0.0
 -2.2723743E-007 -5.9694502E-007 0.0
 -2.3288748E-007 -5.9696114E-007 0.0
 -2.3853546E-007 -5.9698187E-007 0.0
 -2.7352310E-056 -2.7352310E-056 0.0
 -2.1098276E-009 -9.7410984E-009 0.0
  2.6146295E-009 -2.0255701E-008 0.0
  7.3392016E-009 -2.9288589E-008 0.0
  1.2319102E-008 -3.6602896E-008 0.0
  1.8228847E-008 -4.2706471E-008 0.0
  2.5196814E-008 -4.8131734E-008 0.0
  3.2917705E-008 -5.3173876E-008 0.0
  4.1067722E-008 -5.7868108E-008 0.0
  4.9460856E-008 -6.2180134E-008 0.0
  5.7990826E-008 -6.6087877E-008 0.0
  6.6575684E-008 -6.9584309E-008 0.0
  7.5137998E-008 -7.2671512E-008 0.0
  8.3599723E-008 -7.5359463E-008 0.0
  9.1879792E-008 -7.7665517E-008 0.0
  9.9888884E-008 -7.9613315E-008 0.0
  1.0751470E-007 -8.1230096E-008 0.0
  1.1459396E-007 -8.2542781E-008 0.0
  1.2081045E-007 -8.3556026E-008 0.0
  1.2561608E-007 -8.4481929E-008 0.0
  1.2102708E-007 -7.9230170E-008 0.0
  1.1398114E-007 -7.8956821E-008 0.0
  1.0663710E-007 -7.7503006E-008 0.0
  9.8015602E-008 -7.5199588E-008 0.0
  8.6354382E-008 -7.4070460E-008 0.0
  7.3823124E-008 -7.3559763E-008 0.0
  5.9861802E-008 -7.3326696E-008 0.0
  4.4956843E-008 -7.3317261E-008 0.0
  2.9265069E-008 -7.3584356E-008 0.0
  1.2903770E-008 -7.4049521E-008 0.0
 -3.9867113E-009 -7.4679899E-008 0.0
 -2.1310850E-008 -7.5444233E-008 0.0
 -3.8989720E-008 -7.6299758E-008 0.0
 -5.6952890E-008 -7.7208794E-008 0.0
 -7.5144208E-008 -7.8137829E-008 0.0
 -9.3523024E-008 -7.9055915E-008 0.0
 -1.1206392E-007 -7.9934633E-008 0.0
 -1.3075473E-007 -8.0747552E-008 0.0
 -1.4959351E-007 -8.1471764E-008 0.0
 -1.6858625E-007 -8.2090140E-008 0.0
 -1.8774445E-007 -8.2593149E-008 0.0
 -2.0708192E-007 -8.2980128E-008 0.0
 -2.2661040E-007 -8.3259819E-008 0.0
 -2.4633444E-007 -8.3449807E-008 0.0
 -2.6624671E-007 -8.3574342E-008 0.0
 -2.8632538E-007 -8.3660392E-008 0.0
 -3.0653511E-007 -8.3732249E-008 0.0
 -3.2683828E-007 -8.3805775E-008 0.0
 -3.4720239E-007 -8.3879735E-008 0.0
 -3.6780162E-007 -8.3963662E-008 0.0
 -3.8903661E-007 -8.3884648E-008 0.0
 -1.5499336E-007 -6.2791039E-007 0.0
 -1.5136493E-007 -6.2813960E-007 0.0
 -1.4636503E-007 -6.2591022E-007 0.0
 -1.4358847E-007 -6.2279096E-007 0.0
 -1.4239936E-007 -6.1962566E-007 0.0
 -1.4297871E-007 -6.1644172E-007 0.0
 -1.4520459E-007 -6.1316693E-007 0.0
 -1.4883214E-007 -6.0987121E-007 0.0
 -1.5361117E-007 -6.0669953E-007 0.0
 -1.5930305E-007 -6.0379267E-007 0.0
 -1.6567057E-007 -6.0123674E-007 0.0
 -1.7247530E-007 -5.9905318E-007 0.0
 -1.7948545E-007 -5.9721294E-007 0.0
 -1.8648304E-007 -5.9566086E-007 0.0
 -1.9326705E-007 -5.9434265E-007 0.0
 -1.9966806E-007 -5.9323536E-007 0.0
 -2.0559614E-007 -5.9236350E-007 0.0
 -2.1110538E-007 -5.9177246E-007 0.0
 -2.1640358E-007 -5.9146999E-007 0.0
 -2.2173454E-007 -5.9137599E-007 0.0
 -2.2724631E-007 -5.9137911E-007 0.0
 -2.3287135E-007 -5.9137783E-007 0.0
 -2.3849300E-007 -5.9138258E-007 0.0
  5.8094571E-032 -3.8682008E-056 0.0
 -6.3283260E-010 -2.1492550E-008 0.0
  5.3789812E-009 -3.2114581E-008 0.0
  9.5369073E-009 -4.0438024E-008 0.0
  1.3542172E-008 -4.7008553E-008 0.0
  1.9242125E-008 -5.2395705E-008 0.0
  2.6494279E-008 -5.7485012E-008 0.0
  3.4422862E-008 -6.2360627E-008 0.0
  4.2610818E-008 -6.6868196E-008 0.0
  5.0932807E-008 -7.0944982E-008 0.0
  5.9327060E-008 -7.4583252E-008 0.0
  6.7739938E-008 -7.7784051E-008 0.0
  7.6119093E-008 -8.0550935E-008 0.0
  8.4411407E-008 -8.2890479E-008 0.0
  9.2562262E-008 -8.4814527E-008 0.0
  1.0051196E-007 -8.6342754E-008 0.0
  1.0818722E-007 -8.7507623E-008 0.0
  1.1548376E-007 -8.8366846E-008 0.0
  1.2226395E-007 -8.9075371E-008 0.0
  1.2868047E-007 -9.0064993E-008 0.0
  9.8415295E-008 -6.1259986E-008 0.0
  8.5791625E-008 -6.1124164E-008 0.0
  7.3740568E-008 -5.9585121E-008 0.0
  5.9591391E-008 -5.8705456E-008 0.0
  4.4899406E-008 -5.8258045E-008 0.0
  2.9258386E-008 -5.8033326E-008 0.0
  1.3001287E-008 -5.7996698E-008 0.0
 -3.7832911E-009 -5.8179220E-008 0.0
 -2.1032926E-008 -5.8513923E-008 0.0
 -3.8661249E-008 -5.8962333E-008 0.0
 -5.6600419E-008 -5.9490291E-008 0.0
 -7.4791150E-008 -6.0061873E-008 0.0
 -9.3189832E-008 -6.0650338E-008 0.0
 -1.1177175E-007 -6.1229653E-008 0.0
 -1.3052301E-007 -6.1773829E-008 0.0
 -1.4943629E-007 -6.2260791E-008 0.0
 -1.6850968E-007 -6.2674744E-008 0.0
 -1.8774536E-007 -6.3007348E-008 0.0
 -2.0714726E-007 -6.3258016E-008 0.0
 -2.2671778E-007 -6.3433562E-008 0.0
 -2.4645397E-007 -6.3547120E-008 0.0
 -2.6634438E-007 -6.3616100E-008 0.0
 -2.8636741E-007 -6.3659185E-008 0.0
 -3.0649289E-007 -6.3692993E-008 0.0
 -3.2668409E-007 -6.3730673E-008 0.0
 -3.4692100E-007 -6.3789106E-008 0.0
 -3.6704655E-007 -6.3984315E-008 0.0
 -1.5628089E-007 -6.3237928E-007 0.0
 -1.4706492E-007 -6.2600858E-007 0.0
 -1.4437835E-007 -6.2203341E-007 0.0
 -1.4229658E-007 -6.1874539E-007 0.0
 -1.4187179E-007 -6.1574537E-007 0.0
 -1.4338787E-007 -6.1254951E-007 0.0
 -1.4645863E-007 -6.0910900E-007 0.0
 -1.5067431E-007 -6.0558430E-007 0.0
 -1.5575946E-007 -6.0219404E-007 0.0
 -1.6153791E-007 -5.9909642E-007 0.0
 -1.6785589E-007 -5.9637247E-007 0.0
 -1.7455068E-007 -5.9403873E-007 0.0
 -1.8144198E-007 -5.9206431E-007 0.0
 -1.8833200E-007 -5.9039511E-007 0.0
 -1.9500818E-007 -5.8897305E-007 0.0
 -2.0123836E-007 -5.8775977E-007 0.0
 -2.0683461E-007 -5.8680348E-007 0.0
 -2.1186038E-007 -5.8621546E-007 0.0
 -2.1669524E-007 -5.8598288E-007 0.0
 -2.2176201E-007 -5.8595461E-007 0.0
 -2.2726830E-007 -5.8585168E-007 0.0
 -2.3287124E-007 -5.8579750E-007 0.0
 -2.3848296E-007 -5.8578671E-007 0.0
 -3.5895063E-009 -4.8203862E-008 0.0
  7.0702526E-009 -4.9240112E-008 0.0
  1.0872047E-008 -5.4677635E-008 0.0
  1.3168420E-008 -5.9272543E-008 0.0
  1.9491813E-008 -6.3795428E-008 0.0
  2.7485647E-008 -6.8610978E-008 0.0
  3.5669231E-008 -7.3157442E-008 0.0
  4.3892070E-008 -7.7251408E-008 0.0
  5.2153772E-008 -8.0918667E-008 0.0
  6.0426967E-008 -8.4171644E-008 0.0
  6.8682863E-008 -8.7012213E-008 0.0
  7.6891067E-008 -8.9438050E-008 0.0
  8.5022593E-008 -9.1449272E-008 0.0
  9.3051182E-008 -9.3053523E-008 0.0
  1.0095426E-007 -9.4272969E-008 0.0
  1.0871366E-007 -9.5157156E-008 0.0
  1.1632392E-007 -9.5812157E-008 0.0
  1.2386027E-007 -9.6451443E-008 0.0
  1.3160265E-007 -9.7365813E-008 0.0
  7.4026867E-008 -4.3729765E-008 0.0
  5.9171786E-008 -4.3646104E-008 0.0
  4.4831434E-008 -4.2533488E-008 0.0
  2.9079202E-008 -4.1880783E-008 0.0
  1.2999346E-008 -4.1539209E-008 0.0
 -3.7361015E-009 -4.1366004E-008 0.0
 -2.0912299E-008 -4.1333571E-008 0.0
 -3.8493044E-008 -4.1453893E-008 0.0
 -5.6419021E-008 -4.1655987E-008 0.0
 -7.4603568E-008 -4.1917769E-008 0.0
 -9.3008574E-008 -4.2223596E-008 0.0
 -1.1161580E-007 -4.2546425E-008 0.0
 -1.3040978E-007 -4.2859510E-008 0.0
 -1.4937739E-007 -4.3141310E-008 0.0
 -1.6850888E-007 -4.3377550E-008 0.0
 -1.8779826E-007 -4.3561200E-008 0.0
 -2.0724178E-007 -4.3691755E-008 0.0
 -2.2683514E-007 -4.3774414E-008 0.0
 -2.4657040E-007 -4.3818925E-008 0.0
 -2.6643349E-007 -4.3838126E-008 0.0
 -2.8640290E-007 -4.3846193E-008 0.0
 -3.0644899E-007 -4.3857551E-008 0.0
 -3.2653484E-007 -4.3888490E-008 0.0
 -3.4659190E-007 -4.3972874E-008 0.0
 -3.6650018E-007 -4.4125293E-008 0.0
 -1.4162173E-007 -6.1539370E-007 0.0
 -1.4194821E-007 -6.1509309E-007 0.0
 -1.4010090E-007 -6.1297088E-007 0.0
 -1.4066468E-007 -6.1031852E-007 0.0
 -1.4344342E-007 -6.0709606E-007 0.0
 -1.4755469E-007 -6.0341624E-007 0.0
 -1.5240113E-007 -5.9968712E-007 0.0
 -1.5779891E-007 -5.9618765E-007 0.0
 -1.6367954E-007 -5.9305086E-007 0.0
 -1.6997729E-007 -5.9033117E-007 0.0
 -1.7660209E-007 -5.8802827E-007 0.0
 -1.8342535E-007 -5.8610003E-007 0.0
 -1.9026214E-007 -5.8448132E-007 0.0
 -1.9688254E-007 -5.8313068E-007 0.0
 -2.0302180E-007 -5.8201416E-007 0.0
 -2.0827028E-007 -5.8112342E-007 0.0
 -2.1252133E-007 -5.8072730E-007 0.0
 -2.1673008E-007 -5.8092719E-007 0.0
 -2.2175387E-007 -5.8092890E-007 0.0
  5.2026948E-009 -6.3980583E-008 0.0
  1.3286640E-008 -6.4623499E-008 0.0
  1.0820384E-008 -7.3041201E-008 0.0
  1.9306200E-008 -7.7766379E-008 0.0
  2.8077611E-008 -8.2007707E-008 0.0
  3.6461363E-008 -8.5670174E-008 0.0
  4.4779347E-008 -8.9017953E-008 0.0
  5.3039001E-008 -9.2079561E-008 0.0
  6.1243094E-008 -9.4837629E-008 0.0
  6.9383852E-008 -9.7265287E-008 0.0
  7.7454817E-008 -9.9341021E-008 0.0
  8.5452796E-008 -1.0105225E-007 0.0
  9.3383001E-008 -1.0239958E-007 0.0
  1.0126578E-007 -1.0340431E-007 0.0
  1.0914760E-007 -1.0412310E-007 0.0
  1.1712471E-007 -1.0467068E-007 0.0
  1.2537991E-007 -1.0523207E-007 0.0
  1.3421520E-007 -1.0603943E-007 0.0
  4.5040024E-008 -2.5522848E-008 0.0
  2.8776815E-008 -2.5463217E-008 0.0
  1.2971767E-008 -2.4621357E-008 0.0
 -3.8259360E-009 -2.4105780E-008 0.0
 -2.0849668E-008 -2.3853398E-008 0.0
 -3.8443686E-008 -2.3708246E-008 0.0
 -5.6372443E-008 -2.3629772E-008 0.0
 -7.4538955E-008 -2.3641739E-008 0.0
 -9.2939027E-008 -2.3720260E-008 0.0
 -1.1156121E-007 -2.3834152E-008 0.0
 -1.3038684E-007 -2.3955129E-008 0.0
 -1.4939503E-007 -2.4064005E-008 0.0
 -1.6856824E-007 -2.4149229E-008 0.0
 -1.8789345E-007 -2.4205447E-008 0.0
 -2.0736115E-007 -2.4232833E-008 0.0
 -2.2696265E-007 -2.4235429E-008 0.0
 -2.4668671E-007 -2.4220416E-008 0.0
 -2.6651730E-007 -2.4197602E-008 0.0
 -2.8643218E-007 -2.4178658E-008 0.0
 -3.0640161E-007 -2.4176500E-008 0.0
 -3.2638212E-007 -2.4206487E-008 0.0
 -3.4630779E-007 -2.4281246E-008 0.0
 -3.6608740E-007 -2.4405362E-008 0.0
 -1.4282903E-007 -6.1575858E-007 0.0
 -1.3910836E-007 -6.0961802E-007 0.0
 -1.3695628E-007 -6.0647547E-007 0.0
 -1.3883815E-007 -6.0360363E-007 0.0
 -1.4343559E-007 -5.9979892E-007 0.0
 -1.4861710E-007 -5.9573422E-007 0.0
 -1.5401538E-007 -5.9192305E-007 0.0
 -1.5967517E-007 -5.8849767E-007 0.0
 -1.6563943E-007 -5.8551151E-007 0.0
 -1.7192420E-007 -5.8297597E-007 0.0
 -1.7850306E-007 -5.8087493E-007 0.0
 -1.8530375E-007 -5.7916266E-007 0.0
 -1.9217549E-007 -5.7775243E-007 0.0
 -1.9880406E-007 -5.7656000E-007 0.0
 -2.0487316E-007 -5.7571053E-007 0.0
 -2.0990479E-007 -5.7536600E-007 0.0
 -2.1263137E-007 -5.7579275E-007 0.0
  3.8959288E-009 -9.7405700E-008 0.0
  1.8225979E-008 -9.6077559E-008 0.0
  2.7663187E-008 -9.7489092E-008 0.0
  3.6565941E-008 -9.9600240E-008 0.0
  4.5147508E-008 -1.0192924E-007 0.0
  5.3528412E-008 -1.0425952E-007 0.0
  6.1747792E-008 -1.0646016E-007 0.0
  6.9837679E-008 -1.0845307E-007 0.0
  7.7821464E-008 -1.1018800E-007 0.0
  8.5725346E-008 -1.1163495E-007 0.0
  9.3587602E-008 -1.1278308E-007 0.0
  1.0147100E-007 -1.1364470E-007 0.0
  1.0948188E-007 -1.1426382E-007 0.0
  1.1779404E-007 -1.1473074E-007 0.0
  1.2666610E-007 -1.1519253E-007 0.0
  1.3642210E-007 -1.1584684E-007 0.0
  1.3148587E-008 -6.7934158E-009 0.0
 -4.0674197E-009 -6.7346698E-009 0.0
 -2.0773192E-008 -5.9864400E-009 0.0
 -3.8490171E-008 -5.6055599E-009 0.0
 -5.6411381E-008 -5.3493286E-009 0.0
 -7.4546793E-008 -5.1876376E-009 0.0
 -9.2937530E-008 -5.1024069E-009 0.0
 -1.1157472E-007 -5.0511701E-009 0.0
 -1.3042703E-007 -5.0159019E-009 0.0
 -1.4946841E-007 -4.9837810E-009 0.0
 -1.6867299E-007 -4.9437174E-009 0.0
 -1.8802067E-007 -4.8941921E-009 0.0
 -2.0749927E-007 -4.8365291E-009 0.0
 -2.2709796E-007 -4.7732708E-009 0.0
 -2.4680330E-007 -4.7093015E-009 0.0
 -2.6659754E-007 -4.6519880E-009 0.0
 -2.8645762E-007 -4.6109042E-009 0.0
 -3.0635382E-007 -4.5970446E-009 0.0
 -3.2624666E-007 -4.6194375E-009 0.0
 -3.4607982E-007 -4.6804436E-009 0.0
 -3.6577667E-007 -4.7740902E-009 0.0
 -1.3953773E-007 -6.0598500E-007 0.0
 -1.3257080E-007 -5.9926868E-007 0.0
 -1.3718008E-007 -5.9422035E-007 0.0
 -1.4363583E-007 -5.8955501E-007 0.0
 -1.4959446E-007 -5.8556311E-007 0.0
 -1.5541964E-007 -5.8205872E-007 0.0
 -1.6127703E-007 -5.7901371E-007 0.0
 -1.6731020E-007 -5.7640865E-007 0.0
 -1.7359089E-007 -5.7423202E-007 0.0
 -1.8014341E-007 -5.7247052E-007 0.0
 -1.8695005E-007 -5.7109762E-007 0.0
 -1.9394382E-007 -5.7005072E-007 0.0
 -2.0085632E-007 -5.6912904E-007 0.0
 -2.0683954E-007 -5.6813842E-007 0.0
 -2.1257866E-007 -5.6705828E-007 0.0
  1.6582902E-009 -1.1423438E-007 0.0
  1.5234791E-008 -1.1364905E-007 0.0
  2.6236429E-008 -1.1332222E-007 0.0
  3.5935175E-008 -1.1414235E-007 0.0
  4.5002228E-008 -1.1554855E-007 0.0
  5.3626187E-008 -1.1717550E-007 0.0
  6.1953051E-008 -1.1883605E-007 0.0
  7.0062593E-008 -1.2041628E-007 0.0
  7.8015054E-008 -1.2184297E-007 0.0
  8.5867504E-008 -1.2306985E-007 0.0
  9.3689700E-008 -1.2407285E-007 0.0
  1.0158063E-007 -1.2484950E-007 0.0
  1.0968913E-007 -1.2542058E-007 0.0
  1.1824809E-007 -1.2583081E-007 0.0
  1.2759305E-007 -1.2617907E-007 0.0
  1.3812038E-007 -1.2663748E-007 0.0
 -2.0579681E-008  1.2757426E-008 0.0
 -3.8525399E-008  1.2886040E-008 0.0
 -5.6488917E-008  1.3191620E-008 0.0
 -7.4560881E-008  1.3430806E-008 0.0
 -9.2978820E-008  1.3650081E-008 0.0
 -1.1162649E-007  1.3845095E-008 0.0
 -1.3050264E-007  1.3996006E-008 0.0
 -1.4958044E-007  1.4141488E-008 0.0
 -1.6880914E-007  1.4282721E-008 0.0
 -1.8816843E-007  1.4414415E-008 0.0
 -2.0764823E-007  1.4537147E-008 0.0
 -2.2723680E-007  1.4650684E-008 0.0
 -2.4691909E-007  1.4752471E-008 0.0
 -2.6667590E-007  1.4837341E-008 0.0
 -2.8648332E-007  1.4898108E-008 0.0
 -3.0631291E-007  1.4926126E-008 0.0
 -3.2613315E-007  1.4914079E-008 0.0
 -3.4590520E-007  1.4865799E-008 0.0
 -3.6555959E-007  1.4800142E-008 0.0
 -1.2220150E-007 -5.7782227E-007 0.0
 -1.3563309E-007 -5.7812151E-007 0.0
 -1.4343903E-007 -5.7551243E-007 0.0
 -1.5019279E-007 -5.7269707E-007 0.0
 -1.5638827E-007 -5.7010512E-007 0.0
 -1.6245061E-007 -5.6780234E-007 0.0
 -1.6858066E-007 -5.6580557E-007 0.0
 -1.7489494E-007 -5.6412663E-007 0.0
 -1.8145427E-007 -5.6277766E-007 0.0
 -1.8829114E-007 -5.6176875E-007 0.0
 -1.9541028E-007 -5.6110002E-007 0.0
 -2.0282872E-007 -5.6074906E-007 0.0
 -2.0948670E-007 -5.6041223E-007 0.0
 -2.1264731E-007 -5.6106220E-007 0.0
  1.7402823E-009 -1.2800355E-007 0.0
  1.2934525E-008 -1.2837160E-007 0.0
  2.4364765E-008 -1.2829021E-007 0.0
  3.4927527E-008 -1.2865509E-007 0.0
  4.4481509E-008 -1.2944674E-007 0.0
  5.3416124E-008 -1.3051863E-007 0.0
  6.1914350E-008 -1.3172545E-007 0.0
  7.0102764E-008 -1.3295567E-007 0.0
  7.8073556E-008 -1.3412833E-007 0.0
  8.5912050E-008 -1.3518730E-007 0.0
  9.3714676E-008 -1.3609731E-007 0.0
  1.0160669E-007 -1.3684141E-007 0.0
  1.0976456E-007 -1.3741758E-007 0.0
  1.1843880E-007 -1.3783333E-007 0.0
  1.2805044E-007 -1.3807934E-007 0.0
  1.3918019E-007 -1.3831451E-007 0.0
 -3.8383796E-008  3.1565834E-008 0.0
 -5.6650080E-008  3.1634642E-008 0.0
 -7.4569077E-008  3.2211641E-008 0.0
 -9.3072189E-008  3.2610253E-008 0.0
 -1.1166274E-007  3.2875828E-008 0.0
 -1.3059836E-007  3.3119117E-008 0.0
 -1.4971809E-007  3.3359311E-008 0.0
 -1.6896022E-007  3.3570472E-008 0.0
 -1.8832292E-007  3.3756147E-008 0.0
 -2.0779833E-007  3.3921526E-008 0.0
 -2.2737348E-007  3.4069053E-008 0.0
 -2.4703189E-007  3.4196985E-008 0.0
 -2.6675344E-007  3.4302191E-008 0.0
 -2.8651386E-007  3.4380056E-008 0.0
 -3.0628549E-007  3.4425559E-008 0.0
 -3.2604153E-007  3.4432135E-008 0.0
 -3.4577044E-007  3.4397299E-008 0.0
 -3.6543724E-007  3.4351526E-008 0.0
 -1.1687450E-007 -5.5884282E-007 0.0
 -1.3239535E-007 -5.5912623E-007 0.0
 -1.4246915E-007 -5.5879884E-007 0.0
 -1.5001955E-007 -5.5775157E-007 0.0
 -1.5670469E-007 -5.5647842E-007 0.0
 -1.6305790E-007 -5.5517144E-007 0.0
 -1.6936985E-007 -5.5393221E-007 0.0
 -1.7579524E-007 -5.5282304E-007 0.0
 -1.8242960E-007 -5.5188712E-007 0.0
 -1.8934406E-007 -5.5115376E-007 0.0
 -1.9663543E-007 -5.5063051E-007 0.0
 -2.0444223E-007 -5.5025465E-007 0.0
 -2.1399359E-007 -5.4916855E-007 0.0
  1.0064939E-008 -1.4351061E-007 0.0
  2.2872848E-008 -1.4289806E-007 0.0
  3.3812945E-008 -1.4294233E-007 0.0
  4.3789219E-008 -1.4333996E-007 0.0
  5.3021179E-008 -1.4402338E-007 0.0
  6.1718508E-008 -1.4489456E-007 0.0
  7.0022171E-008 -1.4586171E-007 0.0
  7.8046431E-008 -1.4684841E-007 0.0
  8.5897304E-008 -1.4779586E-007 0.0
  9.3690702E-008 -1.4866164E-007 0.0
  1.0156947E-007 -1.4941739E-007 0.0
  1.0972064E-007 -1.5004539E-007 0.0
  1.1840801E-007 -1.5053176E-007 0.0
  1.2796342E-007 -1.5084977E-007 0.0
  1.3934432E-007 -1.5076179E-007 0.0
 -7.4434633E-008  5.1506571E-008 0.0
 -9.3254115E-008  5.1550472E-008 0.0
 -1.1164894E-007  5.2117131E-008 0.0
 -1.3071003E-007  5.2442765E-008 0.0
 -1.4985717E-007  5.2714620E-008 0.0
 -1.6910337E-007  5.2949591E-008 0.0
 -1.8846776E-007  5.3154431E-008 0.0
 -2.0793987E-007  5.3342050E-008 0.0
 -2.2750119E-007  5.3507835E-008 0.0
 -2.4713816E-007  5.3649795E-008 0.0
 -2.6682978E-007  5.3767001E-008 0.0
 -2.8655082E-007  5.3856730E-008 0.0
 -3.0627649E-007  5.3916409E-008 0.0
 -3.2597935E-007  5.3949901E-008 0.0
 -3.4566203E-007  5.3960414E-008 0.0
 -3.6542900E-007  5.3992700E-008 0.0
 -1.1446265E-007 -5.3954329E-007 0.0
 -1.2996170E-007 -5.4023238E-007 0.0
 -1.4063396E-007 -5.4127546E-007 0.0
 -1.4903567E-007 -5.4184733E-007 0.0
 -1.5628841E-007 -5.4189769E-007 0.0
 -1.6305220E-007 -5.4162073E-007 0.0
 -1.6965601E-007 -5.4116124E-007 0.0
 -1.7629647E-007 -5.4061900E-007 0.0
 -1.8310400E-007 -5.4005607E-007 0.0
 -1.9019504E-007 -5.3949877E-007 0.0
 -1.9772850E-007 -5.3892803E-007 0.0
 -2.0611711E-007 -5.3821178E-007 0.0
 -2.1670518E-007 -5.3747562E-007 0.0
  8.7271640E-009 -1.5738294E-007 0.0
  2.1480938E-008 -1.5704331E-007 0.0
  3.2809283E-008 -1.5686627E-007 0.0
  4.3076526E-008 -1.5703616E-007 0.0
  5.2570828E-008 -1.5748162E-007 0.0
  6.1462229E-008 -1.5813875E-007 0.0
  6.9894406E-008 -1.5893647E-007 0.0
  7.7989366E-008 -1.5980917E-007 0.0
  8.5864764E-008 -1.6070050E-007 0.0
  9.3647905E-008 -1.6156436E-007 0.0
  1.0148963E-007 -1.6236319E-007 0.0
  1.0958118E-007 -1.6306442E-007 0.0
  1.1816499E-007 -1.6363502E-007 0.0
  1.2760641E-007 -1.6405134E-007 0.0
  1.3803854E-007 -1.6424844E-007 0.0
 -1.1151810E-007  7.1934039E-008 0.0
 -1.3076964E-007  7.2004791E-008 0.0
 -1.4996640E-007  7.2213972E-008 0.0
 -1.6920603E-007  7.2412684E-008 0.0
 -1.8859501E-007  7.2620520E-008 0.0
 -2.0806495E-007  7.2818053E-008 0.0
 -2.2761114E-007  7.2986819E-008 0.0
 -2.4723369E-007  7.3129950E-008 0.0
 -2.6690328E-007  7.3251877E-008 0.0
 -2.8659166E-007  7.3344846E-008 0.0
 -3.0627883E-007  7.3405967E-008 0.0
 -3.2594603E-007  7.3435401E-008 0.0
 -3.4552622E-007  7.3417222E-008 0.0
 -1.1481855E-007 -5.2005459E-007 0.0
 -1.2775220E-007 -5.2214147E-007 0.0
 -1.3849958E-007 -5.2436829E-007 0.0
 -1.4742533E-007 -5.2604023E-007 0.0
 -1.5525743E-007 -5.2712057E-007 0.0
 -1.6249778E-007 -5.2770647E-007 0.0
 -1.6948390E-007 -5.2792986E-007 0.0
 -1.7643492E-007 -5.2789328E-007 0.0
 -1.8351362E-007 -5.2766165E-007 0.0
 -1.9087326E-007 -5.2725902E-007 0.0
 -1.9872414E-007 -5.2666350E-007 0.0
 -2.0745315E-007 -5.2586518E-007 0.0
 -2.1745335E-007 -5.2512778E-007 0.0
 -2.2891611E-007 -5.2502468E-007 0.0
 -2.2924884E-007 -5.3727565E-007 0.0
  8.1199633E-009 -1.7060816E-007 0.0
  2.0564049E-008 -1.7042136E-007 0.0
  3.1989988E-008 -1.7030022E-007 0.0
  4.2476087E-008 -1.7039589E-007 0.0
  5.2175127E-008 -1.7073813E-007 0.0
  6.1237769E-008 -1.7129068E-007 0.0
  6.9792308E-008 -1.7200615E-007 0.0
  7.7958499E-008 -1.7283199E-007 0.0
  8.5856339E-008 -1.7371704E-007 0.0
  9.3616220E-008 -1.7461380E-007 0.0
  1.0138898E-007 -1.7547689E-007 0.0
  1.0935451E-007 -1.7625678E-007 0.0
  1.1773744E-007 -1.7688500E-007 0.0
  1.2677140E-007 -1.7721319E-007 0.0
  1.3669720E-007 -1.7696710E-007 0.0
  1.4811149E-007 -1.7647732E-007 0.0
  1.4821857E-007 -1.6464111E-007 0.0
 -1.3069101E-007  9.1638361E-008 0.0
 -1.5006972E-007  9.1668254E-008 0.0
 -1.6925667E-007  9.1964772E-008 0.0
 -1.8871219E-007  9.2171530E-008 0.0
 -2.0816157E-007  9.2362063E-008 0.0
 -2.2769218E-007  9.2513394E-008 0.0
 -2.4731928E-007  9.2657723E-008 0.0
 -2.6697072E-007  9.2776556E-008 0.0
 -2.8662996E-007  9.2861389E-008 0.0
 -3.0628542E-007  9.2913499E-008 0.0
 -3.2591288E-007  9.2931830E-008 0.0
 -3.4548191E-007  9.2929290E-008 0.0
 -1.0198977E-007 -5.1919570E-007 0.0
 -1.0332871E-007 -5.0072720E-007 0.0
 -1.1453194E-007 -5.0351856E-007 0.0
 -1.2585424E-007 -5.0617138E-007 0.0
 -1.3629862E-007 -5.0878825E-007 0.0
 -1.4553301E-007 -5.1102528E-007 0.0
 -1.5383176E-007 -5.1272351E-007 0.0
 -1.6154138E-007 -5.1390539E-007 0.0
 -1.6894505E-007 -5.1464523E-007 0.0
 -1.7626206E-007 -5.1502095E-007 0.0
 -1.8367063E-007 -5.1508973E-007 0.0
 -1.9134194E-007 -5.1488277E-007 0.0
 -1.9947722E-007 -5.1441993E-007 0.0
 -2.0829399E-007 -5.1376771E-007 0.0
 -2.1792828E-007 -5.1306242E-007 0.0
 -2.2805084E-007 -5.1251680E-007 0.0
  7.9014291E-009 -1.8327577E-007 0.0
  2.0052360E-008 -1.8321632E-007 0.0
  3.1473563E-008 -1.8320435E-007 0.0
  4.2074666E-008 -1.8334868E-007 0.0
  5.1922306E-008 -1.8368640E-007 0.0
  6.1122414E-008 -1.8422112E-007 0.0
  6.9780872E-008 -1.8492615E-007 0.0
  7.8005712E-008 -1.8576126E-007 0.0
  8.5912035E-008 -1.8668117E-007 0.0
  9.3626426E-008 -1.8763874E-007 0.0
  1.0129184E-007 -1.8858362E-007 0.0
  1.0907215E-007 -1.8945708E-007 0.0
  1.1714488E-007 -1.9017890E-007 0.0
  1.2569489E-007 -1.9064072E-007 0.0
  1.3487988E-007 -1.9072511E-007 0.0
  1.4634217E-007 -1.8986012E-007 0.0
 -1.6921410E-007  1.1175283E-007 0.0
 -1.8879368E-007  1.1175045E-007 0.0
 -2.0824718E-007  1.1190482E-007 0.0
 -2.2774658E-007  1.1214125E-007 0.0
 -2.4739191E-007  1.1226344E-007 0.0
 -2.6702345E-007  1.1235471E-007 0.0
 -2.8665976E-007  1.1241766E-007 0.0
 -3.0629175E-007  1.1245670E-007 0.0
 -3.2589900E-007  1.1247357E-007 0.0
 -3.4547745E-007  1.1248059E-007 0.0
 -8.6091212E-008 -4.9574726E-007 0.0
 -8.7115216E-008 -4.8007550E-007 0.0
 -9.5694203E-008 -4.8410038E-007 0.0
 -9.7255303E-008 -4.9590005E-007 0.0
 -1.0373503E-007 -4.8683751E-007 0.0
 -1.1372475E-007 -4.8938336E-007 0.0
 -1.2422890E-007 -4.9207255E-007 0.0
 -1.3429315E-007 -4.9469106E-007 0.0
 -1.4362391E-007 -4.9705944E-007 0.0
 -1.5224660E-007 -4.9902522E-007 0.0
 -1.6035066E-007 -5.0053804E-007 0.0
 -1.6814881E-007 -5.0161599E-007 0.0
 -1.7583403E-007 -5.0230142E-007 0.0
 -1.8357835E-007 -5.0263889E-007 0.0
 -1.9154410E-007 -5.0267008E-007 0.0
 -1.9988724E-007 -5.0244783E-007 0.0
 -2.0873249E-007 -5.0205869E-007 0.0
 -2.1808161E-007 -5.0165225E-007 0.0
 -2.2762617E-007 -5.0138869E-007 0.0
 -2.3692325E-007 -5.0117659E-007 0.0
 -2.3730166E-007 -5.1210523E-007 0.0
  7.8870064E-009 -1.9549343E-007 0.0
  1.9866913E-008 -1.9554605E-007 0.0
  3.1274447E-008 -1.9565184E-007 0.0
  4.1921218E-008 -1.9587104E-007 0.0
  5.1869617E-008 -1.9625878E-007 0.0
  6.1175133E-008 -1.9683408E-007 0.0
  6.9912874E-008 -1.9758059E-007 0.0
  7.8175512E-008 -1.9846629E-007 0.0
  8.6068469E-008 -1.9945143E-007 0.0
  9.3709562E-008 -2.0049053E-007 0.0
  1.0123023E-007 -2.0153147E-007 0.0
  1.0877509E-007 -2.0251262E-007 0.0
  1.1650088E-007 -2.0336390E-007 0.0
  1.2456652E-007 -2.0402320E-007 0.0
  1.3324244E-007 -2.0450297E-007 0.0
  1.4209204E-007 -2.0458681E-007 0.0
 -2.2773526E-007  1.3194375E-007 0.0
 -2.4743248E-007  1.3192968E-007 0.0
 -2.6705383E-007  1.3197222E-007 0.0
 -2.8667913E-007  1.3201709E-007 0.0
 -3.0629879E-007  1.3204166E-007 0.0
 -3.2589249E-007  1.3204444E-007 0.0
 -2.2397630E-008 -4.4922727E-007 0.0
 -2.2655588E-008 -4.4029200E-007 0.0
 -2.9108708E-008 -4.4198880E-007 0.0
 -2.9700481E-008 -4.4912829E-007 0.0
 -3.4948579E-008 -4.4372815E-007 0.0
 -3.5622312E-008 -4.5012339E-007 0.0
 -4.0582556E-008 -4.4558631E-007 0.0
 -4.1376050E-008 -4.5173368E-007 0.0
 -4.6207317E-008 -4.4765726E-007 0.0
 -4.7103943E-008 -4.5374370E-007 0.0
 -5.1865358E-008 -4.4995728E-007 0.0
 -5.2861998E-008 -4.5606312E-007 0.0
 -5.7566315E-008 -4.5249540E-007 0.0
 -5.8664956E-008 -4.5866549E-007 0.0
 -6.3301740E-008 -4.5529199E-007 0.0
 -6.4511099E-008 -4.6156301E-007 0.0
 -6.9042673E-008 -4.5838536E-007 0.0
 -7.0386534E-008 -4.6481405E-007 0.0
 -7.4758030E-008 -4.6182313E-007 0.0
 -7.6225473E-008 -4.6855832E-007 0.0
 -8.0313403E-008 -4.6557652E-007 0.0
 -8.2089522E-008 -4.7325075E-007 0.0
 -8.6709865E-008 -4.6871284E-007 0.0
 -9.4890327E-008 -4.7182036E-007 0.0
 -1.0357337E-007 -4.7460364E-007 0.0
 -1.1297191E-007 -4.7700187E-007 0.0
 -1.2283634E-007 -4.7941944E-007 0.0
 -1.3256937E-007 -4.8184729E-007 0.0
 -1.4186655E-007 -4.8412500E-007 0.0
 -1.5067277E-007 -4.8612303E-007 0.0
 -1.5906912E-007 -4.8776510E-007 0.0
 -1.6719661E-007 -4.8902910E-007 0.0
 -1.7520832E-007 -4.8992747E-007 0.0
 -1.8325178E-007 -4.9049083E-007 0.0
 -1.9146285E-007 -4.9076334E-007 0.0
 -1.9995572E-007 -4.9080781E-007 0.0
 -2.0879426E-007 -4.9071659E-007 0.0
 -2.1793550E-007 -4.9060564E-007 0.0
 -2.2721162E-007 -4.9055322E-007 0.0
 -2.3641232E-007 -4.9056146E-007 0.0
 -2.4550885E-007 -4.9056539E-007 0.0
 -2.4579796E-007 -5.0080718E-007 0.0
  2.0006776E-008 -2.0752035E-007 0.0
  3.1342538E-008 -2.0766996E-007 0.0
  4.2020716E-008 -2.0794615E-007 0.0
  5.2051167E-008 -2.0841002E-007 0.0
  6.1435858E-008 -2.0905978E-007 0.0
  7.0227266E-008 -2.0987814E-007 0.0
  7.8503213E-008 -2.1083911E-007 0.0
  8.6357279E-008 -2.1190771E-007 0.0
  9.3895926E-008 -2.1304092E-007 0.0
  1.0123665E-007 -2.1418676E-007 0.0
  1.0850695E-007 -2.1528152E-007 0.0
  1.1584314E-007 -2.1624593E-007 0.0
  1.2339937E-007 -2.1697965E-007 0.0
  1.3127085E-007 -2.1726558E-007 0.0
  1.3908029E-007 -2.1688416E-007 0.0
  1.4839798E-007 -2.1568642E-007 0.0
  1.4865092E-007 -2.0549627E-007 0.0
 -4.8805704E-009 -4.3635968E-007 0.0
 -5.2077257E-009 -4.2752842E-007 0.0
 -1.1320547E-008 -4.2925198E-007 0.0
 -1.1932830E-008 -4.3632253E-007 0.0
 -1.6716847E-008 -4.3110200E-007 0.0
 -1.7501932E-008 -4.3766990E-007 0.0
 -2.2221443E-008 -4.3278267E-007 0.0
 -2.8228955E-008 -4.3471025E-007 0.0
 -3.4056347E-008 -4.3675527E-007 0.0
 -3.9696740E-008 -4.3883307E-007 0.0
 -4.5287556E-008 -4.4098536E-007 0.0
 -5.0895512E-008 -4.4326162E-007 0.0
 -5.6540768E-008 -4.4568731E-007 0.0
 -6.2224648E-008 -4.4827264E-007 0.0
 -6.7947033E-008 -4.5100569E-007 0.0
 -7.3720987E-008 -4.5381979E-007 0.0
 -7.9797408E-008 -4.5647217E-007 0.0
 -8.6636823E-008 -4.5892235E-007 0.0
 -9.4498652E-008 -4.6120105E-007 0.0
 -1.0312700E-007 -4.6345160E-007 0.0
 -1.1226175E-007 -4.6564269E-007 0.0
 -1.2168971E-007 -4.6781376E-007 0.0
 -1.3112125E-007 -4.6998711E-007 0.0
 -1.4032326E-007 -4.7207916E-007 0.0
 -1.4920707E-007 -4.7398458E-007 0.0
 -1.5779437E-007 -4.7562649E-007 0.0
 -1.6616885E-007 -4.7696520E-007 0.0
 -1.7444091E-007 -4.7799371E-007 0.0
 -1.8272541E-007 -4.7872976E-007 0.0
 -1.9112733E-007 -4.7921125E-007 0.0
 -1.9972662E-007 -4.7949590E-007 0.0
 -2.0855631E-007 -4.7965891E-007 0.0
 -2.1758293E-007 -4.7977712E-007 0.0
 -2.2670955E-007 -4.7990348E-007 0.0
 -2.3583547E-007 -4.8004465E-007 0.0
 -2.4491111E-007 -4.8019558E-007 0.0
 -2.5443507E-007 -4.8048283E-007 0.0
 -2.5454723E-007 -4.9031521E-007 0.0
  2.0445884E-008 -2.1895922E-007 0.0
  3.1625212E-008 -2.1918803E-007 0.0
  4.2379288E-008 -2.1955672E-007 0.0
  5.2484337E-008 -2.2011460E-007 0.0
  6.1926870E-008 -2.2084707E-007 0.0
  7.0749099E-008 -2.2174587E-007 0.0
  7.9014142E-008 -2.2278988E-007 0.0
  8.6803795E-008 -2.2394709E-007 0.0
  9.4212853E-008 -2.2517800E-007 0.0
  1.0134406E-007 -2.2643323E-007 0.0
  1.0830498E-007 -2.2764897E-007 0.0
  1.1520556E-007 -2.2873851E-007 0.0
  1.2214719E-007 -2.2957115E-007 0.0
  1.2916549E-007 -2.2999344E-007 0.0
  1.3651060E-007 -2.3003685E-007 0.0
  1.4415602E-007 -2.2988974E-007 0.0
  6.8379830E-009 -4.2528126E-007 0.0
  6.3379911E-009 -4.1569777E-007 0.0
  4.9414287E-010 -4.1793262E-007 0.0
 -3.4261686E-010 -4.2530219E-007 0.0
 -4.8451349E-009 -4.1981464E-007 0.0
 -1.0494026E-008 -4.2176168E-007 0.0
 -1.6049376E-008 -4.2372171E-007 0.0
 -2.1623285E-008 -4.2563370E-007 0.0
 -2.7355187E-008 -4.2757331E-007 0.0
 -3.3100104E-008 -4.2963285E-007 0.0
 -3.8755628E-008 -4.3175201E-007 0.0
 -4.4363142E-008 -4.3390789E-007 0.0
 -4.9976839E-008 -4.3611424E-007 0.0
 -5.5629888E-008 -4.3838330E-007 0.0
 -6.1345766E-008 -4.4070817E-007 0.0
 -6.7158413E-008 -4.4305174E-007 0.0
 -7.3166003E-008 -4.4532756E-007 0.0
 -7.9560437E-008 -4.4746044E-007 0.0
 -8.6581116E-008 -4.4942254E-007 0.0
 -9.4343332E-008 -4.5129849E-007 0.0
 -1.0274814E-007 -4.5315887E-007 0.0
 -1.1161404E-007 -4.5504484E-007 0.0
 -1.2073641E-007 -4.5696059E-007 0.0
 -1.2991683E-007 -4.5888490E-007 0.0
 -1.3899576E-007 -4.6076353E-007 0.0
 -1.4788712E-007 -4.6252121E-007 0.0
 -1.5658115E-007 -4.6409133E-007 0.0
 -1.6512184E-007 -4.6543112E-007 0.0
 -1.7358244E-007 -4.6652408E-007 0.0
 -1.8204568E-007 -4.6737754E-007 0.0
 -1.9058809E-007 -4.6801915E-007 0.0
 -1.9926543E-007 -4.6849303E-007 0.0
 -2.0809932E-007 -4.6885274E-007 0.0
 -2.1706968E-007 -4.6914860E-007 0.0
 -2.2612446E-007 -4.6941037E-007 0.0
 -2.3520497E-007 -4.6963643E-007 0.0
 -2.4431649E-007 -4.6977816E-007 0.0
 -2.5338351E-007 -4.6984506E-007 0.0
  2.0855060E-008 -2.3001021E-007 0.0
  3.2137720E-008 -2.3028324E-007 0.0
  4.2999081E-008 -2.3074689E-007 0.0
  5.3163625E-008 -2.3135965E-007 0.0
  6.2654999E-008 -2.3215294E-007 0.0
  7.1491280E-008 -2.3312296E-007 0.0
  7.9723189E-008 -2.3424107E-007 0.0
  8.7425686E-008 -2.3547854E-007 0.0
  9.4682905E-008 -2.3680021E-007 0.0
  1.0158404E-007 -2.3816262E-007 0.0
  1.0821728E-007 -2.3951050E-007 0.0
  1.1466304E-007 -2.4076831E-007 0.0
  1.2098355E-007 -2.4183311E-007 0.0
  1.2727104E-007 -2.4257775E-007 0.0
  1.3366592E-007 -2.4273853E-007 0.0
  1.4065391E-007 -2.4178205E-007 0.0
  1.5001354E-007 -2.4060022E-007 0.0
  1.5008068E-007 -2.3068741E-007 0.0
  2.1492628E-008 -4.1053149E-007 0.0
  2.1088414E-008 -4.0162282E-007 0.0
  1.5706612E-008 -4.0390943E-007 0.0
  1.4921114E-008 -4.1045657E-007 0.0
  1.1273860E-008 -4.0622969E-007 0.0
  1.0293934E-008 -4.1220095E-007 0.0
  6.6906546E-009 -4.0819271E-007 0.0
  1.2564669E-009 -4.1030190E-007 0.0
 -4.2163357E-009 -4.1241985E-007 0.0
 -9.7225715E-009 -4.1443165E-007 0.0
 -1.5275084E-008 -4.1643047E-007 0.0
 -2.0861561E-008 -4.1840892E-007 0.0
 -2.6508591E-008 -4.2039877E-007 0.0
 -3.2180152E-008 -4.2242811E-007 0.0
 -3.7835893E-008 -4.2449511E-007 0.0
 -4.3477207E-008 -4.2657816E-007 0.0
 -4.9136162E-008 -4.2866723E-007 0.0
 -5.4849112E-008 -4.3075555E-007 0.0
 -6.0655768E-008 -4.3282552E-007 0.0
 -6.6615833E-008 -4.3484048E-007 0.0
 -7.2826506E-008 -4.3675525E-007 0.0
 -7.9424082E-008 -4.3853653E-007 0.0
 -8.6540326E-008 -4.4019843E-007 0.0
 -9.4232626E-008 -4.4179334E-007 0.0
 -1.0245130E-007 -4.4338527E-007 0.0
 -1.1107196E-007 -4.4501140E-007 0.0
 -1.1994216E-007 -4.4668005E-007 0.0
 -1.2891205E-007 -4.4837066E-007 0.0
 -1.3786128E-007 -4.5003992E-007 0.0
 -1.4671615E-007 -4.5163279E-007 0.0
 -1.5545340E-007 -4.5309648E-007 0.0
 -1.6409132E-007 -4.5439227E-007 0.0
 -1.7267466E-007 -4.5550072E-007 0.0
 -1.8125940E-007 -4.5642193E-007 0.0
 -1.8989919E-007 -4.5717312E-007 0.0
 -1.9863371E-007 -4.5778421E-007 0.0
 -2.0747996E-007 -4.5829085E-007 0.0
 -2.1642965E-007 -4.5872484E-007 0.0
 -2.2545528E-007 -4.5910500E-007 0.0
 -2.3452828E-007 -4.5943263E-007 0.0
 -2.4361944E-007 -4.5972282E-007 0.0
 -2.5258999E-007 -4.6001615E-007 0.0
 -2.6172188E-007 -4.6034497E-007 0.0
 -2.6176712E-007 -4.6962477E-007 0.0
  2.0826151E-008 -2.4136104E-007 0.0
  3.2828889E-008 -2.4123957E-007 0.0
  4.3807647E-008 -2.4152143E-007 0.0
  5.4070536E-008 -2.4210298E-007 0.0
  6.3621462E-008 -2.4293923E-007 0.0
  7.2454431E-008 -2.4395299E-007 0.0
  8.0635765E-008 -2.4512172E-007 0.0
  8.8231823E-008 -2.4641859E-007 0.0
  9.5320050E-008 -2.4781090E-007 0.0
  1.0198114E-007 -2.4926440E-007 0.0
  1.0828969E-007 -2.5074015E-007 0.0
  1.1430620E-007 -2.5219185E-007 0.0
  1.2007818E-007 -2.5356423E-007 0.0
  1.2563924E-007 -2.5477465E-007 0.0
  1.3107489E-007 -2.5568576E-007 0.0
  1.3653604E-007 -2.5605263E-007 0.0
  1.4626965E-007 -2.5413482E-007 0.0
  3.5172176E-008 -3.9642961E-007 0.0
  3.4763308E-008 -3.8762543E-007 0.0
  2.9720401E-008 -3.9012570E-007 0.0
  2.8877582E-008 -3.9631708E-007 0.0
  2.5689270E-008 -3.9257829E-007 0.0
  2.4671057E-008 -3.9810505E-007 0.0
  2.1535520E-008 -3.9466859E-007 0.0
  1.6682702E-008 -3.9696940E-007 0.0
  1.1941444E-008 -3.9920858E-007 0.0
  7.1112944E-009 -4.0126720E-007 0.0
  1.9279442E-009 -4.0323536E-007 0.0
 -3.4756754E-009 -4.0524666E-007 0.0
 -8.9515840E-009 -4.0725718E-007 0.0
 -1.4476102E-008 -4.0924198E-007 0.0
 -2.0048855E-008 -4.1121377E-007 0.0
 -2.5665595E-008 -4.1318223E-007 0.0
 -3.1313252E-008 -4.1515755E-007 0.0
 -3.6977847E-008 -4.1713623E-007 0.0
 -4.2662354E-008 -4.1910550E-007 0.0
 -4.8388312E-008 -4.2104993E-007 0.0
 -5.4190186E-008 -4.2295402E-007 0.0
 -6.0113676E-008 -4.2479796E-007 0.0
 -6.6220677E-008 -4.2655718E-007 0.0
 -7.2593268E-008 -4.2820887E-007 0.0
 -7.9324719E-008 -4.2974680E-007 0.0
 -8.6493284E-008 -4.3119045E-007 0.0
 -9.4129363E-008 -4.3258273E-007 0.0
 -1.0219993E-007 -4.3397035E-007 0.0
 -1.1062062E-007 -4.3538657E-007 0.0
 -1.1928072E-007 -4.3684135E-007 0.0
 -1.2806825E-007 -4.3832181E-007 0.0
 -1.3688950E-007 -4.3979706E-007 0.0
 -1.4568171E-007 -4.4122668E-007 0.0
 -1.5441688E-007 -4.4257040E-007 0.0
 -1.6309777E-007 -4.4379623E-007 0.0
 -1.7174908E-007 -4.4488543E-007 0.0
 -1.8040668E-007 -4.4583386E-007 0.0
 -1.8910728E-007 -4.4665056E-007 0.0
 -1.9787969E-007 -4.4735404E-007 0.0
 -2.0673875E-007 -4.4796682E-007 0.0
 -2.1568350E-007 -4.4850913E-007 0.0
 -2.2470022E-007 -4.4899408E-007 0.0
 -2.3376602E-007 -4.4942961E-007 0.0
 -2.4283600E-007 -4.4981881E-007 0.0
 -2.5188529E-007 -4.5011567E-007 0.0
 -2.6080793E-007 -4.5027940E-007 0.0
  3.3926126E-008 -2.5115319E-007 0.0
  4.4770202E-008 -2.5166940E-007 0.0
  5.5232919E-008 -2.5233529E-007 0.0
  6.4806370E-008 -2.5316052E-007 0.0
  7.3633123E-008 -2.5417505E-007 0.0
  8.1750673E-008 -2.5536553E-007 0.0
  8.9221309E-008 -2.5668954E-007 0.0
  9.6125663E-008 -2.5811797E-007 0.0
  1.0254223E-007 -2.5962570E-007 0.0
  1.0854120E-007 -2.6119148E-007 0.0
  1.1417724E-007 -2.6279934E-007 0.0
  1.1948399E-007 -2.6444000E-007 0.0
  1.2448322E-007 -2.6612166E-007 0.0
  1.2917609E-007 -2.6790075E-007 0.0
  1.3388667E-007 -2.6998740E-007 0.0
  1.3717257E-007 -2.7196107E-007 0.0
  5.7372961E-008 -3.7553200E-007 0.0
  5.7107217E-008 -3.6842386E-007 0.0
  5.2671599E-008 -3.7028099E-007 0.0
  5.2039099E-008 -3.7540945E-007 0.0
  4.8957982E-008 -3.7215847E-007 0.0
  4.8241891E-008 -3.7646620E-007 0.0
  4.5541424E-008 -3.7417022E-007 0.0
  4.4686428E-008 -3.7821626E-007 0.0
  4.2220136E-008 -3.7643956E-007 0.0
  4.1251612E-008 -3.8050059E-007 0.0
  3.8997880E-008 -3.7895200E-007 0.0
  3.7824436E-008 -3.8345354E-007 0.0
  3.5279414E-008 -3.8121452E-007 0.0
  3.0776634E-008 -3.8369290E-007 0.0
  2.6431772E-008 -3.8607480E-007 0.0
  2.2064369E-008 -3.8826507E-007 0.0
  1.7426232E-008 -3.9034502E-007 0.0
  1.2620520E-008 -3.9242334E-007 0.0
  7.6874780E-009 -3.9442157E-007 0.0
  2.5532626E-009 -3.9636153E-007 0.0
 -2.7598567E-009 -3.9829004E-007 0.0
 -8.1879578E-009 -4.0022403E-007 0.0
 -1.3687712E-008 -4.0215178E-007 0.0
 -1.9244712E-008 -4.0406656E-007 0.0
 -2.4852091E-008 -4.0596938E-007 0.0
 -3.0502702E-008 -4.0785902E-007 0.0
 -3.6193334E-008 -4.0972907E-007 0.0
 -4.1930567E-008 -4.1156734E-007 0.0
 -4.7733761E-008 -4.1335888E-007 0.0
 -5.3634498E-008 -4.1508761E-007 0.0
 -5.9676076E-008 -4.1673712E-007 0.0
 -6.5913627E-008 -4.1829237E-007 0.0
 -7.2411674E-008 -4.1974484E-007 0.0
 -7.9235057E-008 -4.2109891E-007 0.0
 -8.6432722E-008 -4.2237561E-007 0.0
 -9.4020881E-008 -4.2360844E-007 0.0
 -1.0197516E-007 -4.2483331E-007 0.0
 -1.1023598E-007 -4.2607704E-007 0.0
 -1.1872319E-007 -4.2735061E-007 0.0
 -1.2735277E-007 -4.2864777E-007 0.0
 -1.3605142E-007 -4.2994834E-007 0.0
 -1.4476619E-007 -4.3122402E-007 0.0
 -1.5346827E-007 -4.3244520E-007 0.0
 -1.6215164E-007 -4.3358696E-007 0.0
 -1.7082778E-007 -4.3463307E-007 0.0
 -1.7951852E-007 -4.3557759E-007 0.0
 -1.8824871E-007 -4.3642412E-007 0.0
 -1.9703979E-007 -4.3718321E-007 0.0
 -2.0590522E-007 -4.3786844E-007 0.0
 -2.1484844E-007 -4.3849223E-007 0.0
 -2.2386257E-007 -4.3906314E-007 0.0
 -2.3292915E-007 -4.3958469E-007 0.0
 -2.4202337E-007 -4.4005177E-007 0.0
 -2.5111346E-007 -4.4047104E-007 0.0
 -2.6012613E-007 -4.4085436E-007 0.0
 -2.6919355E-007 -4.4111127E-007 0.0
 -2.6917371E-007 -4.5015284E-007 0.0
  3.3932919E-008 -2.6195406E-007 0.0
  4.6038035E-008 -2.6166902E-007 0.0
  5.6552543E-008 -2.6201709E-007 0.0
  6.6196073E-008 -2.6272592E-007 0.0
  7.5029690E-008 -2.6373360E-007 0.0
  8.3059947E-008 -2.6490960E-007 0.0
  9.0384977E-008 -2.6622045E-007 0.0
  9.7087092E-008 -2.6763901E-007 0.0
  1.0325061E-007 -2.6914389E-007 0.0
  1.0895078E-007 -2.7072695E-007 0.0
  1.1424312E-007 -2.7239137E-007 0.0
  1.1916062E-007 -2.7415266E-007 0.0
  1.2370927E-007 -2.7603905E-007 0.0
  1.2789486E-007 -2.7808206E-007 0.0
  1.3145865E-007 -2.8007971E-007 0.0
  1.3311242E-007 -2.8178814E-007 0.0
  1.3188181E-007 -2.8384861E-007 0.0
  1.3393112E-007 -2.7432227E-007 0.0
  7.2531192E-008 -3.6242427E-007 0.0
  7.2258098E-008 -3.5537907E-007 0.0
  6.7896496E-008 -3.5722425E-007 0.0
  6.7268244E-008 -3.6231160E-007 0.0
  6.4305121E-008 -3.5911910E-007 0.0
  6.3594932E-008 -3.6341543E-007 0.0
  6.1080311E-008 -3.6111392E-007 0.0
  6.0181564E-008 -3.6539503E-007 0.0
  5.7585417E-008 -3.6296025E-007 0.0
  5.3593566E-008 -3.6503748E-007 0.0
  4.9868103E-008 -3.6719201E-007 0.0
  4.6407301E-008 -3.6933784E-007 0.0
  4.3049202E-008 -3.7148850E-007 0.0
  3.9577112E-008 -3.7357596E-007 0.0
  3.5757333E-008 -3.7564446E-007 0.0
  3.1541642E-008 -3.7772112E-007 0.0
  2.7154785E-008 -3.7985220E-007 0.0
  2.2681798E-008 -3.8191467E-007 0.0
  1.8051363E-008 -3.8390515E-007 0.0
  1.3255334E-008 -3.8584547E-007 0.0
  8.3017702E-009 -3.8774773E-007 0.0
  3.1881600E-009 -3.8961469E-007 0.0
 -2.0754695E-009 -3.9146573E-007 0.0
 -7.4585442E-009 -3.9331171E-007 0.0
 -1.2932014E-008 -3.9515162E-007 0.0
 -1.8477817E-008 -3.9697898E-007 0.0
 -2.4086986E-008 -3.9878757E-007 0.0
 -2.9755345E-008 -4.0057076E-007 0.0
 -3.5483757E-008 -4.0231915E-007 0.0
 -4.1280715E-008 -4.0402061E-007 0.0
 -4.7164179E-008 -4.0566150E-007 0.0
 -5.3162136E-008 -4.0722836E-007 0.0
 -5.9312177E-008 -4.0870941E-007 0.0
 -6.5659914E-008 -4.1009684E-007 0.0
 -7.2254958E-008 -4.1138967E-007 0.0
 -7.9143281E-008 -4.1259678E-007 0.0
 -8.6356886E-008 -4.1373749E-007 0.0
 -9.3904327E-008 -4.1483846E-007 0.0
 -1.0176651E-007 -4.1592731E-007 0.0
 -1.0989982E-007 -4.1702570E-007 0.0
 -1.1824500E-007 -4.1814446E-007 0.0
 -1.2673837E-007 -4.1928223E-007 0.0
 -1.3532219E-007 -4.2042709E-007 0.0
 -1.4395211E-007 -4.2156042E-007 0.0
 -1.5260068E-007 -4.2266152E-007 0.0
 -1.6125733E-007 -4.2371203E-007 0.0
 -1.6992539E-007 -4.2469895E-007 0.0
 -1.7861753E-007 -4.2561623E-007 0.0
 -1.8735065E-007 -4.2646444E-007 0.0
 -1.9614136E-007 -4.2724910E-007 0.0
 -2.0500247E-007 -4.2797795E-007 0.0
 -2.1394065E-007 -4.2865780E-007 0.0
 -2.2295462E-007 -4.2929186E-007 0.0
 -2.3203403E-007 -4.2987762E-007 0.0
 -2.4115781E-007 -4.3040925E-007 0.0
 -2.5028813E-007 -4.3087850E-007 0.0
 -2.5941934E-007 -4.3126807E-007 0.0
 -2.6873484E-007 -4.3155700E-007 0.0
  4.7932718E-008 -2.7000037E-007 0.0
  5.8022458E-008 -2.7077652E-007 0.0
  6.7860778E-008 -2.7161946E-007 0.0
  7.6627393E-008 -2.7257405E-007 0.0
  8.4556194E-008 -2.7369051E-007 0.0
  9.1710126E-008 -2.7495186E-007 0.0
  9.8179887E-008 -2.7630799E-007 0.0
  1.0406984E-007 -2.7774111E-007 0.0
  1.0946521E-007 -2.7925049E-007 0.0
  1.1442551E-007 -2.8084677E-007 0.0
  1.1897782E-007 -2.8254622E-007 0.0
  1.2311029E-007 -2.8436054E-007 0.0
  1.2671265E-007 -2.8625553E-007 0.0
  1.2941199E-007 -2.8818353E-007 0.0
  1.3060328E-007 -2.9036152E-007 0.0
  1.3008647E-007 -2.9345659E-007 0.0
  1.2865539E-007 -2.9826243E-007 0.0
  1.3105284E-007 -2.8577653E-007 0.0
  8.4929212E-008 -3.5122008E-007 0.0
  8.4604273E-008 -3.4302637E-007 0.0
  7.9910332E-008 -3.4550485E-007 0.0
  7.9118354E-008 -3.5103495E-007 0.0
  7.6293393E-008 -3.4783475E-007 0.0
  7.5386167E-008 -3.5251645E-007 0.0
  7.2745674E-008 -3.4981415E-007 0.0
  6.8799116E-008 -3.5194538E-007 0.0
  6.5154172E-008 -3.5408802E-007 0.0
  6.1702851E-008 -3.5609045E-007 0.0
  5.8155140E-008 -3.5803408E-007 0.0
  5.4445017E-008 -3.6001152E-007 0.0
  5.0768429E-008 -3.6208895E-007 0.0
  4.7226603E-008 -3.6417014E-007 0.0
  4.3722280E-008 -3.6618894E-007 0.0
  4.0104852E-008 -3.6813680E-007 0.0
  3.6243071E-008 -3.7003189E-007 0.0
  3.2107764E-008 -3.7193067E-007 0.0
  2.7768918E-008 -3.7383889E-007 0.0
  2.3277866E-008 -3.7573665E-007 0.0
  1.8640279E-008 -3.7759769E-007 0.0
  1.3848970E-008 -3.7942316E-007 0.0
  8.9046781E-009 -3.8121833E-007 0.0
  3.8115312E-009 -3.8299109E-007 0.0
 -1.4192884E-009 -3.8474901E-007 0.0
 -6.7701514E-009 -3.8649745E-007 0.0
 -1.2222275E-008 -3.8823556E-007 0.0
 -1.7761528E-008 -3.8995777E-007 0.0
 -2.3379730E-008 -3.9165608E-007 0.0
 -2.9074024E-008 -3.9332105E-007 0.0
 -3.4846740E-008 -3.9494184E-007 0.0
 -4.0706324E-008 -3.9650652E-007 0.0
 -4.6668451E-008 -3.9800323E-007 0.0
 -5.2756591E-008 -3.9942161E-007 0.0
 -5.9001648E-008 -4.0075432E-007 0.0
 -6.5440102E-008 -4.0199849E-007 0.0
 -7.2110035E-008 -4.0315724E-007 0.0
 -7.9044998E-008 -4.0424067E-007 0.0
 -8.6266873E-008 -4.0526546E-007 0.0
 -9.3779985E-008 -4.0625262E-007 0.0
 -1.0156875E-007 -4.0722356E-007 0.0
 -1.0959983E-007 -4.0819580E-007 0.0
 -1.1782806E-007 -4.0917971E-007 0.0
 -1.2620412E-007 -4.1017722E-007 0.0
 -1.3468194E-007 -4.1118258E-007 0.0
 -1.4322444E-007 -4.1218464E-007 0.0
 -1.5180659E-007 -4.1316994E-007 0.0
 -1.6041601E-007 -4.1412579E-007 0.0
 -1.6905144E-007 -4.1504260E-007 0.0
 -1.7771988E-007 -4.1591516E-007 0.0
 -1.8643331E-007 -4.1674276E-007 0.0
 -1.9520545E-007 -4.1752808E-007 0.0
 -2.0404927E-007 -4.1827530E-007 0.0
 -2.1297496E-007 -4.1898746E-007 0.0
 -2.2198793E-007 -4.1966346E-007 0.0
 -2.3108589E-007 -4.2029557E-007 0.0
 -2.4025418E-007 -4.2086738E-007 0.0
 -2.4946908E-007 -4.2135110E-007 0.0
 -2.5869707E-007 -4.2171390E-007 0.0
 -2.6801541E-007 -4.2204376E-007 0.0
  4.7985769E-008 -2.7989928E-007 0.0
  5.9913598E-008 -2.7943023E-007 0.0
  6.9676088E-008 -2.7981862E-007 0.0
  7.8423235E-008 -2.8059198E-007 0.0
  8.6250311E-008 -2.8166157E-007 0.0
  9.3180757E-008 -2.8283703E-007 0.0
  9.9373786E-008 -2.8407774E-007 0.0
  1.0495379E-007 -2.8537047E-007 0.0
  1.1002072E-007 -2.8671805E-007 0.0
  1.1463670E-007 -2.8813432E-007 0.0
  1.1881896E-007 -2.8963102E-007 0.0
  1.2252644E-007 -2.9120777E-007 0.0
  1.2562230E-007 -2.9286072E-007 0.0
  1.2785380E-007 -2.9464556E-007 0.0
  1.2894507E-007 -2.9676592E-007 0.0
  1.2881203E-007 -2.9952865E-007 0.0
  1.2701629E-007 -3.0287317E-007 0.0
  1.2127954E-007 -3.0659124E-007 0.0
  1.1872590E-007 -3.0930907E-007 0.0
  1.1466645E-007 -3.1194343E-007 0.0
  1.1278826E-007 -3.1586211E-007 0.0
  1.0926139E-007 -3.1665906E-007 0.0
  1.0754716E-007 -3.2063911E-007 0.0
  1.0448362E-007 -3.2078803E-007 0.0
  1.0295895E-007 -3.2466982E-007 0.0
  1.0016505E-007 -3.2451066E-007 0.0
  9.8754483E-008 -3.2828546E-007 0.0
  9.6184534E-008 -3.2798049E-007 0.0
  9.4839032E-008 -3.3168531E-007 0.0
  9.2476167E-008 -3.3131056E-007 0.0
  9.1172884E-008 -3.3503539E-007 0.0
  8.9035803E-008 -3.3454156E-007 0.0
  8.7663894E-008 -3.3862010E-007 0.0
  8.5290810E-008 -3.3727702E-007 0.0
  8.1020866E-008 -3.4003151E-007 0.0
  7.7116699E-008 -3.4254842E-007 0.0
  7.3394640E-008 -3.4480986E-007 0.0
  6.9649475E-008 -3.4693987E-007 0.0
  6.5973093E-008 -3.4904899E-007 0.0
  6.2399093E-008 -3.5108390E-007 0.0
  5.8819334E-008 -3.5304493E-007 0.0
  5.5188807E-008 -3.5499777E-007 0.0
  5.1557182E-008 -3.5696466E-007 0.0
  4.7954267E-008 -3.5892005E-007 0.0
  4.4338055E-008 -3.6082131E-007 0.0
  4.0618244E-008 -3.6265325E-007 0.0
  3.6716257E-008 -3.6443479E-007 0.0
  3.2602814E-008 -3.6619360E-007 0.0
  2.8294943E-008 -3.6794777E-007 0.0
  2.3819265E-008 -3.6969291E-007 0.0
  1.9188875E-008 -3.7142061E-007 0.0
  1.4407989E-008 -3.7312583E-007 0.0
  9.4791132E-009 -3.7481009E-007 0.0
  4.4074756E-009 -3.7647700E-007 0.0
 -7.9806341E-010 -3.7813049E-007 0.0
 -6.1256353E-009 -3.7977209E-007 0.0
 -1.1563109E-008 -3.8139977E-007 0.0
 -1.7100757E-008 -3.8300788E-007 0.0
 -2.2732751E-008 -3.8458798E-007 0.0
 -2.8457427E-008 -3.8612982E-007 0.0
 -3.4277312E-008 -3.8762210E-007 0.0
 -4.0199461E-008 -3.8905341E-007 0.0
 -4.6236134E-008 -3.9041360E-007 0.0
 -5.2405498E-008 -3.9169522E-007 0.0
 -5.8731711E-008 -3.9289461E-007 0.0
 -6.5243530E-008 -3.9401251E-007 0.0
 -7.1970816E-008 -3.9505420E-007 0.0
 -7.8939271E-008 -3.9602943E-007 0.0
 -8.6164815E-008 -3.9695181E-007 0.0
 -9.3649378E-008 -3.9783752E-007 0.0
 -1.0137955E-007 -3.9870303E-007 0.0
 -1.0932845E-007 -3.9956261E-007 0.0
 -1.1746010E-007 -4.0042609E-007 0.0
 -1.2573505E-007 -4.0129776E-007 0.0
 -1.3411584E-007 -4.0217638E-007 0.0
 -1.4257136E-007 -4.0305655E-007 0.0
 -1.5107939E-007 -4.0393051E-007 0.0
 -1.5962745E-007 -4.0479031E-007 0.0
 -1.6821211E-007 -4.0562948E-007 0.0
 -1.7683726E-007 -4.0644414E-007 0.0
 -1.8551204E-007 -4.0723327E-007 0.0
 -1.9424874E-007 -4.0799813E-007 0.0
 -2.0306119E-007 -4.0874107E-007 0.0
 -2.1196364E-007 -4.0946336E-007 0.0
 -2.2096932E-007 -4.1016211E-007 0.0
 -2.3008699E-007 -4.1082621E-007 0.0
 -2.3931474E-007 -4.1143278E-007 0.0
 -2.4863054E-007 -4.1195052E-007 0.0
 -2.5799655E-007 -4.1234975E-007 0.0
 -2.6713367E-007 -4.1263001E-007 0.0
  6.2649392E-008 -2.8577193E-007 0.0
  7.1646849E-008 -2.8680783E-007 0.0
  8.0537982E-008 -2.8779257E-007 0.0
  8.8135190E-008 -2.8878684E-007 0.0
  9.4785328E-008 -2.8983505E-007 0.0
  1.0063854E-007 -2.9091856E-007 0.0
  1.0585569E-007 -2.9200937E-007 0.0
  1.1056059E-007 -2.9312477E-007 0.0
  1.1481137E-007 -2.9428416E-007 0.0
  1.1861181E-007 -2.9549563E-007 0.0
  1.2191001E-007 -2.9675974E-007 0.0
  1.2459101E-007 -2.9808550E-007 0.0
  1.2648681E-007 -2.9951571E-007 0.0
  1.2741888E-007 -3.0112720E-007 0.0
  1.2715941E-007 -3.0292851E-007 0.0
  1.2512342E-007 -3.0486516E-007 0.0
  1.2100740E-007 -3.0741105E-007 0.0
  1.1577969E-007 -3.1062504E-007 0.0
  1.1055557E-007 -3.1432081E-007 0.0
  1.0579388E-007 -3.1792993E-007 0.0
  1.0142181E-007 -3.2134288E-007 0.0
  9.7369255E-008 -3.2455685E-007 0.0
  9.3563225E-008 -3.2757733E-007 0.0
  8.9830384E-008 -3.3033878E-007 0.0
  8.5964107E-008 -3.3291221E-007 0.0
  8.1939195E-008 -3.3535493E-007 0.0
  7.7976582E-008 -3.3774355E-007 0.0
  7.4157779E-008 -3.3999249E-007 0.0
  7.0414726E-008 -3.4212422E-007 0.0
  6.6733987E-008 -3.4417617E-007 0.0
  6.3105876E-008 -3.4616260E-007 0.0
  5.9495842E-008 -3.4809049E-007 0.0
  5.5875331E-008 -3.4998081E-007 0.0
  5.2243395E-008 -3.5184806E-007 0.0
  4.8597100E-008 -3.5368249E-007 0.0
  4.4904901E-008 -3.5546619E-007 0.0
  4.1113932E-008 -3.5719145E-007 0.0
  3.7174166E-008 -3.5886719E-007 0.0
  3.3059180E-008 -3.6051160E-007 0.0
  2.8767509E-008 -3.6213841E-007 0.0
  2.4309279E-008 -3.6375269E-007 0.0
  1.9694381E-008 -3.6535306E-007 0.0
  1.4929155E-008 -3.6693785E-007 0.0
  1.0018372E-008 -3.6850694E-007 0.0
  4.9672939E-009 -3.7006170E-007 0.0
 -2.1725806E-010 -3.7160336E-007 0.0
 -5.5273716E-009 -3.7313157E-007 0.0
 -1.0955386E-008 -3.7464335E-007 0.0
 -1.6495391E-008 -3.7613290E-007 0.0
 -2.2144133E-008 -3.7759190E-007 0.0
 -2.7901234E-008 -3.7901011E-007 0.0
 -3.3768979E-008 -3.8037628E-007 0.0
 -3.9752179E-008 -3.8167947E-007 0.0
 -4.5858624E-008 -3.8291086E-007 0.0
 -5.2100298E-008 -3.8406542E-007 0.0
 -5.8494686E-008 -3.8514275E-007 0.0
 -6.5064494E-008 -3.8614647E-007 0.0
 -7.1834549E-008 -3.8708312E-007 0.0
 -7.8826422E-008 -3.8796119E-007 0.0
 -8.6052902E-008 -3.8879088E-007 0.0
 -9.3514427E-008 -3.8958385E-007 0.0
 -1.0119846E-007 -3.9035251E-007 0.0
 -1.0908163E-007 -3.9110861E-007 0.0
 -1.1713353E-007 -3.9186167E-007 0.0
 -1.2532126E-007 -3.9261779E-007 0.0
 -1.3361359E-007 -3.9337924E-007 0.0
 -1.4198422E-007 -3.9414497E-007 0.0
 -1.5041385E-007 -3.9491168E-007 0.0
 -1.5889096E-007 -3.9567518E-007 0.0
 -1.6741157E-007 -3.9643166E-007 0.0
 -1.7597823E-007 -3.9717855E-007 0.0
 -1.8459877E-007 -3.9791494E-007 0.0
 -1.9328499E-007 -3.9864136E-007 0.0
 -2.0205186E-007 -3.9935917E-007 0.0
 -2.1091745E-007 -4.0006946E-007 0.0
 -2.1990335E-007 -4.0077054E-007 0.0
 -2.2903303E-007 -4.0145256E-007 0.0
 -2.3832144E-007 -4.0209132E-007 0.0
 -2.4775207E-007 -4.0265046E-007 0.0
 -2.5724082E-007 -4.0311613E-007 0.0
 -2.6666035E-007 -4.0345384E-007 0.0
 -2.7598113E-007 -4.0358464E-007 0.0
 -2.7587173E-007 -4.1264519E-007 0.0
  6.2750634E-008 -2.9441931E-007 0.0
  7.4172313E-008 -2.9376263E-007 0.0
  8.2840475E-008 -2.9419086E-007 0.0
  9.0229965E-008 -2.9497549E-007 0.0
  9.6530527E-008 -2.9592490E-007 0.0
  1.0193682E-007 -2.9680519E-007 0.0
  1.0673405E-007 -2.9764157E-007 0.0
  1.1104656E-007 -2.9848400E-007 0.0
  1.1491406E-007 -2.9935141E-007 0.0
  1.1832714E-007 -3.0024689E-007 0.0
  1.2123234E-007 -3.0116756E-007 0.0
  1.2353382E-007 -3.0211523E-007 0.0
  1.2509941E-007 -3.0310249E-007 0.0
  1.2576017E-007 -3.0414121E-007 0.0
  1.2527135E-007 -3.0524242E-007 0.0
  1.2338032E-007 -3.0652544E-007 0.0
  1.2006505E-007 -3.0818293E-007 0.0
  1.1578589E-007 -3.1039128E-007 0.0
  1.1117154E-007 -3.1303069E-007 0.0
  1.0663379E-007 -3.1588947E-007 0.0
  1.0232720E-007 -3.1875625E-007 0.0
  9.8247896E-008 -3.2153254E-007 0.0
  9.4331116E-008 -3.2416017E-007 0.0
  9.0473142E-008 -3.2662502E-007 0.0
  8.6576140E-008 -3.2894590E-007 0.0
  8.2630947E-008 -3.3118661E-007 0.0
  7.8713873E-008 -3.3336534E-007 0.0
  7.4875361E-008 -3.3547717E-007 0.0
  7.1116837E-008 -3.3750922E-007 0.0
  6.7420367E-008 -3.3946998E-007 0.0
  6.3767516E-008 -3.4136841E-007 0.0
  6.0134807E-008 -3.4321316E-007 0.0
  5.6501001E-008 -3.4501352E-007 0.0
  5.2850802E-008 -3.4677462E-007 0.0
  4.9167296E-008 -3.4849364E-007 0.0
  4.5423189E-008 -3.5016356E-007 0.0
  4.1582462E-008 -3.5178181E-007 0.0
  3.7611078E-008 -3.5335411E-007 0.0
  3.3486820E-008 -3.5489150E-007 0.0
  2.9201693E-008 -3.5640474E-007 0.0
  2.4757248E-008 -3.5790033E-007 0.0
  2.0158521E-008 -3.5938088E-007 0.0
  1.5410706E-008 -3.6084706E-007 0.0
  1.0518504E-008 -3.6229927E-007 0.0
  5.4866003E-009 -3.6373800E-007 0.0
  3.1996375E-010 -3.6516326E-007 0.0
 -4.9764173E-009 -3.6657378E-007 0.0
 -1.0398286E-008 -3.6796626E-007 0.0
 -1.5942916E-008 -3.6933517E-007 0.0
 -2.1609563E-008 -3.7067272E-007 0.0
 -2.7399330E-008 -3.7196920E-007 0.0
 -3.3314373E-008 -3.7321359E-007 0.0
 -3.9356947E-008 -3.7439502E-007 0.0
 -4.5529252E-008 -3.7550512E-007 0.0
 -5.1835619E-008 -3.7654076E-007 0.0
 -5.8286340E-008 -3.7750461E-007 0.0
 -6.4899873E-008 -3.7840342E-007 0.0
 -7.1699618E-008 -3.7924445E-007 0.0
 -7.8706660E-008 -3.8003417E-007 0.0
 -8.5932843E-008 -3.8077858E-007 0.0
 -9.3377188E-008 -3.8148495E-007 0.0
 -1.0102642E-007 -3.8216225E-007 0.0
 -1.0885806E-007 -3.8282060E-007 0.0
 -1.1684450E-007 -3.8346967E-007 0.0
 -1.2495692E-007 -3.8411727E-007 0.0
 -1.3316855E-007 -3.8476851E-007 0.0
 -1.4145707E-007 -3.8542570E-007 0.0
 -1.4980608E-007 -3.8608892E-007 0.0
 -1.5820571E-007 -3.8675685E-007 0.0
 -1.6665253E-007 -3.8742773E-007 0.0
 -1.7514898E-007 -3.8810004E-007 0.0
 -1.8370268E-007 -3.8877295E-007 0.0
 -1.9232566E-007 -3.8944627E-007 0.0
 -2.0103409E-007 -3.9012024E-007 0.0
 -2.0984850E-007 -3.9079540E-007 0.0
 -2.1879672E-007 -3.9147281E-007 0.0
 -2.2791874E-007 -3.9214978E-007 0.0
 -2.3725998E-007 -3.9280492E-007 0.0
 -2.4682842E-007 -3.9338446E-007 0.0
 -2.5652097E-007 -3.9380960E-007 0.0
 -2.6625302E-007 -3.9403896E-007 0.0
 -2.7606787E-007 -3.9404177E-007 0.0
  7.7774932E-008 -2.9779060E-007 0.0
  8.5406139E-008 -2.9915300E-007 0.0
  9.2721070E-008 -3.0027809E-007 0.0
  9.8368915E-008 -3.0108205E-007 0.0
  1.0322040E-007 -3.0167626E-007 0.0
  1.0756433E-007 -3.0224100E-007 0.0
  1.1146540E-007 -3.0281258E-007 0.0
  1.1493875E-007 -3.0339691E-007 0.0
  1.1796210E-007 -3.0398742E-007 0.0
  1.2048243E-007 -3.0457565E-007 0.0
  1.2241589E-007 -3.0515683E-007 0.0
  1.2364834E-007 -3.0573260E-007 0.0
  1.2403393E-007 -3.0631566E-007 0.0
  1.2341220E-007 -3.0695354E-007 0.0
  1.2166785E-007 -3.0774586E-007 0.0
  1.1884822E-007 -3.0884091E-007 0.0
  1.1521771E-007 -3.1033376E-007 0.0
  1.1114733E-007 -3.1221219E-007 0.0
  1.0695074E-007 -3.1435558E-007 0.0
  1.0280529E-007 -3.1662571E-007 0.0
  9.8770794E-008 -3.1890769E-007 0.0
  9.4831780E-008 -3.2113339E-007 0.0
  9.0939187E-008 -3.2327302E-007 0.0
  8.7049491E-008 -3.2533459E-007 0.0
  8.3156362E-008 -3.2733992E-007 0.0
  7.9287821E-008 -3.2930597E-007 0.0
  7.5472347E-008 -3.3123044E-007 0.0
  7.1717864E-008 -3.3310754E-007 0.0
  6.8016685E-008 -3.3493380E-007 0.0
  6.4352571E-008 -3.3671066E-007 0.0
  6.0705976E-008 -3.3844121E-007 0.0
  5.7056920E-008 -3.4012876E-007 0.0
  5.3386165E-008 -3.4177464E-007 0.0
  4.9672889E-008 -3.4337722E-007 0.0
  4.5892286E-008 -3.4493379E-007 0.0
  4.2016833E-008 -3.4644398E-007 0.0
  3.8021054E-008 -3.4791168E-007 0.0
  3.3886407E-008 -3.4934407E-007 0.0
  2.9603072E-008 -3.5074884E-007 0.0
  2.5168367E-008 -3.5213205E-007 0.0
  2.0583735E-008 -3.5349740E-007 0.0
  1.5852295E-008 -3.5484692E-007 0.0
  1.0977586E-008 -3.5618166E-007 0.0
  5.9631077E-009 -3.5750209E-007 0.0
  8.1208403E-010 -3.5880796E-007 0.0
 -4.4728770E-009 -3.6009780E-007 0.0
 -9.8902556E-009 -3.6136862E-007 0.0
 -1.5440047E-008 -3.6261556E-007 0.0
 -2.1123911E-008 -3.6383192E-007 0.0
 -2.6944778E-008 -3.6500915E-007 0.0
 -3.2905542E-008 -3.6613689E-007 0.0
 -3.9006384E-008 -3.6720368E-007 0.0
 -4.5242971E-008 -3.6820038E-007 0.0
 -5.1608760E-008 -3.6912419E-007 0.0
 -5.8104759E-008 -3.6998203E-007 0.0
 -6.4747391E-008 -3.7078407E-007 0.0
 -7.1563851E-008 -3.7153859E-007 0.0
 -7.8579189E-008 -3.7224779E-007 0.0
 -8.5805723E-008 -3.7291274E-007 0.0
 -9.3240088E-008 -3.7353600E-007 0.0
 -1.0086579E-007 -3.7412438E-007 0.0
 -1.0865879E-007 -3.7468753E-007 0.0
 -1.1659209E-007 -3.7523613E-007 0.0
 -1.2463926E-007 -3.7577980E-007 0.0
 -1.3277685E-007 -3.7632602E-007 0.0
 -1.4098595E-007 -3.7687969E-007 0.0
 -1.4925312E-007 -3.7744334E-007 0.0
 -1.5757062E-007 -3.7801768E-007 0.0
 -1.6593634E-007 -3.7860233E-007 0.0
 -1.7435347E-007 -3.7919644E-007 0.0
 -1.8283018E-007 -3.7979909E-007 0.0
 -1.9137946E-007 -3.8040923E-007 0.0
 -2.0001898E-007 -3.8102523E-007 0.0
 -2.0877128E-007 -3.8164471E-007 0.0
 -2.1766497E-007 -3.8226607E-007 0.0
 -2.2674826E-007 -3.8289601E-007 0.0
 -2.3611439E-007 -3.8353393E-007 0.0
 -2.4585623E-007 -3.8411220E-007 0.0
 -2.5589085E-007 -3.8449996E-007 0.0
 -2.6576219E-007 -3.8472163E-007 0.0
  7.7835870E-008 -3.0509256E-007 0.0
  8.8918419E-008 -3.0427135E-007 0.0
  9.5443162E-008 -3.0476736E-007 0.0
  1.0017943E-007 -3.0507699E-007 0.0
  1.0447859E-007 -3.0542143E-007 0.0
  1.0835441E-007 -3.0577554E-007 0.0
  1.1183449E-007 -3.0613434E-007 0.0
  1.1490463E-007 -3.0648485E-007 0.0
  1.1753529E-007 -3.0681462E-007 0.0
  1.1967573E-007 -3.0711480E-007 0.0
  1.2125263E-007 -3.0738242E-007 0.0
  1.2217111E-007 -3.0762407E-007 0.0
  1.2232280E-007 -3.0786418E-007 0.0
  1.2160759E-007 -3.0815524E-007 0.0
  1.1997761E-007 -3.0858418E-007 0.0
  1.1748689E-007 -3.0925066E-007 0.0
  1.1430597E-007 -3.1022734E-007 0.0
  1.1067172E-007 -3.1151996E-007 0.0
  1.0680825E-007 -3.1307200E-007 0.0
  1.0287398E-007 -3.1479306E-007 0.0
  9.8950784E-008 -3.1659628E-007 0.0
  9.5061976E-008 -3.1841697E-007 0.0
  9.1199139E-008 -3.2022060E-007 0.0
  8.7348851E-008 -3.2199737E-007 0.0
  8.3510296E-008 -3.2375185E-007 0.0
  7.9696329E-008 -3.2548845E-007 0.0
  7.5921500E-008 -3.2720606E-007 0.0
  7.2191870E-008 -3.2889902E-007 0.0
  6.8502801E-008 -3.3056203E-007 0.0
  6.4841877E-008 -3.3219163E-007 0.0
  6.1192141E-008 -3.3378625E-007 0.0
  5.7534675E-008 -3.3534500E-007 0.0
  5.3849600E-008 -3.3686654E-007 0.0
  5.0115848E-008 -3.3834888E-007 0.0
  4.6310948E-008 -3.3979017E-007 0.0
  4.2412170E-008 -3.4119025E-007 0.0
  3.8399014E-008 -3.4255148E-007 0.0
  3.4255711E-008 -3.4387832E-007 0.0
  2.9972380E-008 -3.4517600E-007 0.0
  2.5544474E-008 -3.4644926E-007 0.0
  2.0971207E-008 -3.4770165E-007 0.0
  1.6253886E-008 -3.4893555E-007 0.0
  1.1394641E-008 -3.5015243E-007 0.0
  6.3956050E-009 -3.5135302E-007 0.0
  1.2583547E-009 -3.5253723E-007 0.0
 -4.0165370E-009 -3.5370396E-007 0.0
 -9.4298556E-009 -3.5485080E-007 0.0
 -1.4983950E-008 -3.5597393E-007 0.0
 -2.0682691E-008 -3.5706817E-007 0.0
 -2.6531073E-008 -3.5812695E-007 0.0
 -3.2533968E-008 -3.5914201E-007 0.0
 -3.8692492E-008 -3.6010214E-007 0.0
 -4.4995363E-008 -3.6099403E-007 0.0
 -5.1419633E-008 -3.6181478E-007 0.0
 -5.7949170E-008 -3.6257370E-007 0.0
 -6.4603383E-008 -3.6329054E-007 0.0
 -7.1423052E-008 -3.6396845E-007 0.0
 -7.8441734E-008 -3.6460526E-007 0.0
 -8.5672872E-008 -3.6519320E-007 0.0
 -9.3106790E-008 -3.6573297E-007 0.0
 -1.0072089E-007 -3.6623088E-007 0.0
 -1.0848708E-007 -3.6669834E-007 0.0
 -1.1637768E-007 -3.6714780E-007 0.0
 -1.2436773E-007 -3.6759069E-007 0.0
 -1.3243644E-007 -3.6803635E-007 0.0
 -1.4056810E-007 -3.6849154E-007 0.0
 -1.4875235E-007 -3.6896042E-007 0.0
 -1.5698403E-007 -3.6944491E-007 0.0
 -1.6526288E-007 -3.6994533E-007 0.0
 -1.7359329E-007 -3.7046110E-007 0.0
 -1.8198447E-007 -3.7099118E-007 0.0
 -1.9045088E-007 -3.7153399E-007 0.0
 -1.9901280E-007 -3.7208624E-007 0.0
 -2.0769601E-007 -3.7264086E-007 0.0
 -2.1653170E-007 -3.7318589E-007 0.0
 -2.2555362E-007 -3.7370881E-007 0.0
 -2.3487153E-007 -3.7424200E-007 0.0
 -2.4479278E-007 -3.7476776E-007 0.0
 -2.5535918E-007 -3.7504787E-007 0.0
 -2.6574349E-007 -3.7491169E-007 0.0
  9.5164095E-008 -3.0540660E-007 0.0
  9.8106168E-008 -3.0705748E-007 0.0
  1.0207596E-007 -3.0759884E-007 0.0
  1.0576312E-007 -3.0795870E-007 0.0
  1.0915877E-007 -3.0825466E-007 0.0
  1.1219686E-007 -3.0850032E-007 0.0
  1.1484836E-007 -3.0869056E-007 0.0
  1.1707947E-007 -3.0882159E-007 0.0
  1.1884378E-007 -3.0889395E-007 0.0
  1.2007872E-007 -3.0891411E-007 0.0
  1.2070919E-007 -3.0889814E-007 0.0
  1.2065766E-007 -3.0887744E-007 0.0
  1.1986323E-007 -3.0890381E-007 0.0
  1.1830800E-007 -3.0904703E-007 0.0
  1.1604032E-007 -3.0938104E-007 0.0
  1.1317738E-007 -3.0995962E-007 0.0
  1.0987924E-007 -3.1079776E-007 0.0
  1.0630766E-007 -3.1186865E-007 0.0
  1.0259253E-007 -3.1311863E-007 0.0
  9.8818257E-008 -3.1448694E-007 0.0
  9.5028173E-008 -3.1592234E-007 0.0
  9.1238817E-008 -3.1739051E-007 0.0
  8.7455802E-008 -3.1887401E-007 0.0
  8.3684928E-008 -3.2036614E-007 0.0
  7.9935025E-008 -3.2186383E-007 0.0
  7.6214357E-008 -3.2336282E-007 0.0
  7.2525974E-008 -3.2485711E-007 0.0
  6.8865785E-008 -3.2634014E-007 0.0
  6.5223270E-008 -3.2780622E-007 0.0
  6.1583399E-008 -3.2925068E-007 0.0
  5.7928453E-008 -3.3066971E-007 0.0
  5.4239230E-008 -3.3205981E-007 0.0
  5.0495671E-008 -3.3341779E-007 0.0
  4.6677444E-008 -3.3474119E-007 0.0
  4.2764994E-008 -3.3602892E-007 0.0
  3.8741035E-008 -3.3728167E-007 0.0
  3.4591944E-008 -3.3850168E-007 0.0
  3.0308458E-008 -3.3969203E-007 0.0
  2.5885444E-008 -3.4085588E-007 0.0
  2.1320976E-008 -3.4199600E-007 0.0
  1.6615147E-008 -3.4311452E-007 0.0
  1.1768931E-008 -3.4421298E-007 0.0
  6.7832438E-009 -3.4529236E-007 0.0
  1.6582032E-009 -3.4635294E-007 0.0
 -3.6074012E-009 -3.4739412E-007 0.0
 -9.0163944E-009 -3.4841421E-007 0.0
 -1.4573209E-008 -3.4941037E-007 0.0
 -2.0283639E-008 -3.5037885E-007 0.0
 -2.6154400E-008 -3.5131544E-007 0.0
 -3.2192640E-008 -3.5221591E-007 0.0
 -3.8404006E-008 -3.5307432E-007 0.0
 -4.4781529E-008 -3.5387638E-007 0.0
 -5.1270487E-008 -3.5460169E-007 0.0
 -5.7816861E-008 -3.5528219E-007 0.0
 -6.4458755E-008 -3.5592872E-007 0.0
 -7.1269000E-008 -3.5655049E-007 0.0
 -7.8293394E-008 -3.5711497E-007 0.0
 -8.5537826E-008 -3.5762179E-007 0.0
 -9.2984400E-008 -3.5806957E-007 0.0
 -1.0059854E-007 -3.5847055E-007 0.0
 -1.0834801E-007 -3.5883941E-007 0.0
 -1.1620414E-007 -3.5919016E-007 0.0
 -1.2414297E-007 -3.5953534E-007 0.0
 -1.3214610E-007 -3.5988543E-007 0.0
 -1.4020100E-007 -3.6024828E-007 0.0
 -1.4830074E-007 -3.6062892E-007 0.0
 -1.5644315E-007 -3.6102967E-007 0.0
 -1.6463019E-007 -3.6145087E-007 0.0
 -1.7286761E-007 -3.6189180E-007 0.0
 -1.8116551E-007 -3.6235137E-007 0.0
 -1.8953958E-007 -3.6282840E-007 0.0
 -1.9801306E-007 -3.6332056E-007 0.0
 -2.0661879E-007 -3.6382049E-007 0.0
 -2.1539527E-007 -3.6430748E-007 0.0
 -2.2438499E-007 -3.6473960E-007 0.0
 -2.3358921E-007 -3.6504643E-007 0.0
 -2.4355865E-007 -3.6524693E-007 0.0
 -2.5529845E-007 -3.6495003E-007 0.0
  9.9637010E-008 -3.0651777E-007 0.0
  1.0131899E-007 -3.0788386E-007 0.0
  1.0412869E-007 -3.0884108E-007 0.0
  1.0718424E-007 -3.0940907E-007 0.0
  1.1004524E-007 -3.0978293E-007 0.0
  1.1260311E-007 -3.1000755E-007 0.0
  1.1480942E-007 -3.1010633E-007 0.0
  1.1662953E-007 -3.1009852E-007 0.0
  1.1801985E-007 -3.1000213E-007 0.0
  1.1892638E-007 -3.0983656E-007 0.0
  1.1928936E-007 -3.0962699E-007 0.0
  1.1905288E-007 -3.0940885E-007 0.0
  1.1817877E-007 -3.0922993E-007 0.0
  1.1666234E-007 -3.0914734E-007 0.0
  1.1454356E-007 -3.0921762E-007 0.0
  1.1190645E-007 -3.0948333E-007 0.0
  1.0886420E-007 -3.0996193E-007 0.0
  1.0553609E-007 -3.1064352E-007 0.0
  1.0202656E-007 -3.1149751E-007 0.0
  9.8413678E-008 -3.1248430E-007 0.0
  9.4748187E-008 -3.1356604E-007 0.0
  9.1059709E-008 -3.1471340E-007 0.0
  8.7365366E-008 -3.1590704E-007 0.0
  8.3676638E-008 -3.1713539E-007 0.0
  8.0002367E-008 -3.1839079E-007 0.0
  7.6348329E-008 -3.1966652E-007 0.0
  7.2715617E-008 -3.2095553E-007 0.0
  6.9099695E-008 -3.2225051E-007 0.0
  6.5490734E-008 -3.2354440E-007 0.0
  6.1874780E-008 -3.2483072E-007 0.0
  5.8235155E-008 -3.2610360E-007 0.0
  5.4553670E-008 -3.2735771E-007 0.0
  5.0811576E-008 -3.2858836E-007 0.0
  4.6990424E-008 -3.2979177E-007 0.0
  4.3073017E-008 -3.3096540E-007 0.0
  3.9044411E-008 -3.3210814E-007 0.0
  3.4892767E-008 -3.3322015E-007 0.0
  3.0609755E-008 -3.3430255E-007 0.0
  2.6190402E-008 -3.3535686E-007 0.0
  2.1632453E-008 -3.3638472E-007 0.0
  1.6935445E-008 -3.3738769E-007 0.0
  1.2099671E-008 -3.3836709E-007 0.0
  7.1251861E-009 -3.3932401E-007 0.0
  2.0109340E-009 -3.4025911E-007 0.0
 -3.2458935E-009 -3.4117229E-007 0.0
 -8.6500966E-009 -3.4206245E-007 0.0
 -1.4208210E-008 -3.4292722E-007 0.0
 -1.9927765E-008 -3.4376334E-007 0.0
 -2.5816617E-008 -3.4456775E-007 0.0
 -3.1882401E-008 -3.4533922E-007 0.0
 -3.8133841E-008 -3.4608159E-007 0.0
 -4.4579869E-008 -3.4679992E-007 0.0
 -5.1176339E-008 -3.4747780E-007 0.0
 -5.7685908E-008 -3.4808908E-007 0.0
 -6.4281888E-008 -3.4876080E-007 0.0
 -7.1104742E-008 -3.4931588E-007 0.0
 -7.8137278E-008 -3.4979776E-007 0.0
 -8.5414382E-008 -3.5019434E-007 0.0
 -9.2884811E-008 -3.5052999E-007 0.0
 -1.0050755E-007 -3.5082424E-007 0.0
 -1.0824734E-007 -3.5109176E-007 0.0
 -1.1607451E-007 -3.5134577E-007 0.0
 -1.2396566E-007 -3.5159818E-007 0.0
 -1.3190438E-007 -3.5185966E-007 0.0
 -1.3988150E-007 -3.5213856E-007 0.0
 -1.4789407E-007 -3.5244007E-007 0.0
 -1.5594354E-007 -3.5276619E-007 0.0
 -1.6403433E-007 -3.5311655E-007 0.0
 -1.7217337E-007 -3.5348971E-007 0.0
 -1.8037084E-007 -3.5388441E-007 0.0
 -1.8864216E-007 -3.5430069E-007 0.0
 -1.9701137E-007 -3.5474024E-007 0.0
 -2.0551653E-007 -3.5520538E-007 0.0
 -2.1421505E-007 -3.5568997E-007 0.0
 -2.2315503E-007 -3.5616236E-007 0.0
 -2.3235050E-007 -3.5658380E-007 0.0
 -2.4116982E-007 -3.5728667E-007 0.0
  1.0314759E-007 -3.0703252E-007 0.0
  1.0425346E-007 -3.0824935E-007 0.0
  1.0637655E-007 -3.0928007E-007 0.0
  1.0877582E-007 -3.1006087E-007 0.0
  1.1105521E-007 -3.1054998E-007 0.0
  1.1308223E-007 -3.1079025E-007 0.0
  1.1481388E-007 -3.1083514E-007 0.0
  1.1621129E-007 -3.1073098E-007 0.0
  1.1722953E-007 -3.1051322E-007 0.0
  1.1781857E-007 -3.1021267E-007 0.0
  1.1792813E-007 -3.0986106E-007 0.0
  1.1751541E-007 -3.0949523E-007 0.0
  1.1655451E-007 -3.0915849E-007 0.0
  1.1504568E-007 -3.0889814E-007 0.0
  1.1302079E-007 -3.0875929E-007 0.0
  1.1054189E-007 -3.0877673E-007 0.0
  1.0769200E-007 -3.0896856E-007 0.0
  1.0456132E-007 -3.0933427E-007 0.0
  1.0123388E-007 -3.0985808E-007 0.0
  9.7778694E-008 -3.1051551E-007 0.0
  9.4246893E-008 -3.1128040E-007 0.0
  9.0673616E-008 -3.1212985E-007 0.0
  8.7082130E-008 -3.1304637E-007 0.0
  8.3487788E-008 -3.1401742E-007 0.0
  7.9900391E-008 -3.1503366E-007 0.0
  7.6324862E-008 -3.1608715E-007 0.0
  7.2761072E-008 -3.1717019E-007 0.0
  6.9203761E-008 -3.1827503E-007 0.0
  6.5643011E-008 -3.1939386E-007 0.0
  6.2065225E-008 -3.2051906E-007 0.0
  5.8454341E-008 -3.2164326E-007 0.0
  5.4793027E-008 -3.2275956E-007 0.0
  5.1063725E-008 -3.2386169E-007 0.0
  4.7249578E-008 -3.2494427E-007 0.0
  4.3335267E-008 -3.2600307E-007 0.0
  3.9307742E-008 -3.2703510E-007 0.0
  3.5156764E-008 -3.2803859E-007 0.0
  3.0875131E-008 -3.2901274E-007 0.0
  2.6458519E-008 -3.2995747E-007 0.0
  2.1904971E-008 -3.3087315E-007 0.0
  1.7214088E-008 -3.3176048E-007 0.0
  1.2386054E-008 -3.3262040E-007 0.0
  7.4205541E-009 -3.3345394E-007 0.0
  2.3157307E-009 -3.3426205E-007 0.0
 -2.9326699E-009 -3.3504514E-007 0.0
 -8.3316442E-009 -3.3580245E-007 0.0
 -1.3890354E-008 -3.3653139E-007 0.0
 -1.9618720E-008 -3.3722762E-007 0.0
 -2.5525483E-008 -3.3788588E-007 0.0
 -3.1618226E-008 -3.3850296E-007 0.0
 -3.7902347E-008 -3.3907957E-007 0.0
 -4.4393445E-008 -3.3963655E-007 0.0
 -5.1124245E-008 -3.4020601E-007 0.0
 -5.7406275E-008 -3.4121635E-007 0.0
 -6.4066073E-008 -3.4186380E-007 0.0
 -7.0956797E-008 -3.4239154E-007 0.0
 -7.8015862E-008 -3.4265036E-007 0.0
 -8.5326457E-008 -3.4287642E-007 0.0
 -9.2821899E-008 -3.4307802E-007 0.0
 -1.0045543E-007 -3.4325970E-007 0.0
 -1.0818870E-007 -3.4342921E-007 0.0
 -1.1599016E-007 -3.4359362E-007 0.0
 -1.2383523E-007 -3.4376244E-007 0.0
 -1.3170864E-007 -3.4394579E-007 0.0
 -1.3960491E-007 -3.4415240E-007 0.0
 -1.4752623E-007 -3.4438726E-007 0.0
 -1.5547858E-007 -3.4465135E-007 0.0
 -1.6346910E-007 -3.4494279E-007 0.0
 -1.7150544E-007 -3.4525879E-007 0.0
 -1.7959676E-007 -3.4559735E-007 0.0
 -1.8775582E-007 -3.4595901E-007 0.0
 -1.9600291E-007 -3.4634941E-007 0.0
 -2.0437226E-007 -3.4678247E-007 0.0
 -2.1292707E-007 -3.4728748E-007 0.0
 -2.2177019E-007 -3.4788516E-007 0.0
 -2.3084527E-007 -3.4855605E-007 0.0
 -2.3954358E-007 -3.4913894E-007 0.0
  1.0588118E-007 -3.0717978E-007 0.0
  1.0687044E-007 -3.0820463E-007 0.0
  1.0869701E-007 -3.0932350E-007 0.0
  1.1051696E-007 -3.1022205E-007 0.0
  1.1216464E-007 -3.1075752E-007 0.0
  1.1362567E-007 -3.1097979E-007 0.0
  1.1486551E-007 -3.1097211E-007 0.0
  1.1583636E-007 -3.1079349E-007 0.0
  1.1648778E-007 -3.1048813E-007 0.0
  1.1676936E-007 -3.1009224E-007 0.0
  1.1663521E-007 -3.0963994E-007 0.0
  1.1604940E-007 -3.0916698E-007 0.0
  1.1499193E-007 -3.0871191E-007 0.0
  1.1346395E-007 -3.0831443E-007 0.0
  1.1149027E-007 -3.0801150E-007 0.0
  1.0911774E-007 -3.0783242E-007 0.0
  1.0640912E-007 -3.0779498E-007 0.0
  1.0343441E-007 -3.0790407E-007 0.0
  1.0026186E-007 -3.0815334E-007 0.0
  9.6951386E-008 -3.0852899E-007 0.0
  9.3551248E-008 -3.0901419E-007 0.0
  9.0097736E-008 -3.0959259E-007 0.0
  8.6616690E-008 -3.1025031E-007 0.0
  8.3125493E-008 -3.1097631E-007 0.0
  7.9634615E-008 -3.1176165E-007 0.0
  7.6148491E-008 -3.1259854E-007 0.0
  7.2665977E-008 -3.1347941E-007 0.0
  6.9180819E-008 -3.1439654E-007 0.0
  6.5682406E-008 -3.1534181E-007 0.0
  6.2156825E-008 -3.1630685E-007 0.0
  5.8588076E-008 -3.1728318E-007 0.0
  5.4959287E-008 -3.1826248E-007 0.0
  5.1253789E-008 -3.1923688E-007 0.0
  4.7456017E-008 -3.2019934E-007 0.0
  4.3552223E-008 -3.2114383E-007 0.0
  3.9531013E-008 -3.2206556E-007 0.0
  3.5383676E-008 -3.2296088E-007 0.0
  3.1104287E-008 -3.2382724E-007 0.0
  2.6689529E-008 -3.2466294E-007 0.0
  2.2138239E-008 -3.2546705E-007 0.0
  1.7450665E-008 -3.2623929E-007 0.0
  1.2627479E-008 -3.2697997E-007 0.0
  7.6685943E-009 -3.2768995E-007 0.0
  2.5718669E-009 -3.2837038E-007 0.0
 -2.6681819E-009 -3.2902218E-007 0.0
 -8.0611354E-009 -3.2964500E-007 0.0
 -1.3620196E-008 -3.3023575E-007 0.0
 -1.9359288E-008 -3.3078729E-007 0.0
 -2.5290066E-008 -3.3128964E-007 0.0
 -3.1419237E-008 -3.3173014E-007 0.0
 -3.7757780E-008 -3.3209666E-007 0.0
 -4.4313060E-008 -3.3235260E-007 0.0
 -5.1270760E-008 -3.3239776E-007 0.0
 -7.0951236E-008 -3.3558994E-007 0.0
 -7.7963486E-008 -3.3553584E-007 0.0
 -8.5292063E-008 -3.3558273E-007 0.0
 -9.2801526E-008 -3.3564794E-007 0.0
 -1.0044107E-007 -3.3573141E-007 0.0
 -1.0817014E-007 -3.3581901E-007 0.0
 -1.1594854E-007 -3.3591035E-007 0.0
 -1.2374870E-007 -3.3601129E-007 0.0
 -1.3155429E-007 -3.3613181E-007 0.0
 -1.3936429E-007 -3.3628169E-007 0.0
 -1.4718853E-007 -3.3646628E-007 0.0
 -1.5503915E-007 -3.3668449E-007 0.0
 -1.6292590E-007 -3.3693229E-007 0.0
 -1.7085655E-007 -3.3720531E-007 0.0
 -1.7883838E-007 -3.3750009E-007 0.0
 -1.8687989E-007 -3.3781574E-007 0.0
 -1.9499312E-007 -3.3815680E-007 0.0
 -2.0320116E-007 -3.3853948E-007 0.0
 -2.1154549E-007 -3.3899802E-007 0.0
 -2.2015815E-007 -3.3962577E-007 0.0
 -2.2930278E-007 -3.4039576E-007 0.0
 -2.3858883E-007 -3.4095828E-007 0.0
  1.0758056E-007 -3.0719057E-007 0.0
  1.0936185E-007 -3.0811405E-007 0.0
  1.1110902E-007 -3.0928330E-007 0.0
  1.1229470E-007 -3.1010078E-007 0.0
  1.1329456E-007 -3.1051935E-007 0.0
  1.1419553E-007 -3.1066003E-007 0.0
  1.1495061E-007 -3.1058435E-007 0.0
  1.1550501E-007 -3.1034269E-007 0.0
  1.1580122E-007 -3.0997514E-007 0.0
  1.1578652E-007 -3.0951596E-007 0.0
  1.1541635E-007 -3.0899725E-007 0.0
  1.1465789E-007 -3.0845150E-007 0.0
  1.1349350E-007 -3.0791222E-007 0.0
  1.1192340E-007 -3.0741284E-007 0.0
  1.0996656E-007 -3.0698418E-007 0.0
  1.0765901E-007 -3.0665141E-007 0.0
  1.0504955E-007 -3.0643155E-007 0.0
  1.0219385E-007 -3.0633257E-007 0.0
  9.9148233E-008 -3.0635420E-007 0.0
  9.5964581E-008 -3.0649016E-007 0.0
  9.2687119E-008 -3.0673088E-007 0.0
  8.9351067E-008 -3.0706603E-007 0.0
  8.5982667E-008 -3.0748604E-007 0.0
  8.2599860E-008 -3.0798272E-007 0.0
  7.9213101E-008 -3.0854901E-007 0.0
  7.5826074E-008 -3.0917841E-007 0.0
  7.2436374E-008 -3.0986432E-007 0.0
  6.9036301E-008 -3.1059955E-007 0.0
  6.5613904E-008 -3.1137609E-007 0.0
  6.2154231E-008 -3.1218511E-007 0.0
  5.8640698E-008 -3.1301718E-007 0.0
  5.5056382E-008 -3.1386264E-007 0.0
  5.1385132E-008 -3.1471204E-007 0.0
  4.7612408E-008 -3.1555662E-007 0.0
  4.3725848E-008 -3.1638863E-007 0.0
  3.9715604E-008 -3.1720154E-007 0.0
  3.5574493E-008 -3.1799003E-007 0.0
  3.1297991E-008 -3.1874993E-007 0.0
  2.6884053E-008 -3.1947806E-007 0.0
  2.2332714E-008 -3.2017216E-007 0.0
  1.7645396E-008 -3.2083086E-007 0.0
  1.2823892E-008 -3.2145376E-007 0.0
  7.8690096E-009 -3.2204135E-007 0.0
  2.7789861E-009 -3.2259482E-007 0.0
 -2.4522501E-009 -3.2311563E-007 0.0
 -7.8371457E-009 -3.2360447E-007 0.0
 -1.3394830E-008 -3.2405820E-007 0.0
 -1.9147589E-008 -3.2446704E-007 0.0
 -2.5110644E-008 -3.2481301E-007 0.0
 -3.1294248E-008 -3.2507908E-007 0.0
 -3.7701948E-008 -3.2523864E-007 0.0
 -4.4395173E-008 -3.2527213E-007 0.0
 -8.5297629E-008 -3.2816642E-007 0.0
 -9.2801800E-008 -3.2816185E-007 0.0
 -1.0045028E-007 -3.2818661E-007 0.0
 -1.0818100E-007 -3.2822517E-007 0.0
 -1.1593998E-007 -3.2827327E-007 0.0
 -1.2370073E-007 -3.2833182E-007 0.0
 -1.3143510E-007 -3.2840825E-007 0.0
 -1.3914947E-007 -3.2852195E-007 0.0
 -1.4686950E-007 -3.2867653E-007 0.0
 -1.5461388E-007 -3.2886737E-007 0.0
 -1.6239387E-007 -3.2908910E-007 0.0
 -1.7021683E-007 -3.2933639E-007 0.0
 -1.7808803E-007 -3.2960450E-007 0.0
 -1.8601154E-007 -3.2988987E-007 0.0
 -1.9399150E-007 -3.3019173E-007 0.0
 -2.0203281E-007 -3.3051500E-007 0.0
 -2.1016769E-007 -3.3087727E-007 0.0
 -2.1844744E-007 -3.3127234E-007 0.0
 -2.2764279E-007 -3.3171004E-007 0.0
 -2.3870298E-007 -3.3147756E-007 0.0
  1.0747082E-007 -3.0912463E-007 0.0
  1.1193434E-007 -3.0868913E-007 0.0
  1.1348385E-007 -3.0920790E-007 0.0
  1.1394631E-007 -3.0958796E-007 0.0
  1.1437459E-007 -3.0981593E-007 0.0
  1.1475275E-007 -3.0984840E-007 0.0
  1.1505350E-007 -3.0970527E-007 0.0
  1.1521418E-007 -3.0941657E-007 0.0
  1.1517295E-007 -3.0901160E-007 0.0
  1.1487485E-007 -3.0851806E-007 0.0
  1.1427563E-007 -3.0796323E-007 0.0
  1.1334382E-007 -3.0737495E-007 0.0
  1.1206247E-007 -3.0678169E-007 0.0
  1.1043031E-007 -3.0621153E-007 0.0
  1.0846167E-007 -3.0569046E-007 0.0
  1.0618481E-007 -3.0524029E-007 0.0
  1.0363875E-007 -3.0487711E-007 0.0
  1.0086896E-007 -3.0461058E-007 0.0
  9.7922837E-008 -3.0444436E-007 0.0
  9.4845682E-008 -3.0437747E-007 0.0
  9.1677688E-008 -3.0440604E-007 0.0
  8.8452130E-008 -3.0452498E-007 0.0
  8.5194500E-008 -3.0472917E-007 0.0
  8.1922320E-008 -3.0501399E-007 0.0
  7.8645330E-008 -3.0537522E-007 0.0
  7.5365943E-008 -3.0580858E-007 0.0
  7.2079945E-008 -3.0630915E-007 0.0
  6.8777514E-008 -3.0687084E-007 0.0
  6.5444546E-008 -3.0748605E-007 0.0
  6.2064212E-008 -3.0814569E-007 0.0
  5.8618583E-008 -3.0883944E-007 0.0
  5.5090108E-008 -3.0955627E-007 0.0
  5.1462787E-008 -3.1028509E-007 0.0
  4.7722920E-008 -3.1101542E-007 0.0
  4.3859476E-008 -3.1173784E-007 0.0
  3.9864170E-008 -3.1244432E-007 0.0
  3.5731398E-008 -3.1312813E-007 0.0
  3.1458132E-008 -3.1378376E-007 0.0
  2.7043775E-008 -3.1440672E-007 0.0
  2.2489863E-008 -3.1499349E-007 0.0
  1.7799468E-008 -3.1554161E-007 0.0
  1.2976159E-008 -3.1604985E-007 0.0
  8.0224416E-009 -3.1651825E-007 0.0
  2.9376579E-009 -3.1694803E-007 0.0
 -2.2840855E-009 -3.1734068E-007 0.0
 -7.6564351E-009 -3.1769786E-007 0.0
 -1.3206815E-008 -3.1801992E-007 0.0
 -1.8972372E-008 -3.1829407E-007 0.0
 -2.4980782E-008 -3.1849619E-007 0.0
 -3.1222508E-008 -3.1859641E-007 0.0
 -3.7731271E-008 -3.1858966E-007 0.0
 -9.2807500E-008 -3.2055866E-007 0.0
 -1.0044786E-007 -3.2056012E-007 0.0
 -1.0819726E-007 -3.2061577E-007 0.0
 -1.1594371E-007 -3.2067335E-007 0.0
 -1.2369023E-007 -3.2071278E-007 0.0
 -1.3134011E-007 -3.2077346E-007 0.0
 -1.3894678E-007 -3.2087785E-007 0.0
 -1.4655629E-007 -3.2102246E-007 0.0
 -1.5419042E-007 -3.2120382E-007 0.0
 -1.6186093E-007 -3.2141674E-007 0.0
 -1.6957404E-007 -3.2165690E-007 0.0
 -1.7733351E-007 -3.2191968E-007 0.0
 -1.8514049E-007 -3.2220001E-007 0.0
 -1.9299192E-007 -3.2249291E-007 0.0
 -2.0088217E-007 -3.2279570E-007 0.0
 -2.0879039E-007 -3.2311665E-007 0.0
 -2.1680379E-007 -3.2353297E-007 0.0
 -2.2463328E-007 -3.2441459E-007 0.0
  1.1638247E-007 -3.0677199E-007 0.0
  1.1562731E-007 -3.0798577E-007 0.0
  1.1552372E-007 -3.0839572E-007 0.0
  1.1538538E-007 -3.0855627E-007 0.0
  1.1528717E-007 -3.0852832E-007 0.0
  1.1516977E-007 -3.0834917E-007 0.0
  1.1496521E-007 -3.0804224E-007 0.0
  1.1460704E-007 -3.0762869E-007 0.0
  1.1403898E-007 -3.0712954E-007 0.0
  1.1321705E-007 -3.0656674E-007 0.0
  1.1211053E-007 -3.0596339E-007 0.0
  1.1070269E-007 -3.0534330E-007 0.0
  1.0899082E-007 -3.0473010E-007 0.0
  1.0698575E-007 -3.0414583E-007 0.0
  1.0471021E-007 -3.0360958E-007 0.0
  1.0219633E-007 -3.0313635E-007 0.0
  9.9482367E-008 -3.0273666E-007 0.0
  9.6609224E-008 -3.0241670E-007 0.0
  9.3617123E-008 -3.0217926E-007 0.0
  9.0542852E-008 -3.0202489E-007 0.0
  8.7417683E-008 -3.0195304E-007 0.0
  8.4265966E-008 -3.0196292E-007 0.0
  8.1104291E-008 -3.0205382E-007 0.0
  7.7941153E-008 -3.0222499E-007 0.0
  7.4777091E-008 -3.0247511E-007 0.0
  7.1605355E-008 -3.0280159E-007 0.0
  6.8413087E-008 -3.0319989E-007 0.0
  6.5182997E-008 -3.0366315E-007 0.0
  6.1895336E-008 -3.0418209E-007 0.0
  5.8529934E-008 -3.0474540E-007 0.0
  5.5067978E-008 -3.0534051E-007 0.0
  5.1493298E-008 -3.0595452E-007 0.0
  4.7793005E-008 -3.0657519E-007 0.0
  4.3957539E-008 -3.0719160E-007 0.0
  3.9980356E-008 -3.0779450E-007 0.0
  3.5857546E-008 -3.0837622E-007 0.0
  3.1587618E-008 -3.0893030E-007 0.0
  2.7171466E-008 -3.0945128E-007 0.0
  2.2612313E-008 -3.0993455E-007 0.0
  1.7915290E-008 -3.1037661E-007 0.0
  1.3086421E-008 -3.1077534E-007 0.0
  8.1308807E-009 -3.1113037E-007 0.0
  3.0503701E-009 -3.1144314E-007 0.0
 -2.1607852E-009 -3.1171603E-007 0.0
 -7.5166882E-009 -3.1194838E-007 0.0
 -1.3043984E-008 -3.1214142E-007 0.0
 -1.8814109E-008 -3.1229715E-007 0.0
 -2.4881988E-008 -3.1236452E-007 0.0
 -3.1211143E-008 -3.1232212E-007 0.0
 -1.0822724E-007 -3.1301530E-007 0.0
 -1.1591487E-007 -3.1303181E-007 0.0
 -1.2371052E-007 -3.1317235E-007 0.0
 -1.3125454E-007 -3.1325816E-007 0.0
 -1.3874507E-007 -3.1336572E-007 0.0
 -1.4623733E-007 -3.1351404E-007 0.0
 -1.5375835E-007 -3.1369769E-007 0.0
 -1.6131564E-007 -3.1391547E-007 0.0
 -1.6891492E-007 -3.1416562E-007 0.0
 -1.7655924E-007 -3.1444502E-007 0.0
 -1.8424758E-007 -3.1474983E-007 0.0
 -1.9197292E-007 -3.1507614E-007 0.0
 -1.9971323E-007 -3.1542169E-007 0.0
 -2.0742966E-007 -3.1579409E-007 0.0
 -2.1491602E-007 -3.1627079E-007 0.0
 -2.2211249E-007 -3.1710367E-007 0.0
  1.1971728E-007 -3.0491485E-007 0.0
  1.1809394E-007 -3.0593561E-007 0.0
  1.1706526E-007 -3.0654140E-007 0.0
  1.1636200E-007 -3.0672402E-007 0.0
  1.1581162E-007 -3.0670277E-007 0.0
  1.1530915E-007 -3.0653536E-007 0.0
  1.1476610E-007 -3.0624798E-007 0.0
  1.1411043E-007 -3.0585787E-007 0.0
  1.1328460E-007 -3.0538164E-007 0.0
  1.1224505E-007 -3.0483713E-007 0.0
  1.1096183E-007 -3.0424356E-007 0.0
  1.0941830E-007 -3.0362095E-007 0.0
  1.0761076E-007 -3.0298932E-007 0.0
  1.0554748E-007 -3.0236757E-007 0.0
  1.0324734E-007 -3.0177247E-007 0.0
  1.0073770E-007 -3.0121796E-007 0.0
  9.8051813E-008 -3.0071478E-007 0.0
  9.5226055E-008 -3.0027071E-007 0.0
  9.2297062E-008 -2.9989121E-007 0.0
  8.9299156E-008 -2.9958024E-007 0.0
  8.6262102E-008 -2.9934112E-007 0.0
  8.3209263E-008 -2.9917716E-007 0.0
  8.0156221E-008 -2.9909175E-007 0.0
  7.7109920E-008 -2.9908808E-007 0.0
  7.4068463E-008 -2.9916838E-007 0.0
  7.1021688E-008 -2.9933298E-007 0.0
  6.7952550E-008 -2.9957937E-007 0.0
  6.4839245E-008 -2.9990158E-007 0.0
  6.1657782E-008 -3.0029012E-007 0.0
  5.8384645E-008 -3.0073246E-007 0.0
  5.4999058E-008 -3.0121410E-007 0.0
  5.1484471E-008 -3.0172002E-007 0.0
  4.7829024E-008 -3.0223609E-007 0.0
  4.4025091E-008 -3.0275008E-007 0.0
  4.0068304E-008 -3.0325204E-007 0.0
  3.5956642E-008 -3.0373399E-007 0.0
  3.1690079E-008 -3.0418924E-007 0.0
  2.7270836E-008 -3.0461179E-007 0.0
  2.2703823E-008 -3.0499624E-007 0.0
  1.7996582E-008 -3.0533815E-007 0.0
  1.3158320E-008 -3.0563467E-007 0.0
  8.1979661E-009 -3.0588510E-007 0.0
  3.1213609E-009 -3.0609124E-007 0.0
 -2.0736889E-009 -3.0625830E-007 0.0
 -7.4083515E-009 -3.0639136E-007 0.0
 -1.2906684E-008 -3.0647251E-007 0.0
 -1.8632207E-008 -3.0648770E-007 0.0
 -2.4847630E-008 -3.0641447E-007 0.0
 -1.2376728E-007 -3.0587508E-007 0.0
 -1.3119443E-007 -3.0590908E-007 0.0
 -1.3853587E-007 -3.0601229E-007 0.0
 -1.4590888E-007 -3.0615976E-007 0.0
 -1.5331127E-007 -3.0634816E-007 0.0
 -1.6074886E-007 -3.0657955E-007 0.0
 -1.6822774E-007 -3.0685287E-007 0.0
 -1.7575030E-007 -3.0716624E-007 0.0
 -1.8331345E-007 -3.0751886E-007 0.0
 -1.9090527E-007 -3.0791253E-007 0.0
 -1.9849926E-007 -3.0835213E-007 0.0
 -2.0601512E-007 -3.0884738E-007 0.0
 -2.1329889E-007 -3.0937280E-007 0.0
 -2.1954389E-007 -3.0988374E-007 0.0
  1.2266044E-007 -3.0274565E-007 0.0
  1.2036267E-007 -3.0373975E-007 0.0
  1.1854562E-007 -3.0417438E-007 0.0
  1.1731144E-007 -3.0438349E-007 0.0
  1.1634582E-007 -3.0441304E-007 0.0
  1.1548744E-007 -3.0430277E-007 0.0
  1.1462878E-007 -3.0407209E-007 0.0
  1.1369181E-007 -3.0373589E-007 0.0
  1.1261796E-007 -3.0330855E-007 0.0
  1.1136426E-007 -3.0280551E-007 0.0
  1.0990152E-007 -3.0224336E-007 0.0
  1.0821338E-007 -3.0163937E-007 0.0
  1.0629544E-007 -3.0101078E-007 0.0
  1.0415429E-007 -3.0037398E-007 0.0
  1.0180617E-007 -2.9974384E-007 0.0
  9.9275226E-008 -2.9913314E-007 0.0
  9.6591430E-008 -2.9855249E-007 0.0
  9.3788234E-008 -2.9801050E-007 0.0
  9.0900104E-008 -2.9751439E-007 0.0
  8.7960041E-008 -2.9707071E-007 0.0
  8.4997172E-008 -2.9668606E-007 0.0
  8.2034496E-008 -2.9636752E-007 0.0
  7.9086924E-008 -2.9612269E-007 0.0
  7.6159823E-008 -2.9595912E-007 0.0
  7.3248377E-008 -2.9588316E-007 0.0
  7.0338011E-008 -2.9589865E-007 0.0
  6.7406050E-008 -2.9600551E-007 0.0
  6.4424451E-008 -2.9619882E-007 0.0
  6.1363271E-008 -2.9646866E-007 0.0
  5.8194244E-008 -2.9680079E-007 0.0
  5.4893832E-008 -2.9717820E-007 0.0
  5.1445058E-008 -2.9758319E-007 0.0
  4.7837719E-008 -2.9799950E-007 0.0
  4.4067108E-008 -2.9841381E-007 0.0
  4.0131890E-008 -2.9881622E-007 0.0
  3.6032264E-008 -2.9919951E-007 0.0
  3.1769365E-008 -2.9955773E-007 0.0
  2.7346176E-008 -2.9988502E-007 0.0
  2.2769019E-008 -3.0017548E-007 0.0
  1.8048191E-008 -3.0042397E-007 0.0
  1.3196937E-008 -3.0062728E-007 0.0
  8.2291338E-009 -3.0078476E-007 0.0
  3.1562461E-009 -3.0089876E-007 0.0
 -2.0155038E-009 -3.0097541E-007 0.0
 -7.2975754E-009 -3.0103487E-007 0.0
 -1.2762699E-008 -3.0110644E-007 0.0
 -1.8291122E-008 -3.0122179E-007 0.0
 -1.3114566E-007 -2.9876363E-007 0.0
 -1.3832980E-007 -2.9882032E-007 0.0
 -1.4557323E-007 -2.9895129E-007 0.0
 -1.5284564E-007 -2.9914511E-007 0.0
 -1.6015388E-007 -2.9939681E-007 0.0
 -1.6750426E-007 -2.9970198E-007 0.0
 -1.7489759E-007 -3.0005838E-007 0.0
 -1.8232741E-007 -3.0046744E-007 0.0
 -1.8977753E-007 -3.0093622E-007 0.0
 -1.9721451E-007 -3.0148009E-007 0.0
 -2.0457805E-007 -3.0211515E-007 0.0
 -2.1169679E-007 -3.0286016E-007 0.0
 -2.1825472E-007 -3.0357957E-007 0.0
 -2.2440973E-007 -3.0398143E-007 0.0
 -2.2424391E-007 -3.0978581E-007 0.0
  1.2577942E-007 -3.0063853E-007 0.0
  1.2208524E-007 -3.0100483E-007 0.0
  1.1988419E-007 -3.0135210E-007 0.0
  1.1823295E-007 -3.0161070E-007 0.0
  1.1690406E-007 -3.0173007E-007 0.0
  1.1571896E-007 -3.0171078E-007 0.0
  1.1456410E-007 -3.0156514E-007 0.0
  1.1335877E-007 -3.0130637E-007 0.0
  1.1204428E-007 -3.0094817E-007 0.0
  1.1057841E-007 -3.0050491E-007 0.0
  1.0893278E-007 -2.9999162E-007 0.0
  1.0709137E-007 -2.9942365E-007 0.0
  1.0504944E-007 -2.9881618E-007 0.0
  1.0281247E-007 -2.9818363E-007 0.0
  1.0039498E-007 -2.9753915E-007 0.0
  9.7819084E-008 -2.9689439E-007 0.0
  9.5112747E-008 -2.9625942E-007 0.0
  9.2307865E-008 -2.9564308E-007 0.0
  8.9438055E-008 -2.9505359E-007 0.0
  8.6536261E-008 -2.9449928E-007 0.0
  8.3632164E-008 -2.9398939E-007 0.0
  8.0749455E-008 -2.9353448E-007 0.0
  7.7903168E-008 -2.9314640E-007 0.0
  7.5097418E-008 -2.9283743E-007 0.0
  7.2324101E-008 -2.9261874E-007 0.0
  6.9563085E-008 -2.9249827E-007 0.0
  6.6784208E-008 -2.9247879E-007 0.0
  6.3950945E-008 -2.9255643E-007 0.0
  6.1025134E-008 -2.9272047E-007 0.0
  5.7971941E-008 -2.9295421E-007 0.0
  5.4764100E-008 -2.9323720E-007 0.0
  5.1384387E-008 -2.9354824E-007 0.0
  4.7825511E-008 -2.9386852E-007 0.0
  4.4087489E-008 -2.9418394E-007 0.0
  4.0173627E-008 -2.9448567E-007 0.0
  3.6086893E-008 -2.9476885E-007 0.0
  3.1828829E-008 -2.9502972E-007 0.0
  2.7401791E-008 -2.9526346E-007 0.0
  2.2812799E-008 -2.9546382E-007 0.0
  1.8075404E-008 -2.9562522E-007 0.0
  1.3208229E-008 -2.9574463E-007 0.0
  8.2313727E-009 -2.9582279E-007 0.0
  3.1631893E-009 -2.9586352E-007 0.0
 -1.9825610E-009 -2.9587329E-007 0.0
 -7.1900788E-009 -2.9585856E-007 0.0
 -1.2523572E-008 -2.9585514E-007 0.0
 -1.8261153E-008 -2.9576988E-007 0.0
 -1.3105191E-007 -2.9165916E-007 0.0
 -1.3812903E-007 -2.9172904E-007 0.0
 -1.4522753E-007 -2.9186061E-007 0.0
 -1.5235576E-007 -2.9207187E-007 0.0
 -1.5952502E-007 -2.9235238E-007 0.0
 -1.6674020E-007 -2.9269462E-007 0.0
 -1.7399968E-007 -2.9309489E-007 0.0
 -1.8129344E-007 -2.9355373E-007 0.0
 -1.8860048E-007 -2.9407762E-007 0.0
 -1.9588630E-007 -2.9468026E-007 0.0
 -2.0310206E-007 -2.9538432E-007 0.0
 -2.1019671E-007 -2.9616592E-007 0.0
 -2.1715075E-007 -2.9685424E-007 0.0
 -2.2401395E-007 -2.9722201E-007 0.0
  1.3596987E-007 -3.0090543E-007 0.0
  1.3597836E-007 -2.9672212E-007 0.0
  1.3170600E-007 -2.9665441E-007 0.0
  1.3173855E-007 -3.0091257E-007 0.0
  1.2719963E-007 -2.9696099E-007 0.0
  1.2364230E-007 -2.9756947E-007 0.0
  1.2109750E-007 -2.9812671E-007 0.0
  1.1913972E-007 -2.9851159E-007 0.0
  1.1749477E-007 -2.9874552E-007 0.0
  1.1601107E-007 -2.9883344E-007 0.0
  1.1457755E-007 -2.9878652E-007 0.0
  1.1311508E-007 -2.9861779E-007 0.0
  1.1156603E-007 -2.9834076E-007 0.0
  1.0988927E-007 -2.9796920E-007 0.0
  1.0805732E-007 -2.9751708E-007 0.0
  1.0605461E-007 -2.9699831E-007 0.0
  1.0387629E-007 -2.9642645E-007 0.0
  1.0152718E-007 -2.9581424E-007 0.0
  9.9020737E-008 -2.9517332E-007 0.0
  9.6377856E-008 -2.9451410E-007 0.0
  9.3625504E-008 -2.9384578E-007 0.0
  9.0795117E-008 -2.9317685E-007 0.0
  8.7920686E-008 -2.9251576E-007 0.0
  8.5036451E-008 -2.9187185E-007 0.0
  8.2174127E-008 -2.9125626E-007 0.0
  7.9359627E-008 -2.9068261E-007 0.0
  7.6609467E-008 -2.9016699E-007 0.0
  7.3927318E-008 -2.8972691E-007 0.0
  7.1301616E-008 -2.8937912E-007 0.0
  6.8705276E-008 -2.8913645E-007 0.0
  6.6098204E-008 -2.8900485E-007 0.0
  6.3432395E-008 -2.8898129E-007 0.0
  6.0658505E-008 -2.8905352E-007 0.0
  5.7732728E-008 -2.8920132E-007 0.0
  5.4622855E-008 -2.8939962E-007 0.0
  5.1311914E-008 -2.8962261E-007 0.0
  4.7797635E-008 -2.8984849E-007 0.0
  4.4087803E-008 -2.9006261E-007 0.0
  4.0193152E-008 -2.9025859E-007 0.0
  3.6120614E-008 -2.9043595E-007 0.0
  3.1870412E-008 -2.9059562E-007 0.0
  2.7441251E-008 -2.9073443E-007 0.0
  2.2839358E-008 -2.9084611E-007 0.0
  1.8082612E-008 -2.9092414E-007 0.0
  1.3197421E-008 -2.9096708E-007 0.0
  8.2122236E-009 -2.9097858E-007 0.0
  3.1523469E-009 -2.9096720E-007 0.0
 -1.9580769E-009 -2.9094492E-007 0.0
 -7.0963213E-009 -2.9093357E-007 0.0
 -1.2115287E-008 -2.9101710E-007 0.0
 -1.3094745E-007 -2.8463341E-007 0.0
 -1.3791609E-007 -2.8470211E-007 0.0
 -1.4485593E-007 -2.8486929E-007 0.0
 -1.5183202E-007 -2.8511701E-007 0.0
 -1.5885676E-007 -2.8543525E-007 0.0
 -1.6593398E-007 -2.8581708E-007 0.0
 -1.7306052E-007 -2.8625738E-007 0.0
 -1.8022460E-007 -2.8675257E-007 0.0
 -1.8740340E-007 -2.8730063E-007 0.0
 -1.9456358E-007 -2.8790150E-007 0.0
 -2.0166862E-007 -2.8855189E-007 0.0
 -2.0876659E-007 -2.8925524E-007 0.0
 -2.1609661E-007 -2.8991346E-007 0.0
 -2.2361447E-007 -2.9028702E-007 0.0
  1.3968171E-007 -2.9671994E-007 0.0
  1.3967457E-007 -2.9306004E-007 0.0
  1.3601436E-007 -2.9305584E-007 0.0
  1.3214023E-007 -2.9318038E-007 0.0
  1.2830711E-007 -2.9355204E-007 0.0
  1.2496137E-007 -2.9413854E-007 0.0
  1.2225083E-007 -2.9474153E-007 0.0
  1.2003187E-007 -2.9522724E-007 0.0
  1.1811564E-007 -2.9556131E-007 0.0
  1.1636087E-007 -2.9574839E-007 0.0
  1.1466702E-007 -2.9579714E-007 0.0
  1.1295902E-007 -2.9571890E-007 0.0
  1.1118177E-007 -2.9552600E-007 0.0
  1.0929582E-007 -2.9523108E-007 0.0
  1.0727485E-007 -2.9484689E-007 0.0
  1.0510392E-007 -2.9438600E-007 0.0
  1.0277831E-007 -2.9386047E-007 0.0
  1.0030250E-007 -2.9328156E-007 0.0
  9.7689331E-008 -2.9265946E-007 0.0
  9.4959059E-008 -2.9200320E-007 0.0
  9.2138344E-008 -2.9132084E-007 0.0
  8.9259030E-008 -2.9061995E-007 0.0
  8.6356558E-008 -2.8990846E-007 0.0
  8.3467849E-008 -2.8919579E-007 0.0
  8.0628398E-008 -2.8849417E-007 0.0
  7.7868421E-008 -2.8781965E-007 0.0
  7.5208039E-008 -2.8719245E-007 0.0
  7.2652055E-008 -2.8663590E-007 0.0
  7.0185609E-008 -2.8617342E-007 0.0
  6.7772842E-008 -2.8582376E-007 0.0
  6.5360238E-008 -2.8559619E-007 0.0
  6.2884208E-008 -2.8548769E-007 0.0
  6.0280549E-008 -2.8548303E-007 0.0
  5.7493376E-008 -2.8555723E-007 0.0
  5.4483904E-008 -2.8567895E-007 0.0
  5.1236512E-008 -2.8581710E-007 0.0
  4.7757262E-008 -2.8594670E-007 0.0
  4.4065932E-008 -2.8605315E-007 0.0
  4.0185494E-008 -2.8613310E-007 0.0
  3.6129304E-008 -2.8619359E-007 0.0
  3.1893760E-008 -2.8624219E-007 0.0
  2.7466316E-008 -2.8628034E-007 0.0
  2.2850572E-008 -2.8629848E-007 0.0
  1.8071438E-008 -2.8629223E-007 0.0
  1.3166592E-008 -2.8626081E-007 0.0
  8.1762865E-009 -2.8621406E-007 0.0
  3.1330720E-009 -2.8616516E-007 0.0
 -1.9341837E-009 -2.8613111E-007 0.0
 -6.9731284E-009 -2.8613731E-007 0.0
 -1.1889303E-008 -2.8618398E-007 0.0
 -1.3088419E-007 -2.7759798E-007 0.0
 -1.3766033E-007 -2.7775800E-007 0.0
 -1.4444181E-007 -2.7798766E-007 0.0
 -1.5126523E-007 -2.7828247E-007 0.0
 -1.5814474E-007 -2.7864242E-007 0.0
 -1.6508502E-007 -2.7906345E-007 0.0
 -1.7208407E-007 -2.7953938E-007 0.0
 -1.7913198E-007 -2.8006142E-007 0.0
 -1.8620902E-007 -2.8061656E-007 0.0
 -1.9328558E-007 -2.8118487E-007 0.0
 -2.0034293E-007 -2.8173615E-007 0.0
 -2.0738634E-007 -2.8221866E-007 0.0
 -2.1496505E-007 -2.8261810E-007 0.0
 -2.2373772E-007 -2.8250660E-007 0.0
  1.3968295E-007 -2.8959885E-007 0.0
  1.3622513E-007 -2.8967300E-007 0.0
  1.3267241E-007 -2.8987701E-007 0.0
  1.2921108E-007 -2.9026160E-007 0.0
  1.2605031E-007 -2.9079206E-007 0.0
  1.2329023E-007 -2.9136256E-007 0.0
  1.2089199E-007 -2.9187083E-007 0.0
  1.1874976E-007 -2.9226312E-007 0.0
  1.1675605E-007 -2.9252301E-007 0.0
  1.1482319E-007 -2.9265097E-007 0.0
  1.1288355E-007 -2.9265339E-007 0.0
  1.1088615E-007 -2.9253947E-007 0.0
  1.0879415E-007 -2.9231963E-007 0.0
  1.0658291E-007 -2.9200484E-007 0.0
  1.0423847E-007 -2.9160606E-007 0.0
  1.0175651E-007 -2.9113387E-007 0.0
  9.9141450E-008 -2.9059809E-007 0.0
  9.6405807E-008 -2.9000749E-007 0.0
  9.3569539E-008 -2.8936968E-007 0.0
  9.0659422E-008 -2.8869130E-007 0.0
  8.7708287E-008 -2.8797850E-007 0.0
  8.4753900E-008 -2.8723793E-007 0.0
  8.1837183E-008 -2.8647818E-007 0.0
  7.8999369E-008 -2.8571148E-007 0.0
  7.6277643E-008 -2.8495540E-007 0.0
  7.3698933E-008 -2.8423398E-007 0.0
  7.1272033E-008 -2.8357701E-007 0.0
  6.8979789E-008 -2.8301625E-007 0.0
  6.6774981E-008 -2.8257817E-007 0.0
  6.4584847E-008 -2.8227507E-007 0.0
  6.2324405E-008 -2.8210119E-007 0.0
  5.9910470E-008 -2.8203560E-007 0.0
  5.7271991E-008 -2.8204612E-007 0.0
  5.4360506E-008 -2.8209495E-007 0.0
  5.1164566E-008 -2.8214417E-007 0.0
  4.7704685E-008 -2.8216956E-007 0.0
  4.4016299E-008 -2.8215868E-007 0.0
  4.0139077E-008 -2.8210985E-007 0.0
  3.6103109E-008 -2.8203484E-007 0.0
  3.1895063E-008 -2.8195842E-007 0.0
  2.7474633E-008 -2.8187646E-007 0.0
  2.2842911E-008 -2.8178833E-007 0.0
  1.8038278E-008 -2.8168325E-007 0.0
  1.3113786E-008 -2.8157705E-007 0.0
  8.1234820E-009 -2.8147554E-007 0.0
  3.1060786E-009 -2.8139743E-007 0.0
 -1.9113810E-009 -2.8135456E-007 0.0
 -6.8887342E-009 -2.8135078E-007 0.0
 -1.1769520E-008 -2.8137620E-007 0.0
 -1.2422534E-007 -2.7753609E-007 0.0
 -1.2431907E-007 -2.7067820E-007 0.0
 -1.3079523E-007 -2.7079341E-007 0.0
 -1.3736219E-007 -2.7097827E-007 0.0
 -1.4398170E-007 -2.7124495E-007 0.0
 -1.5065245E-007 -2.7157951E-007 0.0
 -1.5738725E-007 -2.7197725E-007 0.0
 -1.6419269E-007 -2.7243385E-007 0.0
 -1.7107025E-007 -2.7294223E-007 0.0
 -1.7801552E-007 -2.7349031E-007 0.0
 -1.8501563E-007 -2.7405807E-007 0.0
 -1.9204862E-007 -2.7461574E-007 0.0
 -1.9908143E-007 -2.7512920E-007 0.0
 -2.0612898E-007 -2.7558466E-007 0.0
 -2.1292939E-007 -2.7622526E-007 0.0
  1.3979299E-007 -2.8631880E-007 0.0
  1.3651087E-007 -2.8642411E-007 0.0
  1.3320568E-007 -2.8664767E-007 0.0
  1.2998749E-007 -2.8701284E-007 0.0
  1.2696591E-007 -2.8748794E-007 0.0
  1.2420399E-007 -2.8800555E-007 0.0
  1.2169346E-007 -2.8849449E-007 0.0
  1.1937663E-007 -2.8890317E-007 0.0
  1.1717951E-007 -2.8920454E-007 0.0
  1.1503256E-007 -2.8938880E-007 0.0
  1.1287797E-007 -2.8945568E-007 0.0
  1.1067075E-007 -2.8940976E-007 0.0
  1.0837784E-007 -2.8925825E-007 0.0
  1.0597700E-007 -2.8900970E-007 0.0
  1.0345576E-007 -2.8867320E-007 0.0
  1.0081055E-007 -2.8825776E-007 0.0
  9.8045989E-008 -2.8777181E-007 0.0
  9.5174456E-008 -2.8722282E-007 0.0
  9.2215736E-008 -2.8661701E-007 0.0
  8.9196856E-008 -2.8595945E-007 0.0
  8.6151887E-008 -2.8525450E-007 0.0
  8.3121480E-008 -2.8450690E-007 0.0
  8.0151691E-008 -2.8372341E-007 0.0
  7.7291520E-008 -2.8291508E-007 0.0
  7.4588349E-008 -2.8209987E-007 0.0
  7.2080380E-008 -2.8130481E-007 0.0
  6.9785538E-008 -2.8056656E-007 0.0
  6.7687317E-008 -2.7992791E-007 0.0
  6.5724228E-008 -2.7942623E-007 0.0
  6.3792971E-008 -2.7907815E-007 0.0
  6.1775185E-008 -2.7886694E-007 0.0
  5.9569041E-008 -2.7875618E-007 0.0
  5.7086324E-008 -2.7870849E-007 0.0
  5.4261214E-008 -2.7867342E-007 0.0
  5.1094591E-008 -2.7861450E-007 0.0
  4.7634512E-008 -2.7851209E-007 0.0
  4.3934603E-008 -2.7837297E-007 0.0
  4.0042484E-008 -2.7819466E-007 0.0
  3.6017629E-008 -2.7797275E-007 0.0
  3.1874307E-008 -2.7773477E-007 0.0
  2.7447214E-008 -2.7751497E-007 0.0
  2.2793957E-008 -2.7724305E-007 0.0
  1.7981800E-008 -2.7703069E-007 0.0
  1.3032048E-008 -2.7684264E-007 0.0
  8.0559273E-009 -2.7670191E-007 0.0
  3.0722361E-009 -2.7660998E-007 0.0
 -1.9028476E-009 -2.7656116E-007 0.0
 -6.8421030E-009 -2.7654875E-007 0.0
 -1.1714915E-008 -2.7655696E-007 0.0
 -1.1805557E-007 -2.7058871E-007 0.0
 -1.1814298E-007 -2.6403005E-007 0.0
 -1.2436666E-007 -2.6406428E-007 0.0
 -1.3066204E-007 -2.6416432E-007 0.0
 -1.3703735E-007 -2.6436575E-007 0.0
 -1.4348208E-007 -2.6465463E-007 0.0
 -1.4999620E-007 -2.6501774E-007 0.0
 -1.5658536E-007 -2.6544501E-007 0.0
 -1.6325654E-007 -2.6593042E-007 0.0
 -1.7001513E-007 -2.6646731E-007 0.0
 -1.7686419E-007 -2.6704437E-007 0.0
 -1.8380097E-007 -2.6764158E-007 0.0
 -1.9080733E-007 -2.6822928E-007 0.0
 -1.9783876E-007 -2.6877846E-007 0.0
 -2.0476248E-007 -2.6931677E-007 0.0
 -2.1132478E-007 -2.6987594E-007 0.0
  1.3995540E-007 -2.8311952E-007 0.0
  1.3681520E-007 -2.8322962E-007 0.0
  1.3371107E-007 -2.8344893E-007 0.0
  1.3066877E-007 -2.8378055E-007 0.0
  1.2775415E-007 -2.8419687E-007 0.0
  1.2500793E-007 -2.8465537E-007 0.0
  1.2242815E-007 -2.8510550E-007 0.0
  1.1998068E-007 -2.8550322E-007 0.0
  1.1761567E-007 -2.8581884E-007 0.0
  1.1528100E-007 -2.8603624E-007 0.0
  1.1293019E-007 -2.8614899E-007 0.0
  1.1052551E-007 -2.8615681E-007 0.0
  1.0803877E-007 -2.8606326E-007 0.0
  1.0545098E-007 -2.8587413E-007 0.0
  1.0275176E-007 -2.8559648E-007 0.0
  9.9938712E-008 -2.8523776E-007 0.0
  9.7016936E-008 -2.8480519E-007 0.0
  9.3998757E-008 -2.8430513E-007 0.0
  9.0903735E-008 -2.8374262E-007 0.0
  8.7758968E-008 -2.8312129E-007 0.0
  8.4599606E-008 -2.8244357E-007 0.0
  8.1469325E-008 -2.8171174E-007 0.0
  7.8420132E-008 -2.8092995E-007 0.0
  7.5510657E-008 -2.8010702E-007 0.0
  7.2802075E-008 -2.7925986E-007 0.0
  7.0349792E-008 -2.7841755E-007 0.0
  6.8188638E-008 -2.7762363E-007 0.0
  6.6311145E-008 -2.7693380E-007 0.0
  6.4639591E-008 -2.7640475E-007 0.0
  6.3021449E-008 -2.7605906E-007 0.0
  6.1272975E-008 -2.7586418E-007 0.0
  5.9270913E-008 -2.7573292E-007 0.0
  5.6952663E-008 -2.7560565E-007 0.0
  5.4178439E-008 -2.7545823E-007 0.0
  5.0999772E-008 -2.7521656E-007 0.0
  4.7532154E-008 -2.7494045E-007 0.0
  4.3821269E-008 -2.7465502E-007 0.0
  3.9908609E-008 -2.7437053E-007 0.0
  3.5865998E-008 -2.7406793E-007 0.0
  3.1821437E-008 -2.7372151E-007 0.0
  2.7286506E-008 -2.7308455E-007 0.0
  2.2656239E-008 -2.7259310E-007 0.0
  1.7906161E-008 -2.7215097E-007 0.0
  1.2940794E-008 -2.7196828E-007 0.0
  7.9905700E-009 -2.7184745E-007 0.0
  3.0384370E-009 -2.7177141E-007 0.0
 -1.9058948E-009 -2.7172956E-007 0.0
 -6.8228713E-009 -2.7171403E-007 0.0
 -1.1698782E-008 -2.7171301E-007 0.0
 -1.1199492E-007 -2.6396396E-007 0.0
 -1.1202718E-007 -2.5759475E-007 0.0
 -1.1829569E-007 -2.5753057E-007 0.0
 -1.2438767E-007 -2.5753286E-007 0.0
 -1.3049061E-007 -2.5766738E-007 0.0
 -1.3667475E-007 -2.5790091E-007 0.0
 -1.4294458E-007 -2.5821744E-007 0.0
 -1.4929951E-007 -2.5860366E-007 0.0
 -1.5574207E-007 -2.5905136E-007 0.0
 -1.6227795E-007 -2.5955543E-007 0.0
 -1.6891542E-007 -2.6011186E-007 0.0
 -1.7566516E-007 -2.6071440E-007 0.0
 -1.8253703E-007 -2.6134940E-007 0.0
 -1.8952564E-007 -2.6198999E-007 0.0
 -1.9656975E-007 -2.6260155E-007 0.0
 -2.0349702E-007 -2.6315049E-007 0.0
 -2.1001713E-007 -2.6364682E-007 0.0
  1.4008252E-007 -2.7997442E-007 0.0
  1.3711901E-007 -2.8007590E-007 0.0
  1.3418033E-007 -2.8027460E-007 0.0
  1.3126878E-007 -2.8055158E-007 0.0
  1.2844297E-007 -2.8090085E-007 0.0
  1.2572173E-007 -2.8129618E-007 0.0
  1.2309990E-007 -2.8169700E-007 0.0
  1.2055527E-007 -2.8206624E-007 0.0
  1.1805351E-007 -2.8237538E-007 0.0
  1.1555656E-007 -2.8260544E-007 0.0
  1.1302867E-007 -2.8274570E-007 0.0
  1.1043999E-007 -2.8279171E-007 0.0
  1.0776792E-007 -2.8274353E-007 0.0
  1.0499749E-007 -2.8260423E-007 0.0
  1.0212104E-007 -2.8237887E-007 0.0
  9.9137842E-008 -2.8207353E-007 0.0
  9.6053752E-008 -2.8169449E-007 0.0
  9.2881099E-008 -2.8124742E-007 0.0
  8.9639004E-008 -2.8073666E-007 0.0
  8.6354153E-008 -2.8016477E-007 0.0
  8.3062107E-008 -2.7953247E-007 0.0
  7.9809030E-008 -2.7883936E-007 0.0
  7.6653274E-008 -2.7808618E-007 0.0
  7.3664987E-008 -2.7727890E-007 0.0
  7.0922323E-008 -2.7643305E-007 0.0
  6.8504944E-008 -2.7557792E-007 0.0
  6.6477285E-008 -2.7476510E-007 0.0
  6.4852784E-008 -2.7406730E-007 0.0
  6.3550529E-008 -2.7355972E-007 0.0
  6.2335612E-008 -2.7329728E-007 0.0
  6.0891154E-008 -2.7320020E-007 0.0
  5.9046925E-008 -2.7313379E-007 0.0
  5.6863375E-008 -2.7295188E-007 0.0
  5.4015147E-008 -2.7242034E-007 0.0
  5.0836559E-008 -2.7188916E-007 0.0
  4.7369165E-008 -2.7137976E-007 0.0
  4.3666000E-008 -2.7090796E-007 0.0
  3.9767700E-008 -2.7050503E-007 0.0
  3.5730069E-008 -2.7023456E-007 0.0
  3.1893762E-008 -2.7023747E-007 0.0
  1.7901114E-008 -2.6695458E-007 0.0
  1.2895120E-008 -2.6695741E-007 0.0
  7.9530823E-009 -2.6691908E-007 0.0
  3.0156047E-009 -2.6688083E-007 0.0
 -1.9123477E-009 -2.6685684E-007 0.0
 -6.8206180E-009 -2.6684719E-007 0.0
 -1.1696930E-008 -2.6684515E-007 0.0
 -1.1232563E-007 -2.5107589E-007 0.0
 -1.1849315E-007 -2.5095250E-007 0.0
 -1.2434228E-007 -2.5108325E-007 0.0
 -1.3025694E-007 -2.5130405E-007 0.0
 -1.3626168E-007 -2.5159250E-007 0.0
 -1.4236479E-007 -2.5194154E-007 0.0
 -1.4856463E-007 -2.5234681E-007 0.0
 -1.5486204E-007 -2.5280492E-007 0.0
 -1.6126207E-007 -2.5331389E-007 0.0
 -1.6777431E-007 -2.5387278E-007 0.0
 -1.7441452E-007 -2.5448189E-007 0.0
 -1.8120784E-007 -2.5513921E-007 0.0
 -1.8817789E-007 -2.5582558E-007 0.0
 -1.9529281E-007 -2.5648580E-007 0.0
 -2.0237352E-007 -2.5704181E-007 0.0
 -2.0901562E-007 -2.5744341E-007 0.0
  1.4006062E-007 -2.7705682E-007 0.0
  1.3740475E-007 -2.7701832E-007 0.0
  1.3459060E-007 -2.7711448E-007 0.0
  1.3179170E-007 -2.7730776E-007 0.0
  1.2905208E-007 -2.7758759E-007 0.0
  1.2636161E-007 -2.7791581E-007 0.0
  1.2371622E-007 -2.7825894E-007 0.0
  1.2109956E-007 -2.7858662E-007 0.0
  1.1848686E-007 -2.7887306E-007 0.0
  1.1585029E-007 -2.7909832E-007 0.0
  1.1316351E-007 -2.7924899E-007 0.0
  1.1040429E-007 -2.7931748E-007 0.0
  1.0755601E-007 -2.7930084E-007 0.0
  1.0460828E-007 -2.7919968E-007 0.0
  1.0155684E-007 -2.7901728E-007 0.0
  9.8403149E-008 -2.7875866E-007 0.0
  9.5154142E-008 -2.7842960E-007 0.0
  9.1822213E-008 -2.7803564E-007 0.0
  8.8425738E-008 -2.7758112E-007 0.0
  8.4990255E-008 -2.7706832E-007 0.0
  8.1550530E-008 -2.7649693E-007 0.0
  7.8153691E-008 -2.7586414E-007 0.0
  7.4863426E-008 -2.7516639E-007 0.0
  7.1763952E-008 -2.7440476E-007 0.0
  6.8955966E-008 -2.7359588E-007 0.0
  6.6545490E-008 -2.7277382E-007 0.0
  6.4644998E-008 -2.7199000E-007 0.0
  6.3327014E-008 -2.7135389E-007 0.0
  6.2494301E-008 -2.7098692E-007 0.0
  6.1854780E-008 -2.7090061E-007 0.0
  6.0733654E-008 -2.7103765E-007 0.0
  5.8947954E-008 -2.7103149E-007 0.0
  5.6898479E-008 -2.7104020E-007 0.0
  1.7877729E-008 -2.6197186E-007 0.0
  1.2904466E-008 -2.6196746E-007 0.0
  7.9448950E-009 -2.6196676E-007 0.0
  3.0073031E-009 -2.6195810E-007 0.0
 -1.9168465E-009 -2.6195009E-007 0.0
 -6.8286598E-009 -2.6194529E-007 0.0
 -1.1305843E-007 -2.4427509E-007 0.0
 -1.1853704E-007 -2.4452564E-007 0.0
 -1.2420458E-007 -2.4482409E-007 0.0
 -1.2994622E-007 -2.4513314E-007 0.0
 -1.3579203E-007 -2.4547206E-007 0.0
 -1.4174190E-007 -2.4584781E-007 0.0
 -1.4779495E-007 -2.4626342E-007 0.0
 -1.5395172E-007 -2.4672010E-007 0.0
 -1.6021749E-007 -2.4721840E-007 0.0
 -1.6660353E-007 -2.4775821E-007 0.0
 -1.7312653E-007 -2.4833910E-007 0.0
 -1.7981835E-007 -2.4896944E-007 0.0
 -1.8675204E-007 -2.4965399E-007 0.0
 -1.9399716E-007 -2.5032711E-007 0.0
 -2.0139995E-007 -2.5084424E-007 0.0
 -2.0842926E-007 -2.5113912E-007 0.0
  1.3777066E-007 -2.7376757E-007 0.0
  1.3492286E-007 -2.7389489E-007 0.0
  1.3225577E-007 -2.7404329E-007 0.0
  1.2959464E-007 -2.7425353E-007 0.0
  1.2693841E-007 -2.7450616E-007 0.0
  1.2428369E-007 -2.7478037E-007 0.0
  1.2161543E-007 -2.7505467E-007 0.0
  1.1891278E-007 -2.7530465E-007 0.0
  1.1615597E-007 -2.7550956E-007 0.0
  1.1332668E-007 -2.7565477E-007 0.0
  1.1040951E-007 -2.7573040E-007 0.0
  1.0739384E-007 -2.7573083E-007 0.0
  1.0427443E-007 -2.7565448E-007 0.0
  1.0105103E-007 -2.7550318E-007 0.0
  9.7727929E-008 -2.7528128E-007 0.0
  9.4313509E-008 -2.7499455E-007 0.0
  9.0820337E-008 -2.7464904E-007 0.0
  8.7265753E-008 -2.7424993E-007 0.0
  8.3673295E-008 -2.7380029E-007 0.0
  8.0075298E-008 -2.7330001E-007 0.0
  7.6517276E-008 -2.7274500E-007 0.0
  7.3064668E-008 -2.7212748E-007 0.0
  6.9813615E-008 -2.7143905E-007 0.0
  6.6902820E-008 -2.7068758E-007 0.0
  6.4481677E-008 -2.6993735E-007 0.0
  6.2678342E-008 -2.6926839E-007 0.0
  6.1730716E-008 -2.6875726E-007 0.0
  6.1625164E-008 -2.6871537E-007 0.0
  6.1883715E-008 -2.6945428E-007 0.0
  6.0650164E-008 -2.6951188E-007 0.0
  2.2826565E-008 -2.6197186E-007 0.0
  2.2828115E-008 -2.5701752E-007 0.0
  1.7870081E-008 -2.5701526E-007 0.0
  1.2907371E-008 -2.5701483E-007 0.0
  7.9497640E-009 -2.5701730E-007 0.0
  3.0081482E-009 -2.5702063E-007 0.0
 -1.9203559E-009 -2.5702439E-007 0.0
 -6.8314926E-009 -2.5702852E-007 0.0
 -1.0828455E-007 -2.4404484E-007 0.0
 -1.0850686E-007 -2.3813471E-007 0.0
 -1.1333227E-007 -2.3835773E-007 0.0
 -1.1852992E-007 -2.3858164E-007 0.0
 -1.2398435E-007 -2.3887652E-007 0.0
 -1.2957288E-007 -2.3921436E-007 0.0
 -1.3527251E-007 -2.3957526E-007 0.0
 -1.4108131E-007 -2.3996103E-007 0.0
 -1.4699653E-007 -2.4037427E-007 0.0
 -1.5301850E-007 -2.4081720E-007 0.0
 -1.5915324E-007 -2.4129146E-007 0.0
 -1.6541517E-007 -2.4179611E-007 0.0
 -1.7182822E-007 -2.4232289E-007 0.0
 -1.7841298E-007 -2.4285323E-007 0.0
 -1.8525132E-007 -2.4341596E-007 0.0
 -1.9264732E-007 -2.4400416E-007 0.0
 -2.0067090E-007 -2.4433405E-007 0.0
 -2.0841720E-007 -2.4416229E-007 0.0
  1.3780078E-007 -2.7083453E-007 0.0
  1.3520717E-007 -2.7074021E-007 0.0
  1.3266445E-007 -2.7079303E-007 0.0
  1.3007238E-007 -2.7090628E-007 0.0
  1.2745320E-007 -2.7105616E-007 0.0
  1.2480855E-007 -2.7124831E-007 0.0
  1.2210580E-007 -2.7145937E-007 0.0
  1.1932947E-007 -2.7165881E-007 0.0
  1.1646921E-007 -2.7182829E-007 0.0
  1.1351204E-007 -2.7195333E-007 0.0
  1.1044795E-007 -2.7202142E-007 0.0
  1.0727251E-007 -2.7202415E-007 0.0
  1.0398636E-007 -2.7195797E-007 0.0
  1.0059404E-007 -2.7182363E-007 0.0
  9.7103268E-008 -2.7162514E-007 0.0
  9.3524359E-008 -2.7136871E-007 0.0
  8.9870247E-008 -2.7106148E-007 0.0
  8.6157052E-008 -2.7071022E-007 0.0
  8.2405537E-008 -2.7031989E-007 0.0
  7.8643900E-008 -2.6989215E-007 0.0
  7.4912667E-008 -2.6942367E-007 0.0
  7.1273543E-008 -2.6890447E-007 0.0
  6.7823319E-008 -2.6831752E-007 0.0
  6.4728108E-008 -2.6763690E-007 0.0
  6.2274104E-008 -2.6689159E-007 0.0
  6.0626886E-008 -2.6635192E-007 0.0
  5.9979868E-008 -2.6626970E-007 0.0
  6.1320822E-008 -2.6685364E-007 0.0
  2.2827717E-008 -2.5205907E-007 0.0
  1.7868107E-008 -2.5206013E-007 0.0
  1.2909914E-008 -2.5206229E-007 0.0
  7.9531229E-009 -2.5206755E-007 0.0
  3.0123313E-009 -2.5207858E-007 0.0
 -1.9243020E-009 -2.5208129E-007 0.0
 -1.0395565E-007 -2.3788721E-007 0.0
 -1.0421381E-007 -2.3220522E-007 0.0
 -1.0869791E-007 -2.3246462E-007 0.0
 -1.1344283E-007 -2.3270257E-007 0.0
 -1.1846915E-007 -2.3295111E-007 0.0
 -1.2372868E-007 -2.3323709E-007 0.0
 -1.2915748E-007 -2.3356506E-007 0.0
 -1.3471661E-007 -2.3392221E-007 0.0
 -1.4039164E-007 -2.3430100E-007 0.0
 -1.4617643E-007 -2.3469989E-007 0.0
 -1.5206922E-007 -2.3511934E-007 0.0
 -1.5807493E-007 -2.3556113E-007 0.0
 -1.6421164E-007 -2.3602749E-007 0.0
 -1.7051631E-007 -2.3651082E-007 0.0
 -1.7704541E-007 -2.3696634E-007 0.0
 -1.8376777E-007 -2.3727337E-007 0.0
 -1.9117840E-007 -2.3743144E-007 0.0
 -2.0054842E-007 -2.3702841E-007 0.0
  1.3531390E-007 -2.6775259E-007 0.0
  1.3301987E-007 -2.6758219E-007 0.0
  1.3044928E-007 -2.6751493E-007 0.0
  1.2791213E-007 -2.6754026E-007 0.0
  1.2530201E-007 -2.6765648E-007 0.0
  1.2256970E-007 -2.6778885E-007 0.0
  1.1973436E-007 -2.6791873E-007 0.0
  1.1678775E-007 -2.6803869E-007 0.0
  1.1371551E-007 -2.6813082E-007 0.0
  1.1051304E-007 -2.6817747E-007 0.0
  1.0718341E-007 -2.6816759E-007 0.0
  1.0373396E-007 -2.6809600E-007 0.0
  1.0017483E-007 -2.6796254E-007 0.0
  9.6517872E-008 -2.6777117E-007 0.0
  9.2775885E-008 -2.6752877E-007 0.0
  8.8962435E-008 -2.6724386E-007 0.0
  8.5092387E-008 -2.6692522E-007 0.0
  8.1183209E-008 -2.6658042E-007 0.0
  7.7257499E-008 -2.6621411E-007 0.0
  7.3347774E-008 -2.6582584E-007 0.0
  6.9504999E-008 -2.6540737E-007 0.0
  6.5816940E-008 -2.6493909E-007 0.0
  6.2428423E-008 -2.6438640E-007 0.0
  5.9686133E-008 -2.6362503E-007 0.0
  5.8344103E-008 -2.6265812E-007 0.0
  5.7104379E-008 -2.6153267E-007 0.0
  1.7867369E-008 -2.4710586E-007 0.0
  1.2911710E-008 -2.4710598E-007 0.0
  7.9529645E-009 -2.4710504E-007 0.0
 -9.9989601E-008 -2.3194410E-007 0.0
 -1.0026376E-007 -2.2652029E-007 0.0
 -1.0441141E-007 -2.2680147E-007 0.0
 -1.0880326E-007 -2.2706166E-007 0.0
 -1.1344743E-007 -2.2731456E-007 0.0
 -1.1833377E-007 -2.2757434E-007 0.0
 -1.2343489E-007 -2.2785898E-007 0.0
 -1.2871191E-007 -2.2817424E-007 0.0
 -1.3413334E-007 -2.2851645E-007 0.0
 -1.3967958E-007 -2.2887900E-007 0.0
 -1.4533977E-007 -2.2925717E-007 0.0
 -1.5110838E-007 -2.2964877E-007 0.0
 -1.5698633E-007 -2.3005485E-007 0.0
 -1.6298586E-007 -2.3048230E-007 0.0
 -1.6915340E-007 -2.3095106E-007 0.0
 -1.7558335E-007 -2.3147019E-007 0.0
 -1.8237219E-007 -2.3197897E-007 0.0
 -1.8853359E-007 -2.3273930E-007 0.0
  1.3343899E-007 -2.6400952E-007 0.0
  1.3069931E-007 -2.6400060E-007 0.0
  1.2836904E-007 -2.6399512E-007 0.0
  1.2575628E-007 -2.6400984E-007 0.0
  1.2299438E-007 -2.6401603E-007 0.0
  1.2012812E-007 -2.6405899E-007 0.0
  1.1711323E-007 -2.6412250E-007 0.0
  1.1393472E-007 -2.6417055E-007 0.0
  1.1059932E-007 -2.6418221E-007 0.0
  1.0711839E-007 -2.6414498E-007 0.0
  1.0350670E-007 -2.6405196E-007 0.0
  9.9781045E-008 -2.6390209E-007 0.0
  9.5958221E-008 -2.6369930E-007 0.0
  9.2053980E-008 -2.6345117E-007 0.0
  8.8082813E-008 -2.6316747E-007 0.0
  8.4058414E-008 -2.6285879E-007 0.0
  7.9994696E-008 -2.6253522E-007 0.0
  7.5907688E-008 -2.6220458E-007 0.0
  7.1819188E-008 -2.6186993E-007 0.0
  6.7764620E-008 -2.6152596E-007 0.0
  6.3807040E-008 -2.6115481E-007 0.0
  6.0083621E-008 -2.6072947E-007 0.0
  5.6768422E-008 -2.6026015E-007 0.0
  5.5203877E-008 -2.5962583E-007 0.0
  5.7160465E-008 -2.6023504E-007 0.0
 -9.6367482E-008 -2.2624472E-007 0.0
 -9.6659547E-008 -2.2106289E-007 0.0
 -1.0046982E-007 -2.2137469E-007 0.0
 -1.0452771E-007 -2.2165962E-007 0.0
 -1.0883159E-007 -2.2192531E-007 0.0
 -1.1337057E-007 -2.2218127E-007 0.0
 -1.1813255E-007 -2.2244304E-007 0.0
 -1.2309601E-007 -2.2272269E-007 0.0
 -1.2823488E-007 -2.2302631E-007 0.0
 -1.3352469E-007 -2.2335314E-007 0.0
 -1.3894662E-007 -2.2369868E-007 0.0
 -1.4448721E-007 -2.2405745E-007 0.0
 -1.5013703E-007 -2.2442471E-007 0.0
 -1.5588980E-007 -2.2479817E-007 0.0
 -1.6174705E-007 -2.2518303E-007 0.0
 -1.6772043E-007 -2.2560334E-007 0.0
 -1.7392661E-007 -2.2616184E-007 0.0
 -1.8059259E-007 -2.2694811E-007 0.0
 -1.8717350E-007 -2.2758306E-007 0.0
  1.3350201E-007 -2.6105967E-007 0.0
  1.3070695E-007 -2.6099684E-007 0.0
  1.2882213E-007 -2.6048193E-007 0.0
  1.2610285E-007 -2.6022200E-007 0.0
  1.2338150E-007 -2.6008168E-007 0.0
  1.2052649E-007 -2.6006125E-007 0.0
  1.1744827E-007 -2.6006234E-007 0.0
  1.1416811E-007 -2.6005233E-007 0.0
  1.1070266E-007 -2.6001592E-007 0.0
  1.0707008E-007 -2.5993753E-007 0.0
  1.0329409E-007 -2.5980759E-007 0.0
  9.9399580E-008 -2.5962384E-007 0.0
  9.5409190E-008 -2.5939024E-007 0.0
  9.1341928E-008 -2.5911476E-007 0.0
  8.7213336E-008 -2.5880777E-007 0.0
  8.3036044E-008 -2.5848084E-007 0.0
  7.8820369E-008 -2.5814555E-007 0.0
  7.4575159E-008 -2.5781181E-007 0.0
  7.0309540E-008 -2.5748487E-007 0.0
  6.6036719E-008 -2.5715969E-007 0.0
  6.1785355E-008 -2.5681010E-007 0.0
  5.7617170E-008 -2.5636016E-007 0.0
  5.3765294E-008 -2.5567010E-007 0.0
  4.9515831E-008 -2.5402283E-007 0.0
 -9.3039512E-008 -2.2079787E-007 0.0
 -9.3347398E-008 -2.1570243E-007 0.0
 -9.6850587E-008 -2.1616830E-007 0.0
 -1.0059072E-007 -2.1650947E-007 0.0
 -1.0457567E-007 -2.1679164E-007 0.0
 -1.0879160E-007 -2.1704636E-007 0.0
 -1.1322885E-007 -2.1729356E-007 0.0
 -1.1787452E-007 -2.1754713E-007 0.0
 -1.2271232E-007 -2.1781733E-007 0.0
 -1.2772301E-007 -2.1810933E-007 0.0
 -1.3288753E-007 -2.1842357E-007 0.0
 -1.3818913E-007 -2.1875699E-007 0.0
 -1.4361388E-007 -2.1910452E-007 0.0
 -1.4914957E-007 -2.1946012E-007 0.0
 -1.5478437E-007 -2.1981764E-007 0.0
 -1.6050340E-007 -2.2017250E-007 0.0
 -1.6630355E-007 -2.2052556E-007 0.0
 -1.7215051E-007 -2.2086975E-007 0.0
 -1.7872840E-007 -2.2125019E-007 0.0
 -1.8725090E-007 -2.2093782E-007 0.0
  1.2944556E-007 -2.5612331E-007 0.0
  1.2633484E-007 -2.5612021E-007 0.0
  1.2380411E-007 -2.5602352E-007 0.0
  1.2093306E-007 -2.5592883E-007 0.0
  1.1778968E-007 -2.5583279E-007 0.0
  1.1441595E-007 -2.5574949E-007 0.0
  1.1082135E-007 -2.5565447E-007 0.0
  1.0703272E-007 -2.5552387E-007 0.0
  1.0308617E-007 -2.5534325E-007 0.0
  9.9017376E-008 -2.5510955E-007 0.0
  9.4855290E-008 -2.5482691E-007 0.0
  9.0621922E-008 -2.5450312E-007 0.0
  8.6333716E-008 -2.5414797E-007 0.0
  8.2002367E-008 -2.5377257E-007 0.0
  7.7634721E-008 -2.5338842E-007 0.0
  7.3232285E-008 -2.5300565E-007 0.0
  6.8790341E-008 -2.5262986E-007 0.0
  6.4296164E-008 -2.5225590E-007 0.0
  5.9725225E-008 -2.5185108E-007 0.0
  5.5034784E-008 -2.5131736E-007 0.0
  5.0145429E-008 -2.5031005E-007 0.0
  4.4966455E-008 -2.4881033E-007 0.0
 -8.7640148E-008 -2.1465413E-007 0.0
 -8.7841758E-008 -2.1075298E-007 0.0
 -9.0735242E-008 -2.1116808E-007 0.0
 -9.0942177E-008 -2.1475873E-007 0.0
 -9.3604159E-008 -2.1144402E-007 0.0
 -9.6976621E-008 -2.1169914E-007 0.0
 -1.0066098E-007 -2.1195735E-007 0.0
 -1.0457164E-007 -2.1219145E-007 0.0
 -1.0869940E-007 -2.1241384E-007 0.0
 -1.1303478E-007 -2.1263778E-007 0.0
 -1.1756779E-007 -2.1287415E-007 0.0
 -1.2228575E-007 -2.1313040E-007 0.0
 -1.2717401E-007 -2.1341060E-007 0.0
 -1.3221717E-007 -2.1371554E-007 0.0
 -1.3740051E-007 -2.1404353E-007 0.0
 -1.4271038E-007 -2.1439119E-007 0.0
 -1.4813343E-007 -2.1475393E-007 0.0
 -1.5365359E-007 -2.1512602E-007 0.0
 -1.5924867E-007 -2.1550136E-007 0.0
 -1.6487061E-007 -2.1588142E-007 0.0
 -1.7050849E-007 -2.1630249E-007 0.0
 -1.7555500E-007 -2.1719127E-007 0.0
  1.2953678E-007 -2.5271898E-007 0.0
  1.2634753E-007 -2.5262627E-007 0.0
  1.2423014E-007 -2.5193688E-007 0.0
  1.2131273E-007 -2.5160281E-007 0.0
  1.1813908E-007 -2.5138724E-007 0.0
  1.1468445E-007 -2.5122504E-007 0.0
  1.1095898E-007 -2.5106943E-007 0.0
  1.0700266E-007 -2.5087966E-007 0.0
  1.0287414E-007 -2.5063750E-007 0.0
  9.8622766E-008 -2.5034105E-007 0.0
  9.4282666E-008 -2.4999538E-007 0.0
  8.9877322E-008 -2.4960642E-007 0.0
  8.5424013E-008 -2.4918155E-007 0.0
  8.0933872E-008 -2.4873006E-007 0.0
  7.6410545E-008 -2.4826185E-007 0.0
  7.1848471E-008 -2.4778534E-007 0.0
  6.7229824E-008 -2.4730475E-007 0.0
  6.2517964E-008 -2.4681574E-007 0.0
  5.7640314E-008 -2.4629847E-007 0.0
  5.2458091E-008 -2.4569631E-007 0.0
  4.6615251E-008 -2.4492227E-007 0.0
  4.0558557E-008 -2.4334233E-007 0.0
 -8.4749487E-008 -2.1056543E-007 0.0
 -8.4993800E-008 -2.0645346E-007 0.0
 -8.7872493E-008 -2.0684814E-007 0.0
 -9.0785073E-008 -2.0715290E-007 0.0
 -9.3817064E-008 -2.0737261E-007 0.0
 -9.7121768E-008 -2.0751962E-007 0.0
 -1.0071403E-007 -2.0766891E-007 0.0
 -1.0453776E-007 -2.0783147E-007 0.0
 -1.0856913E-007 -2.0800520E-007 0.0
 -1.1279891E-007 -2.0819531E-007 0.0
 -1.1721865E-007 -2.0840757E-007 0.0
 -1.2181846E-007 -2.0864640E-007 0.0
 -1.2658649E-007 -2.0891435E-007 0.0
 -1.3150961E-007 -2.0921226E-007 0.0
 -1.3657426E-007 -2.0953992E-007 0.0
 -1.4176687E-007 -2.0989674E-007 0.0
 -1.4707308E-007 -2.1028236E-007 0.0
 -1.5247508E-007 -2.1069699E-007 0.0
 -1.5794062E-007 -2.1114252E-007 0.0
 -1.6340586E-007 -2.1162939E-007 0.0
 -1.6865451E-007 -2.1224105E-007 0.0
 -1.7326949E-007 -2.1298133E-007 0.0
  1.2458757E-007 -2.4733182E-007 0.0
  1.2169609E-007 -2.4696670E-007 0.0
  1.1850917E-007 -2.4666374E-007 0.0
  1.1499535E-007 -2.4643861E-007 0.0
  1.1112562E-007 -2.4622822E-007 0.0
  1.0697724E-007 -2.4597650E-007 0.0
  1.0265053E-007 -2.4566409E-007 0.0
  9.8208361E-008 -2.4529985E-007 0.0
  9.3681900E-008 -2.4488609E-007 0.0
  8.9095135E-008 -2.4442261E-007 0.0
  8.4467455E-008 -2.4391330E-007 0.0
  7.9810187E-008 -2.4336519E-007 0.0
  7.5124055E-008 -2.4278600E-007 0.0
  7.0396783E-008 -2.4218116E-007 0.0
  6.5599427E-008 -2.4155124E-007 0.0
  6.0677937E-008 -2.4089024E-007 0.0
  5.5537088E-008 -2.4018624E-007 0.0
  4.9989002E-008 -2.3943706E-007 0.0
  4.3780254E-008 -2.3871287E-007 0.0
  3.5438533E-008 -2.3807233E-007 0.0
 -8.0067538E-008 -2.0567911E-007 0.0
 -8.0212074E-008 -2.0245717E-007 0.0
 -8.2721000E-008 -2.0274342E-007 0.0
 -8.2861649E-008 -2.0575707E-007 0.0
 -8.5182775E-008 -2.0293404E-007 0.0
 -8.7958950E-008 -2.0311698E-007 0.0
 -9.0895295E-008 -2.0329377E-007 0.0
 -9.3971746E-008 -2.0341562E-007 0.0
 -9.7251965E-008 -2.0349880E-007 0.0
 -1.0075934E-007 -2.0357500E-007 0.0
 -1.0448406E-007 -2.0366983E-007 0.0
 -1.0840999E-007 -2.0379150E-007 0.0
 -1.1252799E-007 -2.0394330E-007 0.0
 -1.1683138E-007 -2.0412798E-007 0.0
 -1.2131216E-007 -2.0434729E-007 0.0
 -1.2596010E-007 -2.0460216E-007 0.0
 -1.3076290E-007 -2.0489322E-007 0.0
 -1.3570704E-007 -2.0522157E-007 0.0
 -1.4077824E-007 -2.0558943E-007 0.0
 -1.4596060E-007 -2.0600093E-007 0.0
 -1.5123377E-007 -2.0646395E-007 0.0
 -1.5656662E-007 -2.0698914E-007 0.0
 -1.6187968E-007 -2.0758502E-007 0.0
 -1.6696970E-007 -2.0822571E-007 0.0
 -1.7147883E-007 -2.0888190E-007 0.0
  1.2207854E-007 -2.4203657E-007 0.0
  1.1892077E-007 -2.4163717E-007 0.0
  1.1539118E-007 -2.4134659E-007 0.0
  1.1133416E-007 -2.4109780E-007 0.0
  1.0694679E-007 -2.4076627E-007 0.0
  1.0241591E-007 -2.4038790E-007 0.0
  9.7776349E-008 -2.3997040E-007 0.0
  9.3050387E-008 -2.3949613E-007 0.0
  8.8267771E-008 -2.3895823E-007 0.0
  8.3452510E-008 -2.3835845E-007 0.0
  7.8617262E-008 -2.3770342E-007 0.0
  7.3759684E-008 -2.3699969E-007 0.0
  6.8860656E-008 -2.3624977E-007 0.0
  6.3881388E-008 -2.3544934E-007 0.0
  5.8756898E-008 -2.3458588E-007 0.0
  5.3379253E-008 -2.3363865E-007 0.0
  4.7580909E-008 -2.3258154E-007 0.0
  4.0984839E-008 -2.3133093E-007 0.0
  3.2878798E-008 -2.2998733E-007 0.0
  2.3238538E-008 -2.2906532E-007 0.0
  2.3215705E-008 -2.3859252E-007 0.0
 -7.7561494E-008 -2.0232059E-007 0.0
 -7.7727242E-008 -1.9898538E-007 0.0
 -8.0256437E-008 -1.9921679E-007 0.0
 -8.2792149E-008 -1.9938633E-007 0.0
 -8.5382890E-008 -1.9949617E-007 0.0
 -8.8130158E-008 -1.9954949E-007 0.0
 -9.1047135E-008 -1.9958834E-007 0.0
 -9.4117246E-008 -1.9961160E-007 0.0
 -9.7358306E-008 -1.9962056E-007 0.0
 -1.0078850E-007 -1.9963433E-007 0.0
 -1.0441164E-007 -1.9967162E-007 0.0
 -1.0822498E-007 -1.9974457E-007 0.0
 -1.1222497E-007 -1.9985855E-007 0.0
 -1.1640794E-007 -2.0001518E-007 0.0
 -1.2076794E-007 -2.0021419E-007 0.0
 -1.2529548E-007 -2.0045475E-007 0.0
 -1.2997784E-007 -2.0073677E-007 0.0
 -1.3480029E-007 -2.0106200E-007 0.0
 -1.3974717E-007 -2.0143446E-007 0.0
 -1.4480142E-007 -2.0186040E-007 0.0
 -1.4994041E-007 -2.0234870E-007 0.0
 -1.5513422E-007 -2.0291713E-007 0.0
 -1.6034816E-007 -2.0357320E-007 0.0
 -1.6547454E-007 -2.0424658E-007 0.0
 -1.7009601E-007 -2.0479538E-007 0.0
  1.1928866E-007 -2.3634546E-007 0.0
  1.1596315E-007 -2.3593368E-007 0.0
  1.1154940E-007 -2.3554678E-007 0.0
  1.0692126E-007 -2.3516027E-007 0.0
  1.0219581E-007 -2.3478350E-007 0.0
  9.7340281E-008 -2.3434893E-007 0.0
  9.2392511E-008 -2.3383272E-007 0.0
  8.7392642E-008 -2.3322789E-007 0.0
  8.2373347E-008 -2.3253985E-007 0.0
  7.7349025E-008 -2.3177870E-007 0.0
  7.2313244E-008 -2.3095259E-007 0.0
  6.7238971E-008 -2.3006289E-007 0.0
  6.2078273E-008 -2.2910193E-007 0.0
  5.6757527E-008 -2.2805245E-007 0.0
  5.1167539E-008 -2.2688843E-007 0.0
  4.5132213E-008 -2.2557276E-007 0.0
  3.8378001E-008 -2.2410909E-007 0.0
  3.0666658E-008 -2.2265632E-007 0.0
  2.2236454E-008 -2.2150692E-007 0.0
  1.4013299E-008 -2.2074822E-007 0.0
  1.4383609E-008 -2.2834560E-007 0.0
  6.5961920E-009 -2.2010014E-007 0.0
  6.9855642E-009 -2.2737059E-007 0.0
 -2.6605049E-010 -2.1928377E-007 0.0
  1.1338261E-010 -2.2665880E-007 0.0
 -7.1108489E-009 -2.1828442E-007 0.0
 -7.2982770E-009 -2.2668642E-007 0.0
 -7.3157509E-008 -1.9851435E-007 0.0
 -7.3239780E-008 -1.9578856E-007 0.0
 -7.5581394E-008 -1.9592871E-007 0.0
 -7.5651715E-008 -1.9856380E-007 0.0
 -7.7884558E-008 -1.9599789E-007 0.0
 -8.0370027E-008 -1.9605495E-007 0.0
 -8.2940750E-008 -1.9610174E-007 0.0
 -8.5583353E-008 -1.9610411E-007 0.0
 -8.8340640E-008 -1.9606804E-007 0.0
 -9.1233517E-008 -1.9600921E-007 0.0
 -9.4268762E-008 -1.9594239E-007 0.0
 -9.7454290E-008 -1.9587797E-007 0.0
 -1.0080154E-007 -1.9582985E-007 0.0
 -1.0431950E-007 -1.9581380E-007 0.0
 -1.0801419E-007 -1.9584187E-007 0.0
 -1.1188991E-007 -1.9592039E-007 0.0
 -1.1594827E-007 -1.9605036E-007 0.0
 -1.2018607E-007 -1.9622936E-007 0.0
 -1.2459405E-007 -1.9645418E-007 0.0
 -1.2915774E-007 -1.9672317E-007 0.0
 -1.3385982E-007 -1.9703783E-007 0.0
 -1.3868282E-007 -1.9740299E-007 0.0
 -1.4361037E-007 -1.9782470E-007 0.0
 -1.4862508E-007 -1.9830574E-007 0.0
 -1.5369327E-007 -1.9884132E-007 0.0
 -1.5880762E-007 -1.9945859E-007 0.0
 -1.6408379E-007 -2.0013656E-007 0.0
 -1.6925198E-007 -2.0061698E-007 0.0
  1.1716967E-007 -2.2906583E-007 0.0
  1.1180807E-007 -2.2931089E-007 0.0
  1.0699362E-007 -2.2916392E-007 0.0
  1.0202670E-007 -2.2886920E-007 0.0
  9.6920600E-008 -2.2845427E-007 0.0
  9.1714704E-008 -2.2791345E-007 0.0
  8.6469464E-008 -2.2725142E-007 0.0
  8.1228385E-008 -2.2648293E-007 0.0
  7.6007175E-008 -2.2562663E-007 0.0
  7.0792410E-008 -2.2469543E-007 0.0
  6.5547177E-008 -2.2369196E-007 0.0
  6.0214875E-008 -2.2260846E-007 0.0
  5.4718257E-008 -2.2142974E-007 0.0
  4.8952240E-008 -2.2013835E-007 0.0
  4.2777863E-008 -2.1873244E-007 0.0
  3.6049112E-008 -2.1726388E-007 0.0
  2.8721338E-008 -2.1587014E-007 0.0
  2.1010796E-008 -2.1471822E-007 0.0
  1.3364586E-008 -2.1384065E-007 0.0
  6.1067605E-009 -2.1308236E-007 0.0
 -7.7224987E-010 -2.1226616E-007 0.0
 -7.3397440E-009 -2.1138503E-007 0.0
 -1.3177317E-008 -2.1053779E-007 0.0
 -1.2646637E-008 -2.1640999E-007 0.0
 -1.8451319E-008 -2.0951994E-007 0.0
 -1.7996013E-008 -2.1497230E-007 0.0
 -2.3474609E-008 -2.0856782E-007 0.0
 -2.3069087E-008 -2.1381333E-007 0.0
 -2.8300337E-008 -2.0772114E-007 0.0
 -2.7971490E-008 -2.1292100E-007 0.0
 -3.3067480E-008 -2.0697959E-007 0.0
 -3.2819959E-008 -2.1238449E-007 0.0
 -3.7982720E-008 -2.0640645E-007 0.0
 -3.8140049E-008 -2.1235515E-007 0.0
 -7.0851567E-008 -1.9570368E-007 0.0
 -7.0931562E-008 -1.9302212E-007 0.0
 -7.3300429E-008 -1.9305150E-007 0.0
 -7.5677905E-008 -1.9305411E-007 0.0
 -7.8080792E-008 -1.9302760E-007 0.0
 -8.0568335E-008 -1.9296668E-007 0.0
 -8.3148657E-008 -1.9289147E-007 0.0
 -8.5811928E-008 -1.9279553E-007 0.0
 -8.8570894E-008 -1.9267425E-007 0.0
 -9.1440676E-008 -1.9253614E-007 0.0
 -9.4430470E-008 -1.9239339E-007 0.0
 -9.7548407E-008 -1.9225981E-007 0.0
 -1.0080417E-007 -1.9215072E-007 0.0
 -1.0420942E-007 -1.9208191E-007 0.0
 -1.0777739E-007 -1.9206658E-007 0.0
 -1.1152130E-007 -1.9211177E-007 0.0
 -1.1545046E-007 -1.9221728E-007 0.0
 -1.1956566E-007 -1.9237746E-007 0.0
 -1.2385728E-007 -1.9258543E-007 0.0
 -1.2830736E-007 -1.9283685E-007 0.0
 -1.3289415E-007 -1.9313210E-007 0.0
 -1.3759688E-007 -1.9347626E-007 0.0
 -1.4240150E-007 -1.9387724E-007 0.0
 -1.4730369E-007 -1.9433550E-007 0.0
 -1.5230593E-007 -1.9481976E-007 0.0
 -1.5733376E-007 -1.9523507E-007 0.0
 -1.6272208E-007 -1.9556075E-007 0.0
 -1.6932130E-007 -1.9534276E-007 0.0
  1.1731218E-007 -2.2331554E-007 0.0
  1.1227700E-007 -2.2306168E-007 0.0
  1.0716436E-007 -2.2295527E-007 0.0
  1.0193560E-007 -2.2271327E-007 0.0
  9.6528394E-008 -2.2231615E-007 0.0
  9.1020105E-008 -2.2175858E-007 0.0
  8.5495941E-008 -2.2104676E-007 0.0
  8.0018042E-008 -2.2020945E-007 0.0
  7.4599804E-008 -2.1927786E-007 0.0
  6.9214926E-008 -2.1827191E-007 0.0
  6.3813165E-008 -2.1719591E-007 0.0
  5.8330733E-008 -2.1604382E-007 0.0
  5.2692040E-008 -2.1480671E-007 0.0
  4.6809095E-008 -2.1348291E-007 0.0
  4.0589260E-008 -2.1209312E-007 0.0
  3.3966464E-008 -2.1069760E-007 0.0
  2.6960552E-008 -2.0939454E-007 0.0
  1.9723879E-008 -2.0827472E-007 0.0
  1.2497559E-008 -2.0735542E-007 0.0
  5.4782802E-009 -2.0657028E-007 0.0
 -1.2479467E-009 -2.0584834E-007 0.0
 -7.5901955E-009 -2.0517932E-007 0.0
 -1.3434003E-008 -2.0450478E-007 0.0
 -1.8811222E-008 -2.0378867E-007 0.0
 -2.3854817E-008 -2.0300429E-007 0.0
 -2.8697513E-008 -2.0218416E-007 0.0
 -3.3446546E-008 -2.0132308E-007 0.0
 -3.8205488E-008 -2.0039500E-007 0.0
 -4.3028507E-008 -1.9932625E-007 0.0
 -4.3351339E-008 -2.0628504E-007 0.0
 -6.6469792E-008 -1.9288617E-007 0.0
 -6.6482674E-008 -1.9077417E-007 0.0
 -6.8764890E-008 -1.9057063E-007 0.0
 -6.8711893E-008 -1.9293906E-007 0.0
 -7.1072913E-008 -1.9041106E-007 0.0
 -7.3446810E-008 -1.9028234E-007 0.0
 -7.5856917E-008 -1.9016854E-007 0.0
 -7.8304864E-008 -1.9004347E-007 0.0
 -8.0815943E-008 -1.8990105E-007 0.0
 -8.3402845E-008 -1.8974145E-007 0.0
 -8.6069592E-008 -1.8956537E-007 0.0
 -8.8820733E-008 -1.8937232E-007 0.0
 -9.1663167E-008 -1.8916662E-007 0.0
 -9.4603138E-008 -1.8895811E-007 0.0
 -9.7646950E-008 -1.8876049E-007 0.0
 -1.0080340E-007 -1.8859048E-007 0.0
 -1.0408619E-007 -1.8846684E-007 0.0
 -1.0751561E-007 -1.8840639E-007 0.0
 -1.1111664E-007 -1.8841886E-007 0.0
 -1.1491055E-007 -1.8850228E-007 0.0
 -1.1890408E-007 -1.8864582E-007 0.0
 -1.2308588E-007 -1.8883669E-007 0.0
 -1.2743161E-007 -1.8906680E-007 0.0
 -1.3191240E-007 -1.8933480E-007 0.0
 -1.3650218E-007 -1.8964565E-007 0.0
 -1.4118364E-007 -1.9000958E-007 0.0
 -1.4596591E-007 -1.9044436E-007 0.0
 -1.5089558E-007 -1.9095031E-007 0.0
 -1.5601984E-007 -1.9145242E-007 0.0
 -1.6059932E-007 -1.9208570E-007 0.0
  1.1253950E-007 -2.1688711E-007 0.0
  1.0741278E-007 -2.1660246E-007 0.0
  1.0191015E-007 -2.1632834E-007 0.0
  9.6172149E-008 -2.1594428E-007 0.0
  9.0304657E-008 -2.1537377E-007 0.0
  8.4465110E-008 -2.1462131E-007 0.0
  7.8743049E-008 -2.1373119E-007 0.0
  7.3141023E-008 -2.1275478E-007 0.0
  6.7606202E-008 -2.1171622E-007 0.0
  6.2071005E-008 -2.1061789E-007 0.0
  5.6467012E-008 -2.0945417E-007 0.0
  5.0725890E-008 -2.0822272E-007 0.0
  4.4780262E-008 -2.0693280E-007 0.0
  3.8573172E-008 -2.0561360E-007 0.0
  3.2079531E-008 -2.0431830E-007 0.0
  2.5333363E-008 -2.0311466E-007 0.0
  1.8439057E-008 -2.0205869E-007 0.0
  1.1544134E-008 -2.0116722E-007 0.0
  4.7870607E-009 -2.0041749E-007 0.0
 -1.7256992E-009 -1.9977412E-007 0.0
 -7.9093306E-009 -1.9919739E-007 0.0
 -1.3703796E-008 -1.9864291E-007 0.0
 -1.9117997E-008 -1.9805481E-007 0.0
 -2.4223723E-008 -1.9740264E-007 0.0
 -2.9113961E-008 -1.9667151E-007 0.0
 -3.3877098E-008 -1.9586030E-007 0.0
 -3.8570893E-008 -1.9497543E-007 0.0
 -4.3070567E-008 -1.9408710E-007 0.0
 -4.6779919E-008 -1.9325630E-007 0.0
 -4.6234642E-008 -1.9721042E-007 0.0
 -5.0004623E-008 -1.9220853E-007 0.0
 -4.9565663E-008 -1.9572743E-007 0.0
 -5.3112334E-008 -1.9126323E-007 0.0
 -5.2717850E-008 -1.9454874E-007 0.0
 -5.6078054E-008 -1.9043926E-007 0.0
 -5.5736269E-008 -1.9354650E-007 0.0
 -5.8911596E-008 -1.8972887E-007 0.0
 -5.8616245E-008 -1.9268394E-007 0.0
 -6.1617389E-008 -1.8912503E-007 0.0
 -6.1366940E-008 -1.9194247E-007 0.0
 -6.4199810E-008 -1.8862797E-007 0.0
 -6.3989036E-008 -1.9130870E-007 0.0
 -6.6627792E-008 -1.8825454E-007 0.0
 -6.8948490E-008 -1.8793478E-007 0.0
 -7.1286521E-008 -1.8767488E-007 0.0
 -7.3666325E-008 -1.8745348E-007 0.0
 -7.6090733E-008 -1.8725419E-007 0.0
 -7.8561628E-008 -1.8705937E-007 0.0
 -8.1089345E-008 -1.8685635E-007 0.0
 -8.3683304E-008 -1.8664029E-007 0.0
 -8.6348162E-008 -1.8640900E-007 0.0
 -8.9086310E-008 -1.8616231E-007 0.0
 -9.1899192E-008 -1.8590321E-007 0.0
 -9.4788292E-008 -1.8563930E-007 0.0
 -9.7756091E-008 -1.8538254E-007 0.0
 -1.0080865E-007 -1.8515049E-007 0.0
 -1.0395867E-007 -1.8496519E-007 0.0
 -1.0723239E-007 -1.8485281E-007 0.0
 -1.1067242E-007 -1.8482969E-007 0.0
 -1.1432164E-007 -1.8489349E-007 0.0
 -1.1819636E-007 -1.8502325E-007 0.0
 -1.2227918E-007 -1.8519766E-007 0.0
 -1.2653410E-007 -1.8540442E-007 0.0
 -1.3092219E-007 -1.8564129E-007 0.0
 -1.3540988E-007 -1.8591172E-007 0.0
 -1.3997470E-007 -1.8622406E-007 0.0
 -1.4460686E-007 -1.8659591E-007 0.0
 -1.4938657E-007 -1.8709760E-007 0.0
 -1.5449636E-007 -1.8777003E-007 0.0
 -1.5949775E-007 -1.8829836E-007 0.0
  1.0768729E-007 -2.0988862E-007 0.0
  1.0198974E-007 -2.0964445E-007 0.0
  9.5869282E-008 -2.0929043E-007 0.0
  8.9563835E-008 -2.0874217E-007 0.0
  8.3360896E-008 -2.0796158E-007 0.0
  7.7408057E-008 -2.0704891E-007 0.0
  7.1653743E-008 -2.0607576E-007 0.0
  6.5997749E-008 -2.0505904E-007 0.0
  6.0354833E-008 -2.0399098E-007 0.0
  5.4657853E-008 -2.0286650E-007 0.0
  4.8848937E-008 -2.0168876E-007 0.0
  4.2879239E-008 -2.0047353E-007 0.0
  3.6715189E-008 -1.9925167E-007 0.0
  3.0350646E-008 -1.9806763E-007 0.0
  2.3818704E-008 -1.9697079E-007 0.0
  1.7193233E-008 -1.9600068E-007 0.0
  1.0574179E-008 -1.9517423E-007 0.0
  4.0646817E-009 -1.9448410E-007 0.0
 -2.2454108E-009 -1.9390530E-007 0.0
 -8.2854187E-009 -1.9340261E-007 0.0
 -1.4013423E-008 -1.9293144E-007 0.0
 -1.9428575E-008 -1.9244774E-007 0.0
 -2.4568365E-008 -1.9191782E-007 0.0
 -2.9489597E-008 -1.9132894E-007 0.0
 -3.4242460E-008 -1.9069156E-007 0.0
 -3.8825706E-008 -1.9005234E-007 0.0
 -4.3099132E-008 -1.8947421E-007 0.0
 -4.6897393E-008 -1.8889949E-007 0.0
 -5.0274708E-008 -1.8829369E-007 0.0
 -5.3386751E-008 -1.8765131E-007 0.0
 -5.6334090E-008 -1.8705107E-007 0.0
 -5.9137930E-008 -1.8651719E-007 0.0
 -6.1812276E-008 -1.8605768E-007 0.0
 -6.4361096E-008 -1.8567387E-007 0.0
 -6.6797836E-008 -1.8534610E-007 0.0
 -6.9165351E-008 -1.8505552E-007 0.0
 -7.1525539E-008 -1.8478481E-007 0.0
 -7.3917405E-008 -1.8453554E-007 0.0
 -7.6352094E-008 -1.8430054E-007 0.0
 -7.8835673E-008 -1.8406976E-007 0.0
 -8.1374183E-008 -1.8383402E-007 0.0
 -8.3973027E-008 -1.8358701E-007 0.0
 -8.6635034E-008 -1.8332513E-007 0.0
 -8.9360010E-008 -1.8304664E-007 0.0
 -9.2145149E-008 -1.8275224E-007 0.0
 -9.4986246E-008 -1.8244666E-007 0.0
 -9.7882022E-008 -1.8213981E-007 0.0
 -1.0083288E-007 -1.8184347E-007 0.0
 -1.0384424E-007 -1.8158457E-007 0.0
 -1.0693769E-007 -1.8140011E-007 0.0
 -1.1018311E-007 -1.8133352E-007 0.0
 -1.1367228E-007 -1.8137831E-007 0.0
 -1.1743501E-007 -1.8149783E-007 0.0
 -1.2143593E-007 -1.8165511E-007 0.0
 -1.2561643E-007 -1.8183809E-007 0.0
 -1.2992611E-007 -1.8204663E-007 0.0
 -1.3432605E-007 -1.8228290E-007 0.0
 -1.3878508E-007 -1.8254800E-007 0.0
 -1.4329198E-007 -1.8284160E-007 0.0
 -1.4781959E-007 -1.8314579E-007 0.0
 -1.5293265E-007 -1.8347732E-007 0.0
 -1.5957046E-007 -1.8322375E-007 0.0
  1.0223036E-007 -2.0243905E-007 0.0
  9.5717048E-008 -2.0227738E-007 0.0
  8.8771652E-008 -2.0179428E-007 0.0
  8.2165347E-008 -2.0103364E-007 0.0
  7.6035046E-008 -2.0016752E-007 0.0
  7.0174792E-008 -1.9927613E-007 0.0
  6.4423049E-008 -1.9833937E-007 0.0
  5.8693821E-008 -1.9734800E-007 0.0
  5.2926069E-008 -1.9630078E-007 0.0
  4.7074312E-008 -1.9520762E-007 0.0
  4.1104440E-008 -1.9408923E-007 0.0
  3.4997259E-008 -1.9297659E-007 0.0
  2.8754793E-008 -1.9190782E-007 0.0
  2.2405345E-008 -1.9092173E-007 0.0
  1.6002774E-008 -1.9004905E-007 0.0
  9.6183458E-009 -1.8930530E-007 0.0
  3.3283147E-009 -1.8868823E-007 0.0
 -2.7971839E-009 -1.8818005E-007 0.0
 -8.7024046E-009 -1.8775110E-007 0.0
 -1.4352932E-008 -1.8736506E-007 0.0
 -1.9740332E-008 -1.8698607E-007 0.0
 -2.4879131E-008 -1.8658850E-007 0.0
 -2.9794470E-008 -1.8616461E-007 0.0
 -3.4501000E-008 -1.8572993E-007 0.0
 -3.8972569E-008 -1.8531739E-007 0.0
 -4.3138851E-008 -1.8494290E-007 0.0
 -4.6934380E-008 -1.8459169E-007 0.0
 -5.0375064E-008 -1.8422574E-007 0.0
 -5.3537110E-008 -1.8384285E-007 0.0
 -5.6493345E-008 -1.8346039E-007 0.0
 -5.9290552E-008 -1.8310444E-007 0.0
 -6.1953179E-008 -1.8278650E-007 0.0
 -6.4501037E-008 -1.8250522E-007 0.0
 -6.6958556E-008 -1.8225082E-007 0.0
 -6.9362166E-008 -1.8200918E-007 0.0
 -7.1753506E-008 -1.8177314E-007 0.0
 -7.4164276E-008 -1.8154008E-007 0.0
 -7.6612454E-008 -1.8130888E-007 0.0
 -7.9107062E-008 -1.8107548E-007 0.0
 -8.1653881E-008 -1.8083486E-007 0.0
 -8.4256526E-008 -1.8058252E-007 0.0
 -8.6916067E-008 -1.8031495E-007 0.0
 -8.9630359E-008 -1.8002933E-007 0.0
 -9.2393255E-008 -1.7972343E-007 0.0
 -9.5194514E-008 -1.7939684E-007 0.0
 -9.8024272E-008 -1.7905496E-007 0.0
 -1.0089114E-007 -1.7870844E-007 0.0
 -1.0377806E-007 -1.7834697E-007 0.0
 -1.0665927E-007 -1.7805541E-007 0.0
 -1.0963869E-007 -1.7791206E-007 0.0
 -1.1294118E-007 -1.7794469E-007 0.0
 -1.1661458E-007 -1.7804983E-007 0.0
 -1.2055657E-007 -1.7818392E-007 0.0
 -1.2467748E-007 -1.7834441E-007 0.0
 -1.2891971E-007 -1.7853618E-007 0.0
 -1.3324173E-007 -1.7876006E-007 0.0
 -1.3760933E-007 -1.7901692E-007 0.0
 -1.4198353E-007 -1.7931178E-007 0.0
 -1.4637360E-007 -1.7966943E-007 0.0
 -1.5029926E-007 -1.8041624E-007 0.0
  9.5959249E-008 -1.9443782E-007 0.0
  8.7914307E-008 -1.9440468E-007 0.0
  8.0882391E-008 -1.9384501E-007 0.0
  7.4683582E-008 -1.9317557E-007 0.0
  6.8740771E-008 -1.9243030E-007 0.0
  6.2910071E-008 -1.9161513E-007 0.0
  5.7106079E-008 -1.9072749E-007 0.0
  5.1281651E-008 -1.8977716E-007 0.0
  4.5402756E-008 -1.8878235E-007 0.0
  3.9446276E-008 -1.8776857E-007 0.0
  3.3401394E-008 -1.8676709E-007 0.0
  2.7272953E-008 -1.8581218E-007 0.0
  2.1083611E-008 -1.8493649E-007 0.0
  1.4872764E-008 -1.8416563E-007 0.0
  8.6916163E-009 -1.8351355E-007 0.0
  2.5958431E-009 -1.8298048E-007 0.0
 -3.3618926E-009 -1.8255344E-007 0.0
 -9.1380912E-009 -1.8220915E-007 0.0
 -1.4702777E-008 -1.8191858E-007 0.0
 -2.0041018E-008 -1.8165363E-007 0.0
 -2.5150037E-008 -1.8139455E-007 0.0
 -3.0031267E-008 -1.8113595E-007 0.0
 -3.4678215E-008 -1.8088740E-007 0.0
 -3.9067245E-008 -1.8066401E-007 0.0
 -4.3161184E-008 -1.8047240E-007 0.0
 -4.6934098E-008 -1.8029986E-007 0.0
 -5.0395969E-008 -1.8012706E-007 0.0
 -5.3589352E-008 -1.7994223E-007 0.0
 -5.6566720E-008 -1.7974960E-007 0.0
 -5.9372870E-008 -1.7955898E-007 0.0
 -6.2042509E-008 -1.7937777E-007 0.0
 -6.4604469E-008 -1.7920590E-007 0.0
 -6.7088060E-008 -1.7903731E-007 0.0
 -6.9525389E-008 -1.7886483E-007 0.0
 -7.1948535E-008 -1.7868372E-007 0.0
 -7.4383981E-008 -1.7849302E-007 0.0
 -7.6849825E-008 -1.7829286E-007 0.0
 -7.9357149E-008 -1.7808287E-007 0.0
 -8.1912340E-008 -1.7786162E-007 0.0
 -8.4518591E-008 -1.7762728E-007 0.0
 -8.7176165E-008 -1.7737804E-007 0.0
 -8.9881993E-008 -1.7711173E-007 0.0
 -9.2628734E-008 -1.7682505E-007 0.0
 -9.5402117E-008 -1.7651182E-007 0.0
 -9.8180427E-008 -1.7616532E-007 0.0
 -1.0096162E-007 -1.7578724E-007 0.0
 -1.0383474E-007 -1.7536922E-007 0.0
 -1.0649308E-007 -1.7480439E-007 0.0
 -1.0898959E-007 -1.7456875E-007 0.0
 -1.1210949E-007 -1.7456335E-007 0.0
 -1.1573911E-007 -1.7463044E-007 0.0
 -1.1964262E-007 -1.7473233E-007 0.0
 -1.2371078E-007 -1.7488325E-007 0.0
 -1.2789205E-007 -1.7507804E-007 0.0
 -1.3214111E-007 -1.7531667E-007 0.0
 -1.3641366E-007 -1.7560593E-007 0.0
 -1.4066097E-007 -1.7596587E-007 0.0
 -1.4474403E-007 -1.7647222E-007 0.0
 -1.4838881E-007 -1.7710467E-007 0.0
  8.6265165E-008 -1.8740650E-007 0.0
  7.9600264E-008 -1.8678972E-007 0.0
  7.3365205E-008 -1.8625134E-007 0.0
  6.7374681E-008 -1.8565339E-007 0.0
  6.1466696E-008 -1.8495670E-007 0.0
  5.5593780E-008 -1.8417059E-007 0.0
  4.9721057E-008 -1.8331541E-007 0.0
  4.3824972E-008 -1.8241675E-007 0.0
  3.7889814E-008 -1.8150367E-007 0.0
  3.1909266E-008 -1.8060764E-007 0.0
  2.5888164E-008 -1.7976040E-007 0.0
  1.9843422E-008 -1.7899089E-007 0.0
  1.3803029E-008 -1.7832161E-007 0.0
  7.8029532E-009 -1.7776557E-007 0.0
  1.8826503E-009 -1.7732463E-007 0.0
 -3.9196238E-009 -1.7698969E-007 0.0
 -9.5705503E-009 -1.7674261E-007 0.0
 -1.5043705E-008 -1.7655995E-007 0.0
 -2.0319216E-008 -1.7641832E-007 0.0
 -2.5381339E-008 -1.7630056E-007 0.0
 -3.0214930E-008 -1.7620010E-007 0.0
 -3.4802614E-008 -1.7612040E-007 0.0
 -3.9124198E-008 -1.7606806E-007 0.0
 -4.3161008E-008 -1.7604325E-007 0.0
 -4.6904997E-008 -1.7603593E-007 0.0
 -5.0366952E-008 -1.7603047E-007 0.0
 -5.3575854E-008 -1.7601523E-007 0.0
 -5.6570693E-008 -1.7598652E-007 0.0
 -5.9392118E-008 -1.7594641E-007 0.0
 -6.2077743E-008 -1.7589696E-007 0.0
 -6.4661395E-008 -1.7583705E-007 0.0
 -6.7174063E-008 -1.7576272E-007 0.0
 -6.9644886E-008 -1.7566978E-007 0.0
 -7.2100483E-008 -1.7555616E-007 0.0
 -7.4563196E-008 -1.7542232E-007 0.0
 -7.7049874E-008 -1.7527011E-007 0.0
 -7.9571947E-008 -1.7510142E-007 0.0
 -8.2136284E-008 -1.7491765E-007 0.0
 -8.4745996E-008 -1.7471985E-007 0.0
 -8.7400937E-008 -1.7450903E-007 0.0
 -9.0097736E-008 -1.7428612E-007 0.0
 -9.2828850E-008 -1.7405130E-007 0.0
 -9.5580952E-008 -1.7380229E-007 0.0
 -9.8323252E-008 -1.7352711E-007 0.0
 -1.0101251E-007 -1.7321139E-007 0.0
 -1.0401355E-007 -1.7259446E-007 0.0
 -1.0672408E-007 -1.7206189E-007 0.0
 -1.0817268E-007 -1.7120587E-007 0.0
 -1.1116655E-007 -1.7109458E-007 0.0
 -1.1481511E-007 -1.7111167E-007 0.0
 -1.1867741E-007 -1.7122960E-007 0.0
 -1.2270321E-007 -1.7140471E-007 0.0
 -1.2683057E-007 -1.7162810E-007 0.0
 -1.3101088E-007 -1.7190203E-007 0.0
 -1.3519279E-007 -1.7223735E-007 0.0
 -1.3930287E-007 -1.7265736E-007 0.0
 -1.4322695E-007 -1.7317341E-007 0.0
 -1.4682217E-007 -1.7375703E-007 0.0
  8.4459377E-008 -1.8069211E-007 0.0
  7.8166303E-008 -1.8001499E-007 0.0
  7.2098076E-008 -1.7956593E-007 0.0
  6.6054817E-008 -1.7904692E-007 0.0
  6.0077672E-008 -1.7842284E-007 0.0
  5.4141416E-008 -1.7770862E-007 0.0
  4.8228690E-008 -1.7692895E-007 0.0
  4.2323775E-008 -1.7611185E-007 0.0
  3.6416154E-008 -1.7528710E-007 0.0
  3.0501688E-008 -1.7448517E-007 0.0
  2.4583833E-008 -1.7373566E-007 0.0
  1.8673968E-008 -1.7306495E-007 0.0
  1.2790600E-008 -1.7249364E-007 0.0
  6.9574410E-009 -1.7203435E-007 0.0
  1.2007665E-009 -1.7169044E-007 0.0
 -4.4532774E-009 -1.7145602E-007 0.0
 -9.9805110E-009 -1.7131708E-007 0.0
 -1.5358664E-008 -1.7125380E-007 0.0
 -2.0565171E-008 -1.7124454E-007 0.0
 -2.5574248E-008 -1.7127124E-007 0.0
 -3.0357236E-008 -1.7132495E-007 0.0
 -3.4887805E-008 -1.7140585E-007 0.0
 -3.9148587E-008 -1.7151724E-007 0.0
 -4.3133331E-008 -1.7165618E-007 0.0
 -4.6845671E-008 -1.7181079E-007 0.0
 -5.0298209E-008 -1.7196465E-007 0.0
 -5.3512537E-008 -1.7210466E-007 0.0
 -5.6518983E-008 -1.7222459E-007 0.0
 -5.9354495E-008 -1.7232329E-007 0.0
 -6.2058262E-008 -1.7239983E-007 0.0
 -6.4666576E-008 -1.7245131E-007 0.0
 -6.7210350E-008 -1.7247370E-007 0.0
 -6.9715510E-008 -1.7246438E-007 0.0
 -7.2204287E-008 -1.7242343E-007 0.0
 -7.4695606E-008 -1.7235333E-007 0.0
 -7.7204742E-008 -1.7225781E-007 0.0
 -7.9742878E-008 -1.7214073E-007 0.0
 -8.2316915E-008 -1.7200566E-007 0.0
 -8.4929619E-008 -1.7185618E-007 0.0
 -8.7580060E-008 -1.7169649E-007 0.0
 -9.0264025E-008 -1.7153197E-007 0.0
 -9.2973386E-008 -1.7136960E-007 0.0
 -9.5691557E-008 -1.7122049E-007 0.0
 -9.8388347E-008 -1.7111002E-007 0.0
 -1.0089712E-007 -1.7112350E-007 0.0
 -1.0627426E-007 -1.6653598E-007 0.0
 -1.1009694E-007 -1.6713341E-007 0.0
 -1.1375795E-007 -1.6739648E-007 0.0
 -1.1763146E-007 -1.6762735E-007 0.0
 -1.2163632E-007 -1.6787119E-007 0.0
 -1.2572612E-007 -1.6814561E-007 0.0
 -1.2985055E-007 -1.6846402E-007 0.0
 -1.3395608E-007 -1.6884004E-007 0.0
 -1.3797628E-007 -1.6928327E-007 0.0
 -1.4182960E-007 -1.6978973E-007 0.0
 -1.4543859E-007 -1.7032506E-007 0.0
  8.2284917E-008 -1.7402915E-007 0.0
  7.6859920E-008 -1.7363868E-007 0.0
  7.0811271E-008 -1.7318702E-007 0.0
  6.4744336E-008 -1.7264882E-007 0.0
  5.8708249E-008 -1.7203364E-007 0.0
  5.2722333E-008 -1.7135030E-007 0.0
  4.6781197E-008 -1.7061836E-007 0.0
  4.0877256E-008 -1.6986226E-007 0.0
  3.5004075E-008 -1.6910908E-007 0.0
  2.9158840E-008 -1.6838683E-007 0.0
  2.3343250E-008 -1.6772272E-007 0.0
  1.7563636E-008 -1.6714113E-007 0.0
  1.1830381E-008 -1.6666145E-007 0.0
  6.1568778E-009 -1.6629628E-007 0.0
  5.5827185E-010 -1.6605036E-007 0.0
 -4.9497663E-009 -1.6592064E-007 0.0
 -1.0351859E-008 -1.6589698E-007 0.0
 -1.5631943E-008 -1.6596267E-007 0.0
 -2.0768231E-008 -1.6609554E-007 0.0
 -2.5727049E-008 -1.6627370E-007 0.0
 -3.0463401E-008 -1.6648352E-007 0.0
 -3.4938164E-008 -1.6672616E-007 0.0
 -3.9136945E-008 -1.6700564E-007 0.0
 -4.3068340E-008 -1.6731751E-007 0.0
 -4.6748209E-008 -1.6764254E-007 0.0
 -5.0189787E-008 -1.6795869E-007 0.0
 -5.3406377E-008 -1.6824939E-007 0.0
 -5.6419538E-008 -1.6850944E-007 0.0
 -5.9264461E-008 -1.6873861E-007 0.0
 -6.1984361E-008 -1.6893564E-007 0.0
 -6.4618441E-008 -1.6909490E-007 0.0
 -6.7195546E-008 -1.6921129E-007 0.0
 -6.9736761E-008 -1.6928332E-007 0.0
 -7.2259567E-008 -1.6931375E-007 0.0
 -7.4779927E-008 -1.6930771E-007 0.0
 -7.7311883E-008 -1.6927100E-007 0.0
 -7.9866450E-008 -1.6920918E-007 0.0
 -8.2450504E-008 -1.6912729E-007 0.0
 -8.5065966E-008 -1.6903052E-007 0.0
 -8.7710234E-008 -1.6892557E-007 0.0
 -9.0377496E-008 -1.6882119E-007 0.0
 -9.3058345E-008 -1.6872872E-007 0.0
 -9.5734606E-008 -1.6866246E-007 0.0
 -9.8362052E-008 -1.6864362E-007 0.0
 -1.0089093E-007 -1.6863123E-007 0.0
 -1.0476367E-007 -1.6253913E-007 0.0
 -1.0867130E-007 -1.6309685E-007 0.0
 -1.1254547E-007 -1.6358014E-007 0.0
 -1.1647822E-007 -1.6394444E-007 0.0
 -1.2050158E-007 -1.6427250E-007 0.0
 -1.2457728E-007 -1.6460520E-007 0.0
 -1.2866621E-007 -1.6496759E-007 0.0
 -1.3272326E-007 -1.6537334E-007 0.0
 -1.3669605E-007 -1.6582634E-007 0.0
 -1.4052915E-007 -1.6631651E-007 0.0
 -1.4417761E-007 -1.6681652E-007 0.0
  8.6427334E-008 -1.7389779E-007 0.0
  8.6540880E-008 -1.6867784E-007 0.0
  8.1100372E-008 -1.6829210E-007 0.0
  7.5474795E-008 -1.6767092E-007 0.0
  6.9488028E-008 -1.6703370E-007 0.0
  6.3396556E-008 -1.6641221E-007 0.0
  5.7326042E-008 -1.6576170E-007 0.0
  5.1308498E-008 -1.6507762E-007 0.0
  4.5354083E-008 -1.6436928E-007 0.0
  3.9462671E-008 -1.6365471E-007 0.0
  3.3632136E-008 -1.6295639E-007 0.0
  2.7861047E-008 -1.6229894E-007 0.0
  2.2149696E-008 -1.6170706E-007 0.0
  1.6500071E-008 -1.6120354E-007 0.0
  1.0915431E-008 -1.6080704E-007 0.0
  5.3999751E-009 -1.6053031E-007 0.0
 -4.1041558E-011 -1.6037905E-007 0.0
 -5.4010749E-009 -1.6035244E-007 0.0
 -1.0672649E-008 -1.6044444E-007 0.0
 -1.5847998E-008 -1.6064393E-007 0.0
 -2.0914098E-008 -1.6093029E-007 0.0
 -2.5832923E-008 -1.6127183E-007 0.0
 -3.0534576E-008 -1.6164893E-007 0.0
 -3.4950707E-008 -1.6206275E-007 0.0
 -3.9075324E-008 -1.6253112E-007 0.0
 -4.2946650E-008 -1.6303949E-007 0.0
 -4.6596913E-008 -1.6355753E-007 0.0
 -5.0035861E-008 -1.6404736E-007 0.0
 -5.3260319E-008 -1.6449118E-007 0.0
 -5.6277770E-008 -1.6488554E-007 0.0
 -5.9124270E-008 -1.6523948E-007 0.0
 -6.1856506E-008 -1.6555076E-007 0.0
 -6.4518463E-008 -1.6581089E-007 0.0
 -6.7133216E-008 -1.6601211E-007 0.0
 -6.9713015E-008 -1.6615640E-007 0.0
 -7.2270343E-008 -1.6625085E-007 0.0
 -7.4819154E-008 -1.6630357E-007 0.0
 -7.7373092E-008 -1.6632218E-007 0.0
 -7.9943530E-008 -1.6631353E-007 0.0
 -8.2537841E-008 -1.6628359E-007 0.0
 -8.5157279E-008 -1.6623772E-007 0.0
 -8.7795699E-008 -1.6618291E-007 0.0
 -9.0445047E-008 -1.6613071E-007 0.0
 -9.3098759E-008 -1.6609085E-007 0.0
 -9.5741100E-008 -1.6607184E-007 0.0
 -9.8352097E-008 -1.6606583E-007 0.0
 -1.0331343E-007 -1.5866202E-007 0.0
 -1.0720973E-007 -1.5925545E-007 0.0
 -1.1120108E-007 -1.5978240E-007 0.0
 -1.1523982E-007 -1.6022510E-007 0.0
 -1.1930793E-007 -1.6061375E-007 0.0
 -1.2339121E-007 -1.6099566E-007 0.0
 -1.2746655E-007 -1.6139547E-007 0.0
 -1.3150234E-007 -1.6182416E-007 0.0
 -1.3546070E-007 -1.6228160E-007 0.0
 -1.3930360E-007 -1.6275723E-007 0.0
 -1.4300354E-007 -1.6323028E-007 0.0
  8.6002833E-008 -1.6254251E-007 0.0
  8.0025074E-008 -1.6215503E-007 0.0
  7.4134676E-008 -1.6158091E-007 0.0
  6.8109017E-008 -1.6091692E-007 0.0
  6.2004695E-008 -1.6023634E-007 0.0
  5.5912449E-008 -1.5954961E-007 0.0
  4.9880404E-008 -1.5885397E-007 0.0
  4.3927260E-008 -1.5815623E-007 0.0
  3.8059988E-008 -1.5746983E-007 0.0
  3.2280658E-008 -1.5681309E-007 0.0
  2.6589722E-008 -1.5620736E-007 0.0
  2.0986788E-008 -1.5567518E-007 0.0
  1.5470351E-008 -1.5523822E-007 0.0
  1.0037278E-008 -1.5491502E-007 0.0
  4.6828739E-009 -1.5471868E-007 0.0
 -5.9754338E-010 -1.5465507E-007 0.0
 -5.8055867E-009 -1.5472346E-007 0.0
 -1.0938895E-008 -1.5492072E-007 0.0
 -1.5995484E-008 -1.5524465E-007 0.0
 -2.0979753E-008 -1.5568937E-007 0.0
 -2.5878133E-008 -1.5622045E-007 0.0
 -3.0571244E-008 -1.5677867E-007 0.0
 -3.4912938E-008 -1.5740006E-007 0.0
 -3.8932719E-008 -1.5809454E-007 0.0
 -4.2734159E-008 -1.5885135E-007 0.0
 -4.6369135E-008 -1.5958896E-007 0.0
 -4.9826016E-008 -1.6027430E-007 0.0
 -5.3076664E-008 -1.6087653E-007 0.0
 -5.6100154E-008 -1.6140671E-007 0.0
 -5.8934258E-008 -1.6187584E-007 0.0
 -6.1674595E-008 -1.6229591E-007 0.0
 -6.4373954E-008 -1.6264036E-007 0.0
 -6.7033231E-008 -1.6290704E-007 0.0
 -6.9653521E-008 -1.6310748E-007 0.0
 -7.2244405E-008 -1.6325383E-007 0.0
 -7.4819757E-008 -1.6335588E-007 0.0
 -7.7393751E-008 -1.6342188E-007 0.0
 -7.9978694E-008 -1.6345927E-007 0.0
 -8.2583095E-008 -1.6347468E-007 0.0
 -8.5209167E-008 -1.6347396E-007 0.0
 -8.7847064E-008 -1.6346173E-007 0.0
 -9.0477159E-008 -1.6344814E-007 0.0
 -9.3111730E-008 -1.6344739E-007 0.0
 -9.5739358E-008 -1.6345063E-007 0.0
 -1.0178393E-007 -1.5488956E-007 0.0
 -1.0570969E-007 -1.5550219E-007 0.0
 -1.0982274E-007 -1.5603393E-007 0.0
 -1.1396096E-007 -1.5647654E-007 0.0
 -1.1807784E-007 -1.5689386E-007 0.0
 -1.2217930E-007 -1.5731077E-007 0.0
 -1.2625781E-007 -1.5774155E-007 0.0
 -1.3029478E-007 -1.5818994E-007 0.0
 -1.3426358E-007 -1.5865157E-007 0.0
 -1.3813625E-007 -1.5911594E-007 0.0
 -1.4189370E-007 -1.5956845E-007 0.0
  8.5191300E-008 -1.5629736E-007 0.0
  7.9000740E-008 -1.5588987E-007 0.0
  7.2875300E-008 -1.5536521E-007 0.0
  6.6732723E-008 -1.5473062E-007 0.0
  6.0580818E-008 -1.5404289E-007 0.0
  5.4466945E-008 -1.5333979E-007 0.0
  4.8428978E-008 -1.5263858E-007 0.0
  4.2487741E-008 -1.5194993E-007 0.0
  3.6653835E-008 -1.5128609E-007 0.0
  3.0933033E-008 -1.5066274E-007 0.0
  2.5328101E-008 -1.5009890E-007 0.0
  1.9838835E-008 -1.4961564E-007 0.0
  1.4461205E-008 -1.4923421E-007 0.0
  9.1863096E-009 -1.4897375E-007 0.0
  4.0001752E-009 -1.4884830E-007 0.0
 -1.1138784E-009 -1.4886368E-007 0.0
 -6.1679881E-009 -1.4901548E-007 0.0
 -1.1159972E-008 -1.4929517E-007 0.0
 -1.6081905E-008 -1.4970817E-007 0.0
 -2.0948806E-008 -1.5027347E-007 0.0
 -2.5811455E-008 -1.5100422E-007 0.0
 -3.0593662E-008 -1.5183396E-007 0.0
 -3.4782610E-008 -1.5268229E-007 0.0
 -3.8627707E-008 -1.5377233E-007 0.0
 -4.2405465E-008 -1.5480594E-007 0.0
 -4.6046998E-008 -1.5576830E-007 0.0
 -4.9531727E-008 -1.5666362E-007 0.0
 -5.2855004E-008 -1.5748327E-007 0.0
 -5.5903884E-008 -1.5813252E-007 0.0
 -5.8682714E-008 -1.5873202E-007 0.0
 -6.1450604E-008 -1.5922831E-007 0.0
 -6.4204438E-008 -1.5961421E-007 0.0
 -6.6912256E-008 -1.5991505E-007 0.0
 -6.9570655E-008 -1.6015228E-007 0.0
 -7.2191555E-008 -1.6033736E-007 0.0
 -7.4790413E-008 -1.6047778E-007 0.0
 -7.7382173E-008 -1.6058016E-007 0.0
 -7.9979910E-008 -1.6065174E-007 0.0
 -8.2594182E-008 -1.6069987E-007 0.0
 -8.5228739E-008 -1.6073105E-007 0.0
 -8.7875092E-008 -1.6075414E-007 0.0
 -9.0476812E-008 -1.6079191E-007 0.0
 -9.3117053E-008 -1.6079730E-007 0.0
 -1.0005579E-007 -1.5113844E-007 0.0
 -1.0417893E-007 -1.5181457E-007 0.0
 -1.0848149E-007 -1.5224145E-007 0.0
 -1.1267789E-007 -1.5266507E-007 0.0
 -1.1683021E-007 -1.5309824E-007 0.0
 -1.2095010E-007 -1.5354446E-007 0.0
 -1.2504218E-007 -1.5400427E-007 0.0
 -1.2909763E-007 -1.5447337E-007 0.0
 -1.3309706E-007 -1.5494218E-007 0.0
 -1.3701552E-007 -1.5539920E-007 0.0
 -1.4083375E-007 -1.5583530E-007 0.0
  8.4290663E-008 -1.5001246E-007 0.0
  7.7974598E-008 -1.4960411E-007 0.0
  7.1655256E-008 -1.4909337E-007 0.0
  6.5366880E-008 -1.4847472E-007 0.0
  5.9138503E-008 -1.4779247E-007 0.0
  5.2994241E-008 -1.4709126E-007 0.0
  4.6952922E-008 -1.4639703E-007 0.0
  4.1028966E-008 -1.4572393E-007 0.0
  3.5233749E-008 -1.4508376E-007 0.0
  2.9576117E-008 -1.4449082E-007 0.0
  2.4061640E-008 -1.4396294E-007 0.0
  1.8691190E-008 -1.4352059E-007 0.0
  1.3459242E-008 -1.4318522E-007 0.0
  8.3520567E-009 -1.4297709E-007 0.0
  3.3458623E-009 -1.4291236E-007 0.0
 -1.5915639E-009 -1.4299774E-007 0.0
 -6.4914011E-009 -1.4322520E-007 0.0
 -1.1359078E-008 -1.4356793E-007 0.0
 -1.6148897E-008 -1.4400663E-007 0.0
 -2.0858678E-008 -1.4459126E-007 0.0
 -2.5627070E-008 -1.4534875E-007 0.0
 -3.0574928E-008 -1.4631859E-007 0.0
 -3.4254830E-008 -1.4828975E-007 0.0
 -3.8172425E-008 -1.4972939E-007 0.0
 -4.1966323E-008 -1.5096206E-007 0.0
 -4.5633905E-008 -1.5210495E-007 0.0
 -4.9146364E-008 -1.5318912E-007 0.0
 -5.2483240E-008 -1.5425332E-007 0.0
 -5.5704004E-008 -1.5538300E-007 0.0
 -5.8406195E-008 -1.5593273E-007 0.0
 -6.1231818E-008 -1.5636920E-007 0.0
 -6.4041389E-008 -1.5672677E-007 0.0
 -6.6787053E-008 -1.5703559E-007 0.0
 -6.9475065E-008 -1.5729824E-007 0.0
 -7.2120588E-008 -1.5751385E-007 0.0
 -7.4740209E-008 -1.5768332E-007 0.0
 -7.7348854E-008 -1.5781002E-007 0.0
 -7.9958985E-008 -1.5789957E-007 0.0
 -8.2583091E-008 -1.5796036E-007 0.0
 -8.5232290E-008 -1.5799856E-007 0.0
 -8.7895460E-008 -1.5801588E-007 0.0
 -9.7879237E-008 -1.4752758E-007 0.0
 -1.0283123E-007 -1.4789626E-007 0.0
 -1.0716185E-007 -1.4830342E-007 0.0
 -1.1139871E-007 -1.4874987E-007 0.0
 -1.1556996E-007 -1.4921385E-007 0.0
 -1.1970567E-007 -1.4969320E-007 0.0
 -1.2381694E-007 -1.5018467E-007 0.0
 -1.2790414E-007 -1.5067918E-007 0.0
 -1.3195297E-007 -1.5116134E-007 0.0
 -1.3593454E-007 -1.5161564E-007 0.0
 -1.3981753E-007 -1.5203718E-007 0.0
  8.3408171E-008 -1.4369170E-007 0.0
  7.6950853E-008 -1.4329419E-007 0.0
  7.0427070E-008 -1.4277406E-007 0.0
  6.3984638E-008 -1.4214352E-007 0.0
  5.7674758E-008 -1.4146334E-007 0.0
  5.1498657E-008 -1.4077667E-007 0.0
  4.5454618E-008 -1.4010458E-007 0.0
  3.9548954E-008 -1.3945808E-007 0.0
  3.3793212E-008 -1.3884747E-007 0.0
  2.8199839E-008 -1.3828625E-007 0.0
  2.2778196E-008 -1.3779240E-007 0.0
  1.7530845E-008 -1.3738698E-007 0.0
  1.2451589E-008 -1.3709160E-007 0.0
  7.5232879E-009 -1.3692748E-007 0.0
  2.7135103E-009 -1.3691301E-007 0.0
 -2.0301303E-009 -1.3705851E-007 0.0
 -6.7678992E-009 -1.3735405E-007 0.0
 -1.1538245E-008 -1.3776786E-007 0.0
 -1.6274203E-008 -1.3822790E-007 0.0
 -2.0778438E-008 -1.3870479E-007 0.0
 -2.5499484E-008 -1.3925237E-007 0.0
 -3.0873214E-008 -1.3937950E-007 0.0
 -5.5760177E-008 -1.5340657E-007 0.0
 -5.8228438E-008 -1.5334929E-007 0.0
 -6.1074177E-008 -1.5358724E-007 0.0
 -6.3895340E-008 -1.5391914E-007 0.0
 -6.6659931E-008 -1.5425383E-007 0.0
 -6.9369174E-008 -1.5455204E-007 0.0
 -7.2036660E-008 -1.5479902E-007 0.0
 -7.4677250E-008 -1.5499116E-007 0.0
 -7.7304677E-008 -1.5513063E-007 0.0
 -7.9930980E-008 -1.5522198E-007 0.0
 -8.2566736E-008 -1.5526947E-007 0.0
 -8.5244956E-008 -1.5527363E-007 0.0
 -9.1697880E-008 -1.4767908E-007 0.0
 -9.1800758E-008 -1.4264332E-007 0.0
 -9.6650937E-008 -1.4304599E-007 0.0
 -1.0142162E-007 -1.4365136E-007 0.0
 -1.0584598E-007 -1.4422490E-007 0.0
 -1.1010662E-007 -1.4473904E-007 0.0
 -1.1429552E-007 -1.4524636E-007 0.0
 -1.1844425E-007 -1.4576063E-007 0.0
 -1.2257588E-007 -1.4628504E-007 0.0
 -1.2670324E-007 -1.4681091E-007 0.0
 -1.3082076E-007 -1.4731612E-007 0.0
 -1.3489083E-007 -1.4777474E-007 0.0
 -1.3884966E-007 -1.4818075E-007 0.0
  8.2645259E-008 -1.3728995E-007 0.0
  7.5933107E-008 -1.3692049E-007 0.0
  6.9143014E-008 -1.3635671E-007 0.0
  6.2556793E-008 -1.3569892E-007 0.0
  5.6184944E-008 -1.3503083E-007 0.0
  4.9985079E-008 -1.3437809E-007 0.0
  4.3938656E-008 -1.3374556E-007 0.0
  3.8048570E-008 -1.3313919E-007 0.0
  3.2328267E-008 -1.3256683E-007 0.0
  2.6796115E-008 -1.3204144E-007 0.0
  2.1467747E-008 -1.3158288E-007 0.0
  1.6348035E-008 -1.3121566E-007 0.0
  1.1427887E-008 -1.3096226E-007 0.0
  6.6891020E-009 -1.3083978E-007 0.0
  2.0958479E-009 -1.3086938E-007 0.0
 -2.4272870E-009 -1.3106309E-007 0.0
 -6.9921572E-009 -1.3140780E-007 0.0
 -1.1668097E-008 -1.3185840E-007 0.0
 -1.6460387E-008 -1.3239553E-007 0.0
 -2.0543876E-008 -1.3332440E-007 0.0
 -2.5696082E-008 -1.3339901E-007 0.0
 -9.1167805E-008 -1.3861158E-007 0.0
 -9.5489469E-008 -1.3903364E-007 0.0
 -1.0006893E-007 -1.3957946E-007 0.0
 -1.0451739E-007 -1.4014123E-007 0.0
 -1.0880852E-007 -1.4068670E-007 0.0
 -1.1301039E-007 -1.4122024E-007 0.0
 -1.1716794E-007 -1.4175762E-007 0.0
 -1.2131395E-007 -1.4230659E-007 0.0
 -1.2547947E-007 -1.4286449E-007 0.0
 -1.2968277E-007 -1.4340629E-007 0.0
 -1.3388425E-007 -1.4388183E-007 0.0
 -1.3795264E-007 -1.4426932E-007 0.0
  8.2164563E-008 -1.3070067E-007 0.0
  7.4872439E-008 -1.3034187E-007 0.0
  6.7756804E-008 -1.2973447E-007 0.0
  6.1080936E-008 -1.2909254E-007 0.0
  5.4678279E-008 -1.2848300E-007 0.0
  4.8460701E-008 -1.2788811E-007 0.0
  4.2411063E-008 -1.2731223E-007 0.0
  3.6530329E-008 -1.2675948E-007 0.0
  3.0836264E-008 -1.2623528E-007 0.0
  2.5357039E-008 -1.2575116E-007 0.0
  2.0120432E-008 -1.2533009E-007 0.0
  1.5137156E-008 -1.2500569E-007 0.0
  1.0388692E-008 -1.2480976E-007 0.0
  5.8421274E-009 -1.2475076E-007 0.0
  1.4859532E-009 -1.2482492E-007 0.0
 -2.7697401E-009 -1.2507607E-007 0.0
 -7.1635875E-009 -1.2544669E-007 0.0
 -1.1808539E-008 -1.2582339E-007 0.0
 -1.6739973E-008 -1.2604111E-007 0.0
 -9.0090425E-008 -1.3471818E-007 0.0
 -9.4345596E-008 -1.3521300E-007 0.0
 -9.8845801E-008 -1.3562259E-007 0.0
 -1.0323993E-007 -1.3610965E-007 0.0
 -1.0752605E-007 -1.3663152E-007 0.0
 -1.1172928E-007 -1.3716300E-007 0.0
 -1.1588726E-007 -1.3770084E-007 0.0
 -1.2003532E-007 -1.3825074E-007 0.0
 -1.2421948E-007 -1.3882198E-007 0.0
 -1.2850471E-007 -1.3940483E-007 0.0
 -1.3290733E-007 -1.3992624E-007 0.0
 -1.3718793E-007 -1.4028426E-007 0.0
  8.2291090E-008 -1.2316430E-007 0.0
  7.3717663E-008 -1.2327383E-007 0.0
  6.6277706E-008 -1.2285481E-007 0.0
  5.9597893E-008 -1.2236709E-007 0.0
  5.3162052E-008 -1.2183908E-007 0.0
  4.6931546E-008 -1.2131166E-007 0.0
  4.0876943E-008 -1.2080079E-007 0.0
  3.4998011E-008 -1.2031234E-007 0.0
  2.9315720E-008 -1.1984722E-007 0.0
  2.3872981E-008 -1.1941099E-007 0.0
  1.8721781E-008 -1.1902775E-007 0.0
  1.3890954E-008 -1.1874665E-007 0.0
  9.3508537E-009 -1.1862633E-007 0.0
  5.0154678E-009 -1.1869593E-007 0.0
  8.6322554E-010 -1.1890477E-007 0.0
 -2.9952471E-009 -1.1921501E-007 0.0
 -7.2373856E-009 -1.1969246E-007 0.0
 -1.2066326E-008 -1.1990301E-007 0.0
 -8.8556024E-008 -1.3097341E-007 0.0
 -9.3314833E-008 -1.3126142E-007 0.0
 -9.7697985E-008 -1.3163289E-007 0.0
 -1.0202530E-007 -1.3208838E-007 0.0
 -1.0627703E-007 -1.3258539E-007 0.0
 -1.1046720E-007 -1.3309832E-007 0.0
 -1.1461782E-007 -1.3361606E-007 0.0
 -1.1876004E-007 -1.3413758E-007 0.0
 -1.2293464E-007 -1.3466817E-007 0.0
 -1.2724888E-007 -1.3523892E-007 0.0
 -1.3190290E-007 -1.3580344E-007 0.0
 -1.3669935E-007 -1.3615234E-007 0.0
  7.1593512E-008 -1.1685446E-007 0.0
  6.4797873E-008 -1.1614362E-007 0.0
  5.8070105E-008 -1.1563582E-007 0.0
  5.1628662E-008 -1.1513569E-007 0.0
  4.5392591E-008 -1.1465406E-007 0.0
  3.9338246E-008 -1.1420215E-007 0.0
  3.3457458E-008 -1.1378366E-007 0.0
  2.7769407E-008 -1.1339176E-007 0.0
  2.2332991E-008 -1.1301593E-007 0.0
  1.7246022E-008 -1.1266968E-007 0.0
  1.2587788E-008 -1.1242140E-007 0.0
  8.3230859E-009 -1.1237174E-007 0.0
  4.2872779E-009 -1.1259380E-007 0.0
  3.0161374E-010 -1.1309963E-007 0.0
 -2.7991011E-009 -1.1424786E-007 0.0
 -7.4440035E-009 -1.1434942E-007 0.0
 -8.2983251E-008 -1.3107920E-007 0.0
 -8.3063810E-008 -1.2633884E-007 0.0
 -8.7654627E-008 -1.2663229E-007 0.0
 -9.2214017E-008 -1.2710265E-007 0.0
 -9.6572379E-008 -1.2759011E-007 0.0
 -1.0084209E-007 -1.2806885E-007 0.0
 -1.0506001E-007 -1.2855822E-007 0.0
 -1.0923124E-007 -1.2905178E-007 0.0
 -1.1337161E-007 -1.2954195E-007 0.0
 -1.1750502E-007 -1.3002180E-007 0.0
 -1.2167597E-007 -1.3048274E-007 0.0
 -1.2593831E-007 -1.3089920E-007 0.0
 -1.3081357E-007 -1.3126488E-007 0.0
 -1.3680738E-007 -1.3114860E-007 0.0
  6.9767178E-008 -1.1022262E-007 0.0
  6.3071346E-008 -1.0952781E-007 0.0
  5.6462830E-008 -1.0890172E-007 0.0
  5.0045191E-008 -1.0837257E-007 0.0
  4.3830238E-008 -1.0790352E-007 0.0
  3.7791086E-008 -1.0749228E-007 0.0
  3.1916314E-008 -1.0713904E-007 0.0
  2.6212343E-008 -1.0683704E-007 0.0
  2.0735225E-008 -1.0655415E-007 0.0
  1.5650171E-008 -1.0625771E-007 0.0
  1.1179591E-008 -1.0602288E-007 0.0
  7.3007257E-009 -1.0603785E-007 0.0
  3.6431098E-009 -1.0634838E-007 0.0
 -1.4624575E-010 -1.0681781E-007 0.0
 -8.2628845E-008 -1.2234493E-007 0.0
 -8.6781168E-008 -1.2266080E-007 0.0
 -9.1125431E-008 -1.2310718E-007 0.0
 -9.5433371E-008 -1.2360071E-007 0.0
 -9.9675608E-008 -1.2409078E-007 0.0
 -1.0386719E-007 -1.2457294E-007 0.0
 -1.0801991E-007 -1.2505033E-007 0.0
 -1.1214709E-007 -1.2551970E-007 0.0
 -1.1627067E-007 -1.2597575E-007 0.0
 -1.2041844E-007 -1.2641404E-007 0.0
 -1.2467094E-007 -1.2684151E-007 0.0
 -1.2882866E-007 -1.2747742E-007 0.0
  6.7993660E-008 -1.0347395E-007 0.0
  6.1269397E-008 -1.0274644E-007 0.0
  5.4740128E-008 -1.0208184E-007 0.0
  4.8395035E-008 -1.0151243E-007 0.0
  4.2226205E-008 -1.0103270E-007 0.0
  3.6223372E-008 -1.0063272E-007 0.0
  3.0373505E-008 -1.0031897E-007 0.0
  2.4670004E-008 -1.0009676E-007 0.0
  1.9121753E-008 -9.9958550E-008 0.0
  1.3893168E-008 -9.9803048E-008 0.0
  9.5546702E-009 -9.9591237E-008 0.0
  6.3591941E-009 -9.9701362E-008 0.0
  3.1398005E-009 -1.0030308E-007 0.0
 -8.1922135E-008 -1.1850181E-007 0.0
 -8.5892183E-008 -1.1885992E-007 0.0
 -9.0081285E-008 -1.1927208E-007 0.0
 -9.4320321E-008 -1.1972258E-007 0.0
 -9.8530050E-008 -1.2018473E-007 0.0
 -1.0269655E-007 -1.2064923E-007 0.0
 -1.0682741E-007 -1.2111260E-007 0.0
 -1.1093462E-007 -1.2157311E-007 0.0
 -1.1503245E-007 -1.2203143E-007 0.0
 -1.1913963E-007 -1.2249702E-007 0.0
 -1.2322793E-007 -1.2302170E-007 0.0
 -1.2718269E-007 -1.2361539E-007 0.0
  6.6132640E-008 -9.6569607E-008 0.0
  5.9387953E-008 -9.5807877E-008 0.0
  5.2941903E-008 -9.5119814E-008 0.0
  4.6673275E-008 -9.4533021E-008 0.0
  4.0560332E-008 -9.4018192E-008 0.0
  3.4609740E-008 -9.3587905E-008 0.0
  2.8806654E-008 -9.3257178E-008 0.0
  2.3126748E-008 -9.3043529E-008 0.0
  1.7562115E-008 -9.2966690E-008 0.0
  1.2059637E-008 -9.3079954E-008 0.0
  7.5285883E-009 -9.3257783E-008 0.0
  5.9143936E-009 -9.4001402E-008 0.0
 -8.1039079E-008 -1.1474970E-007 0.0
 -8.4940166E-008 -1.1513770E-007 0.0
 -8.9066165E-008 -1.1552803E-007 0.0
 -9.3250490E-008 -1.1592437E-007 0.0
 -9.7415413E-008 -1.1634788E-007 0.0
 -1.0154780E-007 -1.1678959E-007 0.0
 -1.0564865E-007 -1.1724188E-007 0.0
 -1.0972454E-007 -1.1770201E-007 0.0
 -1.1378200E-007 -1.1817353E-007 0.0
 -1.1781642E-007 -1.1867165E-007 0.0
 -1.2179890E-007 -1.1921217E-007 0.0
 -1.2567709E-007 -1.1979662E-007 0.0
  6.4038757E-008 -8.9564296E-008 0.0
  5.7426482E-008 -8.8715964E-008 0.0
  5.1102749E-008 -8.8079814E-008 0.0
  4.4865697E-008 -8.7444523E-008 0.0
  3.8806237E-008 -8.6856900E-008 0.0
  3.2915381E-008 -8.6348618E-008 0.0
  2.7166040E-008 -8.5931801E-008 0.0
  2.1521426E-008 -8.5606432E-008 0.0
  1.5906529E-008 -8.5356600E-008 0.0
  1.0266503E-008 -8.5080964E-008 0.0
  3.3710269E-009 -8.4019320E-008 0.0
 -7.9966621E-008 -1.1104483E-007 0.0
 -8.3933521E-008 -1.1148556E-007 0.0
 -8.8086993E-008 -1.1180176E-007 0.0
 -9.2215262E-008 -1.1215880E-007 0.0
 -9.6329096E-008 -1.1255651E-007 0.0
 -1.0041783E-007 -1.1298327E-007 0.0
 -1.0447983E-007 -1.1342983E-007 0.0
 -1.0851535E-007 -1.1389289E-007 0.0
 -1.1252252E-007 -1.1437561E-007 0.0
 -1.1649191E-007 -1.1488517E-007 0.0
 -1.2040317E-007 -1.1542752E-007 0.0
 -1.2423298E-007 -1.1599742E-007 0.0
  6.1461564E-008 -8.2398210E-008 0.0
  5.5567343E-008 -8.1777620E-008 0.0
  4.9151136E-008 -8.1032554E-008 0.0
  4.2937431E-008 -8.0263008E-008 0.0
  3.6935362E-008 -7.9558662E-008 0.0
  3.1112434E-008 -7.8943087E-008 0.0
  2.5412410E-008 -7.8403136E-008 0.0
  1.9772416E-008 -7.7900531E-008 0.0
  1.4100210E-008 -7.7375404E-008 0.0
  8.0240026E-009 -7.6680891E-008 0.0
  8.1694550E-010 -7.5889427E-008 0.0
 -7.8568441E-008 -1.0746780E-007 0.0
 -8.3017335E-008 -1.0772274E-007 0.0
 -8.7116373E-008 -1.0802987E-007 0.0
 -9.1196641E-008 -1.0839282E-007 0.0
 -9.5257397E-008 -1.0879196E-007 0.0
 -9.9299704E-008 -1.0921814E-007 0.0
 -1.0331845E-007 -1.0966557E-007 0.0
 -1.0730948E-007 -1.1013241E-007 0.0
 -1.1126691E-007 -1.1062025E-007 0.0
 -1.1518105E-007 -1.1113223E-007 0.0
 -1.1903874E-007 -1.1166935E-007 0.0
 -1.2282848E-007 -1.1222770E-007 0.0
  6.6191075E-008 -8.2332345E-008 0.0
  6.6427990E-008 -7.6410927E-008 0.0
  5.9973131E-008 -7.5958004E-008 0.0
  5.3461434E-008 -7.4985174E-008 0.0
  4.7015493E-008 -7.3910138E-008 0.0
  4.0845359E-008 -7.2956494E-008 0.0
  3.4938227E-008 -7.2133606E-008 0.0
  2.9203043E-008 -7.1422639E-008 0.0
  2.3552120E-008 -7.0785813E-008 0.0
  1.7899128E-008 -7.0154127E-008 0.0
  1.2143220E-008 -6.9439835E-008 0.0
  6.0726545E-009 -6.8668474E-008 0.0
 -8.7791467E-010 -6.8011332E-008 0.0
 -7.3381959E-008 -1.0756042E-007 0.0
 -7.3455763E-008 -1.0311706E-007 0.0
 -7.7762056E-008 -1.0337776E-007 0.0
 -8.2036438E-008 -1.0379487E-007 0.0
 -8.6132878E-008 -1.0422110E-007 0.0
 -9.0168609E-008 -1.0463212E-007 0.0
 -9.4186829E-008 -1.0505342E-007 0.0
 -9.8186352E-008 -1.0548961E-007 0.0
 -1.0216293E-007 -1.0594235E-007 0.0
 -1.0611051E-007 -1.0641263E-007 0.0
 -1.1002201E-007 -1.0690200E-007 0.0
 -1.1388880E-007 -1.0741181E-007 0.0
 -1.1770176E-007 -1.0794192E-007 0.0
 -1.2145416E-007 -1.0848980E-007 0.0
  6.6277160E-008 -6.9257648E-008 0.0
  5.8423037E-008 -6.8760892E-008 0.0
  5.1156811E-008 -6.7689084E-008 0.0
  4.4652649E-008 -6.6510187E-008 0.0
  3.8607821E-008 -6.5482528E-008 0.0
  3.2834256E-008 -6.4599013E-008 0.0
  2.7221855E-008 -6.3840247E-008 0.0
  2.1651872E-008 -6.3173310E-008 0.0
  1.5999323E-008 -6.2544682E-008 0.0
  1.0198634E-008 -6.1853319E-008 0.0
  4.3493592E-009 -6.1083662E-008 0.0
 -1.8384265E-009 -6.0540804E-008 0.0
 -7.3071124E-008 -9.9343417E-008 0.0
 -7.6982732E-008 -9.9624934E-008 0.0
 -8.1062592E-008 -1.0002574E-007 0.0
 -8.5115948E-008 -1.0047101E-007 0.0
 -8.9126712E-008 -1.0091404E-007 0.0
 -9.3111634E-008 -1.0135394E-007 0.0
 -9.7074989E-008 -1.0180027E-007 0.0
 -1.0101321E-007 -1.0225822E-007 0.0
 -1.0492084E-007 -1.0273065E-007 0.0
 -1.0879105E-007 -1.0321923E-007 0.0
 -1.1261635E-007 -1.0372484E-007 0.0
 -1.1638964E-007 -1.0424730E-007 0.0
 -1.2010603E-007 -1.0478546E-007 0.0
  6.6595710E-008 -6.0702980E-008 0.0
  5.6653499E-008 -6.0737888E-008 0.0
  4.8632460E-008 -5.9863067E-008 0.0
  4.2191489E-008 -5.8871515E-008 0.0
  3.6265529E-008 -5.7890803E-008 0.0
  3.0661198E-008 -5.7007356E-008 0.0
  2.5214101E-008 -5.6243697E-008 0.0
  1.9780439E-008 -5.5595704E-008 0.0
  1.4224660E-008 -5.5050372E-008 0.0
  8.3979705E-009 -5.4616527E-008 0.0
  2.7512706E-009 -5.4254573E-008 0.0
 -1.7439424E-009 -5.4493998E-008 0.0
 -7.2446312E-008 -9.5706144E-008 0.0
 -7.6189136E-008 -9.6025495E-008 0.0
 -8.0119100E-008 -9.6404710E-008 0.0
 -8.4104304E-008 -9.6826453E-008 0.0
 -8.8081873E-008 -9.7262840E-008 0.0
 -9.2037045E-008 -9.7704449E-008 0.0
 -9.5967564E-008 -9.8153389E-008 0.0
 -9.9870879E-008 -9.8613098E-008 0.0
 -1.0374227E-007 -9.9085568E-008 0.0
 -1.0757557E-007 -9.9571779E-008 0.0
 -1.1136392E-007 -1.0007213E-007 0.0
 -1.1510099E-007 -1.0058671E-007 0.0
 -1.1878234E-007 -1.0111542E-007 0.0
  5.3059081E-008 -5.3613939E-008 0.0
  4.6008924E-008 -5.2309477E-008 0.0
  3.9601238E-008 -5.1300837E-008 0.0
  3.3843222E-008 -5.0331792E-008 0.0
  2.8438207E-008 -4.9452213E-008 0.0
  2.3204057E-008 -4.8691583E-008 0.0
  1.7972347E-008 -4.8058142E-008 0.0
  1.2573890E-008 -4.7544409E-008 0.0
  6.8874321E-009 -4.7116374E-008 0.0
  3.0550447E-010 -4.6434068E-008 0.0
 -7.1674039E-008 -9.2142660E-008 0.0
 -7.5337344E-008 -9.2494159E-008 0.0
 -7.9185914E-008 -9.2866606E-008 0.0
 -8.3112935E-008 -9.3260693E-008 0.0
 -8.7050294E-008 -9.3673411E-008 0.0
 -9.0970987E-008 -9.4103132E-008 0.0
 -9.4868066E-008 -9.4547542E-008 0.0
 -9.8737912E-008 -9.5005586E-008 0.0
 -1.0257602E-007 -9.5476484E-008 0.0
 -1.0637626E-007 -9.5959496E-008 0.0
 -1.1013161E-007 -9.6454189E-008 0.0
 -1.1383536E-007 -9.6960722E-008 0.0
 -1.1748267E-007 -9.7479963E-008 0.0
  4.9509143E-008 -4.6590202E-008 0.0
  4.2878367E-008 -4.5204992E-008 0.0
  3.6822634E-008 -4.3990712E-008 0.0
  3.1303158E-008 -4.2950023E-008 0.0
  2.6161125E-008 -4.2042231E-008 0.0
  2.1194335E-008 -4.1271385E-008 0.0
  1.6214904E-008 -4.0631497E-008 0.0
  1.1034721E-008 -4.0098647E-008 0.0
  5.3758847E-009 -3.9589468E-008 0.0
 -1.1811945E-009 -3.9108556E-008 0.0
 -7.0782566E-008 -8.8632928E-008 0.0
 -7.4421782E-008 -8.9009963E-008 0.0
 -7.8251713E-008 -8.9373480E-008 0.0
 -8.2143663E-008 -8.9733516E-008 0.0
 -8.6037018E-008 -9.0121736E-008 0.0
 -8.9917712E-008 -9.0537668E-008 0.0
 -9.3778463E-008 -9.0976118E-008 0.0
 -9.7615031E-008 -9.1432082E-008 0.0
 -1.0142225E-007 -9.1901627E-008 0.0
 -1.0519318E-007 -9.2381853E-008 0.0
 -1.0891953E-007 -9.2871152E-008 0.0
 -1.1259307E-007 -9.3369608E-008 0.0
 -1.1620751E-007 -9.3879074E-008 0.0
  4.5770169E-008 -3.9809966E-008 0.0
  3.9456969E-008 -3.8299391E-008 0.0
  3.3776920E-008 -3.6964953E-008 0.0
  2.8619028E-008 -3.5827256E-008 0.0
  2.3819196E-008 -3.4878382E-008 0.0
  1.9184304E-008 -3.4095119E-008 0.0
  1.4515024E-008 -3.3453140E-008 0.0
  9.5958637E-009 -3.2919083E-008 0.0
  4.1680374E-009 -3.2474056E-008 0.0
 -2.0688648E-009 -3.2137491E-008 0.0
 -6.9734242E-008 -8.5148628E-008 0.0
 -7.3458953E-008 -8.5572263E-008 0.0
 -7.7338093E-008 -8.5871846E-008 0.0
 -8.1190276E-008 -8.6206690E-008 0.0
 -8.5037840E-008 -8.6582494E-008 0.0
 -8.8874493E-008 -8.6993089E-008 0.0
 -9.2696859E-008 -8.7430576E-008 0.0
 -9.6500491E-008 -8.7887797E-008 0.0
 -1.0027949E-007 -8.8358588E-008 0.0
 -1.0402548E-007 -8.8838003E-008 0.0
 -1.0772781E-007 -8.9323032E-008 0.0
 -1.1137515E-007 -8.9813530E-008 0.0
 -1.1495837E-007 -9.0312608E-008 0.0
  4.1733561E-008 -3.3286514E-008 0.0
  3.5760288E-008 -3.1652365E-008 0.0
  3.0501325E-008 -3.0215382E-008 0.0
  2.5789875E-008 -2.9017293E-008 0.0
  2.1422777E-008 -2.8051675E-008 0.0
  1.7191292E-008 -2.7282916E-008 0.0
  1.2895242E-008 -2.6669493E-008 0.0
  8.3325978E-009 -2.6185100E-008 0.0
  3.2805086E-009 -2.5830658E-008 0.0
 -2.5020215E-009 -2.5642251E-008 0.0
 -6.8394493E-008 -8.1765872E-008 0.0
 -7.2587536E-008 -8.2011755E-008 0.0
 -7.6427027E-008 -8.2306374E-008 0.0
 -8.0241602E-008 -8.2654441E-008 0.0
 -8.4041273E-008 -8.3040847E-008 0.0
 -8.7833933E-008 -8.3459458E-008 0.0
 -9.1617949E-008 -8.3904143E-008 0.0
 -9.5390110E-008 -8.4368290E-008 0.0
 -9.9144464E-008 -8.4844831E-008 0.0
 -1.0287124E-007 -8.5326990E-008 0.0
 -1.0655642E-007 -8.5809898E-008 0.0
 -1.1018351E-007 -8.6292777E-008 0.0
 -1.1373806E-007 -8.6780393E-008 0.0
  3.7349824E-008 -2.7071286E-008 0.0
  3.1766473E-008 -2.5301583E-008 0.0
  2.7015268E-008 -2.3783583E-008 0.0
  2.2854305E-008 -2.2575163E-008 0.0
  1.9010996E-008 -2.1655136E-008 0.0
  1.5251274E-008 -2.0955755E-008 0.0
  1.1390649E-008 -2.0414875E-008 0.0
  7.2642685E-009 -2.0007646E-008 0.0
  2.6931971E-009 -1.9752083E-008 0.0
 -2.5328437E-009 -1.9700267E-008 0.0
 -6.3480815E-008 -8.1851779E-008 0.0
 -6.3552294E-008 -7.7638237E-008 0.0
 -6.7631551E-008 -7.7884424E-008 0.0
 -7.1660865E-008 -7.8280702E-008 0.0
 -7.5502958E-008 -7.8688293E-008 0.0
 -7.9277665E-008 -7.9085448E-008 0.0
 -8.3036573E-008 -7.9499157E-008 0.0
 -8.6788013E-008 -7.9935160E-008 0.0
 -9.0535395E-008 -8.0393503E-008 0.0
 -9.4278177E-008 -8.0870023E-008 0.0
 -9.8012105E-008 -8.1357635E-008 0.0
 -1.0172703E-007 -8.1847541E-008 0.0
 -1.0540499E-007 -8.2331823E-008 0.0
 -1.0902133E-007 -8.2807820E-008 0.0
 -1.1255163E-007 -8.3282166E-008 0.0
  3.2558837E-008 -2.1185185E-008 0.0
  2.7436255E-008 -1.9266442E-008 0.0
  2.3346254E-008 -1.7702613E-008 0.0
  1.9881638E-008 -1.6574471E-008 0.0
  1.6654947E-008 -1.5796800E-008 0.0
  1.3416620E-008 -1.5244093E-008 0.0
  1.0023125E-008 -1.4821575E-008 0.0
  6.3824954E-009 -1.4500169E-008 0.0
  2.3741060E-009 -1.4334769E-008 0.0
 -2.1991334E-009 -1.4398432E-008 0.0
 -6.3195063E-008 -7.4051578E-008 0.0
 -6.6903875E-008 -7.4313080E-008 0.0
 -7.0749636E-008 -7.4688614E-008 0.0
 -7.4550307E-008 -7.5110090E-008 0.0
 -7.8297895E-008 -7.5537213E-008 0.0
 -8.2019879E-008 -7.5971963E-008 0.0
 -8.5732695E-008 -7.6424431E-008 0.0
 -8.9444262E-008 -7.6897635E-008 0.0
 -9.3158719E-008 -7.7389432E-008 0.0
 -9.6875721E-008 -7.7892941E-008 0.0
 -1.0058720E-007 -7.8396895E-008 0.0
 -1.0427207E-007 -7.8888177E-008 0.0
 -1.0789351E-007 -7.9358996E-008 0.0
 -1.1140804E-007 -7.9817162E-008 0.0
  2.7232369E-008 -1.5623057E-008 0.0
  2.2712829E-008 -1.3517682E-008 0.0
  1.9570705E-008 -1.2013796E-008 0.0
  1.6994850E-008 -1.1121164E-008 0.0
  1.4455990E-008 -1.0624189E-008 0.0
  1.1744015E-008 -1.0293217E-008 0.0
  8.8115870E-009 -1.0030171E-008 0.0
  5.6434857E-009 -9.8071454E-009 0.0
  2.2673044E-009 -9.6619448E-009 0.0
 -1.5123036E-009 -9.8440890E-009 0.0
 -6.2620365E-008 -7.0587480E-008 0.0
 -6.6173429E-008 -7.0879744E-008 0.0
 -6.9878833E-008 -7.1225973E-008 0.0
 -7.3609853E-008 -7.1617363E-008 0.0
 -7.7315642E-008 -7.2033997E-008 0.0
 -8.0997288E-008 -7.2471529E-008 0.0
 -8.4668939E-008 -7.2931540E-008 0.0
 -8.8342524E-008 -7.3415443E-008 0.0
 -9.2026829E-008 -7.3921363E-008 0.0
 -9.5727329E-008 -7.4443155E-008 0.0
 -9.9442559E-008 -7.4968063E-008 0.0
 -1.0315304E-007 -7.5475298E-008 0.0
 -1.0680687E-007 -7.5945434E-008 0.0
 -1.1032357E-007 -7.6382729E-008 0.0
  2.1058102E-008 -1.0270104E-008 0.0
  1.7558983E-008 -8.0314379E-009 0.0
  1.5900044E-008 -6.8014644E-009 0.0
  1.4398536E-008 -6.4575682E-009 0.0
  1.2505413E-008 -6.3283998E-009 0.0
  1.0279163E-008 -6.2489498E-009 0.0
  7.7667295E-009 -6.1622996E-009 0.0
  5.0392905E-009 -6.0671309E-009 0.0
  2.1750177E-009 -5.9831865E-009 0.0
 -4.3010623E-010 -5.9848278E-009 0.0
 -6.1915522E-008 -6.7195491E-008 0.0
 -6.5402298E-008 -6.7506835E-008 0.0
 -6.9035736E-008 -6.7833532E-008 0.0
 -7.2700314E-008 -6.8183391E-008 0.0
 -7.6347375E-008 -6.8573623E-008 0.0
 -7.9977276E-008 -6.8999606E-008 0.0
 -8.3600737E-008 -6.9457603E-008 0.0
 -8.7231082E-008 -6.9945115E-008 0.0
 -9.0880407E-008 -7.0459187E-008 0.0
 -9.4559795E-008 -7.0995484E-008 0.0
 -9.8279216E-008 -7.1544433E-008 0.0
 -1.0203540E-007 -7.2080803E-008 0.0
 -1.0576871E-007 -7.2560704E-008 0.0
 -1.0932938E-007 -7.2971340E-008 0.0
  1.2938089E-008 -5.3793541E-009 0.0
  1.2231051E-008 -2.6474869E-009 0.0
  1.2899719E-008 -2.7353754E-009 0.0
  1.2187042E-008 -2.9369057E-009 0.0
  1.0843622E-008 -3.1060693E-009 0.0
  9.0237292E-009 -3.2100610E-009 0.0
  6.8876253E-009 -3.2645539E-009 0.0
  4.5585845E-009 -3.3059774E-009 0.0
  2.2022769E-009 -3.4148728E-009 0.0
  1.2674240E-010 -3.6710784E-009 0.0
 -1.6549608E-009 -3.9442324E-009 0.0
 -1.6971979E-009 -5.8131408E-009 0.0
 -6.1082418E-008 -6.3845071E-008 0.0
 -6.4599208E-008 -6.4189304E-008 0.0
 -6.8225289E-008 -6.4457578E-008 0.0
 -7.1819116E-008 -6.4773696E-008 0.0
 -7.5397866E-008 -6.5140526E-008 0.0
 -7.8964841E-008 -6.5552108E-008 0.0
 -8.2531705E-008 -6.6002453E-008 0.0
 -8.6112483E-008 -6.6486621E-008 0.0
 -8.9721690E-008 -6.6999580E-008 0.0
 -9.3372759E-008 -6.7536202E-008 0.0
 -9.7084595E-008 -6.8095398E-008 0.0
 -1.0088989E-007 -6.8665623E-008 0.0
 -1.0477748E-007 -6.9181957E-008 0.0
 -1.0849240E-007 -6.9552975E-008 0.0
 -2.7352310E-056 -2.7352310E-056 0.0
  9.0867679E-009 -1.0584589E-010 0.0
  1.0360937E-008 -5.4444212E-010 0.0
  1.0344272E-008 -8.3147636E-010 0.0
  9.3985298E-009 -1.0334585E-009 0.0
  7.9307569E-009 -1.1731809E-009 0.0
  6.1332124E-009 -1.2791042E-009 0.0
  4.1758872E-009 -1.3890756E-009 0.0
  2.2461157E-009 -1.5437160E-009 0.0
  5.1359272E-010 -1.7436603E-009 0.0
 -1.0900994E-009 -1.9802024E-009 0.0
 -6.0029941E-008 -6.0598345E-008 0.0
 -6.3871858E-008 -6.0804096E-008 0.0
 -6.7430092E-008 -6.1058781E-008 0.0
 -7.0957104E-008 -6.1369191E-008 0.0
 -7.4462202E-008 -6.1726602E-008 0.0
 -7.7959888E-008 -6.2127800E-008 0.0
 -8.1463201E-008 -6.2568991E-008 0.0
 -8.4988685E-008 -6.3045424E-008 0.0
 -8.8554252E-008 -6.3549639E-008 0.0
 -9.2177187E-008 -6.4070450E-008 0.0
 -9.5869356E-008 -6.4596330E-008 0.0
 -9.9686320E-008 -6.5146969E-008 0.0
 -1.0378093E-007 -6.5693464E-008 0.0
 -1.0795831E-007 -6.6044479E-008 0.0
  1.4666636E-031 -2.7352310E-056 0.0
  5.7545833E-009 -4.7706840E-010 0.0
  8.2657143E-009 -3.9380454E-011 0.0
  8.6337660E-009  3.9149627E-011 0.0
  8.0719647E-009  3.4515322E-011 0.0
  6.9255989E-009 -9.4050723E-012 0.0
  5.4438011E-009 -7.8429905E-011 0.0
  3.8106824E-009 -1.7580456E-010 0.0
  2.1971843E-009 -2.9741902E-010 0.0
  7.6142898E-010 -4.2387886E-010 0.0
 -4.0570813E-010 -6.2748777E-010 0.0
 -5.5661526E-008 -6.0658696E-008 0.0
 -5.5723637E-008 -5.6834389E-008 0.0
 -5.9431382E-008 -5.7021023E-008 0.0
 -6.3111558E-008 -5.7328164E-008 0.0
 -6.6640393E-008 -5.7652885E-008 0.0
 -7.0100180E-008 -5.7981451E-008 0.0
 -7.3534505E-008 -5.8339718E-008 0.0
 -7.6960149E-008 -5.8733974E-008 0.0
 -8.0394675E-008 -5.9165620E-008 0.0
 -8.3858490E-008 -5.9632767E-008 0.0
 -8.7376690E-008 -6.0128499E-008 0.0
 -9.0974843E-008 -6.0634795E-008 0.0
 -9.4675089E-008 -6.1116550E-008 0.0
 -9.8463201E-008 -6.1519186E-008 0.0
 -1.0272948E-007 -6.1841370E-008 0.0
 -1.0804399E-007 -6.1708319E-008 0.0
 -2.7352310E-056 -2.7352310E-056 0.0
  3.9456634E-009 -3.6085156E-010 0.0
  6.2582429E-009 -1.1815180E-010 0.0
  7.0378117E-009  2.2169107E-010 0.0
  6.7984184E-009  4.1268515E-010 0.0
  5.9632473E-009  4.9795431E-010 0.0
  4.7751883E-009  5.0189398E-010 0.0
  3.4238479E-009  4.4319191E-010 0.0
  2.0731192E-009  3.4076279E-010 0.0
  8.8016986E-010  2.1732080E-010 0.0
  1.7130768E-010  9.3423574E-011 0.0
 -5.5458811E-008 -5.3529127E-008 0.0
 -5.8858559E-008 -5.3724490E-008 0.0
 -6.2381095E-008 -5.4002242E-008 0.0
 -6.5849089E-008 -5.4313300E-008 0.0
 -6.9248952E-008 -5.4644924E-008 0.0
 -7.2612924E-008 -5.4999978E-008 0.0
 -7.5964999E-008 -5.5385769E-008 0.0
 -7.9325678E-008 -5.5805717E-008 0.0
 -8.2718895E-008 -5.6261611E-008 0.0
 -8.6176811E-008 -5.6753281E-008 0.0
 -8.9743840E-008 -5.7271006E-008 0.0
 -9.3455211E-008 -5.7779717E-008 0.0
 -9.7315881E-008 -5.8224723E-008 0.0
 -1.0091270E-007 -5.8799174E-008 0.0
 -2.7352310E-056 -2.7352310E-056 0.0
  2.8387618E-009 -3.1434799E-010 0.0
  4.7406206E-009 -1.6186011E-010 0.0
  5.5981310E-009  1.4390993E-010 0.0
  5.6102812E-009  4.1399961E-010 0.0
  5.0422731E-009  5.7822343E-010 0.0
  4.1208980E-009  6.3805803E-010 0.0
  3.0235369E-009  6.0569811E-010 0.0
  1.9061276E-009  4.9661321E-010 0.0
  9.3731780E-010  3.2314855E-010 0.0
  3.1443831E-010  1.3690681E-010 0.0
  1.9002010E-010  8.1195662E-011 0.0
  2.3213230E-010  8.2323397E-011 0.0
 -5.4992608E-008 -5.0363300E-008 0.0
 -5.8291477E-008 -5.0591916E-008 0.0
 -6.1712631E-008 -5.0803233E-008 0.0
 -6.5086638E-008 -5.1072927E-008 0.0
 -6.8411329E-008 -5.1385148E-008 0.0
 -7.1700860E-008 -5.1729093E-008 0.0
 -7.4976201E-008 -5.2102468E-008 0.0
 -7.8258002E-008 -5.2506745E-008 0.0
 -8.1570387E-008 -5.2945470E-008 0.0
 -8.4946401E-008 -5.3425522E-008 0.0
 -8.8440897E-008 -5.3961884E-008 0.0
 -9.2141285E-008 -5.4556021E-008 0.0
 -9.6023593E-008 -5.5164991E-008 0.0
 -9.9626403E-008 -5.5656519E-008 0.0
  1.4666636E-031 -2.7352310E-056 0.0
  2.1027077E-009 -2.8641603E-010 0.0
  3.6210774E-009 -2.2906647E-010 0.0
  4.4166548E-009 -5.4735103E-012 0.0
  4.5541674E-009  2.3857639E-010 0.0
  4.1919647E-009  4.1604585E-010 0.0
  3.4976487E-009  4.9340055E-010 0.0
  2.6253753E-009  4.6746046E-010 0.0
  1.7177129E-009  3.4721664E-010 0.0
  9.1462122E-010  1.5637395E-010 0.0
  3.4280703E-010 -5.6600151E-011 0.0
  4.2441883E-011 -2.1842568E-010 0.0
 -5.4308412E-008 -4.7350070E-008 0.0
 -5.7777728E-008 -4.7480017E-008 0.0
 -6.1083656E-008 -4.7664627E-008 0.0
 -6.4357047E-008 -4.7914881E-008 0.0
 -6.7592518E-008 -4.8212609E-008 0.0
 -7.0800741E-008 -4.8544964E-008 0.0
 -7.3995927E-008 -4.8905220E-008 0.0
 -7.7195345E-008 -4.9291541E-008 0.0
 -8.0419727E-008 -4.9705676E-008 0.0
 -8.3698507E-008 -5.0154440E-008 0.0
 -8.7073865E-008 -5.0653689E-008 0.0
 -9.0663522E-008 -5.1264192E-008 0.0
 -9.4697197E-008 -5.1950879E-008 0.0
 -9.8861121E-008 -5.2425127E-008 0.0
 -2.7352310E-056 -2.7352310E-056 0.0
  1.6067878E-009 -2.8703956E-010 0.0
  2.8070674E-009 -3.2979314E-010 0.0
  3.4789763E-009 -1.9396783E-010 0.0
  3.6614369E-009 -1.0242292E-011 0.0
  3.4384384E-009  1.3490658E-010 0.0
  2.9252320E-009  1.9671172E-010 0.0
  2.2424516E-009  1.5991874E-010 0.0
  1.5072885E-009  3.0196491E-011 0.0
  8.2784424E-010 -1.6737834E-010 0.0
  2.8871642E-010 -3.8314137E-010 0.0
 -8.1523704E-011 -5.4965639E-010 0.0
 -2.6225046E-010 -6.1736487E-010 0.0
 -1.5727840E-010 -3.3217178E-010 0.0
 -5.0521092E-008 -4.7404748E-008 0.0
 -5.0550693E-008 -4.4010723E-008 0.0
 -5.3899843E-008 -4.4142526E-008 0.0
 -5.7242662E-008 -4.4336413E-008 0.0
 -6.0468624E-008 -4.4570528E-008 0.0
 -6.3642212E-008 -4.4835148E-008 0.0
 -6.6786929E-008 -4.5135213E-008 0.0
 -6.9910580E-008 -4.5464113E-008 0.0
 -7.3023702E-008 -4.5816216E-008 0.0
 -7.6139317E-008 -4.6188332E-008 0.0
 -7.9274417E-008 -4.6579453E-008 0.0
 -8.2451307E-008 -4.6989470E-008 0.0
 -8.5713208E-008 -4.7416995E-008 0.0
 -8.9105558E-008 -4.7836907E-008 0.0
 -9.3271324E-008 -4.8247142E-008 0.0
 -9.8972680E-008 -4.8062352E-008 0.0
 -2.2333067E-056 -2.2333067E-056 0.0
  1.3194551E-009 -3.9818450E-010 0.0
  2.1996028E-009 -4.7253590E-010 0.0
  2.7433282E-009 -3.9972312E-010 0.0
  2.9270007E-009 -2.8204185E-010 0.0
  2.7937043E-009 -1.8907168E-010 0.0
  2.4170110E-009 -1.6362566E-010 0.0
  1.8851689E-009 -2.2481518E-010 0.0
  1.2874352E-009 -3.7172167E-010 0.0
  7.0383458E-010 -5.8486631E-010 0.0
  1.9251059E-010 -8.2790517E-010 0.0
 -2.1130187E-010 -1.0547033E-009 0.0
 -4.8542919E-010 -1.2064425E-009 0.0
 -2.6364776E-010 -1.1149806E-009 0.0
 -2.0926710E-010 -7.2081791E-010 0.0
 -5.0294788E-008 -4.1009328E-008 0.0
 -5.3531973E-008 -4.1110922E-008 0.0
 -5.6713927E-008 -4.1306368E-008 0.0
 -5.9843489E-008 -4.1563844E-008 0.0
 -6.2927570E-008 -4.1853820E-008 0.0
 -6.5984586E-008 -4.2168122E-008 0.0
 -6.9024527E-008 -4.2503546E-008 0.0
 -7.2055240E-008 -4.2856568E-008 0.0
 -7.5086335E-008 -4.3225018E-008 0.0
 -7.8130340E-008 -4.3608336E-008 0.0
 -8.1206377E-008 -4.4007214E-008 0.0
 -8.4336160E-008 -4.4424797E-008 0.0
 -8.7603715E-008 -4.4879074E-008 0.0
 -9.0700774E-008 -4.5665807E-008 0.0
 -3.8682008E-056 -3.8682008E-056 0.0
 -3.5694463E-011 -3.0989796E-010 0.0
  2.7851130E-010 -4.3568910E-010 0.0
  1.0566849E-009 -5.7988428E-010 0.0
  1.7324662E-009 -6.2047699E-010 0.0
  2.1635135E-009 -5.9570022E-010 0.0
  2.3331096E-009 -5.4339735E-010 0.0
  2.2560220E-009 -5.1028235E-010 0.0
  1.9790081E-009 -5.3149348E-010 0.0
  1.5638474E-009 -6.2662030E-010 0.0
  1.0758614E-009 -7.9963620E-010 0.0
  5.7372993E-010 -1.0410123E-009 0.0
  1.0257935E-010 -1.3325854E-009 0.0
 -3.0960209E-010 -1.6552921E-009 0.0
 -6.1792704E-010 -2.0051808E-009 0.0
 -8.5665006E-010 -2.3300810E-009 0.0
 -4.6977836E-008 -4.1032854E-008 0.0
 -4.7005507E-008 -3.7861709E-008 0.0
 -5.0074004E-008 -3.7969182E-008 0.0
 -5.3145693E-008 -3.8154393E-008 0.0
 -5.6191729E-008 -3.8395962E-008 0.0
 -5.9211473E-008 -3.8680339E-008 0.0
 -6.2205213E-008 -3.8994748E-008 0.0
 -6.5177929E-008 -3.9329120E-008 0.0
 -6.8135857E-008 -3.9678989E-008 0.0
 -7.1084197E-008 -4.0042525E-008 0.0
 -7.4028556E-008 -4.0419990E-008 0.0
 -7.6976368E-008 -4.0814853E-008 0.0
 -7.9935858E-008 -4.1236516E-008 0.0
 -8.2918538E-008 -4.1706580E-008 0.0
 -8.5869231E-008 -4.2300175E-008 0.0
 -8.8618183E-008 -4.3025029E-008 0.0
 -2.7352310E-056 -2.7352310E-056 0.0
  3.2514658E-010 -3.5860524E-010 0.0
  8.6057499E-010 -5.9880426E-010 0.0
  1.3669578E-009 -7.1444169E-010 0.0
  1.7124490E-009 -7.5681404E-010 0.0
  1.8604636E-009 -7.7353512E-010 0.0
  1.8172027E-009 -8.0215697E-010 0.0
  1.6112135E-009 -8.7309048E-010 0.0
  1.2850113E-009 -1.0057398E-009 0.0
  8.8556277E-010 -1.2081461E-009 0.0
  4.5678775E-010 -1.4789353E-009 0.0
  3.4007437E-011 -1.8111467E-009 0.0
 -3.5517604E-010 -2.1975834E-009 0.0
 -7.0154255E-010 -2.6204561E-009 0.0
 -1.0686440E-009 -3.0645668E-009 0.0
 -1.5186800E-009 -3.5962860E-009 0.0
 -1.2644857E-009 -2.5344099E-009 0.0
 -4.4054230E-008 -3.7844816E-008 0.0
 -4.4104272E-008 -3.4783233E-008 0.0
 -4.6914192E-008 -3.4904465E-008 0.0
 -4.9802558E-008 -3.5084808E-008 0.0
 -5.2726523E-008 -3.5326943E-008 0.0
 -5.5652241E-008 -3.5614426E-008 0.0
 -5.8568632E-008 -3.5933450E-008 0.0
 -6.1472124E-008 -3.6274871E-008 0.0
 -6.4362079E-008 -3.6632231E-008 0.0
 -6.7239382E-008 -3.7001846E-008 0.0
 -7.0105133E-008 -3.7383089E-008 0.0
 -7.2960045E-008 -3.7778624E-008 0.0
 -7.5803976E-008 -3.8196116E-008 0.0
 -7.8634876E-008 -3.8651168E-008 0.0
 -8.1436049E-008 -3.9174080E-008 0.0
 -8.4160995E-008 -3.9791239E-008 0.0
 -8.6736650E-008 -4.0502255E-008 0.0
 -2.7352310E-056  1.4666636E-031 0.0
  3.4601110E-010 -3.0996104E-010 0.0
  7.3461657E-010 -5.8237343E-010 0.0
  1.1054580E-009 -7.6827969E-010 0.0
  1.3702928E-009 -8.8313902E-010 0.0
  1.4916935E-009 -9.6585489E-010 0.0
  1.4656576E-009 -1.0522014E-009 0.0
  1.3087777E-009 -1.1697664E-009 0.0
  1.0493515E-009 -1.3374917E-009 0.0
  7.2073185E-010 -1.5655851E-009 0.0
  3.5538094E-010 -1.8568108E-009 0.0
 -1.9389623E-011 -2.2085878E-009 0.0
 -3.8656421E-010 -2.6129554E-009 0.0
 -7.5180907E-010 -3.0584111E-009 0.0
 -1.1469072E-009 -3.5419600E-009 0.0
 -1.6715003E-009 -4.0450744E-009 0.0
 -2.5076284E-009 -4.6008551E-009 0.0
 -2.8013857E-009 -4.5799291E-009 0.0
 -3.1410111E-009 -5.3546601E-009 0.0
 -2.9365773E-009 -4.6209816E-009 0.0
 -4.1382323E-008 -3.4732256E-008 0.0
 -4.1468225E-008 -3.1698782E-008 0.0
 -4.4055319E-008 -3.1873766E-008 0.0
 -4.6729791E-008 -3.2092522E-008 0.0
 -4.9478771E-008 -3.2352343E-008 0.0
 -5.2273257E-008 -3.2650292E-008 0.0
 -5.5088379E-008 -3.2980299E-008 0.0
 -5.7908408E-008 -3.3333697E-008 0.0
 -6.0725224E-008 -3.3703681E-008 0.0
 -6.3534223E-008 -3.4085834E-008 0.0
 -6.6332160E-008 -3.4478037E-008 0.0
 -6.9115717E-008 -3.4880748E-008 0.0
 -7.1880166E-008 -3.5297779E-008 0.0
 -7.4617785E-008 -3.5737832E-008 0.0
 -7.7315363E-008 -3.6217401E-008 0.0
 -7.9952115E-008 -3.6757990E-008 0.0
 -8.2501162E-008 -3.7377138E-008 0.0
 -8.4940531E-008 -3.8068066E-008 0.0
 -2.7352310E-056 -2.7352310E-056 0.0
  3.3003409E-010 -3.1533675E-010 0.0
  6.5000167E-010 -6.0220220E-010 0.0
  9.2084810E-010 -8.2385732E-010 0.0
  1.1159859E-009 -9.8869525E-010 0.0
  1.2075999E-009 -1.1236304E-009 0.0
  1.1874419E-009 -1.2572804E-009 0.0
  1.0631164E-009 -1.4134910E-009 0.0
  8.5257510E-010 -1.6094257E-009 0.0
  5.7874022E-010 -1.8554244E-009 0.0
  2.6477735E-010 -2.1555563E-009 0.0
 -7.0463922E-011 -2.5083238E-009 0.0
 -4.1799039E-010 -2.9076658E-009 0.0
 -7.8419845E-010 -3.3455311E-009 0.0
 -1.2008507E-009 -3.8119648E-009 0.0
 -1.7335072E-009 -4.3156080E-009 0.0
 -2.3770796E-009 -4.9266028E-009 0.0
 -3.0587844E-009 -5.6173306E-009 0.0
 -3.8953979E-009 -6.3903675E-009 0.0
 -4.2539812E-009 -6.3394316E-009 0.0
 -4.4669736E-009 -7.3947153E-009 0.0
 -4.2603809E-009 -6.3334571E-009 0.0
 -3.8881374E-008 -3.1635730E-008 0.0
 -3.9009668E-008 -2.8428048E-008 0.0
 -4.1417075E-008 -2.8795219E-008 0.0
 -4.3896458E-008 -2.9124771E-008 0.0
 -4.6460918E-008 -2.9447002E-008 0.0
 -4.9096367E-008 -2.9780457E-008 0.0
 -5.1782024E-008 -3.0132360E-008 0.0
 -5.4497681E-008 -3.0502734E-008 0.0
 -5.7228017E-008 -3.0888531E-008 0.0
 -5.9962340E-008 -3.1286173E-008 0.0
 -6.2692978E-008 -3.1693180E-008 0.0
 -6.5413389E-008 -3.2108710E-008 0.0
 -6.8116531E-008 -3.2533866E-008 0.0
 -7.0793083E-008 -3.2972114E-008 0.0
 -7.3429198E-008 -3.3430136E-008 0.0
 -7.6003742E-008 -3.3918814E-008 0.0
 -7.8493151E-008 -3.4457128E-008 0.0
 -8.0884933E-008 -3.5062494E-008 0.0
 -8.3192788E-008 -3.5738895E-008 0.0
 -2.2333067E-056 -2.2333067E-056 0.0
  3.3882453E-010 -3.7817182E-010 0.0
  5.8179874E-010 -6.6551007E-010 0.0
  7.8216941E-010 -8.9364663E-010 0.0
  9.2328365E-010 -1.0829903E-009 0.0
  9.8788928E-010 -1.2513982E-009 0.0
  9.6722731E-010 -1.4187342E-009 0.0
  8.6362125E-010 -1.6030656E-009 0.0
  6.8766699E-010 -1.8183845E-009 0.0
  4.5443016E-010 -2.0736993E-009 0.0
  1.7950960E-010 -2.3729783E-009 0.0
 -1.2496700E-010 -2.7156547E-009 0.0
 -4.5439026E-010 -3.0978645E-009 0.0
 -8.1607725E-010 -3.5144648E-009 0.0
 -1.2320442E-009 -3.9655759E-009 0.0
 -1.7233952E-009 -4.4687402E-009 0.0
 -2.2923217E-009 -5.0425723E-009 0.0
 -2.9344001E-009 -5.7066910E-009 0.0
 -3.6120172E-009 -6.5085123E-009 0.0
 -4.2956236E-009 -7.4034211E-009 0.0
 -5.3712205E-009 -8.2998737E-009 0.0
 -5.8646792E-009 -9.1418936E-009 0.0
 -6.7018538E-009 -9.3611267E-009 0.0
 -7.1350006E-009 -1.0413716E-008 0.0
 -8.0662493E-009 -1.0381118E-008 0.0
 -8.4668114E-009 -1.1400585E-008 0.0
 -9.3951588E-009 -1.1414520E-008 0.0
 -9.7820477E-009 -1.2031966E-008 0.0
 -1.0424334E-008 -1.2535453E-008 0.0
 -1.0264701E-008 -1.1956434E-008 0.0
 -3.4757377E-008 -2.7810159E-008 0.0
 -3.4893815E-008 -2.4685305E-008 0.0
 -3.6973288E-008 -2.5320920E-008 0.0
 -3.7211841E-008 -2.7810260E-008 0.0
 -3.8979523E-008 -2.5777360E-008 0.0
 -4.1244242E-008 -2.6191450E-008 0.0
 -4.3641516E-008 -2.6599325E-008 0.0
 -4.6117291E-008 -2.6993248E-008 0.0
 -4.8659566E-008 -2.7384438E-008 0.0
 -5.1252338E-008 -2.7781062E-008 0.0
 -5.3879524E-008 -2.8186476E-008 0.0
 -5.6526976E-008 -2.8600906E-008 0.0
 -5.9183156E-008 -2.9023472E-008 0.0
 -6.1838417E-008 -2.9453498E-008 0.0
 -6.4483805E-008 -2.9891237E-008 0.0
 -6.7109605E-008 -3.0338142E-008 0.0
 -6.9703625E-008 -3.0796808E-008 0.0
 -7.2248647E-008 -3.1270459E-008 0.0
 -7.4719973E-008 -3.1762686E-008 0.0
 -7.7078706E-008 -3.2279310E-008 0.0
 -7.9309519E-008 -3.2858560E-008 0.0
 -8.1467903E-008 -3.3516043E-008 0.0
 -3.8682008E-056  2.0741756E-031 0.0
 -2.7352310E-056 -2.7352310E-056 0.0
  8.1238942E-011 -2.7092858E-010 0.0
  3.2853684E-010 -5.2004243E-010 0.0
  5.1527446E-010 -7.5225567E-010 0.0
  6.6637811E-010 -9.6707815E-010 0.0
  7.7021730E-010 -1.1637270E-009 0.0
  8.1401358E-010 -1.3505079E-009 0.0
  7.9051093E-010 -1.5389345E-009 0.0
  6.9958180E-010 -1.7410932E-009 0.0
  5.4713737E-010 -1.9672006E-009 0.0
  3.4261722E-010 -2.2242752E-009 0.0
  9.6025086E-011 -2.5157183E-009 0.0
 -1.8511512E-010 -2.8416796E-009 0.0
 -4.9866021E-010 -3.2002362E-009 0.0
 -8.4985919E-010 -3.5900305E-009 0.0
 -1.2493702E-009 -4.0145609E-009 0.0
 -1.7074673E-009 -4.4830077E-009 0.0
 -2.2282282E-009 -5.0093002E-009 0.0
 -2.8050505E-009 -5.6083831E-009 0.0
 -3.4340749E-009 -6.2746953E-009 0.0
 -4.1781909E-009 -6.9754431E-009 0.0
 -5.1415266E-009 -7.7408147E-009 0.0
 -6.3111267E-009 -8.5967279E-009 0.0
 -7.5863617E-009 -9.5796658E-009 0.0
 -8.8505958E-009 -1.0671930E-008 0.0
 -1.0124394E-008 -1.1808878E-008 0.0
 -1.1926290E-008 -1.2876273E-008 0.0
 -1.2518703E-008 -1.4546073E-008 0.0
 -1.4163996E-008 -1.4093766E-008 0.0
 -1.4677171E-008 -1.6099251E-008 0.0
 -1.6536097E-008 -1.5234552E-008 0.0
 -1.6997774E-008 -1.7385996E-008 0.0
 -1.8983781E-008 -1.6268534E-008 0.0
 -1.9383152E-008 -1.8473531E-008 0.0
 -2.1418232E-008 -1.7196484E-008 0.0
 -2.1760665E-008 -1.9384037E-008 0.0
 -2.3756063E-008 -1.8031165E-008 0.0
 -2.4053053E-008 -2.0148509E-008 0.0
 -2.5934133E-008 -1.8796140E-008 0.0
 -2.6204003E-008 -2.0812369E-008 0.0
 -2.7928405E-008 -1.9520842E-008 0.0
 -2.8190692E-008 -2.1430574E-008 0.0
 -2.9754277E-008 -2.0234397E-008 0.0
 -3.0024879E-008 -2.2056973E-008 0.0
 -3.1452116E-008 -2.0957170E-008 0.0
 -3.1734982E-008 -2.2741635E-008 0.0
 -3.3056319E-008 -2.1689872E-008 0.0
 -3.3380163E-008 -2.3562984E-008 0.0
 -3.4772821E-008 -2.2297007E-008 0.0
 -3.6761742E-008 -2.2887884E-008 0.0
 -3.8826819E-008 -2.3416919E-008 0.0
 -4.1012090E-008 -2.3873687E-008 0.0
 -4.3321849E-008 -2.4312084E-008 0.0
 -4.5717337E-008 -2.4744292E-008 0.0
 -4.8177717E-008 -2.5172448E-008 0.0
 -5.0688623E-008 -2.5601001E-008 0.0
 -5.3235999E-008 -2.6033086E-008 0.0
 -5.5806740E-008 -2.6470267E-008 0.0
 -5.8389028E-008 -2.6913247E-008 0.0
 -6.0972057E-008 -2.7362690E-008 0.0
 -6.3545249E-008 -2.7819776E-008 0.0
 -6.6097203E-008 -2.8286422E-008 0.0
 -6.8614352E-008 -2.8765013E-008 0.0
 -7.1079372E-008 -2.9257297E-008 0.0
 -7.3466722E-008 -2.9761481E-008 0.0
 -7.5739421E-008 -3.0268948E-008 0.0
 -7.7793490E-008 -3.0767264E-008 0.0
 -7.9710598E-008 -3.1428351E-008 0.0
 -2.7352310E-056 -2.7352310E-056 0.0
  1.5889771E-010 -3.6316079E-010 0.0
  2.8883130E-010 -6.0951294E-010 0.0
  4.4219776E-010 -8.1957870E-010 0.0
  5.6337743E-010 -1.0235842E-009 0.0
  6.4320481E-010 -1.2228475E-009 0.0
  6.7236045E-010 -1.4197470E-009 0.0
  6.4548762E-010 -1.6203369E-009 0.0
  5.6176165E-010 -1.8320895E-009 0.0
  4.2438693E-010 -2.0619284E-009 0.0
  2.3907676E-010 -2.3149135E-009 0.0
  1.2030291E-011 -2.5937170E-009 0.0
 -2.5217545E-010 -2.8988501E-009 0.0
 -5.5233709E-010 -3.2296944E-009 0.0
 -8.9119231E-010 -3.5863069E-009 0.0
 -1.2742516E-009 -3.9710693E-009 0.0
 -1.7070942E-009 -4.3894358E-009 0.0
 -2.1927060E-009 -4.8482847E-009 0.0
 -2.7340210E-009 -5.3503934E-009 0.0
 -3.3478366E-009 -5.8908080E-009 0.0
 -4.0732314E-009 -6.4710311E-009 0.0
 -4.9546182E-009 -7.1086599E-009 0.0
 -5.9925031E-009 -7.8404108E-009 0.0
 -7.1460198E-009 -8.6787905E-009 0.0
 -8.3893681E-009 -9.5940129E-009 0.0
 -9.8181071E-009 -1.0507440E-008 0.0
 -1.1599330E-008 -1.1430995E-008 0.0
 -1.3743582E-008 -1.2376545E-008 0.0
 -1.6126576E-008 -1.3356230E-008 0.0
 -1.8607983E-008 -1.4312857E-008 0.0
 -2.1086482E-008 -1.5223360E-008 0.0
 -2.3466164E-008 -1.6078068E-008 0.0
 -2.5668886E-008 -1.6878431E-008 0.0
 -2.7667679E-008 -1.7643380E-008 0.0
 -2.9495864E-008 -1.8380288E-008 0.0
 -3.1207135E-008 -1.9081816E-008 0.0
 -3.2889602E-008 -1.9713665E-008 0.0
 -3.4652688E-008 -2.0282299E-008 0.0
 -3.6561539E-008 -2.0804495E-008 0.0
 -3.8593125E-008 -2.1308102E-008 0.0
 -4.0726769E-008 -2.1785729E-008 0.0
 -4.2959583E-008 -2.2244082E-008 0.0
 -4.5277329E-008 -2.2695306E-008 0.0
 -4.7661676E-008 -2.3143619E-008 0.0
 -5.0097547E-008 -2.3591261E-008 0.0
 -5.2571414E-008 -2.4040451E-008 0.0
 -5.5070507E-008 -2.4492988E-008 0.0
 -5.7582805E-008 -2.4950336E-008 0.0
 -6.0096752E-008 -2.5413963E-008 0.0
 -6.2600683E-008 -2.5885704E-008 0.0
 -6.5082039E-008 -2.6368042E-008 0.0
 -6.7526591E-008 -2.6864182E-008 0.0
 -6.9917317E-008 -2.7377590E-008 0.0
 -7.2234022E-008 -2.7910182E-008 0.0
 -7.4439936E-008 -2.8455065E-008 0.0
 -7.6477330E-008 -2.8974555E-008 0.0
 -7.7796366E-008 -2.9420655E-008 0.0
  4.1388745E-011 -5.1508018E-010 0.0
  1.1528684E-010 -4.8379446E-010 0.0
  2.4491820E-010 -6.4077514E-010 0.0
  3.7098585E-010 -8.4444244E-010 0.0
  4.7309069E-010 -1.0501886E-009 0.0
  5.3641921E-010 -1.2545648E-009 0.0
  5.5457738E-010 -1.4586316E-009 0.0
  5.2376380E-010 -1.6660574E-009 0.0
  4.4310138E-010 -1.8816666E-009 0.0
  3.1427923E-010 -2.1101054E-009 0.0
  1.4065053E-010 -2.3548873E-009 0.0
 -7.4052597E-011 -2.6179550E-009 0.0
 -3.2705176E-010 -2.8998124E-009 0.0
 -6.1750671E-010 -3.2001883E-009 0.0
 -9.4678820E-010 -3.5189916E-009 0.0
 -1.3178661E-009 -3.8571520E-009 0.0
 -1.7342099E-009 -4.2166723E-009 0.0
 -2.1996887E-009 -4.5994236E-009 0.0
 -2.7215287E-009 -5.0057923E-009 0.0
 -3.3147464E-009 -5.4368031E-009 0.0
 -4.0031886E-009 -5.8992716E-009 0.0
 -4.8094682E-009 -6.4117727E-009 0.0
 -5.7429841E-009 -6.9952999E-009 0.0
 -6.8077105E-009 -7.6570012E-009 0.0
 -8.0348463E-009 -8.3746995E-009 0.0
 -9.4986759E-009 -9.1214158E-009 0.0
 -1.1280704E-008 -9.8881656E-009 0.0
 -1.3395406E-008 -1.0697038E-008 0.0
 -1.5764352E-008 -1.1544027E-008 0.0
 -1.8259373E-008 -1.2431895E-008 0.0
 -2.0775505E-008 -1.3339620E-008 0.0
 -2.3208075E-008 -1.4221139E-008 0.0
 -2.5443360E-008 -1.5059727E-008 0.0
 -2.7435416E-008 -1.5851316E-008 0.0
 -2.9266481E-008 -1.6608426E-008 0.0
 -3.1013692E-008 -1.7292257E-008 0.0
 -3.2733304E-008 -1.7897611E-008 0.0
 -3.4498248E-008 -1.8441900E-008 0.0
 -3.6360597E-008 -1.8949564E-008 0.0
 -3.8329825E-008 -1.9436399E-008 0.0
 -4.0400304E-008 -1.9910819E-008 0.0
 -4.2563359E-008 -2.0375696E-008 0.0
 -4.4808108E-008 -2.0834615E-008 0.0
 -4.7120578E-008 -2.1290820E-008 0.0
 -4.9486174E-008 -2.1746349E-008 0.0
 -5.1891182E-008 -2.2203048E-008 0.0
 -5.4322721E-008 -2.2662793E-008 0.0
 -5.6768519E-008 -2.3127389E-008 0.0
 -5.9216538E-008 -2.3598650E-008 0.0
 -6.1654374E-008 -2.4078610E-008 0.0
 -6.4068562E-008 -2.4569883E-008 0.0
 -6.6443849E-008 -2.5076214E-008 0.0
 -6.8763032E-008 -2.5603388E-008 0.0
 -7.1005435E-008 -2.6160760E-008 0.0
 -7.3152526E-008 -2.6763553E-008 0.0
 -7.5140581E-008 -2.7430905E-008 0.0
 -7.6810170E-008 -2.8043034E-008 0.0
 -7.8208873E-008 -2.8338750E-008 0.0
 -7.8049128E-008 -2.9380469E-008 0.0
 -2.7352310E-056 -2.7352310E-056 0.0
  7.0955501E-011 -3.5287813E-010 0.0
  2.0338551E-010 -6.0219967E-010 0.0
  3.1466846E-010 -8.2837665E-010 0.0
  3.9898728E-010 -1.0468446E-009 0.0
  4.4796248E-010 -1.2594734E-009 0.0
  4.5589343E-010 -1.4695422E-009 0.0
  4.1977965E-010 -1.6805609E-009 0.0
  3.3862983E-010 -1.8962117E-009 0.0
  2.1315972E-010 -2.1198125E-009 0.0
  4.5190943E-011 -2.3538065E-009 0.0
 -1.6315230E-010 -2.5994933E-009 0.0
 -4.1025627E-010 -2.8570947E-009 0.0
 -6.9560552E-010 -3.1261123E-009 0.0
 -1.0199626E-009 -3.4058258E-009 0.0
 -1.3851474E-009 -3.6956581E-009 0.0
 -1.7937836E-009 -3.9951646E-009 0.0
 -2.2497019E-009 -4.3037797E-009 0.0
 -2.7592333E-009 -4.6212003E-009 0.0
 -3.3325864E-009 -4.9491616E-009 0.0
 -3.9831227E-009 -5.2946464E-009 0.0
 -4.7249777E-009 -5.6709045E-009 0.0
 -5.5747004E-009 -6.0935877E-009 0.0
 -6.5621441E-009 -6.5703083E-009 0.0
 -7.7440963E-009 -7.0972162E-009 0.0
 -9.1979445E-009 -7.6588387E-009 0.0
 -1.0974515E-008 -8.2458040E-009 0.0
 -1.3065671E-008 -8.8833663E-009 0.0
 -1.5445021E-008 -9.6165355E-009 0.0
 -1.7930174E-008 -1.0423045E-008 0.0
 -2.0423069E-008 -1.1383808E-008 0.0
 -2.2955711E-008 -1.2431576E-008 0.0
 -2.5270002E-008 -1.3338708E-008 0.0
 -2.7194686E-008 -1.4240554E-008 0.0
 -2.9067995E-008 -1.5036460E-008 0.0
 -3.0854316E-008 -1.5688766E-008 0.0
 -3.2577011E-008 -1.6268372E-008 0.0
 -3.4322281E-008 -1.6797691E-008 0.0
 -3.6138087E-008 -1.7291473E-008 0.0
 -3.8044546E-008 -1.7766902E-008 0.0
 -4.0046773E-008 -1.8233179E-008 0.0
 -4.2140850E-008 -1.8693885E-008 0.0
 -4.4316908E-008 -1.9150480E-008 0.0
 -4.6561789E-008 -1.9604518E-008 0.0
 -4.8861186E-008 -2.0057928E-008 0.0
 -5.1201131E-008 -2.0512815E-008 0.0
 -5.3568523E-008 -2.0971330E-008 0.0
 -5.5950956E-008 -2.1435499E-008 0.0
 -5.8336233E-008 -2.1907130E-008 0.0
 -6.0711661E-008 -2.2387876E-008 0.0
 -6.3063208E-008 -2.2879485E-008 0.0
 -6.5374744E-008 -2.3384358E-008 0.0
 -6.7627267E-008 -2.3906604E-008 0.0
 -6.9800543E-008 -2.4453798E-008 0.0
 -7.1869504E-008 -2.5039643E-008 0.0
 -7.3854926E-008 -2.5679449E-008 0.0
 -7.5909103E-008 -2.6265583E-008 0.0
 -7.8085431E-008 -2.6550471E-008 0.0
 -2.7352310E-056 -2.7352310E-056 0.0
  9.9738622E-011 -2.7308811E-010 0.0
  1.8774663E-010 -5.4742139E-010 0.0
  2.7669032E-010 -7.9394295E-010 0.0
  3.4222175E-010 -1.0237406E-009 0.0
  3.7615546E-010 -1.2435514E-009 0.0
  3.7301607E-010 -1.4576096E-009 0.0
  3.2972285E-010 -1.6695593E-009 0.0
  2.4494420E-010 -1.8825432E-009 0.0
  1.1861787E-010 -2.0991046E-009 0.0
 -4.8519283E-011 -2.3209666E-009 0.0
 -2.5546419E-010 -2.5488980E-009 0.0
 -5.0145985E-010 -2.7827427E-009 0.0
 -7.8636575E-010 -3.0215973E-009 0.0
 -1.1108067E-009 -3.2640476E-009 0.0
 -1.4761384E-009 -3.5083410E-009 0.0
 -1.8844157E-009 -3.7524538E-009 0.0
 -2.3385576E-009 -3.9942328E-009 0.0
 -2.8426911E-009 -4.2319502E-009 0.0
 -3.4022308E-009 -4.4655682E-009 0.0
 -4.0235809E-009 -4.6982391E-009 0.0
 -4.7146968E-009 -4.9372536E-009 0.0
 -5.4917690E-009 -5.1946579E-009 0.0
 -6.3982905E-009 -5.4844428E-009 0.0
 -7.5131034E-009 -5.8056224E-009 0.0
 -8.9377298E-009 -6.1493212E-009 0.0
 -1.0737299E-008 -6.4882717E-009 0.0
 -1.2818879E-008 -6.8224422E-009 0.0
 -1.5185075E-008 -7.2348805E-009 0.0
 -1.7561880E-008 -8.1341441E-009 0.0
 -2.0014826E-008 -9.1392243E-009 0.0
 -2.2471615E-008 -1.0368903E-008 0.0
 -2.5082824E-008 -1.2059291E-008 0.0
 -2.6916455E-008 -1.3028467E-008 0.0
 -2.8961302E-008 -1.3719654E-008 0.0
 -3.0734283E-008 -1.4317104E-008 0.0
 -3.2428961E-008 -1.4866074E-008 0.0
 -3.4139661E-008 -1.5362124E-008 0.0
 -3.5900180E-008 -1.5829766E-008 0.0
 -3.7739380E-008 -1.6286561E-008 0.0
 -3.9672169E-008 -1.6739036E-008 0.0
 -4.1698945E-008 -1.7187736E-008 0.0
 -4.3810220E-008 -1.7632540E-008 0.0
 -4.5991942E-008 -1.8074565E-008 0.0
 -4.8229066E-008 -1.8516109E-008 0.0
 -5.0507262E-008 -1.8959931E-008 0.0
 -5.2813359E-008 -1.9408700E-008 0.0
 -5.5135135E-008 -1.9864666E-008 0.0
 -5.7460737E-008 -2.0329441E-008 0.0
 -5.9777854E-008 -2.0803853E-008 0.0
 -6.2072745E-008 -2.1287893E-008 0.0
 -6.4329226E-008 -2.1780769E-008 0.0
 -6.6528419E-008 -2.2280885E-008 0.0
 -6.8648939E-008 -2.2785033E-008 0.0
 -7.0681537E-008 -2.3282476E-008 0.0
 -7.2640639E-008 -2.3735904E-008 0.0
 -7.4998334E-008 -2.4111465E-008 0.0
 -7.8222807E-008 -2.4062362E-008 0.0
 -2.7352310E-056 -2.7352310E-056 0.0
  1.0214781E-010 -2.5846059E-010 0.0
  1.8442426E-010 -5.1250062E-010 0.0
  2.5177887E-010 -7.5894880E-010 0.0
  2.9927751E-010 -9.9203710E-010 0.0
  3.1800136E-010 -1.2143341E-009 0.0
  3.0285228E-010 -1.4290547E-009 0.0
  2.5064881E-010 -1.6392054E-009 0.0
  1.5966724E-010 -1.8473763E-009 0.0
  2.9187779E-011 -2.0555314E-009 0.0
 -1.4088431E-010 -2.2648676E-009 0.0
 -3.5039407E-010 -2.4757347E-009 0.0
 -5.9927784E-010 -2.6876396E-009 0.0
 -8.8781206E-010 -2.8993224E-009 0.0
 -1.2167317E-009 -3.1088585E-009 0.0
 -1.5872331E-009 -3.3137415E-009 0.0
 -2.0009145E-009 -3.5109516E-009 0.0
 -2.4596878E-009 -3.6970966E-009 0.0
 -2.9655837E-009 -3.8687588E-009 0.0
 -3.5203730E-009 -4.0230720E-009 0.0
 -4.1252387E-009 -4.1584322E-009 0.0
 -4.7821489E-009 -4.2752947E-009 0.0
 -5.4983646E-009 -4.3772577E-009 0.0
 -6.3095132E-009 -4.4809042E-009 0.0
 -7.3440182E-009 -4.6029502E-009 0.0
 -8.7492676E-009 -4.6690819E-009 0.0
 -1.0673361E-008 -4.6016188E-009 0.0
 -1.2725506E-008 -4.5845098E-009 0.0
 -1.5168065E-008 -4.4886125E-009 0.0
 -2.5279774E-008 -1.1791405E-008 0.0
 -2.6565497E-008 -1.1782463E-008 0.0
 -2.8997322E-008 -1.2722727E-008 0.0
 -3.0658690E-008 -1.3261619E-008 0.0
 -3.2320426E-008 -1.3719266E-008 0.0
 -3.3973695E-008 -1.4141186E-008 0.0
 -3.5658203E-008 -1.4561459E-008 0.0
 -3.7419131E-008 -1.4989418E-008 0.0
 -3.9280669E-008 -1.5420323E-008 0.0
 -4.1243449E-008 -1.5848197E-008 0.0
 -4.3294827E-008 -1.6270923E-008 0.0
 -4.5417973E-008 -1.6690298E-008 0.0
 -4.7596507E-008 -1.7109813E-008 0.0
 -4.9815744E-008 -1.7533185E-008 0.0
 -5.2062734E-008 -1.7963720E-008 0.0
 -5.4325880E-008 -1.8403937E-008 0.0
 -5.6594281E-008 -1.8855251E-008 0.0
 -5.8856860E-008 -1.9317631E-008 0.0
 -6.1101281E-008 -1.9789205E-008 0.0
 -6.3312885E-008 -2.0265831E-008 0.0
 -6.5474019E-008 -2.0740595E-008 0.0
 -6.7567025E-008 -2.1202743E-008 0.0
 -6.9578563E-008 -2.1637694E-008 0.0
 -7.1554157E-008 -2.2035368E-008 0.0
 -7.3361599E-008 -2.2567872E-008 0.0
 -2.7352310E-056  1.4666636E-031 0.0
  9.9156955E-011 -2.4718479E-010 0.0
  1.7656133E-010 -4.9104357E-010 0.0
  2.3271542E-010 -7.2886954E-010 0.0
  2.6514739E-010 -9.5811656E-010 0.0
  2.6970270E-010 -1.1778395E-009 0.0
  2.4230031E-010 -1.3894818E-009 0.0
  1.8008397E-010 -1.5951376E-009 0.0
  8.1090596E-011 -1.7967340E-009 0.0
 -5.5907097E-011 -1.9957018E-009 0.0
 -2.3164901E-010 -2.1928122E-009 0.0
 -4.4664405E-010 -2.3881023E-009 0.0
 -7.0140543E-010 -2.5808571E-009 0.0
 -9.9662317E-010 -2.7696297E-009 0.0
 -1.3332458E-009 -2.9522752E-009 0.0
 -1.7124611E-009 -3.1259780E-009 0.0
 -2.1355722E-009 -3.2872709E-009 0.0
 -2.6037367E-009 -3.4320721E-009 0.0
 -3.1175079E-009 -3.5557636E-009 0.0
 -3.6761380E-009 -3.6533273E-009 0.0
 -4.2768946E-009 -3.7195849E-009 0.0
 -4.9149731E-009 -3.7499105E-009 0.0
 -5.5884772E-009 -3.7416578E-009 0.0
 -6.2992816E-009 -3.6915914E-009 0.0
 -7.1716253E-009 -3.6255525E-009 0.0
 -8.6722067E-009 -3.5112906E-009 0.0
 -2.9216957E-008 -1.2394748E-008 0.0
 -3.0708791E-008 -1.2538150E-008 0.0
 -3.2297785E-008 -1.2804377E-008 0.0
 -3.3847513E-008 -1.3117256E-008 0.0
 -3.5419145E-008 -1.3478269E-008 0.0
 -3.7086055E-008 -1.3870820E-008 0.0
 -3.8876390E-008 -1.4271994E-008 0.0
 -4.0781273E-008 -1.4667068E-008 0.0
 -4.2778635E-008 -1.5054860E-008 0.0
 -4.4847619E-008 -1.5439667E-008 0.0
 -4.6970633E-008 -1.5826498E-008 0.0
 -4.9132915E-008 -1.6219992E-008 0.0
 -5.1322087E-008 -1.6623990E-008 0.0
 -5.3527592E-008 -1.7041284E-008 0.0
 -5.5740053E-008 -1.7473277E-008 0.0
 -5.7950424E-008 -1.7919485E-008 0.0
 -6.0148861E-008 -1.8376904E-008 0.0
 -6.2323299E-008 -1.8839402E-008 0.0
 -6.4458294E-008 -1.9297556E-008 0.0
 -6.6533996E-008 -1.9740541E-008 0.0
 -6.8531007E-008 -2.0162853E-008 0.0
 -7.0397725E-008 -2.0598817E-008 0.0
 -7.2016966E-008 -2.1073750E-008 0.0
 -2.7352310E-056 -2.7352310E-056 0.0
  9.5486609E-011 -2.3809045E-010 0.0
  1.6816100E-010 -4.7310459E-010 0.0
  2.1559445E-010 -7.0269342E-010 0.0
  2.3606686E-010 -9.2459059E-010 0.0
  2.2777024E-010 -1.1377313E-009 0.0
  1.8855925E-010 -1.3430098E-009 0.0
  1.1598399E-010 -1.5418310E-009 0.0
  8.0104853E-012 -1.7355031E-009 0.0
 -1.3694005E-010 -1.9249581E-009 0.0
 -3.2008083E-010 -2.1106146E-009 0.0
 -5.4242371E-010 -2.2923031E-009 0.0
 -8.0493985E-010 -2.4692326E-009 0.0
 -1.1086774E-009 -2.6399835E-009 0.0
 -1.4548068E-009 -2.8025103E-009 0.0
 -1.8445710E-009 -2.9541419E-009 0.0
 -2.2791111E-009 -3.0915683E-009 0.0
 -2.7591172E-009 -3.2108089E-009 0.0
 -3.2842196E-009 -3.3071592E-009 0.0
 -3.8520105E-009 -3.3751417E-009 0.0
 -4.4565449E-009 -3.4087007E-009 0.0
 -5.0863282E-009 -3.4024047E-009 0.0
 -5.7206638E-009 -3.3577343E-009 0.0
 -6.3400662E-009 -3.2997463E-009 0.0
 -6.7865825E-009 -3.3566686E-009 0.0
 -3.0895948E-008 -1.1880026E-008 0.0
 -3.2378544E-008 -1.2038257E-008 0.0
 -3.3767259E-008 -1.2267459E-008 0.0
 -3.5175879E-008 -1.2573785E-008 0.0
 -3.6736892E-008 -1.2932601E-008 0.0
 -3.8466445E-008 -1.3289318E-008 0.0
 -4.0322367E-008 -1.3632947E-008 0.0
 -4.2271100E-008 -1.3970337E-008 0.0
 -4.4289323E-008 -1.4307987E-008 0.0
 -4.6358799E-008 -1.4651704E-008 0.0
 -4.8465112E-008 -1.5006376E-008 0.0
 -5.0596704E-008 -1.5376007E-008 0.0
 -5.2744313E-008 -1.5763590E-008 0.0
 -5.4900435E-008 -1.6170778E-008 0.0
 -5.7058620E-008 -1.6597298E-008 0.0
 -5.9212332E-008 -1.7040151E-008 0.0
 -6.1353087E-008 -1.7492828E-008 0.0
 -6.3467364E-008 -1.7945387E-008 0.0
 -6.5532451E-008 -1.8386966E-008 0.0
 -6.7505876E-008 -1.8815182E-008 0.0
 -6.9314314E-008 -1.9237933E-008 0.0
 -7.0856163E-008 -1.9672505E-008 0.0
 -2.7352310E-056 -2.7352310E-056 0.0
  9.2908423E-011 -2.3111186E-010 0.0
  1.6171671E-010 -4.5864250E-010 0.0
  2.0054243E-010 -6.8058099E-010 0.0
  2.0931202E-010 -8.9234899E-010 0.0
  1.8951780E-010 -1.0957753E-009 0.0
  1.3940041E-010 -1.2921260E-009 0.0
  5.6811225E-011 -1.4823649E-009 0.0
 -6.0334043E-011 -1.6672374E-009 0.0
 -2.1381938E-010 -1.8472271E-009 0.0
 -4.0516412E-010 -2.0224750E-009 0.0
 -6.3572094E-010 -2.1927129E-009 0.0
 -9.0678228E-010 -2.3572218E-009 0.0
 -1.2196535E-009 -2.5148153E-009 0.0
 -1.5756643E-009 -2.6638386E-009 0.0
 -1.9760905E-009 -2.8021737E-009 0.0
 -2.4219484E-009 -2.9272390E-009 0.0
 -2.9135994E-009 -3.0359749E-009 0.0
 -3.4500526E-009 -3.1248065E-009 0.0
 -4.0277462E-009 -3.1896182E-009 0.0
 -4.6382664E-009 -3.2258778E-009 0.0
 -5.2637536E-009 -3.2298220E-009 0.0
 -5.8659338E-009 -3.2021267E-009 0.0
 -6.3577883E-009 -3.1752188E-009 0.0
 -6.6080082E-009 -3.1815681E-009 0.0
 -3.2560160E-008 -1.1463693E-008 0.0
 -3.3732713E-008 -1.1604174E-008 0.0
 -3.4894215E-008 -1.1880040E-008 0.0
 -3.6378417E-008 -1.2180968E-008 0.0
 -3.8066358E-008 -1.2455670E-008 0.0
 -3.9879005E-008 -1.2725465E-008 0.0
 -4.1782280E-008 -1.2997404E-008 0.0
 -4.3751271E-008 -1.3277030E-008 0.0
 -4.5767922E-008 -1.3568952E-008 0.0
 -4.7818287E-008 -1.3877282E-008 0.0
 -4.9891643E-008 -1.4205652E-008 0.0
 -5.1979988E-008 -1.4557113E-008 0.0
 -5.4077731E-008 -1.4933801E-008 0.0
 -5.6181252E-008 -1.5336309E-008 0.0
 -5.8287932E-008 -1.5762738E-008 0.0
 -6.0393972E-008 -1.6207540E-008 0.0
 -6.2489909E-008 -1.6660659E-008 0.0
 -6.4551858E-008 -1.7108520E-008 0.0
 -6.6528769E-008 -1.7536904E-008 0.0
 -6.8332448E-008 -1.7938752E-008 0.0
 -6.9847801E-008 -1.8322111E-008 0.0
 -2.7352310E-056 -2.7352310E-056 0.0
  9.5708867E-011 -2.2708567E-010 0.0
  1.6048795E-010 -4.5636912E-010 0.0
  1.8458487E-010 -6.6363365E-010 0.0
  1.8271597E-010 -8.6103140E-010 0.0
  1.5293753E-010 -1.0521371E-009 0.0
  9.3316218E-011 -1.2378695E-009 0.0
  1.5910595E-012 -1.4185047E-009 0.0
 -1.2430050E-010 -1.5942043E-009 0.0
 -2.8620865E-010 -1.7650635E-009 0.0
 -4.8579118E-010 -1.9310367E-009 0.0
 -7.2457859E-010 -2.0918646E-009 0.0
 -1.0040358E-009 -2.2470276E-009 0.0
 -1.3255951E-009 -2.3957328E-009 0.0
 -1.6906341E-009 -2.5369266E-009 0.0
 -2.1003693E-009 -2.6693287E-009 0.0
 -2.5556260E-009 -2.7914815E-009 0.0
 -3.0564155E-009 -2.9018113E-009 0.0
 -3.6011972E-009 -2.9987011E-009 0.0
 -4.1855460E-009 -3.0805663E-009 0.0
 -4.7996626E-009 -3.1459167E-009 0.0
 -5.4226982E-009 -3.1929390E-009 0.0
 -6.0114365E-009 -3.2183845E-009 0.0
 -6.4545757E-009 -3.2005598E-009 0.0
 -6.5863814E-009 -3.1753398E-009 0.0
 -3.3650412E-008 -1.1311647E-008 0.0
 -3.4579929E-008 -1.1433109E-008 0.0
 -3.6047036E-008 -1.1565256E-008 0.0
 -3.7690884E-008 -1.1728758E-008 0.0
 -3.9462066E-008 -1.1911026E-008 0.0
 -4.1319884E-008 -1.2109658E-008 0.0
 -4.3239754E-008 -1.2325441E-008 0.0
 -4.5203472E-008 -1.2560505E-008 0.0
 -4.7197460E-008 -1.2817478E-008 0.0
 -4.9211569E-008 -1.3099224E-008 0.0
 -5.1238743E-008 -1.3408680E-008 0.0
 -5.3275014E-008 -1.3748565E-008 0.0
 -5.5319484E-008 -1.4120746E-008 0.0
 -5.7373784E-008 -1.4525200E-008 0.0
 -5.9440304E-008 -1.4958452E-008 0.0
 -6.1517387E-008 -1.5411206E-008 0.0
 -6.3588709E-008 -1.5865696E-008 0.0
 -6.5605320E-008 -1.6295707E-008 0.0
 -6.7464004E-008 -1.6674028E-008 0.0
 -6.9007011E-008 -1.7000067E-008 0.0
 -2.7352310E-056 -2.7352310E-056 0.0
  1.2172526E-010 -2.7902819E-010 0.0
  1.4858893E-010 -4.6850173E-010 0.0
  1.6388025E-010 -6.4837715E-010 0.0
  1.5422543E-010 -8.2785575E-010 0.0
  1.1701359E-010 -1.0055526E-009 0.0
  4.9598775E-011 -1.1801938E-009 0.0
 -5.0076219E-011 -1.3510078E-009 0.0
 -1.8390796E-010 -1.5176200E-009 0.0
 -3.5364817E-010 -1.6798570E-009 0.0
 -5.6093832E-010 -1.8376048E-009 0.0
 -8.0733618E-010 -1.9907150E-009 0.0
 -1.0943361E-009 -2.1389605E-009 0.0
 -1.4233622E-009 -2.2820319E-009 0.0
 -1.7957123E-009 -2.4195712E-009 0.0
 -2.2124232E-009 -2.5512408E-009 0.0
 -2.6740178E-009 -2.6768252E-009 0.0
 -3.1800687E-009 -2.7963712E-009 0.0
 -3.7284601E-009 -2.9103640E-009 0.0
 -4.3141482E-009 -3.0199227E-009 0.0
 -4.9268837E-009 -3.1268531E-009 0.0
 -5.5475977E-009 -3.2329916E-009 0.0
 -6.1381853E-009 -3.3354996E-009 0.0
 -6.6455946E-009 -3.4096788E-009 0.0
 -6.7625187E-009 -3.3143420E-009 0.0
 -3.3069244E-008 -1.0902812E-008 0.0
 -3.4326444E-008 -1.0936489E-008 0.0
 -3.5734473E-008 -1.0969134E-008 0.0
 -3.7344262E-008 -1.1044505E-008 0.0
 -3.9073570E-008 -1.1148645E-008 0.0
 -4.0886621E-008 -1.1277791E-008 0.0
 -4.2757579E-008 -1.1431077E-008 0.0
 -4.4668550E-008 -1.1609044E-008 0.0
 -4.6606143E-008 -1.1813010E-008 0.0
 -4.8560480E-008 -1.2044947E-008 0.0
 -5.0524956E-008 -1.2307485E-008 0.0
 -5.2496630E-008 -1.2603812E-008 0.0
 -5.4476917E-008 -1.2937159E-008 0.0
 -5.6471810E-008 -1.3309493E-008 0.0
 -5.8490845E-008 -1.3719863E-008 0.0
 -6.0544417E-008 -1.4161701E-008 0.0
 -6.2634326E-008 -1.4616047E-008 0.0
 -6.4727793E-008 -1.5045798E-008 0.0
 -6.6716967E-008 -1.5403743E-008 0.0
 -6.8373502E-008 -1.5659009E-008 0.0
  3.4319297E-011 -3.8210769E-010 0.0
  7.5263236E-011 -3.5467977E-010 0.0
  1.2071792E-010 -4.6775170E-010 0.0
  1.3661474E-010 -6.2329496E-010 0.0
  1.2435618E-010 -7.8805106E-010 0.0
  8.2045743E-011 -9.5417870E-010 0.0
  8.3904308E-012 -1.1186197E-009 0.0
 -9.8101940E-011 -1.2800851E-009 0.0
 -2.3895062E-010 -1.4379986E-009 0.0
 -4.1568569E-010 -1.5921401E-009 0.0
 -6.2981527E-010 -1.7424685E-009 0.0
 -8.8280814E-010 -1.8890355E-009 0.0
 -1.1760719E-009 -2.0319534E-009 0.0
 -1.5109094E-009 -2.1714078E-009 0.0
 -1.8884319E-009 -2.3077097E-009 0.0
 -2.3094001E-009 -2.4413851E-009 0.0
 -2.7739586E-009 -2.5733013E-009 0.0
 -3.2812059E-009 -2.7048306E-009 0.0
 -3.8285219E-009 -2.8380401E-009 0.0
 -4.4105059E-009 -2.9758690E-009 0.0
 -5.0174692E-009 -3.1221645E-009 0.0
 -5.6328041E-009 -3.2812925E-009 0.0
 -6.2335951E-009 -3.4567032E-009 0.0
 -6.7742101E-009 -3.6550116E-009 0.0
 -7.3239387E-009 -3.8368573E-009 0.0
 -3.1532931E-008 -1.1000371E-008 0.0
 -3.1529779E-008 -9.9537198E-009 0.0
 -3.2621966E-008 -1.0111760E-008 0.0
 -3.3958058E-008 -1.0263030E-008 0.0
 -3.5418886E-008 -1.0322192E-008 0.0
 -3.7009864E-008 -1.0355433E-008 0.0
 -3.8707590E-008 -1.0403816E-008 0.0
 -4.0479480E-008 -1.0475954E-008 0.0
 -4.2303677E-008 -1.0574358E-008 0.0
 -4.4163415E-008 -1.0699766E-008 0.0
 -4.6045865E-008 -1.0852799E-008 0.0
 -4.7941259E-008 -1.1034573E-008 0.0
 -4.9842931E-008 -1.1247106E-008 0.0
 -5.1748116E-008 -1.1493608E-008 0.0
 -5.3659590E-008 -1.1778403E-008 0.0
 -5.5587852E-008 -1.2105530E-008 0.0
 -5.7550797E-008 -1.2474911E-008 0.0
 -5.9571147E-008 -1.2881414E-008 0.0
 -6.1678469E-008 -1.3312342E-008 0.0
 -6.3885357E-008 -1.3722013E-008 0.0
 -6.6092186E-008 -1.4034499E-008 0.0
 -6.8012291E-008 -1.4213662E-008 0.0
 -2.7352310E-056  1.4666636E-031 0.0
  3.7575590E-011 -2.4784030E-010 0.0
  9.2739912E-011 -4.2006384E-010 0.0
  1.1092263E-010 -5.7988014E-010 0.0
  9.6270916E-011 -7.3925083E-010 0.0
  4.9556475E-011 -8.9729519E-010 0.0
 -2.9609490E-011 -1.0530511E-009 0.0
 -1.4213016E-010 -1.2058806E-009 0.0
 -2.8916959E-010 -1.3555100E-009 0.0
 -4.7200986E-010 -1.5019172E-009 0.0
 -6.9197636E-010 -1.6452622E-009 0.0
 -9.5038238E-010 -1.7858508E-009 0.0
 -1.2484754E-009 -1.9241319E-009 0.0
 -1.5873663E-009 -2.0607279E-009 0.0
 -1.9679206E-009 -2.1964946E-009 0.0
 -2.3905904E-009 -2.3326090E-009 0.0
 -2.8551560E-009 -2.4706774E-009 0.0
 -3.3603450E-009 -2.6128501E-009 0.0
 -3.9032859E-009 -2.7619049E-009 0.0
 -4.4787909E-009 -2.9212074E-009 0.0
 -5.0784496E-009 -3.0943573E-009 0.0
 -5.6904764E-009 -3.2839486E-009 0.0
 -6.2992157E-009 -3.4891380E-009 0.0
 -6.9048877E-009 -3.6890971E-009 0.0
 -7.5826443E-009 -3.8538874E-009 0.0
 -8.4103011E-009 -4.0198376E-009 0.0
 -8.2456817E-009 -4.0159431E-009 0.0
 -3.1103332E-008 -9.3362702E-009 0.0
 -3.2114170E-008 -9.5588329E-009 0.0
 -3.3552950E-008 -9.6221883E-009 0.0
 -3.5074573E-008 -9.6435586E-009 0.0
 -3.6677506E-008 -9.6467777E-009 0.0
 -3.8354792E-008 -9.6562154E-009 0.0
 -4.0092284E-008 -9.6859630E-009 0.0
 -4.1873827E-008 -9.7407445E-009 0.0
 -4.3685591E-008 -9.8219352E-009 0.0
 -4.5515847E-008 -9.9297710E-009 0.0
 -4.7355026E-008 -1.0064490E-008 0.0
 -4.9196033E-008 -1.0227048E-008 0.0
 -5.1035322E-008 -1.0419822E-008 0.0
 -5.2875297E-008 -1.0647281E-008 0.0
 -5.4729137E-008 -1.0915925E-008 0.0
 -5.6627780E-008 -1.1228858E-008 0.0
 -5.8611000E-008 -1.1569680E-008 0.0
 -6.0720713E-008 -1.1918024E-008 0.0
 -6.3062802E-008 -1.2252149E-008 0.0
 -6.5641331E-008 -1.2430653E-008 0.0
 -6.8005997E-008 -1.2326099E-008 0.0
 -2.7352310E-056 -2.7352310E-056 0.0
  5.6568984E-011 -1.8100092E-010 0.0
  8.3727490E-011 -3.6344668E-010 0.0
  9.3557247E-011 -5.2842549E-010 0.0
  7.3101270E-011 -6.8474604E-010 0.0
  2.0973297E-011 -8.3631050E-010 0.0
 -6.3730529E-011 -9.8418772E-010 0.0
 -1.8186992E-010 -1.1287488E-009 0.0
 -3.3444603E-010 -1.2702335E-009 0.0
 -5.2256511E-010 -1.4089433E-009 0.0
 -7.4738146E-010 -1.5452959E-009 0.0
 -1.0100359E-009 -1.6798524E-009 0.0
 -1.3115886E-009 -1.8133477E-009 0.0
 -1.6529357E-009 -1.9467327E-009 0.0
 -2.0346961E-009 -2.0812303E-009 0.0
 -2.4570517E-009 -2.2183998E-009 0.0
 -2.9195282E-009 -2.3601957E-009 0.0
 -3.4207056E-009 -2.5089894E-009 0.0
 -3.9578739E-009 -2.6674918E-009 0.0
 -4.5266997E-009 -2.8384509E-009 0.0
 -5.1212324E-009 -3.0238568E-009 0.0
 -5.7346909E-009 -3.2233166E-009 0.0
 -6.3646514E-009 -3.4298913E-009 0.0
 -7.0268267E-009 -3.6300128E-009 0.0
 -7.7577966E-009 -3.8198589E-009 0.0
 -8.5811223E-009 -4.0118222E-009 0.0
 -9.4749125E-009 -4.2130784E-009 0.0
 -9.2865305E-009 -4.2034728E-009 0.0
 -3.0157091E-008 -8.9956240E-009 0.0
 -3.1677547E-008 -9.0115503E-009 0.0
 -3.3165317E-008 -8.9725175E-009 0.0
 -3.4729102E-008 -8.9405400E-009 0.0
 -3.6343611E-008 -8.9125104E-009 0.0
 -3.8008517E-008 -8.8956317E-009 0.0
 -3.9717761E-008 -8.8971810E-009 0.0
 -4.1461882E-008 -8.9213089E-009 0.0
 -4.3230280E-008 -8.9692882E-009 0.0
 -4.5012814E-008 -9.0409787E-009 0.0
 -4.6800342E-008 -9.1357150E-009 0.0
 -4.8585270E-008 -9.2529921E-009 0.0
 -5.0362542E-008 -9.3932640E-009 0.0
 -5.2132101E-008 -9.5592919E-009 0.0
 -5.3904651E-008 -9.7582160E-009 0.0
 -5.5717614E-008 -1.0003908E-008 0.0
 -5.7663162E-008 -1.0293460E-008 0.0
 -5.9802018E-008 -1.0525438E-008 0.0
 -6.2247855E-008 -1.0593200E-008 0.0
 -6.5545496E-008 -1.0342422E-008 0.0
 -2.7352310E-056 -2.7352310E-056 0.0
  5.7597799E-011 -1.6305868E-010 0.0
  8.3423401E-011 -3.2337076E-010 0.0
  8.2747610E-011 -4.8009027E-010 0.0
  5.4946389E-011 -6.2966458E-010 0.0
 -3.4482985E-012 -7.7362393E-010 0.0
 -9.3863024E-011 -9.1320951E-010 0.0
 -2.1736634E-010 -1.0492173E-009 0.0
 -3.7494618E-010 -1.1822581E-009 0.0
 -5.6761596E-010 -1.3129105E-009 0.0
 -7.9639786E-010 -1.4418155E-009 0.0
 -1.0622759E-009 -1.5697363E-009 0.0
 -1.3661322E-009 -1.6976059E-009 0.0
 -1.7086673E-009 -1.8265714E-009 0.0
 -2.0902980E-009 -1.9580361E-009 0.0
 -2.5110272E-009 -2.0936897E-009 0.0
 -2.9702865E-009 -2.2355095E-009 0.0
 -3.4667688E-009 -2.3856953E-009 0.0
 -3.9983015E-009 -2.5464747E-009 0.0
 -4.5619095E-009 -2.7196743E-009 0.0
 -5.1543525E-009 -2.9059381E-009 0.0
 -5.7739723E-009 -3.1034275E-009 0.0
 -6.4247830E-009 -3.3072727E-009 0.0
 -7.1202121E-009 -3.5126464E-009 0.0
 -7.8801056E-009 -3.7199073E-009 0.0
 -8.7179504E-009 -3.9354605E-009 0.0
 -9.6335886E-009 -4.1620568E-009 0.0
 -1.0619083E-008 -4.3925651E-009 0.0
 -1.0416982E-008 -4.4039769E-009 0.0
 -2.8144637E-008 -9.1824843E-009 0.0
 -2.8098057E-008 -7.9309538E-009 0.0
 -2.9513271E-008 -8.1865772E-009 0.0
 -3.1210747E-008 -8.2505990E-009 0.0
 -3.2794737E-008 -8.2328908E-009 0.0
 -3.4386105E-008 -8.1865755E-009 0.0
 -3.6007962E-008 -8.1455157E-009 0.0
 -3.7662569E-008 -8.1167885E-009 0.0
 -3.9348609E-008 -8.1047179E-009 0.0
 -4.1060614E-008 -8.1118966E-009 0.0
 -4.2790919E-008 -8.1392946E-009 0.0
 -4.4531035E-008 -8.1865422E-009 0.0
 -4.6272528E-008 -8.2523530E-009 0.0
 -4.8007566E-008 -8.3348600E-009 0.0
 -4.9729580E-008 -8.4320667E-009 0.0
 -5.1434652E-008 -8.5429026E-009 0.0
 -5.3126151E-008 -8.6702798E-009 0.0
 -5.4826318E-008 -8.8289348E-009 0.0
 -5.6641207E-008 -9.0749089E-009 0.0
 -5.8869290E-008 -9.4265562E-009 0.0
 -6.1026560E-008 -9.8763036E-009 0.0
 -2.7352310E-056 -2.7352310E-056 0.0
  5.5201157E-011 -1.4822558E-010 0.0
  7.9377677E-011 -2.9442684E-010 0.0
  7.4214884E-011 -4.3764592E-010 0.0
  3.9910772E-011 -5.7673886E-010 0.0
 -2.4554936E-011 -7.1105809E-010 0.0
 -1.2053681E-010 -8.4115213E-010 0.0
 -2.4907589E-010 -9.6777923E-010 0.0
 -4.1115805E-010 -1.0916713E-009 0.0
 -6.0773945E-010 -1.2135489E-009 0.0
 -8.3974354E-010 -1.3341807E-009 0.0
 -1.1080251E-009 -1.4544403E-009 0.0
 -1.4133185E-009 -1.5753535E-009 0.0
 -1.7561727E-009 -1.6981325E-009 0.0
 -2.1368720E-009 -1.8241983E-009 0.0
 -2.5553486E-009 -1.9551778E-009 0.0
 -3.0110963E-009 -2.0928612E-009 0.0
 -3.5031214E-009 -2.2390874E-009 0.0
 -4.0299983E-009 -2.3955194E-009 0.0
 -4.5901665E-009 -2.5632744E-009 0.0
 -5.1827182E-009 -2.7424181E-009 0.0
 -5.8089400E-009 -2.9316441E-009 0.0
 -6.4742455E-009 -3.1288900E-009 0.0
 -7.1890176E-009 -3.3332497E-009 0.0
 -7.9663357E-009 -3.5472131E-009 0.0
 -8.8175019E-009 -3.7763932E-009 0.0
 -9.7496821E-009 -4.0265103E-009 0.0
 -1.0769343E-008 -4.2979071E-009 0.0
 -1.1881850E-008 -4.5771412E-009 0.0
 -1.1658202E-008 -4.5960976E-009 0.0
 -2.7194477E-008 -7.6754181E-009 0.0
 -2.9059219E-008 -7.5267762E-009 0.0
 -3.0762847E-008 -7.4460341E-009 0.0
 -3.2415382E-008 -7.4113245E-009 0.0
 -3.4036246E-008 -7.3761797E-009 0.0
 -3.5663942E-008 -7.3432670E-009 0.0
 -3.7310349E-008 -7.3193757E-009 0.0
 -3.8977426E-008 -7.3081310E-009 0.0
 -4.0662451E-008 -7.3118718E-009 0.0
 -4.2359902E-008 -7.3317320E-009 0.0
 -4.4062818E-008 -7.3676907E-009 0.0
 -4.5763650E-008 -7.4186195E-009 0.0
 -4.7454746E-008 -7.4822894E-009 0.0
 -4.9128577E-008 -7.5553275E-009 0.0
 -5.0778015E-008 -7.6333407E-009 0.0
 -5.2396780E-008 -7.7119321E-009 0.0
 -5.3987235E-008 -7.7907616E-009 0.0
 -5.5570722E-008 -7.8852390E-009 0.0
 -5.7646814E-008 -8.0660953E-009 0.0
 -6.1024306E-008 -7.8030361E-009 0.0
 -2.7352310E-056 -2.7352310E-056 0.0
  5.2388751E-011 -1.3536619E-010 0.0
  7.4351496E-011 -2.6870514E-010 0.0
  6.5605387E-011 -3.9933995E-010 0.0
  2.6322527E-011 -5.2636658E-010 0.0
 -4.3591966E-011 -6.4931686E-010 0.0
 -1.4465199E-010 -7.6855629E-010 0.0
 -2.7775408E-010 -8.8472713E-010 0.0
 -4.4381990E-010 -9.9852688E-010 0.0
 -6.4374981E-010 -1.1106802E-009 0.0
 -8.7838478E-010 -1.2219714E-009 0.0
 -1.1484761E-009 -1.3332841E-009 0.0
 -1.4546468E-009 -1.4456338E-009 0.0
 -1.7973456E-009 -1.5601861E-009 0.0
 -2.1767976E-009 -1.6782577E-009 0.0
 -2.5929597E-009 -1.8012897E-009 0.0
 -3.0454998E-009 -1.9307810E-009 0.0
 -3.5338376E-009 -2.0681657E-009 0.0
 -4.0573049E-009 -2.2146252E-009 0.0
 -4.6155239E-009 -2.3708515E-009 0.0
 -5.2090947E-009 -2.5368658E-009 0.0
 -5.8405523E-009 -2.7121297E-009 0.0
 -6.5152304E-009 -2.8962057E-009 0.0
 -7.2413231E-009 -3.0899554E-009 0.0
 -8.0287285E-009 -3.2966425E-009 0.0
 -8.8873346E-009 -3.5223145E-009 0.0
 -9.8267682E-009 -3.7756708E-009 0.0
 -1.0857949E-008 -4.0703989E-009 0.0
 -1.1994284E-008 -4.4369384E-009 0.0
 -1.3232807E-008 -4.9395461E-009 0.0
 -1.2983902E-008 -4.7651929E-009 0.0
 -2.4655167E-008 -7.9281699E-009 0.0
 -2.4462967E-008 -6.6705720E-009 0.0
 -2.6694015E-008 -6.5583559E-009 0.0
 -2.8624044E-008 -6.5512006E-009 0.0
 -3.0358903E-008 -6.5393538E-009 0.0
 -3.2028151E-008 -6.5280263E-009 0.0
 -3.3669488E-008 -6.5207568E-009 0.0
 -3.5303793E-008 -6.5131439E-009 0.0
 -3.6944973E-008 -6.5084428E-009 0.0
 -3.8597434E-008 -6.5106558E-009 0.0
 -4.0260300E-008 -6.5228511E-009 0.0
 -4.1929625E-008 -6.5471262E-009 0.0
 -4.3599679E-008 -6.5845925E-009 0.0
 -4.5263751E-008 -6.6353818E-009 0.0
 -4.6914527E-008 -6.6986099E-009 0.0
 -4.8544004E-008 -6.7722741E-009 0.0
 -5.0142541E-008 -6.8532012E-009 0.0
 -5.1696747E-008 -6.9375865E-009 0.0
 -5.3180692E-008 -7.0262565E-009 0.0
 -5.4551805E-008 -7.1496823E-009 0.0
 -5.5500971E-008 -7.7226516E-009 0.0
 -2.7352310E-056 -2.7352310E-056 0.0
  5.0049228E-011 -1.2386487E-010 0.0
  6.9798641E-011 -2.4541760E-010 0.0
  5.7221697E-011 -3.6407866E-010 0.0
  1.2987464E-011 -4.7804767E-010 0.0
 -6.1677093E-011 -5.8829128E-010 0.0
 -1.6718072E-010 -6.9546452E-010 0.0
 -3.0426445E-010 -8.0012755E-010 0.0
 -4.7378794E-010 -9.0284992E-010 0.0
 -6.7658263E-010 -1.0042546E-009 0.0
 -9.1341133E-010 -1.1050461E-009 0.0
 -1.1849402E-009 -1.2060311E-009 0.0
 -1.4917136E-009 -1.3081314E-009 0.0
 -1.8341273E-009 -1.4123835E-009 0.0
 -2.2124072E-009 -1.5199218E-009 0.0
 -2.6266023E-009 -1.6319372E-009 0.0
 -3.0766130E-009 -1.7496050E-009 0.0
 -3.5622827E-009 -1.8739777E-009 0.0
 -4.0835968E-009 -2.0058543E-009 0.0
 -4.6410282E-009 -2.1456618E-009 0.0
 -5.2360371E-009 -2.2934384E-009 0.0
 -5.8716296E-009 -2.4490321E-009 0.0
 -6.5527462E-009 -2.6125878E-009 0.0
 -7.2862050E-009 -2.7852172E-009 0.0
 -8.0801451E-009 -2.9695790E-009 0.0
 -8.9434289E-009 -3.1701188E-009 0.0
 -9.8856414E-009 -3.3932204E-009 0.0
 -1.0918505E-008 -3.6475243E-009 0.0
 -1.2057770E-008 -3.9400864E-009 0.0
 -1.3397455E-008 -4.2388303E-009 0.0
 -1.5236942E-008 -4.5155183E-009 0.0
 -1.5467370E-008 -6.0380659E-009 0.0
 -1.7306729E-008 -4.8932977E-009 0.0
 -1.7443732E-008 -6.6396945E-009 0.0
 -1.9424977E-008 -5.1218254E-009 0.0
 -1.9518807E-008 -6.9792713E-009 0.0
 -2.1727733E-008 -5.1836164E-009 0.0
 -2.1727431E-008 -7.0643614E-009 0.0
 -2.4107794E-008 -5.2784176E-009 0.0
 -2.6239207E-008 -5.3795147E-009 0.0
 -2.8157972E-008 -5.4732410E-009 0.0
 -2.9931192E-008 -5.5508562E-009 0.0
 -3.1623503E-008 -5.6039686E-009 0.0
 -3.3279848E-008 -5.6413141E-009 0.0
 -3.4921904E-008 -5.6695961E-009 0.0
 -3.6561373E-008 -5.6935324E-009 0.0
 -3.8203513E-008 -5.7180671E-009 0.0
 -3.9848609E-008 -5.7475464E-009 0.0
 -4.1493766E-008 -5.7855284E-009 0.0
 -4.3134083E-008 -5.8348656E-009 0.0
 -4.4763349E-008 -5.8978571E-009 0.0
 -4.6374278E-008 -5.9764761E-009 0.0
 -4.7958058E-008 -6.0727489E-009 0.0
 -4.9502558E-008 -6.1895023E-009 0.0
 -5.0986567E-008 -6.3325110E-009 0.0
 -5.2363955E-008 -6.5157361E-009 0.0
 -5.3496493E-008 -6.7853594E-009 0.0
 -5.3785002E-008 -7.1025698E-009 0.0
 -2.7352310E-056 -2.7352310E-056 0.0
  5.0114014E-011 -1.1390160E-010 0.0
  6.7247114E-011 -2.2801432E-010 0.0
  4.7841542E-011 -3.3175165E-010 0.0
 -9.8180152E-013 -4.3095326E-010 0.0
 -7.9734409E-011 -5.2737104E-010 0.0
 -1.8894612E-010 -6.2158147E-010 0.0
 -3.2940473E-010 -7.1390456E-010 0.0
 -5.0189689E-010 -8.0469090E-010 0.0
 -7.0717319E-010 -8.9439181E-010 0.0
 -9.4591407E-010 -9.8356960E-010 0.0
 -1.2187122E-009 -1.0728957E-009 0.0
 -1.5260584E-009 -1.1631429E-009 0.0
 -1.8683316E-009 -1.2551687E-009 0.0
 -2.2458004E-009 -1.3498853E-009 0.0
 -2.6586436E-009 -1.4482117E-009 0.0
 -3.1070079E-009 -1.5510056E-009 0.0
 -3.5911224E-009 -1.6589784E-009 0.0
 -4.1114907E-009 -1.7726100E-009 0.0
 -4.6691727E-009 -1.8920950E-009 0.0
 -5.2661317E-009 -2.0173699E-009 0.0
 -5.9055746E-009 -2.1482652E-009 0.0
 -6.5921673E-009 -2.2847726E-009 0.0
 -7.3320355E-009 -2.4273266E-009 0.0
 -8.1326228E-009 -2.5769011E-009 0.0
 -9.0027068E-009 -2.7346955E-009 0.0
 -9.9532727E-009 -2.9010120E-009 0.0
 -1.1000444E-008 -3.0720908E-009 0.0
 -1.2180818E-008 -3.2307250E-009 0.0
 -1.3587204E-008 -3.3553285E-009 0.0
 -1.5293294E-008 -3.4863497E-009 0.0
 -1.7236610E-008 -3.6303937E-009 0.0
 -1.9332511E-008 -3.7768735E-009 0.0
 -2.1517673E-008 -3.9166852E-009 0.0
 -2.3704712E-008 -4.0741586E-009 0.0
 -2.5770639E-008 -4.2579161E-009 0.0
 -2.7681793E-008 -4.4275998E-009 0.0
 -2.9474874E-008 -4.5680151E-009 0.0
 -3.1191696E-008 -4.6783707E-009 0.0
 -3.2865178E-008 -4.7632641E-009 0.0
 -3.4516636E-008 -4.8302457E-009 0.0
 -3.6157579E-008 -4.8862085E-009 0.0
 -3.7793206E-008 -4.9372091E-009 0.0
 -3.9424299E-008 -4.9887795E-009 0.0
 -4.1048490E-008 -5.0459506E-009 0.0
 -4.2661227E-008 -5.1134231E-009 0.0
 -4.4256310E-008 -5.1958855E-009 0.0
 -4.5825901E-008 -5.2985354E-009 0.0
 -4.7359730E-008 -5.4279437E-009 0.0
 -4.8842610E-008 -5.5935329E-009 0.0
 -5.0247690E-008 -5.8096966E-009 0.0
 -5.1517476E-008 -6.0992828E-009 0.0
 -5.2506734E-008 -6.4838989E-009 0.0
 -5.3014506E-008 -6.8788302E-009 0.0
 -5.3216457E-008 -7.0970923E-009 0.0
 -5.3100942E-008 -7.0638747E-009 0.0
 -2.7352310E-056  1.4666636E-031 0.0
  6.0524987E-011 -1.2897058E-010 0.0
  5.9497382E-011 -2.1701689E-010 0.0
  3.5840986E-011 -3.0050349E-010 0.0
 -1.6497329E-011 -3.8349674E-010 0.0
 -9.8298881E-011 -4.6560921E-010 0.0
 -2.1048958E-010 -5.4648136E-010 0.0
 -3.5377819E-010 -6.2598530E-010 0.0
 -5.2885200E-010 -7.0421231E-010 0.0
 -7.3635673E-010 -7.8142456E-010 0.0
 -9.7688543E-010 -8.5802181E-010 0.0
 -1.2509653E-009 -9.3451536E-010 0.0
 -1.5590517E-009 -1.0115041E-009 0.0
 -1.9015315E-009 -1.0896462E-009 0.0
 -2.2787395E-009 -1.1696219E-009 0.0
 -2.6909980E-009 -1.2520841E-009 0.0
 -3.1386887E-009 -1.3375986E-009 0.0
 -3.6223705E-009 -1.4265768E-009 0.0
 -4.1429512E-009 -1.5192179E-009 0.0
 -4.7019109E-009 -1.6154768E-009 0.0
 -5.3015555E-009 -1.7150819E-009 0.0
 -5.9452568E-009 -1.8176055E-009 0.0
 -6.6376339E-009 -1.9225546E-009 0.0
 -7.3846775E-009 -2.0293876E-009 0.0
 -8.1939305E-009 -2.1373123E-009 0.0
 -9.0750512E-009 -2.2446600E-009 0.0
 -1.0041406E-008 -2.3476025E-009 0.0
 -1.1114583E-008 -2.4380890E-009 0.0
 -1.2333068E-008 -2.5058202E-009 0.0
 -1.3746148E-008 -2.5537583E-009 0.0
 -1.5383964E-008 -2.5992321E-009 0.0
 -1.7223224E-008 -2.6671456E-009 0.0
 -1.9205814E-008 -2.7660261E-009 0.0
 -2.1264710E-008 -2.9009953E-009 0.0
 -2.3323383E-008 -3.0732047E-009 0.0
 -2.5313623E-008 -3.2686278E-009 0.0
 -2.7205473E-008 -3.4642630E-009 0.0
 -2.9006154E-008 -3.6398317E-009 0.0
 -3.0739585E-008 -3.7882065E-009 0.0
 -3.2428752E-008 -3.9105173E-009 0.0
 -3.4090494E-008 -4.0115476E-009 0.0
 -3.5735031E-008 -4.0974436E-009 0.0
 -3.7367068E-008 -4.1744815E-009 0.0
 -3.8987231E-008 -4.2488070E-009 0.0
 -4.0593139E-008 -4.3264792E-009 0.0
 -4.2180139E-008 -4.4136229E-009 0.0
 -4.3741646E-008 -4.5167456E-009 0.0
 -4.5268950E-008 -4.6432804E-009 0.0
 -4.6750229E-008 -4.8024392E-009 0.0
 -4.8168169E-008 -5.0062470E-009 0.0
 -4.9495317E-008 -5.2699240E-009 0.0
 -5.0683909E-008 -5.6052628E-009 0.0
 -5.1663884E-008 -5.9887465E-009 0.0
 -5.2393966E-008 -6.3271774E-009 0.0
 -5.3001320E-008 -6.5225692E-009 0.0
  2.0495628E-011 -1.6569943E-010 0.0
  3.7994749E-011 -1.5313738E-010 0.0
  4.4584042E-011 -2.0036903E-010 0.0
  2.0374304E-011 -2.6519682E-010 0.0
 -3.3364720E-011 -3.3349267E-010 0.0
 -1.1735526E-010 -4.0210078E-010 0.0
 -2.3197663E-010 -4.6989080E-010 0.0
 -3.7773866E-010 -5.3647498E-010 0.0
 -5.5517136E-010 -6.0178277E-010 0.0
 -7.6480699E-010 -6.6593577E-010 0.0
 -1.0071533E-009 -7.2919007E-010 0.0
 -1.2826816E-009 -7.9190155E-010 0.0
 -1.5918261E-009 -8.5449565E-010 0.0
 -1.9349957E-009 -9.1743458E-010 0.0
 -2.3126017E-009 -9.8117828E-010 0.0
 -2.7251071E-009 -1.0461380E-009 0.0
 -3.1731041E-009 -1.1126238E-009 0.0
 -3.6574267E-009 -1.1807918E-009 0.0
 -4.1793010E-009 -1.2505983E-009 0.0
 -4.7405284E-009 -1.3217721E-009 0.0
 -5.3436884E-009 -1.3938098E-009 0.0
 -5.9923427E-009 -1.4659854E-009 0.0
 -6.6912346E-009 -1.5373399E-009 0.0
 -7.4465205E-009 -1.6065925E-009 0.0
 -8.2661553E-009 -1.6718988E-009 0.0
 -9.1606715E-009 -1.7304258E-009 0.0
 -1.0144768E-008 -1.7779078E-009 0.0
 -1.1239806E-008 -1.8093400E-009 0.0
 -1.2473905E-008 -1.8230599E-009 0.0
 -1.3875307E-008 -1.8254204E-009 0.0
 -1.5456609E-008 -1.8333414E-009 0.0
 -1.7202268E-008 -1.8660472E-009 0.0
 -1.9072110E-008 -1.9382070E-009 0.0
 -2.1012138E-008 -2.0555617E-009 0.0
 -2.2965461E-008 -2.2144855E-009 0.0
 -2.4884501E-008 -2.4015378E-009 0.0
 -2.6743240E-008 -2.5972226E-009 0.0
 -2.8537994E-008 -2.7844412E-009 0.0
 -3.0278509E-008 -2.9528771E-009 0.0
 -3.1978368E-008 -3.0994177E-009 0.0
 -3.3649043E-008 -3.2256391E-009 0.0
 -3.5297941E-008 -3.3356300E-009 0.0
 -3.6928344E-008 -3.4347459E-009 0.0
 -3.8540063E-008 -3.5289905E-009 0.0
 -4.0130184E-008 -3.6247947E-009 0.0
 -4.1693625E-008 -3.7289847E-009 0.0
 -4.3223330E-008 -3.8488719E-009 0.0
 -4.4709989E-008 -3.9924621E-009 0.0
 -4.6141135E-008 -4.1687194E-009 0.0
 -4.7499798E-008 -4.3875727E-009 0.0
 -4.8763083E-008 -4.6582158E-009 0.0
 -4.9908221E-008 -4.9826648E-009 0.0
 -5.0932738E-008 -5.3344090E-009 0.0
 -5.1866728E-008 -5.6361562E-009 0.0
 -5.2704500E-008 -5.8159097E-009 0.0
 -2.7352310E-056 -2.7352310E-056 0.0
  2.0419244E-011 -9.8314347E-011 0.0
  2.9046056E-011 -1.6362682E-010 0.0
  5.0154569E-012 -2.2229944E-010 0.0
 -5.0273488E-011 -2.8002842E-010 0.0
 -1.3632979E-010 -3.3668179E-010 0.0
 -2.5327143E-010 -3.9200240E-010 0.0
 -4.0141771E-010 -4.4580753E-010 0.0
 -5.8118496E-010 -4.9804554E-010 0.0
 -7.9301544E-010 -5.4877430E-010 0.0
 -1.0373498E-009 -5.9814398E-010 0.0
 -1.3146177E-009 -6.4637649E-010 0.0
 -1.6252434E-009 -6.9374073E-010 0.0
 -1.9696655E-009 -7.4052219E-010 0.0
 -2.3483714E-009 -7.8698669E-010 0.0
 -2.7619523E-009 -8.3333906E-010 0.0
 -3.2111801E-009 -8.7967895E-010 0.0
 -3.6971130E-009 -9.2595769E-010 0.0
 -4.2212275E-009 -9.7194116E-010 0.0
 -4.7855763E-009 -1.0171830E-009 0.0
 -5.3929634E-009 -1.0610077E-009 0.0
 -6.0471348E-009 -1.1024953E-009 0.0
 -6.7529927E-009 -1.1404489E-009 0.0
 -7.5168711E-009 -1.1733251E-009 0.0
 -8.3469482E-009 -1.1991322E-009 0.0
 -9.2538918E-009 -1.2153920E-009 0.0
 -1.0251706E-008 -1.2195078E-009 0.0
 -1.1358030E-008 -1.2101607E-009 0.0
 -1.2592433E-008 -1.1896630E-009 0.0
 -1.3970975E-008 -1.1664108E-009 0.0
 -1.5498218E-008 -1.1543447E-009 0.0
 -1.7161412E-008 -1.1693105E-009 0.0
 -1.8931250E-008 -1.2235696E-009 0.0
 -2.0768049E-008 -1.3223440E-009 0.0
 -2.2629979E-008 -1.4622916E-009 0.0
 -2.4481756E-008 -1.6324084E-009 0.0
 -2.6300974E-008 -1.8175308E-009 0.0
 -2.8079100E-008 -2.0029579E-009 0.0
 -2.9817568E-008 -2.1780462E-009 0.0
 -3.1522246E-008 -2.3371855E-009 0.0
 -3.3199144E-008 -2.4791258E-009 0.0
 -3.4852116E-008 -2.6057080E-009 0.0
 -3.6482162E-008 -2.7208238E-009 0.0
 -3.8087596E-008 -2.8297426E-009 0.0
 -3.9664513E-008 -2.9386835E-009 0.0
 -4.1207223E-008 -3.0545053E-009 0.0
 -4.2708419E-008 -3.1844169E-009 0.0
 -4.4158958E-008 -3.3356326E-009 0.0
 -4.5547343E-008 -3.5148367E-009 0.0
 -4.6859280E-008 -3.7271046E-009 0.0
 -4.8079843E-008 -3.9738184E-009 0.0
 -4.9200071E-008 -4.2495119E-009 0.0
 -5.0256092E-008 -4.5504128E-009 0.0
 -5.1362287E-008 -4.8368478E-009 0.0
 -5.2489469E-008 -5.0051378E-009 0.0
 -2.7352310E-056 -2.7352310E-056 0.0
  2.5786150E-011 -6.2337850E-011 0.0
  2.1351825E-011 -1.2364880E-010 0.0
 -7.4577787E-012 -1.7652440E-010 0.0
 -6.5882041E-011 -2.2478593E-010 0.0
 -1.5462834E-010 -2.7030345E-010 0.0
 -2.7414137E-010 -3.1359395E-010 0.0
 -4.2482101E-010 -3.5479224E-010 0.0
 -6.0707255E-010 -3.9392821E-010 0.0
 -8.2130117E-010 -4.3103686E-010 0.0
 -1.0679082E-009 -4.6619031E-010 0.0
 -1.3472973E-009 -4.9950004E-010 0.0
 -1.6598914E-009 -5.3110228E-010 0.0
 -2.0061603E-009 -5.6113350E-010 0.0
 -2.3866603E-009 -5.8969936E-010 0.0
 -2.8020909E-009 -6.1684008E-010 0.0
 -3.2533699E-009 -6.4249471E-010 0.0
 -3.7417297E-009 -6.6646746E-010 0.0
 -4.2688355E-009 -6.8839928E-010 0.0
 -4.8369236E-009 -7.0774686E-010 0.0
 -5.4489576E-009 -7.2376922E-010 0.0
 -6.1088038E-009 -7.3551913E-010 0.0
 -6.8214329E-009 -7.4183771E-010 0.0
 -7.5931675E-009 -7.4136194E-010 0.0
 -8.4319893E-009 -7.3259042E-010 0.0
 -9.3478723E-009 -7.1412620E-010 0.0
 -1.0352917E-008 -6.8529831E-010 0.0
 -1.1460785E-008 -6.4726666E-010 0.0
 -1.2684707E-008 -6.0442066E-010 0.0
 -1.4033812E-008 -5.6515898E-010 0.0
 -1.5508734E-008 -5.4116531E-010 0.0
 -1.7098729E-008 -5.4476337E-010 0.0
 -1.8782133E-008 -5.8556798E-010 0.0
 -2.0530053E-008 -6.6772298E-010 0.0
 -2.2311871E-008 -7.8878587E-010 0.0
 -2.4100831E-008 -9.4045095E-010 0.0
 -2.5877949E-008 -1.1109021E-009 0.0
 -2.7632956E-008 -1.2878947E-009 0.0
 -2.9362466E-008 -1.4612734E-009 0.0
 -3.1066842E-008 -1.6242741E-009 0.0
 -3.2747255E-008 -1.7736657E-009 0.0
 -3.4403783E-008 -1.9093018E-009 0.0
 -3.6034591E-008 -2.0335222E-009 0.0
 -3.7635914E-008 -2.1506019E-009 0.0
 -3.9202439E-008 -2.2662363E-009 0.0
 -4.0727764E-008 -2.3869798E-009 0.0
 -4.2204665E-008 -2.5195603E-009 0.0
 -4.3625086E-008 -2.6699934E-009 0.0
 -4.4979950E-008 -2.8423879E-009 0.0
 -4.6259531E-008 -3.0372978E-009 0.0
 -4.7455202E-008 -3.2495802E-009 0.0
 -4.8569606E-008 -3.4665667E-009 0.0
 -4.9618153E-008 -3.6636110E-009 0.0
 -5.0845401E-008 -3.8308432E-009 0.0
 -5.2541016E-008 -3.7755281E-009 0.0
 -2.7352310E-056 -2.7352310E-056 0.0
  2.3387589E-011 -4.7193148E-011 0.0
  1.6608288E-011 -9.1419368E-011 0.0
 -1.7786811E-011 -1.3285327E-010 0.0
 -8.0103751E-011 -1.7030768E-010 0.0
 -1.7204347E-010 -2.0448335E-010 0.0
 -2.9444957E-010 -2.3583427E-010 0.0
 -4.4791548E-010 -2.6452417E-010 0.0
 -6.3290758E-010 -2.9058661E-010 0.0
 -8.4983350E-010 -3.1401532E-010 0.0
 -1.0990760E-009 -3.3481055E-010 0.0
 -1.3810232E-009 -3.5299093E-010 0.0
 -1.6960999E-009 -3.6858468E-010 0.0
 -2.0448030E-009 -3.8160971E-010 0.0
 -2.4277448E-009 -3.9204817E-010 0.0
 -2.8457092E-009 -3.9981914E-010 0.0
 -3.2997222E-009 -4.0475195E-010 0.0
 -3.7911397E-009 -4.0656278E-010 0.0
 -4.3217517E-009 -4.0483709E-010 0.0
 -4.8939038E-009 -3.9902025E-010 0.0
 -5.5106326E-009 -3.8841867E-010 0.0
 -6.1758154E-009 -3.7221476E-010 0.0
 -6.8943344E-009 -3.4950461E-010 0.0
 -7.6722505E-009 -3.1938042E-010 0.0
 -8.5169595E-009 -2.8110432E-010 0.0
 -9.4372447E-009 -2.3444719E-010 0.0
 -1.0443034E-008 -1.8025223E-010 0.0
 -1.1544571E-008 -1.2118967E-010 0.0
 -1.2750745E-008 -6.2434106E-011 0.0
 -1.4066679E-008 -1.1814756E-011 0.0
 -1.5491248E-008  2.1024131E-011 0.0
 -1.7015619E-008  2.6434127E-011 0.0
 -1.8623688E-008 -2.9745453E-012 0.0
 -2.0294418E-008 -7.0472686E-011 0.0
 -2.2005339E-008 -1.7436793E-010 0.0
 -2.3736093E-008 -3.0843742E-010 0.0
 -2.5470931E-008 -4.6343668E-010 0.0
 -2.7199458E-008 -6.2911800E-010 0.0
 -2.8915726E-008 -7.9608863E-010 0.0
 -3.0616347E-008 -9.5705837E-010 0.0
 -3.2298541E-008 -1.1074323E-009 0.0
 -3.3958717E-008 -1.2454334E-009 0.0
 -3.5591860E-008 -1.3719684E-009 0.0
 -3.7191615E-008 -1.4903255E-009 0.0
 -3.8750833E-008 -1.6056850E-009 0.0
 -4.0262230E-008 -1.7243884E-009 0.0
 -4.1718895E-008 -1.8529368E-009 0.0
 -4.3114502E-008 -1.9967236E-009 0.0
 -4.4443339E-008 -2.1585315E-009 0.0
 -4.5700396E-008 -2.3369579E-009 0.0
 -4.6882995E-008 -2.5253552E-009 0.0
 -4.7990957E-008 -2.7133290E-009 0.0
 -4.9050177E-008 -2.8952570E-009 0.0
 -4.9954787E-008 -3.1695756E-009 0.0
  1.4666636E-031 -2.7352310E-056 0.0
  1.9172413E-011 -3.3662090E-011 0.0
  9.6884248E-012 -6.4437192E-011 0.0
 -2.7742553E-011 -9.2661333E-011 0.0
 -9.3541654E-011 -1.1816195E-010 0.0
 -1.8868639E-010 -1.4060836E-010 0.0
 -3.1416013E-010 -1.5997275E-010 0.0
 -4.7065095E-010 -1.7623269E-010 0.0
 -6.5867860E-010 -1.8931307E-010 0.0
 -8.7865229E-010 -1.9912405E-010 0.0
 -1.1309357E-009 -2.0558883E-010 0.0
 -1.4159003E-009 -2.0864725E-010 0.0
 -1.7339690E-009 -2.0824323E-010 0.0
 -2.0856569E-009 -2.0430605E-010 0.0
 -2.4716155E-009 -1.9672972E-010 0.0
 -2.8926854E-009 -1.8535316E-010 0.0
 -3.3499613E-009 -1.6994306E-010 0.0
 -3.8448696E-009 -1.5018165E-010 0.0
 -4.3792593E-009 -1.2566163E-010 0.0
 -4.9555047E-009 -9.5891479E-011 0.0
 -5.5766170E-009 -6.0315186E-011 0.0
 -6.2463608E-009 -1.8353101E-011 0.0
 -6.9693670E-009  3.0524098E-011 0.0
 -7.7512238E-009  8.6667841E-011 0.0
 -8.5985032E-009  1.5004104E-010 0.0
 -9.5186414E-009  2.1989737E-010 0.0
 -1.0519548E-008  2.9435460E-010 0.0
 -1.1608805E-008  3.6994702E-010 0.0
 -1.2792407E-008  4.4134498E-010 0.0
 -1.4073204E-008  5.0150136E-010 0.0
 -1.5449468E-008  5.4240253E-010 0.0
 -1.6914179E-008  5.5637775E-010 0.0
 -1.8455429E-008  5.3762805E-010 0.0
 -2.0057943E-008  4.8350572E-010 0.0
 -2.1705296E-008  3.9513910E-010 0.0
 -2.3382139E-008  2.7723663E-010 0.0
 -2.5075762E-008  1.3717336E-010 0.0
 -2.6776576E-008 -1.6324470E-011 0.0
 -2.8477532E-008 -1.7452461E-010 0.0
 -3.0172849E-008 -3.2980849E-010 0.0
 -3.1856615E-008 -4.7648828E-010 0.0
 -3.3521783E-008 -6.1136216E-010 0.0
 -3.5159859E-008 -7.3403575E-010 0.0
 -3.6761340E-008 -8.4695650E-010 0.0
 -3.8316667E-008 -9.5505125E-010 0.0
 -3.9817323E-008 -1.0648978E-009 0.0
 -4.1256684E-008 -1.1834775E-009 0.0
 -4.2630414E-008 -1.3166713E-009 0.0
 -4.3936381E-008 -1.4677145E-009 0.0
 -4.5174234E-008 -1.6359397E-009 0.0
 -4.6343649E-008 -1.8169163E-009 0.0
 -4.7443272E-008 -2.0061369E-009 0.0
 -4.8444727E-008 -2.2185802E-009 0.0
 -4.9275540E-008 -2.4538211E-009 0.0
 -2.7352310E-056 -2.7352310E-056 0.0
  1.4145914E-011 -2.1269339E-011 0.0
  1.7952319E-012 -3.9464790E-011 0.0
 -3.8015988E-011 -5.5452981E-011 0.0
 -1.0651994E-010 -6.9039415E-011 0.0
 -2.0465286E-010 -7.9705500E-011 0.0
 -3.3321149E-010 -8.7168357E-011 0.0
 -4.9291973E-010 -9.1166891E-011 0.0
 -6.8428708E-010 -9.1452627E-011 0.0
 -9.0768237E-010 -8.7826399E-011 0.0
 -1.1634265E-009 -8.0139764E-011 0.0
 -1.4518625E-009 -6.8271301E-011 0.0
 -1.7734026E-009 -5.2104282E-011 0.0
 -2.1285680E-009 -3.1506864E-011 0.0
 -2.5180297E-009 -6.3160100E-012 0.0
 -2.9426561E-009  2.3674576E-011 0.0
 -3.4035699E-009  5.8721682E-011 0.0
 -3.9022150E-009  9.9133523E-011 0.0
 -4.4404336E-009  1.4526206E-010 0.0
 -5.0205489E-009  1.9748336E-010 0.0
 -5.6454516E-009  2.5616107E-010 0.0
 -6.3186803E-009  3.2158600E-010 0.0
 -7.0444853E-009  3.9388167E-010 0.0
 -7.8278497E-009  4.7286259E-010 0.0
 -8.6744312E-009  5.5783369E-010 0.0
 -9.5903629E-009  6.4733071E-010 0.0
 -1.0581846E-008  7.3883220E-010 0.0
 -1.1654483E-008  8.2852123E-010 0.0
 -1.2812371E-008  9.1122364E-010 0.0
 -1.4057109E-008  9.8065783E-010 0.0
 -1.5386983E-008  1.0300688E-009 0.0
 -1.6796627E-008  1.0531823E-009 0.0
 -1.8277393E-008  1.0452740E-009 0.0
 -1.9818358E-008  1.0040703E-009 0.0
 -2.1407745E-008  9.3024135E-010 0.0
 -2.3034297E-008  8.2737432E-010 0.0
 -2.4688203E-008  7.0147431E-010 0.0
 -2.6361297E-008  5.6015562E-010 0.0
 -2.8046491E-008  4.1170670E-010 0.0
 -2.9736684E-008  2.6414305E-010 0.0
 -3.1423558E-008  1.2426934E-010 0.0
 -3.3096768E-008 -3.2486214E-012 0.0
 -3.4743940E-008 -1.1671158E-010 0.0
 -3.6351628E-008 -2.1787879E-010 0.0
 -3.7906999E-008 -3.1183461E-010 0.0
 -3.9399677E-008 -4.0607633E-010 0.0
 -4.0823076E-008 -5.0896411E-010 0.0
 -4.2174856E-008 -6.2794148E-010 0.0
 -4.3456522E-008 -7.6801418E-010 0.0
 -4.4672085E-008 -9.3071881E-010 0.0
 -4.5825034E-008 -1.1136641E-009 0.0
 -4.6907932E-008 -1.3128472E-009 0.0
 -4.7889330E-008 -1.5218249E-009 0.0
 -4.8714430E-008 -1.7342029E-009 0.0
 -2.7352310E-056 -2.7352310E-056 0.0
  8.0541712E-012 -9.7815353E-012 0.0
 -6.2406969E-012 -1.6310637E-011 0.0
 -4.7948320E-011 -2.1298236E-011 0.0
 -1.1898005E-010 -2.3392776E-011 0.0
 -2.1978402E-010 -2.2583621E-011 0.0
 -3.5138648E-010 -1.8494316E-011 0.0
 -5.1450834E-010 -1.0563375E-011 0.0
 -7.0954451E-010  1.6523387E-012 0.0
 -9.3674798E-010  1.8428728E-011 0.0
 -1.1963670E-009  3.9958255E-011 0.0
 -1.4887015E-009  6.6398195E-011 0.0
 -1.8141432E-009  9.7902678E-011 0.0
 -2.1732066E-009  1.3464153E-010 0.0
 -2.5665628E-009  1.7681054E-010 0.0
 -2.9950788E-009  2.2463495E-010 0.0
 -3.4598653E-009  2.7836668E-010 0.0
 -3.9623336E-009  3.3827453E-010 0.0
 -4.5042570E-009  4.0462518E-010 0.0
 -5.0878358E-009  4.7765192E-010 0.0
 -5.7157585E-009  5.5750645E-010 0.0
 -6.3912509E-009  6.4418809E-010 0.0
 -7.1180987E-009  7.3744396E-010 0.0
 -7.9006225E-009  8.3663458E-010 0.0
 -8.7435748E-009  9.4056463E-010 0.0
 -9.6519237E-009  1.0472917E-009 0.0
 -1.0630489E-008  1.1539471E-009 0.0
 -1.1683428E-008  1.2566296E-009 0.0
 -1.2813608E-008  1.3504513E-009 0.0
 -1.4021985E-008  1.4298051E-009 0.0
 -1.5307148E-008  1.4888785E-009 0.0
 -1.6665207E-008  1.5223600E-009 0.0
 -1.8090105E-008  1.5262066E-009 0.0
 -1.9574326E-008  1.4983071E-009 0.0
 -2.1109811E-008  1.4388971E-009 0.0
 -2.2688801E-008  1.3506573E-009 0.0
 -2.4304337E-008  1.2385153E-009 0.0
 -2.5950182E-008  1.1092313E-009 0.0
 -2.7620118E-008  9.7083724E-010 0.0
 -2.9306718E-008  8.3191916E-010 0.0
 -3.0999973E-008  7.0064744E-010 0.0
 -3.2686345E-008  5.8347992E-010 0.0
 -3.4348916E-008  4.8368469E-010 0.0
 -3.5969052E-008  4.0015413E-010 0.0
 -3.7529278E-008  3.2715601E-010 0.0
 -3.9016388E-008  2.5540000E-010 0.0
 -4.0423536E-008  1.7418086E-010 0.0
 -4.1750597E-008  7.3771533E-011 0.0
 -4.3002914E-008 -5.2861984E-011 0.0
 -4.4189438E-008 -2.0952510E-010 0.0
 -4.5319709E-008 -3.9582568E-010 0.0
 -4.6395539E-008 -6.0245346E-010 0.0
 -4.7390672E-008 -8.0807034E-010 0.0
 -4.8239719E-008 -9.9551621E-010 0.0
 -3.8682008E-056 -3.8682008E-056 0.0
 -2.2333067E-056  1.0233894E-031 0.0
 -1.2808651E-011  2.6129831E-012 0.0
 -5.7587857E-011  9.1812044E-012 0.0
 -1.3052609E-010  1.8436127E-011 0.0
 -2.3355153E-010  2.9964733E-011 0.0
 -3.6825181E-010  4.4920877E-011 0.0
 -5.3510682E-010  6.4342812E-011 0.0
 -7.3418900E-010  8.8699438E-011 0.0
 -9.6559507E-010  1.1826398E-010 0.0
 -1.2294794E-009  1.5322428E-010 0.0
 -1.5260932E-009  1.9374580E-010 0.0
 -1.8558022E-009  2.4000075E-010 0.0
 -2.2191045E-009  2.9218116E-010 0.0
 -2.6166527E-009  3.5050034E-010 0.0
 -3.0492849E-009  4.1518655E-010 0.0
 -3.5180629E-009  4.8647042E-010 0.0
 -4.0243188E-009  5.6456567E-010 0.0
 -4.5697029E-009  6.4964143E-010 0.0
 -5.1562328E-009  7.4178321E-010 0.0
 -5.7863329E-009  8.4093896E-010 0.0
 -6.4628582E-009  9.4684645E-010 0.0
 -7.1890890E-009  1.0589389E-009 0.0
 -7.9686799E-009  1.1762287E-009 0.0
 -8.8055426E-009  1.2971756E-009 0.0
 -9.7036449E-009  1.4195546E-009 0.0
 -1.0666714E-008  1.5403532E-009 0.0
 -1.1697857E-008  1.6557429E-009 0.0
 -1.2799143E-008  1.7611687E-009 0.0
 -1.3971228E-008  1.8515953E-009 0.0
 -1.5213129E-008  1.9219135E-009 0.0
 -1.6522230E-008  1.9674652E-009 0.0
 -1.7894574E-008  1.9846091E-009 0.0
 -1.9325390E-008  1.9712283E-009 0.0
 -2.0809704E-008  1.9270984E-009 0.0
 -2.2342878E-008  1.8540745E-009 0.0
 -2.3920821E-008  1.7561145E-009 0.0
 -2.5539725E-008  1.6391885E-009 0.0
 -2.7195156E-008  1.5111003E-009 0.0
 -2.8880493E-008  1.3811232E-009 0.0
 -3.0584960E-008  1.2591618E-009 0.0
 -3.2291989E-008  1.1541215E-009 0.0
 -3.3979127E-008  1.0715124E-009 0.0
 -3.5620523E-008  1.0110986E-009 0.0
 -3.7191808E-008  9.6592980E-010 0.0
 -3.8675502E-008  9.2372636E-010 0.0
 -4.0064415E-008  8.7024210E-010 0.0
 -4.1361633E-008  7.9304234E-010 0.0
 -4.2577699E-008  6.8391429E-010 0.0
 -4.3726677E-008  5.3903395E-010 0.0
 -4.4825695E-008  3.5662798E-010 0.0
 -4.5896453E-008  1.4265895E-010 0.0
 -4.6941152E-008 -7.0017244E-011 0.0
 -4.7860916E-008 -2.3159374E-010 0.0
 -2.7352310E-056 -2.7352310E-056 0.0
 -2.0911865E-011  1.6757334E-011 0.0
 -6.7221568E-011  3.7260677E-011 0.0
 -1.3990597E-010  5.6189664E-011 0.0
 -2.4495082E-010  7.6620191E-011 0.0
 -3.8332052E-010  1.0179936E-010 0.0
 -5.5437380E-010  1.3232498E-010 0.0
 -7.5793151E-010  1.6848107E-010 0.0
 -9.9391889E-010  2.1043565E-010 0.0
 -1.2624115E-009  2.5833435E-010 0.0
 -1.5636190E-009  3.1233169E-010 0.0
 -1.8978845E-009  3.7260957E-010 0.0
 -2.2656834E-009  4.3937731E-010 0.0
 -2.6676344E-009  5.1286129E-010 0.0
 -3.1045208E-009  5.9328775E-010 0.0
 -3.5773217E-009  6.8086093E-010 0.0
 -4.0872490E-009  7.7573640E-010 0.0
 -4.6357858E-009  8.7798782E-010 0.0
 -5.2247205E-009  9.8756452E-010 0.0
 -5.8561708E-009  1.1042371E-009 0.0
 -6.5325901E-009  1.2275293E-009 0.0
 -7.2567448E-009  1.3566352E-009 0.0
 -8.0316536E-009  1.4903251E-009 0.0
 -8.8604747E-009  1.6268487E-009 0.0
 -9.7463348E-009  1.7638486E-009 0.0
 -1.0692101E-008  1.8983097E-009 0.0
 -1.1700111E-008  2.0265699E-009 0.0
 -1.2771912E-008  2.1444224E-009 0.0
 -1.3908044E-008  2.2473231E-009 0.0
 -1.5107961E-008  2.3307032E-009 0.0
 -1.6370125E-008  2.3903584E-009 0.0
 -1.7692290E-008  2.4228697E-009 0.0
 -1.9071933E-008  2.4260016E-009 0.0
 -2.0506718E-008  2.3990364E-009 0.0
 -2.1994853E-008  2.3430194E-009 0.0
 -2.3535163E-008  2.2609255E-009 0.0
 -2.5126734E-008  2.1578056E-009 0.0
 -2.6767898E-008  2.0409887E-009 0.0
 -2.8454300E-008  1.9202575E-009 0.0
 -3.0175907E-008  1.8075372E-009 0.0
 -3.1913740E-008  1.7151531E-009 0.0
 -3.3638485E-008  1.6521923E-009 0.0
 -3.5313736E-008  1.6199886E-009 0.0
 -3.6904355E-008  1.6096737E-009 0.0
 -3.8386317E-008  1.6040898E-009 0.0
 -3.9752545E-008  1.5836002E-009 0.0
 -4.1011958E-008  1.5324874E-009 0.0
 -4.2183382E-008  1.4428614E-009 0.0
 -4.3288750E-008  1.3148389E-009 0.0
 -4.4347456E-008  1.1533469E-009 0.0
 -4.5395695E-008  9.5374875E-010 0.0
 -4.6510552E-008  7.3448688E-010 0.0
 -4.7626274E-008  5.8663038E-010 0.0
 -2.7352310E-056 -2.7352310E-056 0.0
 -3.4737409E-011  3.8761729E-011 0.0
 -7.2828690E-011  6.5374340E-011 0.0
 -1.4415751E-010  8.6630533E-011 0.0
 -2.5344099E-010  1.1546815E-010 0.0
 -3.9623256E-010  1.5077794E-010 0.0
 -5.7206084E-010  1.9228923E-010 0.0
 -7.8049782E-010  2.3997763E-010 0.0
 -1.0213875E-009  2.9390990E-010 0.0
 -1.2947495E-009  3.5418002E-010 0.0
 -1.6007774E-009  4.2093598E-010 0.0
 -1.9398019E-009  4.9437713E-010 0.0
 -2.3122739E-009  5.7473893E-010 0.0
 -2.7187635E-009  6.6226788E-010 0.0
 -3.1599750E-009  7.5719304E-010 0.0
 -3.6367736E-009  8.5969633E-010 0.0
 -4.1502164E-009  9.6988129E-010 0.0
 -4.7015833E-009  1.0877380E-009 0.0
 -5.2924006E-009  1.2131011E-009 0.0
 -5.9244546E-009  1.3455995E-009 0.0
 -6.5997863E-009  1.4845963E-009 0.0
 -7.3206617E-009  1.6291203E-009 0.0
 -8.0895109E-009  1.7777944E-009 0.0
 -8.9088304E-009  1.9287671E-009 0.0
 -9.7810456E-009  2.0796616E-009 0.0
 -1.0708344E-008  2.2275571E-009 0.0
 -1.1692493E-008  2.3690204E-009 0.0
 -1.2734683E-008  2.5002020E-009 0.0
 -1.3835425E-008  2.6170027E-009 0.0
 -1.4994565E-008  2.7153061E-009 0.0
 -1.6211443E-008  2.7912589E-009 0.0
 -1.7485188E-008  2.8415788E-009 0.0
 -1.8815131E-008  2.8638675E-009 0.0
 -2.0201216E-008  2.8569181E-009 0.0
 -2.1644283E-008  2.8209982E-009 0.0
 -2.3146082E-008  2.7580958E-009 0.0
 -2.4708914E-008  2.6721452E-009 0.0
 -2.6334777E-008  2.5694290E-009 0.0
 -2.8023395E-008  2.4594532E-009 0.0
 -2.9768144E-008  2.3558197E-009 0.0
 -3.1549618E-008  2.2754254E-009 0.0
 -3.3330366E-008  2.2332447E-009 0.0
 -3.5057823E-008  2.2339253E-009 0.0
 -3.6679004E-008  2.2657061E-009 0.0
 -3.8159546E-008  2.3033541E-009 0.0
 -3.9494175E-008  2.3187832E-009 0.0
 -4.0702793E-008  2.2921075E-009 0.0
 -4.1818303E-008  2.2168328E-009 0.0
 -4.2874304E-008  2.0999613E-009 0.0
 -4.3899458E-008  1.9598824E-009 0.0
 -4.4905125E-008  1.8248792E-009 0.0
 -4.6070167E-008  1.7031197E-009 0.0
 -4.7659522E-008  1.7616166E-009 0.0
  1.0494825E-012  8.0414832E-011 0.0
 -4.0004579E-011  7.4597422E-011 0.0
 -6.2974812E-011  7.5442133E-011 0.0
 -1.4488492E-010  1.0516011E-010 0.0
 -2.5907127E-010  1.4472065E-010 0.0
 -4.0703077E-010  1.9091963E-010 0.0
 -5.8802262E-010  2.4348205E-010 0.0
 -8.0165031E-010  3.0248988E-010 0.0
 -1.0476395E-009  3.6794262E-010 0.0
 -1.3260142E-009  4.3992043E-010 0.0
 -1.6369809E-009  5.1859079E-010 0.0
 -1.9808755E-009  6.0419738E-010 0.0
 -2.3581230E-009  6.9702483E-010 0.0
 -2.7692290E-009  7.9735728E-010 0.0
 -3.2147939E-009  9.0543859E-010 0.0
 -3.6955392E-009  1.0214378E-009 0.0
 -4.2123372E-009  1.1454173E-009 0.0
 -4.7662369E-009  1.2773000E-009 0.0
 -5.3584816E-009  1.4168314E-009 0.0
 -5.9905147E-009  1.5635364E-009 0.0
 -6.6639687E-009  1.7166687E-009 0.0
 -7.3806349E-009  1.8751577E-009 0.0
 -8.1424093E-009  2.0375561E-009 0.0
 -8.9512125E-009  2.2019953E-009 0.0
 -9.8088868E-009  2.3661604E-009 0.0
 -1.0717079E-008  2.5272923E-009 0.0
 -1.1677124E-008  2.6822297E-009 0.0
 -1.2689958E-008  2.8274947E-009 0.0
 -1.3756095E-008  2.9594228E-009 0.0
 -1.4875699E-008  3.0743278E-009 0.0
 -1.6048784E-008  3.1686929E-009 0.0
 -1.7275552E-008  3.2393790E-009 0.0
 -1.8556835E-008  3.2838607E-009 0.0
 -1.9894551E-008  3.3005093E-009 0.0
 -2.1292007E-008  3.2889305E-009 0.0
 -2.2753871E-008  3.2502905E-009 0.0
 -2.4285753E-008  3.1875084E-009 0.0
 -2.5893613E-008  3.1053114E-009 0.0
 -2.7582925E-008  3.0111539E-009 0.0
 -2.9354672E-008  2.9184248E-009 0.0
 -3.1194506E-008  2.8486427E-009 0.0
 -3.3057178E-008  2.8267830E-009 0.0
 -3.4864348E-008  2.8643045E-009 0.0
 -3.6531527E-008  2.9455665E-009 0.0
 -3.8007256E-008  3.0313613E-009 0.0
 -3.9293210E-008  3.0806212E-009 0.0
 -4.0430207E-008  3.0695151E-009 0.0
 -4.1471962E-008  2.9948929E-009 0.0
 -4.2469074E-008  2.8685255E-009 0.0
 -4.3457789E-008  2.7140412E-009 0.0
 -4.4458285E-008  2.5600657E-009 0.0
 -4.5320034E-008  2.3318430E-009 0.0
 -2.7352310E-056 -2.7352310E-056 0.0
 -6.0255424E-011  5.9712857E-011 0.0
 -1.4389427E-010  1.1226759E-010 0.0
 -2.6272059E-010  1.6480884E-010 0.0
 -4.1572160E-010  2.2206947E-010 0.0
 -6.0221066E-010  2.8571868E-010 0.0
 -8.2113431E-010  3.5574238E-010 0.0
 -1.0722569E-009  4.3214209E-010 0.0
 -1.3556349E-009  5.1501478E-010 0.0
 -1.6715378E-009  6.0459327E-010 0.0
 -2.0203257E-009  7.0120946E-010 0.0
 -2.4023933E-009  8.0523434E-010 0.0
 -2.8181592E-009  9.1701395E-010 0.0
 -3.2680900E-009  1.0368210E-009 0.0
 -3.7527334E-009  1.1648208E-009 0.0
 -4.2727510E-009  1.3010455E-009 0.0
 -4.8289409E-009  1.4453665E-009 0.0
 -5.4222513E-009  1.5974653E-009 0.0
 -6.0537814E-009  1.7567968E-009 0.0
 -6.7247687E-009  1.9225506E-009 0.0
 -7.4365612E-009  2.0936100E-009 0.0
 -8.1905740E-009  2.2685165E-009 0.0
 -8.9882287E-009  2.4454447E-009 0.0
 -9.8308815E-009  2.6221951E-009 0.0
 -1.0719745E-008  2.7962133E-009 0.0
 -1.1655822E-008  2.9646380E-009 0.0
 -1.2639866E-008  3.1243798E-009 0.0
 -1.3672400E-008  3.2722240E-009 0.0
 -1.4753821E-008  3.4049457E-009 0.0
 -1.5884633E-008  3.5194270E-009 0.0
 -1.7065814E-008  3.6127719E-009 0.0
 -1.8299346E-008  3.6824489E-009 0.0
 -1.9588819E-008  3.7265373E-009 0.0
 -2.0939908E-008  3.7441582E-009 0.0
 -2.2360361E-008  3.7360474E-009 0.0
 -2.3859269E-008  3.7048808E-009 0.0
 -2.5445979E-008  3.6547672E-009 0.0
 -2.7130770E-008  3.5897468E-009 0.0
 -2.8927128E-008  3.5167481E-009 0.0
 -3.0838333E-008  3.4590633E-009 0.0
 -3.2819233E-008  3.4550826E-009 0.0
 -3.4748898E-008  3.5324451E-009 0.0
 -3.6483254E-008  3.6690402E-009 0.0
 -3.7941504E-008  3.8022022E-009 0.0
 -3.9147463E-008  3.8719546E-009 0.0
 -4.0183117E-008  3.8563079E-009 0.0
 -4.1129117E-008  3.7642907E-009 0.0
 -4.2047015E-008  3.6110751E-009 0.0
 -4.2989768E-008  3.4108967E-009 0.0
 -4.3959318E-008  3.1861670E-009 0.0
 -4.4790906E-008  2.9916152E-009 0.0
  1.4666636E-031 -2.7352310E-056 0.0
 -5.7441891E-011  5.8182247E-011 0.0
 -1.4109562E-010  1.1639753E-010 0.0
 -2.6325351E-010  1.7680362E-010 0.0
 -4.2247657E-010  2.4492247E-010 0.0
 -6.1446342E-010  3.1938180E-010 0.0
 -8.3863019E-010  3.9992494E-010 0.0
 -1.0947061E-009  4.8648793E-010 0.0
 -1.3829039E-009  5.7922509E-010 0.0
 -1.7036164E-009  6.7848979E-010 0.0
 -2.0572535E-009  7.8477308E-010 0.0
 -2.4441583E-009  8.9858111E-010 0.0
 -2.8646247E-009  1.0203449E-009 0.0
 -3.3189465E-009  1.1503729E-009 0.0
 -3.8074672E-009  1.2888295E-009 0.0
 -4.3306152E-009  1.4357209E-009 0.0
 -4.8889250E-009  1.5908800E-009 0.0
 -5.4830456E-009  1.7539439E-009 0.0
 -6.1137379E-009  1.9243273E-009 0.0
 -6.7818622E-009  2.1011911E-009 0.0
 -7.4883559E-009  2.2834130E-009 0.0
 -8.2342013E-009  2.4695645E-009 0.0
 -9.0203859E-009  2.6578999E-009 0.0
 -9.8478573E-009  2.8463644E-009 0.0
 -1.0717479E-008  3.0326258E-009 0.0
 -1.1629999E-008  3.2141312E-009 0.0
 -1.2586040E-008  3.3881868E-009 0.0
 -1.3586145E-008  3.5520492E-009 0.0
 -1.4630884E-008  3.7030135E-009 0.0
 -1.5721087E-008  3.8384789E-009 0.0
 -1.6858231E-008  3.9559819E-009 0.0
 -1.8045053E-008  4.0532148E-009 0.0
 -1.9286424E-008  4.1281462E-009 0.0
 -2.0590283E-008  4.1795265E-009 0.0
 -2.1968009E-008  4.2079590E-009 0.0
 -2.3433189E-008  4.2171744E-009 0.0
 -2.4998825E-008  4.2138017E-009 0.0
 -2.6675365E-008  4.2036488E-009 0.0
 -2.8481623E-008  4.1824172E-009 0.0
 -3.0464480E-008  4.1504509E-009 0.0
 -3.2613838E-008  4.1687137E-009 0.0
 -3.4731342E-008  4.2834611E-009 0.0
 -3.6563057E-008  4.4722794E-009 0.0
 -3.7967087E-008  4.6320349E-009 0.0
 -3.9039856E-008  4.6820850E-009 0.0
 -3.9941128E-008  4.6254351E-009 0.0
 -4.0776431E-008  4.4969124E-009 0.0
 -4.1601398E-008  4.3228413E-009 0.0
 -4.2465317E-008  4.1005074E-009 0.0
 -4.3454406E-008  3.8411327E-009 0.0
 -4.4469177E-008  3.6525395E-009 0.0
 -2.7352310E-056 -2.7352310E-056 0.0
 -4.3950071E-011  5.9611602E-011 0.0
 -1.2816043E-010  1.0941405E-010 0.0
 -2.6198914E-010  1.8138392E-010 0.0
 -4.2701765E-010  2.6053630E-010 0.0
 -6.2458051E-010  3.4536901E-010 0.0
 -8.5366960E-010  4.3565142E-010 0.0
 -1.1142779E-009  5.3132412E-010 0.0
 -1.4068999E-009  6.3257593E-010 0.0
 -1.7321966E-009  7.4001825E-010 0.0
 -2.0906206E-009  8.5441328E-010 0.0
 -2.4824027E-009  9.7645028E-010 0.0
 -2.9076465E-009  1.1066490E-009 0.0
 -3.3664257E-009  1.2453412E-009 0.0
 -3.8588496E-009  1.3926776E-009 0.0
 -4.3850980E-009  1.5486352E-009 0.0
 -4.9454367E-009  1.7130140E-009 0.0
 -5.5402185E-009  1.8854229E-009 0.0
 -6.1698773E-009  2.0652584E-009 0.0
 -6.8349159E-009  2.2516803E-009 0.0
 -7.5358899E-009  2.4435884E-009 0.0
 -8.2733892E-009  2.6396084E-009 0.0
 -9.0480174E-009  2.8380905E-009 0.0
 -9.8603727E-009  3.0371284E-009 0.0
 -1.0711034E-008  3.2346023E-009 0.0
 -1.1600557E-008  3.4282470E-009 0.0
 -1.2529489E-008  3.6157426E-009 0.0
 -1.3498414E-008  3.7948145E-009 0.0
 -1.4508057E-008  3.9633228E-009 0.0
 -1.5559473E-008  4.1193132E-009 0.0
 -1.6654413E-008  4.2609999E-009 0.0
 -1.7795948E-008  4.3866773E-009 0.0
 -1.8989570E-008  4.4945579E-009 0.0
 -2.0245020E-008  4.5829554E-009 0.0
 -2.1578019E-008  4.6519290E-009 0.0
 -2.3009523E-008  4.7065330E-009 0.0
 -2.4559510E-008  4.7597208E-009 0.0
 -2.6239066E-008  4.8294070E-009 0.0
 -2.8049199E-008  4.9269379E-009 0.0
 -3.0055959E-008  5.0185276E-009 0.0
 -3.2442335E-008  5.0907503E-009 0.0
 -3.4826467E-008  5.2434485E-009 0.0
 -3.6797188E-008  5.4190543E-009 0.0
 -3.8054765E-008  5.5070568E-009 0.0
 -3.8928999E-008  5.4511315E-009 0.0
 -3.9679536E-008  5.3146804E-009 0.0
 -4.0401194E-008  5.1377400E-009 0.0
 -4.1146634E-008  4.9440495E-009 0.0
 -4.1926330E-008  4.7747818E-009 0.0
 -4.2920275E-008  4.6354626E-009 0.0
 -4.4499265E-008  4.7180930E-009 0.0
  2.0741756E-031 -3.8682008E-056 0.0
 -2.2333067E-056 -2.2333067E-056 0.0
 -1.2135649E-010  9.3277197E-011 0.0
 -2.5818324E-010  1.8128400E-010 0.0
 -4.2925523E-010  2.7071255E-010 0.0
 -6.3218210E-010  3.6488396E-010 0.0
 -8.6569187E-010  4.6403571E-010 0.0
 -1.1299342E-009  5.6731840E-010 0.0
 -1.4263746E-009  6.7523793E-010 0.0
 -1.7560198E-009  7.8898694E-010 0.0
 -2.1192489E-009  9.0973178E-010 0.0
 -2.5160418E-009  1.0383451E-009 0.0
 -2.9462192E-009  1.1753891E-009 0.0
 -3.4095852E-009  1.3211725E-009 0.0
 -3.9059942E-009  1.4758021E-009 0.0
 -4.4353738E-009  1.6392123E-009 0.0
 -4.9977259E-009  1.8111715E-009 0.0
 -5.5931178E-009  1.9912724E-009 0.0
 -6.2216706E-009  2.1789117E-009 0.0
 -6.8835481E-009  2.3732679E-009 0.0
 -7.5789479E-009  2.5732808E-009 0.0
 -8.3080955E-009  2.7776404E-009 0.0
 -9.0712445E-009  2.9847906E-009 0.0
 -9.8686824E-009  3.1929542E-009 0.0
 -1.0700747E-008  3.4001841E-009 0.0
 -1.1567848E-008  3.6044437E-009 0.0
 -1.2470507E-008  3.8037166E-009 0.0
 -1.3409403E-008  3.9961333E-009 0.0
 -1.4385442E-008  4.1800947E-009 0.0
 -1.5399897E-008  4.3543543E-009 0.0
 -1.6454669E-008  4.5180154E-009 0.0
 -1.7552860E-008  4.6703953E-009 0.0
 -1.8699778E-008  4.8107644E-009 0.0
 -1.9905256E-008  4.9374922E-009 0.0
 -2.1188865E-008  5.0482948E-009 0.0
 -2.2583232E-008  5.1468565E-009 0.0
 -2.4125153E-008  5.2518268E-009 0.0
 -2.5831048E-008  5.3984767E-009 0.0
 -2.7691252E-008  5.6285085E-009 0.0
 -2.9684741E-008  5.9963713E-009 0.0
 -3.2550409E-008  6.8072317E-009 0.0
 -3.4773716E-008  6.8920798E-009 0.0
 -3.7154865E-008  6.4336181E-009 0.0
 -3.8119122E-008  6.2312096E-009 0.0
 -3.8781245E-008  6.0304469E-009 0.0
 -3.9389904E-008  5.8347433E-009 0.0
 -3.9994675E-008  5.6226461E-009 0.0
 -4.0655012E-008  5.3915586E-009 0.0
 -4.1422383E-008  5.1694674E-009 0.0
 -4.2025370E-008  4.8950887E-009 0.0
 -2.7352310E-056  1.4666636E-031 0.0
 -1.0980833E-010  9.1331664E-011 0.0
 -2.4995524E-010  1.8094201E-010 0.0
 -4.2826783E-010  2.7594170E-010 0.0
 -6.3772232E-010  3.8008432E-010 0.0
 -8.7367838E-010  4.8687825E-010 0.0
 -1.1399987E-009  5.9526019E-010 0.0
 -1.4396105E-009  7.0724928E-010 0.0
 -1.7735871E-009  8.2507479E-010 0.0
 -2.1418703E-009  9.5030009E-010 0.0
 -2.5439778E-009  1.0838421E-009 0.0
 -2.9793538E-009  1.2261809E-009 0.0
 -3.4475037E-009  1.3775183E-009 0.0
 -3.9480295E-009  1.5378727E-009 0.0
 -4.4806206E-009  1.7071191E-009 0.0
 -5.0450326E-009  1.8849965E-009 0.0
 -5.6410648E-009  2.0710928E-009 0.0
 -6.2685418E-009  2.2648220E-009 0.0
 -6.9273041E-009  2.4653973E-009 0.0
 -7.6172058E-009  2.6718091E-009 0.0
 -8.3381230E-009  2.8828123E-009 0.0
 -9.0899727E-009  3.0969292E-009 0.0
 -9.8727460E-009  3.3124734E-009 0.0
 -1.0686554E-008  3.5276031E-009 0.0
 -1.1531686E-008  3.7404093E-009 0.0
 -1.2408672E-008  3.9490453E-009 0.0
 -1.3318341E-008  4.1518914E-009 0.0
 -1.4261869E-008  4.3477362E-009 0.0
 -1.5240822E-008  4.5359350E-009 0.0
 -1.6257292E-008  4.7164907E-009 0.0
 -1.7314242E-008  4.8899792E-009 0.0
 -1.8416571E-008  5.0573156E-009 0.0
 -1.9572235E-008  5.2196441E-009 0.0
 -2.0797947E-008  5.3736132E-009 0.0
 -2.2139953E-008  5.5110318E-009 0.0
 -2.3673113E-008  5.6506210E-009 0.0
 -2.5432819E-008  5.8434951E-009 0.0
 -2.7360314E-008  6.1201053E-009 0.0
 -2.9371847E-008  6.4272406E-009 0.0
 -3.7947994E-008  6.2399204E-009 0.0
 -3.8176395E-008  6.3941619E-009 0.0
 -3.8637942E-008  6.2811708E-009 0.0
 -3.9091539E-008  6.1069246E-009 0.0
 -3.9568051E-008  5.9138620E-009 0.0
 -4.0106277E-008  5.6840017E-009 0.0
 -4.0807107E-008  5.3852107E-009 0.0
 -4.1514831E-008  5.1414581E-009 0.0
 -2.7352310E-056 -2.7352310E-056 0.0
 -8.2122964E-011  9.0067810E-011 0.0
 -2.3055120E-010  1.6647411E-010 0.0
 -4.3028802E-010  2.7945448E-010 0.0
 -6.4123112E-010  3.9589579E-010 0.0
 -8.7507950E-010  5.0635675E-010 0.0
 -1.1416736E-009  6.1531019E-010 0.0
 -1.4444226E-009  7.2800680E-010 0.0
 -1.7832979E-009  8.4760179E-010 0.0
 -2.1572649E-009  9.7558702E-010 0.0
 -2.5652006E-009  1.1125936E-009 0.0
 -3.0061395E-009  1.2588212E-009 0.0
 -3.4793133E-009  1.4142671E-009 0.0
 -3.9841096E-009  1.5788209E-009 0.0
 -4.5200170E-009  1.7522913E-009 0.0
 -5.0865754E-009  1.9343971E-009 0.0
 -5.6833387E-009  2.1247395E-009 0.0
 -6.3098517E-009  2.3227676E-009 0.0
 -6.9656419E-009  2.5277450E-009 0.0
 -7.6502251E-009  2.7387207E-009 0.0
 -8.3631264E-009  2.9545110E-009 0.0
 -9.1039187E-009  3.1736943E-009 0.0
 -9.8722805E-009  3.3946272E-009 0.0
 -1.0668076E-008  3.6154886E-009 0.0
 -1.1491453E-008  3.8343634E-009 0.0
 -1.2342950E-008  4.0493791E-009 0.0
 -1.3223590E-008  4.2589055E-009 0.0
 -1.4134905E-008  4.4618057E-009 0.0
 -1.5078906E-008  4.6576911E-009 0.0
 -1.6058022E-008  4.8471021E-009 0.0
 -1.7075163E-008  5.0315793E-009 0.0
 -1.8134277E-008  5.2134016E-009 0.0
 -1.9243438E-008  5.3958363E-009 0.0
 -2.0410874E-008  5.5880784E-009 0.0
 -2.1663954E-008  5.7780310E-009 0.0
 -2.3158545E-008  5.9351916E-009 0.0
 -2.5031467E-008  6.1645262E-009 0.0
 -2.7032941E-008  6.5113543E-009 0.0
 -3.8437714E-008  6.1399661E-009 0.0
 -3.8366677E-008  6.2415982E-009 0.0
 -3.8523127E-008  6.2204192E-009 0.0
 -3.8809608E-008  6.1070155E-009 0.0
 -3.9160610E-008  5.9626248E-009 0.0
 -3.9545130E-008  5.8343458E-009 0.0
 -4.0152149E-008  5.7174296E-009 0.0
 -4.1526122E-008  5.8463045E-009 0.0
 -3.8682008E-056 -3.8682008E-056 0.0
  1.1975258E-031 -2.2333067E-056 0.0
 -2.3778451E-010  1.4935805E-010 0.0
 -4.4100388E-010  3.0064821E-010 0.0
 -6.3759198E-010  4.1929197E-010 0.0
 -8.6399074E-010  5.2234739E-010 0.0
 -1.1311533E-009  6.2545240E-010 0.0
 -1.4386116E-009  7.3575666E-010 0.0
 -1.7838081E-009  8.5543685E-010 0.0
 -2.1644920E-009  9.8502474E-010 0.0
 -2.5789145E-009  1.1244211E-009 0.0
 -3.0258066E-009  1.2733713E-009 0.0
 -3.5042234E-009  1.4316083E-009 0.0
 -4.0134174E-009  1.5988871E-009 0.0
 -4.5527345E-009  1.7749679E-009 0.0
 -5.1215385E-009  1.9595756E-009 0.0
 -5.7191632E-009  2.1523511E-009 0.0
 -6.3448870E-009  2.3528025E-009 0.0
 -6.9979284E-009  2.5602606E-009 0.0
 -7.6774589E-009  2.7738421E-009 0.0
 -8.3826365E-009  2.9924209E-009 0.0
 -9.1126596E-009  3.2146124E-009 0.0
 -9.8668476E-009  3.4387722E-009 0.0
 -1.0644752E-008  3.6630177E-009 0.0
 -1.1446303E-008  3.8852860E-009 0.0
 -1.2271976E-008  4.1034507E-009 0.0
 -1.3122956E-008  4.3155277E-009 0.0
 -1.4001203E-008  4.5199879E-009 0.0
 -1.4909331E-008  4.7161318E-009 0.0
 -1.5850263E-008  4.9043464E-009 0.0
 -1.6826960E-008  5.0860837E-009 0.0
 -1.7842184E-008  5.2638060E-009 0.0
 -1.8899582E-008  5.4385453E-009 0.0
 -2.0019957E-008  5.6126806E-009 0.0
 -2.1184925E-008  5.8392216E-009 0.0
 -2.2512849E-008  6.1200807E-009 0.0
 -2.4722592E-008  6.4938926E-009 0.0
 -3.8807448E-008  5.8765226E-009 0.0
 -3.8474678E-008  5.9221672E-009 0.0
 -3.8436300E-008  5.9216031E-009 0.0
 -3.8540640E-008  5.8586620E-009 0.0
 -3.8747193E-008  5.7315118E-009 0.0
 -3.9051089E-008  5.5709819E-009 0.0
 -3.9087784E-008  5.2836493E-009 0.0
 -2.7352310E-056 -2.7352310E-056 0.0
 -2.8916567E-010  2.3286739E-010 0.0
 -4.4243510E-010  3.6311593E-010 0.0
 -6.1010692E-010  4.4609381E-010 0.0
 -8.3258774E-010  5.2684933E-010 0.0
 -1.1054272E-009  6.2054073E-010 0.0
 -1.4209432E-009  7.2766828E-010 0.0
 -1.7745645E-009  8.4735532E-010 0.0
 -2.1631240E-009  9.7830660E-010 0.0
 -2.5846372E-009  1.1195272E-009 0.0
 -3.0377565E-009  1.2702952E-009 0.0
 -3.5215198E-009  1.4301194E-009 0.0
 -4.0351504E-009  1.5986756E-009 0.0
 -4.5779191E-009  1.7757288E-009 0.0
 -5.1490547E-009  1.9610569E-009 0.0
 -5.7476925E-009  2.1543780E-009 0.0
 -6.3728521E-009  2.3552873E-009 0.0
 -7.0234385E-009  2.5632027E-009 0.0
 -7.6982639E-009  2.7773188E-009 0.0
 -8.3960892E-009  2.9965694E-009 0.0
 -9.1156906E-009  3.2195970E-009 0.0
 -9.8559544E-009  3.4447299E-009 0.0
 -1.0616013E-008  3.6699700E-009 0.0
 -1.1395431E-008  3.8930010E-009 0.0
 -1.2194447E-008  4.1112410E-009 0.0
 -1.3014254E-008  4.3219935E-009 0.0
 -1.3857204E-008  4.5227760E-009 0.0
 -1.4726700E-008  4.7118445E-009 0.0
 -1.5626421E-008  4.8886935E-009 0.0
 -1.6559049E-008  5.0537304E-009 0.0
 -1.7526144E-008  5.2070279E-009 0.0
 -1.8524301E-008  5.3488457E-009 0.0
 -1.9545066E-008  5.4537258E-009 0.0
 -2.0665110E-008  5.4464169E-009 0.0
 -2.1293217E-008  5.1359699E-009 0.0
 -3.9531963E-008  5.8945026E-009 0.0
 -3.9522149E-008  5.2809292E-009 0.0
 -3.8935155E-008  5.3314344E-009 0.0
 -3.8531908E-008  5.3975172E-009 0.0
 -3.8340179E-008  5.4343562E-009 0.0
 -3.8276292E-008  5.4160996E-009 0.0
 -3.8302210E-008  5.3130698E-009 0.0
 -3.8451982E-008  5.0819057E-009 0.0
 -3.8522181E-008  4.8530566E-009 0.0
 -1.9999717E-011  4.8527861E-010 0.0
 -3.1359492E-010  4.2515006E-010 0.0
 -3.8283695E-010  4.2032663E-010 0.0
 -5.4319951E-010  4.4093948E-010 0.0
 -7.7914364E-010  5.0500238E-010 0.0
 -1.0647680E-009  5.9390714E-010 0.0
 -1.3923229E-009  7.0145279E-010 0.0
 -1.7561007E-009  8.2294279E-010 0.0
 -2.1533331E-009  9.5590008E-010 0.0
 -2.5821904E-009  1.0987804E-009 0.0
 -3.0415233E-009  1.2506142E-009 0.0
 -3.5305215E-009  1.4108492E-009 0.0
 -4.0484820E-009  1.5791991E-009 0.0
 -4.5946611E-009  1.7555210E-009 0.0
 -5.1681838E-009  1.9397085E-009 0.0
 -5.7679986E-009  2.1316020E-009 0.0
 -6.3928639E-009  2.3309138E-009 0.0
 -7.0413587E-009  2.5371681E-009 0.0
 -7.7119120E-009  2.7496493E-009 0.0
 -8.4028508E-009  2.9673576E-009 0.0
 -9.1124706E-009  3.1889662E-009 0.0
 -9.8391370E-009  3.4127773E-009 0.0
 -1.0581429E-008  3.6366730E-009 0.0
 -1.1338343E-008  3.8580606E-009 0.0
 -1.2109596E-008  4.0738206E-009 0.0
 -1.2896036E-008  4.2803042E-009 0.0
 -1.3700148E-008  4.4735317E-009 0.0
 -1.4526260E-008  4.6498523E-009 0.0
 -1.5379622E-008  4.8070257E-009 0.0
 -1.6263107E-008  4.9447836E-009 0.0
 -1.7173505E-008  5.0608911E-009 0.0
 -1.8108672E-008  5.1474596E-009 0.0
 -1.9028690E-008  5.2217767E-009 0.0
 -1.9913015E-008  5.2466446E-009 0.0
 -2.1209656E-008  5.4959227E-009 0.0
 -3.9580508E-008  4.6756554E-009 0.0
 -3.8976113E-008  4.6989319E-009 0.0
 -3.8529184E-008  4.7421880E-009 0.0
 -3.8229064E-008  4.7811089E-009 0.0
 -3.8030686E-008  4.7945226E-009 0.0
 -3.7856669E-008  4.7832810E-009 0.0
 -3.7847480E-008  4.7294847E-009 0.0
 -3.8514101E-008  4.8675370E-009 0.0
 -2.3810378E-010  3.8434703E-010 0.0
 -2.5230082E-010  3.2965590E-010 0.0
 -4.5491603E-010  3.7297243E-010 0.0
 -7.1046792E-010  4.4569148E-010 0.0
 -1.0147463E-009  5.4402877E-010 0.0
 -1.3553478E-009  6.5781117E-010 0.0
 -1.7298266E-009  7.8367411E-010 0.0
 -2.1356761E-009  9.1955380E-010 0.0
 -2.5715338E-009  1.0639428E-009 0.0
 -3.0366528E-009  1.2160073E-009 0.0
 -3.5304934E-009  1.3753562E-009 0.0
 -4.0525012E-009  1.5418901E-009 0.0
 -4.6019557E-009  1.7156597E-009 0.0
 -5.1778898E-009  1.8967433E-009 0.0
 -5.7790603E-009  2.0851460E-009 0.0
 -6.4039501E-009  2.2807228E-009 0.0
 -7.0507914E-009  2.4831179E-009 0.0
 -7.7176011E-009  2.6917143E-009 0.0
 -8.4022324E-009  2.9055865E-009 0.0
 -9.1024436E-009  3.1234511E-009 0.0
 -9.8159941E-009  3.3436091E-009 0.0
 -1.0540777E-008  3.5638717E-009 0.0
 -1.1275013E-008  3.7814540E-009 0.0
 -1.2017547E-008  3.9928163E-009 0.0
 -1.2768333E-008  4.1934463E-009 0.0
 -1.3529266E-008  4.3776482E-009 0.0
 -1.4305344E-008  4.5388945E-009 0.0
 -1.5104671E-008  4.6717879E-009 0.0
 -1.5934322E-008  4.7751419E-009 0.0
 -1.6786522E-008  4.8526983E-009 0.0
 -1.7632982E-008  4.8870932E-009 0.0
 -1.8498813E-008  4.8214585E-009 0.0
 -1.8970354E-008  4.5737023E-009 0.0
 -3.9584901E-008  3.9177504E-009 0.0
 -3.8955396E-008  3.9352230E-009 0.0
 -3.8465658E-008  3.9590942E-009 0.0
 -3.8088758E-008  3.9771308E-009 0.0
 -3.7779060E-008  3.9724495E-009 0.0
 -3.7481566E-008  3.9279475E-009 0.0
 -3.6888284E-008  3.6999702E-009 0.0
  1.4666636E-031 -2.7352310E-056 0.0
 -1.6161962E-010  1.6269395E-010 0.0
 -3.5905749E-010  2.5216692E-010 0.0
 -6.4381715E-010  3.6323383E-010 0.0
 -9.6009341E-010  4.7855598E-010 0.0
 -1.3129156E-009  6.0155375E-010 0.0
 -1.6971995E-009  7.3342354E-010 0.0
 -2.1106121E-009  8.7242535E-010 0.0
 -2.5524870E-009  1.0176906E-009 0.0
 -3.0225254E-009  1.1687846E-009 0.0
 -3.5205331E-009  1.3256668E-009 0.0
 -4.0461427E-009  1.4885574E-009 0.0
 -4.5986648E-009  1.6577949E-009 0.0
 -5.1770247E-009  1.8336994E-009 0.0
 -5.7797619E-009  2.0164702E-009 0.0
 -6.4050565E-009  2.2061154E-009 0.0
 -7.0507657E-009  2.4024019E-009 0.0
 -7.7144646E-009  2.6048110E-009 0.0
 -8.3934956E-009  2.8124939E-009 0.0
 -9.0850315E-009  3.0242221E-009 0.0
 -9.7861587E-009  3.2383262E-009 0.0
 -1.0493989E-008  3.4526186E-009 0.0
 -1.1205811E-008  3.6642776E-009 0.0
 -1.1919318E-008  3.8696529E-009 0.0
 -1.2633015E-008  4.0638979E-009 0.0
 -1.3347033E-008  4.2403323E-009 0.0
 -1.4065255E-008  4.3894020E-009 0.0
 -1.4799225E-008  4.4996910E-009 0.0
 -1.5566576E-008  4.5655721E-009 0.0
 -1.6374097E-008  4.5971052E-009 0.0
 -1.7157670E-008  4.6291796E-009 0.0
 -1.7872888E-008  4.6427294E-009 0.0
 -1.8910243E-008  4.8391020E-009 0.0
 -4.0331042E-008  3.9024405E-009 0.0
 -4.0326914E-008  3.0872884E-009 0.0
 -3.9530760E-008  3.0697350E-009 0.0
 -3.8880257E-008  3.0603428E-009 0.0
 -3.8352808E-008  3.0631669E-009 0.0
 -3.7908132E-008  3.0567215E-009 0.0
 -3.7504908E-008  3.0101622E-009 0.0
 -3.7052590E-008  2.8911664E-009 0.0
 -3.6327267E-008  2.7351691E-009 0.0
 -3.8682008E-056 -3.8682008E-056 0.0
  1.1975258E-031 -2.2333067E-056 0.0
 -2.9864907E-010  1.5546488E-010 0.0
 -5.7381403E-010  2.8599189E-010 0.0
 -9.0230566E-010  4.0829225E-010 0.0
 -1.2667335E-009  5.4068151E-010 0.0
 -1.6587206E-009  6.7767001E-010 0.0
 -2.0780485E-009  8.1867899E-010 0.0
 -2.5244497E-009  9.6334987E-010 0.0
 -2.9981848E-009  1.1117098E-009 0.0
 -3.4994608E-009  1.2641384E-009 0.0
 -4.0281269E-009  1.4212815E-009 0.0
 -4.5834940E-009  1.5838376E-009 0.0
 -5.1643292E-009  1.7523980E-009 0.0
 -5.7689069E-009  1.9273562E-009 0.0
 -6.3950660E-009  2.1088609E-009 0.0
 -7.0402584E-009  2.2967853E-009 0.0
 -7.7015891E-009  2.4906959E-009 0.0
 -8.3758588E-009  2.6898127E-009 0.0
 -9.0596166E-009  2.8929601E-009 0.0
 -9.7492316E-009  3.0985096E-009 0.0
 -1.0440984E-008  3.3043159E-009 0.0
 -1.1131176E-008  3.5076391E-009 0.0
 -1.1816271E-008  3.7050266E-009 0.0
 -1.2493069E-008  3.8920674E-009 0.0
 -1.3159215E-008  4.0627052E-009 0.0
 -1.3814380E-008  4.2076465E-009 0.0
 -1.4467429E-008  4.3093188E-009 0.0
 -1.5153410E-008  4.3460006E-009 0.0
 -1.5914886E-008  4.3214459E-009 0.0
 -1.6722982E-008  4.2608767E-009 0.0
 -1.7104154E-008  4.0738733E-009 0.0
 -4.0257950E-008  2.1616272E-009 0.0
 -3.9411674E-008  2.1174137E-009 0.0
 -3.8755258E-008  2.0888541E-009 0.0
 -3.8206788E-008  2.0842556E-009 0.0
 -3.7704552E-008  2.0734709E-009 0.0
 -3.7202898E-008  2.0183239E-009 0.0
 -3.6682028E-008  1.8954227E-009 0.0
 -3.6035095E-008  1.7712864E-009 0.0
 -2.7352310E-056 -2.7352310E-056 0.0
 -1.9768699E-010  1.2741512E-010 0.0
 -4.8908921E-010  2.1042816E-010 0.0
 -8.4382528E-010  3.4529548E-010 0.0
 -1.2157126E-009  4.8289172E-010 0.0
 -1.6137849E-009  6.2207908E-010 0.0
 -2.0371205E-009  7.6266612E-010 0.0
 -2.4862772E-009  9.0448708E-010 0.0
 -2.9622056E-009  1.0477067E-009 0.0
 -3.4657426E-009  1.1932337E-009 0.0
 -3.9969353E-009  1.3422514E-009 0.0
 -4.5550039E-009  1.4958546E-009 0.0
 -5.1384636E-009  1.6548852E-009 0.0
 -5.7452561E-009  1.8198868E-009 0.0
 -6.3728377E-009  1.9911030E-009 0.0
 -7.0182294E-009  2.1684775E-009 0.0
 -7.6780453E-009  2.3516359E-009 0.0
 -8.3485193E-009  2.5398482E-009 0.0
 -9.0255449E-009  2.7319745E-009 0.0
 -9.7047367E-009  2.9264032E-009 0.0
 -1.0381516E-008  3.1209959E-009 0.0
 -1.1051210E-008  3.3130558E-009 0.0
 -1.1709149E-008  3.4993382E-009 0.0
 -1.2350738E-008  3.6761200E-009 0.0
 -1.2971292E-008  3.8393030E-009 0.0
 -1.3566664E-008  3.9837923E-009 0.0
 -1.4132466E-008  4.1012917E-009 0.0
 -1.4696993E-008  4.1558935E-009 0.0
 -1.5402961E-008  4.1174356E-009 0.0
 -1.6289584E-008  4.0762626E-009 0.0
 -1.7034412E-008  4.2427639E-009 0.0
 -4.0067377E-008  1.1512875E-009 0.0
 -3.9227152E-008  1.0617688E-009 0.0
 -3.8604020E-008  1.0508068E-009 0.0
 -3.8045143E-008  1.0524492E-009 0.0
 -3.7508482E-008  1.0514677E-009 0.0
 -3.6933181E-008  1.0450983E-009 0.0
 -3.6356385E-008  1.0221407E-009 0.0
 -3.6031061E-008  1.0963239E-009 0.0
 -3.8682008E-056 -3.8682008E-056 0.0
  1.1975258E-031 -2.2333067E-056 0.0
 -4.2465654E-010  1.5622620E-010 0.0
 -7.7825740E-010  2.9736104E-010 0.0
 -1.1580241E-009  4.3357384E-010 0.0
 -1.5609235E-009  5.7079959E-010 0.0
 -1.9865892E-009  7.0848087E-010 0.0
 -2.4361705E-009  8.4451060E-010 0.0
 -2.9126027E-009  9.7948879E-010 0.0
 -3.4174661E-009  1.1152245E-009 0.0
 -3.9508471E-009  1.2535621E-009 0.0
 -4.5116759E-009  1.3959500E-009 0.0
 -5.0980790E-009  1.5433760E-009 0.0
 -5.7075935E-009  1.6964308E-009 0.0
 -6.3372641E-009  1.8553734E-009 0.0
 -6.9836723E-009  2.0201648E-009 0.0
 -7.6429349E-009  2.1904588E-009 0.0
 -8.3107026E-009  2.3655567E-009 0.0
 -8.9821784E-009  2.5443331E-009 0.0
 -9.6521704E-009  2.7251486E-009 0.0
 -1.0315184E-008  2.9057705E-009 0.0
 -1.0965541E-008  3.0833319E-009 0.0
 -1.1597518E-008  3.2543765E-009 0.0
 -1.2205415E-008  3.4150738E-009 0.0
 -1.2783651E-008  3.5618761E-009 0.0
 -1.3325203E-008  3.6932531E-009 0.0
 -1.3824028E-008  3.8118786E-009 0.0
 -1.4251047E-008  3.9355691E-009 0.0
 -1.4814655E-008  4.0342524E-009 0.0
 -1.6146079E-008  4.2759332E-009 0.0
 -3.9654665E-008  1.7806919E-011 0.0
 -3.9037380E-008 -2.0014671E-012 0.0
 -3.8433162E-008 -3.7441867E-012 0.0
 -3.7879947E-008 -1.3161629E-012 0.0
 -3.7323361E-008 -3.9014480E-012 0.0
 -3.6725738E-008 -2.4798023E-011 0.0
 -3.5904353E-008 -1.2512909E-010 0.0
  1.4666636E-031 -2.7352310E-056 0.0
 -3.4098928E-010  1.4661998E-010 0.0
 -7.0131575E-010  2.6498738E-010 0.0
 -1.0910745E-009  3.9138793E-010 0.0
 -1.5006616E-009  5.2772133E-010 0.0
 -1.9245697E-009  6.6007846E-010 0.0
 -2.3714545E-009  7.8624067E-010 0.0
 -2.8467522E-009  9.0906674E-010 0.0
 -3.3524186E-009  1.0318331E-009 0.0
 -3.8880758E-009  1.1570116E-009 0.0
 -4.4520500E-009  1.2861710E-009 0.0
 -5.0419351E-009  1.4202262E-009 0.0
 -5.6548197E-009  1.5596515E-009 0.0
 -6.2873439E-009  1.7046173E-009 0.0
 -6.9356738E-009  1.8550447E-009 0.0
 -7.5954478E-009  2.0105938E-009 0.0
 -8.2617299E-009  2.1705955E-009 0.0
 -8.9289953E-009  2.3339417E-009 0.0
 -9.5911644E-009  2.4989454E-009 0.0
 -1.0241700E-008  2.6631916E-009 0.0
 -1.0873757E-008  2.8234068E-009 0.0
 -1.1480360E-008  2.9753709E-009 0.0
 -1.2054547E-008  3.1138823E-009 0.0
 -1.2589359E-008  3.2326783E-009 0.0
 -1.3078289E-008  3.3249754E-009 0.0
 -1.3504921E-008  3.3840449E-009 0.0
 -1.3848815E-008  3.3889470E-009 0.0
 -1.3726501E-008  3.1444815E-009 0.0
 -4.0057385E-008 -4.9121328E-011 0.0
 -4.0054505E-008 -7.7199072E-010 0.0
 -3.9356357E-008 -8.8434511E-010 0.0
 -3.8786187E-008 -9.9442465E-010 0.0
 -3.8246493E-008 -1.0401223E-009 0.0
 -3.7715419E-008 -1.0435994E-009 0.0
 -3.7150418E-008 -1.0474277E-009 0.0
 -3.6509614E-008 -1.0904226E-009 0.0
 -3.5712140E-008 -1.1470330E-009 0.0
  1.4666636E-031 -2.7352310E-056 0.0
 -2.3025848E-010  1.3051191E-010 0.0
 -6.0338874E-010  2.1678045E-010 0.0
 -1.0276481E-009  3.6071691E-010 0.0
 -1.4328368E-009  4.9987986E-010 0.0
 -1.8473420E-009  6.2094689E-010 0.0
 -2.2880840E-009  7.3095960E-010 0.0
 -2.7614987E-009  8.3704006E-010 0.0
 -3.2683686E-009  9.4389350E-010 0.0
 -3.8070388E-009  1.0539766E-009 0.0
 -4.3749386E-009  1.1684951E-009 0.0
 -4.9690547E-009  1.2879651E-009 0.0
 -5.5860593E-009  1.4125529E-009 0.0
 -6.2222564E-009  1.5422386E-009 0.0
 -6.8734683E-009  1.6768631E-009 0.0
 -7.5349096E-009  1.8160939E-009 0.0
 -8.2010799E-009  1.9593259E-009 0.0
 -8.8656968E-009  2.1055234E-009 0.0
 -9.5216945E-009  2.2530108E-009 0.0
 -1.0161306E-008  2.3992221E-009 0.0
 -1.0776232E-008  2.5404313E-009 0.0
 -1.1357836E-008  2.6714810E-009 0.0
 -1.1897197E-008  2.7854081E-009 0.0
 -1.2384709E-008  2.8726244E-009 0.0
 -1.2808981E-008  2.9176601E-009 0.0
 -1.3157268E-008  2.8979850E-009 0.0
 -1.3347160E-008  2.7794433E-009 0.0
 -1.3163466E-008  2.6254503E-009 0.0
 -3.9788486E-008 -1.7683633E-009 0.0
 -3.9011350E-008 -1.9119761E-009 0.0
 -3.8501881E-008 -2.0203221E-009 0.0
 -3.8050846E-008 -2.0574695E-009 0.0
 -3.7568209E-008 -2.0534961E-009 0.0
 -3.7005458E-008 -2.0354309E-009 0.0
 -3.6348139E-008 -2.0257621E-009 0.0
 -3.5703912E-008 -1.9835207E-009 0.0
 -3.8682008E-056 -3.8682008E-056 0.0
 -2.2333067E-056 -2.2333067E-056 0.0
 -5.5969880E-010  1.8586683E-010 0.0
 -9.7356225E-010  3.7050688E-010 0.0
 -1.3504032E-009  4.9531186E-010 0.0
 -1.7471059E-009  5.9094514E-010 0.0
 -2.1808012E-009  6.7641645E-010 0.0
 -2.6538497E-009  7.6197095E-010 0.0
 -3.1636271E-009  8.5123654E-010 0.0
 -3.7067606E-009  9.4550143E-010 0.0
 -4.2796860E-009  1.0449607E-009 0.0
 -4.8788866E-009  1.1494150E-009 0.0
 -5.5007617E-009  1.2585732E-009 0.0
 -6.1414228E-009  1.3721682E-009 0.0
 -6.7964728E-009  1.4899561E-009 0.0
 -7.4608018E-009  1.6116472E-009 0.0
 -8.1284065E-009  1.7367755E-009 0.0
 -8.7922522E-009  1.8644987E-009 0.0
 -9.4442050E-009  1.9933208E-009 0.0
 -1.0075073E-008  2.1207348E-009 0.0
 -1.0674780E-008  2.2428140E-009 0.0
 -1.1232627E-008  2.3538026E-009 0.0
 -1.1737379E-008  2.4458163E-009 0.0
 -1.2176586E-008  2.5084884E-009 0.0
 -1.2532972E-008  2.5282132E-009 0.0
 -1.2785950E-008  2.4772929E-009 0.0
 -1.2933526E-008  2.3494692E-009 0.0
 -1.2895543E-008  2.2270944E-009 0.0
 -3.9269369E-008 -2.7809837E-009 0.0
 -3.8605694E-008 -2.9941014E-009 0.0
 -3.8238924E-008 -3.0337086E-009 0.0
 -3.7874798E-008 -3.0331748E-009 0.0
 -3.7451658E-008 -3.0089425E-009 0.0
 -3.6915834E-008 -2.9842247E-009 0.0
 -3.6182460E-008 -3.0036332E-009 0.0
  1.4666636E-031 -2.7352310E-056 0.0
 -5.7608192E-010  3.1236761E-010 0.0
 -9.0184258E-010  4.3985688E-010 0.0
 -1.2333084E-009  5.0754254E-010 0.0
 -1.6133258E-009  5.5883627E-010 0.0
 -2.0456299E-009  6.1580676E-010 0.0
 -2.5222606E-009  6.8054209E-010 0.0
 -3.0378460E-009  7.5317959E-010 0.0
 -3.5872934E-009  8.3272360E-010 0.0
 -4.1663937E-009  9.1797801E-010 0.0
 -4.7714234E-009  1.0078926E-009 0.0
 -5.3987660E-009  1.1017114E-009 0.0
 -6.0445389E-009  1.1989433E-009 0.0
 -6.7042941E-009  1.2992986E-009 0.0
 -7.3727405E-009  1.4025920E-009 0.0
 -8.0434892E-009  1.5085980E-009 0.0
 -8.7088240E-009  1.6168370E-009 0.0
 -9.3595314E-009  1.7262577E-009 0.0
 -9.9848507E-009  1.8347922E-009 0.0
 -1.0572643E-008  1.9388005E-009 0.0
 -1.1109803E-008  2.0325509E-009 0.0
 -1.1582901E-008  2.1079800E-009 0.0
 -1.1978257E-008  2.1557508E-009 0.0
 -1.2281321E-008  2.1691241E-009 0.0
 -1.2461781E-008  2.1558319E-009 0.0
 -1.2587203E-008  2.1184187E-009 0.0
 -1.2902857E-008  2.1842053E-009 0.0
 -3.8367524E-008 -3.8775052E-009 0.0
 -3.8246934E-008 -3.9243545E-009 0.0
 -3.7994466E-008 -3.9261373E-009 0.0
 -3.7732666E-008 -3.9065879E-009 0.0
 -3.7382161E-008 -3.8686085E-009 0.0
 -3.6866335E-008 -3.8312044E-009 0.0
 -3.6158565E-008 -3.8116477E-009 0.0
 -2.4503147E-010  5.3903332E-010 0.0
 -5.3301224E-010  5.3394454E-010 0.0
 -7.6147217E-010  5.1352650E-010 0.0
 -1.0594497E-009  4.8890201E-010 0.0
 -1.4442210E-009  5.0482971E-010 0.0
 -1.8826127E-009  5.4007934E-010 0.0
 -2.3681937E-009  5.8957079E-010 0.0
 -2.8925890E-009  6.4976743E-010 0.0
 -3.4499520E-009  7.1764893E-010 0.0
 -4.0359821E-009  7.9074420E-010 0.0
 -4.6472229E-009  8.6742869E-010 0.0
 -5.2803081E-009  9.4664329E-010 0.0
 -5.9315767E-009  1.0277732E-009 0.0
 -6.5967145E-009  1.1105510E-009 0.0
 -7.2704278E-009  1.1949552E-009 0.0
 -7.9461210E-009  1.2810883E-009 0.0
 -8.6155665E-009  1.3689974E-009 0.0
 -9.2685865E-009  1.4583774E-009 0.0
 -9.8928346E-009  1.5480888E-009 0.0
 -1.0473852E-008  1.6354499E-009 0.0
 -1.0995721E-008  1.7154108E-009 0.0
 -1.1442277E-008  1.7801363E-009 0.0
 -1.1799670E-008  1.8191327E-009 0.0
 -1.2057801E-008  1.8226845E-009 0.0
 -1.2214137E-008  1.7908157E-009 0.0
 -1.2116340E-008  1.6801331E-009 0.0
 -3.7890136E-008 -4.0077261E-009 0.0
 -3.7883046E-008 -4.1601246E-009 0.0
 -3.7789876E-008 -4.3719604E-009 0.0
 -3.7826072E-008 -4.5703731E-009 0.0
 -3.7765456E-008 -4.6299893E-009 0.0
 -3.7617641E-008 -4.6182047E-009 0.0
 -3.7362029E-008 -4.5872755E-009 0.0
 -3.6901822E-008 -4.5502095E-009 0.0
 -3.6150279E-008 -4.5505080E-009 0.0
 -3.2845013E-010  6.1597687E-010 0.0
 -4.2200893E-010  5.5066432E-010 0.0
 -5.1440684E-010  4.0751538E-010 0.0
 -8.5746850E-010  4.0053110E-010 0.0
 -1.2464646E-009  4.1554189E-010 0.0
 -1.6978236E-009  4.4522439E-010 0.0
 -2.1961971E-009  4.8913530E-010 0.0
 -2.7313084E-009  5.4358949E-010 0.0
 -3.2970332E-009  6.0389800E-010 0.0
 -3.8900301E-009  6.6756697E-010 0.0
 -4.5073080E-009  7.3289252E-010 0.0
 -5.1459738E-009  7.9875596E-010 0.0
 -5.8027684E-009  8.6454964E-010 0.0
 -6.4736834E-009  9.3008487E-010 0.0
 -7.1536122E-009  9.9552029E-010 0.0
 -7.8359860E-009  1.0612999E-009 0.0
 -8.5123519E-009  1.1280702E-009 0.0
 -9.1718733E-009  1.1965003E-009 0.0
 -9.8008236E-009  1.2668688E-009 0.0
 -1.0382327E-008  1.3382690E-009 0.0
 -1.0896831E-008  1.4073470E-009 0.0
 -1.1324516E-008  1.4669004E-009 0.0
 -1.1647990E-008  1.5061630E-009 0.0
 -1.1860351E-008  1.5081285E-009 0.0
 -1.1964992E-008  1.4505126E-009 0.0
 -1.1908789E-008  1.3806135E-009 0.0
 -3.7325501E-008 -4.7771559E-009 0.0
 -3.7206774E-008 -5.0518959E-009 0.0
 -3.7435680E-008 -5.1318947E-009 0.0
 -3.7552590E-008 -5.1517404E-009 0.0
 -3.7538658E-008 -5.1269427E-009 0.0
 -3.7385216E-008 -5.0860739E-009 0.0
 -3.7096285E-008 -5.0162786E-009 0.0
 -2.7352310E-056  1.4666636E-031 0.0
 -3.5914827E-010  1.9085932E-010 0.0
 -6.4015119E-010  2.7198978E-010 0.0
 -1.0312477E-009  3.0104581E-010 0.0
 -1.4995678E-009  3.3626580E-010 0.0
 -2.0131819E-009  3.8638415E-010 0.0
 -2.5577351E-009  4.4052154E-010 0.0
 -3.1312102E-009  4.9688327E-010 0.0
 -3.7304212E-009  5.5384610E-010 0.0
 -4.3529882E-009  6.0988978E-010 0.0
 -4.9966275E-009  6.6402995E-010 0.0
 -5.6586073E-009  7.1574888E-010 0.0
 -6.3353582E-009  7.6494598E-010 0.0
 -7.0221268E-009  8.1189755E-010 0.0
 -7.7126223E-009  8.5726880E-010 0.0
 -8.3985536E-009  9.0218429E-010 0.0
 -9.0689603E-009  9.4827649E-010 0.0
 -9.7093111E-009  9.9754061E-010 0.0
 -1.0300588E-008  1.0516453E-009 0.0
 -1.0819054E-008  1.1103898E-009 0.0
 -1.1237992E-008  1.1689234E-009 0.0
 -1.1536771E-008  1.2153629E-009 0.0
 -1.1701609E-008  1.2411554E-009 0.0
 -1.1767924E-008  1.2444848E-009 0.0
 -1.1903229E-008  1.2916819E-009 0.0
 -3.6182065E-008 -5.5425577E-009 0.0
 -3.6766676E-008 -5.5624317E-009 0.0
 -3.7133321E-008 -5.5180606E-009 0.0
 -3.7401299E-008 -5.4736128E-009 0.0
 -3.7516207E-008 -5.4096922E-009 0.0
 -3.7469921E-008 -5.3318735E-009 0.0
 -3.7335580E-008 -5.2464813E-009 0.0
 -2.7352310E-056 -2.7352310E-056 0.0
 -1.9564930E-010  1.3702726E-010 0.0
 -3.8291620E-010  1.6069216E-010 0.0
 -8.0043168E-010  1.7196685E-010 0.0
 -1.3016182E-009  2.3619788E-010 0.0
 -1.8217740E-009  2.9321255E-010 0.0
 -2.3748044E-009  3.4835764E-010 0.0
 -2.9548406E-009  4.0313853E-010 0.0
 -3.5589925E-009  4.5556429E-010 0.0
 -4.1856985E-009  5.0438620E-010 0.0
 -4.8333616E-009  5.4873171E-010 0.0
 -5.4998942E-009  5.8818163E-010 0.0
 -6.1822383E-009  6.2269856E-010 0.0
 -6.8760762E-009  6.5252684E-010 0.0
 -7.5755943E-009  6.7826839E-010 0.0
 -8.2730796E-009  7.0113002E-010 0.0
 -8.9581691E-009  7.2328852E-010 0.0
 -9.6165921E-009  7.4821231E-010 0.0
 -1.0228254E-008  7.8059312E-010 0.0
 -1.0765352E-008  8.2477004E-010 0.0
 -1.1192295E-008  8.8131319E-010 0.0
 -1.1470811E-008  9.3850697E-010 0.0
 -1.1600080E-008  9.6382156E-010 0.0
 -1.1540878E-008  9.2068927E-010 0.0
 -3.4796993E-008 -5.7622057E-009 0.0
 -3.4736924E-008 -5.2276152E-009 0.0
 -3.5461019E-008 -5.5297494E-009 0.0
 -3.6337480E-008 -5.6180214E-009 0.0
 -3.6906893E-008 -5.6042240E-009 0.0
 -3.7312198E-008 -5.5489623E-009 0.0
 -3.7566416E-008 -5.4734896E-009 0.0
 -3.7620068E-008 -5.3630883E-009 0.0
 -3.7532517E-008 -5.2624286E-009 0.0
 -3.8682008E-056 -3.8682008E-056 0.0
 -2.7352310E-056 -2.7352310E-056 0.0
 -2.2333067E-056 -2.2333067E-056 0.0
 -6.1028542E-010  1.0192323E-010 0.0
 -1.0909037E-009  1.6624393E-010 0.0
 -1.6222795E-009  2.1791076E-010 0.0
 -2.1843827E-009  2.7478920E-010 0.0
 -2.7696144E-009  3.2882484E-010 0.0
 -3.3774553E-009  3.7846179E-010 0.0
 -4.0069228E-009  4.2215177E-010 0.0
 -4.6574792E-009  4.5891577E-010 0.0
 -5.3278466E-009  4.8855551E-010 0.0
 -6.0154121E-009  5.1107970E-010 0.0
 -6.7162188E-009  5.2649522E-010 0.0
 -7.4249789E-009  5.3491467E-010 0.0
 -8.1348711E-009  5.3696776E-010 0.0
 -8.8368820E-009  5.3446533E-010 0.0
 -9.5183718E-009  5.3128843E-010 0.0
 -1.0160503E-008  5.3427080E-010 0.0
 -1.0733299E-008  5.5346342E-010 0.0
 -1.1191464E-008  5.9700490E-010 0.0
 -1.1473810E-008  6.6498868E-010 0.0
 -1.1521051E-008  7.2364034E-010 0.0
 -1.1509223E-008  7.7434725E-010 0.0
 -3.3717521E-008 -5.6904113E-009 0.0
 -3.5016004E-008 -5.5237162E-009 0.0
 -3.5981787E-008 -5.4306216E-009 0.0
 -3.6723378E-008 -5.3866479E-009 0.0
 -3.7261112E-008 -5.3422379E-009 0.0
 -3.7655699E-008 -5.3088748E-009 0.0
 -3.7842437E-008 -5.2761484E-009 0.0
 -3.7540137E-008 -5.3341492E-009 0.0
 -2.7352310E-056 -2.7352310E-056 0.0
 -3.5934646E-010  1.0324290E-010 0.0
 -8.6096418E-010  1.0763496E-010 0.0
 -1.4182949E-009  1.6764796E-010 0.0
 -1.9865298E-009  2.2422982E-010 0.0
 -2.5773922E-009  2.7836197E-010 0.0
 -3.1875760E-009  3.2749749E-010 0.0
 -3.8180831E-009  3.6809808E-010 0.0
 -4.4704902E-009  3.9976411E-010 0.0
 -5.1442524E-009  4.2282998E-010 0.0
 -5.8369051E-009  4.3741421E-010 0.0
 -6.5445221E-009  4.4304310E-010 0.0
 -7.2621707E-009  4.3885933E-010 0.0
 -7.9839984E-009  4.2414824E-010 0.0
 -8.7028219E-009  3.9915093E-010 0.0
 -9.4089590E-009  3.6627656E-010 0.0
 -1.0087393E-008  3.3197787E-010 0.0
 -1.0712473E-008  3.0910094E-010 0.0
 -1.1231018E-008  3.1930774E-010 0.0
 -1.1554511E-008  3.6685604E-010 0.0
 -1.1531997E-008  4.1747166E-010 0.0
 -3.1497541E-008 -5.9740775E-009 0.0
 -3.1275160E-008 -5.1423442E-009 0.0
 -3.3198850E-008 -5.0166162E-009 0.0
 -3.4656694E-008 -4.9810462E-009 0.0
 -3.5743786E-008 -4.9308203E-009 0.0
 -3.6594447E-008 -4.8803198E-009 0.0
 -3.7250258E-008 -4.8344013E-009 0.0
 -3.7748763E-008 -4.7886651E-009 0.0
 -3.8273866E-008 -4.6797119E-009 0.0
 -3.8682008E-056  5.8094571E-032 0.0
 -2.2333067E-056 -2.2333067E-056 0.0
 -6.5645256E-010  8.6656319E-011 0.0
 -1.2007016E-009  1.4195969E-010 0.0
 -1.7843124E-009  1.9544827E-010 0.0
 -2.3816635E-009  2.5581061E-010 0.0
 -2.9907314E-009  3.0636857E-010 0.0
 -3.6203271E-009  3.4556735E-010 0.0
 -4.2740505E-009  3.7470748E-010 0.0
 -4.9516750E-009  3.9539660E-010 0.0
 -5.6500680E-009  4.0781091E-010 0.0
 -6.3647721E-009  4.1070041E-010 0.0
 -7.0908342E-009  4.0183409E-010 0.0
 -7.8231619E-009  3.7857470E-010 0.0
 -8.5564356E-009  3.3860615E-010 0.0
 -9.2843878E-009  2.8099329E-010 0.0
 -9.9981414E-009  2.0803874E-010 0.0
 -1.0680608E-008  1.2931215E-010 0.0
 -1.1297922E-008  6.9920916E-011 0.0
 -1.1722135E-008  9.4483837E-011 0.0
 -1.1753913E-008  1.8807634E-010 0.0
 -2.9102762E-008 -5.3983172E-009 0.0
 -2.8870331E-008 -4.3468535E-009 0.0
 -3.0971307E-008 -4.1939412E-009 0.0
 -3.2818537E-008 -4.1328687E-009 0.0
 -3.4340285E-008 -4.1270755E-009 0.0
 -3.5554477E-008 -4.1280632E-009 0.0
 -3.6520321E-008 -4.1102476E-009 0.0
 -3.7285787E-008 -4.0735653E-009 0.0
 -3.7903252E-008 -4.0045100E-009 0.0
 -3.8531281E-008 -3.9211550E-009 0.0
 -2.7352310E-056 -2.7352310E-056 0.0
 -3.9220277E-010  1.0346077E-010 0.0
 -9.7400297E-010  1.1277709E-010 0.0
 -1.5918160E-009  1.9544878E-010 0.0
 -2.1844036E-009  2.6489363E-010 0.0
 -2.7872046E-009  3.1718744E-010 0.0
 -3.4138389E-009  3.5496543E-010 0.0
 -4.0700757E-009  3.8437286E-010 0.0
 -4.7537311E-009  4.0824339E-010 0.0
 -5.4599260E-009  4.2630059E-010 0.0
 -6.1830252E-009  4.3616226E-010 0.0
 -6.9176250E-009  4.3403265E-010 0.0
 -7.6590379E-009  4.1526894E-010 0.0
 -8.4034157E-009  3.7487129E-010 0.0
 -9.1475763E-009  3.0800512E-010 0.0
 -9.8881655E-009  2.1079026E-010 0.0
 -1.0620966E-008  8.2310848E-011 0.0
 -1.1330573E-008 -6.8400682E-011 0.0
 -1.2005056E-008 -1.8750968E-010 0.0
 -1.2223950E-008  4.8462588E-012 0.0
 -2.6543185E-008 -4.5782070E-009 0.0
 -2.6330569E-008 -3.2496440E-009 0.0
 -2.8610338E-008 -3.1097947E-009 0.0
 -3.0684275E-008 -3.0431722E-009 0.0
 -3.2519382E-008 -3.0343606E-009 0.0
 -3.4091651E-008 -3.0630444E-009 0.0
 -3.5404153E-008 -3.0992000E-009 0.0
 -3.6484184E-008 -3.1240141E-009 0.0
 -3.7355101E-008 -3.1275765E-009 0.0
 -3.8051594E-008 -3.1329292E-009 0.0
 -3.8567311E-008 -3.2050958E-009 0.0
 -3.8682008E-056 -3.8682008E-056 0.0
 -2.2333067E-056 -2.2333067E-056 0.0
 -8.1162759E-010  1.2652493E-010 0.0
 -1.4103127E-009  2.3337259E-010 0.0
 -1.9856583E-009  3.1054998E-010 0.0
 -2.5726607E-009  3.5662937E-010 0.0
 -3.1982089E-009  3.9176196E-010 0.0
 -3.8612627E-009  4.2575415E-010 0.0
 -4.5554925E-009  4.6046799E-010 0.0
 -5.2733731E-009  4.9424135E-010 0.0
 -6.0076664E-009  5.2322694E-010 0.0
 -6.7522485E-009  5.4220880E-010 0.0
 -7.5025709E-009  5.4504978E-010 0.0
 -8.2559208E-009  5.2505452E-010 0.0
 -9.0114321E-009  4.7514208E-010 0.0
 -9.7702894E-009  3.8772710E-010 0.0
 -1.0535410E-008  2.5391529E-010 0.0
 -1.1318265E-008  6.2185898E-011 0.0
 -1.2121540E-008 -2.2094276E-010 0.0
 -1.3166005E-008 -5.9823071E-010 0.0
 -2.3839196E-008 -3.4573712E-009 0.0
 -2.3651187E-008 -1.8553948E-009 0.0
 -2.6089417E-008 -1.7406725E-009 0.0
 -2.8351802E-008 -1.6999493E-009 0.0
 -3.0420667E-008 -1.7037799E-009 0.0
 -3.2275547E-008 -1.7419761E-009 0.0
 -3.3898841E-008 -1.8027728E-009 0.0
 -3.5295775E-008 -1.8741420E-009 0.0
 -3.6474234E-008 -1.9405471E-009 0.0
 -3.7441595E-008 -2.0139283E-009 0.0
 -3.8139466E-008 -2.1144563E-009 0.0
 -2.7352310E-056 -2.7352310E-056 0.0
 -6.7717476E-010  1.9061202E-010 0.0
 -1.2507891E-009  3.3240505E-010 0.0
 -1.7651030E-009  3.8193672E-010 0.0
 -2.3412920E-009  4.0967654E-010 0.0
 -2.9743655E-009  4.4564859E-010 0.0
 -3.6522401E-009  4.9247385E-010 0.0
 -4.3639027E-009  5.4870654E-010 0.0
 -5.0990621E-009  6.1034734E-010 0.0
 -5.8489351E-009  6.7225102E-010 0.0
 -6.6066008E-009  7.2823288E-010 0.0
 -7.3676846E-009  7.7152842E-010 0.0
 -8.1307203E-009  7.9533946E-010 0.0
 -8.8973190E-009  7.9332916E-010 0.0
 -9.6724523E-009  7.5989547E-010 0.0
 -1.0467031E-008  6.9091112E-010 0.0
 -1.1301862E-008  5.8548350E-010 0.0
 -1.2245764E-008  4.7274971E-010 0.0
 -1.3563324E-008  4.1567237E-010 0.0
 -1.5670542E-008  3.5761696E-010 0.0
 -1.5854564E-008 -1.5324685E-009 0.0
 -1.8122687E-008  1.4554942E-010 0.0
 -1.8209449E-008 -1.9919196E-009 0.0
 -2.0715199E-008  7.0598997E-011 0.0
 -2.0727924E-008 -2.1378741E-009 0.0
 -2.3379993E-008 -1.6427070E-011 0.0
 -2.5825533E-008 -8.7071757E-011 0.0
 -2.8091343E-008 -1.4201211E-010 0.0
 -3.0187113E-008 -2.0293257E-010 0.0
 -3.2080879E-008 -2.7115009E-010 0.0
 -3.3755800E-008 -3.5530694E-010 0.0
 -3.5225292E-008 -4.4889164E-010 0.0
 -3.6504405E-008 -5.5077549E-010 0.0
 -3.7539517E-008 -6.4195831E-010 0.0
 -3.8682008E-056 -3.8682008E-056 0.0
 -6.8965248E-010  4.2709304E-010 0.0
 -1.0246566E-009  4.5178025E-010 0.0
 -1.5056503E-009  4.2908986E-010 0.0
 -2.0938807E-009  4.5209275E-010 0.0
 -2.7478660E-009  5.0313144E-010 0.0
 -3.4507877E-009  5.7752006E-010 0.0
 -4.1876851E-009  6.6862646E-010 0.0
 -4.9468967E-009  7.7153501E-010 0.0
 -5.7179636E-009  8.8046982E-010 0.0
 -6.4931886E-009  9.8887338E-010 0.0
 -7.2686309E-009  1.0900550E-009 0.0
 -8.0447929E-009  1.1783350E-009 0.0
 -8.8268021E-009  1.2502873E-009 0.0
 -9.6250467E-009  1.3060541E-009 0.0
 -1.0458281E-008  1.3510773E-009 0.0
 -1.1366853E-008  1.4022481E-009 0.0
 -1.2448471E-008  1.4915107E-009 0.0
 -1.3884968E-008  1.6298303E-009 0.0
 -1.5797989E-008  1.7407699E-009 0.0
 -1.8086840E-008  1.7902545E-009 0.0
 -2.0576750E-008  1.7633183E-009 0.0
 -2.3106019E-008  1.7015933E-009 0.0
 -2.5547542E-008  1.6116744E-009 0.0
 -2.7846020E-008  1.5247250E-009 0.0
 -2.9991388E-008  1.4408406E-009 0.0
 -3.1948758E-008  1.3606881E-009 0.0
 -3.3658626E-008  1.2786753E-009 0.0
 -3.5203291E-008  1.1675972E-009 0.0
 -3.6589807E-008  1.1015164E-009 0.0
 -5.1430995E-010  5.3141504E-010 0.0
 -7.0313314E-010  3.8786297E-010 0.0
 -1.2271490E-009  4.0644776E-010 0.0
 -1.8427635E-009  4.6226987E-010 0.0
 -2.5316222E-009  5.5788430E-010 0.0
 -3.2665716E-009  6.7696938E-010 0.0
 -4.0366218E-009  8.1707302E-010 0.0
 -4.8271156E-009  9.7436283E-010 0.0
 -5.6256125E-009  1.1432577E-009 0.0
 -6.4233945E-009  1.3170784E-009 0.0
 -7.2171848E-009  1.4894145E-009 0.0
 -8.0104080E-009  1.6557387E-009 0.0
 -8.8134095E-009  1.8158202E-009 0.0
 -9.6429524E-009  1.9752320E-009 0.0
 -1.0525155E-008  2.1457605E-009 0.0
 -1.1506770E-008  2.3434257E-009 0.0
 -1.2670826E-008  2.5769405E-009 0.0
 -1.4125694E-008  2.8258592E-009 0.0
 -1.5946110E-008  3.0507368E-009 0.0
 -1.8099675E-008  3.2143000E-009 0.0
 -2.0461766E-008  3.3127224E-009 0.0
 -2.2903002E-008  3.3409179E-009 0.0
 -2.5324592E-008  3.3328996E-009 0.0
 -2.7648785E-008  3.2986505E-009 0.0
 -2.9849822E-008  3.2489282E-009 0.0
 -3.1888567E-008  3.1756520E-009 0.0
 -3.3584928E-008  3.0080727E-009 0.0
 -3.5259676E-008  2.9805056E-009 0.0
 -2.7352310E-056 -2.7352310E-056 0.0
 -4.3089922E-010  2.1426276E-010 0.0
 -9.4720791E-010  3.0659536E-010 0.0
 -1.6192635E-009  4.5815407E-010 0.0
 -2.3353782E-009  6.1556571E-010 0.0
 -3.1091356E-009  7.9227403E-010 0.0
 -3.9202074E-009  9.9347640E-010 0.0
 -4.7494320E-009  1.2169249E-009 0.0
 -5.5813357E-009  1.4560730E-009 0.0
 -6.4061955E-009  1.7043382E-009 0.0
 -7.2209656E-009  1.9553751E-009 0.0
 -8.0324255E-009  2.2047492E-009 0.0
 -8.8584749E-009  2.4534796E-009 0.0
 -9.7235201E-009  2.7117343E-009 0.0
 -1.0654889E-008  2.9937434E-009 0.0
 -1.1691516E-008  3.3096200E-009 0.0
 -1.2889939E-008  3.6584570E-009 0.0
 -1.4319266E-008  4.0124543E-009 0.0
 -1.6059939E-008  4.3236434E-009 0.0
 -1.8139578E-008  4.5972737E-009 0.0
 -2.0424844E-008  4.8375412E-009 0.0
 -2.2773726E-008  5.0171126E-009 0.0
 -2.5207100E-008  5.1159423E-009 0.0
 -2.7544156E-008  5.2209430E-009 0.0
 -2.9807246E-008  5.2878001E-009 0.0
 -3.1895202E-008  5.2992336E-009 0.0
 -3.8682008E-056  5.8094571E-032 0.0
 -2.2333067E-056 -2.2333067E-056 0.0
 -7.6371555E-010  2.5575791E-010 0.0
 -1.4140474E-009  4.7506846E-010 0.0
 -2.1627195E-009  6.8745181E-010 0.0
 -2.9852928E-009  9.2634502E-010 0.0
 -3.8484259E-009  1.2014033E-009 0.0
 -4.7222328E-009  1.5013860E-009 0.0
 -5.5919340E-009  1.8170485E-009 0.0
 -6.4474398E-009  2.1429496E-009 0.0
 -7.2835366E-009  2.4742613E-009 0.0
 -8.1087228E-009  2.8040192E-009 0.0
 -8.9517317E-009  3.1315511E-009 0.0
 -9.8513803E-009  3.4691188E-009 0.0
 -1.0829872E-008  3.8401340E-009 0.0
 -1.1901153E-008  4.2487001E-009 0.0
 -1.3113282E-008  4.6841383E-009 0.0
 -1.4507825E-008  5.1570814E-009 0.0
 -1.6122799E-008  5.6074896E-009 0.0
 -1.8209090E-008  5.9807022E-009 0.0
 -2.0519181E-008  6.4089579E-009 0.0
 -2.2715558E-008  6.7612735E-009 0.0
 -2.5257804E-008  7.1678517E-009 0.0
 -2.7466951E-008  7.2207719E-009 0.0
 -2.7352310E-056  1.0590967E-031 0.0
 -5.6112785E-010  2.9553249E-010 0.0
 -1.2086739E-009  5.2016897E-010 0.0
 -2.0046895E-009  7.6372726E-010 0.0
 -2.9090743E-009  1.0838712E-009 0.0
 -3.8335774E-009  1.4512288E-009 0.0
 -4.7523072E-009  1.8388328E-009 0.0
 -5.6590598E-009  2.2309090E-009 0.0
 -6.5478908E-009  2.6276756E-009 0.0
 -7.4067528E-009  3.0323764E-009 0.0
 -8.2334343E-009  3.4374538E-009 0.0
 -9.0736696E-009  3.8262130E-009 0.0
 -1.0002095E-008  4.2195606E-009 0.0
 -1.1035702E-008  4.6456961E-009 0.0
 -1.2132444E-008  5.1274588E-009 0.0
 -1.3305380E-008  5.6164188E-009 0.0
 -1.4732764E-008  6.1071215E-009 0.0
 -1.6183805E-008  6.7287123E-009 0.0
 -1.8442633E-008  7.7236082E-009 0.0
 -2.0666972E-008  8.2111613E-009 0.0
 -2.2596867E-008  8.2518538E-009 0.0
 -2.7352310E-056 -2.7352310E-056 0.0
 -3.4526172E-010  3.2490911E-010 0.0
 -9.4190637E-010  5.0209601E-010 0.0
 -1.8825945E-009  8.3572583E-010 0.0
 -2.9101545E-009  1.2708932E-009 0.0
 -3.8976859E-009  1.7738270E-009 0.0
 -4.8392013E-009  2.2555215E-009 0.0
 -5.7771980E-009  2.7121180E-009 0.0
 -6.6994993E-009  3.1640286E-009 0.0
 -7.5839040E-009  3.6127861E-009 0.0
 -8.4106562E-009  4.0722308E-009 0.0
 -9.1968082E-009  4.5299130E-009 0.0
 -1.0150193E-008  4.9505676E-009 0.0
 -1.1255417E-008  5.4252665E-009 0.0
 -1.2381689E-008  5.8998322E-009 0.0
 -1.3420544E-008  6.3778693E-009 0.0
 -1.4990067E-008  7.0491703E-009 0.0
 -1.6020292E-008  7.0756079E-009 0.0
 -3.8682008E-056 -3.8682008E-056 0.0
  1.1975258E-031  1.1975258E-031 0.0
 -6.3810902E-010  4.7955261E-010 0.0
 -1.8217142E-009  8.4306967E-010 0.0
 -3.0985284E-009  1.5710425E-009 0.0
 -4.0336226E-009  2.2308565E-009 0.0
 -4.9727579E-009  2.7674493E-009 0.0
 -5.9473227E-009  3.3070691E-009 0.0
 -6.8781179E-009  3.7880389E-009 0.0
 -7.7789416E-009  4.2177336E-009 0.0
 -8.6201286E-009  4.6313671E-009 0.0
 -9.3139684E-009  5.0620305E-009 0.0
 -1.0376132E-008  5.8101788E-009 0.0
 -1.1448763E-008  6.3480862E-009 0.0
 -1.2563231E-008  6.6807912E-009 0.0
 -1.3329845E-008  6.6686197E-009 0.0
  5.8094571E-032  2.0741756E-031 0.0
 -2.2333067E-056 -2.2333067E-056 0.0
 -2.2100459E-009  1.3230924E-009 0.0
 -3.4056016E-009  2.1103609E-009 0.0
 -4.2063657E-009  2.6662900E-009 0.0
 -5.2153798E-009  3.4999313E-009 0.0
 -6.1495562E-009  4.1005562E-009 0.0
 -7.0579422E-009  4.5737756E-009 0.0
 -7.9346622E-009  4.9459204E-009 0.0
 -8.7658248E-009  5.1781723E-009 0.0
 -9.2558130E-009  5.1464367E-009 0.0
 -1.1172877E-010  3.2902443E-009 0.0
 -2.4304538E-009  2.9377862E-009 0.0
 -3.5929386E-009  2.9084817E-009 0.0
 -4.1769359E-009  2.8219893E-009 0.0
SCALARS Stress_xx double
LOOKUP_TABLE default
  2.5671788E+004
  7.1544800E+004
 -1.4471683E+004
 -3.5939577E+004
 -1.5347108E+004
 -5.1006243E+003
 -1.5986597E+004
 -5.0090555E+003
 -1.5567990E+004
 -3.6018552E+004
  6.9641447E+004
  2.8111454E+004
 -2.2094265E+003
  6.0039757E+003
  2.8896839E+003
  1.2184289E+003
  2.4054100E+003
 -9.1345424E+002
  1.5630258E+003
 -1.0495749E+002
  1.2256561E+003
  3.7245712E+002
  9.2933938E+002
  1.0137424E+003
  6.9987520E+002
  1.6550473E+003
  4.7386667E+002
  2.4147439E+003
  5.3097328E+002
  3.1134806E+003
  5.0113325E+002
  4.7419469E+003
  3.5551939E+003
  6.0068582E+003
  2.1651058E+003
  1.8323965E+004
  1.5340379E+004
 -2.4303303E+004
 -3.0771047E+004
 -3.2605600E+004
 -2.9310819E+004
  7.3868518E+003
 -6.6761387E+003
  1.2024319E+004
 -4.5988551E+003
 -3.3455489E+004
  8.2059177E+004
  4.4171696E+004
  1.4478806E+004
  7.6993644E+003
  5.4829035E+003
  4.3196135E+003
  3.7837347E+003
  3.4592688E+003
  3.2410265E+003
  3.1480136E+003
  3.1996088E+003
  4.1662438E+003
  5.4075418E+003
  1.3718966E+004
  2.7288853E+003
 -2.1971215E+004
 -3.7874885E+004
 -4.1803990E+004
 -3.3185092E+004
 -1.5332470E+004
 -9.4075108E+003
 -1.4154414E+004
  2.6715033E+004
  9.0601786E+003
  3.0501369E+003
  9.7595662E+004
  2.5765842E+004
  1.0440613E+003
  6.0157845E+003
  1.6997423E+004
  1.2647538E+004
  1.0333862E+004
  8.6305733E+003
  7.5848918E+003
  6.7756237E+003
  6.0976627E+003
  5.4661033E+003
  4.9439011E+003
  4.3439925E+003
  4.2011805E+003
 -1.4162016E+003
 -1.1725921E+004
 -2.7527209E+004
 -4.2067674E+004
 -4.8433553E+004
 -4.6093183E+004
 -4.0298766E+004
 -3.4359588E+004
 -1.8935561E+004
  4.8246091E+002
  2.8153239E+004
  4.6172806E+004
  1.6532114E+005
 -1.8581491E+004
  3.8515013E+004
  2.0311800E+004
  1.8500520E+004
  1.5521761E+004
  1.3791217E+004
  1.2217686E+004
  1.0876252E+004
  9.5998459E+003
  8.2538066E+003
  6.5653401E+003
  4.2173563E+003
 -2.3288200E+002
 -7.4629070E+003
 -1.9642176E+004
 -3.4659686E+004
 -4.8202378E+004
 -5.7043217E+004
 -6.0038667E+004
 -5.7845555E+004
 -5.1493107E+004
 -4.0554498E+004
 -2.4294911E+004
  4.7224774E+003
  5.8638747E+004
  3.4712040E+005
  4.5447778E+004
  2.6817596E+004
  2.3790001E+004
  2.1647899E+004
  1.9490561E+004
  1.7321118E+004
  1.5281643E+004
  1.3294089E+004
  1.1072330E+004
  8.1510172E+003
  3.7657594E+003
 -2.8877503E+003
 -1.2914376E+004
 -2.6060026E+004
 -4.1124805E+004
 -5.5635333E+004
 -6.6900938E+004
 -7.3305585E+004
 -7.4333946E+004
 -6.9699128E+004
 -5.8683559E+004
 -4.0449711E+004
 -9.5963646E+003
  4.0906333E+004
  1.2818177E+005
  2.1035664E+004
 -5.0115587E+004
  1.8056726E+005
  9.3195096E+004
 -7.3524692E+003
  1.3169273E+004
  2.6935305E+004
  3.2051938E+004
  3.0473127E+004
  2.8414001E+004
  2.5494312E+004
  2.2463048E+004
  1.9673195E+004
  1.7042644E+004
  1.4117062E+004
  1.0204478E+004
  4.4987007E+003
 -3.8648413E+003
 -1.5373258E+004
 -2.9988251E+004
 -4.6533381E+004
 -6.2950682E+004
 -7.6868182E+004
 -8.6178905E+004
 -8.9338179E+004
 -8.5363967E+004
 -7.3381231E+004
 -5.1796775E+004
 -1.6844450E+004
  3.7182932E+004
  8.3118116E+004
  7.3987855E+004
  8.2267920E+004
  2.0516228E+004
 -2.2622964E+004
  1.3918531E+005
  6.7904053E+004
  2.3436295E+004
  3.0940340E+004
  3.7564725E+004
  3.8391689E+004
  3.5497201E+004
  3.1250602E+004
  2.7093408E+004
  2.3662960E+004
  2.0679107E+004
  1.7432106E+004
  1.3058253E+004
  6.6413786E+003
 -2.6494649E+003
 -1.5393259E+004
 -3.1529686E+004
 -5.0150124E+004
 -6.9335304E+004
 -8.6449485E+004
 -9.8643030E+004
 -1.0362438E+005
 -9.9880532E+004
 -8.6217173E+004
 -6.1871017E+004
 -2.6372337E+004
  1.4046390E+004
  4.4190529E+004
  6.4728129E+004
  8.0402475E+004
  6.6265374E+004
  7.2241801E+004
  2.1595194E+004
 -9.1519249E+003
  9.1474654E+004
  4.4465316E+004
 -6.0535985E+003
 -5.4642894E+003
  1.4508974E+004
  3.2167737E+004
  4.3122524E+004
  4.6560806E+004
  4.2243060E+004
  3.5778675E+004
  3.0539604E+004
  2.6915489E+004
  2.4079922E+004
  2.1028784E+004
  1.6760031E+004
  1.0301422E+004
  7.3008710E+002
 -1.2691240E+004
 -3.0269454E+004
 -5.1400639E+004
 -7.4220695E+004
 -9.5382967E+004
 -1.1111765E+005
 -1.1802506E+005
 -1.1408067E+005
 -9.9444090E+004
 -7.3831972E+004
 -3.9857607E+004
 -3.1899267E+003
  3.0317232E+004
  5.4121424E+004
  6.4851508E+004
  7.2901004E+004
  7.8901119E+004
  6.3772378E+004
  5.6539047E+004
  1.9747652E+004
  1.4174715E+003
  4.2745397E+004
  2.0493826E+004
  1.1924354E+003
  7.8598064E+003
  3.3608711E+004
  5.6661431E+004
  5.7082093E+004
  4.7061652E+004
  3.7819321E+004
  3.2374179E+004
  2.9340977E+004
  2.7227120E+004
  2.4830443E+004
  2.1144352E+004
  1.5212488E+004
  6.0508077E+003
 -7.3608138E+003
 -2.5882643E+004
 -4.9689708E+004
 -7.7003566E+004
 -1.0381014E+005
 -1.2358561E+005
 -1.3208517E+005
 -1.2895447E+005
 -1.1251342E+005
 -8.6580443E+004
 -5.3007403E+004
 -1.6389536E+004
  1.6771377E+004
  4.2986286E+004
  6.2123940E+004
  7.3102852E+004
  7.5254807E+004
  7.4211087E+004
  7.0749294E+004
  5.3166116E+004
  3.5758438E+004
  1.2663375E+004
  5.4374889E+003
  8.8372625E+003
  3.4823746E+001
  8.4898100E+003
  2.5869812E+004
  6.4695397E+004
  6.5570744E+004
  4.7121917E+004
  3.7095717E+004
  3.3022750E+004
  3.1327985E+004
  3.0262981E+004
  2.8701449E+004
  2.5809042E+004
  2.0763405E+004
  1.2602439E+004
  1.0702417E+002
 -1.8307976E+004
 -4.4145575E+004
 -7.7277832E+004
 -1.1149679E+005
 -1.3841485E+005
 -1.4850681E+005
 -1.4009451E+005
 -1.2662221E+005
 -9.9649128E+004
 -6.3611640E+004
 -2.6265510E+004
  7.9789257E+003
  3.5423236E+004
  5.5820497E+004
  7.0083069E+004
  7.8932830E+004
  8.1202598E+004
  7.5818904E+004
  6.5842265E+004
  5.2829108E+004
  3.3117603E+004
  1.2037532E+004
 -7.4947409E+003
 -8.1807053E+003
 -1.4664223E+004
  1.4926896E+005
  7.3934677E+004
  4.2524416E+004
  3.6135785E+004
  3.3927195E+004
  3.3687544E+004
  3.3387280E+004
  3.2399309E+004
  3.0117896E+004
  2.5942630E+004
  1.9064466E+004
  8.2484868E+003
 -8.4275099E+003
 -3.4267602E+004
 -7.2697458E+004
 -1.2084635E+005
 -1.5187522E+005
 -1.5331685E+005
 -1.5081281E+005
 -1.2721441E+005
 -1.0752396E+005
 -7.3688051E+004
 -3.2078832E+004
  1.7296482E+003
  2.8399449E+004
  4.9496335E+004
  6.6097928E+004
  7.8277462E+004
  8.4944205E+004
  8.5278754E+004
  7.8155120E+004
  6.4041332E+004
  4.5405327E+004
  2.2958398E+004
 -7.9038368E+001
 -3.2212566E+004
 -1.3600997E+004
  1.9074460E+005
  4.8709357E+004
  4.4312862E+004
  3.6864247E+004
  3.7197010E+004
  3.6921705E+004
  3.6639567E+004
  3.5505025E+004
  3.3268166E+004
  2.9482646E+004
  2.3552966E+004
  1.4510128E+004
  4.9674857E+002
 -2.1856399E+004
 -6.0734567E+004
 -1.2692822E+005
 -1.9721282E+005
 -1.8110915E+005
 -1.1058982E+005
 -1.4520756E+005
 -1.3380743E+005
 -7.0319060E+004
 -3.0754276E+004
 -4.0597827E+003
  1.9263000E+004
  3.9729614E+004
  5.8592154E+004
  7.5492661E+004
  8.7750106E+004
  9.2310528E+004
  8.8671928E+004
  7.7224606E+004
  5.8432268E+004
  3.3864638E+004
  3.3676810E+003
 -2.4587941E+004
 -5.7009930E+004
  4.2158936E+003
  8.4533481E+004
  6.1729762E+004
  4.5583135E+004
  4.3994069E+004
  4.2072993E+004
  4.1010203E+004
  3.9530871E+004
  3.7470721E+004
  3.4476263E+004
  3.0220854E+004
  2.4230421E+004
  1.5792077E+004
  3.4485204E+003
 -1.5405252E+004
 -4.8941716E+004
 -1.1299999E+005
 -2.3487627E+005
 -6.7147602E+004
 -6.8888379E+004
 -5.0721635E+004
 -1.3461882E+005
 -5.5226630E+004
 -5.1662369E+004
 -1.8213859E+004
  1.3204325E+004
  2.4556264E+004
  4.4354571E+004
  6.9703105E+004
  8.8636535E+004
  9.8468332E+004
  9.8599099E+004
  8.9259473E+004
  7.1113759E+004
  4.5761028E+004
  1.1152794E+004
 -2.6877200E+004
 -1.3418295E+005
 -5.8519588E+004
  5.2176924E+004
  5.1615463E+004
  5.0776658E+004
  4.7301544E+004
  4.4463302E+004
  4.1317744E+004
  3.7718133E+004
  3.3271080E+004
  2.7615003E+004
  2.0216747E+004
  1.0438106E+004
 -3.5050334E+003
 -2.2891117E+004
 -6.2161288E+004
 -1.2860447E+005
 -5.6351168E+005
 -4.2037360E+004
 -2.3653642E+004
 -6.4511939E+004
 -3.2821600E+005
 -1.3453905E+003
 -1.0291590E+005
  9.0855896E+003
 -1.1971428E+004
 -1.5476788E+004
  2.4316916E+004
  6.2229412E+004
  8.6546893E+004
  1.0202515E+005
  1.0727194E+005
  1.0037213E+005
  8.3278212E+004
  5.7008820E+004
  2.3322400E+004
 -2.6540545E+004
 -6.5847888E+004
 -1.4522512E+005
  2.6216629E+004
 -1.6160539E+003
 -1.4736863E+004
  3.0756947E+003
  2.0437547E+004
 -5.1233294E+003
  1.5185988E+004
 -2.5931254E+003
 -1.1171539E+004
  3.3133268E+004
  1.7812776E+004
 -4.7328112E+004
 -9.5987018E+004
  3.0163214E+003
  4.4294357E+004
  2.3545728E+003
 -2.0015205E+004
 -1.2003194E+004
  4.3323083E+004
  5.3210838E+004
  5.3414012E+004
  4.9942699E+004
  4.5833985E+004
  4.1198203E+004
  3.5941809E+004
  2.9712274E+004
  2.2075313E+004
  1.2336283E+004
 -2.6173094E+002
 -1.8191927E+004
 -4.1616918E+004
 -8.8256115E+004
 -1.2914440E+005
 -2.9163303E+005
 -1.2554576E+005
  1.0927149E+005
 -2.9193321E+005
  2.6357591E+003
  4.3041990E+002
 -7.3867934E+004
  1.6808833E+004
  4.4920016E+004
  7.5217146E+004
  1.0460329E+005
  1.1440421E+005
  1.0959212E+005
  9.3421258E+004
  6.7750788E+004
  3.2561291E+004
 -1.4688526E+004
 -7.7332699E+004
 -2.4638635E+005
 -1.1536011E+004
  1.0438076E+003
 -3.1311092E+004
 -9.7103267E+003
 -2.6230249E+003
 -4.1410370E+003
  1.0077634E+004
  1.6983762E+003
  1.0038188E+004
  3.1696405E+003
  2.9842806E+003
  9.7374306E+003
  9.7567627E+003
 -6.3985337E+004
 -1.3547870E+005
  3.6508973E+003
  4.4286065E+004
 -2.8101673E+004
  9.2715667E+003
 -4.0481405E+003
  4.2124927E+003
  3.0688397E+004
  4.7425955E+004
  5.0666244E+004
  4.8675567E+004
  4.4371043E+004
  3.8851279E+004
  3.2268208E+004
  2.4419209E+004
  1.4843366E+004
  2.9045911E+003
 -1.2612349E+004
 -3.2572408E+004
 -6.1892186E+004
 -9.3334116E+004
 -1.6147391E+005
 -2.5483955E+004
 -1.7339664E+005
  1.1544885E+005
 -1.3147389E+003
 -2.4027807E+005
  1.4018088E+004
 -1.2230764E+004
  6.7192689E+004
  1.0164066E+005
  1.1878854E+005
  1.1635273E+005
  1.0086016E+005
  7.6373324E+004
  4.2412855E+004
 -4.8301289E+002
 -6.2803062E+004
 -1.1378515E+005
 -1.8354602E+005
 -5.4611563E+004
 -4.8194019E+004
 -2.8455709E+004
 -2.1973560E+004
 -1.4357839E+004
 -4.3080077E+003
  5.1149095E+003
  9.3101157E+003
  7.7776630E+003
  8.8108245E+003
  5.6978193E+003
  5.3636459E+003
  7.2704263E+003
  7.3644168E+003
  1.0192513E+004
  3.1274261E+004
 -4.7641158E+004
 -9.0364574E+003
 -7.4274637E+004
 -2.0333560E+005
  5.0073131E+003
  7.2122947E+004
 -4.1182361E+004
 -6.4853976E+003
 -7.3517913E+003
  2.6029323E+003
  1.1946860E+004
  1.7708157E+004
  2.8997491E+004
  4.0233451E+004
  4.4973601E+004
  4.4245088E+004
  4.0391953E+004
  3.4585015E+004
  2.7242198E+004
  1.8325169E+004
  7.5269826E+003
 -5.6826707E+003
 -2.1897333E+004
 -4.1923831E+004
 -6.4451026E+004
 -8.7568145E+004
 -7.0387565E+004
  2.4637417E+003
 -1.6732611E+005
  1.0551331E+005
 -1.1055385E+005
  4.3820977E+004
  1.0420478E+005
  1.2529457E+005
  1.1901737E+005
  1.0577715E+005
  8.3229895E+004
  5.1757886E+004
  9.2879738E+003
 -4.3102802E+004
 -1.0545856E+005
 -1.2781729E+005
 -2.2061235E+005
  7.0690104E+003
 -9.4784220E+001
 -2.6123156E+004
 -5.6295757E+004
 -3.7064547E+004
 -3.1929157E+004
 -2.2096419E+004
 -1.2321398E+004
 -2.6121231E+003
  4.2705954E+003
  9.9836487E+003
  1.1990418E+004
  1.3455077E+004
  1.6715261E+004
  1.7723880E+004
 -9.3400211E+003
 -2.4026442E+003
 -1.2912041E+004
 -2.5639044E+003
 -4.2441773E+003
  6.0142426E+002
 -4.5860619E+003
  1.4905058E+003
 -4.5467307E+003
  2.1850496E+003
 -5.1709896E+003
  2.3656122E+003
 -5.6735461E+003
  2.2706828E+003
 -6.1895580E+003
  2.0690078E+003
 -6.6613242E+003
  1.9978483E+003
 -7.1091086E+003
  2.0872172E+003
 -7.5228999E+003
  2.1332881E+003
 -7.8564276E+003
  1.8997605E+003
 -8.2940700E+003
  2.3407317E+002
 -8.3702422E+003
 -2.3279463E+003
 -1.0623533E+004
 -1.4958458E+004
 -1.2249617E+004
 -2.0076279E+004
 -4.3010775E+004
 -7.3860307E+004
 -1.7881834E+004
 -1.9639826E+004
 -4.9172024E+003
  4.6978950E+003
  9.4507315E+003
  1.4465828E+004
  2.1019333E+004
  2.8644786E+004
  3.5137942E+004
  3.8612579E+004
  3.8266069E+004
  3.4830591E+004
  2.9130115E+004
  2.1604114E+004
  1.2370839E+004
  1.3400699E+003
 -1.1625869E+004
 -2.6569850E+004
 -4.2573190E+004
 -5.7566496E+004
 -6.0281420E+004
 -4.4178430E+004
  2.6272825E+004
 -6.8308508E+004
  1.9405928E+004
  9.6107849E+004
  1.1666260E+005
  1.2085312E+005
  1.1077494E+005
  8.9531951E+004
  6.0131497E+004
  2.2386251E+004
 -2.0379862E+004
 -6.9617878E+004
 -1.3263611E+005
 -4.5921086E+005
 -3.9738518E+004
 -4.5844027E+004
 -5.0422158E+004
 -4.2051823E+004
 -3.3190975E+004
 -2.1007291E+004
 -9.1800498E+003
  7.5595119E+002
  7.5735577E+003
  1.2399720E+004
  1.5664484E+004
  1.6889568E+004
  1.1753376E+004
 -3.4576309E+003
 -1.1316592E+004
 -3.8325019E+003
 -1.2603388E+003
  9.6310814E+002
  1.9775976E+003
  2.0346916E+003
  1.2818732E+003
  3.2335193E+002
 -3.3990130E+002
 -4.6102786E+002
 -4.7408431E+002
 -1.4524313E+003
 -4.3498230E+003
 -1.2283735E+004
 -2.4981298E+004
 -6.3438817E+004
 -6.4403784E+004
 -2.8970800E+004
 -9.7079785E+003
 -2.3288273E+003
  5.2374492E+003
  1.1310954E+004
  1.6346666E+004
  2.1367002E+004
  2.6358550E+004
  3.0491438E+004
  3.2495549E+004
  3.1864739E+004
  2.8660483E+004
  2.3269653E+004
  1.6042480E+004
  7.1978467E+003
 -3.1091124E+003
 -1.4642458E+004
 -2.6758710E+004
 -3.8014173E+004
 -4.4727846E+004
 -4.2261981E+004
 -2.3248669E+004
  5.5014770E+003
  2.1247947E+004
  1.2317158E+004
 -6.4037715E+004
  2.0225059E+005
  1.4216929E+005
  1.3407985E+005
  1.1675631E+005
  9.6703623E+004
  6.9067241E+004
  3.3880115E+004
 -6.6824458E+003
 -5.3512343E+004
 -1.1383879E+005
 -1.9088141E+005
 -4.6780519E+004
 -1.2909486E+004
 -3.0088011E+004
 -1.0397133E+004
 -1.0762001E+004
 -1.2943082E+003
 -7.4496325E+003
 -6.0264782E+002
 -4.9390260E+003
  9.2729941E+000
 -4.0768881E+003
  3.5965681E+002
 -3.4311487E+003
  5.8607857E+002
 -2.9470061E+003
  6.5330372E+002
 -2.4505284E+003
  5.9270412E+002
 -1.8481473E+003
 -2.6301828E+002
  5.8723019E+002
  6.1506050E+002
 -5.2555454E+004
 -5.1582727E+004
 -5.4954311E+004
 -5.6056310E+004
 -4.4322289E+004
 -2.9813594E+004
 -1.5685977E+004
 -4.0273978E+003
  4.8111274E+003
  1.0754232E+004
  1.4011117E+004
  1.3914872E+004
  8.7221719E+003
  1.9311972E+003
 -2.0075838E+003
 -3.0072819E+003
  4.1460195E+002
  3.3394256E+003
  5.3416240E+003
  5.5517245E+003
  3.8889820E+003
  1.5132291E+003
  2.8675841E+002
  2.2689948E+002
  4.8153500E+002
 -2.7760412E+002
 -4.5464755E+003
 -1.3220823E+004
 -2.9076622E+004
 -3.7909479E+004
 -3.9967244E+004
 -2.9815168E+004
 -1.4107439E+004
 -2.9163835E+003
  4.3755780E+003
  1.0124705E+004
  1.4912410E+004
  1.9155910E+004
  2.2868977E+004
  2.5525561E+004
  2.6569855E+004
  2.5594616E+004
  2.2549152E+004
  1.7603088E+004
  1.1020078E+004
  3.0844911E+003
 -5.8643911E+003
 -1.5295672E+004
 -2.4278495E+004
 -3.1100344E+004
 -3.3302182E+004
 -2.7675088E+004
 -1.3221147E+004
  4.4532648E+003
  1.4664342E+004
  1.7399662E+004
  2.1833582E+003
  5.5373429E+004
  1.3805628E+005
  1.3804869E+005
  1.2655794E+005
  1.0793290E+005
  7.9107910E+004
  4.2698458E+004
  4.4065892E+002
 -4.9256730E+004
 -1.1079654E+005
 -1.5428706E+005
 -1.1897909E+005
 -4.9733756E+004
 -3.0240676E+004
 -1.8640332E+004
 -1.3800603E+004
 -1.0914919E+004
 -9.0746215E+003
 -7.5475304E+003
 -6.0842000E+003
 -4.5389435E+003
 -2.1593041E+003
 -1.1534469E+003
  4.0902076E+002
 -3.2678900E+002
 -1.5883773E+002
  1.3196820E+003
  9.6898715E+002
 -6.2138482E+004
 -5.4260996E+004
 -7.6639797E+004
 -7.0066050E+004
 -5.4793604E+004
 -3.6784700E+004
 -2.0846422E+004
 -8.1415421E+003
  1.2622626E+003
  7.5785052E+003
  1.0738573E+004
  1.0460396E+004
  7.3753764E+003
  2.7547591E+003
 -4.6037420E+002
 -2.3651141E+002
  2.1455522E+003
  6.2322772E+003
  9.7357238E+003
  1.0021625E+004
  6.4755424E+003
  2.1769439E+003
 -6.8741991E+002
 -4.9175211E+002
  1.0061832E+003
  5.9659571E+002
 -2.6188238E+003
 -1.0947296E+004
 -2.0295693E+004
 -2.9034635E+004
 -2.9942694E+004
 -2.3291809E+004
 -1.4297741E+004
 -5.4634065E+003
  1.6769061E+003
  7.2824016E+003
  1.1857805E+004
  1.5611261E+004
  1.8524167E+004
  2.0380085E+004
  2.0845583E+004
  1.9695923E+004
  1.6870923E+004
  1.2480355E+004
  6.7516410E+003
  6.8921425E+000
 -7.3087615E+003
 -1.4544699E+004
 -2.0715357E+004
 -2.4447653E+004
 -2.4061362E+004
 -1.8330312E+004
 -7.9862108E+003
  3.8743852E+003
  1.3404082E+004
  2.8848030E+004
 -3.8152586E+004
  2.9631862E+005
  1.5845006E+005
  1.4411947E+005
  1.2394456E+005
  9.1742985E+004
  5.1095914E+004
  6.9761848E+003
 -4.0543379E+004
 -8.4289430E+004
 -1.0410452E+005
 -9.3834052E+004
 -7.2395748E+004
 -4.6808491E+004
 -3.3865986E+004
 -2.6021273E+004
 -2.1372695E+004
 -1.7988986E+004
 -1.5004583E+004
 -1.1927948E+004
 -8.5308385E+003
 -5.1352981E+003
 -2.4375261E+003
 -7.2480314E+002
  8.2521327E+002
  1.2341320E+003
  3.9956751E+002
 -8.3487233E+004
 -2.9280785E+004
 -9.1950427E+004
 -8.2055806E+004
 -6.1500525E+004
 -4.0424223E+004
 -2.4296630E+004
 -1.1912013E+004
 -2.5586201E+003
  3.8094306E+003
  7.0534888E+003
  7.3422260E+003
  5.3054792E+003
  2.5005806E+003
  5.8168274E+002
  7.2139830E+002
  3.7056884E+003
  9.0534871E+003
  1.5798646E+004
  1.8906878E+004
  1.2236529E+004
  6.3226542E+002
 -1.1942954E+003
  5.9138659E+001
  1.6866693E+003
  6.1568606E+003
  3.9007084E+003
 -4.4913676E+003
 -1.3472674E+004
 -1.7281432E+004
 -1.9147361E+004
 -1.7937331E+004
 -1.3152019E+004
 -6.9993195E+003
 -1.1214486E+003
  3.9321564E+003
  8.1282300E+003
  1.1479238E+004
  1.3922569E+004
  1.5313577E+004
  1.5489550E+004
  1.4329405E+004
  1.1817740E+004
  8.0576751E+003
  3.2693165E+003
 -2.2113582E+003
 -7.9129393E+003
 -1.3189101E+004
 -1.7192221E+004
 -1.8909355E+004
 -1.7394657E+004
 -1.2265108E+004
 -4.1920569E+003
  4.7413772E+003
  1.2235775E+004
  1.4082661E+004
  4.2917607E+003
 -4.4356681E+003
  8.7377645E+004
  1.5191866E+005
  1.7969743E+005
  1.5045183E+005
  1.0426587E+005
  6.1048185E+004
  1.7901721E+004
 -2.4637504E+004
 -6.0271621E+004
 -8.1827085E+004
 -8.3912175E+004
 -7.1768875E+004
 -5.8320574E+004
 -4.6300630E+004
 -3.8320619E+004
 -3.2656412E+004
 -2.8122362E+004
 -2.3689066E+004
 -1.8827182E+004
 -1.3541931E+004
 -8.4343165E+003
 -4.2971889E+003
 -1.2299202E+003
  7.8407381E+002
  3.1240368E+003
  5.4873355E+004
 -7.1356341E+004
 -1.2987613E+005
 -8.9674118E+004
 -6.1302537E+004
 -4.0271112E+004
 -2.7300435E+004
 -1.6219821E+004
 -7.0406473E+003
 -3.7353559E+002
  3.2264729E+003
  3.9962350E+003
  2.8078848E+003
  8.7719346E+002
 -3.8177756E+002
  2.9095741E+002
  3.6862740E+003
  1.0454536E+004
  2.0377280E+004
  3.1918590E+004
  1.7517267E+004
  4.2454325E+002
 -2.8729887E+003
 -2.3871937E+003
 -7.6994615E+002
 -1.0747744E+003
  9.2222283E+003
 -5.1695688E+003
 -2.4608854E+003
 -4.2010907E+003
 -1.1241845E+004
 -1.3508487E+004
 -1.1032334E+004
 -7.3923052E+003
 -3.2335319E+003
  9.5985872E+002
  4.6093811E+003
  7.5154676E+003
  9.5725647E+003
  1.0663030E+004
  1.0697427E+004
  9.6334145E+003
  7.4908363E+003
  4.3801422E+003
  5.1554712E+002
 -3.7770184E+003
 -8.0527544E+003
 -1.1745468E+004
 -1.4187755E+004
 -1.4694020E+004
 -1.2743405E+004
 -8.2179354E+003
 -1.6597574E+003
  5.9826382E+003
  1.2782360E+004
  1.4720421E+004
  1.3539698E+004
  1.7787292E+004
  1.7340045E+005
  1.8768045E+005
  1.5906595E+005
  1.1630768E+005
  7.5662099E+004
  3.3270035E+004
 -6.0053633E+003
 -3.8911490E+004
 -6.0666067E+004
 -6.9806300E+004
 -6.9047161E+004
 -6.2463529E+004
 -5.5155768E+004
 -4.8705934E+004
 -4.3467319E+004
 -3.8582212E+004
 -3.3094580E+004
 -2.6400877E+004
 -1.8850926E+004
 -1.1463880E+004
 -5.4247854E+003
 -1.6301182E+003
  7.5920074E+002
  3.4041950E+003
 -1.6664446E+005
 -1.5838877E+005
 -8.4364653E+004
 -5.3687939E+004
 -4.2106888E+004
 -3.3496018E+004
 -2.3162358E+004
 -1.2723457E+004
 -5.0391841E+003
 -8.7928874E+002
  3.5421087E+002
 -2.9750709E+002
 -1.6268615E+003
 -2.4073870E+003
 -1.4275320E+003
  2.2934136E+003
  1.0325409E+004
  2.2032854E+004
  4.5997267E+004
  5.4647343E+004
 -1.2023270E+004
  7.3138895E+003
  6.2392648E+003
  8.4072157E+003
  1.2763523E+004
  3.5504311E+004
 -4.4110057E+003
 -4.8223698E+003
  5.5752074E+003
 -6.9724089E+003
 -6.6314599E+003
 -8.0903830E+003
 -7.1480494E+003
 -3.9767355E+003
 -9.3731550E+002
  1.8572174E+003
  4.2680800E+003
  5.9197481E+003
  6.7176269E+003
  6.6546809E+003
  5.7191433E+003
  3.9477169E+003
  1.4463132E+003
 -1.5873822E+003
 -4.8542666E+003
 -7.9630328E+003
 -1.0449752E+004
 -1.1817919E+004
 -1.1615107E+004
 -9.5463680E+003
 -5.5999356E+003
 -7.7218231E+001
  6.4010481E+003
  1.2819499E+004
  1.3845983E+004
  4.0611751E+003
  2.3674473E+004
  3.9098734E+005
  1.9997358E+005
  1.4313964E+005
  9.4082445E+004
  5.2675468E+004
  1.4325917E+004
 -1.9117900E+004
 -4.3871501E+004
 -5.8253263E+004
 -6.3560440E+004
 -6.3205180E+004
 -6.0116395E+004
 -5.6445268E+004
 -5.2765012E+004
 -4.8577522E+004
 -4.2779257E+004
 -3.4522750E+004
 -2.3876459E+004
 -1.3127442E+004
 -5.4757098E+003
 -9.5516227E+002
  6.8329552E+002
  2.6143226E+003
 -1.9734999E+005
 -1.7137016E+005
 -6.9463025E+004
 -4.7760774E+004
 -5.1428832E+004
 -4.8862735E+004
 -3.4012105E+004
 -1.9532749E+004
 -1.0243357E+004
 -5.4769723E+003
 -3.7869947E+003
 -3.9513519E+003
 -4.7940787E+003
 -5.1393201E+003
 -3.8287658E+003
  5.2244583E+002
  9.0130176E+003
  2.5766922E+004
  5.0161263E+004
  1.3937893E+005
  2.0181384E+004
 -8.3794546E+003
  1.2118883E+004
  3.9989944E+004
 -6.9901230E+003
  2.0801573E+003
 -5.8970208E+003
 -3.4694880E+003
 -3.2990763E+003
 -1.9048636E+003
  4.9998911E+002
  2.1937887E+003
  3.2472950E+003
  3.7104833E+003
  3.4996390E+003
  2.6639591E+003
  1.2254590E+003
 -7.5542009E+002
 -3.1021878E+003
 -5.5460443E+003
 -7.7541398E+003
 -9.3599775E+003
 -1.0004053E+004
 -9.3897517E+003
 -7.3475607E+003
 -3.8933764E+003
  8.1492270E+002
  6.4733436E+003
  1.3803317E+004
  2.7616809E+004
 -4.5251577E+003
  1.7028843E+005
  1.8387124E+005
  1.6062714E+005
  1.1615780E+005
  7.7253947E+004
  3.6059832E+004
 -8.6089766E+002
 -2.9352136E+004
 -4.7752477E+004
 -5.7546332E+004
 -6.1386574E+004
 -6.2024803E+004
 -6.1298135E+004
 -6.0012950E+004
 -5.7696318E+004
 -5.2356181E+004
 -4.1908936E+004
 -2.8003348E+004
 -1.4248867E+004
 -2.6319660E+003
 -8.2217111E+002
  4.1985138E+002
  1.0247197E+003
 -4.7767711E+005
 -2.8400689E+005
 -5.6619600E+004
 -6.8880006E+004
 -9.5377750E+004
 -7.6640634E+004
 -4.5695410E+004
 -2.6716048E+004
 -1.6341830E+004
 -1.0900360E+004
 -8.6013474E+003
 -8.1280353E+003
 -8.3557201E+003
 -8.1456047E+003
 -6.2747145E+003
 -1.2237531E+003
  8.8848934E+003
  2.7939288E+004
  6.1099021E+004
  1.3010941E+005
  1.8108702E+004
 -1.1329705E+004
  2.8055750E+004
 -5.2947111E+003
  2.1905165E+003
 -2.4446673E+003
  1.5562010E+002
  4.3117318E+002
  1.2049444E+003
  1.8897857E+003
  1.7289449E+003
  1.2641761E+003
  5.3880993E+002
 -6.4294058E+002
 -2.2338458E+003
 -4.0701453E+003
 -5.9060881E+003
 -7.4576543E+003
 -8.4420497E+003
 -8.6045880E+003
 -7.7480167E+003
 -5.7831237E+003
 -2.6750280E+003
  1.3491018E+003
  6.9397324E+003
  1.2671124E+004
  3.1600551E+004
 -6.2695553E+004
  3.8195535E+005
  1.8164895E+005
  1.4694262E+005
  1.0562591E+005
  5.8363587E+004
  1.4310644E+004
 -1.7904522E+004
 -3.8791674E+004
 -5.1069692E+004
 -5.7658629E+004
 -6.1131768E+004
 -6.3313944E+004
 -6.4772792E+004
 -6.5310438E+004
 -6.3293299E+004
 -5.3201495E+004
 -3.0091740E+004
 -5.9287978E+003
  3.3105128E+002
  7.7219625E+002
  2.6422950E+002
  2.7774323E+002
 -1.6598574E+005
 -6.9675265E+004
 -3.5639780E+004
 -1.4467675E+005
 -9.4215838E+004
 -5.5740361E+004
 -3.5442792E+004
 -2.4079816E+004
 -1.7522162E+004
 -1.4154102E+004
 -1.2714595E+004
 -1.2094680E+004
 -1.1149728E+004
 -8.5902670E+003
 -2.7199232E+003
  8.6899280E+003
  2.9853419E+004
  6.4746795E+004
  1.2095016E+005
  1.3578676E+004
 -8.4979971E+003
  2.0372255E+004
 -2.9430470E+003
  3.3781735E+003
  1.0822625E+003
  2.8366992E+003
  1.8146594E+003
  6.0927047E+002
  8.0769026E+001
 -6.1948881E+002
 -1.6307421E+003
 -2.9964546E+003
 -4.5268377E+003
 -5.9620066E+003
 -7.0683947E+003
 -7.6318255E+003
 -7.4792093E+003
 -6.4876491E+003
 -4.5879633E+003
 -1.7876964E+003
  1.9716462E+003
  6.6356297E+003
  1.3707624E+004
  1.9231344E+004
  1.1548399E+005
  1.7467146E+005
  1.9445036E+005
  1.4119170E+005
  7.4837514E+004
  2.3862799E+004
 -9.4751477E+003
 -3.0868638E+004
 -4.3994278E+004
 -5.2032618E+004
 -5.7499317E+004
 -6.2391571E+004
 -6.7446126E+004
 -7.0618546E+004
 -7.0697453E+004
 -5.6603442E+004
 -2.4303396E+004
 -4.1409998E+003
  3.0678254E+003
 -1.3875653E+005
  5.6364630E+004
 -3.6791665E+005
 -1.1449308E+005
 -7.2613539E+004
 -4.7537767E+004
 -3.3944074E+004
 -2.5143981E+004
 -2.0178119E+004
 -1.7424349E+004
 -1.5763259E+004
 -1.4004354E+004
 -1.0837838E+004
 -4.5655044E+003
  7.0345989E+003
  2.7492836E+004
  5.7995783E+004
  1.0457514E+005
  9.8763757E+003
 -6.0105378E+003
  1.6829222E+004
 -1.2390157E+003
  6.8527225E+003
  1.8301734E+003
  4.0578179E+002
 -2.1624430E+002
 -6.1511117E+002
 -1.7041370E+003
 -3.0968581E+003
 -4.5030817E+003
 -5.7394047E+003
 -6.5728977E+003
 -6.8633438E+003
 -6.5198915E+003
 -5.4671690E+003
 -3.6637604E+003
 -1.0857973E+003
  2.2137808E+003
  6.4093086E+003
  1.0710140E+004
  1.5699887E+004
  1.4246374E+004
  1.9099048E+005
  2.1186947E+005
  1.6151422E+005
  7.8358050E+004
  2.9007886E+004
 -2.7525308E+003
 -2.2811463E+004
 -3.5764647E+004
 -4.4431263E+004
 -5.1207402E+004
 -5.8189562E+004
 -6.7781727E+004
 -7.8381181E+004
 -8.4950009E+004
 -1.1289177E+005
  5.2811497E+003
 -2.3419769E+005
 -1.1478662E+005
 -9.2286593E+004
 -6.0701413E+004
 -4.4024773E+004
 -3.2625805E+004
 -2.5895113E+004
 -2.1746640E+004
 -1.9041099E+004
 -1.6575119E+004
 -1.3126426E+004
 -7.1769379E+003
  2.9942121E+003
  2.0250548E+004
  4.5411818E+004
  8.5439353E+004
  7.9338292E+003
 -3.9403392E+003
  1.8216725E+004
  2.5694461E+003
  1.4726545E+003
  1.5962003E+003
  2.1972572E+002
 -1.1679135E+003
 -2.4985152E+003
 -4.0808567E+003
 -5.2908974E+003
 -5.9479129E+003
 -6.0752397E+003
 -5.6419731E+003
 -4.6100653E+003
 -2.9458747E+003
 -6.4817358E+002
  2.2368888E+003
  5.4213016E+003
  8.4609870E+003
  1.1135322E+004
  3.7982909E+003
  4.7696763E+005
  1.7854776E+005
  8.1418670E+004
  3.4314692E+004
  5.4031492E+003
 -1.3200377E+004
 -2.5899844E+004
 -3.5063005E+004
 -4.2713937E+004
 -5.1205378E+004
 -6.3120499E+004
 -8.4724611E+004
 -8.5522086E+004
 -6.5105464E+004
 -6.8971299E+003
 -1.2990255E+005
 -9.4733811E+004
 -7.0147047E+004
 -5.0433613E+004
 -3.8289175E+004
 -3.0196853E+004
 -2.5038473E+004
 -2.1535776E+004
 -1.8666571E+004
 -1.5369439E+004
 -1.0519774E+004
 -2.8387506E+003
  9.0281614E+003
  2.8207773E+004
  6.0110731E+004
  1.0024701E+004
  6.9300174E+003
  2.8269609E+002
  3.5687265E+003
  1.2252116E+003
  8.8448219E+002
 -1.3447941E+003
 -3.4594451E+003
 -4.5913783E+003
 -5.1501487E+003
 -5.2087267E+003
 -4.7856360E+003
 -3.8562420E+003
 -2.4081271E+003
 -4.4407254E+002
  1.9635748E+003
  4.5609626E+003
  6.5226130E+003
  7.3978938E+003
  4.3859459E+005
  1.4852883E+005
  9.1935694E+004
  4.2039502E+004
  1.7143659E+004
 -1.5438667E+003
 -1.4515996E+004
 -2.4592196E+004
 -3.3266865E+004
 -4.2723767E+004
 -5.6578354E+004
 -8.5251772E+004
 -1.7745516E+005
  3.3589313E+004
  1.3777081E+004
 -1.2251452E+005
 -9.0523487E+004
 -6.7718051E+004
 -5.2132083E+004
 -4.0379327E+004
 -3.2250857E+004
 -2.6678910E+004
 -2.2874569E+004
 -2.0018296E+004
 -1.7355567E+004
 -1.4056410E+004
 -9.7384825E+003
 -2.7471795E+003
  3.1995711E+003
  3.2701435E+004
  9.1636023E+003
 -2.3972023E+003
  1.2736273E+004
 -4.6569057E+002
  4.2816593E+003
 -5.7436139E+002
 -2.5510953E+003
 -3.6481586E+003
 -4.0958899E+003
 -4.2058128E+003
 -3.8919313E+003
 -3.1568330E+003
 -1.9931144E+003
 -4.2126495E+002
  1.4928185E+003
  3.5907701E+003
  4.8383962E+003
  2.1170671E+003
  1.6089515E+005
  1.5547324E+005
  8.8633953E+004
  5.5548900E+004
  2.9695578E+004
  1.1481801E+004
 -2.6768394E+003
 -1.3958546E+004
 -2.4212102E+004
 -3.4051892E+004
 -5.1132196E+004
 -6.7127677E+004
 -1.8460604E+005
 -1.0249845E+005
 -6.5884939E+004
 -6.0451362E+004
 -4.7920926E+004
 -3.8889550E+004
 -3.1519185E+004
 -2.6329424E+004
 -2.2765911E+004
 -2.0412020E+004
 -1.8763309E+004
 -1.7530268E+004
 -1.6164208E+004
 -1.6149500E+004
 -1.3522827E+004
 -3.1408116E+004
  6.0661917E+003
 -2.9571421E+003
  1.2650451E+004
  6.5739151E+002
 -1.0689352E+003
 -1.9311799E+003
 -2.7577582E+003
 -3.1931481E+003
 -2.9346525E+003
 -2.4453821E+003
 -1.6561198E+003
 -4.6667686E+002
  1.0331552E+003
  2.6965784E+003
  6.4718002E+003
 -4.7347956E+002
  2.5813563E+004
  9.2289899E+004
  8.5363818E+004
  6.2457899E+004
  4.1100223E+004
  2.3161756E+004
  8.3599680E+003
 -4.2459975E+003
 -1.5515347E+004
 -2.7657087E+004
 -3.9608174E+004
 -6.6487983E+004
 -5.1334292E+004
 -3.1545301E+004
 -5.4835549E+004
 -4.6571423E+004
 -4.0887672E+004
 -3.3836988E+004
 -2.8171864E+004
 -2.3872839E+004
 -2.1090769E+004
 -1.9664019E+004
 -1.9435734E+004
 -2.0374160E+004
 -2.2627872E+004
 -2.7399762E+004
 -3.6290242E+004
 -7.2961375E+004
  6.7662037E+003
  3.3048122E+003
 -4.8865180E+002
  1.6182319E+002
 -2.0724749E+003
 -1.7740619E+003
 -1.6658457E+003
 -1.7884777E+003
 -1.3647297E+003
 -4.7980306E+002
  7.1530033E+002
  1.7106964E+003
  4.5053685E+003
 -4.9085052E+004
  5.6333332E+004
  7.0471125E+004
  6.3168977E+004
  4.7406269E+004
  3.1693140E+004
  1.7228919E+004
  4.2685201E+003
 -7.7714261E+003
 -1.9235405E+004
 -3.1252937E+004
 -3.5745769E+004
 -1.8219993E+004
  3.1805779E+004
  1.8977334E+004
 -1.6719954E+004
 -3.1102847E+004
 -3.3848958E+004
 -3.0517196E+004
 -2.6422719E+004
 -2.2450596E+004
 -1.9481467E+004
 -1.7844815E+004
 -1.7700475E+004
 -1.9142785E+004
 -2.2431969E+004
 -2.7981509E+004
 -3.7455110E+004
 -5.1423175E+004
 -7.1942488E+004
 -2.0050603E+004
  8.8232787E+002
  5.6181034E+003
 -1.8647007E+003
  4.7244990E+003
 -9.7921660E+002
 -8.8221088E+002
 -4.4303339E+002
 -1.4135149E+003
 -1.0285259E+003
 -3.5314347E+002
  3.7585850E+002
  1.3736548E+003
  4.2986147E+002
 -7.0648603E+004
 -1.2250784E+005
 -1.6758798E+004
  3.2524708E+004
  5.7012983E+004
  5.7152680E+004
  4.8409116E+004
  3.6098082E+004
  2.3407584E+004
  1.1240583E+004
 -8.2534563E+001
 -1.0323656E+004
 -1.7810706E+004
 -1.7570505E+004
 -2.9421662E+003
  4.2291932E+004
 -2.1710930E+003
 -1.6015131E+004
 -1.9032739E+004
 -1.9152457E+004
 -1.7160050E+004
 -1.4935107E+004
 -1.3402279E+004
 -1.3143358E+004
 -1.4487835E+004
 -1.7748906E+004
 -2.3284211E+004
 -3.1959512E+004
 -4.4237974E+004
 -6.4222894E+004
 -8.0152404E+004
 -1.4941489E+005
  2.2510497E+003
 -2.1961834E+003
  3.0727663E+002
  1.9653505E+003
 -6.8904233E+002
 -4.5624528E+002
 -1.6098972E+002
  2.1683365E+002
  6.0739649E+002
  1.8146983E+002
 -4.2787498E+004
 -1.0959311E+005
 -6.4984490E+003
  2.7219948E+004
 -5.7591412E+004
 -1.1855605E+004
  2.0401269E+004
  4.2487997E+004
  4.8519470E+004
  4.5075768E+004
  3.6921177E+004
  2.6946839E+004
  1.6717687E+004
  7.1454740E+003
 -7.7403632E+002
 -5.1780954E+003
 -3.3330232E+003
  7.6190885E+003
  2.1890080E+004
  2.9941578E+004
  1.9291403E+004
 -1.6058999E+003
 -4.2926268E+003
 -5.4518531E+003
 -7.5813140E+003
 -6.8826006E+003
 -6.0906142E+003
 -5.9642889E+003
 -7.1502526E+003
 -1.0060890E+004
 -1.5118072E+004
 -2.2787782E+004
 -3.3841742E+004
 -4.8728017E+004
 -6.9405302E+004
 -9.5431845E+004
 -1.9435822E+005
  6.1220997E+002
 -1.2907445E+003
 -2.0555211E+002
 -1.1973899E+002
 -1.2464206E+002
  2.7875783E+002
 -1.3102057E+004
 -3.3246770E+004
  3.2596092E+003
  1.7114505E+004
  2.4445189E+003
  2.6550292E+003
  1.8899985E+003
  1.4171802E+003
  7.3660062E+002
  1.2292880E+002
  1.0914175E+001
 -1.8919433E+002
 -7.5694786E+002
 -5.1140228E+002
 -2.0815465E+003
 -6.2550723E+002
 -3.8058787E+003
 -1.8192892E+003
 -1.0838431E+004
 -3.0621525E+003
 -1.5216628E+004
 -1.8453283E+004
 -4.7957592E+004
 -3.3757971E+004
 -3.3928757E+004
 -1.2598230E+004
  1.3553517E+004
  3.0887633E+004
  3.9162118E+004
  3.9653836E+004
  3.5265693E+004
  2.8401148E+004
  2.0722772E+004
  1.3477710E+004
  7.8974392E+003
  5.4201857E+003
  7.6692010E+003
  1.5033446E+004
  2.4023387E+004
  2.6365892E+004
  2.7072311E+004
  1.7623131E+004
  1.3658782E+004
  4.6570139E+003
  3.8736617E+003
  3.9150293E+003
  3.6649697E+003
  2.5044058E+003
 -5.9761079E+001
 -4.4951621E+003
 -1.1226472E+004
 -2.0801989E+004
 -3.3794456E+004
 -5.1280415E+004
 -7.3207767E+004
 -1.0622391E+005
 -1.1315349E+005
 -1.0593946E+005
  3.5322575E+004
 -1.7290655E+004
 -3.6888717E+004
  3.4347025E+002
  1.6982123E+004
 -1.0410758E+003
 -3.7388458E+003
 -9.3327941E+003
  5.1718877E+003
  5.5802581E+003
  3.3979467E+003
  1.3215146E+003
 -5.2093382E+002
 -2.5702257E+003
 -5.3146359E+003
 -1.0434996E+004
 -1.8331087E+004
 -4.0733401E+004
 -4.8190011E+004
 -3.4411401E+004
 -2.3456599E+004
 -9.9539202E+003
  7.6397929E+003
  2.2314808E+004
  3.0870543E+004
  3.3755973E+004
  3.2379829E+004
  2.8431347E+004
  2.3389356E+004
  1.8503140E+004
  1.4908144E+004
  1.3676412E+004
  1.5493746E+004
  1.9791093E+004
  2.4551823E+004
  2.8120637E+004
  2.6588012E+004
  2.5871472E+004
  1.3797608E+003
  2.1172222E+004
  1.4956839E+004
  1.5635326E+004
  1.4960323E+004
  1.3918676E+004
  1.1747306E+004
  7.9135715E+003
  2.0876810E+003
 -6.1327542E+003
 -1.7243922E+004
 -3.1942132E+004
 -5.1037584E+004
 -7.6281033E+004
 -1.0640819E+005
 -1.3753429E+005
 -2.0031991E+005
 -2.3009818E+004
 -5.4451416E+004
 -6.1029379E+002
  1.7810846E+004
 -1.2489237E+004
  1.4973836E+003
 -4.4246156E+003
 -4.6965887E+003
  1.5116708E+003
  4.4509734E+003
  3.4379833E+003
  1.1407835E+003
 -1.5302334E+003
 -4.7130834E+003
 -9.0483078E+003
 -1.5158932E+004
 -2.5017610E+004
 -3.2345153E+004
 -3.6210057E+004
 -3.2713410E+004
 -2.2042327E+004
 -9.1203323E+003
  4.1993500E+003
  1.5990395E+004
  2.4210552E+004
  2.8378773E+004
  2.9162672E+004
  2.7635961E+004
  2.4942237E+004
  2.2138636E+004
  2.0151236E+004
  1.9689454E+004
  2.0998145E+004
  2.3707276E+004
  2.6610663E+004
  2.8803900E+004
  3.0199211E+004
  5.0523940E+004
  6.3340991E+003
  2.1430942E+004
  2.5065801E+004
  2.5589391E+004
  2.4584838E+004
  2.1514083E+004
  1.6560220E+004
  9.5141300E+003
  4.0806725E+001
 -1.2258757E+004
 -2.7907259E+004
 -4.7845375E+004
 -7.2257322E+004
 -1.0220338E+005
 -1.3268683E+005
 -1.7188776E+005
 -3.1818880E+004
  1.4638445E+004
 -2.0555017E+004
 -4.9075878E+004
 -9.8068031E+002
  2.2696919E+004
 -3.9066691E+003
 -5.9392745E+003
 -2.0092184E+004
 -7.5806802E+003
 -6.7456592E+003
 -3.0539283E+003
 -3.7517518E+002
 -7.3637112E+001
  1.3972578E+003
  2.8369817E+003
  2.2199180E+003
  8.1299382E+001
 -2.9536571E+003
 -6.7726574E+003
 -1.1575513E+004
 -1.7747028E+004
 -2.4223926E+004
 -3.0149659E+004
 -3.1569444E+004
 -2.7367204E+004
 -1.9502126E+004
 -9.1607916E+003
  1.7600047E+003
  1.1574814E+004
  1.9125395E+004
  2.3909877E+004
  2.6137566E+004
  2.6453805E+004
  2.5663715E+004
  2.4568017E+004
  2.3853492E+004
  2.3982124E+004
  2.5083084E+004
  2.6831833E+004
  2.8698198E+004
  3.0022659E+004
  3.1993093E+004
  2.8818413E+004
  2.2077649E+004
 -8.2272952E+003
 -7.5892753E+003
  4.5265001E+004
  3.7080450E+004
  3.7626491E+004
  3.5509505E+004
  3.1573477E+004
  2.5745194E+004
  1.7572388E+004
  7.0157725E+003
 -6.1273676E+003
 -2.2247031E+004
 -4.1626795E+004
 -6.5395060E+004
 -9.2586144E+004
 -1.3489511E+005
 -1.5936854E+005
 -3.3927840E+005
 -2.0022198E+004
 -5.3252484E+004
 -2.8221145E+002
  2.4810842E+004
 -3.2215151E+003
 -5.7209703E+003
 -1.8070806E+004
 -1.9736975E+003
 -1.2015679E+004
 -1.6222298E+004
 -8.9904181E+003
 -4.2678137E+003
 -2.0573581E+003
 -5.9998053E+002
  4.9905308E+002
  1.3922129E+003
  1.5940337E+003
  7.4577209E+002
 -1.3330284E+003
 -4.3896741E+003
 -8.2503974E+003
 -1.2856505E+004
 -1.7900921E+004
 -2.2803578E+004
 -2.5973785E+004
 -2.6378023E+004
 -2.3312786E+004
 -1.6971664E+004
 -8.7036832E+003
  1.9530310E+002
  8.5235095E+003
  1.5396729E+004
  2.0392411E+004
  2.3531140E+004
  2.5167630E+004
  2.5829740E+004
  2.6076159E+004
  2.6385303E+004
  2.7064816E+004
  2.8178548E+004
  2.9560852E+004
  3.0886940E+004
  3.2082224E+004
  3.3070836E+004
  3.2808496E+004
  4.0898096E+004
  2.5403972E+004
  4.0438318E+004
  4.7486720E+004
  4.5793922E+004
  4.2209454E+004
  3.5317099E+004
  2.6036987E+004
  1.4444968E+004
  5.2581627E+002
 -1.5770936E+004
 -3.4676563E+004
 -5.6566226E+004
 -8.2886263E+004
 -1.1423131E+005
 -1.7293802E+005
 -3.6941138E+005
 -1.2958414E+004
 -3.6384254E+004
  2.9632634E+003
  1.8513111E+004
  1.3257839E+003
  3.0127245E+003
  1.0063763E+002
  9.5547906E+002
 -4.4905494E+003
 -8.7776801E+002
 -6.1800396E+003
 -1.0387748E+004
 -2.1112164E+004
 -1.9135400E+003
 -1.1250517E+004
 -1.4579017E+004
 -1.0263923E+004
 -8.2253730E+003
 -9.2685098E+003
 -8.0427654E+003
 -4.6497551E+003
 -2.0702068E+003
 -4.5835739E+002
  4.8130988E+002
  8.4819019E+002
  5.7860292E+002
 -5.7656779E+002
 -2.6483374E+003
 -5.5522767E+003
 -9.1132195E+003
 -1.3092001E+004
 -1.7126153E+004
 -2.0541062E+004
 -2.2579968E+004
 -2.2373096E+004
 -1.9584553E+004
 -1.4538047E+004
 -7.8968495E+003
 -5.8952563E+002
  6.5102653E+003
  1.2736944E+004
  1.7720258E+004
  2.1394284E+004
  2.3934730E+004
  2.5662854E+004
  2.6942626E+004
  2.8089955E+004
  2.9300485E+004
  3.0610784E+004
  3.1900321E+004
  3.2986066E+004
  3.3643270E+004
  3.3351588E+004
  3.2108021E+004
  2.6495961E+004
  6.9047651E+003
 -6.2174185E+003
 -1.4884025E+004
  8.3069070E+004
  6.0766115E+004
  5.9177253E+004
  5.3286371E+004
  4.5179935E+004
  3.4786349E+004
  2.1951138E+004
  7.0931757E+003
 -9.6269364E+003
 -2.8287302E+004
 -4.9232579E+004
 -7.3527872E+004
 -1.0385416E+005
 -1.5142597E+005
 -1.8045112E+005
 -1.5709877E+005
 -1.0637355E+005
 -1.3767599E+004
 -3.5510644E+004
  2.0893842E+003
  1.8015031E+004
 -1.1689875E+003
  2.3771893E+003
 -2.2843162E+003
 -5.3438461E+003
 -1.2039104E+004
  3.5435561E+003
  3.0339240E+003
 -1.2747899E+003
 -6.4913091E+003
 -1.8296228E+004
 -1.9023353E+004
 -1.2130046E+004
 -8.9384553E+003
 -1.0184015E+004
 -9.8697358E+003
 -8.9003507E+003
 -8.0026962E+003
 -6.2912978E+003
 -4.2268680E+003
 -2.2068274E+003
 -7.8374962E+002
 -3.2626798E+000
  1.5457138E+002
 -3.8267778E+002
 -1.6585119E+003
 -3.6773083E+003
 -6.3338938E+003
 -9.4416409E+003
 -1.2731855E+004
 -1.5822069E+004
 -1.8229639E+004
 -1.9382488E+004
 -1.8849840E+004
 -1.6438961E+004
 -1.2291560E+004
 -6.8822949E+003
 -8.2329280E+002
  5.2667937E+003
  1.0888824E+004
  1.5732024E+004
  1.9688933E+004
  2.2824799E+004
  2.5317450E+004
  2.7386642E+004
  2.9226356E+004
  3.0950121E+004
  3.2558278E+004
  3.3935216E+004
  3.4881494E+004
  3.5092863E+004
  3.4535468E+004
  3.2836332E+004
  3.0210490E+004
  2.5166581E+004
  4.4832929E+004
  6.2617154E+004
  6.9726002E+004
  6.3825646E+004
  5.5857147E+004
  4.3709789E+004
  2.9261291E+004
  1.3102223E+004
 -4.4459997E+003
 -2.3363537E+004
 -4.4157626E+004
 -6.7685076E+004
 -9.7344814E+004
 -1.3080600E+005
 -1.5736187E+005
 -1.4328031E+005
 -2.5013673E+005
 -1.4490275E+005
 -1.5817713E+004
 -4.7483209E+004
  1.0158628E+003
  2.4041432E+004
 -1.5596309E+003
 -2.6665092E+003
 -1.1282976E+004
  2.0994904E+003
  2.8511223E+002
 -8.7167568E+003
 -9.0005730E+003
 -2.4657472E+003
 -3.7924242E+002
 -3.2135250E+003
 -8.9110964E+003
 -1.2519427E+004
 -1.4460217E+004
 -1.2974340E+004
 -1.1110064E+004
 -1.0127549E+004
 -9.2440812E+003
 -8.1849122E+003
 -6.9409645E+003
 -5.5280086E+003
 -3.8501496E+003
 -2.2971335E+003
 -1.1292719E+003
 -5.2009101E+002
 -5.2972755E+002
 -1.1818557E+003
 -2.4862832E+003
 -4.3871285E+003
 -6.7563493E+003
 -9.3918394E+003
 -1.2026188E+004
 -1.4338742E+004
 -1.5966285E+004
 -1.6558510E+004
 -1.5837464E+004
 -1.3698241E+004
 -1.0251118E+004
 -5.7847290E+003
 -7.0749694E+002
  4.5522700E+003
  9.6267762E+003
  1.4262452E+004
  1.8338225E+004
  2.1852251E+004
  2.4886195E+004
  2.7558122E+004
  2.9973988E+004
  3.2185686E+004
  3.4157806E+004
  3.5752507E+004
  3.6706553E+004
  3.6751138E+004
  3.5442287E+004
  3.3012625E+004
  2.8510754E+004
  3.7779820E+004
 -2.1495472E+004
  1.2345223E+005
  8.4813131E+004
  7.9149555E+004
  6.7230380E+004
  5.2780683E+004
  3.6261094E+004
  1.8316883E+004
 -3.8516290E+002
 -1.9887100E+004
 -4.0640807E+004
 -6.3445772E+004
 -8.8152594E+004
 -1.1039071E+005
 -1.2498503E+005
 -1.3274685E+005
 -1.6227227E+005
 -3.8274965E+004
 -3.9302591E+004
 -2.8517825E+004
  3.3880656E+002
 -1.0169873E+004
 -1.2498247E+003
 -6.9668336E+003
  1.1623863E+003
 -4.7272469E+003
  5.3846391E+002
 -4.3523747E+003
 -6.4095575E+001
 -6.7931125E+003
 -6.6203913E+002
 -7.3012174E+003
 -9.3236399E+003
 -1.8894536E+004
  1.5828581E+002
 -6.4595410E+003
 -8.4232253E+003
 -3.5932713E+003
 -3.0423753E+003
 -4.5075535E+003
 -5.5572244E+003
 -4.4427157E+003
 -3.5908656E+003
 -5.4262904E+003
 -8.5562095E+003
 -1.1840657E+004
 -1.2991942E+004
 -1.2360624E+004
 -1.1088738E+004
 -9.8754911E+003
 -8.8114532E+003
 -7.6681626E+003
 -6.4071580E+003
 -5.0052220E+003
 -3.6038291E+003
 -2.3399548E+003
 -1.4124492E+003
 -9.5993955E+002
 -1.0670963E+003
 -1.7677993E+003
 -3.0413226E+003
 -4.8028980E+003
 -6.8950310E+003
 -9.0961789E+003
 -1.1156925E+004
 -1.2821917E+004
 -1.3846754E+004
 -1.4022475E+004
 -1.3195112E+004
 -1.1306508E+004
 -8.4131976E+003
 -4.6921586E+003
 -4.0105588E+002
  4.1713713E+003
  8.7596151E+003
  1.3161098E+004
  1.7255253E+004
  2.1000977E+004
  2.4416958E+004
  2.7551573E+004
  3.0449340E+004
  3.3118333E+004
  3.5501638E+004
  3.7438388E+004
  3.8638990E+004
  3.8643606E+004
  3.7050690E+004
  3.3623845E+004
  3.0476548E+004
  2.8830123E+004
  6.5474546E+004
  8.5090835E+004
  9.1257647E+004
  7.8607713E+004
  6.2545563E+004
  4.2764888E+004
  2.2622425E+004
  2.7201964E+003
 -1.7300908E+004
 -3.7900154E+004
 -5.9230597E+004
 -8.0501380E+004
 -9.9953423E+004
 -1.1606417E+005
 -1.3123876E+005
 -1.3826396E+005
 -1.0687015E+005
 -4.6162641E+004
 -2.7609865E+004
 -1.6655651E+004
 -1.2454897E+004
 -1.1500629E+004
 -1.2847244E+004
 -2.1070901E+004
 -1.9053808E+004
 -1.0465022E+004
 -6.4123945E+003
 -6.4008248E+003
 -5.8198320E+003
 -4.9295625E+003
 -5.5685421E+003
 -5.8372405E+003
 -5.5363422E+003
 -5.7151346E+003
 -6.8360530E+003
 -8.8273847E+003
 -1.0569050E+004
 -1.1532381E+004
 -1.1438295E+004
 -1.0633721E+004
 -9.5670510E+003
 -8.4079680E+003
 -7.2106932E+003
 -5.9522431E+003
 -4.6687263E+003
 -3.4239707E+003
 -2.3505581E+003
 -1.5807897E+003
 -1.2349433E+003
 -1.3953292E+003
 -2.0987764E+003
 -3.3217167E+003
 -4.9631629E+003
 -6.8284050E+003
 -8.6750364E+003
 -1.0246254E+004
 -1.1348739E+004
 -1.1873467E+004
 -1.1724572E+004
 -1.0845721E+004
 -9.1897918E+003
 -6.7710559E+003
 -3.6676457E+003
 -2.5563550E+001
  3.9708887E+003
  8.1333084E+003
  1.2300742E+004
  1.6358611E+004
  2.0242991E+004
  2.3931746E+004
  2.7426327E+004
  3.0728809E+004
  3.3819141E+004
  3.6630681E+004
  3.9025496E+004
  4.0698542E+004
  4.1072240E+004
  3.9376420E+004
  3.5201637E+004
  2.9226702E+004
  1.4847553E+004
 -5.3009597E+003
 -8.3154595E+003
 -2.8640438E+004
  1.6490194E+005
  1.1090886E+005
  9.6217654E+004
  7.2475391E+004
  4.8135701E+004
  2.6086271E+004
  5.2383090E+003
 -1.5062505E+004
 -3.5282632E+004
 -5.5418812E+004
 -7.4925020E+004
 -9.2833999E+004
 -1.0841102E+005
 -1.1973563E+005
 -1.1586132E+005
 -9.3317900E+004
 -6.9199469E+004
 -4.3919177E+004
 -3.0683560E+004
 -2.3406438E+004
 -2.0445295E+004
 -2.0854877E+004
 -2.0245857E+004
 -1.8823329E+004
 -1.4934180E+004
 -1.1273828E+004
 -9.2672505E+003
 -7.9350637E+003
 -7.2538641E+003
 -6.8701188E+003
 -6.8136013E+003
 -6.8324331E+003
 -7.0850668E+003
 -7.8651282E+003
 -8.9777285E+003
 -1.0060912E+004
 -1.0626915E+004
 -1.0552266E+004
 -9.9571391E+003
 -9.0401808E+003
 -7.9647821E+003
 -6.8006052E+003
 -5.5946340E+003
 -4.3893836E+003
 -3.2609879E+003
 -2.3031786E+003
 -1.6245897E+003
 -1.3255379E+003
 -1.4868708E+003
 -2.1561189E+003
 -3.3277830E+003
 -4.8939157E+003
 -6.6396553E+003
 -8.2123802E+003
 -9.3541515E+003
 -9.9587449E+003
 -1.0002528E+004
 -9.5921755E+003
 -8.7006247E+003
 -7.3003788E+003
 -5.3231727E+003
 -2.7635669E+003
  3.2442993E+002
  3.8326520E+003
  7.6283262E+003
  1.1580859E+004
  1.5581327E+004
  1.9551609E+004
  2.3442963E+004
  2.7225689E+004
  3.0873227E+004
  3.4343786E+004
  3.7570474E+004
  4.0438606E+004
  4.2793315E+004
  4.4018508E+004
  4.2650484E+004
  3.6699980E+004
  2.7658660E+004
  2.1687906E+004
 -5.1460381E+003
  8.5119710E+004
  1.1434765E+005
  1.1409986E+005
  7.9020719E+004
  5.2464654E+004
  2.9017739E+004
  7.7142145E+003
 -1.2661405E+004
 -3.2468572E+004
 -5.1688686E+004
 -6.9901118E+004
 -8.6371384E+004
 -9.9800473E+004
 -1.0697709E+005
 -1.0535687E+005
 -9.3242267E+004
 -7.3521141E+004
 -5.6189087E+004
 -4.2416869E+004
 -3.3906501E+004
 -2.9175688E+004
 -2.6555116E+004
 -2.4974932E+004
 -2.2258381E+004
 -1.8681495E+004
 -1.5318011E+004
 -1.2693127E+004
 -1.0924695E+004
 -9.6842035E+003
 -8.9318059E+003
 -8.4581671E+003
 -8.2326630E+003
 -8.2978029E+003
 -8.6548695E+003
 -9.2132715E+003
 -9.7218742E+003
 -9.9664603E+003
 -9.8176026E+003
 -9.2904343E+003
 -8.4824389E+003
 -7.4930646E+003
 -6.4018426E+003
 -5.2641546E+003
 -4.1364948E+003
 -3.0846386E+003
 -2.1911832E+003
 -1.5460434E+003
 -1.2387152E+003
 -1.3481261E+003
 -1.9385327E+003
 -3.0423282E+003
 -4.6163858E+003
 -6.3546260E+003
 -7.8698652E+003
 -8.6387934E+003
 -8.5906503E+003
 -8.1885646E+003
 -7.5041859E+003
 -6.7062650E+003
 -5.6079447E+003
 -4.0865460E+003
 -2.0306536E+003
  5.7220876E+002
  3.6668020E+003
  7.1562337E+003
  1.0928275E+004
  1.4875836E+004
  1.8909952E+004
  2.2964317E+004
  2.6990444E+004
  3.0944323E+004
  3.4769487E+004
  3.8377780E+004
  4.1679487E+004
  4.4551347E+004
  4.7134722E+004
  4.7627106E+004
  4.2044243E+004
  2.4770007E+004
  9.6848524E+003
 -4.8168316E+004
  2.3854017E+005
  1.2862049E+005
  8.5520324E+004
  5.6344823E+004
  3.2347650E+004
  1.0700135E+004
 -9.6997573E+003
 -2.9163303E+004
 -4.7610988E+004
 -6.4642960E+004
 -7.9494639E+004
 -9.0807824E+004
 -9.6927861E+004
 -9.5930432E+004
 -8.8032098E+004
 -7.6075980E+004
 -6.2655664E+004
 -5.1250368E+004
 -4.2629534E+004
 -3.6722559E+004
 -3.2685914E+004
 -2.9319578E+004
 -2.6072814E+004
 -2.2645994E+004
 -1.9308769E+004
 -1.6458255E+004
 -1.4179874E+004
 -1.2476283E+004
 -1.1214451E+004
 -1.0328033E+004
 -9.7497251E+003
 -9.4493445E+003
 -9.3921636E+003
 -9.4787891E+003
 -9.5702593E+003
 -9.5167436E+003
 -9.2302489E+003
 -8.6934504E+003
 -7.9411992E+003
 -7.0307295E+003
 -6.0173644E+003
 -4.9528914E+003
 -3.8893848E+003
 -2.8879614E+003
 -2.0201295E+003
 -1.3661268E+003
 -1.0070877E+003
 -1.0210518E+003
 -1.4775258E+003
 -2.4592114E+003
 -4.0353002E+003
 -6.1099019E+003
 -7.5769867E+003
 -7.8057779E+003
 -7.3106657E+003
 -6.1868216E+003
 -5.4592033E+003
 -4.7980747E+003
 -4.1410460E+003
 -3.1036841E+003
 -1.5223073E+003
  6.5724359E+002
  3.4091834E+003
  6.6572689E+003
  1.0297006E+004
  1.4216492E+004
  1.8315531E+004
  2.2516057E+004
  2.6762001E+004
  3.1007588E+004
  3.5194186E+004
  3.9221136E+004
  4.2914683E+004
  4.6198129E+004
  4.9063272E+004
  5.3048807E+004
  4.3042855E+004
  1.8412151E+004
  2.1395087E+003
  2.5712247E+005
  1.2603611E+005
  9.2999271E+004
  6.0532297E+004
  3.6804601E+004
  1.4507114E+004
 -6.0192209E+003
 -2.5276953E+004
 -4.3067376E+004
 -5.9051721E+004
 -7.2559278E+004
 -8.2656752E+004
 -8.8222904E+004
 -8.8628053E+004
 -8.4060589E+004
 -7.5833088E+004
 -6.6272984E+004
 -5.7020185E+004
 -4.9223133E+004
 -4.3066755E+004
 -3.8209072E+004
 -3.4142462E+004
 -3.0352780E+004
 -2.6691040E+004
 -2.3242300E+004
 -2.0148766E+004
 -1.7522675E+004
 -1.5364412E+004
 -1.3646549E+004
 -1.2307874E+004
 -1.1302901E+004
 -1.0588601E+004
 -1.0108839E+004
 -9.7847025E+003
 -9.5133291E+003
 -9.1967697E+003
 -8.7626699E+003
 -8.1792796E+003
 -7.4499155E+003
 -6.5980106E+003
 -5.6557516E+003
 -4.6587005E+003
 -3.6483396E+003
 -2.6759865E+003
 -1.8061937E+003
 -1.1141535E+003
 -6.8080762E+002
 -5.7879336E+002
 -8.8081589E+002
 -1.6517661E+003
 -3.0802879E+003
 -5.5039192E+003
 -8.3315350E+003
 -8.0450296E+003
 -5.2414359E+003
 -4.1864477E+003
 -3.2202144E+003
 -3.1385801E+003
 -2.9885411E+003
 -2.4294349E+003
 -1.2791208E+003
  5.3950712E+002
  3.0208805E+003
  6.0995846E+003
  9.6677500E+003
  1.3600695E+004
  1.7782359E+004
  2.2125976E+004
  2.6578497E+004
  3.1112909E+004
  3.5697440E+004
  4.0274413E+004
  4.4597134E+004
  4.8466076E+004
  5.1558875E+004
  5.8971675E+004
  8.6871381E+004
 -7.0984148E+003
  1.5859004E+005
  1.3701174E+005
  9.4148600E+004
  6.6924043E+004
  4.1727217E+004
  1.9050637E+004
 -1.8827664E+003
 -2.0982898E+004
 -3.8228688E+004
 -5.3353212E+004
 -6.5900269E+004
 -7.5248035E+004
 -8.0811598E+004
 -8.2267845E+004
 -7.9913900E+004
 -7.4700465E+004
 -6.7854993E+004
 -6.0672354E+004
 -5.3975192E+004
 -4.8131717E+004
 -4.3108828E+004
 -3.8664656E+004
 -3.4578358E+004
 -3.0718776E+004
 -2.7087258E+004
 -2.3758467E+004
 -2.0795960E+004
 -1.8235101E+004
 -1.6069905E+004
 -1.4279792E+004
 -1.2832241E+004
 -1.1688629E+004
 -1.0799074E+004
 -1.0097580E+004
 -9.5077763E+003
 -8.9535584E+003
 -8.3741029E+003
 -7.7308341E+003
 -7.0068518E+003
 -6.2011662E+003
 -5.3224437E+003
 -4.3867271E+003
 -3.4191740E+003
 -2.4592364E+003
 -1.5651472E+003
 -8.1616999E+002
 -2.9983943E+002
 -1.0531338E+002
 -2.8854590E+002
 -9.1551745E+002
 -2.0867014E+003
 -4.1337874E+003
 -9.1427087E+003
 -3.3241569E+003
 -3.0053790E+003
 -2.2209291E+003
 -1.4719565E+003
 -1.9141776E+003
 -2.2265311E+003
 -2.1066605E+003
 -1.3074303E+003
  2.2059854E+002
  2.4963487E+003
  5.4768456E+003
  9.0468782E+003
  1.3049108E+004
  1.7341881E+004
  2.1829774E+004
  2.6472568E+004
  3.1273563E+004
  3.6284010E+004
  4.1491190E+004
  4.7010759E+004
  5.1810290E+004
  5.6916292E+004
  5.6841212E+004
  9.7672923E+004
  1.3449609E+005
  1.1413551E+005
  9.7159784E+004
  7.1683546E+004
  4.6782441E+004
  2.3317823E+004
  2.2306514E+003
 -1.6671208E+004
 -3.3383504E+004
 -4.7801906E+004
 -5.9655826E+004
 -6.8594320E+004
 -7.4305070E+004
 -7.6701211E+004
 -7.6035691E+004
 -7.2924040E+004
 -6.8235418E+004
 -6.2806255E+004
 -5.7298148E+004
 -5.2077787E+004
 -4.7257434E+004
 -4.2793352E+004
 -3.8587863E+004
 -3.4582266E+004
 -3.0775867E+004
 -2.7208347E+004
 -2.3932630E+004
 -2.0988020E+004
 -1.8396741E+004
 -1.6161948E+004
 -1.4273386E+004
 -1.2707256E+004
 -1.1425565E+004
 -1.0376865E+004
 -9.5001792E+003
 -8.7332727E+003
 -8.0205404E+003
 -7.3183983E+003
 -6.5959830E+003
 -5.8326967E+003
 -5.0156185E+003
 -4.1391760E+003
 -3.2084765E+003
 -2.2465492E+003
 -1.3062158E+003
 -4.7365978E+002
  1.2122750E+002
  3.8054431E+002
  1.6578031E+002
 -3.9641749E+002
 -1.9724716E+003
 -3.4421908E+003
 -1.6585733E+004
 -2.0122325E+003
  2.7449946E+001
 -2.2368614E+003
 -6.1311008E+002
 -1.3687128E+003
 -1.8910630E+003
 -1.9650684E+003
 -1.5035288E+003
 -2.7682069E+002
  1.8400755E+003
  4.8052358E+003
  8.4636084E+003
  1.2604678E+004
  1.7042938E+004
  2.1672976E+004
  2.6474024E+004
  3.1493491E+004
  3.6833344E+004
  4.2715930E+004
  4.9206145E+004
  5.6863990E+004
  6.2479131E+004
  6.6919910E+004
  5.2076677E+004
  9.7198726E+004
  1.0717603E+005
  9.8069794E+004
  7.5553519E+004
  4.9856025E+004
  2.6566421E+004
  5.7027999E+003
 -1.2707144E+004
 -2.8803553E+004
 -4.2572716E+004
 -5.3894567E+004
 -6.2589558E+004
 -6.8519774E+004
 -7.1687452E+004
 -7.2313914E+004
 -7.0840025E+004
 -6.7840675E+004
 -6.3915819E+004
 -5.9559049E+004
 -5.5102130E+004
 -5.0711423E+004
 -4.6434815E+004
 -4.2267683E+004
 -3.8201501E+004
 -3.4251888E+004
 -3.0460094E+004
 -2.6879668E+004
 -2.3564109E+004
 -2.0556631E+004
 -1.7886637E+004
 -1.5566899E+004
 -1.3592610E+004
 -1.1941079E+004
 -1.0573548E+004
 -9.4399706E+003
 -8.4854551E+003
 -7.6566688E+003
 -6.9057066E+003
 -6.1908282E+003
 -5.4751315E+003
 -4.7252730E+003
 -3.9126452E+003
 -3.0187976E+003
 -2.0443346E+003
 -1.0258369E+003
 -6.9872688E+001
  6.6774134E+002
  9.5000969E+002
  6.8345211E+002
 -2.4232841E+002
 -1.8041044E+003
 -3.3765594E+003
 -7.4542530E+003
  3.9605220E+002
  1.9010339E+003
 -6.2275190E+002
 -1.2547780E+003
 -1.9366361E+003
 -1.8255731E+003
 -7.7966919E+002
  1.1268082E+003
  4.0972147E+003
  7.9644312E+003
  1.2336760E+004
  1.6941911E+004
  2.1707160E+004
  2.6629899E+004
  3.1781684E+004
  3.7324852E+004
  4.3520416E+004
  5.0905671E+004
  5.9600187E+004
  7.0036767E+004
  5.9890071E+004
  1.3392373E+004
  2.4561881E+004
  9.5777400E+004
  1.0037673E+005
  7.5357673E+004
  5.0758035E+004
  2.8268203E+004
  8.2842580E+003
 -9.3042782E+003
 -2.4633766E+004
 -3.7750079E+004
 -4.8613257E+004
 -5.7145206E+004
 -6.3296281E+004
 -6.7111575E+004
 -6.8770521E+004
 -6.8586999E+004
 -6.6966851E+004
 -6.4331954E+004
 -6.1054042E+004
 -5.7408272E+004
 -5.3565876E+004
 -4.9615520E+004
 -4.5598407E+004
 -4.1543284E+004
 -3.7487893E+004
 -3.3486421E+004
 -2.9606648E+004
 -2.5921405E+004
 -2.2499791E+004
 -1.9398839E+004
 -1.6657368E+004
 -1.4291729E+004
 -1.2294692E+004
 -1.0637953E+004
 -9.2778097E+003
 -8.1624977E+003
 -7.2385634E+003
 -6.4542228E+003
 -5.7593765E+003
 -5.1033908E+003
 -4.4334845E+003
 -3.6963140E+003
 -2.8449338E+003
 -1.8537189E+003
 -7.2854227E+002
  4.5307342E+002
  1.3792217E+003
  1.7488724E+003
  1.3147544E+003
  3.0584577E+002
 -1.2243366E+003
 -6.3670353E+003
 -4.4617233E+002
 -4.6188474E+002
 -1.0178943E+003
 -1.6754854E+003
 -1.3262009E+003
  1.1939346E+002
  3.3406106E+003
  7.6777413E+003
  1.2295689E+004
  1.7090158E+004
  2.1975813E+004
  2.6994826E+004
  3.2221312E+004
  3.7814725E+004
  4.4065944E+004
  5.1606360E+004
  6.1449389E+004
  7.6244139E+004
  1.0682698E+005
 -2.2265315E+004
 -2.9499584E+004
  1.6350587E+005
  1.0477016E+005
  7.3935907E+004
  5.0176559E+004
  2.8798446E+004
  1.0090413E+004
 -6.4328074E+003
 -2.0878408E+004
 -3.3325647E+004
 -4.3765316E+004
 -5.2167252E+004
 -5.8521545E+004
 -6.2881395E+004
 -6.5387140E+004
 -6.6264804E+004
 -6.5798592E+004
 -6.4289319E+004
 -6.2010170E+004
 -5.9177724E+004
 -5.5942638E+004
 -5.2399582E+004
 -4.8608773E+004
 -4.4619146E+004
 -4.0486640E+004
 -3.6283564E+004
 -3.2099114E+004
 -2.8033399E+004
 -2.4187294E+004
 -2.0650975E+004
 -1.7492961E+004
 -1.4752464E+004
 -1.2436567E+004
 -1.0523307E+004
 -8.9699089E+003
 -7.7229566E+003
 -6.7267079E+003
 -5.9266924E+003
 -5.2673414E+003
 -4.6873126E+003
 -4.1155876E+003
 -3.4719380E+003
 -2.6742779E+003
 -1.6578527E+003
 -4.1456047E+002
  1.0529583E+003
  2.6490851E+003
  3.3743437E+003
  2.5022621E+003
  1.3133279E+003
 -1.8878790E+003
 -1.8929310E+002
 -1.9053949E+002
 -2.3805771E+003
 -4.5400216E+002
 -1.2329545E+003
  2.9311978E+003
  7.5275415E+003
  1.2543597E+004
  1.7478744E+004
  2.2493511E+004
  2.7612853E+004
  3.2913920E+004
  3.8497732E+004
  4.4718984E+004
  5.1826757E+004
  6.2600081E+004
  7.6925500E+004
  1.2704074E+005
  1.8680927E+005
  9.8014603E+004
  7.4802859E+004
  4.8407720E+004
  2.8980027E+004
  1.1412015E+004
 -3.9008309E+003
 -1.7446615E+004
 -2.9231357E+004
 -3.9278952E+004
 -4.7569371E+004
 -5.4105574E+004
 -5.8932827E+004
 -6.2154809E+004
 -6.3931021E+004
 -6.4459808E+004
 -6.3951252E+004
 -6.2600029E+004
 -6.0565471E+004
 -5.7964480E+004
 -5.4877198E+004
 -5.1361792E+004
 -4.7472922E+004
 -4.3278084E+004
 -3.8867909E+004
 -3.4358297E+004
 -2.9884337E+004
 -2.5587565E+004
 -2.1599126E+004
 -1.8023265E+004
 -1.4924043E+004
 -1.2320173E+004
 -1.0189636E+004
 -8.4821472E+003
 -7.1358018E+003
 -6.0903875E+003
 -5.2906373E+003
 -4.6812317E+003
 -4.1945657E+003
 -3.7424348E+003
 -3.2156001E+003
 -2.4904238E+003
 -1.4388675E+003
  5.4142136E+000
  1.7114082E+003
  3.7078596E+003
  4.9669039E+003
  3.8384737E+003
  1.1711906E+003
 -1.3352189E+003
  1.0765411E+002
 -4.1843359E+003
  2.0011177E+003
  7.7565901E+003
  1.2938702E+004
  1.8054778E+004
  2.3223930E+004
  2.8488593E+004
  3.3897060E+004
  3.9542474E+004
  4.5674352E+004
  5.2593986E+004
  6.2183158E+004
  7.6542679E+004
  1.1352920E+005
  1.1956940E+005
  1.0862011E+005
  6.9396886E+004
  4.7670465E+004
  2.8632389E+004
  1.2686668E+004
 -1.5628393E+003
 -1.4214302E+004
 -2.5389833E+004
 -3.5081468E+004
 -4.3278751E+004
 -4.9980312E+004
 -5.5217744E+004
 -5.9062329E+004
 -6.1622728E+004
 -6.3032678E+004
 -6.3433147E+004
 -6.2953873E+004
 -6.1700010E+004
 -5.9747347E+004
 -5.7147292E+004
 -5.3940036E+004
 -5.0172250E+004
 -4.5914654E+004
 -4.1274420E+004
 -3.6398634E+004
 -3.1466533E+004
 -2.6671799E+004
 -2.2198848E+004
 -1.8195882E+004
 -1.4755243E+004
 -1.1903589E+004
 -9.6073870E+003
 -7.7955719E+003
 -6.3870244E+003
 -5.3128257E+003
 -4.5242863E+003
 -3.9739872E+003
 -3.5953081E+003
 -3.2855383E+003
 -2.9023613E+003
 -2.2731960E+003
 -1.2111721E+003
  5.4679037E+002
  3.0029624E+003
  5.9935369E+003
  1.4049239E+004
  5.5081882E+002
 -3.2449891E+003
  8.5148268E+002
  7.9451097E+003
  1.3357813E+004
  1.8721042E+004
  2.4118920E+004
  2.9567667E+004
  3.5111317E+004
  4.0852662E+004
  4.6933910E+004
  5.3639191E+004
  6.1091453E+004
  7.0570172E+004
  8.4096902E+004
  1.4392521E+005
  8.4119807E+004
  6.6300298E+004
  4.4671198E+004
  2.8552081E+004
  1.3823090E+004
  7.2956136E+002
 -1.1128175E+004
 -2.1743281E+004
 -3.1122908E+004
 -3.9243512E+004
 -4.6098094E+004
 -5.1702377E+004
 -5.6100703E+004
 -5.9362261E+004
 -6.1571625E+004
 -6.2815369E+004
 -6.3168630E+004
 -6.2685333E+004
 -6.1395324E+004
 -5.9310171E+004
 -5.6437548E+004
 -5.2802003E+004
 -4.8467311E+004
 -4.3554092E+004
 -3.8245172E+004
 -3.2776181E+004
 -2.7410195E+004
 -2.2399815E+004
 -1.7952692E+004
 -1.4193825E+004
 -1.1150043E+004
 -8.7623152E+003
 -6.9147667E+003
 -5.4874095E+003
 -4.4002983E+003
 -3.6160323E+003
 -3.1224874E+003
 -2.8667877E+003
 -2.7236767E+003
 -2.5128945E+003
 -2.0131829E+003
 -9.5212681E+002
  9.1553458E+002
  4.4270727E+003
  6.7735767E+003
  9.1898955E+003
  2.4460559E+003
  8.4273790E+003
  1.3724396E+004
  1.9501083E+004
  2.5143573E+004
  3.0772957E+004
  3.6407669E+004
  4.2156396E+004
  4.8098680E+004
  5.4334664E+004
  5.9785869E+004
  6.2358538E+004
  4.3054117E+004
  2.2308677E+003
 -2.0784397E+004
  1.0102033E+005
  7.5994549E+004
  5.6777086E+004
  4.2359610E+004
  2.7990580E+004
  1.4986766E+004
  2.9101230E+003
 -8.1754777E+003
 -1.8285421E+004
 -2.7382140E+004
 -3.5436661E+004
 -4.2430384E+004
 -4.8364933E+004
 -5.3262534E+004
 -5.7162084E+004
 -6.0110473E+004
 -6.2151269E+004
 -6.3313273E+004
 -6.3602091E+004
 -6.2997882E+004
 -6.1462028E+004
 -5.8954373E+004
 -5.5460220E+004
 -5.1022787E+004
 -4.5770616E+004
 -3.9930549E+004
 -3.3811008E+004
 -2.7764195E+004
 -2.2141680E+004
 -1.7222233E+004
 -1.3175893E+004
 -1.0028243E+004
 -7.6578819E+003
 -5.8746983E+003
 -4.4879230E+003
 -3.3849939E+003
 -2.5876183E+003
 -2.1341024E+003
 -2.0043552E+003
 -2.0662042E+003
 -2.0536554E+003
 -1.6931991E+003
 -6.9281603E+002
  1.4106470E+003
  5.2798389E+003
  1.7191336E+004
 -2.6802373E+003
  4.5246129E+003
  8.2577132E+003
  1.4441970E+004
  2.0431476E+004
  2.6319681E+004
  3.2039560E+004
  3.7650566E+004
  4.3193409E+004
  4.8745593E+004
  5.4051530E+004
  5.8753122E+004
  5.7585503E+004
  4.4755688E+004
  1.9666124E+004
  2.0341380E+003
  1.3106082E+003
  1.0652124E+004
 -1.0231085E+004
  4.7209784E+004
  5.9605192E+004
  5.0385025E+004
  3.9182378E+004
  2.7446052E+004
  1.5926503E+004
  4.9288396E+003
 -5.4217327E+003
 -1.5041217E+004
 -2.3867182E+004
 -3.1851817E+004
 -3.8964537E+004
 -4.5193056E+004
 -5.0541835E+004
 -5.5026800E+004
 -5.8666600E+004
 -6.1471440E+004
 -6.3431452E+004
 -6.4507344E+004
 -6.4626794E+004
 -6.3690615E+004
 -6.1592668E+004
 -5.8256206E+004
 -5.3682588E+004
 -4.8001396E+004
 -4.1488210E+004
 -3.4555401E+004
 -2.7688586E+004
 -2.1342999E+004
 -1.5924494E+004
 -1.1651901E+004
 -8.5120981E+003
 -6.3282108E+003
 -4.7584670E+003
 -3.4852602E+003
 -2.3588121E+003
 -1.4236739E+003
 -9.5528784E+002
 -1.0147857E+003
 -1.3297207E+003
 -1.6026321E+003
 -1.3649405E+003
 -4.5045761E+002
  1.8149403E+003
  4.8364543E+003
  1.5642188E+004
  2.9425952E+003
  9.4349408E+003
  1.5381720E+004
  2.1676247E+004
  2.7632385E+004
  3.3360533E+004
  3.8804795E+004
  4.3952556E+004
  4.8728119E+004
  5.3011527E+004
  5.6005064E+004
  5.6273731E+004
  3.9805981E+004
  3.0260619E+003
 -1.1216412E+003
 -6.1362464E+001
  5.2765886E+003
  2.1967278E+004
  4.1074201E+004
  4.7721348E+004
  4.4323243E+004
  3.6080935E+004
  2.6563342E+004
  1.6578258E+004
  6.6621093E+003
 -2.9346102E+003
 -1.2055493E+004
 -2.0599306E+004
 -2.8495598E+004
 -3.5698104E+004
 -4.2180676E+004
 -4.7933100E+004
 -5.2954451E+004
 -5.7243460E+004
 -6.0786198E+004
 -6.3542410E+004
 -6.5432934E+004
 -6.6332012E+004
 -6.6069949E+004
 -6.4453167E+004
 -6.1309539E+004
 -5.6563615E+004
 -5.0320770E+004
 -4.2946756E+004
 -3.4992885E+004
 -2.7090268E+004
 -1.9917174E+004
 -1.3937298E+004
 -9.4922942E+003
 -6.5967330E+003
 -4.7971874E+003
 -3.6689394E+003
 -2.6623677E+003
 -1.4249252E+003
 -3.1510045E+002
  1.7979067E+002
  6.7805118E+000
 -6.9911156E+002
 -1.2132328E+003
 -1.2000760E+003
 -2.2317064E+002
  1.6092974E+003
  5.0793012E+003
  6.4317582E+003
  1.0819289E+003
  1.0018901E+004
  1.6744129E+004
  2.3069304E+004
  2.9086693E+004
  3.4752761E+004
  3.9980962E+004
  4.4650840E+004
  4.8581501E+004
  5.1730067E+004
  5.3820714E+004
  5.7795715E+004
  7.0982098E+004
 -1.5702680E+004
  1.7178973E+003
  1.1024985E+004
  2.1044978E+004
  3.1975361E+004
  3.8415412E+004
  3.7914401E+004
  3.2781382E+004
  2.5306419E+004
  1.6862712E+004
  8.0495840E+003
 -7.6456935E+002
 -9.3620353E+003
 -1.7598669E+004
 -2.5377363E+004
 -3.2633033E+004
 -3.9325087E+004
 -4.5430912E+004
 -5.0937993E+004
 -5.5833081E+004
 -6.0087864E+004
 -6.3641670E+004
 -6.6383436E+004
 -6.8136550E+004
 -6.8653176E+004
 -6.7629063E+004
 -6.4752310E+004
 -5.9808448E+004
 -5.2851083E+004
 -4.4278887E+004
 -3.4968649E+004
 -2.5919666E+004
 -1.7715004E+004
 -1.1222766E+004
 -6.9032657E+003
 -4.3459963E+003
 -3.2305218E+003
 -2.7038801E+003
 -2.2486841E+003
 -9.0989381E+002
  1.2845763E+003
  1.9786795E+003
  1.0254693E+003
 -4.5832970E+000
 -1.1925394E+003
 -1.2014764E+003
 -2.9077365E+002
  1.3350463E+003
  2.8523594E+003
  3.7039903E+003
 -5.9410685E+003
 -5.4142380E+003
  2.6624640E+003
  1.1112683E+004
  1.8073135E+004
  2.4558859E+004
  3.0620808E+004
  3.6255798E+004
  4.1335534E+004
  4.5627559E+004
  4.8980715E+004
  5.0968632E+004
  5.3585176E+004
  5.4732297E+004
  8.6476773E+004
  5.8718773E+003
  1.1917573E+004
  2.0324919E+004
  2.7945303E+004
  3.2299549E+004
  3.2668332E+004
  2.9455197E+004
  2.3838643E+004
  1.6829184E+004
  9.1085643E+003
  1.0861439E+003
 -6.9677165E+003
 -1.4872040E+004
 -2.2501714E+004
 -2.9771370E+004
 -3.6625487E+004
 -4.3030873E+004
 -4.8968116E+004
 -5.4419859E+004
 -5.9354347E+004
 -6.3703378E+004
 -6.7335690E+004
 -7.0031874E+004
 -7.1464638E+004
 -7.1195875E+004
 -6.8723281E+004
 -6.3582306E+004
 -5.5596565E+004
 -4.5462150E+004
 -3.4394334E+004
 -2.3750789E+004
 -1.4775522E+004
 -7.4012150E+003
 -3.1090027E+003
 -2.0716175E+003
 -1.5624392E+003
 -1.6004273E+003
 -1.8706166E+003
 -1.6399845E+003
  2.3608330E+003
  4.9374835E+002
  3.8959036E+002
  4.5792221E+002
 -1.3615504E+003
 -1.1781469E+003
 -3.6594788E+002
  6.6543762E+002
  1.5743486E+003
  1.2835512E+003
 -4.9684276E+003
 -6.7026368E+003
 -2.8707227E+003
  4.5192011E+003
  1.2126925E+004
  1.9440676E+004
  2.6054067E+004
  3.2203079E+004
  3.7873886E+004
  4.2942109E+004
  4.7158898E+004
  5.0127843E+004
  5.1819396E+004
  5.2310523E+004
  5.7053770E+004
  5.8773155E+004
  6.5423477E+003
  1.2549008E+004
  1.8989845E+004
  2.4480931E+004
  2.7964696E+004
  2.8680530E+004
  2.6635263E+004
  2.2395379E+004
  1.6637852E+004
  9.9235622E+003
  2.6646156E+003
 -4.8488572E+003
 -1.2408616E+004
 -1.9865411E+004
 -2.7113878E+004
 -3.4083668E+004
 -4.0732486E+004
 -4.7038098E+004
 -5.2986732E+004
 -5.8555343E+004
 -6.3685109E+004
 -6.8243601E+004
 -7.1978941E+004
 -7.4491771E+004
 -7.5206840E+004
 -7.3351690E+004
 -6.8170768E+004
 -5.9154122E+004
 -4.6178122E+004
 -3.1838487E+004
 -2.0418291E+004
 -1.1302220E+004
 -2.9996975E+003
 -1.9566824E+003
 -1.0334212E+003
 -9.5743584E+002
 -1.0356993E+003
 -1.0960920E+003
 -1.2800512E+003
  8.6557892E+003
  2.3290845E+003
  1.6155573E+003
  3.1005282E+003
 -9.4304684E+002
 -7.1584506E+002
 -3.2776787E+002
  2.6450584E+002
  5.8269912E+002
  2.5715602E+002
 -2.1446767E+003
 -2.9325201E+003
 -9.3397700E+003
 -1.1104415E+003
  6.0775679E+003
  1.3824298E+004
  2.0928307E+004
  2.7599935E+004
  3.3795181E+004
  3.9543861E+004
  4.4751304E+004
  4.9148328E+004
  5.2251051E+004
  5.3301039E+004
  5.2602665E+004
  4.9554361E+004
  4.9409805E+004
  1.3294439E+003
  1.1223337E+004
  1.7436283E+004
  2.1865636E+004
  2.4874100E+004
  2.5765692E+004
  2.4451549E+004
  2.1207662E+004
  1.6454040E+004
  1.0613667E+004
  4.0469864E+003
 -2.9587236E+003
 -1.0183198E+004
 -1.7458723E+004
 -2.4661547E+004
 -3.1706726E+004
 -3.8543810E+004
 -4.5150806E+004
 -5.1524219E+004
 -5.7662271E+004
 -6.3536063E+004
 -6.9042910E+004
 -7.3929199E+004
 -7.7699248E+004
 -7.9655951E+004
 -7.8824675E+004
 -7.3496412E+004
 -6.2430087E+004
 -4.6924007E+004
 -2.9123352E+004
 -1.1961349E+004
 -5.8442308E+003
  4.3948337E+003
  2.3009479E+003
  1.5442474E+003
  1.3006989E+003
  7.9127574E+002
  3.3008975E+002
 -3.6899461E+003
  3.4475485E+003
 -9.0080276E+002
 -8.9594618E+001
 -1.6248799E+002
 -1.1169965E+002
  1.9793748E+001
 -8.1523730E+001
  7.1786718E+001
 -2.7964749E+004
 -6.3420244E+003
  3.2768862E+002
  8.6020694E+003
  1.5695026E+004
  2.2647825E+004
  2.9170395E+004
  3.5356212E+004
  4.1171799E+004
  4.6536167E+004
  5.1327303E+004
  5.4942773E+004
  5.5904854E+004
  5.1563227E+004
  4.3598659E+004
  3.4648187E+004
 -2.8737169E+003
  1.6409703E+004
  1.5860201E+004
  1.9714885E+004
  2.2619136E+004
  2.3667972E+004
  2.2869309E+004
  2.0371853E+004
  1.6409882E+004
  1.1288084E+004
  5.3170627E+003
 -1.2400658E+003
 -8.1627155E+003
 -1.5269444E+004
 -2.2418703E+004
 -2.9510672E+004
 -3.6486808E+004
 -4.3326832E+004
 -5.0042114E+004
 -5.6662401E+004
 -6.3211211E+004
 -6.9654321E+004
 -7.5813314E+004
 -8.1152908E+004
 -8.4562498E+004
 -8.5038481E+004
 -8.1580282E+004
 -6.9835330E+004
 -4.6252696E+004
 -1.1753399E+004
 -7.6005479E+003
 -2.6985875E+003
  2.0711994E+003
 -7.5672767E+002
  5.7174882E+002
  1.7549557E+002
  7.0039619E+001
 -5.6064937E+001
 -2.6316621E+002
 -2.9750250E+004
 -6.8677185E+003
  3.3315824E+003
  1.0795944E+004
  1.7764422E+004
  2.4362421E+004
  3.0719197E+004
  3.6834376E+004
  4.2683373E+004
  4.8182174E+004
  5.3122449E+004
  5.7653868E+004
  5.9997715E+004
  5.5244977E+004
  3.6677273E+004
  7.5421641E+003
  8.4380747E+003
  1.3237851E+004
  1.8717885E+004
  2.1159173E+004
  2.2175137E+004
  2.1822805E+004
  1.9937198E+004
  1.6573195E+004
  1.2028584E+004
  6.5521207E+003
  3.6635192E+002
 -6.3126811E+003
 -1.3287042E+004
 -2.0395816E+004
 -2.7523127E+004
 -3.4601307E+004
 -4.1611529E+004
 -4.8581237E+004
 -5.5577790E+004
 -6.2691589E+004
 -7.0004220E+004
 -7.7485087E+004
 -8.4857739E+004
 -9.0769638E+004
 -9.1926656E+004
 -8.7792742E+004
 -6.9107418E+004
 -4.3672273E+004
 -5.1304441E+003
  1.5545390E+002
  2.5222032E+002
  3.1730059E+001
 -1.0872202E+002
  1.8304922E+001
  1.9695423E+002
  9.1046131E+001
 -2.6369565E+002
 -1.2434936E+002
 -1.1728970E+004
 -1.6438021E+004
 -1.2143784E+004
 -3.5896247E+003
  5.5010640E+003
  1.2893048E+004
  1.9603683E+004
  2.5983431E+004
  3.2161831E+004
  3.8199358E+004
  4.4113867E+004
  4.9753880E+004
  5.4862980E+004
  5.8910368E+004
  6.4133110E+004
  5.4042443E+004
  2.4739313E+004
  4.0250262E+003
  7.1013403E+002
  1.1573551E+004
  1.6203073E+004
  1.8997953E+004
  2.0688099E+004
  2.1338086E+004
  1.9872137E+004
  1.6943992E+004
  1.2896673E+004
  7.8298109E+003
  1.9174568E+003
 -4.6013836E+003
 -1.1504811E+004
 -1.8610229E+004
 -2.5783088E+004
 -3.2945083E+004
 -4.0077145E+004
 -4.7221328E+004
 -5.4480713E+004
 -6.2021679E+004
 -7.0048205E+004
 -7.8810744E+004
 -8.8272036E+004
 -9.8603280E+004
 -1.0500684E+005
 -1.0391508E+005
 -1.2615203E+005
 -4.8029100E+003
 -4.3593274E+001
 -9.6020898E+001
  7.0456337E+001
 -9.0271439E+001
  7.6880678E+001
 -2.1233099E+002
 -1.8587095E+004
 -1.7083293E+004
 -1.2754357E+004
 -7.8162301E+003
 -6.1366530E+002
  7.4440332E+003
  1.4689236E+004
  2.1249755E+004
  2.7461394E+004
  3.3488996E+004
  3.9458343E+004
  4.5467023E+004
  5.1555691E+004
  5.7357101E+004
  6.1566198E+004
  6.7042790E+004
  1.0171493E+005
 -4.3189052E+003
  4.8113706E+003
  2.2804715E+004
  1.7497580E+004
  2.1486008E+004
  2.1771548E+004
  1.9899981E+004
  1.7515096E+004
  1.4002013E+004
  9.2245421E+003
  3.4629833E+003
 -2.9995831E+003
 -9.9193137E+003
 -1.7083460E+004
 -2.4336453E+004
 -3.1587673E+004
 -3.8816778E+004
 -4.6076358E+004
 -5.3501441E+004
 -6.1319198E+004
 -6.9888031E+004
 -7.9637069E+004
 -9.1313995E+004
 -1.0463179E+005
 -1.2260898E+005
 -1.0343408E+005
 -6.8816504E+004
 -3.0325092E+001
  7.1182695E+001
 -4.2423512E+000
 -1.9757209E+004
 -1.8057769E+004
 -1.3725472E+004
 -8.4716375E+003
 -3.1840714E+003
  3.0633275E+003
  9.7810702E+003
  1.6494651E+004
  2.2840465E+004
  2.8880567E+004
  3.4759089E+004
  4.0638895E+004
  4.6710341E+004
  5.3358810E+004
  6.0566842E+004
  6.8753532E+004
  6.7608805E+004
  1.0218422E+005
  1.3562336E+004
  6.6853607E+003
  2.1901376E+004
  1.9971439E+004
  1.9790947E+004
  1.8614894E+004
  1.5470367E+004
  1.0790108E+004
  5.0575304E+003
 -1.4791641E+003
 -8.5252365E+003
 -1.5835946E+004
 -2.3226750E+004
 -3.0597476E+004
 -3.7927279E+004
 -4.5276399E+004
 -5.2801458E+004
 -6.0780753E+004
 -6.9692611E+004
 -8.0223496E+004
 -9.3716454E+004
 -1.1130399E+005
 -1.3914189E+005
 -2.0989640E+005
  4.8865986E+004
 -2.1368169E+004
 -1.8647212E+004
 -1.4563811E+004
 -9.5823727E+003
 -4.9799607E+003
  3.3634129E+002
  6.1154035E+003
  1.2277529E+004
  1.8467630E+004
  2.4513904E+004
  3.0362546E+004
  3.6083707E+004
  4.1819718E+004
  4.7855920E+004
  5.4616839E+004
  6.3210746E+004
  7.3653855E+004
  7.3158586E+004
  1.4258332E+004
 -2.9752654E+003
  3.3638858E+003
  3.6173350E+004
  1.9843591E+004
  2.1480840E+004
  2.0560584E+004
  1.7174617E+004
  1.2569651E+004
  6.7470497E+003
  6.8232148E+000
 -7.3143925E+003
 -1.4878736E+004
 -2.2482448E+004
 -3.0023102E+004
 -3.7484674E+004
 -4.4933924E+004
 -5.2530364E+004
 -6.0608591E+004
 -6.9627612E+004
 -8.0852350E+004
 -9.4795481E+004
 -1.1907118E+005
 -1.4207079E+005
 -2.4260027E+005
 -1.8479929E+004
 -2.9194807E+004
 -1.4609957E+004
 -1.0920898E+004
 -6.3745902E+003
 -1.6520277E+003
  3.4669440E+003
  8.9667742E+003
  1.4715834E+004
  2.0553365E+004
  2.6332352E+004
  3.1998997E+004
  3.7574343E+004
  4.3175338E+004
  4.8998386E+004
  5.5740375E+004
  6.4145089E+004
  7.9843777E+004
  1.1717395E+005
 -1.9296156E+004
  1.9986726E+004
  6.8508108E+003
  2.4662992E+004
  2.1761863E+004
  1.9316921E+004
  1.4727231E+004
  8.7181975E+003
  1.4958759E+003
 -6.2672144E+003
 -1.4208202E+004
 -2.2100078E+004
 -2.9872182E+004
 -3.7520333E+004
 -4.5104091E+004
 -5.2790771E+004
 -6.0876656E+004
 -6.9980840E+004
 -8.0854171E+004
 -9.6269919E+004
 -1.1658955E+005
 -1.6334368E+005
 -1.7051358E+005
 -1.0737015E+004
 -1.1822971E+004
 -3.8893062E+003
  9.9162708E+002
 -1.7452537E+004
 -1.1892274E+004
 -8.0973279E+003
 -3.5260113E+003
  1.1495914E+003
  6.2280630E+003
  1.1565523E+004
  1.7095419E+004
  2.2695969E+004
  2.8283898E+004
  3.3812156E+004
  3.9304395E+004
  4.4783060E+004
  5.0576860E+004
  5.6496694E+004
  6.6112889E+004
  7.4396783E+004
  1.3085464E+005
 -5.4867775E+003
  8.2149520E+003
  3.1292954E+004
  2.3857905E+004
  2.1896828E+004
  1.7304758E+004
  1.0980622E+004
  3.0801880E+003
 -5.3944100E+003
 -1.3783334E+004
 -2.2018481E+004
 -3.0099119E+004
 -3.8002647E+004
 -4.5774687E+004
 -5.3555819E+004
 -6.1659672E+004
 -7.0494920E+004
 -8.1194274E+004
 -9.3987213E+004
 -1.1587464E+005
 -1.3421533E+005
 -2.2680342E+005
 -1.2501440E+004
 -2.2341176E+004
 -8.2263914E+003
 -1.0989545E+004
 -1.2575221E+004
 -1.0255475E+004
 -5.7435370E+003
 -1.2219736E+003
  3.6357634E+003
  8.7211182E+003
  1.4007742E+004
  1.9411248E+004
  2.4865219E+004
  3.0319418E+004
  3.5759266E+004
  4.1193981E+004
  4.6699681E+004
  5.2276990E+004
  5.8399232E+004
  6.4684560E+004
  7.8354882E+004
  8.0511802E+004
  2.3155980E+004
  2.6809919E+004
  2.5067496E+004
  2.2328607E+004
  1.4351201E+004
  4.5039640E+003
 -4.6679275E+003
 -1.3445352E+004
 -2.2115933E+004
 -3.0606368E+004
 -3.8850281E+004
 -4.6847973E+004
 -5.4731512E+004
 -6.2753820E+004
 -7.1344498E+004
 -8.0936859E+004
 -9.2674794E+004
 -1.0588238E+005
 -1.2836451E+005
 -1.7507603E+005
 -7.5129088E+003
 -8.8395299E+003
 -3.5215665E+003
  6.5452087E+002
 -1.3412813E+004
 -1.0677965E+004
 -9.5933464E+003
 -9.2659245E+003
 -7.4240103E+003
 -3.6528371E+003
  9.5929607E+002
  5.8984942E+003
  1.1061916E+004
  1.6347186E+004
  2.1685202E+004
  2.7031393E+004
  3.2374766E+004
  3.7726632E+004
  4.3117734E+004
  4.8561057E+004
  5.4166877E+004
  5.9594525E+004
  6.4723215E+004
  6.5689532E+004
  6.7964332E+004
  2.7625476E+004
  2.8851281E+004
  2.5884075E+004
  1.6445496E+004
  5.6679577E+003
 -3.6556345E+003
 -1.2948576E+004
 -2.2220131E+004
 -3.1291212E+004
 -3.9957927E+004
 -4.8188997E+004
 -5.6106443E+004
 -6.3959136E+004
 -7.2065383E+004
 -8.0729576E+004
 -9.0169901E+004
 -9.9825902E+004
 -1.0945490E+005
 -8.4542286E+004
 -2.1294415E+004
  2.2082443E+004
 -8.4847522E+003
 -1.4981338E+004
 -6.7540645E+003
 -9.5422142E+003
 -1.1614963E+004
 -1.0866391E+004
 -9.3879298E+003
 -7.7712917E+003
 -5.1801339E+003
 -1.5032643E+003
  3.0527469E+003
  8.0888451E+003
  1.3341013E+004
  1.8655251E+004
  2.3942104E+004
  2.9175042E+004
  3.4379010E+004
  3.9604401E+004
  4.4876611E+004
  5.0191125E+004
  5.5388344E+004
  6.0609287E+004
  6.3614903E+004
  6.0736277E+004
  4.8430503E+004
  1.8797221E+004
  5.4402666E+004
  2.0069373E+004
  7.9781084E+003
 -1.8639948E+003
 -1.2025538E+004
 -2.2258671E+004
 -3.2097845E+004
 -4.1256417E+004
 -4.9654472E+004
 -5.7458611E+004
 -6.4937403E+004
 -7.2344383E+004
 -7.9830954E+004
 -8.7116910E+004
 -9.3678168E+004
 -9.4065057E+004
 -7.9718521E+004
 -4.0118097E+004
 -1.0755148E+004
 -1.2654170E+003
 -6.9144988E+003
  2.0389155E+003
 -4.5403656E+003
 -1.0544966E+004
  2.3006865E+004
  9.3643178E+003
 -3.7057819E+003
 -5.6511006E+003
 -2.7671026E+003
 -1.1507716E+002
 -1.0042035E+004
 -9.3286605E+003
 -9.5046046E+003
 -1.0265299E+004
 -1.0155497E+004
 -8.6916544E+003
 -6.5080239E+003
 -3.5359042E+003
  3.7070520E+002
  5.0524367E+003
  1.0234626E+004
  1.5624193E+004
  2.0995345E+004
  2.6219600E+004
  3.1291462E+004
  3.6283570E+004
  4.1295814E+004
  4.6392289E+004
  5.1467375E+004
  5.6191047E+004
  5.9967044E+004
  6.3146140E+004
  5.2835424E+004
  1.1338379E+004
  3.4507446E+004
  1.8042927E+004
  1.1863208E+004
  5.5259053E+002
 -1.0704815E+004
 -2.2233722E+004
 -3.3104658E+004
 -4.2741611E+004
 -5.1145654E+004
 -5.8585983E+004
 -6.5414870E+004
 -7.1849298E+004
 -7.7823214E+004
 -8.2866144E+004
 -8.5137172E+004
 -8.0944969E+004
 -6.5630053E+004
 -4.3380476E+004
 -2.3616810E+004
 -1.2512028E+004
 -8.1797673E+003
  4.8134327E+003
  1.2091989E+002
  5.6748582E+003
  1.7617855E+002
  1.6898660E+003
 -1.3276969E+003
  5.9936921E+002
 -2.0040678E+003
 -1.9930486E+002
 -9.0709203E+002
 -6.2502227E+003
  5.1539871E+003
  1.3115612E+004
 -4.0060052E+003
 -6.8203939E+003
 -4.8695469E+003
 -7.5303119E+003
 -9.7133967E+003
 -1.0119317E+004
 -1.0151339E+004
 -1.0117150E+004
 -9.4279521E+003
 -7.9451996E+003
 -5.5470973E+003
 -2.2617016E+003
  1.9131684E+003
  6.8597296E+003
  1.2335837E+004
  1.7976014E+004
  2.3438467E+004
  2.8576376E+004
  3.3400193E+004
  3.8067194E+004
  4.2758737E+004
  4.7598387E+004
  5.2581423E+004
  5.7175355E+004
  6.0020461E+004
  6.1914232E+004
  8.2734358E+004
 -1.4520568E+004
 -1.6898265E+003
  2.5214320E+004
  1.3408870E+004
  3.8467477E+003
 -9.1743273E+003
 -2.2528201E+004
 -3.4487291E+004
 -4.4520160E+004
 -5.2594006E+004
 -5.9343966E+004
 -6.5244488E+004
 -7.0479058E+004
 -7.4843124E+004
 -7.7581685E+004
 -7.7236593E+004
 -7.1804919E+004
 -6.0396501E+004
 -4.4544631E+004
 -2.9551529E+004
 -1.8554754E+004
 -9.0727428E+003
 -2.9370987E+002
  2.8096031E+003
 -6.9349533E+002
 -2.2441530E+003
 -3.9203317E+003
 -3.1194654E+003
  1.8659239E+003
  3.5020983E+004
  1.5822950E+004
 -2.7038849E+002
  1.4810357E+003
 -2.4054983E+003
 -2.6847866E+003
 -6.1340499E+003
 -7.2539813E+003
 -8.1261917E+003
 -9.4166644E+003
 -1.0195709E+004
 -1.0211160E+004
 -9.8323855E+003
 -8.9456896E+003
 -7.2956133E+003
 -4.7915355E+003
 -1.3336126E+003
  3.0675764E+003
  8.4042082E+003
  1.4334453E+004
  2.0396365E+004
  2.6095441E+004
  3.1091958E+004
  3.5547578E+004
  3.9742294E+004
  4.3983254E+004
  4.8475003E+004
  5.3404026E+004
  5.8552246E+004
  6.3461337E+004
  6.0105790E+004
  8.0837986E+004
  1.4086599E+004
  1.9554774E+004
  7.1240166E+003
 -7.3490108E+003
 -2.2670639E+004
 -3.6707222E+004
 -4.6666596E+004
 -5.3931116E+004
 -5.9603195E+004
 -6.4410225E+004
 -6.8405334E+004
 -7.1281298E+004
 -7.2352966E+004
 -7.0623341E+004
 -6.5162509E+004
 -5.5828040E+004
 -4.4124138E+004
 -3.2203980E+004
 -2.1608714E+004
 -1.2732721E+004
 -6.3327284E+003
 -3.3613422E+003
 -2.6638638E+003
 -3.9075963E+003
 -4.5359410E+003
 -3.0959982E+003
  1.5479368E+003
  1.4727720E+004
  3.1441866E+003
  6.9102827E+003
  2.7237118E+003
  1.6389133E+003
  6.4792212E+002
  1.4129337E+003
  3.4032642E+002
  9.3006960E+002
  4.3059543E+001
  9.0618028E+002
 -3.5721904E+001
  7.8506458E+002
 -4.8571416E+002
  1.1925789E+003
 -1.2747032E+003
 -5.1977853E+003
 -6.9619130E+003
 -7.9437022E+003
 -8.7875329E+003
 -9.5254762E+003
 -9.9271743E+003
 -9.9418270E+003
 -9.4788291E+003
 -8.4776913E+003
 -6.8005884E+003
 -4.2669940E+003
 -8.0215723E+002
  3.8190466E+003
  9.4537145E+003
  1.6222988E+004
  2.3190313E+004
  2.9110568E+004
  3.3899210E+004
  3.7770516E+004
  4.1346460E+004
  4.5018552E+004
  4.9071416E+004
  5.3709097E+004
  5.9443474E+004
  6.5948006E+004
  6.1601849E+004
  1.1716286E+004
  1.7085557E+004
  1.4056007E+004
 -3.5992627E+003
 -2.5669301E+004
 -4.0137184E+004
 -4.9286085E+004
 -5.4815222E+004
 -5.9293366E+004
 -6.2994555E+004
 -6.5900916E+004
 -6.7627351E+004
 -6.7624269E+004
 -6.5283460E+004
 -6.0203673E+004
 -5.2546927E+004
 -4.3136561E+004
 -3.3276198E+004
 -2.4056098E+004
 -1.6221118E+004
 -1.0288070E+004
 -6.7454983E+003
 -5.4760082E+003
 -5.0869625E+003
 -4.5499847E+003
 -2.3695977E+003
  3.1195209E+003
  1.0149661E+004
  1.0643075E+004
  4.3141406E+003
  2.5155192E+003
  1.3065084E+003
  7.6172331E+002
  2.7107463E+002
 -2.2876138E+002
 -2.2865708E+003
 -4.8179678E+003
 -6.6786451E+003
 -7.8806843E+003
 -8.6323470E+003
 -9.1691173E+003
 -9.4538591E+003
 -9.3819358E+003
 -8.9093889E+003
 -7.9503284E+003
 -6.3631626E+003
 -3.9573767E+003
 -5.0672241E+002
  3.7244927E+003
  9.8302740E+003
  1.7390171E+004
  2.5790695E+004
  3.2858423E+004
  3.7047823E+004
  4.0075807E+004
  4.2901785E+004
  4.6005070E+004
  4.9535230E+004
  5.3918418E+004
  5.9425268E+004
  7.0066418E+004
  9.7484093E+004
 -1.6507811E+004
  1.4063550E+004
  5.5851518E+003
 -2.4911877E+004
 -4.5809866E+004
 -5.1130155E+004
 -5.5153071E+004
 -5.8371652E+004
 -6.1201733E+004
 -6.3269737E+004
 -6.4202365E+004
 -6.3567964E+004
 -6.1004059E+004
 -5.6354774E+004
 -4.9817895E+004
 -4.1993471E+004
 -3.3696054E+004
 -2.5757982E+004
 -1.8848563E+004
 -1.3483159E+004
 -9.8421312E+003
 -7.6275258E+003
 -6.2407981E+003
 -4.6322464E+003
 -1.8617067E+003
  2.2843602E+003
  5.5487618E+003
  6.0787417E+003
  5.2853652E+003
  3.1311595E+003
  1.9378894E+003
  1.0701215E+003
  3.2823368E+002
 -8.4464563E+002
 -2.3940110E+003
 -4.2879150E+003
 -5.9864411E+003
 -7.1610153E+003
 -7.9621433E+003
 -8.4530079E+003
 -8.6606862E+003
 -8.5635604E+003
 -8.1107403E+003
 -7.2413162E+003
 -5.8573173E+003
 -3.7288487E+003
 -4.9889031E+002
  3.9821642E+003
  7.8470061E+003
  1.8059827E+004
  3.1583792E+004
  3.7796255E+004
  4.0501455E+004
  4.2302273E+004
  4.4501569E+004
  4.7041491E+004
  5.0237646E+004
  5.3889488E+004
  6.0612742E+004
  6.5801794E+004
  1.0836591E+005
  2.2985319E+004
 -5.0373923E+004
 -5.2095466E+004
 -5.2795630E+004
 -5.4791737E+004
 -5.7140282E+004
 -5.9328170E+004
 -6.0821415E+004
 -6.1234366E+004
 -6.0241647E+004
 -5.7629831E+004
 -5.3362152E+004
 -4.7641822E+004
 -4.0907127E+004
 -3.3761264E+004
 -2.6833424E+004
 -2.0678817E+004
 -1.5677172E+004
 -1.1967787E+004
 -9.3649186E+003
 -7.3313177E+003
 -5.2200557E+003
 -2.5332015E+003
  4.9693403E+002
  3.1575886E+003
  4.3930380E+003
  3.9835323E+003
  3.1714336E+003
  2.1754817E+003
  1.3511102E+003
  4.6890096E+002
 -6.0863222E+002
 -2.0244779E+003
 -3.5735092E+003
 -4.9939403E+003
 -6.1331671E+003
 -6.9225334E+003
 -7.4054531E+003
 -7.5975554E+003
 -7.4892544E+003
 -7.0576616E+003
 -6.2632415E+003
 -5.0563237E+003
 -3.2786524E+003
 -5.9486083E+002
  4.0790919E+003
  4.2926472E+003
  8.6850853E+003
  3.4717392E+004
  4.3395009E+004
  4.3632599E+004
  4.4685907E+004
  4.6218966E+004
  4.8291643E+004
  5.0934317E+004
  5.4679279E+004
  5.9231643E+004
  6.9804274E+004
  6.8165781E+004
 -7.5504804E+004
 -5.7756595E+004
 -5.3841644E+004
 -5.4280836E+004
 -5.6051352E+004
 -5.7769351E+004
 -5.8845948E+004
 -5.8897479E+004
 -5.7681638E+004
 -5.5073051E+004
 -5.1093813E+004
 -4.5935763E+004
 -3.9953685E+004
 -3.3611815E+004
 -2.7410085E+004
 -2.1798866E+004
 -1.7105967E+004
 -1.3453317E+004
 -1.0704664E+004
 -8.4767950E+003
 -6.2953935E+003
 -3.8603231E+003
 -1.2602394E+003
  9.1521373E+002
  2.2448227E+003
  2.7104886E+003
  2.4745575E+003
  2.0172206E+003
  1.4373380E+003
  7.2217174E+002
 -2.3181711E+002
 -1.4082735E+003
 -2.7010521E+003
 -3.9322881E+003
 -4.9507525E+003
 -5.6997512E+003
 -6.1625301E+003
 -6.3418483E+003
 -6.2268373E+003
 -5.7942111E+003
 -5.0097647E+003
 -3.8674303E+003
 -2.1441952E+003
  1.9948199E+002
  9.8036465E+003
  1.5869876E+003
 -5.0606290E+003
  7.0987975E+004
  5.1385484E+004
  4.7648677E+004
  4.7551282E+004
  4.8208305E+004
  4.9630177E+004
  5.1749559E+004
  5.4584506E+004
  5.8701794E+004
  6.1544290E+004
  6.2633757E+004
 -9.2708485E+004
 -5.8171852E+004
 -5.5062107E+004
 -5.4171139E+004
 -5.5610194E+004
 -5.6857878E+004
 -5.7566194E+004
 -5.7308329E+004
 -5.5908933E+004
 -5.3284784E+004
 -4.9483539E+004
 -4.4681850E+004
 -3.9176708E+004
 -3.3350215E+004
 -2.7614540E+004
 -2.2353770E+004
 -1.7871901E+004
 -1.4334752E+004
 -1.1685724E+004
 -9.6311827E+003
 -7.6298647E+003
 -5.3764232E+003
 -3.0186187E+003
 -8.4737377E+002
  6.3743191E+002
  1.3759773E+003
  1.6416623E+003
  1.6196446E+003
  1.4387398E+003
  1.0318208E+003
  3.1062716E+002
 -6.7519290E+002
 -1.7843105E+003
 -2.8494531E+003
 -3.7501205E+003
 -4.4207376E+003
 -4.8428339E+003
 -5.0067858E+003
 -4.8868739E+003
 -4.4536199E+003
 -3.6438629E+003
 -2.5123187E+003
 -7.3503003E+002
  5.7658877E+002
  3.2730190E+003
  8.0801984E+004
  5.4571662E+004
  5.3291673E+004
  5.0589622E+004
  5.0438563E+004
  5.0940266E+004
  5.2254852E+004
  5.4165650E+004
  5.6034862E+004
  5.7290116E+004
  5.5105584E+004
 -7.5450436E+004
 -5.9901319E+004
 -5.5294919E+004
 -5.5132894E+004
 -5.5898846E+004
 -5.6761157E+004
 -5.7062456E+004
 -5.6506168E+004
 -5.4913694E+004
 -5.2226186E+004
 -4.8491346E+004
 -4.3867349E+004
 -3.8613503E+004
 -3.3061573E+004
 -2.7570750E+004
 -2.2482072E+004
 -1.8086815E+004
 -1.4640375E+004
 -1.2267071E+004
 -1.0628218E+004
 -9.1935240E+003
 -7.1483025E+003
 -4.4250439E+003
 -2.1806288E+003
 -5.7993726E+002
  2.7588469E+002
  6.5622473E+002
  1.0734757E+003
  1.4279004E+003
  1.3980898E+003
  9.1626858E+002
  6.1760146E+001
 -9.2221440E+002
 -1.8522067E+003
 -2.6224833E+003
 -3.1913626E+003
 -3.5508208E+003
 -3.7019095E+003
 -3.6112476E+003
 -3.1833904E+003
 -2.4170156E+003
 -1.2756675E+003
 -1.8912496E+002
  1.9119642E+003
 -1.0936612E+003
  5.7775363E+004
  6.4219906E+004
  5.6542767E+004
  5.3969697E+004
  5.2308254E+004
  5.2047286E+004
  5.2470847E+004
  5.3226568E+004
  5.3789342E+004
  5.3399655E+004
  5.1090827E+004
  1.6709707E+004
 -5.7060675E+003
 -4.2231568E+004
 -5.5888265E+004
 -5.5908996E+004
 -5.6266677E+004
 -5.6857080E+004
 -5.7339350E+004
 -5.7285062E+004
 -5.6440066E+004
 -5.4648764E+004
 -5.1852607E+004
 -4.8087769E+004
 -4.3491359E+004
 -3.8297531E+004
 -3.2819419E+004
 -2.7398511E+004
 -2.2337353E+004
 -1.7900842E+004
 -1.4347346E+004
 -1.2149498E+004
 -1.1542641E+004
 -1.0646224E+004
 -8.2190105E+003
 -5.5684357E+003
 -2.5509700E+003
 -1.1040295E+003
 -6.4097857E+002
 -1.0537841E+002
  5.0825396E+002
  1.4145839E+003
  1.9146148E+003
  1.5093439E+003
  6.6858883E+002
 -2.3912450E+002
 -1.0327417E+003
 -1.6541439E+003
 -2.0934930E+003
 -2.3684097E+003
 -2.5004080E+003
 -2.4995825E+003
 -2.2291544E+003
 -1.5061705E+003
 -5.7674919E+002
  2.8423021E+002
 -6.3594331E+001
  6.3746515E+004
  6.2214822E+004
  5.9794853E+004
  5.5623558E+004
  5.3687525E+004
  5.2734310E+004
  5.2423273E+004
  5.2259350E+004
  5.1761700E+004
  5.0587222E+004
  4.7863880E+004
 -2.9958509E+004
 -4.3829938E+004
 -5.2451741E+004
 -5.6064522E+004
 -5.7260627E+004
 -5.8074977E+004
 -5.8374845E+004
 -5.8076062E+004
 -5.7002753E+004
 -5.5035961E+004
 -5.2111849E+004
 -4.8248216E+004
 -4.3556796E+004
 -3.8257904E+004
 -3.2669724E+004
 -2.7176891E+004
 -2.2107832E+004
 -1.7562325E+004
 -1.3746801E+004
 -1.1176005E+004
 -1.1304345E+004
 -1.3789581E+004
 -1.1516174E+004
 -4.3604510E+003
 -2.1534771E+003
 -1.0347836E+003
 -8.7185534E+002
 -2.1033053E+003
 -8.0625863E+002
  1.8059275E+003
  2.5360442E+003
  1.8987078E+003
  9.7136842E+002
  1.6676578E+002
 -4.5698263E+002
 -9.0335881E+002
 -1.1927734E+003
 -1.3628478E+003
 -1.4843073E+003
 -1.5658351E+003
 -1.5765718E+003
 -5.0262557E+002
 -4.2407108E+002
  4.8252226E+001
  6.4663108E+004
  6.6483018E+004
  5.9031296E+004
  5.6324054E+004
  5.4209196E+004
  5.3079728E+004
  5.2240852E+004
  5.1367857E+004
  5.0106906E+004
  4.8319584E+004
  4.5522532E+004
 -3.6291457E+004
 -4.1926191E+004
 -5.0127904E+004
 -5.5384926E+004
 -5.8098124E+004
 -5.9314826E+004
 -5.9671032E+004
 -5.9265942E+004
 -5.8068966E+004
 -5.5986701E+004
 -5.2950175E+004
 -4.8950920E+004
 -4.4074700E+004
 -3.8517095E+004
 -3.2635208E+004
 -2.6909565E+004
 -2.1836109E+004
 -1.7564580E+004
 -1.3276896E+004
 -9.6439475E+003
 -9.2377367E+003
 -1.6357658E+004
 -3.7849910E+003
 -2.7200823E+003
 -5.4233801E+002
 -1.8959044E+002
 -4.2191070E+002
 -2.8364372E+002
 -2.0263112E+003
  3.0513848E+003
  2.6880106E+003
  1.6401028E+003
  7.9839345E+002
  2.2574605E+002
 -1.5901675E+002
 -4.0507138E+002
 -5.4434371E+002
 -5.8772279E+002
 -6.6569139E+002
 -8.5662683E+002
 -1.7854619E+003
 -1.8796381E+002
 -1.1444268E+002
  9.2263792E+004
  6.0897061E+004
  5.9080310E+004
  5.5721155E+004
  5.4410977E+004
  5.3192022E+004
  5.2087718E+004
  5.0677522E+004
  4.8764397E+004
  4.6458578E+004
  4.3600787E+004
 -3.7993805E+004
 -4.2863216E+004
 -4.9782316E+004
 -5.5636871E+004
 -5.9035459E+004
 -6.0646769E+004
 -6.1107828E+004
 -6.0730833E+004
 -5.9530010E+004
 -5.7422971E+004
 -5.4317917E+004
 -5.0181447E+004
 -4.5054579E+004
 -3.9117631E+004
 -3.2694810E+004
 -2.6457859E+004
 -2.1285853E+004
 -1.7852400E+004
 -1.4770390E+004
 -1.0340702E+004
 -6.5405017E+003
 -3.2875178E+004
 -6.0291922E+003
 -1.2543939E+003
 -1.2627202E+003
 -1.0911176E+003
 -1.1905438E+003
 -2.8701316E+003
 -9.8131898E+003
  1.9885721E+003
  1.3725027E+003
  9.6494809E+002
  4.6343786E+002
  1.9970476E+002
  1.6145214E+001
 -9.6738500E+001
 -1.5800714E+002
 -1.8509152E+002
 -2.2792761E+002
 -8.4359455E+002
 -1.0466112E+003
  7.7152077E+004
  6.1991717E+004
  5.7226305E+004
  5.5606788E+004
  5.4347898E+004
  5.3338179E+004
  5.2104031E+004
  5.0312113E+004
  4.7752081E+004
  4.4717606E+004
  4.1711545E+004
 -3.4763541E+004
 -4.1864302E+004
 -5.1026901E+004
 -5.7162025E+004
 -6.0510389E+004
 -6.2090086E+004
 -6.2645056E+004
 -6.2385626E+004
 -6.1314909E+004
 -5.9294499E+004
 -5.6175508E+004
 -5.1896316E+004
 -4.6514607E+004
 -4.0071975E+004
 -3.2949298E+004
 -2.5894667E+004
 -2.0089757E+004
 -1.6992835E+004
 -1.7545758E+004
 -4.2512134E+003
 -8.7699587E+003
 -1.4312559E+004
 -2.6167079E+003
  5.5270702E+003
  6.4370889E+002
  1.6344411E+002
 -1.8115806E+002
 -1.8938767E+002
 -1.6298422E+002
 -1.1083754E+002
 -3.4356524E+001
  5.7594927E+000
  4.0161909E+002
 -7.8366416E+002
 -1.6523563E+004
  7.8443692E+003
  4.5134303E+004
  5.7849540E+004
  5.6291997E+004
  5.5191688E+004
  5.4307450E+004
  5.3512168E+004
  5.2395334E+004
  5.0457850E+004
  4.7184859E+004
  4.3111832E+004
  3.9379875E+004
 -2.7283859E+004
 -4.3609482E+004
 -5.4260558E+004
 -5.9835897E+004
 -6.2227364E+004
 -6.3626888E+004
 -6.4223032E+004
 -6.4179275E+004
 -6.3387801E+004
 -6.1600342E+004
 -5.8526766E+004
 -5.4052402E+004
 -4.8328413E+004
 -4.1515534E+004
 -3.3188804E+004
 -2.4182834E+004
 -1.9126237E+004
 -1.5253095E+004
 -2.7283128E+004
  2.4285450E+003
 -1.2586688E+004
  3.4809189E+004
  5.0014545E+004
  5.3405131E+004
  5.4912945E+004
  5.4378831E+004
  5.4044143E+004
  5.3594577E+004
  5.2904985E+004
  5.1271918E+004
  4.7523578E+004
  4.0843281E+004
  3.5023208E+004
 -4.3135708E+003
 -4.1780519E+004
 -5.9181793E+004
 -6.2199383E+004
 -6.4034655E+004
 -6.5149471E+004
 -6.5813052E+004
 -6.6058946E+004
 -6.5734385E+004
 -6.4405319E+004
 -6.1476417E+004
 -5.6550164E+004
 -5.0089360E+004
 -4.3075737E+004
 -3.4575874E+004
 -2.3497704E+004
 -1.3510731E+004
 -1.6539688E+004
 -1.5898823E+004
  6.2293223E+004
  4.4902593E+004
  5.0496422E+004
  5.2188141E+004
  5.3219207E+004
  5.3389970E+004
  5.3438462E+004
  5.3235730E+004
  5.2679639E+004
  4.9614225E+004
  4.1518072E+004
  2.7567009E+004
  1.6772678E+004
 -7.2446914E+004
 -6.5700166E+004
 -6.4789463E+004
 -6.6036707E+004
 -6.6750860E+004
 -6.7403589E+004
 -6.7944694E+004
 -6.8290014E+004
 -6.7823875E+004
 -6.5392259E+004
 -6.0067854E+004
 -5.1745998E+004
 -4.2574263E+004
 -3.6319008E+004
 -9.5524317E+003
 -1.3700866E+004
 -1.6233121E+004
  5.5596613E+004
  4.7460670E+004
  4.8199436E+004
  5.0505086E+004
  5.1814474E+004
  5.2551078E+004
  5.2960393E+004
  5.3260699E+004
  5.3384473E+004
  5.2970025E+004
  3.9402915E+004
  4.9423080E+003
 -9.2301855E+004
 -6.7781655E+004
 -6.9127431E+004
 -6.8254511E+004
 -6.8686120E+004
 -6.9006346E+004
 -6.9677230E+004
 -7.0807731E+004
 -7.1878345E+004
 -7.0749998E+004
 -6.3823755E+004
 -5.4007774E+004
 -4.1113059E+004
 -4.3610220E+004
 -9.6841601E+002
 -9.0641005E+003
 -1.1752909E+004
  4.6808674E+003
  3.3749150E+004
  4.5436687E+004
  4.7582313E+004
  4.9395690E+004
  5.0736132E+004
  5.1688456E+004
  5.2383171E+004
  5.3144451E+004
  5.3915991E+004
  5.7434655E+004
  6.8648680E+004
 -1.5310748E+004
 -7.1808069E+004
 -7.6901417E+004
 -7.2309843E+004
 -7.1532760E+004
 -7.0826286E+004
 -7.0756889E+004
 -7.1224153E+004
 -7.2635813E+004
 -7.5939031E+004
 -7.8994520E+004
 -7.5066303E+004
 -5.4394057E+004
 -3.8292317E+004
 -2.9598511E+004
  2.4763463E+004
  3.7139871E+004
  4.3907653E+004
  4.7064269E+004
  4.8549473E+004
  4.9878280E+004
  5.0951980E+004
  5.2017828E+004
  5.2974526E+004
  5.5633569E+004
  5.7128873E+004
  8.5509956E+004
 -7.7351992E+004
 -7.7796653E+004
 -7.6824141E+004
 -7.4450182E+004
 -7.3448402E+004
 -7.2809571E+004
 -7.2800555E+004
 -7.4080193E+004
 -7.7676697E+004
 -8.7097557E+004
 -7.9486978E+004
 -4.9625207E+004
 -3.9837182E+004
  3.3789915E+004
  3.8028414E+004
  4.3035344E+004
  4.5736133E+004
  4.7633169E+004
  4.9069699E+004
  5.0406568E+004
  5.1737499E+004
  5.3528394E+004
  5.5836195E+004
  6.2534612E+004
  6.3318656E+004
 -7.8752972E+004
 -8.3737484E+004
 -7.8667995E+004
 -7.7769322E+004
 -7.6425150E+004
 -7.5487733E+004
 -7.4982015E+004
 -7.5980367E+004
 -7.9679866E+004
 -9.5858711E+004
 -1.5759284E+005
 -1.1921991E+004
  3.8892112E+004
  4.2740047E+004
  4.2305951E+004
  4.4699199E+004
  4.6611226E+004
  4.8351725E+004
  4.9933201E+004
  5.1623268E+004
  5.3616061E+004
  5.6637673E+004
  5.9473816E+004
  6.2753222E+004
 -1.0988000E+005
 -8.0119309E+004
 -8.2634155E+004
 -8.1125088E+004
 -8.0182704E+004
 -7.8722253E+004
 -7.8159434E+004
 -7.8229467E+004
 -8.4360211E+004
 -8.9052501E+004
 -1.6620595E+005
  5.8450620E+004
  4.0610880E+004
  4.2603328E+004
  4.3803634E+004
  4.5936481E+004
  4.7752801E+004
  4.9536382E+004
  5.1372390E+004
  5.3497924E+004
  5.5844974E+004
  5.8323744E+004
  5.9878320E+004
 -8.7671083E+004
 -8.5804383E+004
 -8.6249654E+004
 -8.6263212E+004
 -8.4219543E+004
 -8.2262874E+004
 -8.1100373E+004
 -8.2020320E+004
 -8.3447088E+004
 -9.4751901E+004
 -7.8565084E+004
  4.9891582E+004
  4.2395929E+004
  4.2017175E+004
  4.3752297E+004
  4.5541871E+004
  4.7370039E+004
  4.9158419E+004
  5.1011273E+004
  5.2970767E+004
  5.5045735E+004
  5.6928463E+004
  5.8671117E+004
  2.2986665E+004
  3.5205306E+003
 -5.7739507E+004
 -8.8671865E+004
 -9.3324460E+004
 -9.1513294E+004
 -8.8283983E+004
 -8.5051982E+004
 -8.3002427E+004
 -8.2979158E+004
 -8.4276524E+004
 -7.7170099E+004
 -5.8744176E+004
 -1.0679182E+004
  4.0501944E+003
  3.0152018E+004
  4.0648802E+004
  4.2273544E+004
  4.3830545E+004
  4.5436558E+004
  4.7098254E+004
  4.8793109E+004
  5.0535433E+004
  5.2331572E+004
  5.4139888E+004
  5.5834950E+004
  5.7441892E+004
  4.9739819E+003
 -6.1506113E+004
 -9.7087796E+004
 -9.9899098E+004
 -9.6505548E+004
 -9.1597861E+004
 -8.6652242E+004
 -8.2716623E+004
 -8.0632542E+004
 -7.9920760E+004
 -6.4869978E+004
 -1.1411123E+004
  2.2049740E+004
  3.3056164E+004
  3.9437404E+004
  4.2364061E+004
  4.3839932E+004
  4.5322730E+004
  4.6830950E+004
  4.8396462E+004
  5.0000631E+004
  5.1626332E+004
  5.3257807E+004
  5.4799761E+004
  5.6398977E+004
  3.2276140E+004
 -1.1148543E+005
 -1.1130702E+005
 -1.0578133E+005
 -1.0119539E+005
 -9.4186328E+004
 -8.7193360E+004
 -8.0871840E+004
 -7.6019593E+004
 -7.5688027E+004
 -9.5349959E+004
  1.7117062E+004
  2.9213737E+004
  3.4127505E+004
  3.8858940E+004
  4.1784059E+004
  4.3550667E+004
  4.5025333E+004
  4.6481851E+004
  4.7947860E+004
  4.9423572E+004
  5.0898904E+004
  5.2379670E+004
  5.3816172E+004
  5.5378744E+004
 -1.6563859E+005
 -1.1999097E+005
 -1.1543677E+005
 -1.0569815E+005
 -9.6786665E+004
 -8.7302218E+004
 -7.8116485E+004
 -7.1789311E+004
 -6.4882637E+004
 -9.4451282E+004
  3.5458499E+004
  3.7149482E+004
  3.9422835E+004
  4.1234605E+004
  4.3019001E+004
  4.4583931E+004
  4.6054661E+004
  4.7464384E+004
  4.8829608E+004
  5.0163031E+004
  5.1502582E+004
  5.2834067E+004
  5.4360641E+004
 -1.4935339E+005
 -1.4064489E+005
 -1.2397730E+005
 -1.1197810E+005
 -9.9461657E+004
 -8.7193088E+004
 -7.5727789E+004
 -6.5016169E+004
 -6.0839580E+004
 -4.4360085E+004
  3.8618167E+004
  4.0950532E+004
  3.9391262E+004
  4.0909475E+004
  4.2502490E+004
  4.4146575E+004
  4.5637257E+004
  4.7002598E+004
  4.8257078E+004
  4.9437312E+004
  5.0615893E+004
  5.1823328E+004
  5.3299311E+004
 -1.6538568E+005
 -1.4981391E+005
 -1.3480934E+005
 -1.1811548E+005
 -1.0226855E+005
 -8.6867502E+004
 -7.2221966E+004
 -5.8702325E+004
 -4.4500119E+004
 -2.7319940E+004
  5.6446368E+004
  3.8744605E+004
  3.9894184E+004
  4.0505394E+004
  4.2259986E+004
  4.3847412E+004
  4.5338953E+004
  4.6634527E+004
  4.7756939E+004
  4.8746480E+004
  4.9713076E+004
  5.0747608E+004
  5.2150406E+004
 -1.7757876E+005
 -1.6232921E+005
 -1.4390070E+005
 -1.2402066E+005
 -1.0432563E+005
 -8.5718637E+004
 -6.8027702E+004
 -5.0164212E+004
 -3.1727933E+004
 -8.1140850E+003
  4.7429653E+004
  4.0124418E+004
  3.9356430E+004
  4.0701406E+004
  4.2210933E+004
  4.3789784E+004
  4.5215891E+004
  4.6425494E+004
  4.7384690E+004
  4.8126060E+004
  4.8790875E+004
  4.9554673E+004
  5.0837999E+004
 -1.9453218E+005
 -1.7538719E+005
 -1.5332812E+005
 -1.2835416E+005
 -1.0490304E+005
 -8.3304255E+004
 -6.3068526E+004
 -4.1967436E+004
 -1.9842208E+004
  8.4431927E+003
 -1.0276129E+004
  3.7464323E+003
  2.8249551E+004
  3.8134351E+004
  3.9502618E+004
  4.0893228E+004
  4.2381421E+004
  4.3896685E+004
  4.5280693E+004
  4.6412065E+004
  4.7201386E+004
  4.7633773E+004
  4.7857907E+004
  4.8189324E+004
  4.9246484E+004
 -2.1085006E+005
 -1.9265347E+005
 -1.6122554E+005
 -1.3050730E+005
 -1.0276105E+005
 -7.9347616E+004
 -5.7656662E+004
 -3.5356222E+004
 -8.4067135E+003
  2.1569041E+004
  2.0268711E+004
  3.0687503E+004
  3.6558785E+004
  3.9395418E+004
  4.0917965E+004
  4.2519841E+004
  4.4069876E+004
  4.5485780E+004
  4.6606610E+004
  4.7278123E+004
  4.7367975E+004
  4.6968216E+004
  4.6503529E+004
  4.7110181E+004
 -2.4976772E+005
 -2.0825384E+005
 -1.6859886E+005
 -1.2658789E+005
 -9.7675886E+004
 -7.3606209E+004
 -5.2277835E+004
 -2.9315695E+004
 -5.2867139E+003
  4.5310117E+004
  2.7201817E+004
  3.0966763E+004
  3.5617998E+004
  3.8448361E+004
  4.0619787E+004
  4.2470226E+004
  4.4218221E+004
  4.5766223E+004
  4.6988698E+004
  4.7670993E+004
  4.7514672E+004
  4.6283490E+004
  4.4595356E+004
  4.4109186E+004
 -2.5978208E+005
 -2.4575192E+005
 -1.5605939E+005
 -1.1884547E+005
 -8.9215385E+004
 -6.7039206E+004
 -4.6549770E+004
 -2.5489596E+004
 -3.5770353E+002
  4.0949254E+004
  3.0737779E+004
  3.4194341E+004
  3.4845493E+004
  3.7630278E+004
  4.0043949E+004
  4.2296016E+004
  4.4311427E+004
  4.6078611E+004
  4.7474898E+004
  4.8355563E+004
  4.8252747E+004
  4.6275813E+004
  4.1765250E+004
  3.8756114E+004
 -5.6041584E+005
 -1.8556748E+005
 -1.4914845E+005
 -1.0352895E+005
 -8.1052986E+004
 -6.0248585E+004
 -4.1722366E+004
 -2.2395243E+004
 -1.1023159E+003
  1.5957994E+004
  1.1209902E+004
 -4.6438599E+003
  4.4421982E+004
  3.2278811E+004
  3.4793350E+004
  3.6832792E+004
  3.9591670E+004
  4.2090501E+004
  4.4406717E+004
  4.6411334E+004
  4.8011735E+004
  4.9040817E+004
  4.9498160E+004
  4.7817654E+004
  4.1579584E+004
  3.0250409E+004
 -3.5693843E+005
 -1.6436840E+005
 -1.2366931E+005
 -9.3109834E+004
 -7.2881785E+004
 -5.4914363E+004
 -3.8118961E+004
 -2.0988812E+004
 -3.4073787E+003
  1.1906656E+004
  2.9354119E+004
  3.7011877E+004
  3.3124214E+004
  3.3971975E+004
  3.6535778E+004
  3.9243809E+004
  4.1983407E+004
  4.4553744E+004
  4.6833529E+004
  4.8630107E+004
  4.9746631E+004
  5.0126072E+004
  4.9990439E+004
  3.8710954E+004
  6.2090384E+003
  8.0155199E+004
 -1.3823687E+005
 -9.6165661E+004
 -8.4717934E+004
 -6.5902073E+004
 -5.0856489E+004
 -3.5803810E+004
 -2.1327196E+004
 -7.1087654E+003
  5.2258019E+003
  3.0653818E+004
 -8.4356403E+003
  2.6935962E+003
  2.2244446E+004
  3.1262634E+004
  3.3551554E+004
  3.6204406E+004
  3.9030578E+004
  4.1938862E+004
  4.4778919E+004
  4.7419492E+004
  4.9571015E+004
  5.0916262E+004
  5.0970510E+004
  5.2858711E+004
  6.5672919E+004
 -1.3537457E+004
 -3.6149329E+004
 -6.5372170E+004
 -8.3550877E+004
 -7.1932301E+004
 -6.0050122E+004
 -4.6925173E+004
 -3.4187690E+004
 -2.1746109E+004
 -1.0173424E+004
  2.2403531E+003
  1.3377155E+004
  1.4607187E+004
  2.4810006E+004
  2.9157014E+004
  3.2870717E+004
  3.5723102E+004
  3.8786701E+004
  4.1892427E+004
  4.5038647E+004
  4.8105626E+004
  5.1041559E+004
  5.2911685E+004
  5.3942732E+004
  5.0207606E+004
  7.4202564E+004
 -2.2579844E+003
 -4.8028308E+004
 -5.9158748E+004
 -6.0497030E+004
 -5.2536733E+004
 -4.2817578E+004
 -3.2252927E+004
 -2.1853612E+004
 -1.1948704E+004
 -3.4341430E+003
  3.9719823E+002
 -4.9224109E+003
 -3.2989215E+003
  2.7234808E+004
  2.2561939E+004
  2.7765648E+004
  3.1527912E+004
  3.5117466E+004
  3.8434107E+004
  4.1799891E+004
  4.5225981E+004
  4.8789870E+004
  5.2404514E+004
  5.6302280E+004
  5.7784961E+004
  5.6778929E+004
  4.2002680E+004
 -8.4089451E+003
 -3.3166559E+004
 -4.4562538E+004
 -4.8061846E+004
 -4.4842108E+004
 -3.8061494E+004
 -2.9877194E+004
 -2.1414828E+004
 -1.3457108E+004
 -7.3518130E+003
 -4.7236817E+003
 -1.0178620E+004
  2.5413993E+004
  2.3458459E+004
  2.6621371E+004
  3.0681063E+004
  3.4468171E+004
  3.8085800E+004
  4.1659963E+004
  4.5335432E+004
  4.9226133E+004
  5.3523342E+004
  5.8244451E+004
  6.3526984E+004
  5.1741823E+004
  9.9543269E+003
 -1.0352894E+004
 -2.2131164E+004
 -3.3840513E+004
 -3.8236654E+004
 -3.7424552E+004
 -3.3172743E+004
 -2.7148054E+004
 -2.0584447E+004
 -1.4550359E+004
 -1.0050483E+004
 -8.5943993E+003
 -8.2072718E+003
 -1.1654787E+004
 -4.2781932E+003
 -5.9238824E+003
  4.8308023E+003
  1.4845199E+004
  2.2476871E+004
  2.6207819E+004
  3.0220960E+004
  3.4076588E+004
  3.7826606E+004
  4.1556339E+004
  4.5417795E+004
  4.9544663E+004
  5.4295844E+004
  5.9740663E+004
  6.9074158E+004
  9.0604250E+004
 -1.9195077E+004
  4.2434478E+003
 -1.9675401E+004
 -2.5650095E+004
 -3.0879806E+004
 -3.1024034E+004
 -2.8547893E+004
 -2.4297173E+004
 -1.9433057E+004
 -1.4864413E+004
 -1.1549958E+004
 -9.8955599E+003
 -1.0838549E+004
 -1.0050519E+004
 -1.7589766E+004
  2.7491297E+003
  1.1660597E+004
  1.6048459E+004
  2.1601864E+004
  2.6113697E+004
  3.0059389E+004
  3.3928499E+004
  3.7720096E+004
  4.1557361E+004
  4.5549948E+004
  5.0016203E+004
  5.4828142E+004
  6.2332849E+004
  6.8437890E+004
  1.1000646E+005
  3.5547310E+003
 -2.9794406E+003
  6.8934926E+003
 -1.4187200E+004
 -2.0928037E+004
 -2.4977917E+004
 -2.5789991E+004
 -2.4403528E+004
 -2.1525128E+004
 -1.7995926E+004
 -1.4576155E+004
 -1.1902605E+004
 -1.0459263E+004
 -1.0254891E+004
 -1.3064142E+004
 -2.7128708E+004
 -3.0709925E+003
  8.8156593E+002
  8.5663579E+003
  1.5785436E+004
  2.1234494E+004
  2.5959076E+004
  3.0069620E+004
  3.3935768E+004
  3.7752654E+004
  4.1647535E+004
  4.5807807E+004
  5.0421405E+004
  5.6081561E+004
  6.2768326E+004
  7.5315010E+004
  7.9488527E+004
 -6.3804372E+003
 -6.4051526E+003
 -1.1486099E+004
 -1.7244337E+004
 -2.0372138E+004
 -2.1486543E+004
 -2.0827552E+004
 -1.8954462E+004
 -1.6450416E+004
 -1.3892733E+004
 -1.1755590E+004
 -1.0438845E+004
 -1.0141129E+004
 -1.2190959E+004
 -1.3986209E+004
 -2.6927949E+004
 -1.1387767E+004
 -3.2106739E+003
 -1.8304746E+003
  3.7983756E+003
  1.0871936E+004
  1.6532296E+004
  2.1592418E+004
  2.6073415E+004
  3.0178538E+004
  3.4046699E+004
  3.7859820E+004
  4.1784595E+004
  4.6003449E+004
  5.0817627E+004
  5.6466664E+004
  6.3852410E+004
  7.0878686E+004
  7.8448167E+004
 -6.5906992E+003
 -5.9564210E+003
 -9.8753924E+003
 -1.3979100E+004
 -1.6791472E+004
 -1.7983720E+004
 -1.7833113E+004
 -1.6680530E+004
 -1.4957580E+004
 -1.3091706E+004
 -1.1467301E+004
 -1.0421600E+004
 -1.0312491E+004
 -1.1668297E+004
 -1.3282279E+004
 -1.6305829E+004
 -2.5853394E+003
  4.2481023E+003
 -2.0204936E+004
 -8.6998955E+003
 -6.4362745E+003
 -3.6652295E+003
  9.1867867E+002
  6.6725278E+003
  1.1988698E+004
  1.7350212E+004
  2.2100629E+004
  2.6410553E+004
  3.0401224E+004
  3.4215427E+004
  3.7988414E+004
  4.1871333E+004
  4.6051516E+004
  5.0746692E+004
  5.6322017E+004
  6.2599352E+004
  6.9329302E+004
  7.4443269E+004
 -7.8033076E+003
 -6.5876061E+003
 -9.0762609E+003
 -1.1842985E+004
 -1.4094635E+004
 -1.5258366E+004
 -1.5405105E+004
 -1.4760815E+004
 -1.3628584E+004
 -1.2330266E+004
 -1.1171505E+004
 -1.0440514E+004
 -1.0368897E+004
 -1.0909842E+004
 -1.2025884E+004
 -1.2271316E+004
 -8.8339188E+003
 -8.8938690E+003
 -1.2187686E+003
  7.9647394E+003
 -2.4218106E+004
 -9.0226650E+003
 -7.1270799E+003
 -1.2637550E+004
 -6.5278665E+002
  3.9913145E+003
  8.8912490E+003
  1.3733772E+004
  1.8378835E+004
  2.2762173E+004
  2.6845800E+004
  3.0696351E+004
  3.4409165E+004
  3.8092215E+004
  4.1866544E+004
  4.5861780E+004
  5.0272703E+004
  5.5203378E+004
  6.1249448E+004
  6.7133746E+004
  7.3996961E+004
 -3.3396037E+003
 -7.3633371E+003
 -8.2675386E+003
 -1.0622092E+004
 -1.2207713E+004
 -1.3225676E+004
 -1.3505445E+004
 -1.3201314E+004
 -1.2507267E+004
 -1.1658725E+004
 -1.0887817E+004
 -1.0395099E+004
 -1.0293810E+004
 -1.0587947E+004
 -1.0848518E+004
 -1.0014004E+004
 -8.8252997E+003
 -8.3869488E+003
 -5.7878782E+003
 -1.0021255E+004
 -2.4904779E+003
 -4.4061503E+003
 -6.7980031E+002
 -5.6438730E+000
  1.5415311E+003
  1.0558990E+003
  2.8520919E+003
  1.1468938E+004
 -2.2500190E+004
 -7.6640442E+003
 -5.9945986E+003
 -1.5476874E+004
  4.8794135E+002
  4.9069224E+003
 -4.0835864E+003
  2.2339655E+003
  6.4505888E+003
  1.0921770E+004
  1.5197379E+004
  1.9430507E+004
  2.3472827E+004
  2.7324477E+004
  3.1009524E+004
  3.4591413E+004
  3.8147445E+004
  4.1757570E+004
  4.5513049E+004
  4.9452621E+004
  5.3810584E+004
  5.8444594E+004
  6.6603981E+004
  7.1008797E+004
  3.7815117E+003
 -6.5401437E+003
  1.6743751E+002
 -6.4500781E+003
 -8.1460065E+003
 -9.7434158E+003
 -1.0930740E+004
 -1.1726926E+004
 -1.2050629E+004
 -1.1962815E+004
 -1.1585627E+004
 -1.1079339E+004
 -1.0604786E+004
 -1.0290501E+004
 -1.0194694E+004
 -1.0227556E+004
 -1.0104710E+004
 -9.7239805E+003
 -8.9669392E+003
 -7.7408048E+003
 -7.8750817E+003
 -9.8218250E+003
 -7.4983556E+003
 -9.1944369E+002
  2.6749000E+003
  3.9741253E+003
 -6.0912042E+003
 -1.0090030E+003
 -5.2367478E+003
 -1.0389111E+003
 -1.1952387E+003
 -1.6764633E+002
 -7.0341055E+002
 -5.6426013E+002
 -5.9727342E+001
 -9.0337004E+002
  1.8060647E+002
 -1.4905477E+003
  4.9081690E+002
 -1.5921048E+003
  5.7295471E+002
 -1.3579670E+003
  5.3395296E+002
 -1.1789385E+003
  2.8799991E+002
 -1.7558059E+003
 -5.6616845E+001
 -1.8438090E+003
 -2.5401284E+003
 -5.6327541E+003
 -1.2496087E+003
  1.9648401E+002
  3.9490869E+003
  8.3816562E+003
  1.2483259E+004
  1.6495888E+004
  2.0388694E+004
  2.4156895E+004
  2.7786622E+004
  3.1297417E+004
  3.4729187E+004
  3.8132512E+004
  4.1566826E+004
  4.5049936E+004
  4.8674143E+004
  5.2095032E+004
  5.6532530E+004
  5.8951618E+004
  8.5922495E+004
 -6.3126199E+003
 -5.5327227E+003
 -6.6505251E+003
 -8.0407828E+003
 -9.0756898E+003
 -9.9675712E+003
 -1.0593426E+004
 -1.0926038E+004
 -1.0980252E+004
 -1.0829860E+004
 -1.0577136E+004
 -1.0327078E+004
 -1.0158145E+004
 -1.0089500E+004
 -1.0055601E+004
 -9.9494175E+003
 -9.6372325E+003
 -9.1424126E+003
 -8.8081482E+003
 -8.6960309E+003
 -7.7237135E+003
 -5.1995702E+003
 -1.8502349E+003
  1.4738052E+003
  9.9941105E+002
 -3.2381311E+003
 -4.4760888E+003
 -1.0906795E+003
 -7.5769127E+002
 -9.6911576E+002
 -2.2519865E+003
 -2.8303257E+003
 -3.2918485E+003
 -3.0441120E+003
 -2.5974922E+003
 -2.8378579E+003
 -5.1292520E+003
 -4.5316343E+003
 -6.4480004E+002
  2.6704201E+003
  6.0050521E+003
  9.8736701E+003
  1.3787730E+004
  1.7561582E+004
  2.1218436E+004
  2.4757635E+004
  2.8187452E+004
  3.1523315E+004
  3.4792113E+004
  3.8029434E+004
  4.1268188E+004
  4.4546988E+004
  4.7813136E+004
  5.1148833E+004
  5.3670210E+004
  5.7323091E+004
  6.1508692E+004
  1.5928857E+003
 -4.8285357E+003
 -6.5123259E+003
 -7.5370437E+003
 -8.4313891E+003
 -9.1380880E+003
 -9.6819060E+003
 -1.0026279E+004
 -1.0184447E+004
 -1.0198980E+004
 -1.0134734E+004
 -1.0057918E+004
 -1.0015392E+004
 -1.0015975E+004
 -1.0027430E+004
 -9.9860522E+003
 -9.8499632E+003
 -9.6261214E+003
 -9.3182705E+003
 -8.7681942E+003
 -7.6550866E+003
 -5.3865468E+003
 -2.2315288E+003
  2.7469508E+002
  9.6264256E+002
  4.2534445E+002
  1.1708741E+002
 -5.5617532E+001
 -7.0282194E+002
 -1.8897774E+003
 -2.3319426E+003
 -6.4850537E+003
 -7.3108506E+003
 -4.5178244E+003
 -3.9331866E+003
 -4.3955406E+003
 -3.6968540E+003
 -2.2192782E+003
  4.1394957E+002
  3.9497903E+003
  7.5860274E+003
  1.1245567E+004
  1.4904678E+004
  1.8468266E+004
  2.1913317E+004
  2.5252725E+004
  2.8497867E+004
  3.1661515E+004
  3.4759283E+004
  3.7810924E+004
  4.0840458E+004
  4.3869616E+004
  4.6913317E+004
  4.9883092E+004
  5.2468893E+004
  5.2350837E+004
  3.4991947E+004
 -1.5763199E+003
 -1.6751962E+004
 -9.5103923E+003
 -6.2342091E+003
 -6.1871563E+003
 -6.9863519E+003
 -7.7380662E+003
 -8.3927959E+003
 -8.9055429E+003
 -9.2779416E+003
 -9.5180749E+003
 -9.6559374E+003
 -9.7332347E+003
 -9.7924738E+003
 -9.8635188E+003
 -9.9542152E+003
 -1.0047695E+004
 -1.0112833E+004
 -1.0115966E+004
 -1.0024884E+004
 -9.7622714E+003
 -9.1468066E+003
 -7.8521475E+003
 -5.7138127E+003
 -2.9090945E+003
 -1.3368344E+002
  1.9210559E+003
  2.5293613E+003
  2.1573498E+003
  1.5718849E+003
 -7.1195483E+002
 -7.5178033E+002
 -1.9546270E+003
 -2.3395260E+003
 -8.7101696E+003
 -4.8082601E+003
 -6.4973958E+003
 -5.5266857E+003
 -3.6139390E+003
 -1.3097185E+003
  1.7867913E+003
  5.2631500E+003
  8.8850054E+003
  1.2445625E+004
  1.5896558E+004
  1.9239071E+004
  2.2479859E+004
  2.5631369E+004
  2.8703469E+004
  3.1700319E+004
  3.4623148E+004
  3.7472942E+004
  4.0254566E+004
  4.2974769E+004
  4.5647801E+004
  4.8193596E+004
  5.0376541E+004
  4.9854326E+004
  3.3970821E+004
 -1.1958888E+003
 -5.1517567E+003
 -4.4631146E+003
 -5.7021950E+003
 -6.3972877E+003
 -7.1156698E+003
 -7.7262291E+003
 -8.2360448E+003
 -8.6371179E+003
 -8.9417644E+003
 -9.1710743E+003
 -9.3538725E+003
 -9.5187359E+003
 -9.6865100E+003
 -9.8644866E+003
 -1.0045201E+004
 -1.0208563E+004
 -1.0323942E+004
 -1.0338337E+004
 -1.0155075E+004
 -9.6072367E+003
 -8.4849688E+003
 -6.5581890E+003
 -3.6704968E+003
  9.6393069E+001
  3.1620124E+003
  4.4957725E+003
  5.5375493E+002
  1.0244164E+003
 -3.2032480E+003
 -9.6153559E+002
 -4.4606930E+002
 -3.9880870E+003
 -2.3080379E+004
 -6.0505218E+002
 -1.1273988E+004
 -6.2591313E+003
 -3.9539554E+003
 -8.0341681E+002
  2.7026404E+003
  6.4743233E+003
  1.0101269E+004
  1.3521823E+004
  1.6760331E+004
  1.9877443E+004
  2.2913660E+004
  2.5886438E+004
  2.8798482E+004
  3.1641153E+004
  3.4396782E+004
  3.7042851E+004
  3.9551978E+004
  4.1911945E+004
  4.4067259E+004
  4.6109418E+004
  4.7420807E+004
  4.9686607E+004
  5.5131327E+004
 -1.4218454E+004
 -5.4812723E+003
 -5.6088884E+003
 -5.4320209E+003
 -6.0221434E+003
 -6.6027827E+003
 -7.1668580E+003
 -7.6618562E+003
 -8.0812454E+003
 -8.4295840E+003
 -8.7223705E+003
 -8.9796760E+003
 -9.2216216E+003
 -9.4633863E+003
 -9.7116451E+003
 -9.9627423E+003
 -1.0201964E+004
 -1.0400292E+004
 -1.0506976E+004
 -1.0435002E+004
 -1.0049366E+004
 -9.1527879E+003
 -7.4813951E+003
 -4.6608269E+003
 -1.0140312E+001
  4.6856146E+003
  7.5500551E+003
  2.5608941E+003
  3.5162842E+003
  1.0016821E+003
 -8.1957063E+003
  7.0254320E+003
 -2.1867174E+004
 -8.3544174E+003
 -5.4577955E+003
 -1.0594903E+003
  3.4210540E+003
  7.6248713E+003
  1.1280566E+004
  1.4496893E+004
  1.7479616E+004
  2.0363199E+004
  2.3200857E+004
  2.6009418E+004
  2.8781656E+004
  3.1494038E+004
  3.4109323E+004
  3.6576013E+004
  3.8841554E+004
  4.0829715E+004
  4.2582745E+004
  4.3850643E+004
  4.5959448E+004
  4.6662150E+004
  7.0550171E+004
 -5.0810471E+003
 -5.2279000E+003
 -5.4393814E+003
 -5.7399944E+003
 -6.2105856E+003
 -6.7069861E+003
 -7.1748352E+003
 -7.5939167E+003
 -7.9637354E+003
 -8.2935503E+003
 -8.5969898E+003
 -8.8879968E+003
 -9.1774482E+003
 -9.4705093E+003
 -9.7647848E+003
 -1.0048472E+004
 -1.0297478E+004
 -1.0469367E+004
 -1.0495727E+004
 -1.0265559E+004
 -9.6093227E+003
 -8.1872869E+003
 -5.4419273E+003
  2.4857677E+002
  1.5250307E+004
  2.3359922E+003
 -1.2945097E+004
 -1.0802858E+004
 -7.6378350E+003
 -1.7508887E+003
  4.1252490E+003
  8.9583323E+003
  1.2441102E+004
  1.5319538E+004
  1.8017779E+004
  2.0668737E+004
  2.3325185E+004
  2.5992477E+004
  2.8653100E+004
  3.1270694E+004
  3.3790100E+004
  3.6137544E+004
  3.8220916E+004
  3.9961702E+004
  4.1291851E+004
  4.2470689E+004
  4.3676036E+004
  4.8502311E+004
  5.0627750E+004
 -4.9672666E+003
 -5.0321277E+003
 -5.2246109E+003
 -5.4781774E+003
 -5.8884517E+003
 -6.3276209E+003
 -6.7581505E+003
 -7.1597100E+003
 -7.5297485E+003
 -7.8725753E+003
 -8.1963962E+003
 -8.5099681E+003
 -8.8201707E+003
 -9.1299314E+003
 -9.4364956E+003
 -9.7298273E+003
 -9.9899369E+003
 -1.0184640E+004
 -1.0258563E+004
 -1.0138111E+004
 -9.6313800E+003
 -8.5834490E+003
 -5.6949732E+003
 -1.3779952E+003
  1.5199132E+004
 -1.3701347E+004
 -1.0576867E+004
 -2.4613694E+003
  5.9520582E+003
  1.0603623E+004
  1.3417444E+004
  1.5920516E+004
  1.8331486E+004
  2.0777417E+004
  2.3279240E+004
  2.5833119E+004
  2.8413280E+004
  3.0976143E+004
  3.3456018E+004
  3.5759878E+004
  3.7769812E+004
  3.9352630E+004
  4.0450777E+004
  4.1113172E+004
  4.2143798E+004
  4.3304617E+004
  4.6378993E+004
 -4.6885791E+003
 -5.0145033E+003
 -4.7954980E+003
 -5.2394193E+003
 -5.6117030E+003
 -6.0080559E+003
 -6.3915512E+003
 -6.7622412E+003
 -7.1148722E+003
 -7.4507533E+003
 -7.7731153E+003
 -8.0861007E+003
 -8.3926706E+003
 -8.6929904E+003
 -8.9829648E+003
 -9.2527986E+003
 -9.4856538E+003
 -9.6547688E+003
 -9.7225664E+003
 -9.6219347E+003
 -9.2729474E+003
 -8.3751913E+003
 -6.7779004E+003
 -1.6661274E+003
  3.3218175E+003
 -1.1983732E+004
 -4.9858475E+003
  9.4768478E+003
  1.1692168E+004
  1.4159029E+004
  1.6238455E+004
  1.8431437E+004
  2.0700762E+004
  2.3076319E+004
  2.5538932E+004
  2.8063335E+004
  3.0605778E+004
  3.3098505E+004
  3.5439306E+004
  3.7481394E+004
  3.9038938E+004
  3.9910844E+004
  4.0031003E+004
  3.9436978E+004
  3.8900944E+004
  3.9058575E+004
 -5.0262194E+003
 -3.5362094E+003
 -4.7387302E+003
 -5.0263467E+003
 -5.4000559E+003
 -5.7214611E+003
 -6.0552048E+003
 -6.3844799E+003
 -6.7082019E+003
 -7.0225447E+003
 -7.3269323E+003
 -7.6212782E+003
 -7.9049550E+003
 -8.1752897E+003
 -8.4263400E+003
 -8.6479068E+003
 -8.8242875E+003
 -8.9345997E+003
 -8.9476286E+003
 -8.8374170E+003
 -8.5235303E+003
 -8.1085851E+003
 -7.0697378E+003
 -7.8125181E+003
 -6.3093016E+002
  1.5683996E+004
  1.1278480E+004
  1.3082071E+004
  1.4583619E+004
  1.6424588E+004
  1.8377637E+004
  2.0496241E+004
  2.2752025E+004
  2.5130739E+004
  2.7607242E+004
  3.0146218E+004
  3.2687852E+004
  3.5128392E+004
  3.7303765E+004
  3.8960418E+004
  3.9735686E+004
  3.9195996E+004
  3.7125234E+004
  3.3676465E+004
  3.1095471E+004
 -4.8522146E+003
 -5.1201100E+003
 -4.6427643E+003
 -4.9934330E+003
 -5.1806151E+003
 -5.4490408E+003
 -5.7235785E+003
 -6.0120982E+003
 -6.3011648E+003
 -6.5858817E+003
 -6.8617299E+003
 -7.1255489E+003
 -7.3737523E+003
 -7.6013125E+003
 -7.8007852E+003
 -7.9615210E+003
 -8.0697980E+003
 -8.1077852E+003
 -8.0614856E+003
 -7.9063313E+003
 -7.7071358E+003
 -7.3835114E+003
 -8.0073780E+003
 -8.1662260E+003
 -1.9667680E+004
  2.6711695E+004
  1.4772450E+004
  1.4482828E+004
  1.5195455E+004
  1.6601016E+004
  1.8298636E+004
  2.0238335E+004
  2.2361186E+004
  2.4640896E+004
  2.7055564E+004
  2.9582719E+004
  3.2181573E+004
  3.4763301E+004
  3.7141183E+004
  3.9029531E+004
  3.9928261E+004
  3.8909512E+004
  3.4829771E+004
  2.8595077E+004
  2.1627132E+004
  1.2853080E+003
 -3.9453868E+003
 -4.7251139E+003
 -4.7473346E+003
 -4.9399129E+003
 -5.1415338E+003
 -5.3815728E+003
 -5.6333466E+003
 -5.8897611E+003
 -6.1421549E+003
 -6.3847690E+003
 -6.6123234E+003
 -6.8194406E+003
 -6.9997071E+003
 -7.1451056E+003
 -7.2458549E+003
 -7.2908898E+003
 -7.2701397E+003
 -7.1784939E+003
 -7.0320862E+003
 -6.8829786E+003
 -6.9498271E+003
 -7.6257523E+003
 -1.0787927E+004
 -2.4313106E+004
 -2.9706770E+003
  4.7117861E+003
  2.0184476E+004
  1.8130348E+004
  1.6094878E+004
  1.6015548E+004
  1.6885894E+004
  1.8277989E+004
  2.0001638E+004
  2.1961580E+004
  2.4111549E+004
  2.6430479E+004
  2.8910550E+004
  3.1541167E+004
  3.4274947E+004
  3.6943075E+004
  3.9114624E+004
  4.0340482E+004
  3.9854590E+004
  3.5133570E+004
  2.3197727E+004
  4.5602090E+003
 -6.9182999E+003
 -4.4764034E+003
 -4.2153575E+003
 -4.4276040E+003
 -4.5905152E+003
 -4.7996158E+003
 -5.0181727E+003
 -5.2464220E+003
 -5.4745519E+003
 -5.6963230E+003
 -5.9054917E+003
 -6.0963130E+003
 -6.2627896E+003
 -6.3983438E+003
 -6.4957026E+003
 -6.5473687E+003
 -6.5471076E+003
 -6.4933975E+003
 -6.3965906E+003
 -6.2940332E+003
 -6.2789343E+003
 -6.5652353E+003
 -7.5566017E+003
 -1.0239080E+004
 -1.2729357E+004
 -1.2942563E+004
 -8.6248498E+003
  3.3952252E+004
  2.1340333E+004
  1.9750759E+004
  1.7395557E+004
  1.6815067E+004
  1.7252504E+004
  1.8344857E+004
  1.9835404E+004
  2.1605337E+004
  2.3591723E+004
  2.5771909E+004
  2.8150278E+004
  3.0752249E+004
  3.3601334E+004
  3.6651220E+004
  3.9472628E+004
  4.0704185E+004
  3.9934072E+004
  3.2088676E+004
  1.5496375E+004
  2.2229901E+003
 -3.3354246E+003
 -2.9438648E+003
 -3.7033593E+003
 -3.9594564E+003
 -4.2133576E+003
 -4.4289822E+003
 -4.6447631E+003
 -4.8560370E+003
 -5.0613428E+003
 -5.2556907E+003
 -5.4341736E+003
 -5.5914891E+003
 -5.7221355E+003
 -5.8204487E+003
 -5.8810372E+003
 -5.8998578E+003
 -5.8765114E+003
 -5.8185412E+003
 -5.7497614E+003
 -5.7234911E+003
 -5.8507714E+003
 -6.3200739E+003
 -7.5002904E+003
 -9.5594231E+003
 -1.1535349E+004
 -1.1995422E+004
 -1.2918766E+004
 -1.3662222E+004
  4.2314503E+004
  2.2881994E+004
  1.9781082E+004
  1.7964335E+004
  1.7412714E+004
  1.7635553E+004
  1.8495427E+004
  1.9765664E+004
  2.1334636E+004
  2.3134454E+004
  2.5140214E+004
  2.7362804E+004
  2.9852556E+004
  3.2721598E+004
  3.6096537E+004
  4.0140102E+004
  4.3355931E+004
  4.3598955E+004
  5.4779488E+004
  4.6158666E+001
 -3.4834332E+003
 -3.5852488E+003
 -3.3628881E+003
 -3.6272171E+003
 -3.8482770E+003
 -4.0691606E+003
 -4.2759331E+003
 -4.4730623E+003
 -4.6581051E+003
 -4.8284576E+003
 -4.9803028E+003
 -5.1094321E+003
 -5.2114683E+003
 -5.2823642E+003
 -5.3192208E+003
 -5.3217937E+003
 -5.2951069E+003
 -5.2539175E+003
 -5.2295338E+003
 -5.2808856E+003
 -5.5038309E+003
 -6.0462145E+003
 -7.0207093E+003
 -8.2658190E+003
 -9.4382269E+003
 -1.0495978E+004
 -1.1903732E+004
 -1.3469892E+004
 -1.4680429E+004
 -8.9734380E+003
  2.4007292E+004
  2.2439357E+004
  2.3609565E+004
  1.9671097E+004
  1.8407753E+004
  1.7855381E+004
  1.8039794E+004
  1.8724211E+004
  1.9804921E+004
  2.1179063E+004
  2.2789303E+004
  2.4609127E+004
  2.6647310E+004
  2.8967209E+004
  3.1709134E+004
  3.5241091E+004
  4.0003279E+004
  4.7192941E+004
  4.1699634E+004
  2.9223600E+004
 -3.0401598E+003
 -3.1540401E+003
 -3.2536767E+003
 -3.3499965E+003
 -3.5374719E+003
 -3.7347787E+003
 -3.9268296E+003
 -4.1068110E+003
 -4.2725470E+003
 -4.4216269E+003
 -4.5512391E+003
 -4.6582334E+003
 -4.7395901E+003
 -4.7930806E+003
 -4.8183007E+003
 -4.8182782E+003
 -4.8019456E+003
 -4.7876747E+003
 -4.8080477E+003
 -4.9140665E+003
 -5.1770540E+003
 -5.6672645E+003
 -6.3995761E+003
 -7.3049502E+003
 -8.2307773E+003
 -9.1374621E+003
 -1.0111044E+004
 -1.1948233E+004
 -1.3681212E+004
 -1.6750852E+004
  4.0681504E+004
  2.4960122E+004
  2.2022293E+004
  2.0092726E+004
  1.8788726E+004
  1.8360349E+004
  1.8473330E+004
  1.9035669E+004
  1.9949943E+004
  2.1150193E+004
  2.2588122E+004
  2.4241002E+004
  2.6113481E+004
  2.8267600E+004
  3.0834399E+004
  3.4309157E+004
  3.9435044E+004
  5.0995090E+004
  8.0165357E+004
 -1.7374272E+004
 -2.8290688E+003
 -2.9046612E+003
 -2.9901017E+003
 -3.0941810E+003
 -3.2560897E+003
 -3.4309855E+003
 -3.6024199E+003
 -3.7628606E+003
 -3.9093842E+003
 -4.0396329E+003
 -4.1512947E+003
 -4.2420871E+003
 -4.3102174E+003
 -4.3550844E+003
 -4.3783040E+003
 -4.3851496E+003
 -4.3864678E+003
 -4.4009946E+003
 -4.4573748E+003
 -4.5945573E+003
 -4.8554956E+003
 -5.2710299E+003
 -5.8371280E+003
 -6.5032239E+003
 -7.2032284E+003
 -7.9589425E+003
 -8.7721422E+003
 -1.0168111E+004
 -1.1512309E+004
 -2.5417712E+004
 -1.4349728E+004
  6.7333155E+003
  2.1393066E+004
  2.1530131E+004
  2.2629166E+004
  2.0980952E+004
  2.0075995E+004
  1.9255594E+004
  1.8883070E+004
  1.8955154E+004
  1.9405907E+004
  2.0180293E+004
  2.1231804E+004
  2.2528666E+004
  2.4052202E+004
  2.5822626E+004
  2.7848450E+004
  3.0427855E+004
  3.3338889E+004
  3.9820608E+004
  4.4829821E+004
  9.7239022E+004
 -2.5081206E+003
 -2.7200780E+003
 -2.6405028E+003
 -2.8413714E+003
 -2.9950035E+003
 -3.1529673E+003
 -3.3015734E+003
 -3.4416015E+003
 -3.5696598E+003
 -3.6836858E+003
 -3.7815199E+003
 -3.8614933E+003
 -3.9227438E+003
 -3.9658820E+003
 -3.9938548E+003
 -4.0130516E+003
 -4.0345607E+003
 -4.0752741E+003
 -4.1581837E+003
 -4.3103956E+003
 -4.5573520E+003
 -4.9133561E+003
 -5.3719507E+003
 -5.9103205E+003
 -6.4996210E+003
 -7.1554383E+003
 -7.8929191E+003
 -9.0421818E+003
 -1.0468827E+004
 -1.4925438E+004
 -2.7884418E+003
 -4.5261967E+003
 -1.5320187E+003
 -5.1236095E+002
  2.1028499E+003
 -9.6541441E+002
  3.9288559E+003
  2.5013745E+003
  1.7857177E+004
  2.1791328E+004
  2.2293319E+004
  2.1137002E+004
  2.0255090E+004
  1.9687729E+004
  1.9395998E+004
  1.9433434E+004
  1.9793275E+004
  2.0449676E+004
  2.1378571E+004
  2.2562619E+004
  2.3999623E+004
  2.5700531E+004
  2.7738213E+004
  3.0148251E+004
  3.3494023E+004
  3.7286112E+004
  4.7600253E+004
  4.9048811E+004
 -2.5628140E+003
 -1.8841536E+003
 -2.4656809E+003
 -2.6003412E+003
 -2.7631237E+003
 -2.8917525E+003
 -3.0192872E+003
 -3.1392516E+003
 -3.2511295E+003
 -3.3520402E+003
 -3.4400880E+003
 -3.5139275E+003
 -3.5733324E+003
 -3.6196547E+003
 -3.6564938E+003
 -3.6904306E+003
 -3.7317010E+003
 -3.7945007E+003
 -3.8963814E+003
 -4.0561068E+003
 -4.2896746E+003
 -4.6054702E+003
 -5.0019036E+003
 -5.4703353E+003
 -6.0095359E+003
 -6.6395578E+003
 -7.4424796E+003
 -8.5432635E+003
 -1.0401514E+004
 -1.1614367E+004
 -8.4874378E+003
 -1.3862664E+003
  2.5582607E+003
  1.0107232E+004
  1.6484131E+004
  1.9777283E+004
  2.0937257E+004
  2.0949908E+004
  2.0461412E+004
  2.0039744E+004
  1.9821054E+004
  1.9845165E+004
  2.0136011E+004
  2.0695838E+004
  2.1520750E+004
  2.2609390E+004
  2.3968497E+004
  2.5621681E+004
  2.7606612E+004
  3.0009876E+004
  3.2806934E+004
  3.6123711E+004
  3.7263136E+004
  2.6043493E+004
  4.8350271E+002
 -1.2988913E+004
 -2.0516038E+003
 -2.4541172E+003
 -2.2632083E+003
 -2.4447765E+003
 -2.5296558E+003
 -2.6408545E+003
 -2.7456238E+003
 -2.8501512E+003
 -2.9492334E+003
 -3.0409057E+003
 -3.1230784E+003
 -3.1947569E+003
 -3.2560681E+003
 -3.3087144E+003
 -3.3564013E+003
 -3.4052721E+003
 -3.4641754E+003
 -3.5445412E+003
 -3.6595792E+003
 -3.8226028E+003
 -4.0446709E+003
 -4.3325086E+003
 -4.6882841E+003
 -5.1133729E+003
 -5.6153165E+003
 -6.2189588E+003
 -6.9673569E+003
 -7.9125733E+003
 -8.7494141E+003
 -8.1087022E+003
 -5.1517002E+003
 -1.2138839E+003
  4.3885466E+003
  9.5642480E+003
  1.4779765E+004
  1.8366610E+004
  1.9969974E+004
  2.0439272E+004
  2.0407243E+004
  2.0219587E+004
  2.0094159E+004
  2.0129367E+004
  2.0373262E+004
  2.0852720E+004
  2.1582586E+004
  2.2573609E+004
  2.3837742E+004
  2.5390401E+004
  2.7248540E+004
  2.9392641E+004
  3.1673276E+004
  3.3270532E+004
  3.1502620E+004
  2.3497621E+004
  1.1468472E+004
  5.6591515E+002
 -1.7775546E+003
 -2.1586674E+003
 -2.1966184E+003
 -2.2916596E+003
 -2.3787163E+003
 -2.4735967E+003
 -2.5674621E+003
 -2.6589514E+003
 -2.7454453E+003
 -2.8254497E+003
 -2.8981831E+003
 -2.9640004E+003
 -3.0246440E+003
 -3.0835465E+003
 -3.1460408E+003
 -3.2193902E+003
 -3.3124970E+003
 -3.4351697E+003
 -3.5969519E+003
 -3.8057727E+003
 -4.0669984E+003
 -4.3836676E+003
 -4.7581224E+003
 -5.1942867E+003
 -5.6953345E+003
 -6.2456942E+003
 -6.7258662E+003
 -6.7318156E+003
 -5.7673702E+003
 -3.3644097E+003
  5.2252821E+002
  4.9328622E+003
  9.7353679E+003
  1.3895080E+004
  1.6976754E+004
  1.8887314E+004
  1.9807246E+004
  2.0132598E+004
  2.0188937E+004
  2.0183871E+004
  2.0247770E+004
  2.0458784E+004
  2.0865593E+004
  2.1499214E+004
  2.2378268E+004
  2.3511136E+004
  2.4894838E+004
  2.6500169E+004
  2.8238643E+004
  2.9802406E+004
  3.0460141E+004
  2.8124386E+004
  2.0997652E+004
  1.1382213E+004
 -3.0386207E+003
 -1.8463973E+003
 -1.8033119E+003
 -1.9213492E+003
 -2.0102408E+003
 -2.1049412E+003
 -2.1963163E+003
 -2.2870905E+003
 -2.3756088E+003
 -2.4608820E+003
 -2.5418493E+003
 -2.6180727E+003
 -2.6899754E+003
 -2.7591294E+003
 -2.8284401E+003
 -2.9022252E+003
 -2.9861154E+003
 -3.0867137E+003
 -3.2109744E+003
 -3.3653512E+003
 -3.5548802E+003
 -3.7824521E+003
 -4.0483734E+003
 -4.3497638E+003
 -4.6777509E+003
 -5.0078048E+003
 -5.2726642E+003
 -5.3098434E+003
 -4.8572500E+003
 -3.5649286E+003
 -1.2554315E+003
  1.9256873E+003
  5.7617622E+003
  9.6573054E+003
  1.3228804E+004
  1.6060319E+004
  1.7997370E+004
  1.9154157E+004
  1.9743589E+004
  1.9995884E+004
  2.0099316E+004
  2.0190992E+004
  2.0368420E+004
  2.0699554E+004
  2.1229052E+004
  2.1980134E+004
  2.2953055E+004
  2.4119597E+004
  2.5410023E+004
  2.6681663E+004
  2.7665239E+004
  2.7897793E+004
  2.6890308E+004
  1.9301317E+004
  2.0392443E+003
 -1.0595894E+003
 -1.0835714E+003
 -1.4378440E+003
 -1.5909179E+003
 -1.7181441E+003
 -1.8200074E+003
 -1.9153017E+003
 -2.0066685E+003
 -2.0959378E+003
 -2.1829356E+003
 -2.2672291E+003
 -2.3485451E+003
 -2.4272367E+003
 -2.5045249E+003
 -2.5826229E+003
 -2.6647211E+003
 -2.7548154E+003
 -2.8573501E+003
 -2.9766637E+003
 -3.1162673E+003
 -3.2780095E+003
 -3.4611377E+003
 -3.6610442E+003
 -3.8669343E+003
 -4.0567453E+003
 -4.1865115E+003
 -4.1722105E+003
 -3.8768481E+003
 -3.1100891E+003
 -1.6978179E+003
  4.5101368E+002
  3.2746288E+003
  6.5027628E+003
  9.8365769E+003
  1.2902509E+004
  1.5443552E+004
  1.7336097E+004
  1.8592946E+004
  1.9332515E+004
  1.9710462E+004
  1.9879962E+004
  1.9973487E+004
  2.0098991E+004
  2.0340020E+004
  2.0754260E+004
  2.1369629E+004
  2.2179299E+004
  2.3133761E+004
  2.4138626E+004
  2.5031650E+004
  2.5680531E+004
  2.5863593E+004
  2.6752949E+004
  3.1759188E+004
 -6.9157628E+003
 -1.0491710E+003
 -1.1974252E+003
 -1.1696436E+003
 -1.3177502E+003
 -1.4320064E+003
 -1.5366749E+003
 -1.6327091E+003
 -1.7257933E+003
 -1.8174379E+003
 -1.9080120E+003
 -1.9971009E+003
 -2.0843368E+003
 -2.1697958E+003
 -2.2542012E+003
 -2.3389638E+003
 -2.4260912E+003
 -2.5179614E+003
 -2.6169475E+003
 -2.7248825E+003
 -2.8423590E+003
 -2.9678402E+003
 -3.0964813E+003
 -3.2183781E+003
 -3.3156624E+003
 -3.3576020E+003
 -3.2932081E+003
 -3.0439855E+003
 -2.5014068E+003
 -1.5437462E+003
 -6.7549453E+001
  1.9580793E+003
  4.4574921E+003
  7.2658974E+003
  1.0134096E+004
  1.2819974E+004
  1.5117597E+004
  1.6909609E+004
  1.8176316E+004
  1.8972278E+004
  1.9398325E+004
  1.9574594E+004
  1.9623876E+004
  1.9661403E+004
  1.9786336E+004
  2.0071806E+004
  2.0554943E+004
  2.1226475E+004
  2.2029790E+004
  2.2845013E+004
  2.3574510E+004
  2.3974330E+004
  2.4763870E+004
  2.4762533E+004
  3.7215666E+004
 -6.9108614E+002
 -8.9161518E+002
 -9.9565753E+002
 -1.0703370E+003
 -1.1632532E+003
 -1.2570614E+003
 -1.3499252E+003
 -1.4433488E+003
 -1.5378802E+003
 -1.6329898E+003
 -1.7276251E+003
 -1.8209637E+003
 -1.9126180E+003
 -2.0027079E+003
 -2.0917867E+003
 -2.1806719E+003
 -2.2701683E+003
 -2.3606735E+003
 -2.4516415E+003
 -2.5408781E+003
 -2.6236139E+003
 -2.6912433E+003
 -2.7295351E+003
 -2.7160557E+003
 -2.6167016E+003
 -2.3820611E+003
 -1.9455069E+003
 -1.2275124E+003
 -1.4871358E+002
  1.3450615E+003
  3.2576790E+003
  5.5250554E+003
  8.0126259E+003
  1.0546047E+004
  1.2936494E+004
  1.5024480E+004
  1.6702852E+004
  1.7926927E+004
  1.8710897E+004
  1.9114746E+004
  1.9231425E+004
  1.9175691E+004
  1.9072569E+004
  1.9042031E+004
  1.9180518E+004
  1.9541104E+004
  2.0121225E+004
  2.0857254E+004
  2.1640870E+004
  2.2317973E+004
  2.2888508E+004
  2.3266026E+004
  2.5394467E+004
  2.4637095E+004
 -4.6422070E+002
 -6.7617902E+002
 -7.6442189E+002
 -8.2333144E+002
 -8.9748725E+002
 -9.7744388E+002
 -1.0639448E+003
 -1.1568364E+003
 -1.2548537E+003
 -1.3551381E+003
 -1.4556174E+003
 -1.5547664E+003
 -1.6516600E+003
 -1.7457837E+003
 -1.8368416E+003
 -1.9245032E+003
 -2.0080881E+003
 -2.0861610E+003
 -2.1560057E+003
 -2.2129435E+003
 -2.2494475E+003
 -2.2539845E+003
 -2.2095164E+003
 -2.0916631E+003
 -1.8668067E+003
 -1.4909171E+003
 -9.1072627E+002
 -6.9035910E+001
  1.0841248E+003
  2.5763829E+003
  4.3969497E+003
  6.4872855E+003
  8.7441534E+003
  1.1031067E+004
  1.3202512E+004
  1.5124924E+004
  1.6695826E+004
  1.7853945E+004
  1.8581924E+004
  1.8906185E+004
  1.8896350E+004
  1.8662911E+004
  1.8348280E+004
  1.8106367E+004
  1.8069175E+004
  1.8317060E+004
  1.8856738E+004
  1.9622267E+004
  2.0490666E+004
  2.1312661E+004
  2.1896895E+004
  2.2317677E+004
  2.2171883E+004
  2.2101565E+004
 -1.9561070E+002
 -5.7237405E+002
 -4.9023840E+002
 -5.6901437E+002
 -6.2439468E+002
 -6.8976242E+002
 -7.6814411E+002
 -8.6322532E+002
 -9.6601357E+002
 -1.0722652E+003
 -1.1785681E+003
 -1.2828833E+003
 -1.3837977E+003
 -1.4802424E+003
 -1.5711402E+003
 -1.6551019E+003
 -1.7300920E+003
 -1.7930374E+003
 -1.8393414E+003
 -1.8622708E+003
 -1.8521902E+003
 -1.7956287E+003
 -1.6742096E+003
 -1.4635816E+003
 -1.1327036E+003
 -6.4415805E+002
  4.3589786E+001
  9.7102629E+002
  2.1694089E+003
  3.6504922E+003
  5.3972261E+003
  7.3584768E+003
  9.4501049E+003
  1.1563916E+004
  1.3580080E+004
  1.5381973E+004
  1.6868072E+004
  1.7960629E+004
  1.8612578E+004
  1.8816343E+004
  1.8616147E+004
  1.8120672E+004
  1.7501716E+004
  1.6965627E+004
  1.6708389E+004
  1.6849057E+004
  1.7402417E+004
  1.8282769E+004
  1.9338257E+004
  2.0390005E+004
  2.1165597E+004
  2.1079281E+004
  1.9696693E+004
  1.7856585E+004
 -9.1996317E+001
 -2.4871077E+002
 -2.1385533E+002
 -3.2058919E+002
 -3.3875914E+002
 -3.7519358E+002
 -4.5907060E+002
 -5.5988260E+002
 -6.7013720E+002
 -7.8287409E+002
 -8.9467107E+002
 -1.0031357E+003
 -1.1066610E+003
 -1.2037596E+003
 -1.2926924E+003
 -1.3711261E+003
 -1.4358242E+003
 -1.4823023E+003
 -1.5044157E+003
 -1.4938538E+003
 -1.4395417E+003
 -1.3269747E+003
 -1.1375693E+003
 -8.4820697E+002
 -4.3128356E+002
  1.4427801E+002
  9.1052938E+002
  1.8961780E+003
  3.1205614E+003
  4.5868818E+003
  6.2762128E+003
  8.1441981E+003
  1.0121747E+004
  1.2119480E+004
  1.4035352E+004
  1.5762828E+004
  1.7198214E+004
  1.8246407E+004
  1.8827738E+004
  1.8891711E+004
  1.8445698E+004
  1.7589219E+004
  1.6536405E+004
  1.5593892E+004
  1.5045995E+004
  1.5083361E+004
  1.5718156E+004
  1.6806947E+004
  1.8128383E+004
  1.9437517E+004
  2.0560261E+004
  2.0667930E+004
  1.8469837E+004
  1.3441247E+004
  3.6205586E+002
 -1.6628848E+002
 -7.8548636E+001
  3.5458471E+001
 -3.9943218E+001
 -1.3417315E+002
 -2.4838092E+002
 -3.6701220E+002
 -4.8641292E+002
 -6.0264084E+002
 -7.1382796E+002
 -8.1837649E+002
 -9.1459397E+002
 -1.0001893E+003
 -1.0719964E+003
 -1.1257250E+003
 -1.1557043E+003
 -1.1545696E+003
 -1.1128857E+003
 -1.0187243E+003
 -8.5725039E+002
 -6.1041679E+002
 -2.5692939E+002
  2.2728301E+002
  8.6781098E+002
  1.6894681E+003
  2.7128636E+003
  3.9500844E+003
  5.4000937E+003
  7.0447959E+003
  8.8466595E+003
  1.0748443E+004
  1.2675081E+004
  1.4537025E+004
  1.6234318E+004
  1.7660255E+004
  1.8703015E+004
  1.9247007E+004
  1.9185167E+004
  1.8455861E+004
  1.7128920E+004
  1.5475283E+004
  1.3921721E+004
  1.2988741E+004
  1.2943501E+004
  1.3774546E+004
  1.5216978E+004
  1.6902045E+004
  1.8492756E+004
  1.9773313E+004
  2.0650764E+004
  1.6547513E+004
  2.8000536E+003
  9.8596497E+002
 -9.9567440E+001
  5.9873366E+002
  3.9622692E+002
  3.2019869E+002
  1.9317915E+002
  7.0112942E+001
 -5.8345252E+001
 -1.8257109E+002
 -3.0145980E+002
 -4.1337768E+002
 -5.1724964E+002
 -6.1127090E+002
 -6.9268282E+002
 -7.5753995E+002
 -8.0060745E+002
 -8.1522019E+002
 -7.9308417E+002
 -7.2402337E+002
 -5.9571435E+002
 -3.9347539E+002
 -1.0020740E+002
  3.0338370E+002
  8.3812681E+002
  1.5251326E+003
  2.3838480E+003
  3.4294486E+003
  4.6697829E+003
  6.1022715E+003
  7.7112310E+003
  9.4659772E+003
  1.1319778E+004
  1.3209418E+004
  1.5055238E+004
  1.6761894E+004
  1.8219673E+004
  1.9305629E+004
  1.9874628E+004
  1.9746799E+004
  1.8748434E+004
  1.6824443E+004
  1.4273002E+004
  1.1910972E+004
  1.0411411E+004
  1.0333959E+004
  1.1565423E+004
  1.3603922E+004
  1.5842875E+004
  1.7825566E+004
  1.9205738E+004
  2.1115714E+004
  2.7390400E+004
 -5.5221342E+003
 -5.0948948E+002
  6.8326935E+002
  8.3831410E+002
  7.7770734E+002
  6.4897638E+002
  5.2902778E+002
  3.8901204E+002
  2.5571113E+002
  1.2878671E+002
  1.0343188E+001
 -9.9926728E+001
 -2.0139100E+002
 -2.9228941E+002
 -3.6931713E+002
 -4.2771431E+002
 -4.6134284E+002
 -4.6269101E+002
 -4.2277459E+002
 -3.3098089E+002
 -1.7491904E+002
  5.9648225E+001
  3.8870566E+002
  8.2962495E+002
  1.4004490E+003
  2.1187513E+003
  3.0000597E+003
  4.0559256E+003
  5.2918263E+003
  6.7051487E+003
  8.2834552E+003
  1.0003029E+004
  1.1827280E+004
  1.3704353E+004
  1.5563676E+004
  1.7312525E+004
  1.8836759E+004
  2.0003590E+004
  2.0665597E+004
  2.0602509E+004
  1.9438899E+004
  1.6880032E+004
  1.3193480E+004
  9.1998769E+003
  7.0039921E+003
  7.1116787E+003
  9.1492492E+003
  1.2106720E+004
  1.5189456E+004
  1.7681160E+004
  1.9660972E+004
  1.9535599E+004
  3.0612437E+004
  2.6766599E+003
  1.1846694E+003
  1.0907943E+003
  1.0181514E+003
  8.5612466E+002
  7.1152894E+002
  5.7391120E+002
  4.4942519E+002
  3.3499806E+002
  2.2923052E+002
  1.3159946E+002
  4.4096410E+001
 -2.9176751E+001
 -8.2458316E+001
 -1.0868882E+002
 -9.9625230E+001
 -4.5795381E+001
  6.3613238E+001
  2.4084003E+002
  4.9953580E+002
  8.5457492E+002
  1.3216318E+003
  1.9164743E+003
  2.6539582E+003
  3.5467644E+003
  4.6039891E+003
  5.8297607E+003
  7.2220669E+003
  8.7718697E+003
  1.0462277E+004
  1.2267141E+004
  1.4147327E+004
  1.6043042E+004
  1.7863751E+004
  1.9480946E+004
  2.0746767E+004
  2.1509819E+004
  2.1637434E+004
  2.0666114E+004
  1.7462028E+004
  1.1518886E+004
  6.2816358E+003
  2.6410136E+003
  3.2540283E+003
  6.7238205E+003
  1.0999830E+004
  1.4904102E+004
  1.8345826E+004
  2.0566992E+004
  2.1756620E+004
  1.7511077E+004
  8.4479223E+002
  1.4064098E+003
  1.6512218E+003
  1.3455149E+003
  1.1933575E+003
  1.0319553E+003
  8.9954745E+002
  7.8163921E+002
  6.7662321E+002
  5.7804881E+002
  4.8487195E+002
  3.9989565E+002
  3.2868528E+002
  2.7829581E+002
  2.5673701E+002
  2.7284872E+002
  3.3639050E+002
  4.5817703E+002
  6.5015594E+002
  9.2535791E+002
  1.2976677E+003
  1.7813793E+003
  2.3905169E+003
  3.1379395E+003
  4.0342971E+003
  5.0869713E+003
  6.2991875E+003
  7.6694938E+003
  9.1916838E+003
  1.0854980E+004
  1.2643481E+004
  1.4533705E+004
  1.6483746E+004
  1.8409476E+004
  2.0162936E+004
  2.1519937E+004
  2.2301716E+004
  2.2441246E+004
  2.2136707E+004
  1.9592026E+004
  1.2449345E+004
  7.7732287E+001
 -4.3905750E+003
 -1.2314401E+003
  4.9557091E+003
  1.0533740E+004
  1.5122959E+004
  1.8787510E+004
  2.2151571E+004
  1.9578968E+004
  4.5703324E+003
  1.3451334E+003
  2.6898475E+003
  1.8014148E+003
  1.7337838E+003
  1.5060442E+003
  1.3634437E+003
  1.2305206E+003
  1.1315467E+003
  1.0418097E+003
  9.5228493E+002
  8.6215520E+002
  7.7708249E+002
  7.0497299E+002
  6.5444584E+002
  6.3436218E+002
  6.5392611E+002
  7.2293998E+002
  8.5203300E+002
  1.0527725E+003
  1.3376125E+003
  1.7196533E+003
  2.2121931E+003
  2.8280747E+003
  3.5788524E+003
  4.4738576E+003
  5.5193072E+003
  6.7176769E+003
  8.0675986E+003
  9.5645087E+003
  1.1201972E+004
  1.2973269E+004
  1.4870353E+004
  1.6881813E+004
  1.8959272E+004
  2.0929275E+004
  2.2501432E+004
  2.3249941E+004
  2.3099657E+004
  2.2071971E+004
  2.2117360E+004
  4.0461126E+003
  1.3142807E+003
 -1.0704726E+004
 -3.7936998E+003
  4.2817337E+003
  1.0698631E+004
  1.5824511E+004
  1.9642286E+004
  2.2926390E+004
  3.3522846E+004
 -6.3173954E+003
 -2.7970823E+002
  3.0529195E+003
  2.3296596E+003
  2.0213198E+003
  1.8810486E+003
  1.6729421E+003
  1.5742606E+003
  1.5097615E+003
  1.4420024E+003
  1.3589654E+003
  1.2669221E+003
  1.1768104E+003
  1.0996310E+003
  1.0454272E+003
  1.0235079E+003
  1.0430311E+003
  1.1135229E+003
  1.2452343E+003
  1.4493005E+003
  1.7377006E+003
  2.1230176E+003
  2.6179990E+003
  3.2349203E+003
  3.9847739E+003
  4.8763427E+003
  5.9152945E+003
  7.1035445E+003
  8.4392751E+003
  9.9180153E+003
  1.1535195E+004
  1.3289677E+004
  1.5188716E+004
  1.7241642E+004
  1.9490102E+004
  2.1863254E+004
  2.3792537E+004
  2.4343022E+004
  2.4138090E+004
  2.2124662E+004
  2.9840037E+004
  3.0968457E+003
 -1.6176479E+002
 -3.4069835E+004
 -6.4730671E+003
  3.7936893E+003
  1.0960381E+004
  1.6666612E+004
  2.1830875E+004
  2.3204081E+004
  3.5524487E+004
  1.6440165E+003
  2.4610117E+003
  2.6777831E+003
  2.1224428E+003
  1.9559020E+003
  1.9476567E+003
  1.9427679E+003
  1.8919397E+003
  1.8041471E+003
  1.7003874E+003
  1.5981964E+003
  1.5112201E+003
  1.4499394E+003
  1.4232852E+003
  1.4397631E+003
  1.5082445E+003
  1.6384171E+003
  1.8409707E+003
  2.1275575E+003
  2.5105572E+003
  3.0026550E+003
  3.6162316E+003
  4.3625624E+003
  5.2508414E+003
  6.2871092E+003
  7.4733225E+003
  8.8070521E+003
  1.0282655E+004
  1.1894610E+004
  1.3643562E+004
  1.5544906E+004
  1.7638985E+004
  1.9954895E+004
  2.2782273E+004
  2.6193934E+004
  2.8012699E+004
  2.5139634E+004
  2.3158617E+004
  1.9498087E+004
 -3.1463505E+004
 -6.2644890E+003
  3.0018417E+003
  1.1029170E+004
  1.7092950E+004
  2.3047224E+004
  2.4976958E+004
  6.4002228E+003
  1.9245142E+003
  4.6918660E+003
  2.7011831E+003
  2.1303167E+003
  2.2527304E+003
  2.4262329E+003
  2.4673994E+003
  2.4018473E+003
  2.2877319E+003
  2.1586335E+003
  2.0371518E+003
  1.9365225E+003
  1.8659070E+003
  1.8326639E+003
  1.8439592E+003
  1.9076456E+003
  2.0327164E+003
  2.2294569E+003
  2.5093817E+003
  2.8850028E+003
  3.3694425E+003
  3.9758829E+003
  4.7168136E+003
  5.6030313E+003
  6.6423470E+003
  7.8381106E+003
  9.1880440E+003
  1.0684685E+004
  1.2319373E+004
  1.4091559E+004
  1.6018220E+004
  1.8171316E+004
  2.0648708E+004
  2.3366447E+004
  2.7344021E+004
  2.9404097E+004
  2.6010846E+004
  2.4245961E+004
 -1.7993444E+004
 -7.6585781E+003
  3.2438601E+003
  1.1001908E+004
  1.7362591E+004
  2.4001027E+004
  4.1297702E+004
 -5.8789422E+003
 -2.9588677E+002
  5.3461767E+003
  1.4554299E+003
  2.2072804E+003
  2.8039155E+003
  3.1241298E+003
  3.0911869E+003
  2.9651730E+003
  2.7959749E+003
  2.6310498E+003
  2.4860870E+003
  2.3708803E+003
  2.2908870E+003
  2.2508113E+003
  2.2559096E+003
  2.3127968E+003
  2.4297537E+003
  2.6167803E+003
  2.8854769E+003
  3.2488140E+003
  3.7208054E+003
  4.3160685E+003
  5.0492150E+003
  5.9339517E+003
  6.9817183E+003
  8.1995930E+003
  9.5877036E+003
  1.1137273E+004
  1.2834320E+004
  1.4671027E+004
  1.6679483E+004
  1.8895623E+004
  2.1716035E+004
  2.5319173E+004
  3.1022323E+004
  5.5220551E+004
  1.5121008E+004
 -1.0682207E+004
 -3.4571430E+003
  3.9131703E+003
  1.1410299E+004
  1.8980601E+004
  2.2914474E+004
  4.1345258E+004
  4.3042152E+003
  1.3786809E+003
  2.9011831E+003
  4.0261976E+003
  3.9417900E+003
  3.7872505E+003
  3.5344617E+003
  3.3041760E+003
  3.1011435E+003
  2.9358060E+003
  2.8095037E+003
  2.7230172E+003
  2.6776880E+003
  2.6766983E+003
  2.7254510E+003
  2.8316667E+003
  3.0052706E+003
  3.2581951E+003
  3.6041505E+003
  4.0583838E+003
  4.6374056E+003
  5.3586299E+003
  6.2398063E+003
  7.2979068E+003
  8.5470279E+003
  9.9938768E+003
  1.1632240E+004
  1.3437512E+004
  1.5389254E+004
  1.7491042E+004
  1.9954067E+004
  2.2456780E+004
  2.7182263E+004
  2.6871011E+004
  3.3351734E+004
  2.6210905E+003
 -1.1973003E+003
 -2.2288552E+003
 -2.2417530E+002
  5.3893009E+003
  1.1935591E+004
  1.9348159E+004
  2.4334622E+004
  7.3574329E+003
 -2.8409904E+003
 -7.1055559E+002
  5.8562717E+003
  4.8903182E+003
  4.8649430E+003
  4.3848142E+003
  4.0664397E+003
  3.7801540E+003
  3.5541913E+003
  3.3787997E+003
  3.2497106E+003
  3.1622500E+003
  3.1147547E+003
  3.1085537E+003
  3.1481765E+003
  3.2411175E+003
  3.3975297E+003
  3.6299274E+003
  3.9529669E+003
  4.3833064E+003
  4.9395295E+003
  5.6421099E+003
  6.5133298E+003
  7.5769945E+003
  8.8569805E+003
  1.0373649E+004
  1.2131211E+004
  1.4101300E+004
  1.6209374E+004
  1.8421817E+004
  2.0851248E+004
  2.4385166E+004
  2.7639499E+004
  4.8984851E+004
 -1.0088104E+004
 -1.8783414E+003
  2.0490901E+002
  2.6749587E+003
  6.8126560E+003
  1.2269822E+004
  2.0181221E+004
  3.8158435E+004
 -4.5563374E+003
  8.6260596E+003
  5.1915590E+003
  6.3594852E+003
  5.2616716E+003
  4.8982920E+003
  4.5102842E+003
  4.2114531E+003
  3.9825979E+003
  3.8138424E+003
  3.6928399E+003
  3.6114776E+003
  3.5655030E+003
  3.5550474E+003
  3.5843515E+003
  3.6611958E+003
  3.7963258E+003
  4.0030640E+003
  4.2971219E+003
  4.6965754E+003
  5.2219751E+003
  5.8965918E+003
  6.7468604E+003
  7.8029856E+003
  9.0996866E+003
  1.0674692E+004
  1.2561874E+004
  1.4752838E+004
  1.7109121E+004
  1.9443665E+004
  2.1505498E+004
  2.4618643E+004
  2.4446919E+004
  2.2834516E+004
  1.9279844E+003
  2.8388209E+003
  5.1213519E+003
  8.2171897E+003
  1.3104348E+004
  1.7195143E+004
  3.7195395E+004
  1.0869015E+004
  9.0576186E+003
  5.9485051E+003
  5.6858365E+003
  5.3022015E+003
  4.8843307E+003
  4.6020490E+003
  4.3931232E+003
  4.2470738E+003
  4.1452789E+003
  4.0769534E+003
  4.0355820E+003
  4.0209634E+003
  4.0379128E+003
  4.0951400E+003
  4.2043553E+003
  4.3798430E+003
  4.6383691E+003
  4.9993031E+003
  5.4848733E+003
  6.1205736E+003
  6.9358199E+003
  7.9652771E+003
  9.2508795E+003
  1.0846819E+004
  1.2818430E+004
  1.5242547E+004
  1.8043428E+004
  2.0588838E+004
  2.2292860E+004
  2.3417849E+004
  3.9551804E+004
 -6.7429525E+003
  8.0084824E+001
  1.1387931E+003
  3.8275720E+003
  5.1710795E+003
  6.7485086E+003
  9.5693617E+003
  1.3110822E+004
  1.8269673E+004
  1.6453267E+004
 -3.2969552E+003
  8.5057756E+003
  5.8507412E+003
  6.6288295E+003
  5.5366497E+003
  5.2519314E+003
  4.9682947E+003
  4.8038559E+003
  4.6896777E+003
  4.6180895E+003
  4.5679815E+003
  4.5323443E+003
  4.5117125E+003
  4.5127698E+003
  4.5458352E+003
  4.6238522E+003
  4.7620617E+003
  4.9781488E+003
  5.2925768E+003
  5.7289815E+003
  6.3145629E+003
  7.0806966E+003
  8.0637313E+003
  9.3083572E+003
  1.0869796E+004
  1.2842138E+004
  1.5331141E+004
  1.8664412E+004
  2.2244007E+004
  2.4508334E+004
  2.0257181E+004
  1.8524965E+004
  4.2534616E+003
  7.3229987E+003
  6.8325550E+003
  7.8845571E+003
  9.7714424E+003
  1.3010782E+004
  1.3589169E+004
  4.9894867E+003
  1.0621196E+003
  1.0662606E+004
  6.0020759E+003
  6.0577130E+003
  5.5441548E+003
  5.3687947E+003
  5.2178587E+003
  5.1591123E+003
  5.1253384E+003
  5.0963055E+003
  5.0636479E+003
  5.0322090E+003
  5.0118628E+003
  5.0151173E+003
  5.0560951E+003
  5.1507077E+003
  5.3172263E+003
  5.5769570E+003
  5.9548109E+003
  6.4797114E+003
  7.1847310E+003
  8.1076785E+003
  9.2909524E+003
  1.0789315E+004
  1.2664095E+004
  1.5098468E+004
  1.8238424E+004
  2.3426026E+004
  2.3417888E+004
  1.8885451E+004
  2.3304025E+002
  1.4728534E+004
  8.3907124E+003
  8.2945994E+003
  8.3184271E+003
  9.5271712E+003
  1.1557000E+004
  1.9583954E+004
 -2.6448448E+003
  1.5158137E+003
  9.5283658E+003
  6.5477424E+003
  6.3335945E+003
  5.9981403E+003
  5.7232927E+003
  5.6568565E+003
  5.6725188E+003
  5.6865470E+003
  5.6739025E+003
  5.6359111E+003
  5.5851132E+003
  5.5359495E+003
  5.5029971E+003
  5.5009481E+003
  5.5456653E+003
  5.6553904E+003
  5.8518936E+003
  6.1613546E+003
  6.6148909E+003
  7.2484936E+003
  8.1030281E+003
  9.2228427E+003
  1.0661351E+004
  1.2469540E+004
  1.4774357E+004
  1.7859946E+004
  2.3796657E+004
  4.4457764E+004
  2.5441398E+003
  1.7875856E+004
  1.0818787E+004
  9.0829257E+003
  8.4289442E+003
  9.0771516E+003
  9.4652357E+003
  1.6094960E+004
  1.6054196E+003
  6.9009795E+003
  7.0925751E+003
  6.2061959E+003
  6.0222681E+003
  6.1433255E+003
  6.2660335E+003
  6.3230431E+003
  6.3095891E+003
  6.2507502E+003
  6.1686773E+003
  6.0823527E+003
  6.0070338E+003
  5.9566225E+003
  5.9456956E+003
  5.9914981E+003
  6.1156081E+003
  6.3453454E+003
  6.7144666E+003
  7.2639931E+003
  8.0392880E+003
  9.0984562E+003
  1.0481479E+004
  1.2341019E+004
  1.4492670E+004
  1.8066424E+004
  2.0351413E+004
  4.1158918E+004
 -2.4726058E+003
  4.5193060E+003
  1.2588161E+004
  1.2272482E+004
  9.5026822E+003
  8.1172764E+003
  7.7963234E+003
  8.4668029E+003
  2.1241063E+003
  3.1596277E+003
  1.1275858E+004
  6.6442798E+003
  5.9986886E+003
  6.3611247E+003
  6.7631820E+003
  6.9920558E+003
  7.0472470E+003
  7.0023217E+003
  6.9007181E+003
  6.7748188E+003
  6.6441332E+003
  6.5221644E+003
  6.4198313E+003
  6.3488289E+003
  6.3240703E+003
  6.3659008E+003
  6.5020135E+003
  6.7691016E+003
  7.2130587E+003
  7.8900449E+003
  8.8585261E+003
  1.0202119E+004
  1.1957715E+004
  1.4464053E+004
  1.7054370E+004
  2.1581380E+004
  1.4724181E+004
  1.5008624E+004
  1.7209883E+004
  1.2561393E+004
  9.4175975E+003
  7.1097781E+003
  6.3039915E+003
  8.7007731E+003
 -3.4501768E+002
  5.2381456E+001
  1.2619132E+004
  3.7866081E+003
  6.1686242E+003
  6.9347282E+003
  7.6968672E+003
  7.8534480E+003
  7.8518645E+003
  7.7303157E+003
  7.5672240E+003
  7.3882563E+003
  7.2104707E+003
  7.0412123E+003
  6.8864022E+003
  6.7531088E+003
  6.6524009E+003
  6.6018094E+003
  6.6279592E+003
  6.7690222E+003
  7.0765534E+003
  7.6138528E+003
  8.4541799E+003
  9.6597226E+003
  1.1301833E+004
  1.3340414E+004
  1.6111858E+004
  1.4899484E+004
  4.2880890E+003
  3.4765051E+004
  1.6438068E+004
  1.2778771E+004
  8.2549270E+003
  5.4812551E+003
  3.6313407E+003
  4.5495112E+003
 -1.8796753E+003
  5.0224603E+003
  6.2566636E+003
  8.5779676E+003
  8.7508821E+003
  8.8382456E+003
  8.6703692E+003
  8.4566842E+003
  8.2194949E+003
  7.9895368E+003
  7.7682933E+003
  7.5561954E+003
  7.3521440E+003
  7.1574086E+003
  6.9776898E+003
  6.8257527E+003
  6.7245890E+003
  6.7113115E+003
  6.8405281E+003
  7.1856239E+003
  7.8275768E+003
  8.8455275E+003
  1.0231459E+004
  1.1911518E+004
  1.3635127E+004
  2.0219777E+004
 -3.2490394E+003
  3.6100418E+004
  1.9449833E+004
  1.2033166E+004
  7.1167983E+003
  3.1411024E+003
  1.4691124E+003
 -2.1425173E+002
 -8.9752275E+003
  2.2110037E+003
  1.0005688E+004
  9.6465243E+003
  9.9862825E+003
  9.7322358E+003
  9.4506220E+003
  9.1200398E+003
  8.8290832E+003
  8.5588701E+003
  8.3056404E+003
  8.0598148E+003
  7.8136133E+003
  7.5617621E+003
  7.3035389E+003
  7.0448338E+003
  6.8015604E+003
  6.6052092E+003
  6.5090246E+003
  6.5958488E+003
  6.9657367E+003
  7.7319726E+003
  8.8696413E+003
  1.0531646E+004
  1.1024350E+004
  1.6855292E+004
 -4.2640997E+003
  6.8397669E+003
  2.4024085E+004
  1.8428923E+004
  1.1308198E+004
  5.5988048E+003
  5.1189264E+002
 -4.5329474E+003
  1.5824146E+003
 -5.5657347E+003
  1.0556552E+004
  9.8968510E+003
  1.1003829E+004
  1.0866484E+004
  1.0578757E+004
  1.0060808E+004
  9.6987408E+003
  9.3732514E+003
  9.0842266E+003
  8.8139275E+003
  8.5467876E+003
  8.2681405E+003
  7.9667140E+003
  7.6349343E+003
  7.2701968E+003
  6.8776427E+003
  6.4761442E+003
  6.1104571E+003
  5.8630852E+003
  5.8743933E+003
  6.2989174E+003
  7.2649717E+003
  8.5355031E+003
  9.6687624E+003
  2.2887876E+003
  4.2570494E+004
  2.2582857E+004
  1.7101059E+004
  9.5223470E+003
  3.4964826E+003
 -1.3761673E+003
 -1.0509238E+004
  1.7824684E+004
  9.9132426E+003
  1.1718665E+004
  1.2140957E+004
  1.0973375E+004
  1.0571403E+004
  1.0183778E+004
  9.8517109E+003
  9.5613581E+003
  9.2898271E+003
  9.0136308E+003
  8.7130795E+003
  8.3713425E+003
  7.9751775E+003
  7.5133035E+003
  6.9770063E+003
  6.3656778E+003
  5.6995081E+003
  5.0509966E+003
  4.5719402E+003
  4.5485721E+003
  5.3327740E+003
  6.8406270E+003
  1.1134484E+004
 -8.4887778E+002
  4.9291474E+004
  2.2018759E+004
  1.3965421E+004
  6.9850580E+003
  7.2143568E+002
 -4.4075375E+003
 -1.0308546E+004
 -1.6771939E+002
  1.0527379E+004
  1.7861381E+004
  1.1743261E+004
  1.1475504E+004
  1.1032988E+004
  1.0599925E+004
  1.0272418E+004
  9.9943858E+003
  9.7322840E+003
  9.4584769E+003
  9.1441388E+003
  8.7703038E+003
  8.3209572E+003
  7.7784677E+003
  7.1203810E+003
  6.3198705E+003
  5.3611982E+003
  4.2573828E+003
  3.1823837E+003
  2.3948560E+003
  2.8494576E+003
  4.1703077E+003
  6.0403618E+003
 -1.0106529E+004
  2.7485071E+004
  2.3061609E+004
  2.0245036E+004
  1.1175041E+004
  4.7037978E+003
 -1.8885423E+003
 -6.4014163E+003
 -3.7206274E+003
  1.1624902E+003
  1.1675787E+004
  1.5671628E+004
  1.0751603E+004
  1.2638598E+004
  1.1286550E+004
  1.0997544E+004
  1.0642873E+004
  1.0381010E+004
  1.0144365E+004
  9.8798625E+003
  9.5541891E+003
  9.1505595E+003
  8.6566114E+003
  8.0537361E+003
  7.3087434E+003
  6.3724511E+003
  5.1717897E+003
  3.6685235E+003
  1.7979679E+003
  2.5766253E+002
 -9.1986133E+002
  4.3385445E+003
  7.2722751E+001
  4.4592261E+004
  2.3341863E+004
  1.5715212E+004
  8.9273428E+003
  2.5482551E+003
 -4.0233352E+003
 -1.5889775E+004
  2.1509973E+003
 -1.8240673E+003
  1.8502704E+004
  1.1642023E+004
  1.1903106E+004
  1.1313231E+004
  1.0931435E+004
  1.0724878E+004
  1.0532947E+004
  1.0279168E+004
  9.9318399E+003
  9.4889631E+003
  8.9502209E+003
  8.3023516E+003
  7.5101149E+003
  6.5052126E+003
  5.1842151E+003
  3.3719493E+003
  9.4979664E+002
 -2.3987455E+003
 -4.5003018E+003
 -4.9859988E+003
  1.0154891E+004
  1.9134966E+004
  2.1136252E+004
  1.7523999E+004
  1.1575661E+004
  6.0428700E+003
  1.1650140E+002
 -4.5674562E+003
 -1.7904340E+004
  4.4525923E+003
  1.4140875E+004
  1.1215243E+004
  1.2886592E+004
  1.1216083E+004
  1.1160102E+004
  1.1031803E+004
  1.0926162E+004
  1.0659009E+004
  1.0259901E+004
  9.7515809E+003
  9.1535020E+003
  8.4631927E+003
  7.6486572E+003
  6.6421467E+003
  5.3065093E+003
  3.4631921E+003
  5.9633130E+002
 -3.3940555E+003
 -1.1601852E+004
 -1.2330508E+004
  1.7217552E+004
  1.6719130E+004
  1.7326927E+004
  1.7985550E+004
  1.4396531E+004
  8.7967809E+003
  3.1678574E+003
 -1.7196063E+003
 -6.7801886E+003
 -4.1964159E+003
 -1.5676797E+003
  1.9764993E+004
  1.0771998E+004
  1.1407514E+004
  1.1145051E+004
  1.1449697E+004
  1.1350574E+004
  1.1019733E+004
  1.0511178E+004
  9.8953709E+003
  9.2085862E+003
  8.4594462E+003
  7.6249050E+003
  6.6340639E+003
  5.3814356E+003
  3.5736809E+003
  1.0553455E+003
 -4.0437279E+003
 -1.0138592E+004
 -3.5258438E+004
  1.5500694E+004
  1.5317827E+004
  1.5292417E+004
  1.4669443E+004
  1.3144070E+004
  1.0247538E+004
  5.8401962E+003
  8.7361888E+002
 -3.8715283E+003
 -6.9003502E+003
 -2.0655257E+003
  4.4555987E+003
  1.5747736E+004
  9.8556025E+003
  1.0483038E+004
  1.1553372E+004
  1.2045381E+004
  1.1833699E+004
  1.1334712E+004
  1.0646062E+004
  9.8731452E+003
  9.0591180E+003
  8.2215700E+003
  7.3404147E+003
  6.3505487E+003
  5.1354367E+003
  3.4723022E+003
  1.0182120E+003
 -3.3324126E+003
 -1.1526840E+004
 -4.4393346E+004
  1.2146723E+004
  1.6750134E+004
  1.3828862E+004
  1.3570561E+004
  1.2166296E+004
  1.0122079E+004
  7.0612045E+003
  3.1104849E+003
 -1.7232428E+003
 -6.5430092E+003
 -5.4611851E+003
  4.1116567E+002
  6.9826699E+003
  1.0494573E+004
  1.2820228E+004
  1.2760856E+004
  1.2339689E+004
  1.1533324E+004
  1.0619784E+004
  9.6417835E+003
  8.6641918E+003
  7.7063549E+003
  6.7477075E+003
  5.7162142E+003
  4.4801886E+003
  2.8277784E+003
  4.2600368E+002
 -3.4245807E+003
 -9.8730238E+003
 -1.6759433E+004
 -2.7989909E+003
 -6.3236668E+002
  1.7082324E+002
 -1.6703775E+003
  2.7274739E+003
  1.8477482E+003
  1.2925480E+004
  1.2855734E+004
  1.1832400E+004
  9.5565779E+003
  6.8437009E+003
  4.1713317E+003
  3.9847163E+002
 -4.9250985E+003
 -6.3759405E+003
  1.2595414E+004
  2.3480418E+003
  1.4526456E+004
  1.3594444E+004
  1.3691146E+004
  1.2603025E+004
  1.1579692E+004
  1.0381356E+004
  9.1759327E+003
  8.0061786E+003
  6.9095455E+003
  5.8649424E+003
  4.7793066E+003
  3.5002941E+003
  1.8052003E+003
 -5.8044965E+002
 -4.0968676E+003
 -8.8690666E+003
 -1.1846315E+004
 -7.1537414E+003
  5.7046723E+002
  6.5531696E+003
  1.0669795E+004
  1.1278984E+004
  9.9148562E+003
  7.2850327E+003
  3.1966656E+003
  1.8599070E+003
 -2.5763752E+003
 -5.6233230E+003
  1.8200362E+004
  1.2864147E+004
  1.5874040E+004
  1.3632223E+004
  1.2797443E+004
  1.1375548E+004
  9.9440220E+003
  8.4653311E+003
  7.0913369E+003
  5.8619786E+003
  4.7589624E+003
  3.6873225E+003
  2.4256252E+003
  7.7467187E+002
 -1.3771053E+003
 -3.9662962E+003
 -5.9872911E+003
 -5.4577273E+003
 -2.5885636E+003
  1.0943131E+003
  5.5258523E+003
  8.5758823E+003
  8.8281457E+003
  6.5924109E+003
  3.3526414E+003
 -1.0660089E+003
  1.3855702E+003
 -3.9285590E+003
  2.0262974E+004
  2.1900141E+004
  1.4064291E+004
  1.4107426E+004
  1.2594835E+004
  1.1127634E+004
  9.2380148E+003
  7.5175608E+003
  5.9550154E+003
  4.6022243E+003
  3.5237094E+003
  2.5949441E+003
  1.5792525E+003
  1.2828323E+002
 -1.6933402E+003
 -3.1996748E+003
 -3.8812136E+003
 -2.2840169E+003
  1.7839595E+003
  3.4716467E+003
  2.8965349E+003
  6.9946578E+003
  3.3367371E+003
  6.1877763E+003
  1.6348163E+003
 -7.9181890E+002
 -5.7120139E+003
  1.9556451E+004
  1.3718905E+004
  1.4253742E+004
  1.3130999E+004
  1.0474131E+004
  8.3558322E+003
  6.3812032E+003
  4.6449468E+003
  3.2076012E+003
  2.1506773E+003
  1.6598792E+003
  1.1008516E+003
 -1.5912413E+002
 -1.6359138E+003
 -2.2979358E+003
 -1.4119517E+003
 -6.2840265E+002
  4.8545354E+003
  9.2308641E+002
  1.2810971E+003
  1.1316970E+004
  5.2333806E+002
  3.0136340E+003
  2.8857906E+003
  1.5161145E+004
  1.6793780E+004
  1.2453181E+004
  9.8256967E+003
  6.6963200E+003
  4.9507218E+003
  3.4398725E+003
  1.7725781E+003
  6.8049312E+002
  6.8372179E+002
  1.7319318E+003
  1.1418392E+003
 -1.5919949E+003
 -2.6657107E+003
  1.7126404E+003
 -1.2256498E+003
  1.6974470E+004
  2.9142304E+003
 -3.5357161E+003
  5.9111554E+003
  8.1115770E+003
  2.0024007E+004
  1.7131655E+004
  1.5678752E+004
  5.7675075E+003
  5.2481205E+003
  4.3828718E+003
  2.0219852E+003
  6.6237515E+002
 -5.4757321E+002
 -1.0030124E+003
  2.4440522E+003
 -2.8392821E+001
 -5.3904980E+002
 -1.5783025E+003
  1.0386634E+004
 -5.4003292E+003
  7.6192878E+003
 -8.7752406E+002
  1.9907416E+004
  3.3371472E+004
  2.2541445E+003
  9.4901456E+002
  3.2017773E+003
  1.5986755E+003
  1.0446263E+003
  8.6601386E+001
 -3.3658286E+002
 -8.7445705E+002
  8.3996045E+003
  1.5706171E+003
 -2.4467508E+002
 -4.9287985E+003
  4.6923403E+003
 -8.5129688E+003
  4.3728479E+004
  4.1564896E+003
 -1.1731140E+003
  7.7597157E+003
  1.7513336E+003
  8.5153887E+001
 -2.6478396E+002
 -6.6969924E+002
 -4.3539605E+003
  2.7720877E+003
 -2.4498823E+004
 -1.1333319E+004
 -7.6169963E+003
  1.2820476E+003
SCALARS Stress_yy double
LOOKUP_TABLE default
 -4.2312472E+004
  2.2153819E+005
  1.1967050E+005
  2.7248692E+004
  1.1894739E+005
  1.0245160E+005
  1.1896332E+005
  1.0317701E+005
  1.2008457E+005
  2.7611156E+004
  2.1468673E+005
 -3.8280812E+004
 -9.8410816E+002
  1.8074560E+003
  6.3756926E+003
  1.9347415E+003
  1.5823160E+004
  9.1319773E+003
  2.4883665E+004
  2.3036828E+004
  3.6384341E+004
  3.8682756E+004
  4.9474667E+004
  5.6523911E+004
  6.4150064E+004
  7.6070690E+004
  8.0054558E+004
  9.7659793E+004
  9.7669608E+004
  1.2024799E+005
  1.1460106E+005
  1.4889987E+005
  1.3778836E+005
  1.6981118E+005
  1.3046519E+005
  2.6092210E+005
  1.4064331E+005
  1.3355010E+005
  1.2976806E+005
  1.3122392E+005
  1.3698991E+005
  1.4086774E+005
  1.3473888E+005
  2.2522376E+005
  1.3683935E+005
  4.3426317E+004
  1.8902658E+005
 -1.3186806E+004
  9.6533096E+003
  9.8705571E+003
  1.5744444E+004
  2.2441559E+004
  3.0580170E+004
  3.9892348E+004
  5.0284262E+004
  6.1564865E+004
  7.3026563E+004
  8.4752629E+004
  9.0970602E+004
  9.8906057E+004
  1.0185503E+005
  1.0898695E+005
  1.1614806E+005
  1.2034657E+005
  1.2168804E+005
  1.2368517E+005
  1.3230050E+005
  1.2755811E+005
  1.2371747E+005
  7.7989900E+004
  1.0804523E+005
  8.9855761E+004
 -5.5616330E+003
  5.0431110E+003
 -2.4482616E+003
  3.3947373E+003
  7.3264562E+003
  1.2700357E+004
  1.6919023E+004
  2.2056233E+004
  2.7887188E+004
  3.4396204E+004
  4.1287297E+004
  4.8297039E+004
  5.4347597E+004
  6.0154946E+004
  6.5022206E+004
  7.3261975E+004
  8.2420628E+004
  9.1639762E+004
  9.8821380E+004
  1.0417611E+005
  1.1018133E+005
  1.1606767E+005
  1.2265239E+005
  1.2402041E+005
  1.3231036E+005
  5.3818382E+004
 -2.0240179E+004
  4.3721970E+004
  2.9246469E+003
  2.5543401E+003
  7.2123923E+003
  7.2926731E+003
  9.3691568E+003
  1.1630439E+004
  1.4447723E+004
  1.7565779E+004
  2.0904149E+004
  2.4277005E+004
  2.7830906E+004
  3.1764401E+004
  3.7424251E+004
  4.4761870E+004
  5.4101309E+004
  6.3924152E+004
  7.3126444E+004
  8.1705420E+004
  9.0682423E+004
  1.0073601E+005
  1.1398608E+005
  1.2861227E+005
  1.6788254E+005
  1.9858532E+005
  4.4003857E+005
  1.7863067E+004
  5.3912537E+003
  3.0738170E+003
  5.9624831E+002
  2.3102109E+002
  1.3010351E+002
  2.4692222E+002
  3.8197939E+002
  5.9402111E+002
  1.0784531E+003
  2.1780358E+003
  4.5426842E+003
  8.6997280E+003
  1.5201442E+004
  2.3606942E+004
  3.3205690E+004
  4.3222666E+004
  5.3433287E+004
  6.4254145E+004
  7.6519262E+004
  9.1812389E+004
  1.1133971E+005
  1.3994004E+005
  1.4871048E+005
  1.7969398E+005
  1.7031117E+005
  2.3812195E+005
  3.6184847E+005
 -5.9459505E+004
  8.1508628E+003
 -7.1604180E+003
 -2.9234523E+003
 -4.7744464E+003
 -5.8289317E+003
 -7.7756809E+003
 -9.7126463E+003
 -1.1672786E+004
 -1.4015072E+004
 -1.6686437E+004
 -1.9432708E+004
 -2.1837543E+004
 -2.3345642E+004
 -2.3339893E+004
 -2.1200551E+004
 -1.6668690E+004
 -9.8321468E+003
 -1.2516641E+003
  8.4082765E+003
  1.8683340E+004
  2.9509963E+004
  4.1201431E+004
  5.4123179E+004
  6.8080638E+004
  7.9046101E+004
  8.5621558E+004
  1.0480080E+005
  1.2400035E+005
  1.4071500E+005
  1.3511520E+005
  1.8120177E+005
  2.5912575E+005
 -3.7327575E+004
  2.4155592E+003
 -4.6196689E+003
 -1.0367870E+004
 -1.3953567E+004
 -1.6312141E+004
 -1.9120294E+004
 -2.2873622E+004
 -2.7686839E+004
 -3.3266307E+004
 -3.9104952E+004
 -4.4633180E+004
 -4.9238489E+004
 -5.2261552E+004
 -5.3098886E+004
 -5.1321368E+004
 -4.6902442E+004
 -4.0234114E+004
 -3.2048611E+004
 -2.3114981E+004
 -1.3939508E+004
 -4.8407552E+003
  4.0070078E+003
  1.1542342E+004
  1.6916203E+004
  2.2672601E+004
  3.2024765E+004
  4.2590443E+004
  6.5564888E+004
  7.7987993E+004
  8.6017466E+004
  7.8732251E+004
  1.3149569E+005
  1.5198178E+005
 -2.0991735E+004
  4.5704551E+002
 -5.3753877E+003
 -2.7293490E+003
 -9.9090478E+003
 -1.4991311E+004
 -1.9303436E+004
 -2.2547500E+004
 -2.6563908E+004
 -3.2522203E+004
 -4.0283082E+004
 -4.9086910E+004
 -5.8236508E+004
 -6.7170596E+004
 -7.5338331E+004
 -8.2129351E+004
 -8.6863960E+004
 -8.8932785E+004
 -8.8003775E+004
 -8.4338331E+004
 -7.8777896E+004
 -7.2441669E+004
 -6.6297988E+004
 -6.0472848E+004
 -5.5533783E+004
 -5.1321311E+004
 -4.7563706E+004
 -4.2810179E+004
 -3.5439507E+004
 -2.3680417E+004
 -1.0366167E+004
  1.9027948E+003
  1.8454679E+004
  2.7357466E+004
  3.0127426E+004
  2.7103624E+004
  7.3997081E+004
  5.4077272E+004
 -6.8422729E+003
  4.1957332E+003
 -3.3944017E+003
 -5.5484654E+003
 -1.3887680E+004
 -2.0074057E+004
 -2.4565986E+004
 -3.0672028E+004
 -4.0273556E+004
 -5.1813639E+004
 -6.4091354E+004
 -7.6578625E+004
 -8.8966921E+004
 -1.0096602E+005
 -1.1213862E+005
 -1.2181521E+005
 -1.2908496E+005
 -1.3318224E+005
 -1.3394068E+005
 -1.3242079E+005
 -1.3026162E+005
 -1.2806318E+005
 -1.2663853E+005
 -1.2398375E+005
 -1.2110630E+005
 -1.1688613E+005
 -1.1069250E+005
 -1.0147711E+005
 -8.9143157E+004
 -7.4635465E+004
 -5.9458772E+004
 -4.5634934E+004
 -3.4236444E+004
 -2.1535139E+004
 -1.3664618E+004
 -1.0211507E+004
 -7.1365367E+003
  2.2742868E+004
  1.8582157E+003
 -3.4044460E+003
  1.9627134E+004
  1.7799961E+003
 -6.2749107E+003
 -1.4688784E+004
 -1.9376868E+004
 -3.1938820E+004
 -4.7435916E+004
 -6.3087345E+004
 -7.8513241E+004
 -9.3800622E+004
 -1.0918881E+005
 -1.2482184E+005
 -1.4064066E+005
 -1.5619262E+005
 -1.7045824E+005
 -1.8173847E+005
 -1.8925253E+005
 -1.9383055E+005
 -1.9791782E+005
 -2.0373550E+005
 -2.0553785E+005
 -2.0608987E+005
 -2.0037204E+005
 -1.9250972E+005
 -1.8181500E+005
 -1.6746350E+005
 -1.5042986E+005
 -1.3203503E+005
 -1.1403249E+005
 -9.7335087E+004
 -8.2220740E+004
 -6.8980995E+004
 -5.7007360E+004
 -4.4758886E+004
 -3.5040468E+004
 -2.5547618E+004
 -1.9172902E+004
 -2.9033377E+003
  2.0922963E+004
  5.8788485E+004
  1.0715312E+004
 -1.1578212E+004
 -3.6361885E+004
 -5.7192937E+004
 -7.5625341E+004
 -9.2672832E+004
 -1.0941817E+005
 -1.2664802E+005
 -1.4500147E+005
 -1.6494046E+005
 -1.8667305E+005
 -2.0962698E+005
 -2.3188192E+005
 -2.4943213E+005
 -2.6362061E+005
 -2.7994396E+005
 -2.9334118E+005
 -3.0999141E+005
 -3.0307053E+005
 -2.9406183E+005
 -2.7700682E+005
 -2.5653392E+005
 -2.3304932E+005
 -2.0679877E+005
 -1.8184085E+005
 -1.5924114E+005
 -1.3939941E+005
 -1.2196594E+005
 -1.0604230E+005
 -9.1177571E+004
 -7.7256900E+004
 -6.3010881E+004
 -4.9632227E+004
 -3.0511094E+004
 -2.7773969E+004
 -1.1811816E+004
  1.2955756E+004
 -1.4861941E+004
 -1.9465925E+004
 -5.4055645E+004
 -7.2740597E+004
 -9.0600336E+004
 -1.0649710E+005
 -1.2267515E+005
 -1.3992319E+005
 -1.5922367E+005
 -1.8155177E+005
 -2.0795443E+005
 -2.3963245E+005
 -2.7635965E+005
 -3.1388160E+005
 -3.4246079E+005
 -3.7685326E+005
 -4.3221631E+005
 -4.3825289E+005
 -4.4716378E+005
 -4.0426171E+005
 -3.6869683E+005
 -3.3573045E+005
 -2.9289507E+005
 -2.5536559E+005
 -2.2210735E+005
 -1.9391510E+005
 -1.7091381E+005
 -1.5154519E+005
 -1.3428063E+005
 -1.1810135E+005
 -1.0254300E+005
 -8.7583726E+004
 -7.1514914E+004
 -5.6188693E+004
 -2.2874614E+004
 -2.8021602E+003
 -1.4799499E+004
  2.7695780E+004
 -3.1948660E+004
 -7.0501837E+004
 -8.2092840E+004
 -9.5341767E+004
 -1.0690609E+005
 -1.1919012E+005
 -1.3251160E+005
 -1.4767432E+005
 -1.6548594E+005
 -1.8707632E+005
 -2.1417118E+005
 -2.4934696E+005
 -2.9706148E+005
 -3.6453134E+005
 -4.3098681E+005
 -5.2576613E+005
 -5.5264850E+005
 -6.9276749E+005
 -5.7247642E+005
 -5.5448129E+005
 -4.7969347E+005
 -4.0263827E+005
 -3.3874166E+005
 -2.9159572E+005
 -2.5020273E+005
 -2.1551752E+005
 -1.9039882E+005
 -1.7015738E+005
 -1.5174459E+005
 -1.3528055E+005
 -1.2017308E+005
 -1.0637809E+005
 -9.1926380E+004
 -8.2336005E+004
 -6.0312900E+004
 -8.4786977E+004
 -2.5095252E+005
 -1.3386966E+005
 -1.2840499E+005
 -1.1644801E+005
 -1.1822873E+005
 -1.2209540E+005
 -1.2897552E+005
 -1.3790203E+005
 -1.4910770E+005
 -1.6287569E+005
 -1.8012964E+005
 -2.0141785E+005
 -2.3158892E+005
 -2.6573288E+005
 -3.4947742E+005
 -4.0896226E+005
 -9.0180857E+005
 -1.0270433E+006
 -6.9705003E+005
 -1.0180414E+006
 -8.9533399E+005
 -4.3555461E+005
 -4.3835317E+005
 -3.5856243E+005
 -3.2400230E+005
 -2.5885327E+005
 -2.2231657E+005
 -1.9835923E+005
 -1.7465971E+005
 -1.5545889E+005
 -1.4023382E+005
 -1.2717281E+005
 -1.1564423E+005
 -1.0655264E+005
 -9.5793725E+004
 -8.6887746E+004
 -3.0150738E+004
  1.2681088E+001
 -3.6992934E+004
 -2.5256595E+004
  6.5201928E+003
  1.3357802E+004
  6.3060315E+004
  1.5719189E+004
  1.0024720E+005
  3.0329878E+004
  2.0623770E+004
  5.9909544E+004
 -1.9713406E+002
  3.1417024E+004
 -2.5934802E+005
 -1.7836665E+005
 -4.2011765E+004
 -1.7281386E+005
 -2.6749664E+005
 -1.7728311E+005
 -1.6890933E+005
 -1.5552851E+005
 -1.4106676E+005
 -1.3459881E+005
 -1.3264931E+005
 -1.3417922E+005
 -1.3821886E+005
 -1.4435702E+005
 -1.5233862E+005
 -1.6217401E+005
 -1.7331085E+005
 -1.8682164E+005
 -1.9466596E+005
 -2.1005236E+005
 -9.6153730E+004
  6.0481258E+004
  1.9486694E+005
 -3.1012613E+005
 -6.0850010E+005
 -3.5894655E+005
 -3.0113010E+005
 -2.6221311E+005
 -2.2278727E+005
 -1.8866141E+005
 -1.5707896E+005
 -1.4127450E+005
 -1.2994917E+005
 -1.2014619E+005
 -1.1293117E+005
 -1.0875279E+005
 -1.0498040E+005
 -1.1010377E+005
 -1.1690826E+005
 -1.7918709E+005
 -9.1918076E+003
 -1.8456737E+004
 -2.5549617E+004
 -1.6613364E+004
 -1.2149450E+004
 -9.7807169E+003
 -7.6483509E+003
 -1.4152320E+004
  5.6271884E+004
 -1.1103796E+004
  1.5956442E+004
 -2.5434912E+004
  1.7467568E+004
  6.6216132E+004
 -3.5525757E+005
 -1.9951791E+005
 -1.3502839E+005
 -2.1553148E+005
 -1.9248008E+005
 -1.8710607E+005
 -1.7027817E+005
 -1.6461071E+005
 -1.5909080E+005
 -1.4977414E+005
 -1.4161238E+005
 -1.3649042E+005
 -1.3401355E+005
 -1.3359364E+005
 -1.3457648E+005
 -1.3632314E+005
 -1.3784918E+005
 -1.3816615E+005
 -1.3304317E+005
 -1.2262591E+005
 -7.4843588E+004
 -4.6072346E+004
 -6.0586455E+003
  1.0333161E+005
 -8.7018411E+003
 -3.9598926E+005
 -4.1044590E+005
 -1.5422028E+005
 -1.4606818E+005
 -1.0730224E+005
 -1.0910002E+005
 -9.9943000E+004
 -9.6386517E+004
 -9.5504570E+004
 -9.7342481E+004
 -1.0224352E+005
 -1.0644181E+005
 -1.0375548E+005
 -7.6423162E+004
 -1.0371320E+005
 -1.0209184E+005
 -5.2995847E+004
 -5.8167605E+004
 -4.6839051E+004
 -4.6808275E+004
 -4.6819157E+004
 -4.9484229E+004
 -5.2453202E+004
 -6.1076345E+004
 -7.1604144E+004
 -8.0273443E+004
 -5.4264094E+004
 -9.9471627E+004
 -5.0377398E+004
 -1.0749484E+005
 -4.2771073E+003
 -2.0966531E+005
  5.4703669E+004
  1.2804411E+005
 -5.7992938E+005
 -2.8599692E+005
 -1.7357368E+005
 -2.8112479E+005
 -2.4083282E+005
 -2.2048595E+005
 -1.9688654E+005
 -1.8174640E+005
 -1.7022707E+005
 -1.6147331E+005
 -1.5472566E+005
 -1.4770398E+005
 -1.4027975E+005
 -1.3385441E+005
 -1.2882923E+005
 -1.2492481E+005
 -1.2155242E+005
 -1.1785867E+005
 -1.1269263E+005
 -1.0416267E+005
 -9.0092692E+004
 -6.5585198E+004
 -3.3744029E+004
 -1.3609929E+004
  1.5409793E+004
  1.8899382E+005
  6.2148478E+004
 -1.0606054E+005
 -2.5175781E+004
 -4.4580354E+004
 -4.5286554E+004
 -5.5035963E+004
 -6.2534894E+004
 -7.3583568E+004
 -8.4434759E+004
 -9.4834394E+004
 -1.0118684E+005
 -1.1773826E+005
 -4.8610080E+004
  5.1356228E+004
 -1.0647160E+005
  1.6616768E+004
 -6.8453088E+004
 -6.8490516E+004
 -6.6800333E+004
 -7.6041642E+004
 -7.5983082E+004
 -7.9972649E+004
 -8.4117581E+004
 -8.9887667E+004
 -9.5998866E+004
 -1.0420550E+005
 -1.1663639E+005
 -1.3500981E+005
 -1.6059075E+005
 -1.9226474E+005
 -2.0895550E+005
 -3.0150444E+005
 -2.4497409E+005
 -2.6584439E+005
 -2.5646298E+005
 -2.9071440E+005
 -2.7205344E+005
 -3.0661568E+005
 -2.8570616E+005
 -3.2556893E+005
 -2.9890613E+005
 -3.4254586E+005
 -3.1113370E+005
 -3.5845392E+005
 -3.2270995E+005
 -3.7335987E+005
 -3.3388525E+005
 -3.8779838E+005
 -3.4490263E+005
 -4.0206843E+005
 -3.5603992E+005
 -4.1597882E+005
 -3.6712587E+005
 -4.3033023E+005
 -3.8032935E+005
 -4.4302461E+005
 -3.9102568E+005
 -4.6842797E+005
 -4.1992017E+005
 -4.7527471E+005
 -3.7464770E+005
 -6.7114143E+005
 -3.6703365E+005
 -3.2157070E+005
 -2.7483686E+005
 -2.3485141E+005
 -2.1203919E+005
 -1.9159424E+005
 -1.7580396E+005
 -1.6367168E+005
 -1.5454990E+005
 -1.4715329E+005
 -1.4015928E+005
 -1.3314958E+005
 -1.2627170E+005
 -1.1977797E+005
 -1.1353684E+005
 -1.0707488E+005
 -9.9651582E+004
 -9.0206107E+004
 -7.7587837E+004
 -6.0071111E+004
 -3.8800518E+004
 -1.4053787E+004
  2.7318361E+003
  2.6523537E+004
  1.9334340E+005
  1.0841211E+005
  5.7376472E+004
  2.2474560E+004
  5.7656694E+003
 -1.9880808E+004
 -3.9293432E+004
 -5.7135524E+004
 -7.7170756E+004
 -9.7729525E+004
 -1.5093697E+005
 -2.0290314E+005
 -5.1032056E+005
 -9.6154099E+004
 -9.8111643E+004
 -9.7895135E+004
 -9.9979330E+004
 -1.0513585E+005
 -1.0976349E+005
 -1.1512552E+005
 -1.2020257E+005
 -1.2583789E+005
 -1.3274935E+005
 -1.4207378E+005
 -1.5486548E+005
 -1.6716559E+005
 -1.7992720E+005
 -1.9788702E+005
 -2.1185506E+005
 -2.2835305E+005
 -2.4017326E+005
 -2.5117224E+005
 -2.6079059E+005
 -2.6941323E+005
 -2.7731266E+005
 -2.8501761E+005
 -2.9276890E+005
 -3.0050651E+005
 -3.0816531E+005
 -3.1428215E+005
 -3.1971922E+005
 -3.0981984E+005
 -3.0105949E+005
 -2.7677928E+005
 -2.5708337E+005
 -2.3850257E+005
 -2.1430514E+005
 -1.9342049E+005
 -1.7687363E+005
 -1.6308179E+005
 -1.5217138E+005
 -1.4346001E+005
 -1.3608623E+005
 -1.2924917E+005
 -1.2240792E+005
 -1.1541810E+005
 -1.0823637E+005
 -1.0072667E+005
 -9.2554656E+004
 -8.3204623E+004
 -7.2079759E+004
 -5.8608695E+004
 -4.2899756E+004
 -2.6002580E+004
 -1.1041467E+004
 -2.8746331E+003
  1.4323903E+003
  1.0050027E+004
  1.5313689E+004
  1.8714224E+005
  2.4017136E+005
  1.2580604E+005
  5.9139269E+004
  2.6069623E+004
  1.6988307E+003
 -2.2123309E+004
 -4.5314901E+004
 -7.2443112E+004
 -1.0871806E+005
 -1.2882018E+005
 -1.5727469E+005
 -1.4942728E+005
 -4.2658286E+005
 -1.7989643E+005
 -1.6727610E+005
 -1.1188261E+005
 -1.2904517E+005
 -8.2741874E+004
 -8.1294190E+004
 -5.5523480E+004
 -5.4009731E+004
 -3.7021432E+004
 -3.2175486E+004
 -2.3061597E+004
 -1.6918516E+004
 -1.3308972E+004
 -6.6028376E+003
 -6.6039041E+003
 -6.2950631E+002
 -2.1253881E+003
  6.5934944E+002
  2.0269227E+003
 -1.6557148E+002
 -1.2872088E+005
 -1.2525419E+005
 -1.2623348E+005
 -1.2898787E+005
 -1.3354178E+005
 -1.3975673E+005
 -1.4430513E+005
 -1.4776892E+005
 -1.5068351E+005
 -1.5404531E+005
 -1.5852289E+005
 -1.6345627E+005
 -1.6871731E+005
 -1.7466302E+005
 -1.8117821E+005
 -1.9092726E+005
 -2.0024891E+005
 -2.0940104E+005
 -2.1699614E+005
 -2.2309636E+005
 -2.2768897E+005
 -2.3153829E+005
 -2.3516953E+005
 -2.3916568E+005
 -2.4327819E+005
 -2.4650281E+005
 -2.4805061E+005
 -2.4464164E+005
 -2.3741447E+005
 -2.2368503E+005
 -2.1371999E+005
 -2.0355938E+005
 -1.9262062E+005
 -1.8034228E+005
 -1.6720415E+005
 -1.5520139E+005
 -1.4490705E+005
 -1.3615455E+005
 -1.2872987E+005
 -1.2213859E+005
 -1.1583123E+005
 -1.0940933E+005
 -1.0263481E+005
 -9.5378206E+004
 -8.7501158E+004
 -7.8802706E+004
 -6.9037654E+004
 -5.8006075E+004
 -4.5776487E+004
 -3.2925251E+004
 -2.0868801E+004
 -1.1782097E+004
 -6.4439652E+003
 -3.3985790E+003
 -2.4221839E+003
 -4.6389153E+003
  1.2836026E+004
  1.9400774E+004
  8.6239894E+004
  9.6502192E+004
  7.5748169E+004
  4.3882452E+004
  1.9005178E+004
 -2.5081729E+003
 -2.2669339E+004
 -3.7787335E+004
 -4.4942738E+004
 -5.7122712E+004
 -7.7355202E+004
 -7.9824591E+004
 -7.8829107E+004
 -5.9356988E+004
 -4.4048596E+004
 -3.0550922E+004
 -2.0262040E+004
 -1.2563968E+004
 -7.0384354E+003
 -3.4580808E+003
 -1.1800793E+003
 -1.9264484E+002
  3.9061380E+003
  6.3004323E+002
  1.4061286E+003
  1.2299452E+003
  5.0681441E+002
 -1.5306639E+005
 -1.5757031E+005
 -1.5752673E+005
 -1.5764714E+005
 -1.6740904E+005
 -1.7196128E+005
 -1.7369016E+005
 -1.7314858E+005
 -1.7174518E+005
 -1.7031037E+005
 -1.6909416E+005
 -1.6809711E+005
 -1.6718735E+005
 -1.6686346E+005
 -1.6814765E+005
 -1.7074560E+005
 -1.7504895E+005
 -1.7994298E+005
 -1.8440987E+005
 -1.8721283E+005
 -1.8785171E+005
 -1.8673607E+005
 -1.8618476E+005
 -1.8612076E+005
 -1.8627539E+005
 -1.8618691E+005
 -1.8379526E+005
 -1.7926403E+005
 -1.7206137E+005
 -1.6530410E+005
 -1.5850322E+005
 -1.5329411E+005
 -1.4847389E+005
 -1.4272144E+005
 -1.3617492E+005
 -1.2934610E+005
 -1.2282756E+005
 -1.1685153E+005
 -1.1133808E+005
 -1.0606146E+005
 -1.0072547E+005
 -9.5058640E+004
 -8.8874016E+004
 -8.2050302E+004
 -7.4499490E+004
 -6.6147876E+004
 -5.6963007E+004
 -4.7037872E+004
 -3.6713677E+004
 -2.6702292E+004
 -1.8104893E+004
 -1.1793941E+004
 -8.0964517E+003
 -4.6446233E+003
 -5.7390322E+002
  1.0242870E+004
  2.5864893E+005
  3.0245824E+005
  1.6940273E+005
  1.1501838E+005
  8.2376086E+004
  6.2817502E+004
  4.5341925E+004
  3.1498083E+004
  2.1990098E+004
  1.5091345E+004
  5.2897056E+003
 -7.9448464E+003
 -2.4540864E+004
 -3.0147342E+004
 -2.9658096E+004
 -2.3816044E+004
 -1.7638258E+004
 -1.2001831E+004
 -7.5972942E+003
 -4.5084477E+003
 -2.6189216E+003
 -1.5908542E+003
 -8.6307105E+002
 -5.2928347E+002
 -2.5465081E+002
 -2.5930243E+002
  8.8679364E+002
 -2.0061217E+005
 -1.4054018E+005
 -1.8301892E+005
 -2.0418224E+005
 -2.1004149E+005
 -2.0894715E+005
 -2.0378107E+005
 -1.9660669E+005
 -1.8935904E+005
 -1.8247086E+005
 -1.7591224E+005
 -1.6952473E+005
 -1.6341889E+005
 -1.5796137E+005
 -1.5357669E+005
 -1.5083087E+005
 -1.4967834E+005
 -1.5037253E+005
 -1.5242276E+005
 -1.5236471E+005
 -1.4862484E+005
 -1.4429018E+005
 -1.3784931E+005
 -1.3298884E+005
 -1.2881081E+005
 -1.2390143E+005
 -1.2026307E+005
 -1.1574245E+005
 -1.1219523E+005
 -1.0906347E+005
 -1.0745233E+005
 -1.0643871E+005
 -1.0593584E+005
 -1.0528464E+005
 -1.0381151E+005
 -1.0154791E+005
 -9.8771980E+004
 -9.5689353E+004
 -9.2366062E+004
 -8.8743078E+004
 -8.4694150E+004
 -8.0085770E+004
 -7.4812985E+004
 -6.8814561E+004
 -6.2072238E+004
 -5.4617420E+004
 -4.6558367E+004
 -3.8129919E+004
 -2.9749107E+004
 -2.2029858E+004
 -1.5646848E+004
 -1.1088036E+004
 -8.1871454E+003
 -6.2312006E+003
 -5.6648196E+003
 -3.3082935E+003
 -5.1582431E+003
  4.4480529E+003
  2.9241376E+004
  1.1137884E+005
  1.4192519E+005
  1.2303908E+005
  1.0770852E+005
  9.3353614E+004
  7.9348868E+004
  6.8806613E+004
  5.9641333E+004
  4.8506409E+004
  3.4034584E+004
  1.9853386E+004
  7.7594202E+003
  1.1510763E+003
 -1.4816685E+003
 -1.5218390E+003
 -7.2571463E+002
  2.9333417E+001
  2.6931277E+002
 -2.4841493E+001
 -5.0238057E+002
 -8.6779041E+002
 -7.3715351E+002
 -4.7495067E+002
  2.4637847E+002
  1.2012894E+005
 -2.2457731E+005
 -3.3134278E+005
 -2.6447704E+005
 -2.6627573E+005
 -2.4924028E+005
 -2.3248604E+005
 -2.1650738E+005
 -2.0295413E+005
 -1.9080928E+005
 -1.7937897E+005
 -1.6830065E+005
 -1.5759566E+005
 -1.4749114E+005
 -1.3831374E+005
 -1.3025880E+005
 -1.2368435E+005
 -1.1869408E+005
 -1.1733361E+005
 -1.1887749E+005
 -1.1608646E+005
 -1.0311252E+005
 -9.5581449E+004
 -8.3726468E+004
 -6.8201285E+004
 -6.2689516E+004
 -5.3268562E+004
 -5.1338762E+004
 -5.0122943E+004
 -5.5302180E+004
 -5.8273388E+004
 -6.1264080E+004
 -6.5616911E+004
 -6.9522309E+004
 -7.2208507E+004
 -7.3802425E+004
 -7.4362404E+004
 -7.4020860E+004
 -7.2900478E+004
 -7.1044992E+004
 -6.8451012E+004
 -6.5095241E+004
 -6.0957070E+004
 -5.6041395E+004
 -5.0395929E+004
 -4.4125824E+004
 -3.7412680E+004
 -3.0535392E+004
 -2.3879118E+004
 -1.7897846E+004
 -1.3023980E+004
 -9.4906956E+003
 -7.3300248E+003
 -6.4410072E+003
 -5.4902455E+003
 -2.7981923E+003
 -5.0826688E+002
  3.0132698E+005
  2.4555090E+005
  1.8479996E+005
  1.7150011E+005
  1.5975985E+005
  1.3504896E+005
  1.1800590E+005
  1.0534203E+005
  9.3839141E+004
  8.1418093E+004
  6.7106094E+004
  5.1637029E+004
  3.7734002E+004
  2.6689798E+004
  1.9110024E+004
  1.4222059E+004
  1.0999800E+004
  8.4205802E+003
  5.8659706E+003
  3.2604905E+003
  9.4250961E+002
 -4.1798262E+002
 -8.0001927E+002
 -5.6116192E+002
  2.1834095E+002
 -4.0021238E+005
 -3.6159887E+005
 -3.5233136E+005
 -3.2517957E+005
 -2.8540394E+005
 -2.5371439E+005
 -2.2978810E+005
 -2.1121669E+005
 -1.9491667E+005
 -1.7941953E+005
 -1.6439910E+005
 -1.4987138E+005
 -1.3590183E+005
 -1.2256125E+005
 -1.0984711E+005
 -9.7860415E+004
 -8.5991493E+004
 -7.6340894E+004
 -6.2570122E+004
 -7.3281640E+004
 -1.0179880E+005
 -5.2002294E+004
 -3.0365968E+004
 -8.0564940E+003
  3.0249826E+004
  4.4330715E+004
  1.6587440E+004
  3.5556727E+003
  1.4390216E+002
 -8.1258347E+003
 -1.8452598E+004
 -2.9247842E+004
 -3.6486779E+004
 -4.2773800E+004
 -4.7626153E+004
 -5.0938099E+004
 -5.2992414E+004
 -5.3896915E+004
 -5.3739695E+004
 -5.2619010E+004
 -5.0590363E+004
 -4.7694532E+004
 -4.3988799E+004
 -3.9568461E+004
 -3.4583161E+004
 -2.9243223E+004
 -2.3819211E+004
 -1.8626706E+004
 -1.3987732E+004
 -1.0152157E+004
 -7.2519864E+003
 -5.2152357E+003
 -3.9933082E+003
 -4.0591679E+003
 -2.5323943E+003
 -4.7710110E+003
  2.8968256E+005
  4.0240170E+005
  2.5753538E+005
  1.9257693E+005
  1.6247935E+005
  1.4703312E+005
  1.3223048E+005
  1.1970889E+005
  1.0642362E+005
  9.1418817E+004
  7.5382197E+004
  5.9767225E+004
  4.6187712E+004
  3.5355476E+004
  2.7216674E+004
  2.1040653E+004
  1.5818043E+004
  1.0827559E+004
  5.9843274E+003
  2.1854053E+003
 -3.5366366E+002
 -7.2975825E+002
 -5.8084528E+002
  1.8645010E+002
 -4.6440680E+005
 -5.2305445E+005
 -4.4902354E+005
 -3.6131673E+005
 -3.0051243E+005
 -2.5966949E+005
 -2.3356132E+005
 -2.1337951E+005
 -1.9424671E+005
 -1.7558562E+005
 -1.5762534E+005
 -1.4034046E+005
 -1.2359099E+005
 -1.0720999E+005
 -9.1068183E+004
 -7.4633622E+004
 -5.8230490E+004
 -3.7463834E+004
 -1.9801445E+004
  2.0837496E+004
  6.4502620E+003
  2.8379725E+004
  9.7964040E+004
  8.7644123E+004
  2.7158104E+004
  1.6876109E+004
  2.6707388E+003
 -7.0929492E+003
 -1.7284038E+004
 -2.3963181E+004
 -2.9484067E+004
 -3.3551732E+004
 -3.6110333E+004
 -3.7453943E+004
 -3.7712582E+004
 -3.6977831E+004
 -3.5331480E+004
 -3.2851307E+004
 -2.9661557E+004
 -2.5938696E+004
 -2.1898040E+004
 -1.7780997E+004
 -1.3835922E+004
 -1.0277654E+004
 -7.2587351E+003
 -4.7495873E+003
 -2.7423958E+003
 -2.8184035E+002
  1.7646415E+003
  9.7300837E+003
  3.9230525E+003
  2.7237662E+004
  1.2103927E+005
  1.8993790E+005
  1.8171895E+005
  1.6471091E+005
  1.5080154E+005
  1.3902145E+005
  1.2540322E+005
  1.0945337E+005
  9.2010477E+004
  7.4774328E+004
  5.9153340E+004
  4.6045988E+004
  3.5685252E+004
  2.7559578E+004
  2.0662958E+004
  1.3835858E+004
  7.4118361E+003
  1.6827138E+003
  2.0390376E+002
 -7.3198127E+002
  2.4524437E+002
  8.1390301E+001
 -1.2523062E+006
 -7.2535876E+005
 -3.8473480E+005
 -3.4838637E+005
 -2.7994651E+005
 -2.4959071E+005
 -2.2947962E+005
 -2.0960529E+005
 -1.8775714E+005
 -1.6707391E+005
 -1.4765006E+005
 -1.2907245E+005
 -1.1098525E+005
 -9.3084082E+004
 -7.5169300E+004
 -5.6918665E+004
 -3.8679137E+004
 -1.8918976E+004
 -9.6821450E+003
  7.2655368E+003
 -1.3809870E+004
  4.0044469E+004
  6.5791369E+004
  2.2557018E+004
  1.5516644E+004
  4.4347220E+003
 -3.2394216E+003
 -1.1188061E+004
 -1.6160353E+004
 -2.0082522E+004
 -2.2687763E+004
 -2.4109867E+004
 -2.4581367E+004
 -2.4117015E+004
 -2.2781537E+004
 -2.0737553E+004
 -1.8179536E+004
 -1.5317639E+004
 -1.2359821E+004
 -9.4986248E+003
 -6.8790676E+003
 -4.6056842E+003
 -2.5765616E+003
 -9.9416693E+002
  1.4584376E+003
  6.9919454E+001
  2.6285444E+003
  2.7821374E+005
  3.5890808E+005
  2.1941093E+005
  1.9071291E+005
  1.7117550E+005
  1.6459334E+005
  1.5408042E+005
  1.3986565E+005
  1.2172928E+005
  1.0217471E+005
  8.2979173E+004
  6.5510860E+004
  5.0531661E+004
  3.8294626E+004
  2.8872736E+004
  2.0487420E+004
  1.1848781E+004
  3.4701894E+003
  1.5409244E+003
  1.5126945E+003
  4.7144780E+003
  1.0038433E+003
  3.4821265E+002
  2.0984050E+004
 -2.1858515E+005
 -2.3600739E+005
 -2.5194467E+005
 -2.3517410E+005
 -2.2409384E+005
 -1.9647118E+005
 -1.7326616E+005
 -1.5298402E+005
 -1.3422876E+005
 -1.1621313E+005
 -9.8443661E+004
 -8.0664640E+004
 -6.2803666E+004
 -4.4927158E+004
 -2.7932483E+004
 -1.2720196E+004
 -6.1025065E+003
  8.0221700E+003
 -1.0664748E+004
  2.8464114E+004
  4.8081939E+004
  1.7498948E+004
  1.2558959E+004
  4.7101002E+003
 -1.0860714E+003
 -6.4463565E+003
 -9.5875503E+003
 -1.2099267E+004
 -1.3702612E+004
 -1.4240077E+004
 -1.3890352E+004
 -1.2842225E+004
 -1.1311139E+004
 -9.4922485E+003
 -7.5573445E+003
 -5.6539134E+003
 -3.8967223E+003
 -2.3451467E+003
 -1.0470798E+003
  8.7532493E+001
  5.4922618E+002
  3.7634813E+002
  9.5899293E+002
  3.0047450E+004
  1.2981186E+005
  1.8439405E+005
  1.8019998E+005
  1.7845158E+005
  1.6859545E+005
  1.4984173E+005
  1.2787788E+005
  1.0564692E+005
  8.4451528E+004
  6.5276943E+004
  4.8864540E+004
  3.4869272E+004
  2.2663492E+004
  1.4692049E+004
  4.5547179E+003
 -5.5953623E+003
 -9.9583246E+003
  4.4931036E+003
 -4.2389379E+003
 -2.0614267E+005
 -4.3192854E+005
 -2.1714099E+005
 -2.0072333E+005
 -1.6435854E+005
 -1.4960331E+005
 -1.3295378E+005
 -1.1776931E+005
 -1.0215013E+005
 -8.6312217E+004
 -7.0120218E+004
 -5.3761430E+004
 -3.7586579E+004
 -2.2874266E+004
 -1.0212644E+004
 -5.0453710E+003
  5.9875992E+003
 -7.9991798E+003
  2.1314355E+004
  3.7839186E+004
  1.3896856E+004
  1.1343979E+004
  5.3632001E+003
  1.6486420E+003
 -2.2246341E+003
 -4.5175929E+003
 -5.8283915E+003
 -6.2121816E+003
 -5.9897590E+003
 -5.3425000E+003
 -4.4304653E+003
 -3.3953425E+003
 -2.3409806E+003
 -1.3587647E+003
 -5.3193831E+002
  1.0520603E+002
  4.1365934E+002
  5.1200307E+002
  4.1689153E+001
  6.9567646E+002
  3.1031165E+005
  2.5250489E+005
  2.0094938E+005
  2.0546140E+005
  2.0399977E+005
  1.7960673E+005
  1.5189110E+005
  1.2605283E+005
  1.0174848E+005
  7.9372269E+004
  5.9023876E+004
  4.1214252E+004
  2.7343901E+004
  1.2038755E+004
 -7.7072483E+003
 -4.5642225E+004
 -2.1622117E+004
  1.0343006E+004
 -5.4278043E+004
 -1.2374274E+005
 -1.1871268E+005
 -1.1779239E+005
 -1.0941373E+005
 -9.9430677E+004
 -8.7728151E+004
 -7.4992774E+004
 -6.1468522E+004
 -4.7546290E+004
 -3.3661702E+004
 -2.0936492E+004
 -9.7096085E+003
 -4.8208942E+003
  5.2060653E+003
 -6.7545011E+003
  2.0245357E+004
  3.2072944E+004
  1.2551564E+004
  9.7545355E+003
  5.3914681E+003
  2.7771242E+003
  1.2926897E+003
  3.0103365E+002
 -1.8907678E+002
 -2.6462027E+002
 -1.5811906E+002
  9.2732339E+001
  4.2019591E+002
  7.3340869E+002
  9.4487802E+002
  9.7045225E+002
  7.7331288E+002
  4.6132892E+002
  6.1015617E+001
  3.3342334E+002
  2.9013676E+005
  4.3406011E+005
  2.7415447E+005
  2.1757271E+005
  1.7038154E+005
  1.4046582E+005
  1.1349532E+005
  9.0166429E+004
  6.8540367E+004
  4.8406823E+004
  2.9209556E+004
  1.3893799E+004
  5.5304885E+003
  6.6915507E+003
  2.3132403E+004
  1.6226716E+004
 -2.7590345E+004
 -4.7708792E+004
 -8.0448434E+004
 -8.5956375E+004
 -8.6010277E+004
 -8.1255898E+004
 -7.4022196E+004
 -6.4971485E+004
 -5.4720115E+004
 -4.3726974E+004
 -3.2471416E+004
 -2.1457115E+004
 -1.1051813E+004
 -5.1474173E+003
  3.9501092E+003
  3.2253318E+003
  1.4535786E+004
  1.1988013E+004
  1.1157583E+004
  9.4104667E+003
  7.4154897E+003
  5.5208211E+003
  4.6949285E+003
  3.8829739E+003
  3.2537420E+003
  2.8615184E+003
  2.6123086E+003
  2.4031455E+003
  2.1425803E+003
  1.7539524E+003
  1.1629597E+003
  5.0371793E+002
  1.1049366E+002
  1.4422705E+002
  1.2785890E+005
  1.1400369E+005
  1.6760966E+005
  1.2961600E+005
  1.1101353E+005
  8.9906075E+004
  7.1668038E+004
  5.3888570E+004
  3.6014867E+004
  1.8400776E+004
 -3.9507628E+003
 -1.8349290E+004
 -7.0543637E+004
 -2.9467316E+004
 -1.4996317E+004
 -5.0106497E+004
 -3.9445985E+004
 -5.3558444E+004
 -6.1490276E+004
 -6.5483949E+004
 -6.5195066E+004
 -6.2024146E+004
 -5.6699215E+004
 -4.9854131E+004
 -4.2034282E+004
 -3.3474167E+004
 -2.5073401E+004
 -1.4452660E+004
 -7.9655717E+003
  2.9241030E+003
  1.1951524E+003
  1.4499810E+004
  2.7507809E+004
  1.2513234E+004
  1.2627608E+004
  9.9595874E+003
  8.6027185E+003
  6.8186887E+003
  5.7004682E+003
  4.8765043E+003
  4.2319461E+003
  3.6528200E+003
  3.0798465E+003
  2.4625275E+003
  1.7795468E+003
  7.3916311E+002
  1.4294361E+002
 -1.1123613E+003
  5.1359709E+004
  6.0678457E+004
  6.7422585E+004
  7.4484548E+004
  6.7184982E+004
  5.8973985E+004
  4.8727296E+004
  3.7728582E+004
  2.5208044E+004
  1.3381184E+004
 -6.2212018E+003
  3.4523809E+002
 -1.6229280E+004
 -7.5007679E+003
 -1.4715677E+004
 -3.5971008E+004
 -4.2536971E+004
 -4.9467895E+004
 -5.2183377E+004
 -5.2422386E+004
 -5.0416021E+004
 -4.6808339E+004
 -4.1976918E+004
 -3.6507450E+004
 -2.9900483E+004
 -2.4989117E+004
 -1.0381622E+004
 -4.0936474E+003
 -4.5732909E+003
  1.4994682E+004
  2.4624166E+004
  1.1404341E+004
  1.0546958E+004
  8.2382217E+003
  7.1561002E+003
  6.1721137E+003
  5.3075844E+003
  4.4705713E+003
  3.7158524E+003
  2.9414583E+003
  2.3968168E+003
  1.8531582E+003
  3.2248528E+003
  1.5570802E+003
 -1.6799045E+004
 -5.8080248E+002
 -3.7472802E+003
  1.4004969E+004
  2.2733960E+004
  2.5837879E+004
  2.5095782E+004
  2.1849855E+004
  1.7413393E+004
  1.1789259E+004
  1.0387944E+004
  6.2563437E+003
  2.4966384E+003
  1.8670877E+003
 -9.8749925E+003
 -1.8508808E+004
 -3.0372456E+004
 -3.7468898E+004
 -4.2684180E+004
 -4.5384291E+004
 -4.6157180E+004
 -4.5321872E+004
 -4.3210263E+004
 -4.0221043E+004
 -3.6083455E+004
 -3.2773287E+004
 -2.6468488E+004
 -3.9214287E+004
  1.2380819E+003
  8.9149592E+003
  8.6292636E+003
  8.7708924E+003
  7.8455472E+003
  7.0684746E+003
  5.7801816E+003
  4.8887300E+003
  4.0263324E+003
  3.0271881E+003
  2.3031918E+003
  8.8379781E+002
  5.1939251E+002
 -9.4207303E+004
 -7.3638034E+004
 -5.6011564E+004
 -3.1435611E+004
 -1.4968025E+004
 -3.2189966E+003
  3.6766018E+003
  7.7241007E+003
  1.0182559E+004
  1.2948547E+004
  1.6890740E+004
  2.2246997E+004
  9.7326253E+003
  1.1146858E+004
  8.5516629E+003
  1.4451562E+003
 -5.3787384E+003
 -1.2507148E+004
 -2.1846125E+004
 -2.9966819E+004
 -3.6252567E+004
 -4.0816052E+004
 -4.3696843E+004
 -4.5110921E+004
 -4.5227327E+004
 -4.4211918E+004
 -4.1607383E+004
 -3.7615668E+004
 -2.2511573E+004
 -1.1420106E+004
  1.3036547E+004
 -1.9382017E+004
  8.5307058E+002
  7.1499772E+003
  1.3005316E+004
  7.5826450E+003
  6.8782328E+003
  6.1168763E+003
  5.0938646E+003
  3.8787663E+003
  2.7462310E+003
  1.6115536E+003
  7.4696544E+002
 -5.5485739E+001
 -2.6654641E+004
 -2.1503061E+005
 -1.0761250E+005
 -1.0220096E+005
 -8.0448695E+004
 -6.0089395E+004
 -4.0441240E+004
 -2.5206567E+004
 -1.3457623E+004
 -4.4671290E+003
  3.0037662E+003
  1.0166944E+004
  1.6860361E+004
  2.2918397E+004
  2.5964869E+004
  3.7408224E+004
  1.7355793E+003
 -4.3380266E+003
 -9.9899150E+003
 -1.7892177E+004
 -2.5478274E+004
 -3.2488274E+004
 -3.8241952E+004
 -4.2687502E+004
 -4.5826612E+004
 -4.7735514E+004
 -4.8255738E+004
 -4.7547583E+004
 -4.3101240E+004
 -4.1301985E+004
 -1.6502564E+004
 -1.1782080E+004
 -1.7367872E+003
  2.1219988E+003
  9.9278120E+003
  7.9985261E+003
  3.8390065E+003
  3.1311476E+003
  2.0477243E+003
  1.2162500E+003
  6.9367160E+002
  2.8413103E+002
  5.9467251E+004
 -2.7263070E+005
 -1.3148323E+005
 -1.2432036E+005
 -1.3551533E+005
 -1.1420950E+005
 -1.0560191E+005
 -8.8792430E+004
 -7.2340377E+004
 -5.4941438E+004
 -3.9281773E+004
 -2.5839462E+004
 -1.4436084E+004
 -4.5428510E+003
  4.1700043E+003
  1.1565564E+004
  1.6751102E+004
  1.7597106E+004
  1.7435943E+004
  2.3503799E+004
  2.2782237E+004
 -2.3859897E+003
 -4.9121602E+003
 -8.5906793E+003
 -1.5620012E+004
 -2.3116370E+004
 -3.0538322E+004
 -3.7095015E+004
 -4.2655490E+004
 -4.7112435E+004
 -5.0428705E+004
 -5.2347242E+004
 -5.3141027E+004
 -5.1332825E+004
 -5.4349985E+004
 -4.7600293E+004
 -9.0285267E+004
 -1.8463860E+003
  3.5717672E+002
  2.0751461E+003
  1.4838460E+003
  4.4123497E+002
  7.1999245E+001
  1.8305746E+004
 -1.0229280E+005
 -6.6035584E+004
 -1.2705564E+004
 -7.5382194E+004
 -5.7119795E+004
 -8.1307163E+004
 -7.6406009E+004
 -9.1907414E+004
 -9.1657854E+004
 -1.0186932E+005
 -1.0379401E+005
 -1.1247537E+005
 -1.1608161E+005
 -1.2498068E+005
 -1.2860671E+005
 -1.3775611E+005
 -1.4906007E+005
 -1.6146910E+005
 -1.6431253E+005
 -1.5129501E+005
 -2.7394309E+005
 -1.5355318E+005
 -1.4002320E+005
 -1.1995046E+005
 -1.0500319E+005
 -9.7629217E+004
 -8.7654564E+004
 -7.4857459E+004
 -6.0863158E+004
 -4.6858121E+004
 -3.3814496E+004
 -2.2084204E+004
 -1.1748267E+004
 -2.9230130E+003
  3.9743738E+003
  8.1520217E+003
  9.8698219E+003
  1.0586115E+004
  9.6436521E+003
  1.4225660E+004
  2.3493386E+004
  1.2602001E+002
 -6.2989951E+003
 -1.3868714E+004
 -2.1973932E+004
 -2.9597349E+004
 -3.6697067E+004
 -4.3077378E+004
 -4.8578758E+004
 -5.3019280E+004
 -5.6244326E+004
 -5.7742380E+004
 -5.7860553E+004
 -5.3062058E+004
 -4.2784024E+004
 -1.3364223E+004
  1.9118929E+004
 -3.9171040E+004
  1.3040317E+004
 -1.0113383E+005
 -7.2726542E+004
 -1.5058116E+004
 -7.4833680E+004
 -9.9352793E+004
 -7.9829020E+004
 -8.2746460E+004
 -8.4674049E+004
 -8.7343638E+004
 -9.2550288E+004
 -9.9190389E+004
 -1.0669527E+005
 -1.1434399E+005
 -1.2252745E+005
 -1.2378794E+005
 -1.2450294E+005
 -1.1723052E+005
 -1.0935383E+005
 -1.0364329E+005
 -9.5536872E+004
 -8.8700924E+004
 -8.1557885E+004
 -7.2315690E+004
 -6.1391738E+004
 -4.9755215E+004
 -3.8237264E+004
 -2.7441883E+004
 -1.7770338E+004
 -9.5830877E+003
 -3.2890991E+003
  8.8765836E+002
  3.1564810E+003
  4.2334165E+003
  5.7290227E+003
  2.4790230E+003
 -4.2438687E+003
  1.5218473E+004
  2.3030284E+002
 -5.9424858E+003
 -1.3082677E+004
 -2.1205599E+004
 -2.8774416E+004
 -3.6351018E+004
 -4.3414917E+004
 -4.9792316E+004
 -5.5297224E+004
 -5.9645669E+004
 -6.2342554E+004
 -6.2604308E+004
 -5.7923677E+004
 -5.3346311E+004
 -4.8777511E+004
 -8.6994232E+004
  2.8407366E+004
 -1.4313327E+005
 -7.9651871E+004
 -5.1708239E+004
 -8.7249058E+004
 -8.1917910E+004
 -8.3659082E+004
 -8.1667280E+004
 -8.3760477E+004
 -8.6684617E+004
 -8.8677902E+004
 -9.1357926E+004
 -9.4929576E+004
 -9.8877845E+004
 -1.0256344E+005
 -1.0417565E+005
 -1.0361892E+005
 -9.9183256E+004
 -9.5384314E+004
 -9.1660962E+004
 -8.7737483E+004
 -8.3934615E+004
 -7.9482304E+004
 -7.4113197E+004
 -6.7285016E+004
 -5.8944789E+004
 -4.9630266E+004
 -4.0017698E+004
 -3.0712323E+004
 -2.2212157E+004
 -1.4928247E+004
 -9.1404313E+003
 -4.9554398E+003
 -1.9137704E+003
  2.7021819E+002
  4.0715590E+003
  7.2641397E+003
  2.1873192E+004
 -7.4095651E+003
 -5.7972049E+003
 -1.2759581E+004
 -1.8908655E+004
 -2.7314462E+004
 -3.5426462E+004
 -4.3104785E+004
 -5.0330576E+004
 -5.6896472E+004
 -6.2587681E+004
 -6.6927668E+004
 -6.9380885E+004
 -6.8366323E+004
 -6.5331608E+004
 -3.5500990E+004
 -2.1152451E+004
  3.6798873E+004
 -4.1669364E+004
  2.0598107E+004
 -1.3856604E+005
 -9.3758261E+004
 -1.8633181E+004
 -9.2264598E+004
 -1.3093775E+005
 -9.3870660E+004
 -9.3720949E+004
 -8.9188632E+004
 -8.5488786E+004
 -8.3969279E+004
 -8.3520989E+004
 -8.4014040E+004
 -8.5308917E+004
 -8.6693397E+004
 -8.7946059E+004
 -8.9327599E+004
 -9.0606952E+004
 -9.1134009E+004
 -9.0396819E+004
 -8.7879301E+004
 -8.4656741E+004
 -8.0992603E+004
 -7.7988233E+004
 -7.5659400E+004
 -7.3230334E+004
 -7.0323482E+004
 -6.6451933E+004
 -6.1342534E+004
 -5.4991559E+004
 -4.7695219E+004
 -3.9937890E+004
 -3.2233785E+004
 -2.5043975E+004
 -1.8730679E+004
 -1.3516413E+004
 -9.3901342E+003
 -6.1457610E+003
 -3.1859673E+003
 -5.1581925E+002
  9.3574653E+002
 -6.2465887E+002
 -6.3955748E+003
  1.0359926E+004
  6.9520019E+003
  1.3754262E+004
 -3.6043110E+003
 -1.4944694E+004
 -2.4884898E+004
 -3.3210572E+004
 -4.1683688E+004
 -4.9736506E+004
 -5.7374177E+004
 -6.4533155E+004
 -7.1180026E+004
 -7.6827645E+004
 -8.2472331E+004
 -8.1585241E+004
 -9.2567922E+004
 -3.2967978E+004
 -3.1938774E+004
  2.5919075E+004
 -1.5540949E+005
 -9.9399858E+004
 -1.8629985E+004
 -9.6896785E+004
 -1.3326687E+005
 -1.0030115E+005
 -9.8442747E+004
 -9.5603859E+004
 -8.9738348E+004
 -8.7387417E+004
 -8.7043248E+004
 -8.5005183E+004
 -8.3564348E+004
 -8.2735380E+004
 -8.2534864E+004
 -8.2756412E+004
 -8.3016018E+004
 -8.3143754E+004
 -8.3031327E+004
 -8.2529601E+004
 -8.1379158E+004
 -7.9324283E+004
 -7.6505606E+004
 -7.3214080E+004
 -7.0236028E+004
 -6.7814241E+004
 -6.5869242E+004
 -6.4085053E+004
 -6.1950271E+004
 -5.9080712E+004
 -5.5234376E+004
 -5.0388757E+004
 -4.4731373E+004
 -3.8596550E+004
 -3.2378651E+004
 -2.6452297E+004
 -2.1113775E+004
 -1.6532296E+004
 -1.2715366E+004
 -9.5208013E+003
 -6.6951102E+003
 -4.4675124E+003
 -1.1912641E+003
  2.9784909E+003
  1.4426147E+004
 -1.1760123E+004
 -6.6163606E+003
 -1.2245825E+004
 -1.9855351E+004
 -2.9518966E+004
 -3.8836712E+004
 -4.7559053E+004
 -5.6156797E+004
 -6.4693754E+004
 -7.3450807E+004
 -8.2581581E+004
 -9.3256271E+004
 -1.0499627E+005
 -1.2961420E+005
 -1.5658845E+005
 -2.3803297E+005
  2.1849520E+004
 -1.1390985E+005
 -7.1444969E+004
 -1.3282343E+004
 -8.2096229E+004
 -6.0682145E+004
 -8.8614467E+004
 -8.6085111E+004
 -1.0599412E+005
 -1.0276409E+005
 -1.0196930E+005
 -1.7049236E+005
 -1.1056218E+005
 -1.0484661E+005
 -1.0106390E+005
 -9.4247833E+004
 -9.2033846E+004
 -8.9586628E+004
 -8.6588847E+004
 -8.4543067E+004
 -8.3300536E+004
 -8.2342563E+004
 -8.1184293E+004
 -8.0273836E+004
 -7.9613417E+004
 -7.9077904E+004
 -7.8497893E+004
 -7.7700848E+004
 -7.6583050E+004
 -7.5043238E+004
 -7.2987317E+004
 -7.0413435E+004
 -6.7456608E+004
 -6.4475137E+004
 -6.1769276E+004
 -5.9572370E+004
 -5.7835315E+004
 -5.6269370E+004
 -5.4525119E+004
 -5.2273758E+004
 -4.9310777E+004
 -4.5588366E+004
 -4.1215340E+004
 -3.6418212E+004
 -3.1482670E+004
 -2.6693199E+004
 -2.2280005E+004
 -1.8379479E+004
 -1.5013743E+004
 -1.2105564E+004
 -9.5600880E+003
 -7.1504921E+003
 -4.8071635E+003
 -4.3633428E+003
 -2.2270261E+003
 -6.9531131E+003
  6.6289974E+003
  1.4612455E+004
  2.9655259E+004
  1.3639361E+003
 -1.2581240E+004
 -2.4963627E+004
 -3.4056250E+004
 -4.3529945E+004
 -5.2752757E+004
 -6.2209956E+004
 -7.2309783E+004
 -8.3637389E+004
 -9.6638716E+004
 -1.1314391E+005
 -1.3038647E+005
 -1.3787665E+005
 -1.5022187E+005
 -1.6156660E+005
 -1.4649919E+005
  2.0900884E+004
 -1.1119404E+005
 -7.1984108E+004
 -1.5010577E+004
 -8.5431559E+004
 -6.1428449E+004
 -8.0196231E+004
 -1.2017165E+005
 -8.8691328E+004
 -8.8724731E+004
 -8.9479681E+004
 -9.1329725E+004
 -9.2063292E+004
 -9.5001820E+004
 -9.3839085E+004
 -9.4245226E+004
 -9.2561408E+004
 -8.9576308E+004
 -8.6708996E+004
 -8.4626645E+004
 -8.2587761E+004
 -8.0815789E+004
 -7.9630278E+004
 -7.8625026E+004
 -7.7667885E+004
 -7.6678961E+004
 -7.5699744E+004
 -7.4671120E+004
 -7.3485496E+004
 -7.2049145E+004
 -7.0290549E+004
 -6.8172142E+004
 -6.5696768E+004
 -6.2931405E+004
 -6.0039420E+004
 -5.7236167E+004
 -5.4752112E+004
 -5.2690751E+004
 -5.1004552E+004
 -4.9511152E+004
 -4.7949580E+004
 -4.6074525E+004
 -4.3715433E+004
 -4.0813162E+004
 -3.7422490E+004
 -3.3689732E+004
 -2.9813920E+004
 -2.6002481E+004
 -2.2429869E+004
 -1.9205641E+004
 -1.6355353E+004
 -1.3831789E+004
 -1.1496441E+004
 -9.2667768E+003
 -7.0615353E+003
 -4.8978060E+003
 -1.8950936E+003
 -6.8961917E+002
 -1.6536790E+004
 -6.3159273E+003
 -9.4339800E+003
 -1.7302209E+004
 -2.7664174E+004
 -3.7575000E+004
 -4.6882934E+004
 -5.6631726E+004
 -6.7179039E+004
 -7.8872822E+004
 -9.2156451E+004
 -1.0621396E+005
 -1.2047654E+005
 -1.3548234E+005
 -1.7464502E+005
 -2.0109557E+005
 -4.2320897E+005
 -8.8178746E+004
  3.0445258E+004
 -1.5549374E+005
 -9.4869710E+004
 -1.3561531E+004
 -9.1505313E+004
 -1.0841904E+005
 -9.0839018E+004
 -9.0838554E+004
 -8.7374929E+004
 -8.6116980E+004
 -8.5008127E+004
 -8.6781379E+004
 -8.8535636E+004
 -8.7946404E+004
 -8.7240526E+004
 -8.5730778E+004
 -8.5845163E+004
 -8.5567846E+004
 -8.4988308E+004
 -8.3401294E+004
 -8.1449168E+004
 -7.9608245E+004
 -7.7995733E+004
 -7.6625202E+004
 -7.5459985E+004
 -7.4453901E+004
 -7.3446911E+004
 -7.2372430E+004
 -7.1178451E+004
 -6.9820787E+004
 -6.8243915E+004
 -6.6399633E+004
 -6.4267874E+004
 -6.1861033E+004
 -5.9227988E+004
 -5.6459524E+004
 -5.3686336E+004
 -5.1064092E+004
 -4.8722022E+004
 -4.6726532E+004
 -4.5044710E+004
 -4.3550883E+004
 -4.2068827E+004
 -4.0419874E+004
 -3.8470259E+004
 -3.6159018E+004
 -3.3505717E+004
 -3.0598941E+004
 -2.7571776E+004
 -2.4571101E+004
 -2.1727317E+004
 -1.9127650E+004
 -1.6799086E+004
 -1.4683453E+004
 -1.2668118E+004
 -1.0493103E+004
 -8.1023851E+003
 -4.1870115E+003
 -2.1455086E+003
  7.8618469E+002
  2.3221724E+004
  4.7457002E+004
  8.1693564E+003
 -7.2730050E+003
 -2.0886596E+004
 -2.9378871E+004
 -3.8661282E+004
 -4.8090333E+004
 -5.8311183E+004
 -6.9473567E+004
 -8.1440658E+004
 -9.3893238E+004
 -1.0770311E+005
 -1.2509096E+005
 -1.5321922E+005
 -1.8330071E+005
 -2.1949336E+005
 -2.0793219E+005
 -4.4097179E+005
 -2.3633519E+005
 -2.0493766E+005
 -1.8636191E+005
 -1.8817244E+005
 -1.6788284E+005
 -1.5769341E+005
 -1.5254800E+005
 -1.4646184E+005
 -1.4388679E+005
 -1.4236360E+005
 -1.4368929E+005
 -1.3788773E+005
 -1.2697742E+005
 -1.8802923E+005
 -1.2538573E+005
 -1.1210764E+005
 -1.0294349E+005
 -9.4355086E+004
 -9.0837557E+004
 -8.8961968E+004
 -8.5680617E+004
 -8.4550012E+004
 -8.4430932E+004
 -8.4440673E+004
 -8.3745313E+004
 -8.2147384E+004
 -8.0826090E+004
 -7.9682611E+004
 -7.9070825E+004
 -7.8344202E+004
 -7.7301112E+004
 -7.5964969E+004
 -7.4554603E+004
 -7.3220427E+004
 -7.2010898E+004
 -7.0926982E+004
 -6.9892987E+004
 -6.8831630E+004
 -6.7659115E+004
 -6.6316908E+004
 -6.4756433E+004
 -6.2942902E+004
 -6.0864144E+004
 -5.8540122E+004
 -5.6021120E+004
 -5.3379777E+004
 -5.0703649E+004
 -4.8085066E+004
 -4.5618451E+004
 -4.3383024E+004
 -4.1419248E+004
 -3.9710925E+004
 -3.8185011E+004
 -3.6727286E+004
 -3.5213972E+004
 -3.3542558E+004
 -3.1655236E+004
 -2.9548610E+004
 -2.7270021E+004
 -2.4903363E+004
 -2.2549145E+004
 -2.0303350E+004
 -1.8238454E+004
 -1.6384870E+004
 -1.4703894E+004
 -1.3066061E+004
 -1.1184331E+004
 -8.8429543E+003
 -5.5816177E+003
 -2.2684378E+003
  3.9568513E+003
 -2.1115808E+004
 -5.3089169E+003
 -4.4256619E+003
 -1.0739084E+004
 -1.9675382E+004
 -2.8390734E+004
 -3.7085806E+004
 -4.6741259E+004
 -5.7019702E+004
 -6.7653123E+004
 -7.8629259E+004
 -9.0497073E+004
 -1.0446581E+005
 -1.1991043E+005
 -1.3150395E+005
 -1.4528226E+005
 -1.6641821E+005
 -1.6741832E+005
 -1.6811883E+005
 -1.5470705E+005
 -1.4469474E+005
 -1.3645380E+005
 -1.2707142E+005
 -1.2078275E+005
 -1.1194327E+005
 -1.0647637E+005
 -1.0065956E+005
 -9.4752227E+004
 -9.0346832E+004
 -8.7097353E+004
 -8.4693526E+004
 -8.2659978E+004
 -8.1459174E+004
 -8.0478688E+004
 -7.9160770E+004
 -7.7563024E+004
 -7.5887872E+004
 -7.4585833E+004
 -7.3551382E+004
 -7.2654466E+004
 -7.1677806E+004
 -7.0578965E+004
 -6.9416294E+004
 -6.8265328E+004
 -6.7168641E+004
 -6.6115943E+004
 -6.5067728E+004
 -6.3957779E+004
 -6.2720041E+004
 -6.1292377E+004
 -5.9626121E+004
 -5.7692886E+004
 -5.5501090E+004
 -5.3099574E+004
 -5.0573474E+004
 -4.8012602E+004
 -4.5480980E+004
 -4.3033709E+004
 -4.0707755E+004
 -3.8546436E+004
 -3.6582845E+004
 -3.4828093E+004
 -3.3252379E+004
 -3.1791530E+004
 -3.0361949E+004
 -2.8884585E+004
 -2.7304318E+004
 -2.5601419E+004
 -2.3792888E+004
 -2.1925474E+004
 -2.0063281E+004
 -1.8274186E+004
 -1.6617490E+004
 -1.5136851E+004
 -1.3842586E+004
 -1.2640251E+004
 -1.1304339E+004
 -9.3682422E+003
 -7.2319887E+003
 -5.8330856E+003
 -2.6978058E+003
 -6.0550403E+003
 -4.4664107E+002
  3.1905041E+004
  6.5584511E+004
  1.6286051E+004
  1.6106048E+003
 -9.9251502E+003
 -1.5936114E+004
 -2.4532126E+004
 -3.3830721E+004
 -4.3322827E+004
 -5.2707195E+004
 -6.1965648E+004
 -7.1273639E+004
 -8.0612697E+004
 -8.9051909E+004
 -9.7773572E+004
 -1.0856245E+005
 -1.1911899E+005
 -1.3191701E+005
 -1.3541159E+005
 -1.3433243E+005
 -1.2898698E+005
 -1.2251085E+005
 -1.1587319E+005
 -1.0872429E+005
 -1.0375480E+005
 -9.9173340E+004
 -9.5161415E+004
 -9.1103736E+004
 -8.7330136E+004
 -8.4248744E+004
 -8.1636197E+004
 -7.9569336E+004
 -7.7846971E+004
 -7.6292112E+004
 -7.4686487E+004
 -7.2963690E+004
 -7.1295989E+004
 -6.9798877E+004
 -6.8549942E+004
 -6.7456169E+004
 -6.6415568E+004
 -6.5361388E+004
 -6.4287986E+004
 -6.3217292E+004
 -6.2163582E+004
 -6.1119919E+004
 -6.0052999E+004
 -5.8915098E+004
 -5.7650001E+004
 -5.6201371E+004
 -5.4515933E+004
 -5.2561418E+004
 -5.0342720E+004
 -4.7939892E+004
 -4.5467119E+004
 -4.3028344E+004
 -4.0690957E+004
 -3.8418158E+004
 -3.6208737E+004
 -3.4076342E+004
 -3.2078366E+004
 -3.0255541E+004
 -2.8623708E+004
 -2.7152771E+004
 -2.5785554E+004
 -2.4455536E+004
 -2.3106764E+004
 -2.1705689E+004
 -2.0245743E+004
 -1.8744803E+004
 -1.7237570E+004
 -1.5764901E+004
 -1.4368115E+004
 -1.3085345E+004
 -1.1985311E+004
 -1.1135965E+004
 -1.0342917E+004
 -9.1448731E+003
 -6.5720912E+003
 -2.7316158E+003
  3.2463409E+003
  5.2625175E+002
 -2.9332051E+004
 -3.5684893E+003
  5.1638757E+003
  4.3508800E+003
 -2.2528296E+003
 -1.2064297E+004
 -2.1208292E+004
 -3.0003081E+004
 -3.8156711E+004
 -4.5773550E+004
 -5.2904098E+004
 -5.9522952E+004
 -6.5986338E+004
 -7.2963994E+004
 -8.1621120E+004
 -9.2365464E+004
 -1.0160501E+005
 -1.0872746E+005
 -1.1127335E+005
 -1.1044786E+005
 -1.0726814E+005
 -1.0291755E+005
 -9.8639007E+004
 -9.4584893E+004
 -9.1309600E+004
 -8.8298767E+004
 -8.5362098E+004
 -8.2524844E+004
 -7.9883071E+004
 -7.7553619E+004
 -7.5479264E+004
 -7.3627065E+004
 -7.1878749E+004
 -7.0137815E+004
 -6.8392491E+004
 -6.6696990E+004
 -6.5144482E+004
 -6.3761164E+004
 -6.2525641E+004
 -6.1379298E+004
 -6.0274507E+004
 -5.9188061E+004
 -5.8114750E+004
 -5.7052071E+004
 -5.5987481E+004
 -5.4895940E+004
 -5.3741121E+004
 -5.2481102E+004
 -5.1069255E+004
 -4.9454898E+004
 -4.7575677E+004
 -4.5426792E+004
 -4.3062662E+004
 -4.0683113E+004
 -3.8448235E+004
 -3.6283122E+004
 -3.4182439E+004
 -3.2022073E+004
 -2.9859854E+004
 -2.7769014E+004
 -2.5867254E+004
 -2.4189613E+004
 -2.2728243E+004
 -2.1431375E+004
 -2.0234676E+004
 -1.9076552E+004
 -1.7910342E+004
 -1.6710350E+004
 -1.5472270E+004
 -1.4207394E+004
 -1.2933205E+004
 -1.1656647E+004
 -1.0386762E+004
 -9.1174187E+003
 -8.1012287E+003
 -7.6616112E+003
 -6.9359175E+003
 -4.1708007E+003
 -1.0976893E+003
 -4.9893505E+003
  3.6786444E+004
  9.1452920E+004
  3.1440099E+004
  2.3394474E+004
  7.5359218E+003
 -1.6826073E+003
 -1.0731718E+004
 -1.8363064E+004
 -2.5238406E+004
 -3.1407802E+004
 -3.7040745E+004
 -4.2365983E+004
 -4.7794273E+004
 -5.4054990E+004
 -6.1673661E+004
 -7.0276073E+004
 -7.9112335E+004
 -8.6109260E+004
 -9.0581595E+004
 -9.2243362E+004
 -9.1733265E+004
 -8.9890860E+004
 -8.7440453E+004
 -8.5055285E+004
 -8.2815804E+004
 -8.0724727E+004
 -7.8649934E+004
 -7.6560892E+004
 -7.4514091E+004
 -7.2547490E+004
 -7.0692790E+004
 -6.8920291E+004
 -6.7190495E+004
 -6.5468905E+004
 -6.3754550E+004
 -6.2086782E+004
 -6.0509835E+004
 -5.9053420E+004
 -5.7711641E+004
 -5.6458658E+004
 -5.5264463E+004
 -5.4107610E+004
 -5.2975728E+004
 -5.1859168E+004
 -5.0744701E+004
 -4.9612106E+004
 -4.8436276E+004
 -4.7190155E+004
 -4.5849722E+004
 -4.4381515E+004
 -4.2733125E+004
 -4.0753815E+004
 -3.8562550E+004
 -3.6328377E+004
 -3.4188788E+004
 -3.2387485E+004
 -3.0312140E+004
 -2.8070594E+004
 -2.5702037E+004
 -2.3499160E+004
 -2.1527566E+004
 -1.9863073E+004
 -1.8466542E+004
 -1.7279600E+004
 -1.6230864E+004
 -1.5251069E+004
 -1.4281315E+004
 -1.3280466E+004
 -1.2228285E+004
 -1.1122280E+004
 -9.9637571E+003
 -8.7422355E+003
 -7.3711219E+003
 -5.7735964E+003
 -3.6016885E+003
 -1.8337636E+003
 -1.9292236E+003
 -5.9139197E+001
  2.7718902E+003
  1.2127889E+004
  1.8804956E+004
  7.1779808E+003
  2.4190200E+004
  1.0232850E+004
  3.8555011E+003
 -3.3706976E+003
 -9.2245396E+003
 -1.4594570E+004
 -1.9466228E+004
 -2.4048916E+004
 -2.8574986E+004
 -3.3443162E+004
 -3.9084624E+004
 -4.5766256E+004
 -5.3318956E+004
 -6.0884043E+004
 -6.7613402E+004
 -7.2633689E+004
 -7.5701456E+004
 -7.6991817E+004
 -7.6985024E+004
 -7.6238226E+004
 -7.5139582E+004
 -7.3945273E+004
 -7.2693670E+004
 -7.1368606E+004
 -6.9956875E+004
 -6.8473108E+004
 -6.6951433E+004
 -6.5408871E+004
 -6.3851168E+004
 -6.2269517E+004
 -6.0659989E+004
 -5.9035190E+004
 -5.7423082E+004
 -5.5857699E+004
 -5.4361667E+004
 -5.2941440E+004
 -5.1588708E+004
 -5.0289450E+004
 -4.9030722E+004
 -4.7802768E+004
 -4.6596861E+004
 -4.5401527E+004
 -4.4201111E+004
 -4.2977132E+004
 -4.1717569E+004
 -4.0420301E+004
 -3.9114414E+004
 -3.7802206E+004
 -3.6432631E+004
 -3.4430320E+004
 -3.2609959E+004
 -3.1227233E+004
 -2.8995533E+004
 -2.6748796E+004
 -2.3904523E+004
 -2.1371359E+004
 -1.9002746E+004
 -1.7118391E+004
 -1.5595764E+004
 -1.4366998E+004
 -1.3355893E+004
 -1.2490711E+004
 -1.1697267E+004
 -1.0906289E+004
 -1.0064348E+004
 -9.1416859E+003
 -8.1319628E+003
 -7.0446832E+003
 -5.8702062E+003
 -4.5649148E+003
 -2.7404880E+003
 -1.7835224E+002
  5.6752776E+003
  1.2144972E+004
  3.4394926E+004
  1.4346680E+004
  4.8633317E+003
  5.1524678E+003
  7.6733553E+003
  8.3829522E+003
  4.5205814E+003
  1.1358625E+003
 -2.5650016E+003
 -6.2448787E+003
 -9.9428711E+003
 -1.3676054E+004
 -1.7609156E+004
 -2.1990327E+004
 -2.7080311E+004
 -3.2983321E+004
 -3.9502487E+004
 -4.6176568E+004
 -5.2323639E+004
 -5.7409445E+004
 -6.1128869E+004
 -6.3500511E+004
 -6.4762930E+004
 -6.5240226E+004
 -6.5238667E+004
 -6.4947040E+004
 -6.4463083E+004
 -6.3814495E+004
 -6.3010208E+004
 -6.2063835E+004
 -6.0992694E+004
 -5.9814739E+004
 -5.8540498E+004
 -5.7178121E+004
 -5.5738463E+004
 -5.4240386E+004
 -5.2710720E+004
 -5.1177705E+004
 -4.9664345E+004
 -4.8183454E+004
 -4.6738707E+004
 -4.5328396E+004
 -4.3949477E+004
 -4.2599238E+004
 -4.1273998E+004
 -3.9966366E+004
 -3.8662168E+004
 -3.7344252E+004
 -3.5997199E+004
 -3.4641028E+004
 -3.3325992E+004
 -3.2239604E+004
 -3.1643502E+004
 -3.1344485E+004
 -3.1088309E+004
 -2.8450399E+004
 -2.7760742E+004
 -2.2833108E+004
 -1.9084773E+004
 -1.6018238E+004
 -1.4077526E+004
 -1.2603738E+004
 -1.1438567E+004
 -1.0503993E+004
 -9.7448388E+003
 -9.1047588E+003
 -8.5138339E+003
 -7.8949873E+003
 -7.1834256E+003
 -6.3449169E+003
 -5.3767815E+003
 -4.3166427E+003
 -3.1928052E+003
 -2.1451108E+003
 -8.2980657E+002
  2.7015730E+002
  5.8181567E+003
  7.8460728E+002
  5.1595138E+003
  1.7067782E+003
 -1.3858532E+003
  1.1029806E+003
  2.5126433E+003
  4.1548348E+003
  3.8622013E+003
  2.4481035E+003
  1.9981505E+002
 -2.4962080E+003
 -5.5413064E+003
 -8.9623866E+003
 -1.2884922E+004
 -1.7431221E+004
 -2.2623319E+004
 -2.8307069E+004
 -3.4136082E+004
 -3.9686101E+004
 -4.4552271E+004
 -4.8486923E+004
 -5.1427414E+004
 -5.3471841E+004
 -5.4806027E+004
 -5.5621595E+004
 -5.6072366E+004
 -5.6250114E+004
 -5.6201121E+004
 -5.5946172E+004
 -5.5497455E+004
 -5.4866518E+004
 -5.4064231E+004
 -5.3101794E+004
 -5.1991565E+004
 -5.0750098E+004
 -4.9399722E+004
 -4.7967277E+004
 -4.6480502E+004
 -4.4963442E+004
 -4.3433959E+004
 -4.1903722E+004
 -4.0380394E+004
 -3.8870004E+004
 -3.7377938E+004
 -3.5907906E+004
 -3.4457145E+004
 -3.3013523E+004
 -3.1543869E+004
 -3.0031044E+004
 -2.8409817E+004
 -2.6888070E+004
 -2.5074079E+004
 -2.5126861E+004
 -2.2738562E+004
 -3.8857415E+004
 -3.9276743E+004
 -2.3744140E+004
 -1.6061384E+004
 -9.4881257E+003
 -9.7820395E+003
 -8.7530615E+003
 -8.1664927E+003
 -7.5930686E+003
 -7.0661421E+003
 -6.5997011E+003
 -6.2071345E+003
 -5.8281483E+003
 -5.3736839E+003
 -4.7667546E+003
 -3.9696958E+003
 -2.9917695E+003
 -1.8750504E+003
 -7.5128096E+002
  2.5809862E+002
  5.0969576E+002
  1.3452571E+002
 -1.9791833E+003
 -1.2513755E+001
 -1.5092631E+003
 -1.6827485E+003
 -2.9131861E+003
 -4.4632012E+003
  4.9099594E+002
  5.0016079E+003
  6.8386117E+003
  6.6031284E+003
  5.2878424E+003
  3.2567274E+003
  7.3214453E+002
 -2.2495289E+003
 -5.7256332E+003
 -9.7421181E+003
 -1.4279465E+004
 -1.9208001E+004
 -2.4291599E+004
 -2.9228398E+004
 -3.3735773E+004
 -3.7611525E+004
 -4.0771314E+004
 -4.3238915E+004
 -4.5108490E+004
 -4.6499379E+004
 -4.7516967E+004
 -4.8236649E+004
 -4.8701761E+004
 -4.8932897E+004
 -4.8938305E+004
 -4.8721338E+004
 -4.8285312E+004
 -4.7636130E+004
 -4.6784761E+004
 -4.5748612E+004
 -4.4551456E+004
 -4.3221351E+004
 -4.1787082E+004
 -4.0274738E+004
 -3.8705705E+004
 -3.7096856E+004
 -3.5462241E+004
 -3.3814999E+004
 -3.2167878E+004
 -3.0531625E+004
 -2.8912143E+004
 -2.7295027E+004
 -2.5645839E+004
 -2.3860497E+004
 -2.1925859E+004
 -1.9624020E+004
 -1.7373899E+004
 -1.3935124E+004
 -9.4061848E+003
  1.4830994E+003
  5.5072109E+003
  3.2747271E+002
 -2.8926459E+003
 -3.5924954E+003
 -4.4971203E+003
 -4.4751182E+003
 -4.3150907E+003
 -4.1414061E+003
 -3.9676843E+003
 -3.7835751E+003
 -3.4736260E+003
 -2.9340256E+003
 -2.1407171E+003
 -1.1077332E+003
  1.1965705E+002
  1.4766257E+003
  2.6599542E+003
  3.4957941E+003
  2.2586089E+003
 -3.1365947E+003
 -3.2483509E+003
 -1.6361192E+004
 -2.6250675E+004
 -5.1481629E+003
 -4.5235047E+003
  5.8817934E+003
  9.5263480E+003
  1.0539488E+004
  1.0395178E+004
  9.2940909E+003
  7.5943151E+003
  5.4177470E+003
  2.8126521E+003
 -2.3323865E+002
 -3.7314010E+003
 -7.6505520E+003
 -1.1889582E+004
 -1.6278026E+004
 -2.0607139E+004
 -2.4672406E+004
 -2.8318017E+004
 -3.1460282E+004
 -3.4088419E+004
 -3.6245394E+004
 -3.7999688E+004
 -3.9420321E+004
 -4.0559971E+004
 -4.1449656E+004
 -4.2100901E+004
 -4.2511951E+004
 -4.2674873E+004
 -4.2581818E+004
 -4.2230211E+004
 -4.1626183E+004
 -4.0785927E+004
 -3.9734528E+004
 -3.8502493E+004
 -3.7121249E+004
 -3.5619222E+004
 -3.4019977E+004
 -3.2342805E+004
 -3.0604973E+004
 -2.8823944E+004
 -2.7018099E+004
 -2.5203703E+004
 -2.3390252E+004
 -2.1584812E+004
 -1.9720639E+004
 -1.7732235E+004
 -1.5282035E+004
 -1.2605706E+004
 -8.8539292E+003
 -4.7504141E+003
 -3.3720491E+003
  4.1721529E+002
 -7.5589512E+002
 -1.8159375E+003
 -2.5236370E+003
 -2.7800297E+003
 -2.6460889E+003
 -2.5494957E+003
 -2.5381322E+003
 -2.2967595E+003
 -1.7535712E+003
 -9.4547505E+002
  1.3047992E+002
  1.4834767E+003
  3.0532632E+003
  4.9797961E+003
  6.4878171E+003
  9.7821478E+003
  1.1220645E+004
  3.3317485E+004
  1.0822010E+004
  2.0770938E+004
  5.6243195E+004
  2.0025780E+004
  1.8137296E+004
  1.4614011E+004
  1.4410586E+004
  1.3405418E+004
  1.2201179E+004
  1.0600244E+004
  8.6790755E+003
  6.4166490E+003
  3.7972869E+003
  8.1164365E+002
 -2.5129556E+003
 -6.1010150E+003
 -9.8316021E+003
 -1.3556713E+004
 -1.7130052E+004
 -2.0433863E+004
 -2.3396582E+004
 -2.5995759E+004
 -2.8248162E+004
 -3.0192535E+004
 -3.1871270E+004
 -3.3316670E+004
 -3.4543635E+004
 -3.5548963E+004
 -3.6315532E+004
 -3.6819311E+004
 -3.7037469E+004
 -3.6955714E+004
 -3.6573513E+004
 -3.5905826E+004
 -3.4980731E+004
 -3.3833886E+004
 -3.2501582E+004
 -3.1015153E+004
 -2.9398819E+004
 -2.7671221E+004
 -2.5849111E+004
 -2.3951067E+004
 -2.1998520E+004
 -2.0013598E+004
 -1.8003195E+004
 -1.5955255E+004
 -1.3929171E+004
 -1.1596228E+004
 -8.9606975E+003
 -5.3063088E+003
 -1.5165413E+003
  7.4486357E+000
  2.8179939E+002
 -1.2789910E+003
 -3.7488836E+003
 -2.0664819E+003
 -2.4716062E+003
 -2.2266468E+003
 -2.2178598E+003
 -1.7727365E+003
 -1.2080615E+003
 -3.9161373E+002
  6.4156161E+002
  1.9648484E+003
  3.5909033E+003
  5.7832422E+003
  7.8959795E+003
  1.2259442E+004
  4.6911599E+003
  7.9685739E+003
  1.3139339E+004
  6.7176666E+003
  2.1632366E+004
  1.6622793E+004
  1.6586198E+004
  1.5005449E+004
  1.3753891E+004
  1.2258098E+004
  1.0603441E+004
  8.7019731E+003
  6.5260698E+003
  4.0577573E+003
  1.3150713E+003
 -1.6480567E+003
 -4.7451834E+003
 -7.8713646E+003
 -1.0921718E+004
 -1.3809949E+004
 -1.6480677E+004
 -1.8912791E+004
 -2.1113744E+004
 -2.3107573E+004
 -2.4920780E+004
 -2.6569865E+004
 -2.8053482E+004
 -2.9350413E+004
 -3.0423290E+004
 -3.1226880E+004
 -3.1718624E+004
 -3.1869351E+004
 -3.1670946E+004
 -3.1138741E+004
 -3.0307987E+004
 -2.9224424E+004
 -2.7933096E+004
 -2.6469512E+004
 -2.4856623E+004
 -2.3108478E+004
 -2.1237491E+004
 -1.9259739E+004
 -1.7197438E+004
 -1.5076138E+004
 -1.2922726E+004
 -1.0666335E+004
 -8.1883215E+003
 -6.0650146E+003
 -2.8382875E+003
  8.8432603E+002
  2.9413520E+003
  4.5650794E+002
 -3.9711688E+003
 -6.5121000E+003
 -2.6540046E+003
 -2.3014309E+003
 -1.7262259E+003
 -1.0944087E+003
 -3.9469292E+002
  4.4829778E+002
  1.5054990E+003
  2.8152199E+003
  4.5232328E+003
  6.3788612E+003
  9.1466916E+003
  3.9922241E+003
  6.0903535E+003
  3.8745177E+003
  7.9944783E+003
  1.3089493E+004
  1.7156867E+004
  1.5799295E+004
  1.4938364E+004
  1.3746784E+004
  1.2577837E+004
  1.1274172E+004
  9.7983436E+003
  8.0991772E+003
  6.1601179E+003
  3.9914940E+003
  1.6331949E+003
 -8.5166746E+002
 -3.3870850E+003
 -5.8978287E+003
 -8.3225212E+003
 -1.0622832E+004
 -1.2786290E+004
 -1.4822173E+004
 -1.6751687E+004
 -1.8595057E+004
 -2.0358928E+004
 -2.2027385E+004
 -2.3559158E+004
 -2.4892094E+004
 -2.5953750E+004
 -2.6676658E+004
 -2.7013028E+004
 -2.6946586E+004
 -2.6497129E+004
 -2.5713643E+004
 -2.4660498E+004
 -2.3398237E+004
 -2.1968476E+004
 -2.0390348E+004
 -1.8668353E+004
 -1.6804754E+004
 -1.4811812E+004
 -1.2710358E+004
 -1.0531583E+004
 -8.2980917E+003
 -6.1568085E+003
 -3.4056341E+003
  2.6575730E+002
  6.7827525E+003
  3.7621535E+003
 -1.2714201E+003
 -2.9478355E+003
 -2.0876479E+003
 -1.6200476E+003
 -1.1935592E+003
 -8.0123101E+002
 -3.0182379E+002
  3.1088996E+002
  9.6017134E+002
  1.7237473E+003
  2.0395960E+003
  3.6491729E+003
  4.8265055E+003
  2.0578865E+004
  8.2127960E+003
  4.7468202E+003
  1.5413720E+004
  1.3111758E+004
  1.3683033E+004
  1.2905690E+004
  1.2357325E+004
  1.1649700E+004
  1.0842944E+004
  9.8591594E+003
  8.6729924E+003
  7.2706735E+003
  5.6644561E+003
  3.8875772E+003
  1.9899443E+003
  2.9318683E+001
 -1.9391004E+003
 -3.8728737E+003
 -5.7496427E+003
 -7.5695228E+003
 -9.3514067E+003
 -1.1123299E+004
 -1.2908402E+004
 -1.4710153E+004
 -1.6500693E+004
 -1.8216995E+004
 -1.9766705E+004
 -2.1044134E+004
 -2.1949483E+004
 -2.2412803E+004
 -2.2410580E+004
 -2.1970647E+004
 -2.1167978E+004
 -2.0097930E+004
 -1.8846916E+004
 -1.7467249E+004
 -1.5968755E+004
 -1.4336411E+004
 -1.2561209E+004
 -1.0650558E+004
 -8.6234294E+003
 -6.5237792E+003
 -4.3199451E+003
 -2.3117293E+003
 -7.3103398E+002
 -9.6122701E+002
 -1.9374710E+003
 -8.9762887E+002
 -2.6860166E+002
 -1.3867619E+003
 -1.4299834E+003
 -1.5010996E+003
 -1.3769572E+003
 -1.2402250E+003
 -1.1977791E+003
 -1.5958007E+003
 -2.4903599E+003
 -4.7015267E+003
 -7.8967167E+003
 -5.0264183E+003
 -1.3194353E+004
  4.5877679E+003
  3.5805688E+004
  1.2983973E+004
  1.0628030E+004
  8.9854565E+003
  9.4596571E+003
  9.6732738E+003
  9.8113507E+003
  9.7627050E+003
  9.5282945E+003
  9.0850497E+003
  8.4244190E+003
  7.5495994E+003
  6.4799378E+003
  5.2494262E+003
  3.9026796E+003
  2.4879365E+003
  1.0483685E+003
 -3.8666990E+002
 -1.8083796E+003
 -3.2311158E+003
 -4.6889744E+003
 -6.2253474E+003
 -7.8759051E+003
 -9.6485467E+003
 -1.1506556E+004
 -1.3362438E+004
 -1.5087728E+004
 -1.6532517E+004
 -1.7561526E+004
 -1.8077006E+004
 -1.8046405E+004
 -1.7520404E+004
 -1.6607167E+004
 -1.5453289E+004
 -1.4188687E+004
 -1.2879091E+004
 -1.1519628E+004
 -1.0066510E+004
 -8.4768808E+003
 -6.7674157E+003
 -4.9917852E+003
 -3.1430576E+003
 -1.3591104E+003
  9.4627118E+002
  2.3798177E+003
  8.0542045E+003
  3.9105094E+003
 -4.7360851E+002
 -6.0819342E+002
 -1.3325680E+003
 -2.1048056E+003
 -2.4102169E+003
 -2.5785234E+003
 -2.7052228E+003
 -3.0087709E+003
 -3.6841958E+003
 -5.3625688E+003
 -7.9045225E+003
 -9.3181718E+003
 -4.3579901E+003
 -3.9038761E+003
 -4.2768284E+003
  4.8410749E+003
  7.6570271E+002
  6.9005010E+003
 -8.9155398E+002
 -2.5059072E+003
  7.3464022E+002
  3.0892378E+003
  4.4548390E+003
  5.7387935E+003
  6.6496397E+003
  7.2777726E+003
  7.6248564E+003
  7.7113857E+003
  7.5513642E+003
  7.1659653E+003
  6.5848358E+003
  5.8468753E+003
  4.9971415E+003
  4.0811153E+003
  3.1368996E+003
  2.1867314E+003
  1.2296209E+003
  2.3744336E+002
 -8.4285166E+002
 -2.0780142E+003
 -3.5271675E+003
 -5.2123153E+003
 -7.0910908E+003
 -9.0460706E+003
 -1.0897757E+004
 -1.2452161E+004
 -1.3519406E+004
 -1.3980900E+004
 -1.3811934E+004
 -1.3068853E+004
 -1.1932207E+004
 -1.0607374E+004
 -9.2850142E+003
 -8.0696000E+003
 -6.9191249E+003
 -5.7181150E+003
 -4.4432105E+003
 -3.0922150E+003
 -1.7606915E+003
 -4.6869374E+002
  5.5213543E+002
  1.9648775E+003
  5.9774912E+002
  1.5475152E+003
 -1.0783229E+003
 -7.9158513E+002
 -2.6863441E+003
 -3.0961036E+003
 -3.5212991E+003
 -3.7300347E+003
 -3.8906345E+003
 -4.0377426E+003
 -4.3330743E+003
 -4.7161367E+003
 -5.6580604E+003
 -7.7172565E+003
 -4.5919539E+003
 -1.1960593E+004
 -2.7488264E+003
  1.1643183E+003
  3.0822368E+002
 -8.6476898E+002
 -4.7800701E+003
 -6.8499455E+003
 -5.4040711E+003
 -2.5735489E+003
 -7.4247148E+001
  1.8694652E+003
  3.4281104E+003
  4.6041602E+003
  5.4479334E+003
  5.9894952E+003
  6.2603521E+003
  6.2931358E+003
  6.1262209E+003
  5.8041528E+003
  5.3755931E+003
  4.8882209E+003
  4.3811608E+003
  3.8758308E+003
  3.3668077E+003
  2.8151511E+003
  2.1477445E+003
  1.2671047E+003
  7.7969674E+001
 -1.4701140E+003
 -3.3330906E+003
 -5.3489872E+003
 -7.2758790E+003
 -8.8232331E+003
 -9.8024668E+003
 -1.0059703E+004
 -9.5553840E+003
 -8.4803725E+003
 -6.9984967E+003
 -5.4084226E+003
 -3.9831476E+003
 -2.8501705E+003
 -1.9572247E+003
 -1.1795963E+003
 -2.7428506E+002
  5.7185800E+002
  1.2333457E+003
  1.6235199E+003
  1.8217287E+003
  1.3827897E+003
  7.8120788E+002
  3.8970389E+002
 -4.5995310E+003
 -4.2043969E+003
 -4.2154815E+003
 -4.3903685E+003
 -4.6190986E+003
 -4.7629624E+003
 -4.7757105E+003
 -4.5912956E+003
 -3.9627351E+003
 -2.8984440E+003
  3.0652456E+002
  3.6000686E+003
  1.9154481E+004
  5.5559545E+003
 -1.4324223E+003
 -6.0664058E+002
 -3.8026569E+003
 -6.6755663E+003
 -8.3608704E+003
 -7.8075197E+003
 -5.8142949E+003
 -3.4465821E+003
 -1.2562862E+003
  5.9643881E+002
  2.1082151E+003
  3.2867851E+003
  4.1581281E+003
  4.7513482E+003
  5.1013170E+003
  5.2492611E+003
  5.2432580E+003
  5.1362686E+003
  4.9813863E+003
  4.8239810E+003
  4.6912176E+003
  4.5802193E+003
  4.4471511E+003
  4.2013332E+003
  3.7109646E+003
  2.8284937E+003
  1.4526123E+003
 -3.8520489E+002
 -2.4484359E+003
 -4.3244237E+003
 -5.7358708E+003
 -6.3341669E+003
 -6.0763575E+003
 -5.1230412E+003
 -3.4691600E+003
 -1.6758444E+003
  1.8033108E+002
  1.8494138E+003
  2.9330454E+003
  3.6889926E+003
  4.3665400E+003
  4.5327299E+003
  4.4185140E+003
  3.9983745E+003
  3.4157197E+003
  2.4866401E+003
  1.5176855E+003
  5.6910756E+002
  1.8619730E+002
 -3.8753589E+003
 -6.4312598E+003
 -4.8174901E+003
 -5.0755500E+003
 -5.3596750E+003
 -5.4252324E+003
 -5.5390584E+003
 -5.5961704E+003
 -5.4888369E+003
 -5.0774027E+003
 -3.8840860E+003
 -2.2372262E+003
  2.5362100E+003
  2.7133006E+002
  4.4050400E+003
 -1.0518605E+003
 -1.5499091E+003
 -4.1799879E+003
 -6.6934631E+003
 -8.2503817E+003
 -8.3219411E+003
 -7.1611809E+003
 -5.3485271E+003
 -3.3902768E+003
 -1.5541990E+003
  4.5165420E+001
  1.3718638E+003
  2.4206235E+003
  3.2051069E+003
  3.7511860E+003
  4.0958834E+003
  4.2865957E+003
  4.3792279E+003
  4.4337045E+003
  4.5058687E+003
  4.6350489E+003
  4.8286689E+003
  5.0465663E+003
  5.1873737E+003
  5.0862315E+003
  4.5361506E+003
  3.3527149E+003
  1.5239779E+003
 -6.2644300E+002
 -2.4874494E+003
 -3.1556446E+003
 -2.9800689E+003
 -1.7485590E+003
  5.4248773E+002
  2.5164654E+003
  4.5017168E+003
  5.9700072E+003
  7.7457235E+003
  9.2811219E+003
  1.0812944E+004
  1.0654224E+004
  1.0685847E+004
  8.8731749E+003
  6.4493747E+003
  4.3914459E+003
  2.7783041E+003
  1.4873781E+003
  5.9667624E+002
  3.2943829E+001
 -5.3282406E+003
 -4.2774405E+003
 -3.4223369E+003
 -4.5441721E+003
 -5.4956011E+003
 -5.8826643E+003
 -6.0726201E+003
 -6.1225966E+003
 -6.1363642E+003
 -6.0483330E+003
 -5.6592589E+003
 -4.7600001E+003
 -2.8270070E+003
 -1.2071688E+003
  7.5461209E+001
  6.5033729E+002
 -9.9212033E+002
 -1.4707890E+003
 -4.0159548E+003
 -6.0025183E+003
 -7.3620037E+003
 -7.7840613E+003
 -7.2542239E+003
 -6.0453932E+003
 -4.5139693E+003
 -2.9254655E+003
 -1.4392931E+003
 -1.3934618E+002
  9.3618582E+002
  1.7765835E+003
  2.3910398E+003
  2.8054551E+003
  3.0613750E+003
  3.2144724E+003
  3.3308556E+003
  3.4793914E+003
  3.7180328E+003
  4.0717468E+003
  4.5101905E+003
  4.9329072E+003
  5.1467407E+003
  4.8835356E+003
  3.8451483E+003
  1.8931425E+003
 -5.4872903E+002
 -2.0436411E+003
 -2.1314884E+003
  5.3872867E+002
  4.6418317E+003
  7.1875916E+003
  1.0970387E+004
  1.1534952E+004
  1.1497742E+004
  1.2019129E+004
  1.1936465E+004
  2.3312426E+004
  2.6647809E+004
  2.0804151E+004
  1.3060164E+004
  5.2047730E+003
  3.9399221E+003
  2.2457456E+003
  1.2669621E+003
  4.7893431E+002
  4.7630763E+001
 -4.2875775E+003
  1.9646528E+003
 -2.0130731E+003
 -3.2282666E+003
 -5.5361336E+003
 -6.0152497E+003
 -6.3504354E+003
 -6.3454786E+003
 -6.2876919E+003
 -6.2324987E+003
 -6.2115121E+003
 -6.1526625E+003
 -5.7672069E+003
 -4.8853277E+003
 -3.1359059E+003
 -1.4482938E+003
 -4.6317658E+002
 -2.9245807E+003
 -1.3148404E+003
 -3.1163213E+003
 -4.3233994E+003
 -5.8022011E+003
 -6.5420885E+003
 -6.4767940E+003
 -5.8033120E+003
 -4.7466578E+003
 -3.5212891E+003
 -2.2867273E+003
 -1.1503505E+003
 -1.7784152E+002
  5.9544202E+002
  1.1574638E+003
  1.5174201E+003
  1.7053999E+003
  1.7719570E+003
  1.7860588E+003
  1.8292738E+003
  1.9828819E+003
  2.3023563E+003
  2.7667234E+003
  3.2569305E+003
  3.5952852E+003
  3.4058647E+003
  2.3841652E+003
  2.8964394E+002
 -2.5546207E+003
 -5.4053646E+003
 -1.9895260E+003
  1.3201587E+003
  1.5475105E+004
  2.5758778E+004
  2.2074526E+004
  2.1537929E+004
  1.8942355E+004
  1.5275744E+004
  4.4732232E+003
 -3.8160672E+003
 -1.8454113E+003
  9.9863732E+002
  1.7593849E+003
  1.2977610E+003
  6.8016100E+002
  1.8910118E+002
  4.8113790E+001
 -3.6079202E+003
 -2.6493565E+003
 -8.3127724E+003
 -7.0969818E+003
 -7.1140907E+003
 -6.6622325E+003
 -6.3059898E+003
 -5.9520232E+003
 -5.6939805E+003
 -5.6070976E+003
 -5.7787654E+003
 -6.1325630E+003
 -6.0602922E+003
 -5.0917155E+003
 -2.2565783E+003
 -1.1823316E+003
  2.1121307E+003
  4.9991406E+003
  2.3277591E+002
 -2.0568157E+003
 -3.8684902E+003
 -4.6935329E+003
 -5.0014828E+003
 -4.7841753E+003
 -4.2006500E+003
 -3.3852809E+003
 -2.4833381E+003
 -1.6067297E+003
 -8.3628194E+002
 -2.2957060E+002
  1.7792394E+002
  3.7424629E+002
  3.7244902E+002
  2.1157219E+002
 -4.3294158E+001
 -3.0291635E+002
 -4.6282149E+002
 -4.2489205E+002
 -1.5428091E+002
  1.4588714E+002
  9.6442904E+001
 -3.1044455E+002
 -2.5595293E+003
 -6.2761212E+003
 -1.0786756E+004
 -7.1543576E+003
 -8.2108682E+003
  9.9773870E+002
 -2.7697133E+003
  4.2869492E+001
  2.5978314E+002
  2.5944201E+002
  4.4543464E+002
  2.2988174E+002
  8.4153220E+001
 -2.2108602E+004
 -1.4446722E+004
 -1.1563798E+004
 -9.0808854E+003
 -7.8022312E+003
 -6.7094844E+003
 -5.8354009E+003
 -5.0805365E+003
 -4.4547309E+003
 -3.9256623E+003
 -3.7226922E+003
 -4.3450293E+003
 -4.7897860E+003
 -4.0374146E+003
 -7.4876894E+002
 -7.7091830E+003
 -2.3697159E+003
  2.2155087E+002
  4.3970487E+001
 -1.2774483E+003
 -2.1993671E+003
 -2.8099797E+003
 -3.0749524E+003
 -2.9421796E+003
 -2.5513408E+003
 -2.0327957E+003
 -1.4786212E+003
 -9.7643094E+002
 -6.0577668E+002
 -4.2758425E+002
 -4.7796245E+002
 -7.6582414E+002
 -1.2708732E+003
 -1.9413982E+003
 -2.6928037E+003
 -3.4062788E+003
 -3.9415134E+003
 -4.1686555E+003
 -4.0716553E+003
 -4.8085243E+003
 -7.2862568E+003
 -9.6880646E+003
 -1.4463441E+004
 -3.2865590E+004
 -2.5201727E+004
  6.7828336E+003
 -7.2623397E+001
  1.5019639E+002
 -3.3587067E+001
 -2.2144832E+001
 -6.9655681E+001
 -1.0768199E+002
 -2.7422108E+002
 -2.3593693E+002
 -1.4256821E+004
 -1.6559334E+004
 -1.3932649E+004
 -1.2217453E+004
 -1.1380591E+004
 -9.4913543E+003
 -7.7041851E+003
 -6.2138206E+003
 -4.8940363E+003
 -3.7260083E+003
 -2.6324319E+003
 -1.5469025E+003
  9.3592310E+001
  1.4996511E+003
  5.2152259E+002
  1.6953455E+003
  4.5681677E+003
  1.5277125E+004
  6.4077461E+003
  4.7782567E+003
  2.8952788E+003
  2.1685396E+003
  1.2607179E+003
 -3.0980806E+001
 -7.0102384E+002
 -9.6308403E+002
 -1.0362412E+003
 -9.4844791E+002
 -7.5143055E+002
 -5.5093452E+002
 -4.5466263E+002
 -5.4853734E+002
 -8.9403092E+002
 -1.5253354E+003
 -2.4468667E+003
 -3.6311049E+003
 -5.0132126E+003
 -6.4876767E+003
 -7.8882399E+003
 -9.0183196E+003
 -9.5742704E+003
 -9.0616414E+003
 -1.3887932E+004
 -2.7158091E+004
 -6.1025261E+004
 -2.8740187E+004
 -6.3229378E+001
 -8.2135868E+001
 -1.0608203E+002
 -3.9241638E+002
 -3.1485526E+002
 -8.4241745E+001
 -1.8347286E+004
 -1.8085118E+004
 -1.5690326E+004
 -1.3166293E+004
 -1.1410168E+004
 -9.9483198E+003
 -8.5300102E+003
 -6.8580243E+003
 -5.1763059E+003
 -3.5642177E+003
 -2.0120360E+003
 -5.8912672E+002
  9.7513140E+002
  2.8134801E+003
  8.9514736E+003
  1.6340489E+004
  4.3394333E+004
  2.0229484E+004
  9.5566830E+003
  1.4152196E+004
  8.1307696E+003
  5.3058150E+003
  3.2918747E+003
  2.5618771E+003
  1.7997303E+003
  1.1088412E+003
  7.4014185E+002
  5.8390596E+002
  4.7423941E+002
  2.8504325E+002
 -9.1285121E+001
 -7.4159291E+002
 -1.7251835E+003
 -3.0740265E+003
 -4.7901339E+003
 -6.8479997E+003
 -9.1616465E+003
 -1.1658249E+004
 -1.3935914E+004
 -1.6406497E+004
 -1.5771639E+004
 -1.2645512E+004
 -3.7929477E+002
  2.4139883E+004
 -3.6467563E+001
  3.5635062E+001
  9.9839886E+001
 -1.9083081E+004
 -1.9318232E+004
 -1.7061112E+004
 -1.4137825E+004
 -1.1995786E+004
 -1.0125956E+004
 -8.6523968E+003
 -7.1637834E+003
 -5.5686828E+003
 -3.8404898E+003
 -2.0346190E+003
 -1.8630881E+002
  1.5719606E+003
  3.1925143E+003
  3.3116865E+003
  7.4548193E+003
  1.5540699E+003
  4.9866021E+003
  5.6171802E+003
  3.0882520E+003
  9.2593294E+003
  7.5992700E+003
  7.3574299E+003
  5.0527383E+003
  3.7723960E+003
  3.0380774E+003
  2.5368845E+003
  2.1133460E+003
  1.6492355E+003
  1.0074009E+003
  7.9856464E+001
 -1.2147373E+003
 -2.9305381E+003
 -5.1021278E+003
 -7.7326431E+003
 -1.0817557E+004
 -1.4196317E+004
 -1.8031086E+004
 -2.1053069E+004
 -2.8369721E+004
 -2.9283258E+004
 -7.3447667E+004
 -2.5713120E+004
 -2.0104792E+004
 -2.1201105E+004
 -1.8521191E+004
 -1.5454362E+004
 -1.2942593E+004
 -1.0667761E+004
 -8.8497389E+003
 -7.2615042E+003
 -5.7682763E+003
 -4.1970236E+003
 -2.4812275E+003
 -5.9318538E+002
  1.4712809E+003
  3.6408802E+003
  5.6381538E+003
  6.5774905E+003
 -7.0173437E+001
 -3.2971481E+002
 -1.8734561E+004
 -4.5413118E+003
  1.6279127E+004
  3.1545685E+004
  1.5815863E+004
  1.1778734E+004
  8.2415103E+003
  7.1183204E+003
  5.9943882E+003
  5.0832135E+003
  4.3526406E+003
  3.6323732E+003
  2.7639245E+003
  1.6135686E+003
  9.2614832E+001
 -1.8655807E+003
 -4.3184212E+003
 -7.2916400E+003
 -1.0837632E+004
 -1.4721016E+004
 -1.9343542E+004
 -2.1822996E+004
 -2.8786372E+004
 -1.0145219E+004
 -1.4875805E+004
 -1.3317928E+004
 -4.2494987E+004
 -2.0530068E+004
 -1.7776220E+004
 -1.3624809E+004
 -1.1172757E+004
 -9.0455652E+003
 -7.3243073E+003
 -5.8200280E+003
 -4.3946860E+003
 -2.9256949E+003
 -1.3243190E+003
  4.8836536E+002
  2.5418361E+003
  5.0583739E+003
  7.5872908E+003
  1.2345433E+004
  1.5030862E+004
  4.0392881E+004
  1.5361426E+004
  5.9632243E+003
  5.1970146E+003
  1.5299997E+004
  1.2610925E+004
  1.1761329E+004
  9.5267961E+003
  8.1922164E+003
  7.1070514E+003
  6.1836399E+003
  5.1245075E+003
  3.8186714E+003
  2.1835229E+003
  1.5405913E+002
 -2.3334502E+003
 -5.3410226E+003
 -8.8497372E+003
 -1.2933625E+004
 -1.6821978E+004
 -2.1292042E+004
 -1.7246832E+004
 -1.1354275E+004
 -4.4157636E+003
  1.1503129E+003
 -2.1006164E+004
 -1.6560347E+004
 -2.6480173E+004
 -1.8458033E+004
 -1.5624160E+004
 -1.3811804E+004
 -1.0913130E+004
 -8.8656017E+003
 -7.0900090E+003
 -5.6199746E+003
 -4.3077002E+003
 -3.0678510E+003
 -1.8063151E+003
 -4.6148642E+002
  1.0531581E+003
  2.7243495E+003
  4.9962089E+003
  6.7652132E+003
  1.2374995E+004
  3.8966068E+003
  8.4019141E+003
 -5.8140927E+003
  2.3423783E+004
  3.4991340E+004
  1.9738475E+004
  1.6771168E+004
  1.3393365E+004
  1.1564196E+004
  1.0300758E+004
  9.1711836E+003
  7.9461607E+003
  6.5362345E+003
  4.9189866E+003
  3.0193392E+003
  7.5459888E+002
 -1.9090388E+003
 -5.0225592E+003
 -8.3667469E+003
 -1.2411911E+004
 -1.4561891E+004
 -2.1817302E+004
 -6.6508195E+003
 -1.3126194E+004
 -6.1208548E+003
 -3.3143266E+004
 -1.6263896E+004
 -1.6112142E+004
 -1.2066822E+004
 -1.0177298E+004
 -8.9394514E+003
 -7.5776623E+003
 -6.1374248E+003
 -4.8829720E+003
 -3.7617895E+003
 -2.7421364E+003
 -1.7691359E+003
 -8.0598436E+002
  1.7562593E+002
  1.1715420E+003
  2.2271639E+003
  3.1904825E+003
  4.5670564E+003
  3.8081841E+003
  2.8118669E+003
  1.2303231E+003
  2.2135065E+004
  2.5690657E+004
  2.1226675E+004
  1.7760894E+004
  1.5335946E+004
  1.3726253E+004
  1.2417539E+004
  1.0899747E+004
  9.4680870E+003
  8.0444656E+003
  6.4750703E+003
  4.6748972E+003
  2.6275789E+003
  3.6938408E+002
 -1.9708159E+003
 -4.4794891E+003
 -6.7115339E+003
 -1.2613822E+004
 -1.9773447E+004
 -6.0176995E+004
  8.6322599E+002
 -1.4824936E+004
 -1.1734592E+004
 -1.9193596E+004
 -1.3387910E+004
 -1.2229521E+004
 -1.0352679E+004
 -7.9470732E+003
 -6.1576608E+003
 -4.9839781E+003
 -4.1442906E+003
 -3.3340661E+003
 -2.5576990E+003
 -1.8293831E+003
 -1.1327159E+003
 -4.6101836E+002
  1.7868684E+002
  7.5490552E+002
  1.2265848E+003
  1.4644885E+003
  1.3926575E+003
  6.6305044E+002
  1.0166228E+002
 -5.4408889E+002
 -1.9575142E+002
  2.8866100E+004
  2.6053685E+004
  2.1134412E+004
  1.8615807E+004
  1.7618880E+004
  1.5168398E+004
  1.3410351E+004
  1.2247474E+004
  1.1233009E+004
  1.0179805E+004
  8.9930468E+003
  7.7184355E+003
  6.4992873E+003
  5.5046632E+003
  5.0711646E+003
  5.0444264E+003
  7.1685535E+003
  1.3500637E+004
  1.2779438E+004
  2.3572925E+004
 -2.8352532E+004
 -4.7970722E+003
 -2.0488413E+004
 -1.0076020E+004
 -1.0158659E+004
 -7.7141782E+003
 -6.2466340E+003
 -5.2023048E+003
 -3.7487136E+003
 -2.4498427E+003
 -1.5786522E+003
 -1.0177990E+003
 -6.1504052E+002
 -2.5160476E+002
  1.1817870E+002
  5.0916854E+002
  9.0673761E+002
  1.2622398E+003
  1.5081303E+003
  1.5482118E+003
  1.3234522E+003
  4.9075467E+002
 -1.1777770E+003
 -3.0087479E+003
 -1.4048189E+003
 -1.7744602E+003
  2.4760947E+004
  3.8954948E+004
  2.4426245E+004
  1.9167834E+004
  1.5919474E+004
  1.5071837E+004
  1.4528244E+004
  1.4207396E+004
  1.3764785E+004
  1.3212521E+004
  1.2676560E+004
  1.2394658E+004
  1.2680066E+004
  1.3813675E+004
  1.6441197E+004
  2.0820620E+004
  2.4717875E+004
  2.4635494E+004
  2.2602851E+004
  2.2663835E+004
  3.4830948E+004
  2.7872257E+004
  4.1499247E+004
  3.3508063E+004
  1.1004601E+004
  6.6879856E+004
 -1.1562458E+004
  9.1568780E+002
 -8.1260737E+003
 -5.6280628E+003
 -1.1954571E+004
 -6.7667090E+003
 -6.1931747E+003
 -5.0355457E+003
 -3.4138623E+003
 -2.0315423E+003
 -8.1668899E+002
  1.8189246E+002
  1.0401086E+003
  1.6063433E+003
  1.8757044E+003
  1.9576670E+003
  1.9798297E+003
  2.0401941E+003
  2.1783968E+003
  2.3707224E+003
  2.5411820E+003
  2.5791917E+003
  2.4056403E+003
  1.9702531E+003
  1.5325221E+003
  6.5061639E+002
 -3.2161203E+003
 -2.4175918E+003
 -1.3759853E+004
 -5.6655943E+002
  5.4816456E+003
  1.5593539E+004
  1.4918264E+004
  1.5828245E+004
  1.6323293E+004
  1.6764250E+004
  1.6908171E+004
  1.6843832E+004
  1.6828993E+004
  1.7185711E+004
  1.8210913E+004
  2.0176004E+004
  2.3133248E+004
  2.6463471E+004
  2.8534548E+004
  2.7558313E+004
  2.4679172E+004
  2.3357307E+004
  2.7361235E+004
  3.2890203E+004
  3.9226775E+004
  3.8914774E+004
  7.9731849E+004
  4.3223161E+004
  5.2427518E+004
  3.7124841E+004
  4.4275004E+004
  3.2852361E+004
  3.1484810E+004
  2.8137915E+004
  7.8546636E+003
  2.0666525E+004
  3.7215985E+003
 -3.7041331E+003
 -5.2263317E+003
 -2.3829292E+003
 -2.7349803E+003
 -1.9137446E+003
 -1.2100909E+003
 -6.1863619E+002
  4.7893095E+002
  1.6961730E+003
  2.7659665E+003
  3.6630060E+003
  4.3026737E+003
  4.6367467E+003
  4.6493648E+003
  4.4332592E+003
  4.1395132E+003
  3.9246324E+003
  3.8687366E+003
  3.9447760E+003
  4.0445914E+003
  4.0429659E+003
  3.7683180E+003
  3.3546295E+003
  2.8489409E+003
  5.4576019E+003
  8.2579916E+003
  2.7515390E+004
  1.0998031E+004
  1.2603033E+004
  1.5927178E+004
  1.1726397E+004
  1.5240401E+004
  1.6261646E+004
  1.7726162E+004
  1.8791184E+004
  1.9292928E+004
  1.9440522E+004
  1.9629652E+004
  2.0252100E+004
  2.1520413E+004
  2.3455113E+004
  2.5777381E+004
  2.7746861E+004
  2.8280736E+004
  2.6882759E+004
  2.4536404E+004
  2.3258310E+004
  2.3932598E+004
  2.5517954E+004
  2.7384906E+004
  3.0332749E+004
  3.1343184E+004
  3.3155128E+004
  3.3404343E+004
  3.7250481E+004
  3.7929614E+004
  7.8055106E+004
 -2.5176399E+003
 -4.0142594E+003
  1.4011969E+004
  5.6060200E+003
 -3.8089631E+003
  3.6544261E+003
  1.9065916E+003
  1.6155917E+003
  1.7547768E+003
  2.2119765E+003
  2.9019821E+003
  3.7689932E+003
  4.8029963E+003
  5.8351520E+003
  6.7105283E+003
  7.3310382E+003
  7.5763549E+003
  7.4125243E+003
  6.8930950E+003
  6.2660386E+003
  5.7807285E+003
  5.5727520E+003
  5.6127378E+003
  5.7466257E+003
  5.8203217E+003
  5.6586077E+003
  5.1839924E+003
  3.5614833E+003
  4.9946956E+003
  1.1213802E+003
  3.1261532E+003
  1.7031302E+004
  1.9406658E+004
  1.5747073E+004
  1.7068698E+004
  1.8736231E+004
  2.0036465E+004
  2.0558327E+004
  2.0520405E+004
  2.0669614E+004
  2.1332266E+004
  2.2559711E+004
  2.4156336E+004
  2.5733469E+004
  2.6708101E+004
  2.6531255E+004
  2.5089992E+004
  2.2991620E+004
  2.1206427E+004
  2.0278506E+004
  2.0203240E+004
  2.0995348E+004
  2.2356054E+004
  2.4914439E+004
  2.7518115E+004
  3.0630303E+004
  3.4746006E+004
  3.8606174E+004
  4.2787520E+004
  4.0484672E+004
  8.7844278E+004
  4.5117761E+004
  5.1966030E+004
  3.7101293E+004
  4.6986433E+004
  3.2542696E+004
  3.9262262E+004
  2.7613797E+004
  3.4268322E+004
  2.3404450E+004
  2.8704112E+004
  1.7758071E+004
  2.6977661E+004
  1.4323737E+004
  9.9867150E+003
  7.1817754E+003
  5.5095464E+003
  4.5989642E+003
  4.4452430E+003
  4.7571054E+003
  5.3589996E+003
  6.2124080E+003
  7.2348659E+003
  8.3144562E+003
  9.3351029E+003
  1.0116556E+004
  1.0522700E+004
  1.0302830E+004
  9.5456349E+003
  8.4905293E+003
  7.6500312E+003
  7.3095162E+003
  7.3456420E+003
  7.5451374E+003
  7.7366474E+003
  7.8340307E+003
  7.7243110E+003
  6.8144359E+003
  5.3586331E+002
 -2.5961650E+002
 -1.5465939E+004
  1.5863727E+004
  1.8345851E+004
  1.6369870E+004
  1.8195154E+004
  1.9958515E+004
  1.9921996E+004
  1.9540646E+004
  1.9662403E+004
  2.0474193E+004
  2.1670518E+004
  2.2979192E+004
  2.4017650E+004
  2.4391076E+004
  2.3815794E+004
  2.2314895E+004
  2.0275837E+004
  1.8251735E+004
  1.6703421E+004
  1.5892605E+004
  1.5970017E+004
  1.7093354E+004
  1.8956483E+004
  2.1490772E+004
  2.4166971E+004
  2.6444669E+004
  2.7047172E+004
  2.7482703E+004
  2.9189990E+004
  2.8351408E+004
  2.7681984E+004
  2.4477617E+004
  2.1309861E+004
  1.7802550E+004
  1.4793069E+004
  1.1820407E+004
  9.8537195E+003
  8.2163153E+003
  6.9173057E+003
  6.2224913E+003
  6.0302459E+003
  6.2808117E+003
  6.8757269E+003
  7.7458274E+003
  8.8438778E+003
  1.0102754E+004
  1.1362927E+004
  1.2626445E+004
  1.3492255E+004
  1.3683562E+004
  1.2529689E+004
  1.0909335E+004
  9.6335643E+003
  9.1267970E+003
  9.1711168E+003
  9.2893231E+003
  9.4103822E+003
  9.7335721E+003
  9.9929716E+003
  1.2234086E+004
  1.3199502E+004
  3.3133747E+004
  1.2410492E+004
  9.2058174E+003
  1.6665330E+004
  1.5838466E+004
  1.6955021E+004
  1.6170752E+004
  1.5854821E+004
  1.6775815E+004
  1.7995548E+004
  1.9381859E+004
  2.0574267E+004
  2.1309624E+004
  2.1342150E+004
  2.0548749E+004
  1.8998700E+004
  1.6965754E+004
  1.4845759E+004
  1.3025677E+004
  1.1813099E+004
  1.1415554E+004
  1.1876170E+004
  1.3128609E+004
  1.4788351E+004
  1.6401636E+004
  1.7309026E+004
  1.7507516E+004
  1.7463365E+004
  1.7389665E+004
  1.8032859E+004
  1.7580102E+004
  1.6505068E+004
  1.4667167E+004
  1.2725932E+004
  1.0840453E+004
  9.4335996E+003
  8.2775146E+003
  7.4387600E+003
  6.8438660E+003
  6.5053136E+003
  6.5051322E+003
  6.8248296E+003
  7.4391482E+003
  8.3288944E+003
  9.4995714E+003
  1.0945001E+004
  1.2659812E+004
  1.4266431E+004
  1.6622993E+004
  1.7667574E+004
  1.7118170E+004
  1.4473778E+004
  1.1977453E+004
  1.1388198E+004
  1.1102336E+004
  1.0780314E+004
  1.0426597E+004
  1.0499947E+004
  1.0079425E+004
  1.2728596E+004
  4.4009758E+003
  6.5161220E+003
  5.1024251E+003
 -4.6546930E+003
  6.1971239E+003
  8.0553329E+003
  1.0580731E+004
  1.2545435E+004
  1.4619181E+004
  1.6308868E+004
  1.7528526E+004
  1.8106189E+004
  1.7939014E+004
  1.7000312E+004
  1.5389917E+004
  1.3334618E+004
  1.1143952E+004
  9.1451194E+003
  7.6217925E+003
  6.7669168E+003
  6.6450100E+003
  7.1267574E+003
  7.9374027E+003
  8.6588695E+003
  9.0057190E+003
  8.9351318E+003
  8.7961646E+003
  8.9584355E+003
  9.1381419E+003
  9.3155714E+003
  9.0338811E+003
  8.4179837E+003
  7.6065024E+003
  6.8783199E+003
  6.3072863E+003
  5.9772435E+003
  5.7962931E+003
  5.7338722E+003
  5.8108630E+003
  6.0526508E+003
  6.4869445E+003
  7.1204197E+003
  7.9668953E+003
  9.0645042E+003
  1.0529068E+004
  1.2530455E+004
  1.5119607E+004
  1.7979947E+004
  2.4127686E+004
  2.2034539E+004
  1.9091478E+004
  1.5405833E+004
  1.4383992E+004
  1.2951163E+004
  1.1547237E+004
  1.0627836E+004
  9.7084544E+003
  9.0527192E+003
  6.3111308E+003
  3.7632705E+003
  6.9611527E+002
 -2.4997657E+003
  4.7950953E+001
  1.2029204E+003
  5.1208529E+003
  8.4744140E+003
  1.1164221E+004
  1.3124882E+004
  1.4345491E+004
  1.4797301E+004
  1.4467212E+004
  1.3393223E+004
  1.1691872E+004
  9.5614078E+003
  7.2588548E+003
  5.0592898E+003
  3.2125509E+003
  1.9001164E+003
  1.1908001E+003
  1.0090458E+003
  1.1303471E+003
  1.2746622E+003
  1.2393606E+003
  1.0745377E+003
  9.6067092E+002
  1.0785271E+003
  1.4898888E+003
  1.9364723E+003
  2.2964296E+003
  2.4790879E+003
  2.5804575E+003
  2.7019456E+003
  2.9294632E+003
  3.2448753E+003
  3.6198888E+003
  4.0217528E+003
  4.4474609E+003
  4.9202743E+003
  5.4587530E+003
  6.0787741E+003
  6.7731238E+003
  7.6248197E+003
  8.4851130E+003
  1.0383427E+004
  1.1269049E+004
  2.2732889E+004
  2.3870453E+004
  3.1690035E+004
  4.6355864E+004
  2.0236389E+004
  1.7023456E+004
  1.2852276E+004
  1.1349314E+004
  9.8100867E+003
  8.4298301E+003
  6.5353780E+003
  4.1971731E+003
  1.6342864E+003
  3.0359909E+002
 -5.3349669E+003
 -9.9341435E+002
 -3.6643430E+003
  2.2334122E+003
  5.5856395E+003
  8.4695672E+003
  1.0343430E+004
  1.1413563E+004
  1.1664035E+004
  1.1136507E+004
  9.8917689E+003
  8.0477579E+003
  5.7780567E+003
  3.2983027E+003
  8.3894330E+002
 -1.3830045E+003
 -3.1885855E+003
 -4.4729088E+003
 -5.2401543E+003
 -5.6540785E+003
 -5.9399593E+003
 -6.2375278E+003
 -6.5628580E+003
 -6.6438932E+003
 -6.3522649E+003
 -5.7013146E+003
 -4.8284002E+003
 -3.9541575E+003
 -3.1174481E+003
 -2.3042863E+003
 -1.4556910E+003
 -5.6155708E+002
  3.4095506E+002
  1.2001733E+003
  1.9867235E+003
  2.7016353E+003
  3.3613805E+003
  3.9790925E+003
  4.5547528E+003
  5.0537431E+003
  5.4742196E+003
  5.5917703E+003
  5.6571201E+003
  2.6289972E+003
 -1.9568620E+003
  1.0584979E+003
  5.2787517E+003
  1.2930762E+004
  1.0551753E+004
  9.8486033E+003
  8.3875485E+003
  6.7988797E+003
  4.8993963E+003
  2.7224320E+003
  1.1798776E+003
 -1.9946574E+002
 -2.1248401E+004
 -5.3294287E+003
 -2.2016380E+003
  1.9950449E+003
  4.5937506E+003
  6.8201736E+003
  8.2365842E+003
  8.9290930E+003
  8.8653936E+003
  8.0737639E+003
  6.6068282E+003
  4.5657169E+003
  2.0973301E+003
 -6.1813490E+002
 -3.3908239E+003
 -6.0444222E+003
 -8.4139553E+003
 -1.0327105E+004
 -1.1701431E+004
 -1.2566035E+004
 -1.3222484E+004
 -1.3923316E+004
 -1.4357272E+004
 -1.4474201E+004
 -1.3896642E+004
 -1.2753275E+004
 -1.1355713E+004
 -9.8533910E+003
 -8.4307316E+003
 -6.9812929E+003
 -5.4613876E+003
 -3.9405741E+003
 -2.5062564E+003
 -1.2308430E+003
 -1.2947327E+002
  8.1057028E+002
  1.6131545E+003
  2.2943154E+003
  2.8297508E+003
  3.1844826E+003
  3.2323661E+003
  3.0107039E+003
  1.6527277E+003
  1.0443956E+003
  8.2772505E+002
  4.3583021E+002
  3.5089707E+003
  5.4898764E+003
  7.9929038E+003
  7.6131641E+003
  6.7535108E+003
  5.2987161E+003
  3.6322407E+003
  1.9317194E+003
  7.9401401E+002
 -2.5026635E+002
 -6.2660713E+003
  1.1816438E+004
  3.2404288E+003
  5.3116510E+003
  3.2633499E+003
  3.6669078E+003
  4.9483282E+003
  6.0257174E+003
  6.7415415E+003
  6.8953407E+003
  6.4313203E+003
  5.3232624E+003
  3.5953984E+003
  1.3186960E+003
 -1.3872707E+003
 -4.3677704E+003
 -7.4675492E+003
 -1.0560201E+004
 -1.3557956E+004
 -1.6303689E+004
 -1.8404522E+004
 -1.9911441E+004
 -2.1038654E+004
 -2.1882598E+004
 -2.3050764E+004
 -2.2936276E+004
 -2.1905159E+004
 -2.0014621E+004
 -1.7654619E+004
 -1.5596193E+004
 -1.3474276E+004
 -1.1334734E+004
 -9.1297817E+003
 -6.9702346E+003
 -5.0736795E+003
 -3.4676579E+003
 -2.1283280E+003
 -1.0199974E+003
 -1.1480540E+002
  6.1484851E+002
  1.1690950E+003
  1.4304218E+003
  1.4015878E+003
  9.9899327E+002
  6.0008242E+002
  1.4307178E+002
  1.3633751E+002
  1.5631596E+003
  4.0261214E+003
  5.5272347E+003
  5.9556744E+003
  5.1734262E+003
  3.9861242E+003
  2.6366733E+003
  1.3374498E+003
  5.8709036E+002
 -3.2304158E+002
  2.1205429E+003
  2.3877763E+003
  5.5037123E+003
  5.6800333E+003
  5.4109931E+003
  5.4241177E+003
  5.6028485E+003
  5.5663772E+003
  5.1697748E+003
  4.2871378E+003
  2.8575492E+003
  8.6445182E+002
 -1.6547036E+003
 -4.6074828E+003
 -7.8503555E+003
 -1.1220107E+004
 -1.4649286E+004
 -1.8175061E+004
 -2.1900195E+004
 -2.5563783E+004
 -2.7743715E+004
 -2.9760354E+004
 -3.2542150E+004
 -3.2715239E+004
 -3.2845723E+004
 -3.0619793E+004
 -2.7558194E+004
 -2.4689126E+004
 -2.1020319E+004
 -1.8141810E+004
 -1.5210380E+004
 -1.2046341E+004
 -9.3587927E+003
 -7.1639396E+003
 -5.3603855E+003
 -3.8560529E+003
 -2.6173751E+003
 -1.6241756E+003
 -8.8386531E+002
 -3.2038489E+002
 -2.5168519E+001
  1.2675097E+002
 -3.0670147E+002
 -6.8223139E+001
  4.4888102E+002
  2.5153458E+003
  3.9069262E+003
  5.2397972E+003
  4.6561698E+003
  3.8857428E+003
  2.7967312E+003
  1.7529540E+003
  8.3216720E+002
  3.9153048E+002
 -3.4869794E+002
  1.3607397E+003
  2.0406730E+003
  4.3274519E+003
  5.6117205E+003
  5.7643591E+003
  5.4563162E+003
  4.9980637E+003
  4.3982343E+003
  3.5358005E+003
  2.2984975E+003
  5.9436099E+002
 -1.6233072E+003
 -4.3521963E+003
 -7.5254978E+003
 -1.1002667E+004
 -1.4579047E+004
 -1.8038045E+004
 -2.1671913E+004
 -2.5926931E+004
 -3.1398022E+004
 -3.7341427E+004
 -4.2781275E+004
 -4.2164367E+004
 -4.7678008E+004
 -4.1909360E+004
 -3.9185714E+004
 -3.6987128E+004
 -3.0636168E+004
 -2.7700267E+004
 -2.2057158E+004
 -1.7398041E+004
 -1.3610702E+004
 -1.0905695E+004
 -8.7486192E+003
 -6.8788397E+003
 -5.2346797E+003
 -3.8378840E+003
 -2.7084475E+003
 -1.9211636E+003
 -1.3152926E+003
 -2.0069872E+003
 -1.1760938E+003
  1.6982771E+002
  4.6202984E+003
  2.4426436E+003
  7.4238381E+003
  4.4591034E+003
  3.7776614E+003
  2.5984417E+003
  1.6488753E+003
  8.5526953E+002
  3.0463347E+002
  1.8615476E+002
 -3.7253562E+002
  8.0037651E+002
  1.4978358E+003
  3.6791413E+003
  5.0493214E+003
  5.2988917E+003
  4.7695290E+003
  3.9437288E+003
  2.9639717E+003
  1.7896036E+003
  3.0632518E+002
 -1.5862954E+003
 -3.9545089E+003
 -6.8144794E+003
 -1.0137563E+004
 -1.3793244E+004
 -1.7528020E+004
 -2.0934248E+004
 -2.3753817E+004
 -2.6731242E+004
 -3.3455279E+004
 -3.4781834E+004
 -7.2414337E+004
 -8.2591818E+004
 -5.2365590E+004
 -5.0935181E+004
 -4.7346741E+004
 -4.4113632E+004
 -5.1460862E+004
 -3.6681021E+004
 -1.7960161E+004
 -1.6400332E+004
 -1.3409768E+004
 -1.1910449E+004
 -9.9883705E+003
 -8.0979904E+003
 -6.2512010E+003
 -4.5697059E+003
 -3.1919442E+003
 -2.1357709E+003
 -1.5772723E+003
 -7.5602244E+002
  2.2819354E+004
  7.3768467E+003
  5.7245123E+003
  3.3006979E+003
  2.3554917E+003
  1.2696747E+003
  4.1255354E+002
 -1.5126060E+002
 -3.3882195E+002
 -9.2783621E+001
 -4.3975685E+002
  1.5046617E+003
  1.7641236E+003
  3.8182370E+003
  4.6712748E+003
  4.3106201E+003
  3.3775007E+003
  2.2732426E+003
  1.0966037E+003
 -2.3349084E+002
 -1.8399455E+003
 -3.8382298E+003
 -6.2748027E+003
 -9.1681316E+003
 -1.2497555E+004
 -1.6187697E+004
 -2.0002722E+004
 -2.3549840E+004
 -2.5724347E+004
 -2.7348060E+004
 -2.4197966E+004
 -2.3116949E+004
  2.7402270E+003
  8.6177550E+003
 -2.5731518E+003
 -1.2948754E+004
 -1.4324154E+004
 -1.3601284E+004
 -1.1618448E+004
 -9.3234830E+003
 -7.0110829E+003
 -4.8318668E+003
 -2.9520758E+003
 -7.5987480E+002
 -2.0181625E+002
  7.2200896E+003
 -1.1998256E+004
 -2.2572216E+003
 -2.8620869E+003
  5.5405508E+002
  1.2314067E+003
  6.8601742E+002
 -4.6263382E+001
 -8.5018111E+002
 -1.3082934E+003
 -1.2033879E+003
 -4.6270069E+002
 -5.5292010E+002
  2.3833117E+003
  1.8579076E+003
  4.4708638E+003
  3.8440161E+003
  2.4934251E+003
  1.1299727E+003
 -6.9932164E+001
 -1.3000238E+003
 -2.6372700E+003
 -4.2594004E+003
 -6.3265680E+003
 -8.8593580E+003
 -1.1698854E+004
 -1.4814760E+004
 -1.8399348E+004
 -2.1248575E+004
 -2.5577221E+004
 -2.4841237E+004
 -4.3301272E+004
 -2.4180153E+004
  7.9696216E+002
 -1.7640699E+003
 -3.8547453E+002
 -2.1647115E+003
 -9.1892499E+002
 -4.4790472E+002
 -4.0131600E+002
 -9.8423738E+002
 -1.8034978E+003
 -2.5170950E+003
 -2.4166071E+003
 -1.2075677E+003
 -1.2524873E+003
  1.1152754E+004
  2.4814468E+003
  3.8864038E+003
  8.1121774E+002
 -8.1041247E+002
 -1.8837247E+003
 -3.0677683E+003
 -4.2279555E+003
 -5.4788628E+003
 -7.0218150E+003
 -9.1406560E+003
 -1.1981936E+004
 -1.5106257E+004
 -1.7836901E+004
 -2.0495875E+004
 -2.3656002E+004
 -2.1545495E+004
 -2.1378898E+004
 -9.2002281E+003
  2.0938233E+003
  2.3402243E+002
  2.2386123E+003
 -4.2788855E+002
 -4.9626163E+002
 -7.2819242E+002
 -1.0321561E+003
 -1.8474350E+003
 -3.0454296E+003
 -3.8497305E+003
 -1.6738575E+003
 -2.0632536E+003
 -5.3112419E+003
 -1.9119473E+004
 -6.1074738E+003
 -5.1730786E+003
 -4.4039371E+003
 -5.3520462E+003
 -6.4395417E+003
 -7.6479267E+003
 -8.8058448E+003
 -1.0163904E+004
 -1.2315231E+004
 -1.5633582E+004
 -2.0299927E+004
 -2.3386320E+004
 -2.6621543E+004
 -2.1430412E+004
 -2.3311303E+004
 -1.1678313E+004
  1.6090892E+004
  4.5032395E+003
  2.3720842E+003
  1.8743302E+002
 -2.1571284E+002
 -3.0174493E+002
 -2.7071001E+002
 -3.0212260E+002
 -1.1253394E+003
 -3.8709185E+003
 -2.5239938E+003
 -1.0734510E+004
 -3.6917501E+003
 -2.7522135E+003
 -7.8580287E+003
 -6.8502535E+003
 -8.3843463E+003
 -9.8332084E+003
 -1.1463221E+004
 -1.2771973E+004
 -1.3859747E+004
 -1.5723338E+004
 -1.9076634E+004
 -2.5777926E+004
 -3.0092197E+004
 -5.3979076E+004
 -3.2856558E+004
  4.2504106E+003
  5.2006950E+003
 -8.8710808E+003
 -1.7715096E+003
 -2.8041388E+003
 -6.7621941E+002
 -2.0925722E+002
 -5.9423029E+001
  3.1828201E+002
  9.4310147E+002
  1.6354826E+003
  3.7814595E+003
  5.5306673E+003
  1.9078829E+004
  5.5795394E+003
 -3.0676520E+001
 -3.0260619E+003
 -5.3207677E+003
 -8.3593636E+003
 -1.0336348E+004
 -1.2801122E+004
 -1.5400435E+004
 -1.7664822E+004
 -1.8751831E+004
 -2.0065311E+004
 -2.4539252E+004
 -3.0148164E+004
 -3.3526991E+004
 -2.7415262E+004
 -1.7566246E+003
 -9.9635962E+002
 -2.5259807E+003
 -1.6432920E+003
 -6.3734708E+002
  1.5401906E+002
  8.0211434E+002
  1.7673553E+003
  2.5283275E+003
  5.5344662E+003
  1.7086619E+003
  4.1358792E+003
 -1.5415610E+002
 -2.1483277E+003
 -5.2726002E+003
 -8.3996407E+003
 -1.1462393E+004
 -1.4645340E+004
 -1.8384670E+004
 -2.2972881E+004
 -2.6637255E+004
 -2.6074688E+004
 -2.9099837E+004
 -3.3921480E+004
 -4.6386812E+004
 -8.9880225E+002
 -4.9907454E+002
 -8.4932105E+002
 -6.7621354E+002
 -1.0857873E+002
  4.6538183E+002
  1.1160694E+003
  1.7592552E+003
  2.6249786E+003
  2.2892066E+003
  1.6130141E+003
  6.5881001E+002
 -1.2945579E+002
 -3.0584731E+003
 -5.3939134E+003
 -8.6333233E+003
 -1.1160741E+004
 -1.4658599E+004
 -1.9135678E+004
 -2.4325827E+004
 -3.4132244E+004
 -4.4120718E+004
 -7.9745166E+004
 -4.1700823E+004
 -1.2960872E+002
  9.5143155E+002
  8.4144355E+002
  1.0283924E+003
  7.0860099E+002
  8.7546236E+002
  1.1577721E+003
  1.5179005E+003
  1.5846844E+003
  1.3317697E+003
  4.5978805E+002
  4.9076280E+002
 -4.4116427E+003
 -2.4145833E+003
 -7.7226486E+003
 -6.7667629E+003
 -9.5961171E+003
 -1.2544722E+004
 -1.6521455E+004
 -1.9310929E+004
 -2.7683203E+004
 -9.6559732E+003
 -1.2341310E+004
  2.6404180E+003
  1.3253107E+003
  3.9688486E+003
  1.7397462E+003
  1.3503414E+003
  1.0386218E+003
  1.0640081E+003
  1.0878973E+003
  9.8970207E+002
  6.6027402E+002
  2.4956077E+002
  2.3384445E+002
 -1.9446690E+004
 -4.0176349E+003
 -2.9968887E+003
 -3.6413458E+003
 -6.6032302E+003
 -9.4510775E+003
 -1.1382136E+004
 -1.2774254E+004
 -8.7603687E+003
 -6.4779847E+003
  1.3705118E+003
  1.4369435E+004
  4.5280945E+003
  3.2381865E+003
  1.6108090E+003
  1.1848357E+003
  8.9893973E+002
  8.1024050E+002
  7.3316378E+002
  5.7815164E+002
  3.7252423E+002
  7.6183271E+001
  2.3864846E+002
 -2.9572605E+003
  1.5423830E+004
  5.7246486E+003
  1.0415585E+004
  5.0274612E+003
 -3.3378087E+001
 -3.9127061E+003
 -6.6894852E+003
 -7.7973075E+003
 -5.9375082E+003
 -2.1266012E+003
 -7.7313943E+002
  2.3139226E+003
  4.4985839E+003
 -7.9167128E+003
 -1.5088047E+003
 -2.2561866E+003
 -1.2743183E+002
  4.5279086E+002
  4.9122574E+002
  5.1085084E+002
  4.8190666E+002
  4.2630412E+002
  3.1697904E+002
  1.9684352E+002
  1.3721178E+001
  2.1543938E+002
  1.7539798E+004
  6.6850134E+003
  1.1835929E+004
  6.0644760E+003
  6.7549949E+002
 -2.9526781E+003
 -5.6329462E+003
 -6.9816364E+003
 -6.0635874E+003
  5.1329570E+000
  8.0954585E+002
  1.5976717E+004
 -1.5725116E+003
 -9.5328996E+002
 -2.3178483E+003
 -1.5381068E+003
 -6.4276722E+002
 -1.1147263E+002
  9.2089025E+001
  1.7266204E+002
  1.7616822E+002
  1.3093626E+002
  9.0824570E+001
 -2.9044114E+001
  2.1186000E+002
 -1.1627732E+003
 -2.1259169E+004
 -2.9685835E+003
 -1.4270142E+003
 -1.5182776E+003
 -3.7540492E+003
 -5.9891707E+003
 -7.7202038E+003
 -1.1005908E+004
 -1.2569902E+004
 -3.1727000E+004
 -1.1739398E+004
 -9.7262617E+002
 -6.0159017E+002
 -1.2620678E+003
 -1.1514065E+003
 -7.3087004E+002
 -3.5273686E+002
 -1.4756928E+002
 -5.4616767E+001
 -1.4568403E+001
 -6.9239767E+000
  1.4029255E+001
 -5.5642842E+001
  2.0539624E+002
 -6.3596965E+003
 -1.3805590E+003
 -6.4323301E+003
 -3.5605533E+003
 -4.9069384E+003
 -6.3397294E+003
 -7.5031093E+003
 -1.1175303E+004
 -4.3899681E+003
 -4.7490637E+003
 -2.2442788E+002
 -1.1790134E+000
 -8.4662267E+001
 -1.7689252E+002
 -1.9991330E+002
 -2.2754454E+002
 -2.1579280E+002
 -1.9921648E+002
 -1.6555842E+002
 -1.2342011E+002
 -5.1573797E+001
 -7.8703257E+001
  1.9934616E+002
 -1.9312609E+003
 -1.8129935E+003
 -3.4933352E+003
 -4.7713253E+003
 -5.2153472E+003
 -5.9261483E+003
 -6.6802743E+003
 -4.9333890E+003
 -3.8077661E+003
  1.3042985E+003
  4.7986502E+001
  1.0047631E+003
  1.0553541E+003
  1.0610755E+003
  3.5768840E+002
 -9.2352008E+000
 -2.4490454E+002
 -3.3344995E+002
 -3.2412536E+002
 -2.5189278E+002
 -1.2643107E+002
 -1.0514991E+002
  1.9081851E+002
 -2.1365967E+003
 -6.0632875E+002
 -3.0169405E+003
 -4.3684457E+003
 -5.4373991E+003
 -5.6346069E+003
 -4.9721697E+003
 -3.2006544E+003
 -1.9859473E+003
  2.1504005E+003
  2.6174418E+003
  1.2221176E+003
  3.6789602E+003
  1.3764587E+003
  6.7500213E+002
 -3.2160009E+001
 -3.8347407E+002
 -5.5337411E+002
 -5.4994274E+002
 -4.3334388E+002
 -2.3387428E+002
 -1.4406910E+002
  1.7824048E+002
 -2.0442264E+003
 -7.1327037E+002
 -3.2260706E+003
 -5.1959711E+003
 -6.3643428E+003
 -6.1195605E+003
 -4.8012095E+003
 -2.4825888E+003
 -1.8865783E+003
  3.0407595E+003
  1.3522120E+004
  4.0966114E+003
  2.7392318E+003
  9.8150364E+002
  2.6199516E+002
 -3.6343209E+002
 -7.3401059E+002
 -9.1610112E+002
 -8.9537898E+002
 -7.1007502E+002
 -4.0258564E+002
 -2.0801274E+002
  1.5530846E+002
 -2.7381079E+003
 -1.2370520E+003
 -5.1571208E+003
 -7.9015202E+003
 -9.2371069E+003
 -8.1901131E+003
 -5.8601979E+003
 -2.6727013E+003
 -2.0587087E+003
  3.6698160E+003
  4.1623617E+003
 -7.4971495E+003
 -1.5496764E+003
 -2.3915069E+003
 -5.7063443E+002
 -2.8200332E+002
 -5.9233937E+002
 -9.3444350E+002
 -1.2516137E+003
 -1.4226693E+003
 -1.3867980E+003
 -1.1238371E+003
 -6.6999471E+002
 -3.1102025E+002
  1.1700006E+002
 -2.3076007E+003
 -3.6660878E+003
 -9.3273816E+003
 -1.3982919E+004
 -1.4765714E+004
 -1.2311012E+004
 -7.8168872E+003
 -3.3895083E+003
 -1.8085351E+003
  4.1238421E+003
 -1.4965986E+003
 -9.5726282E+002
 -2.4002611E+003
 -1.8823230E+003
 -1.3810422E+003
 -1.2824435E+003
 -1.5112641E+003
 -1.7926837E+003
 -2.0077842E+003
 -2.0147809E+003
 -1.7175965E+003
 -1.0951489E+003
 -4.9769520E+002
  1.6599141E+001
 -8.0304487E+003
 -6.7722764E+003
 -1.9553307E+004
 -2.4155995E+004
 -2.3661953E+004
 -1.7840168E+004
 -1.1360005E+004
 -2.6975943E+003
 -2.6892508E+003
  6.6779092E+003
 -8.0411472E+002
 -5.9284937E+002
 -1.1843352E+003
 -1.4093641E+003
 -1.4107183E+003
 -1.5562390E+003
 -1.8343984E+003
 -2.1968378E+003
 -2.5323987E+003
 -2.7110982E+003
 -2.5120513E+003
 -1.7681548E+003
 -7.8101785E+002
 -1.3745073E+002
 -2.8603418E+003
 -2.3754396E+004
 -3.4811973E+004
 -4.1844306E+004
 -3.2336116E+004
 -2.4112812E+004
 -1.5188542E+004
 -5.9853911E+003
  9.7777890E+002
  1.8213057E+004
 -2.0058782E+002
  5.0806749E+002
  9.4367454E+001
 -1.8053638E+002
 -9.0071414E+002
 -1.3715909E+003
 -1.8495042E+003
 -2.3140016E+003
 -2.7889711E+003
 -3.2316439E+003
 -3.4296114E+003
 -2.8200232E+003
 -1.4411009E+003
 -8.8604833E+002
 -8.2246065E+004
 -2.3615372E+004
 -8.1917143E+004
 -4.7078987E+004
 -3.9819561E+004
 -2.7507751E+004
 -1.8774604E+004
 -1.1446203E+004
 -8.5322620E+003
 -5.0285216E+003
 -6.9459060E+003
  8.2286446E+003
  1.7879924E+003
  8.4913471E+002
  2.4556734E+003
  4.9564772E+002
 -2.4898332E+002
 -1.0224605E+003
 -1.5903560E+003
 -2.1013783E+003
 -2.5332249E+003
 -3.0747008E+003
 -3.8025487E+003
 -4.1182905E+003
 -1.8184603E+003
 -1.7042773E+003
 -1.4609154E+005
 -7.9919066E+004
 -6.7936695E+004
 -4.7321437E+004
 -3.7026896E+004
 -2.7320626E+004
 -1.9814430E+004
 -1.4006942E+004
 -8.8757014E+003
 -4.6103712E+003
  1.8576211E+003
  1.0119209E+004
  3.1524456E+003
  2.1499262E+003
  7.3783431E+002
  3.8226527E+001
 -6.4247479E+002
 -1.1836440E+003
 -1.6034171E+003
 -1.8451724E+003
 -1.7483370E+003
 -1.9209368E+003
 -4.0790319E+003
 -2.5369141E+003
 -1.0485733E+004
  1.2600682E+003
 -5.3852430E+004
 -2.3221979E+004
 -3.6156504E+004
 -2.7415653E+004
 -2.3367947E+004
 -1.8027801E+004
 -1.3544859E+004
 -7.8599244E+003
 -4.5797844E+003
  2.6737904E+003
  2.8892968E+003
 -5.7402024E+003
 -9.1440456E+002
 -1.3231781E+003
  1.6449135E+002
  4.1914169E+002
  9.3783474E+001
 -2.7831173E+002
 -6.7855442E+002
 -1.0173765E+003
 -1.0136717E+003
 -4.9759851E+002
  2.3009207E+003
  5.1097378E+003
  1.9530151E+004
  6.5309784E+003
 -3.6367841E+004
 -2.9078067E+004
 -1.7959152E+004
 -1.8000245E+004
 -1.9083246E+004
 -1.7385861E+004
 -1.5249251E+004
 -1.2447587E+004
 -8.9864808E+003
 -4.7604065E+003
  1.6943377E+003
 -1.2066204E+003
  4.4797817E+001
 -8.0165333E+002
 -1.0727570E+002
  1.5679483E+002
  2.7040029E+002
  1.4061995E+002
 -5.0317400E+001
 -3.6113982E+002
 -5.0221585E+002
 -6.3347855E+002
  2.5532022E+003
  5.7189941E+001
  2.9114417E+003
 -1.9088871E+004
 -2.3240711E+004
 -1.1972858E+004
 -1.1893993E+004
 -1.2085808E+004
 -1.2869716E+004
 -1.2687043E+004
 -1.2017370E+004
 -1.0890366E+004
 -1.0005196E+004
 -4.9030871E+003
 -3.0883721E+003
 -1.2074862E+002
  5.4258138E+002
  4.5431943E+002
  1.4381372E+003
  4.1739704E+002
  4.9393143E+002
  5.7405006E+002
  7.0266746E+002
  7.3123172E+002
  6.5167756E+002
  5.6724997E+001
 -8.7861191E+002
 -2.5201621E+003
 -5.9759206E+002
 -1.6814730E+003
 -1.8480297E+004
 -1.8924745E+004
 -1.0614100E+004
 -9.0728912E+003
 -8.9935710E+003
 -1.0084525E+004
 -1.1145422E+004
 -1.1938086E+004
 -1.2277311E+004
 -1.2031092E+004
 -1.0107081E+004
 -9.9947345E+003
  7.5368968E+003
  2.6086140E+003
  1.7986036E+003
  8.0808982E+002
  7.4587480E+002
  9.2536545E+002
  1.2789739E+003
  1.6784956E+003
  1.9669136E+003
  2.1297218E+003
  9.6415174E+002
 -3.3649730E+003
 -2.8424600E+003
 -1.4034203E+004
 -2.0214516E+004
 -1.6180095E+004
 -1.0982082E+004
 -8.0670080E+003
 -7.9164337E+003
 -8.9868130E+003
 -1.0535757E+004
 -1.2018658E+004
 -1.3111088E+004
 -1.3214787E+004
 -1.2177242E+004
 -7.8738171E+003
 -7.4663685E+003
 -5.6787674E+003
  2.6341611E+003
 -3.5444629E+003
 -2.6838467E+002
 -1.5211719E+002
  2.4713136E+002
  4.3253567E+002
  6.0658474E+002
  1.0658258E+003
  1.6988257E+003
  2.4446793E+003
  3.4116046E+003
  4.2650710E+003
  6.9524502E+003
  8.7467424E+003
  2.7335734E+004
  8.7304682E+003
 -1.2246883E+004
 -1.9942510E+004
 -8.6329084E+003
 -8.2769486E+003
 -7.7680468E+003
 -8.9706934E+003
 -1.0610967E+004
 -1.2400482E+004
 -1.3849899E+004
 -1.4675328E+004
 -1.4124979E+004
 -1.3568625E+004
 -5.3719151E+003
 -9.1701723E+002
 -3.9912017E+003
  2.8271613E+003
  2.1616641E+001
 -9.4443285E+002
 -1.0116626E+003
 -4.7823590E+002
  1.3830745E+002
  8.7270725E+002
  1.7641992E+003
  2.7357830E+003
  4.0411365E+003
  4.8932792E+003
  8.5971723E+003
  2.6434899E+003
  6.0873665E+003
  8.4298354E+003
 -6.4516652E+003
 -2.5748155E+003
 -1.0331650E+004
 -8.3797976E+003
 -8.3386707E+003
 -8.4084362E+003
 -9.5306265E+003
 -1.1160049E+004
 -1.3028077E+004
 -1.4786436E+004
 -1.6260036E+004
 -1.7246509E+004
 -1.8575736E+004
 -1.9863108E+004
 -2.3839228E+004
  7.2982356E+002
 -2.4428319E+003
 -2.6021622E+003
 -2.7121953E+003
 -2.4878752E+003
 -2.1073968E+003
 -1.4424423E+003
 -5.8077231E+002
  3.7753208E+002
  1.4003892E+003
  2.4823953E+003
  3.4420178E+003
  4.4807927E+003
  3.7187280E+003
  2.3458704E+003
  1.3112465E+003
 -1.8719254E+004
 -1.5912073E+004
 -1.1877460E+004
 -1.0005591E+004
 -9.2696829E+003
 -9.4928004E+003
 -1.0426351E+004
 -1.1938609E+004
 -1.3759935E+004
 -1.5688572E+004
 -1.7548490E+004
 -1.9522162E+004
 -2.1248317E+004
 -2.3650995E+004
 -2.3588419E+004
 -4.3957948E+004
 -7.0553965E+003
 -1.3595211E+003
 -4.5405042E+003
 -4.6692736E+003
 -4.5857045E+003
 -4.5247872E+003
 -4.0435732E+003
 -3.3244900E+003
 -2.4387622E+003
 -1.4318166E+003
 -3.5695598E+002
  7.2920033E+002
  1.7245970E+003
  2.5347321E+003
  2.6677849E+003
  2.2056812E+003
  6.6382126E+002
  1.0922795E+003
 -1.5637946E+004
 -1.5108825E+004
 -1.3833580E+004
 -1.1796497E+004
 -1.0748765E+004
 -1.0684522E+004
 -1.1418373E+004
 -1.2724646E+004
 -1.4409133E+004
 -1.6295334E+004
 -1.8269173E+004
 -2.0286398E+004
 -2.2135704E+004
 -2.4516390E+004
 -2.5982719E+004
 -2.9534777E+004
 -2.6756061E+004
 -2.5865009E+004
 -4.8198097E+004
  1.0215392E+004
 -4.3368374E+003
 -7.6588978E+003
 -7.9072930E+003
 -7.4239599E+003
 -6.8649931E+003
 -6.2102584E+003
 -5.4342228E+003
 -4.4993082E+003
 -3.4590816E+003
 -2.3530181E+003
 -1.2248298E+003
 -1.3541952E+002
  8.3133556E+002
  1.4855986E+003
  1.6483301E+003
  1.2193594E+003
  4.0228583E+002
  7.3464596E+002
 -1.7998080E+004
 -1.5307639E+004
 -1.4641914E+004
 -1.2792959E+004
 -1.1878422E+004
 -1.1702399E+004
 -1.2257688E+004
 -1.3355121E+004
 -1.4831942E+004
 -1.6539222E+004
 -1.8353912E+004
 -2.0168619E+004
 -2.1945195E+004
 -2.3591836E+004
 -2.5025446E+004
 -2.8086187E+004
 -3.1135689E+004
 -3.5074784E+004
 -3.4701608E+004
 -2.2254647E+004
 -6.6416444E+004
  1.4505227E+004
 -1.4045858E+003
 -2.6667669E+004
 -1.3340520E+004
 -1.2327771E+004
 -9.9867929E+003
 -8.8503803E+003
 -7.7230706E+003
 -6.6693187E+003
 -5.5699574E+003
 -4.4346044E+003
 -3.2822816E+003
 -2.1461678E+003
 -1.0626588E+003
 -1.0323982E+002
  6.8977697E+002
  1.0330204E+003
  1.0395202E+003
  2.0848473E+002
  9.4918457E+002
 -1.3100452E+004
 -1.8559009E+004
 -1.3585760E+004
 -1.3142571E+004
 -1.2359274E+004
 -1.2350004E+004
 -1.2812178E+004
 -1.3735209E+004
 -1.4983112E+004
 -1.6440837E+004
 -1.7995553E+004
 -1.9560034E+004
 -2.1074206E+004
 -2.2555386E+004
 -2.4375522E+004
 -2.6772130E+004
 -2.9413658E+004
 -3.4068754E+004
 -3.8738953E+004
 -4.2532151E+004
 -4.2131536E+004
 -7.1952726E+004
 -4.4968100E+004
 -4.4671808E+004
 -4.2704580E+004
 -3.6389330E+004
 -4.0495769E+004
 -8.0199540E+003
 -7.1666951E+004
  1.4211095E+004
  9.3576071E+003
 -4.2627927E+004
 -2.0600908E+004
 -1.5106590E+004
 -2.0270487E+004
 -1.6210463E+004
 -1.4317675E+004
 -1.1982559E+004
 -1.0365857E+004
 -8.9568182E+003
 -7.6980099E+003
 -6.4879374E+003
 -5.3070676E+003
 -4.1560793E+003
 -3.0501079E+003
 -2.0122082E+003
 -1.0317715E+003
 -1.5449319E+002
  8.6199408E+002
  1.1059146E+003
  7.9197203E+002
  1.0125288E+003
  7.4127554E+003
 -1.4663575E+004
 -1.0210836E+004
 -1.2935414E+004
 -1.2720746E+004
 -1.2640408E+004
 -1.2466208E+004
 -1.2614510E+004
 -1.3073630E+004
 -1.3851842E+004
 -1.4879978E+004
 -1.6075399E+004
 -1.7353358E+004
 -1.8647561E+004
 -1.9934048E+004
 -2.1295251E+004
 -2.2871980E+004
 -2.4806523E+004
 -2.7307377E+004
 -3.0071369E+004
 -3.2135804E+004
 -3.4314195E+004
 -3.7092244E+004
 -3.8995165E+004
 -4.2954771E+004
 -4.6013938E+004
 -4.9815825E+004
 -4.8004367E+004
 -8.5091168E+004
 -5.1692102E+004
 -5.6908051E+004
 -4.5651355E+004
 -5.0814308E+004
 -4.1615671E+004
 -4.1793190E+004
 -3.7366422E+004
 -3.5011779E+004
 -3.4149770E+004
 -2.9519172E+004
 -3.1793894E+004
 -2.6439734E+004
 -3.0743307E+004
 -2.5553122E+004
 -3.0476560E+004
 -2.7526086E+004
 -3.2216954E+004
 -2.9474208E+004
 -2.8829950E+004
 -4.6051063E+004
 -2.7939521E+004
 -2.4411440E+004
 -2.0309626E+004
 -1.6998574E+004
 -1.4924327E+004
 -1.3008593E+004
 -1.1290952E+004
 -9.7969506E+003
 -8.4484347E+003
 -7.1985659E+003
 -6.0210832E+003
 -4.9114592E+003
 -3.8804734E+003
 -2.9247555E+003
 -2.0745567E+003
 -1.0997376E+003
 -3.4463410E+002
  2.6219301E+003
  3.7785672E+002
  3.7407406E+003
 -1.9003609E+004
 -1.5337539E+004
 -1.1696117E+004
 -1.2008849E+004
 -1.2195577E+004
 -1.2392749E+004
 -1.2654157E+004
 -1.3101786E+004
 -1.3749493E+004
 -1.4573094E+004
 -1.5518774E+004
 -1.6528432E+004
 -1.7558394E+004
 -1.8604192E+004
 -1.9706508E+004
 -2.0943527E+004
 -2.2388602E+004
 -2.4004717E+004
 -2.5593589E+004
 -2.7097589E+004
 -2.8700624E+004
 -3.0750710E+004
 -3.3884437E+004
 -3.6827120E+004
 -3.8520794E+004
 -3.9440793E+004
 -4.1215631E+004
 -4.1159423E+004
 -4.1546407E+004
 -3.9802818E+004
 -3.8186696E+004
 -3.5923743E+004
 -3.4320071E+004
 -3.2857494E+004
 -3.1565323E+004
 -2.9375226E+004
 -2.7353921E+004
 -2.4422173E+004
 -2.1864075E+004
 -1.9666234E+004
 -1.7173835E+004
 -1.5081805E+004
 -1.3313242E+004
 -1.1695787E+004
 -1.0222339E+004
 -8.8831605E+003
 -7.6554453E+003
 -6.5253858E+003
 -5.4896799E+003
 -4.5573999E+003
 -3.7414879E+003
 -3.0700395E+003
 -2.4873264E+003
 -2.0617087E+003
 -5.1352869E+002
  1.4988991E+003
  1.3101444E+004
  3.9305073E+003
 -4.5753692E+003
 -1.1254275E+004
 -1.1708729E+004
 -1.2106211E+004
 -1.2319866E+004
 -1.2597412E+004
 -1.2977056E+004
 -1.3490037E+004
 -1.4120934E+004
 -1.4835875E+004
 -1.5594262E+004
 -1.6365510E+004
 -1.7139800E+004
 -1.7932125E+004
 -1.8769098E+004
 -1.9659650E+004
 -2.0563911E+004
 -2.1439381E+004
 -2.2329717E+004
 -2.3496345E+004
 -2.5185187E+004
 -2.7213880E+004
 -2.9174335E+004
 -3.0607798E+004
 -3.1743789E+004
 -3.3042809E+004
 -3.5008077E+004
 -3.6668065E+004
 -3.8968927E+004
 -3.8867894E+004
 -3.9071767E+004
 -3.6916902E+004
 -3.4666666E+004
 -3.2250856E+004
 -2.8881924E+004
 -2.5565267E+004
 -2.2989835E+004
 -2.0698348E+004
 -1.8605670E+004
 -1.6682818E+004
 -1.4851377E+004
 -1.3183156E+004
 -1.1661450E+004
 -1.0264213E+004
 -8.9893020E+003
 -7.8307047E+003
 -6.7806063E+003
 -5.8365721E+003
 -5.0059818E+003
 -4.3147544E+003
 -3.8119530E+003
 -3.6251040E+003
 -3.9072549E+003
 -5.3774388E+003
 -7.7340765E+003
 -4.2448759E+003
 -1.0074427E+004
  1.7096612E+003
 -1.9858225E+004
 -1.5226668E+004
 -1.2036450E+004
 -1.2271223E+004
 -1.2213979E+004
 -1.2316794E+004
 -1.2486726E+004
 -1.2757812E+004
 -1.3125420E+004
 -1.3575877E+004
 -1.4081156E+004
 -1.4609547E+004
 -1.5133657E+004
 -1.5636726E+004
 -1.6112194E+004
 -1.6556016E+004
 -1.6954346E+004
 -1.7288550E+004
 -1.7562745E+004
 -1.7857479E+004
 -1.8315239E+004
 -1.9081650E+004
 -2.0129139E+004
 -2.1288665E+004
 -2.2264801E+004
 -2.3173535E+004
 -2.4603695E+004
 -2.8075087E+004
 -3.3290747E+004
 -3.6910236E+004
 -4.4888630E+004
 -4.2005832E+004
 -4.2498231E+004
 -3.8395875E+004
 -3.2696403E+004
 -2.7864467E+004
 -2.4781320E+004
 -2.1956731E+004
 -1.9605233E+004
 -1.7662237E+004
 -1.5894961E+004
 -1.4242337E+004
 -1.2688822E+004
 -1.1254597E+004
 -9.9480103E+003
 -8.7686251E+003
 -7.7108308E+003
 -6.7647506E+003
 -5.9208308E+003
 -5.1756371E+003
 -4.5408728E+003
 -4.0567655E+003
 -3.8303704E+003
 -4.0541747E+003
 -5.2856953E+003
 -7.4552976E+003
 -4.0311002E+003
 -9.5497636E+003
 -1.3531851E+004
 -1.3504574E+004
 -1.3393993E+004
 -1.2543007E+004
 -1.2360367E+004
 -1.2270848E+004
 -1.2320229E+004
 -1.2464191E+004
 -1.2691027E+004
 -1.2978168E+004
 -1.3299306E+004
 -1.3625218E+004
 -1.3928398E+004
 -1.4185337E+004
 -1.4375860E+004
 -1.4479321E+004
 -1.4473042E+004
 -1.4337452E+004
 -1.4073452E+004
 -1.3716509E+004
 -1.3340873E+004
 -1.3032047E+004
 -1.2991601E+004
 -1.2839525E+004
 -1.2967792E+004
 -1.2428081E+004
 -1.4026445E+004
 -1.3434770E+004
 -2.6064894E+004
 -4.3696607E+004
 -4.3048263E+004
 -6.9485721E+004
 -6.4428172E+004
 -3.2064577E+004
 -3.2316549E+004
 -2.6381934E+004
 -2.3665517E+004
 -2.0438270E+004
 -1.8310361E+004
 -1.6499886E+004
 -1.4872859E+004
 -1.3307167E+004
 -1.1834205E+004
 -1.0486273E+004
 -9.2830449E+003
 -8.2230655E+003
 -7.2934111E+003
 -6.4748506E+003
 -5.7437319E+003
 -5.0754794E+003
 -4.4424000E+003
 -3.8339970E+003
 -3.1728812E+003
 -2.5318728E+003
 -6.6653009E+002
  1.5477818E+003
  1.2700508E+004
  2.2063808E+003
 -1.3169790E+004
 -1.3115959E+004
 -1.2805784E+004
 -1.2582065E+004
 -1.2266470E+004
 -1.2118313E+004
 -1.2064547E+004
 -1.2102063E+004
 -1.2207107E+004
 -1.2357048E+004
 -1.2525337E+004
 -1.2684021E+004
 -1.2804990E+004
 -1.2860807E+004
 -1.2823910E+004
 -1.2665082E+004
 -1.2352865E+004
 -1.1856221E+004
 -1.1149827E+004
 -1.0214600E+004
 -9.0454478E+003
 -7.6176737E+003
 -6.0235280E+003
 -4.9659835E+003
 -2.6618010E+003
  2.9039471E+003
  3.5566276E+003
  2.2692393E+003
  8.8581141E+003
  1.5005496E+004
 -2.3080733E+004
 -4.1265673E+004
 -2.2059906E+004
 -2.1041463E+004
 -1.7861878E+004
 -1.6529014E+004
 -1.5025079E+004
 -1.3527739E+004
 -1.2006019E+004
 -1.0589378E+004
 -9.3382445E+003
 -8.2647236E+003
 -7.3542182E+003
 -6.5835737E+003
 -5.9226673E+003
 -5.3327306E+003
 -4.7680414E+003
 -4.1553697E+003
 -3.4513420E+003
 -2.3938340E+003
 -1.3029622E+003
  1.9599274E+003
  2.2164677E+002
  3.3416947E+003
 -1.2520382E+004
 -1.2506190E+004
 -1.2393586E+004
 -1.2203767E+004
 -1.1997467E+004
 -1.1817431E+004
 -1.1711772E+004
 -1.1673702E+004
 -1.1688011E+004
 -1.1733133E+004
 -1.1784834E+004
 -1.1817134E+004
 -1.1803007E+004
 -1.1714421E+004
 -1.1521621E+004
 -1.1191936E+004
 -1.0688456E+004
 -9.9698142E+003
 -8.9858268E+003
 -7.6857313E+003
 -5.9731814E+003
 -3.8725533E+003
 -8.5221850E+002
  2.5233106E+003
  9.8549119E+003
  5.5093738E+003
 -5.4910972E+003
 -1.4559249E+004
 -1.5229625E+004
 -1.5035605E+004
 -1.4340292E+004
 -1.3221061E+004
 -1.1753137E+004
 -1.0223495E+004
 -8.8901028E+003
 -7.7879407E+003
 -6.8902877E+003
 -6.1692368E+003
 -5.5925880E+003
 -5.1247629E+003
 -4.7206722E+003
 -4.3172323E+003
 -3.8354608E+003
 -3.1526219E+003
 -2.2202468E+003
 -7.9907721E+002
  7.8408023E+001
  4.5788927E+002
  6.5074380E+002
 -1.2088805E+004
 -1.2046292E+004
 -1.1943110E+004
 -1.1767481E+004
 -1.1574780E+004
 -1.1394308E+004
 -1.1268112E+004
 -1.1189217E+004
 -1.1146218E+004
 -1.1121205E+004
 -1.1094057E+004
 -1.1042604E+004
 -1.0943173E+004
 -1.0770505E+004
 -1.0497134E+004
 -1.0092518E+004
 -9.5206712E+003
 -8.7405647E+003
 -7.6925729E+003
 -6.3332413E+003
 -4.5039158E+003
 -2.4817180E+003
  5.9267206E+002
 -2.7920765E+002
  2.2895436E+003
 -1.1800780E+004
 -1.2555155E+004
 -1.2094752E+004
 -1.1992889E+004
 -1.1002419E+004
 -9.2536542E+003
 -7.7988703E+003
 -6.6988447E+003
 -5.8372232E+003
 -5.1810577E+003
 -4.6904039E+003
 -4.3382569E+003
 -4.0942515E+003
 -3.9181378E+003
 -3.7514942E+003
 -3.5067669E+003
 -3.0888628E+003
 -2.3772550E+003
 -1.5267841E+003
 -6.1022274E+002
 -3.1950465E+002
  3.7982340E+002
 -1.1688091E+004
 -1.1730295E+004
 -1.1460630E+004
 -1.1293647E+004
 -1.1025665E+004
 -1.0874830E+004
 -1.0752622E+004
 -1.0664364E+004
 -1.0594299E+004
 -1.0531338E+004
 -1.0460502E+004
 -1.0365240E+004
 -1.0227239E+004
 -1.0026770E+004
 -9.7425362E+003
 -9.3510119E+003
 -8.8258353E+003
 -8.1344462E+003
 -7.2418939E+003
 -6.0872478E+003
 -4.6704486E+003
 -2.8165168E+003
 -1.2991241E+003
 -2.5658293E+002
  7.9168739E+002
 -9.3856596E+003
 -1.1534661E+004
 -8.9502597E+003
 -7.3876471E+003
 -5.5409785E+003
 -4.7683229E+003
 -4.0555940E+003
 -3.5632933E+003
 -3.1987746E+003
 -2.9653494E+003
 -2.8481613E+003
 -2.8364408E+003
 -2.9080626E+003
 -3.0218061E+003
 -3.1092822E+003
 -3.0658587E+003
 -2.7924171E+003
 -2.2067097E+003
 -1.3840569E+003
 -5.7351728E+002
 -3.2961917E+001
 -1.1541379E+004
 -1.1186545E+004
 -1.1194394E+004
 -1.0484645E+004
 -1.0397004E+004
 -1.0273065E+004
 -1.0195248E+004
 -1.0117324E+004
 -1.0044520E+004
 -9.9690820E+003
 -9.8836979E+003
 -9.7779670E+003
 -9.6402195E+003
 -9.4579336E+003
 -9.2182594E+003
 -8.9085148E+003
 -8.5156655E+003
 -8.0290965E+003
 -7.4308759E+003
 -6.7317987E+003
 -5.8346483E+003
 -4.9885128E+003
 -2.9930542E+003
 -2.0565956E+003
  7.5373840E+002
  4.2835475E+002
 -3.5009987E+002
 -9.2498789E+002
 -1.4030392E+003
 -1.3128545E+003
 -1.2195532E+003
 -1.1132350E+003
 -1.0587901E+003
 -1.0697811E+003
 -1.1647482E+003
 -1.3564589E+003
 -1.6495838E+003
 -2.0316745E+003
 -2.4619863E+003
 -2.8545069E+003
 -3.0507494E+003
 -2.8363137E+003
 -2.0358210E+003
 -8.6205033E+002
 -6.1339971E+002
 -1.4727173E+004
 -1.1888812E+004
 -9.2114105E+003
 -9.6925188E+003
 -9.6358541E+003
 -9.6645768E+003
 -9.6217207E+003
 -9.5699847E+003
 -9.5059625E+003
 -9.4354999E+003
 -9.3562129E+003
 -9.2643047E+003
 -9.1545838E+003
 -9.0220009E+003
 -8.8627090E+003
 -8.6750003E+003
 -8.4615307E+003
 -8.2279440E+003
 -7.9971740E+003
 -7.7672663E+003
 -7.6707283E+003
 -7.3332531E+003
 -7.8651137E+003
 -2.9853017E+003
 -2.1638343E+003
  1.1178476E+004
  4.3731611E+003
  3.9024645E+003
  2.2588634E+003
  1.8822941E+003
  1.5122816E+003
  1.2934637E+003
  1.0940408E+003
  8.9299797E+002
  6.4897814E+002
  3.2698800E+002
 -1.0756181E+002
 -6.6961425E+002
 -1.3485740E+003
 -2.1008048E+003
 -2.7793754E+003
 -3.0508910E+003
 -2.7083428E+003
 -1.1303275E+003
 -9.0110839E+002
  3.1468343E+003
 -3.3864475E+003
 -8.2832248E+003
 -8.7222618E+003
 -9.0391583E+003
 -9.0771811E+003
 -9.0744594E+003
 -9.0350567E+003
 -8.9840016E+003
 -8.9262489E+003
 -8.8652323E+003
 -8.8015487E+003
 -8.7355750E+003
 -8.6685993E+003
 -8.6042754E+003
 -8.5500160E+003
 -8.5191170E+003
 -8.5318215E+003
 -8.6225132E+003
 -8.8257290E+003
 -9.2395983E+003
 -9.7984571E+003
 -1.1155685E+004
 -1.2546183E+004
 -1.7407600E+004
  4.7303942E+003
 -4.4608703E+003
  1.3932491E+003
  2.8072433E+003
  5.2046244E+003
  4.9310784E+003
  4.3855863E+003
  3.8800116E+003
  3.4556775E+003
  3.1069025E+003
  2.8019015E+003
  2.5025017E+003
  2.1599655E+003
  1.7171539E+003
  1.1198061E+003
  3.8619327E+002
 -4.1668288E+002
 -1.3716369E+003
 -1.8413033E+003
 -1.6782325E+003
 -9.1655155E+001
 -4.6836761E+003
 -1.4090477E+004
 -1.0642807E+004
 -8.3239300E+003
 -8.5777111E+003
 -8.5626775E+003
 -8.5832027E+003
 -8.5564214E+003
 -8.5192283E+003
 -8.4753365E+003
 -8.4324060E+003
 -8.3942061E+003
 -8.3643368E+003
 -8.3467813E+003
 -8.3472334E+003
 -8.3742262E+003
 -8.4404310E+003
 -8.5637752E+003
 -8.7691204E+003
 -9.0864226E+003
 -9.5562386E+003
 -1.0193661E+004
 -1.1055098E+004
 -1.1890407E+004
 -1.1831215E+004
 -1.1928208E+004
 -1.2574526E+004
 -1.1029220E+004
  2.0915702E+003
  2.8442371E+003
  6.9774440E+003
  6.6214717E+003
  6.7831454E+003
  6.2697952E+003
  5.7302881E+003
  5.2393154E+003
  4.8411825E+003
  4.5269002E+003
  4.2714075E+003
  4.0318220E+003
  3.7425491E+003
  3.3175746E+003
  2.6751308E+003
  2.1592747E+003
  2.0951356E+003
  1.2391756E+003
  1.7950902E+003
  3.5759656E+003
  8.8962969E+003
 -8.9295901E+003
 -8.9587334E+003
 -8.8844467E+003
 -8.3117034E+003
 -8.2053013E+003
 -8.1146717E+003
 -8.0599134E+003
 -8.0107838E+003
 -7.9707839E+003
 -7.9410265E+003
 -7.9252925E+003
 -7.9279684E+003
 -7.9549377E+003
 -8.0140841E+003
 -8.1160146E+003
 -8.2746039E+003
 -8.5072796E+003
 -8.8339401E+003
 -9.2751064E+003
 -9.8402073E+003
 -1.0522046E+004
 -1.1222913E+004
 -1.1715574E+004
 -1.2088717E+004
 -1.2641205E+004
 -1.3276981E+004
 -1.3640651E+004
 -1.3635005E+004
  1.8703370E+004
  9.2379467E+003
  1.0067123E+004
  8.4761699E+003
  8.1591746E+003
  7.5563240E+003
  7.0339239E+003
  6.5550771E+003
  6.1883429E+003
  5.9363466E+003
  5.7984731E+003
  5.7567033E+003
  5.7703354E+003
  5.7396213E+003
  5.5141210E+003
  4.7093733E+003
  5.9907130E+003
  1.0409376E+004
  2.5106110E+004
  1.3071722E+004
 -8.3216327E+003
 -8.2884154E+003
 -8.0746480E+003
 -7.9474931E+003
 -7.7432288E+003
 -7.6330459E+003
 -7.5504179E+003
 -7.4940667E+003
 -7.4564953E+003
 -7.4382605E+003
 -7.4416662E+003
 -7.4712326E+003
 -7.5332716E+003
 -7.6360811E+003
 -7.7900353E+003
 -8.0074550E+003
 -8.3017677E+003
 -8.6855746E+003
 -9.1656658E+003
 -9.7363069E+003
 -1.0361604E+004
 -1.0968409E+004
 -1.1514618E+004
 -1.2042322E+004
 -1.2728440E+004
 -1.3601511E+004
 -1.4628899E+004
 -1.4848574E+004
 -1.4058366E+004
  7.6383371E+003
 -3.5645437E+003
  2.7873897E+003
  9.3715250E+003
  9.6287132E+003
  9.5112308E+003
  8.7788539E+003
  8.2583495E+003
  7.7617761E+003
  7.3625912E+003
  7.0708794E+003
  6.9136876E+003
  6.9115693E+003
  7.0814961E+003
  7.4542019E+003
  7.9534520E+003
  8.6381264E+003
  8.1881781E+003
  6.4643388E+003
  8.5021962E+002
 -9.3595459E+003
 -7.5066905E+003
 -7.5041540E+003
 -7.4359918E+003
 -7.3266577E+003
 -7.2078228E+003
 -7.0931830E+003
 -7.0098832E+003
 -6.9527937E+003
 -6.9202955E+003
 -6.9119079E+003
 -6.9298313E+003
 -6.9782610E+003
 -7.0631858E+003
 -7.1921478E+003
 -7.3739383E+003
 -7.6179554E+003
 -7.9329488E+003
 -8.3246435E+003
 -8.7922908E+003
 -9.3234655E+003
 -9.8923797E+003
 -1.0474146E+004
 -1.1074934E+004
 -1.1770424E+004
 -1.2658379E+004
 -1.3802318E+004
 -1.5173820E+004
 -1.6610581E+004
 -1.7099459E+004
 -1.5178922E+004
  2.5160036E+004
  1.4673037E+004
  1.1208334E+004
  9.4802511E+003
  9.2018369E+003
  8.7227385E+003
  8.3079784E+003
  7.9451263E+003
  7.6550572E+003
  7.4580955E+003
  7.3832198E+003
  7.4651622E+003
  7.7603164E+003
  8.3158729E+003
  9.3171625E+003
  1.0546902E+004
  1.3342567E+004
  1.3436769E+004
  3.0256308E+004
  1.1255207E+004
 -6.8789515E+003
 -6.8590335E+003
 -6.7899335E+003
 -6.7008644E+003
 -6.5990110E+003
 -6.5021230E+003
 -6.4285972E+003
 -6.3792671E+003
 -6.3541690E+003
 -6.3539266E+003
 -6.3809947E+003
 -6.4393817E+003
 -6.5344081E+003
 -6.6723347E+003
 -6.8598569E+003
 -7.1033070E+003
 -7.4074075E+003
 -7.7735852E+003
 -8.1980139E+003
 -8.6710667E+003
 -9.1812062E+003
 -9.7273128E+003
 -1.0333679E+004
 -1.1066651E+004
 -1.1993389E+004
 -1.3315134E+004
 -1.4854767E+004
 -1.8310974E+004
 -2.0471234E+004
 -4.2936861E+004
 -7.6678853E+003
  1.2122377E+004
  1.9959815E+004
  9.8961054E+003
  9.4430912E+003
  9.1611994E+003
  8.5635924E+003
  8.1712079E+003
  8.0064264E+003
  7.8188382E+003
  7.6410264E+003
  7.4851972E+003
  7.3749799E+003
  7.3396737E+003
  7.4085214E+003
  7.6523877E+003
  8.0574026E+003
  9.0416170E+003
  9.5745765E+003
  1.3936368E+004
  4.8437598E+003
  7.8422756E+003
 -6.2665876E+003
 -6.2916400E+003
 -6.1512904E+003
 -6.0681312E+003
 -5.9404504E+003
 -5.8673672E+003
 -5.8094659E+003
 -5.7728991E+003
 -5.7559582E+003
 -5.7612008E+003
 -5.7915370E+003
 -5.8509664E+003
 -5.9440736E+003
 -6.0757413E+003
 -6.2506203E+003
 -6.4724158E+003
 -6.7429760E+003
 -7.0613538E+003
 -7.4234057E+003
 -7.8230750E+003
 -8.2566092E+003
 -8.7303035E+003
 -9.2673617E+003
 -9.9144617E+003
 -1.0727912E+004
 -1.1807318E+004
 -1.3189385E+004
 -1.5324485E+004
 -1.6935065E+004
 -1.8644861E+004
 -1.5077266E+004
 -4.3355257E+004
 -1.5092913E+004
 -1.6642104E+004
 -4.0124143E+003
 -1.2188592E+004
 -1.1587480E+003
  1.0924931E+004
  3.4152044E+003
  4.5742534E+003
  5.4545234E+003
  5.8710331E+003
  6.4414052E+003
  6.6910580E+003
  6.8559833E+003
  6.9493824E+003
  6.9737661E+003
  6.9531195E+003
  6.9094843E+003
  6.8626495E+003
  6.8315821E+003
  6.8256339E+003
  6.8696733E+003
  6.8849750E+003
  7.0055390E+003
  6.1010558E+003
  5.3607003E+003
  1.1273599E+004
 -5.8177994E+003
 -5.6324290E+003
 -5.6211678E+003
 -5.2940338E+003
 -5.2520789E+003
 -5.1948410E+003
 -5.1632578E+003
 -5.1388873E+003
 -5.1287030E+003
 -5.1351917E+003
 -5.1625194E+003
 -5.2145504E+003
 -5.2952098E+003
 -5.4080975E+003
 -5.5561183E+003
 -5.7409462E+003
 -5.9624700E+003
 -6.2184399E+003
 -6.5047409E+003
 -6.8168307E+003
 -7.1526437E+003
 -7.5161703E+003
 -7.9200802E+003
 -8.3833714E+003
 -8.9263363E+003
 -9.5482386E+003
 -1.0212393E+004
 -1.0632371E+004
 -1.0205667E+004
 -9.5834657E+003
 -9.4029199E+003
 -6.7686465E+003
 -4.9510424E+003
 -1.8920404E+003
 -7.8665971E+002
  4.4053958E+002
  1.9752506E+003
  3.2898858E+003
  4.2880298E+003
  5.0374621E+003
  5.5492286E+003
  5.8918318E+003
  6.0996122E+003
  6.1950764E+003
  6.1954430E+003
  6.1084683E+003
  5.9281559E+003
  5.6279910E+003
  5.1386628E+003
  4.3361925E+003
  2.9433156E+003
  5.4188082E+002
 -2.7364892E+003
 -1.9106705E+003
 -7.3299903E+003
  1.5217251E+003
 -6.7235807E+003
 -5.5417998E+003
 -4.3267863E+003
 -4.5430272E+003
 -4.5073653E+003
 -4.5182466E+003
 -4.5012729E+003
 -4.4876755E+003
 -4.4785538E+003
 -4.4808336E+003
 -4.4985318E+003
 -4.5355408E+003
 -4.5950323E+003
 -4.6794976E+003
 -4.7904273E+003
 -4.9279816E+003
 -5.0906909E+003
 -5.2753825E+003
 -5.4775500E+003
 -5.6923200E+003
 -5.9158295E+003
 -6.1462796E+003
 -6.3831065E+003
 -6.6228079E+003
 -6.8483318E+003
 -7.0118824E+003
 -6.9990558E+003
 -6.6098661E+003
 -5.9171932E+003
 -5.1910158E+003
 -4.3467551E+003
 -3.9864807E+003
 -3.0963401E+003
 -2.6218607E+003
 -1.8089990E+003
 -9.2435353E+002
  2.3701409E+002
  1.5065144E+003
  2.6543925E+003
  3.5914756E+003
  4.3119083E+003
  4.8311901E+003
  5.1738088E+003
  5.3560478E+003
  5.3853280E+003
  5.2579500E+003
  4.9531003E+003
  4.4224800E+003
  3.5750940E+003
  2.2684958E+003
  3.1761477E+002
 -1.9524190E+003
 -3.2540632E+003
 -1.6741832E+003
 -2.0351710E+003
  1.3855760E+003
 -1.4462048E+003
 -3.5400814E+003
 -3.7154637E+003
 -3.8404892E+003
 -3.8494314E+003
 -3.8444740E+003
 -3.8283127E+003
 -3.8134732E+003
 -3.8046708E+003
 -3.8063796E+003
 -3.8217902E+003
 -3.8533383E+003
 -3.9025099E+003
 -3.9696838E+003
 -4.0539088E+003
 -4.1527510E+003
 -4.2622978E+003
 -4.3774000E+003
 -4.4921131E+003
 -4.6000695E+003
 -4.6941758E+003
 -4.7648040E+003
 -4.7955372E+003
 -4.7563644E+003
 -4.5960923E+003
 -4.2436955E+003
 -3.6868694E+003
 -3.0087447E+003
 -2.4124707E+003
 -2.1109115E+003
 -1.9209042E+003
 -1.9732425E+003
 -1.9044189E+003
 -1.7534464E+003
 -1.2659713E+003
 -4.5611317E+002
  5.4856539E+002
  1.5818646E+003
  2.5187802E+003
  3.2994548E+003
  3.9030280E+003
  4.3245621E+003
  4.5632618E+003
  4.6153818E+003
  4.4708641E+003
  4.1088149E+003
  3.4937820E+003
  2.5660737E+003
  1.2716340E+003
 -4.2491261E+002
 -2.1651262E+003
 -3.0050954E+003
 -1.4923671E+003
 -1.6829975E+003
 -5.7389315E+003
 -4.1921458E+003
 -3.1803246E+003
 -3.2518654E+003
 -3.2300150E+003
 -3.2226294E+003
 -3.1977942E+003
 -3.1693559E+003
 -3.1398791E+003
 -3.1136903E+003
 -3.0937174E+003
 -3.0823515E+003
 -3.0811388E+003
 -3.0906986E+003
 -3.1105466E+003
 -3.1389523E+003
 -3.1728477E+003
 -3.2078350E+003
 -3.2382925E+003
 -3.2575014E+003
 -3.2575820E+003
 -3.2289237E+003
 -3.1588129E+003
 -3.0293666E+003
 -2.8161078E+003
 -2.4909306E+003
 -2.0430541E+003
 -1.5040156E+003
 -9.7922132E+002
 -6.0702573E+002
 -4.6788739E+002
 -6.0881300E+002
 -8.6476639E+002
 -1.1412625E+003
 -1.2259674E+003
 -1.0391818E+003
 -5.5087158E+002
  1.6751336E+002
  9.9669150E+002
  1.8247118E+003
  2.5708001E+003
  3.1853231E+003
  3.6380768E+003
  3.9089856E+003
  3.9832660E+003
  3.8493438E+003
  3.4994357E+003
  2.9296227E+003
  2.1552297E+003
  1.2056585E+003
  2.4696116E+002
 -7.6861780E+002
 -2.2303387E+003
 -1.3772021E+003
 -5.1782766E+003
 -3.0500089E+003
 -3.0918745E+003
 -3.0105500E+003
 -2.7483904E+003
 -2.6747828E+003
 -2.6128063E+003
 -2.5629580E+003
 -2.5127023E+003
 -2.4628186E+003
 -2.4141024E+003
 -2.3682220E+003
 -2.3264852E+003
 -2.2896244E+003
 -2.2575274E+003
 -2.2290866E+003
 -2.2020901E+003
 -2.1731700E+003
 -2.1378114E+003
 -2.0904053E+003
 -2.0242898E+003
 -1.9316836E+003
 -1.8034392E+003
 -1.6287193E+003
 -1.3951912E+003
 -1.0911763E+003
 -7.1301803E+002
 -2.7688232E+002
  1.6606899E+002
  5.3253854E+002
  7.2954998E+002
  6.9457123E+002
  4.5246779E+002
  7.0424091E+001
 -3.0507388E+002
 -5.5351122E+002
 -5.6932761E+002
 -3.2351955E+002
  1.4900629E+002
  7.7136417E+002
  1.4549682E+003
  2.1205766E+003
  2.7047893E+003
  3.1589714E+003
  3.4465160E+003
  3.5422652E+003
  3.4349587E+003
  3.1305957E+003
  2.6646022E+003
  2.0983123E+003
  1.6009501E+003
  1.2466385E+003
  1.8689438E+003
  2.5885530E+003
  8.9531182E+003
  2.6825124E+003
 -2.4457434E+003
 -2.4230823E+003
 -2.2859660E+003
 -2.2045864E+003
 -2.0881058E+003
 -2.0073924E+003
 -1.9317325E+003
 -1.8589860E+003
 -1.7855496E+003
 -1.7114146E+003
 -1.6370600E+003
 -1.5630490E+003
 -1.4894484E+003
 -1.4156074E+003
 -1.3400232E+003
 -1.2602806E+003
 -1.1730424E+003
 -1.0740879E+003
 -9.5839243E+002
 -8.2023369E+002
 -6.5332301E+002
 -4.5103350E+002
 -2.0697551E+002
  8.3535270E+001
  4.2016205E+002
  7.9207237E+002
  1.1708988E+003
  1.5076680E+003
  1.7379573E+003
  1.8014185E+003
  1.6685283E+003
  1.3539086E+003
  9.3098200E+002
  4.9756625E+002
  1.6422267E+002
  1.0867278E+001
  7.6607157E+001
  3.5283723E+002
  7.9480258E+002
  1.3384248E+003
  1.9141031E+003
  2.4547001E+003
  2.8993403E+003
  3.1969736E+003
  3.3111783E+003
  3.2277006E+003
  2.9596870E+003
  2.5655684E+003
  2.1235276E+003
  1.8630178E+003
  1.6725312E+003
  2.7612252E+003
  8.6780271E+002
  1.8383319E+003
 -1.7277944E+003
 -1.7303096E+003
 -1.6465954E+003
 -1.5728824E+003
 -1.4868484E+003
 -1.3946295E+003
 -1.3026506E+003
 -1.2085925E+003
 -1.1112559E+003
 -1.0105292E+003
 -9.0676782E+002
 -8.0014504E+002
 -6.9030311E+002
 -5.7624232E+002
 -4.5627138E+002
 -3.2801438E+002
 -1.8845517E+002
 -3.4027769E+001
  1.3923752E+002
  3.3549229E+002
  5.5872483E+002
  8.1218022E+002
  1.0973345E+003
  1.4121052E+003
  1.7481083E+003
  2.0871950E+003
  2.3988660E+003
  2.6408739E+003
  2.7662784E+003
  2.7364391E+003
  2.5363074E+003
  2.1869334E+003
  1.7423565E+003
  1.2829835E+003
  8.9229789E+002
  6.4120401E+002
  5.7181120E+002
  6.9373698E+002
  9.8733813E+002
  1.4109095E+003
  1.9076555E+003
  2.4111270E+003
  2.8509603E+003
  3.1608215E+003
  3.2898478E+003
  3.2137499E+003
  2.9457340E+003
  2.5369413E+003
  2.0940920E+003
  1.7014080E+003
  1.5887395E+003
  1.1397498E+003
  7.8808185E+002
  1.5133783E+002
 -1.1161574E+003
 -1.1129786E+003
 -1.0268195E+003
 -9.6424654E+002
 -8.8041431E+002
 -7.8310215E+002
 -6.7800217E+002
 -5.6440968E+002
 -4.4333849E+002
 -3.1597315E+002
 -1.8317890E+002
 -4.4966664E+001
  9.9278064E+001
  2.5077067E+002
  4.1123104E+002
  5.8280871E+002
  7.6798092E+002
  9.6941116E+002
  1.1897379E+003
  1.4312584E+003
  1.6954505E+003
  1.9822463E+003
  2.2889443E+003
  2.6086870E+003
  2.9286059E+003
  3.2281760E+003
  3.4788123E+003
  3.6462182E+003
  3.6963030E+003
  3.6043138E+003
  3.3644590E+003
  2.9956664E+003
  2.5422887E+003
  2.0657017E+003
  1.6337020E+003
  1.3069410E+003
  1.1300187E+003
  1.1263693E+003
  1.2972981E+003
  1.6222992E+003
  2.0589603E+003
  2.5434707E+003
  2.9950441E+003
  3.3284704E+003
  3.4712753E+003
  3.3840961E+003
  3.0706989E+003
  2.5788617E+003
  1.9827679E+003
  1.3961103E+003
  8.5313765E+002
  4.6047682E+002
  1.4827358E+002
  5.9282576E+000
 -5.2461574E+002
 -5.8139839E+002
 -4.3797159E+002
 -3.9041677E+002
 -2.8089765E+002
 -1.8283999E+002
 -6.3964549E+001
  6.9556514E+001
  2.1498242E+002
  3.6825136E+002
  5.2864888E+002
  6.9623310E+002
  8.7194049E+002
  1.0571316E+003
  1.2534607E+003
  1.4627229E+003
  1.6867230E+003
  1.9271016E+003
  2.1850895E+003
  2.4611497E+003
  2.7544679E+003
  3.0622453E+003
  3.3787768E+003
  3.6943643E+003
  3.9942881E+003
  4.2582899E+003
  4.4612693E+003
  4.5758545E+003
  4.5771286E+003
  4.4487895E+003
  4.1891007E+003
  3.8146475E+003
  3.3598071E+003
  2.8726699E+003
  2.4075299E+003
  2.0175034E+003
  1.7483073E+003
  1.6345801E+003
  1.6969575E+003
  1.9374172E+003
  2.3313697E+003
  2.8196282E+003
  3.3089721E+003
  3.6850618E+003
  3.8465834E+003
  3.7319410E+003
  3.3398504E+003
  2.7202533E+003
  1.9427349E+003
  1.0717424E+003
  2.5352840E+002
 -2.6005391E+002
 -2.1886969E+002
 -4.1508790E+002
 -6.2788160E+001
 -5.1161688E+001
  1.0442761E+002
  2.1286040E+002
  2.9554499E+002
  3.9575294E+002
  5.3204341E+002
  6.9182789E+002
  8.6125699E+002
  1.0391097E+003
  1.2244060E+003
  1.4180685E+003
  1.6213722E+003
  1.8358668E+003
  2.0630704E+003
  2.3043460E+003
  2.5607598E+003
  2.8329156E+003
  3.1207127E+003
  3.4230022E+003
  3.7371209E+003
  4.0583011E+003
  4.3789890E+003
  4.6881777E+003
  4.9709661E+003
  5.2086761E+003
  5.3799192E+003
  5.4629079E+003
  5.4389597E+003
  5.2966563E+003
  5.0356266E+003
  4.6687498E+003
  4.2221067E+003
  3.7323904E+003
  3.2429170E+003
  2.7993143E+003
  2.4465969E+003
  2.2277337E+003
  2.1819328E+003
  2.3375042E+003
  2.6956673E+003
  3.2086904E+003
  3.7649785E+003
  4.2145006E+003
  4.4014293E+003
  4.2415253E+003
  3.7399407E+003
  2.9773871E+003
  2.0699349E+003
  1.0412878E+003
 -6.6772106E+001
 -9.3030030E+002
 -4.6145225E+002
 -7.2759804E+002
  8.1283088E+002
  7.3162931E+002
  8.1625249E+002
  8.0928256E+002
  9.3383705E+002
  1.1179445E+003
  1.3022644E+003
  1.4955679E+003
  1.6941915E+003
  1.9004487E+003
  2.1157403E+003
  2.3420488E+003
  2.5810397E+003
  2.8340492E+003
  3.1019328E+003
  3.3849925E+003
  3.6828468E+003
  3.9942312E+003
  4.3167047E+003
  4.6462691E+003
  4.9769262E+003
  5.3002314E+003
  5.6049518E+003
  5.8769949E+003
  6.0998179E+003
  6.2555155E+003
  6.3266751E+003
  6.2988711E+003
  6.1633935E+003
  5.9196151E+003
  5.5764059E+003
  5.1522089E+003
  4.6738746E+003
  4.1746054E+003
  3.6918251E+003
  3.2661919E+003
  2.9433929E+003
  2.7771739E+003
  2.8270277E+003
  3.1351129E+003
  3.6793270E+003
  4.3413642E+003
  4.8861872E+003
  5.1081527E+003
  4.8677471E+003
  4.2020080E+003
  3.2758906E+003
  2.2869314E+003
  1.4342390E+003
  5.5546586E+002
 -1.0286082E+003
 -8.3219262E+002
 -4.4093896E+003
  2.1504904E+003
  1.3629851E+003
  1.1528565E+003
  1.1759393E+003
  1.5014179E+003
  1.6948528E+003
  1.9095986E+003
  2.1172605E+003
  2.3318371E+003
  2.5530607E+003
  2.7846793E+003
  3.0288534E+003
  3.2874155E+003
  3.5613538E+003
  3.8509294E+003
  4.1556517E+003
  4.4742360E+003
  4.8044592E+003
  5.1429319E+003
  5.4848097E+003
  5.8234899E+003
  6.1503568E+003
  6.4546675E+003
  6.7236915E+003
  6.9432188E+003
  7.0985162E+003
  7.1757175E+003
  7.1635010E+003
  7.0547766E+003
  6.8480577E+003
  6.5482775E+003
  6.1670251E+003
  5.7223307E+003
  5.2380610E+003
  4.7429321E+003
  4.2691673E+003
  3.8544601E+003
  3.5539552E+003
  3.4532028E+003
  3.6567443E+003
  4.2145119E+003
  4.9759815E+003
  5.6894093E+003
  5.9142480E+003
  5.5188206E+003
  4.5831124E+003
  3.3994579E+003
  2.3466955E+003
  1.6350000E+003
  2.0564394E+003
  2.6347518E+003
  8.4389596E+003
  2.8173245E+003
 -4.4504259E+002
  1.8704780E+001
  9.8098336E+002
  1.8997264E+003
  2.0593943E+003
  2.3025375E+003
  2.5088804E+003
  2.7280737E+003
  2.9483487E+003
  3.1781444E+003
  3.4198931E+003
  3.6767228E+003
  3.9501309E+003
  4.2405997E+003
  4.5476089E+003
  4.8698368E+003
  5.2051827E+003
  5.5506802E+003
  5.9023186E+003
  6.2548293E+003
  6.6014921E+003
  6.9340226E+003
  7.2426100E+003
  7.5161713E+003
  7.7428724E+003
  7.9109215E+003
  8.0095670E+003
  8.0301480E+003
  7.9669958E+003
  7.8180077E+003
  7.5848866E+003
  7.2733268E+003
  6.8935674E+003
  6.4614753E+003
  5.9985306E+003
  5.5294826E+003
  5.0742604E+003
  4.6550210E+003
  4.3517990E+003
  4.3430270E+003
  4.7947298E+003
  5.7318499E+003
  6.4664822E+003
  6.7049649E+003
  5.9892308E+003
  4.6350540E+003
  3.0936245E+003
  1.8697394E+003
  9.9217320E+002
  1.7651332E+003
  2.5843434E+002
  1.4085148E+003
  3.6931963E+003
  2.8328576E+003
  2.6076550E+003
  2.7108533E+003
  2.8940344E+003
  3.1094286E+003
  3.3201584E+003
  3.5396250E+003
  3.7696775E+003
  4.0156937E+003
  4.2802668E+003
  4.5645092E+003
  4.8678821E+003
  5.1888596E+003
  5.5252247E+003
  5.8741696E+003
  6.2322084E+003
  6.5950108E+003
  6.9572287E+003
  7.3123776E+003
  7.6528238E+003
  7.9699232E+003
  8.2543466E+003
  8.4965980E+003
  8.6876873E+003
  8.8198586E+003
  8.8872119E+003
  8.8860286E+003
  8.8146798E+003
  8.6731548E+003
  8.4627139E+003
  8.1868952E+003
  7.8546113E+003
  7.4850114E+003
  7.1037126E+003
  6.7313217E+003
  6.3303638E+003
  5.8404179E+003
  5.4339849E+003
  5.6236656E+003
  6.1863768E+003
  7.4289630E+003
  7.2030846E+003
  5.9247453E+003
  3.9015727E+003
  2.1189785E+003
  8.1198927E+002
 -4.4354464E+001
 -8.6597637E+002
 -2.3913317E+002
 -4.4590163E+002
  2.7758995E+003
  3.0717322E+003
  3.1253321E+003
  3.2460576E+003
  3.5047672E+003
  3.6872112E+003
  3.8900602E+003
  4.0965286E+003
  4.3203415E+003
  4.5649808E+003
  4.8337559E+003
  5.1260745E+003
  5.4398304E+003
  5.7721607E+003
  6.1199601E+003
  6.4798844E+003
  6.8481862E+003
  7.2205005E+003
  7.5916749E+003
  7.9556949E+003
  8.3057399E+003
  8.6343970E+003
  8.9340446E+003
  9.1973925E+003
  9.4181185E+003
  9.5914857E+003
  9.7147588E+003
  9.7872110E+003
  9.8095138E+003
  9.7825807E+003
  9.7059922E+003
  9.5775947E+003
  9.3991058E+003
  9.1872009E+003
  8.9916525E+003
  8.8589117E+003
  8.8161653E+003
  8.5612013E+003
  7.7746177E+003
  6.9752283E+003
  7.8385423E+003
  6.8660128E+003
  6.5072859E+003
  4.1380077E+003
  1.6932290E+003
  1.5060019E+002
 -3.0278993E+002
 -5.2356529E+002
 -1.8150598E+003
 -1.3026495E+003
 -5.4491937E+003
  3.3228028E+003
  3.0906236E+003
  3.2708900E+003
  3.9927003E+003
  4.0543830E+003
  4.2542096E+003
  4.4205397E+003
  4.6104623E+003
  4.8190675E+003
  5.0595956E+003
  5.3313386E+003
  5.6310274E+003
  5.9539327E+003
  6.2957595E+003
  6.6526984E+003
  7.0211890E+003
  7.3975454E+003
  7.7776491E+003
  8.1567573E+003
  8.5294543E+003
  8.8897588E+003
  9.2313972E+003
  9.5482483E+003
  9.8349409E+003
  1.0087551E+004
  1.0304280E+004
  1.0485930E+004
  1.0635904E+004
  1.0759481E+004
  1.0861983E+004
  1.0946517E+004
  1.1009906E+004
  1.1040968E+004
  1.1048355E+004
  1.1087642E+004
  1.1358511E+004
  1.1916535E+004
  1.3116352E+004
  1.3057861E+004
  1.2998553E+004
  5.7863403E+003
  8.4825367E+003
  1.2309319E+003
 -7.8878558E+002
 -2.8406880E+003
 -2.3620350E+003
 -1.6532232E+003
  3.4897476E+002
  2.2726146E+003
  1.0811159E+004
  4.1054910E+003
 -1.5105988E+003
  4.0397840E+003
  5.0670571E+003
  4.4353092E+003
  4.6524034E+003
  4.7568289E+003
  4.9140113E+003
  5.0605594E+003
  5.2526647E+003
  5.4903823E+003
  5.7684560E+003
  6.0771898E+003
  6.4091590E+003
  6.7589727E+003
  7.1227225E+003
  7.4971554E+003
  7.8790500E+003
  8.2648069E+003
  8.6502452E+003
  9.0305807E+003
  9.4005757E+003
  9.7548610E+003
  1.0088434E+004
  1.0397337E+004
  1.0679481E+004
  1.0935549E+004
  1.1169779E+004
  1.1390368E+004
  1.1609017E+004
  1.1839622E+004
  1.2093998E+004
  1.2381490E+004
  1.2689247E+004
  1.2974692E+004
  1.3267353E+004
  1.3833178E+004
  1.4892546E+004
  1.7805569E+004
  1.9789953E+004
  3.7222467E+004
  2.7061886E+004
 -1.5010038E+004
 -2.7187030E+004
 -9.9150570E+003
 -7.0829185E+003
 -3.8624695E+003
 -2.7767228E+003
 -4.5561790E+002
 -7.5453420E+002
  1.6346452E+003
  4.8406559E+003
  4.7815489E+003
  4.9340491E+003
  5.0819831E+003
  5.2830323E+003
  5.3205254E+003
  5.4221726E+003
  5.6029943E+003
  5.8514690E+003
  6.1441244E+003
  6.4655406E+003
  6.8066548E+003
  7.1624527E+003
  7.5300030E+003
  7.9070737E+003
  8.2913406E+003
  8.6799530E+003
  9.0693667E+003
  9.4553700E+003
  9.8332737E+003
  1.0198260E+004
  1.0545907E+004
  1.0872919E+004
  1.1178091E+004
  1.1463502E+004
  1.1735840E+004
  1.2007499E+004
  1.2297126E+004
  1.2628563E+004
  1.3030289E+004
  1.3524028E+004
  1.4151648E+004
  1.4879932E+004
  1.5442410E+004
  1.6271365E+004
  1.8021215E+004
  2.0281919E+004
  2.2759526E+004
  1.7160443E+004
 -2.2962514E+003
 -2.0711054E+003
 -6.0626084E+003
 -3.1541601E+003
 -1.5462443E+003
 -2.3019860E+003
 -1.2881882E+003
 -6.8709450E+003
  4.8837467E+003
  4.9505271E+003
  5.0586396E+003
  5.9456751E+003
  5.6783507E+003
  5.5784731E+003
  5.6485246E+003
  5.8622857E+003
  6.1461064E+003
  6.4646326E+003
  6.8015580E+003
  7.1500948E+003
  7.5081354E+003
  7.8750465E+003
  8.2503389E+003
  8.6329206E+003
  9.0208049E+003
  9.4110545E+003
  9.7998860E+003
  1.0182896E+004
  1.0555404E+004
  1.0912944E+004
  1.1251959E+004
  1.1570804E+004
  1.1871173E+004
  1.2159990E+004
  1.2451612E+004
  1.2769314E+004
  1.3146032E+004
  1.3621422E+004
  1.4250411E+004
  1.5050415E+004
  1.6279576E+004
  1.7918253E+004
  1.8167024E+004
  1.9639817E+004
  2.2516855E+004
  2.5480185E+004
 -2.0128311E+003
 -1.0973573E+003
 -1.9601029E+003
 -1.4171862E+003
  1.4178426E+003
  3.9261354E+003
  1.5127506E+004
  6.5266467E+003
 -2.2280828E+003
  6.4786978E+003
  7.6352060E+003
  6.5415196E+003
  5.6777742E+003
  5.5434993E+003
  5.7329506E+003
  6.0516553E+003
  6.3951636E+003
  6.7459127E+003
  7.0950925E+003
  7.4450759E+003
  7.7985835E+003
  8.1584184E+003
  8.5261748E+003
  8.9020658E+003
  9.2848846E+003
  9.6721401E+003
  1.0060260E+004
  1.0444844E+004
  1.0820956E+004
  1.1183509E+004
  1.1527778E+004
  1.1850226E+004
  1.2149857E+004
  1.2430520E+004
  1.2704062E+004
  1.2994328E+004
  1.3336530E+004
  1.3778663E+004
  1.4360287E+004
  1.5201541E+004
  1.5963339E+004
  1.8604267E+004
  2.3179293E+004
  3.6061024E+004
  2.2457764E+004
 -2.9172540E+003
 -2.5709843E+001
  3.0821564E+002
  4.0331256E+002
  2.0312769E+003
  1.1904430E+002
  2.6078668E+003
  1.3176725E+004
  8.1069024E+003
  5.2313557E+003
  4.8996893E+003
  5.2511839E+003
  5.7889692E+003
  6.2313587E+003
  6.6414358E+003
  7.0092483E+003
  7.3579191E+003
  7.6969546E+003
  8.0356801E+003
  8.3799597E+003
  8.7332484E+003
  9.0967057E+003
  9.4695778E+003
  9.8495205E+003
  1.0232907E+004
  1.0615084E+004
  1.0990591E+004
  1.1353347E+004
  1.1696863E+004
  1.2014605E+004
  1.2300726E+004
  1.2552063E+004
  1.2771733E+004
  1.2977167E+004
  1.3198525E+004
  1.3496682E+004
  1.3828079E+004
  1.4462953E+004
  1.4559028E+004
  1.4448662E+004
  4.6208088E+003
 -3.1167297E+003
 -7.8897980E+002
  1.4838742E+003
  1.5297662E+003
  2.4341219E+003
  2.6746511E+003
  2.8059381E+003
  3.6719831E+002
 -1.1073090E+002
 -6.2319914E+003
 -4.7081160E+003
 -1.2645749E+003
  2.6763386E+003
  3.7635031E+003
  5.3425466E+003
  5.9486830E+003
  6.5193126E+003
  6.9184353E+003
  7.2749976E+003
  7.5970587E+003
  7.9079436E+003
  8.2188879E+003
  8.5379621E+003
  8.8693294E+003
  9.2143860E+003
  9.5722634E+003
  9.9403589E+003
  1.0314709E+004
  1.0690231E+004
  1.1060840E+004
  1.1419434E+004
  1.1757751E+004
  1.2066050E+004
  1.2332868E+004
  1.2544877E+004
  1.2690336E+004
  1.2765483E+004
  1.2800457E+004
  1.2823395E+004
  1.2972275E+004
  1.2628352E+004
  1.3702802E+004
  1.2533054E+004
  2.3548920E+004
  1.0014735E+004
 -2.2654249E+001
  1.5429202E+003
  3.0554350E+003
  3.8647665E+003
  5.3388882E+003
  6.1265898E+003
  1.5487678E+004
  6.8132405E+003
  3.0719183E+002
  1.9199515E+003
  5.4303165E+003
  5.7110663E+003
  6.5529072E+003
  6.8978033E+003
  7.2530801E+003
  7.5414812E+003
  7.8106533E+003
  8.0738170E+003
  8.3440758E+003
  8.6286507E+003
  8.9312455E+003
  9.2524576E+003
  9.5906166E+003
  9.9424068E+003
  1.0303279E+004
  1.0667637E+004
  1.1028852E+004
  1.1379097E+004
  1.1708953E+004
  1.2006628E+004
  1.2256423E+004
  1.2436405E+004
  1.2516012E+004
  1.2456395E+004
  1.2255979E+004
  1.1941235E+004
  1.1777264E+004
  1.1368250E+004
  1.0021809E+004
  3.6628610E+003
 -3.9186620E+003
  1.4488092E+003
  2.0294804E+003
  3.1444533E+003
  3.5758003E+003
  5.1109234E+003
  1.5497277E+003
  2.9115638E+003
  1.2284674E+004
  8.5035896E+003
  6.3152495E+003
  7.2716439E+003
  7.1154775E+003
  7.3863890E+003
  7.5969210E+003
  7.7906685E+003
  7.9829410E+003
  8.1838452E+003
  8.4032642E+003
  8.6464584E+003
  8.9153325E+003
  9.2086316E+003
  9.5231675E+003
  9.8545162E+003
  1.0197386E+004
  1.0545681E+004
  1.0892400E+004
  1.1229415E+004
  1.1547105E+004
  1.1833554E+004
  1.2072920E+004
  1.2241308E+004
  1.2298860E+004
  1.2178035E+004
  1.1753771E+004
  1.1116243E+004
  1.0175845E+004
  1.0613865E+004
  9.8812879E+003
  1.8861006E+004
  8.6802674E+003
  6.8048287E+002
 -3.5042145E+002
  9.3324031E+002
  2.0358998E+003
  2.8701757E+003
  3.0718986E+003
  1.8848740E+003
  1.2436903E+003
  1.2735651E+002
 -3.6809548E+003
  8.1833641E+003
  9.0724056E+003
  7.6837143E+003
  7.6430481E+003
  7.8525460E+003
  7.8857367E+003
  7.9867259E+003
  8.0900025E+003
  8.2226136E+003
  8.3859292E+003
  8.5851859E+003
  8.8185343E+003
  9.0819684E+003
  9.3701459E+003
  9.6773533E+003
  9.9975805E+003
  1.0324351E+004
  1.0650442E+004
  1.0967683E+004
  1.1266771E+004
  1.1537346E+004
  1.1766814E+004
  1.1941037E+004
  1.2028243E+004
  1.1987284E+004
  1.1616503E+004
  1.0652302E+004
  9.1131912E+003
  8.4039948E+003
  3.6396457E+003
 -2.5147370E+003
 -1.4818049E+002
  1.3151572E+003
  2.1777519E+003
  3.1524884E+003
  2.9305407E+003
  1.2863548E+003
  2.0130855E+002
 -3.1833576E+003
  7.1925931E+003
  7.9687335E+003
  6.9280465E+003
  8.5303855E+003
  8.0216798E+003
  8.1123124E+003
  8.0788148E+003
  8.1130128E+003
  8.1712311E+003
  8.2818238E+003
  8.4399339E+003
  8.6402178E+003
  8.8742703E+003
  9.1345459E+003
  9.4142260E+003
  9.7069297E+003
  1.0006060E+004
  1.0304271E+004
  1.0593147E+004
  1.0863413E+004
  1.1105278E+004
  1.1311218E+004
  1.1473797E+004
  1.1607574E+004
  1.1685655E+004
  1.1824949E+004
  1.1437742E+004
  9.7226472E+003
  7.0046992E+003
  8.7273227E+003
  1.0403703E+004
  1.0856567E+003
  1.4291999E+003
  3.6022303E+003
  3.3605133E+003
  3.9092864E+003
  3.7566554E+003
  8.1427550E+003
  3.5619087E+003
 -2.0166740E+003
  8.6548752E+003
  9.4596112E+003
  8.2120491E+003
  8.2390280E+003
  8.1374161E+003
  8.0893809E+003
  8.0174866E+003
  8.0154289E+003
  8.0825242E+003
  8.2106101E+003
  8.3844661E+003
  8.5917621E+003
  8.8232128E+003
  9.0718375E+003
  9.3316430E+003
  9.5964150E+003
  9.8587629E+003
  1.0109611E+004
  1.0338073E+004
  1.0532960E+004
  1.0682872E+004
  1.0789447E+004
  1.0846613E+004
  1.0991688E+004
  1.1129343E+004
  1.2634672E+004
  1.3911226E+004
  2.4164011E+004
  1.2150514E+004
  7.4362293E+003
  3.6483922E+003
  3.9318685E+003
  3.4120820E+003
  3.5886297E+003
  1.4017094E+003
  1.1620825E+003
  7.6624241E+003
  8.2758986E+003
  7.8640710E+003
  8.1679761E+003
  8.1878599E+003
  7.9447075E+003
  7.7838174E+003
  7.7383671E+003
  7.7893594E+003
  7.9056206E+003
  8.0629510E+003
  8.2465977E+003
  8.4476589E+003
  8.6606953E+003
  8.8813220E+003
  9.1044906E+003
  9.3230754E+003
  9.5269707E+003
  9.7022107E+003
  9.8325401E+003
  9.8956445E+003
  9.8833505E+003
  9.7366320E+003
  9.5928434E+003
  8.9519619E+003
  9.8404167E+003
  3.5253779E+003
  3.2477022E+003
  3.1763476E+003
 -2.8864188E+003
  3.1084296E+002
  1.4745221E+003
  3.1640901E+003
  3.5038596E+003
  2.2244514E+003
  1.1924794E+003
 -1.4935575E+003
  7.4811769E+003
  8.4648230E+003
  7.4191878E+003
  8.8704666E+003
  8.0146287E+003
  7.5868711E+003
  7.3658261E+003
  7.3431560E+003
  7.4206431E+003
  7.5472117E+003
  7.6970664E+003
  7.8576386E+003
  8.0241819E+003
  8.1949478E+003
  8.3686379E+003
  8.5423554E+003
  8.7099964E+003
  8.8606036E+003
  8.9772666E+003
  9.0350387E+003
  9.0042550E+003
  8.8351344E+003
  8.4997014E+003
  7.7748798E+003
  6.7378552E+003
  3.9624095E+003
  2.5203019E+003
 -4.4187517E+002
  6.0368942E+001
  1.3087444E+003
  2.0746480E+003
  3.3912973E+003
  3.5859220E+003
  3.0894477E+003
  4.3049175E+003
  2.1117946E+003
 -2.5858167E+003
  1.0501270E+004
  1.0313979E+004
  9.0078466E+003
  7.2469002E+003
  6.8772116E+003
  6.7635977E+003
  6.8795261E+003
  7.0209951E+003
  7.1749270E+003
  7.3177017E+003
  7.4496717E+003
  7.5729140E+003
  7.6915924E+003
  7.8085033E+003
  7.9239464E+003
  8.0339417E+003
  8.1282639E+003
  8.1878086E+003
  8.1829644E+003
  8.0695708E+003
  7.7973901E+003
  7.2819720E+003
  6.4889232E+003
  5.0422749E+003
  2.3895032E+003
  6.4698889E+002
 -3.3057692E+003
  2.7069652E+003
  1.6259383E+003
  5.1421506E+003
  3.8277921E+003
  3.6240315E+003
  1.6776847E+003
  4.2686702E+002
  1.4978032E+004
  1.1153281E+004
  5.8530561E+003
  5.8950853E+003
  5.7545376E+003
  6.1893782E+003
  6.4354620E+003
  6.6718099E+003
  6.8385803E+003
  6.9620567E+003
  7.0499657E+003
  7.1159559E+003
  7.1692468E+003
  7.2171884E+003
  7.2638175E+003
  7.3087718E+003
  7.3448122E+003
  7.3547775E+003
  7.3060233E+003
  7.1532305E+003
  6.8222368E+003
  6.2902143E+003
  5.4257962E+003
  4.9337792E+003
  4.0587263E+003
  7.8406925E+003
  3.0610956E+003
  1.4728883E+004
  6.2356859E+003
  5.6050426E+003
  4.1020220E+003
  3.0878248E+003
  1.7163335E+003
  6.2153502E+002
 -4.0313881E+003
  6.7927720E+002
  2.7822535E+003
  3.6858190E+003
  5.3145539E+003
  5.7598693E+003
  6.2026286E+003
  6.4422817E+003
  6.5927015E+003
  6.6618699E+003
  6.6843227E+003
  6.6747370E+003
  6.6472110E+003
  6.6120082E+003
  6.5769219E+003
  6.5463870E+003
  6.5193542E+003
  6.4853260E+003
  6.4169621E+003
  6.2672274E+003
  5.9550471E+003
  5.4435853E+003
  4.4885832E+003
  3.9340979E+003
  1.5262359E+003
  1.0529672E+003
  6.3928223E+003
 -5.8461679E+003
  7.3422591E+002
  1.7186318E+003
  4.3024047E+003
  3.3121151E+003
  1.8261922E+003
 -7.3558898E+002
  5.4244078E+001
 -3.2789028E+003
 -1.7813779E+003
  5.9201616E+002
  5.4021605E+003
  5.2222173E+003
  5.9275927E+003
  6.2056917E+003
  6.4094486E+003
  6.4539790E+003
  6.4397477E+003
  6.3710770E+003
  6.2687386E+003
  6.1452954E+003
  6.0124129E+003
  5.8802762E+003
  5.7584586E+003
  5.6549230E+003
  5.5717516E+003
  5.4973511E+003
  5.3912572E+003
  5.1779286E+003
  4.7299242E+003
  4.0573809E+003
  2.1832349E+003
  1.0334074E+003
 -1.9355046E+003
  2.9272741E+003
  1.8868519E+003
  5.6307784E+003
  4.0153339E+003
  2.9048074E+003
  1.7105011E+003
 -9.0296885E+002
  1.6030569E+004
  1.0022313E+004
  6.5413979E+003
  6.0918972E+003
  6.3346369E+003
  6.5683688E+003
  6.4898891E+003
  6.4267661E+003
  6.2956154E+003
  6.1221982E+003
  5.9150062E+003
  5.6853325E+003
  5.4426440E+003
  5.1972508E+003
  4.9621734E+003
  4.7549014E+003
  4.5956900E+003
  4.4998302E+003
  4.4528340E+003
  4.4083263E+003
  4.1363530E+003
  3.7990293E+003
  3.1671763E+003
  5.1183254E+003
  2.3066502E+003
  2.1788048E+004
  8.7890356E+003
  8.0459812E+003
  4.9233577E+003
  3.3769846E+003
  1.7237910E+003
 -6.0313838E+002
  6.9870672E+003
  7.7080625E+003
  6.9297062E+003
  6.5584799E+003
  7.5159198E+003
  6.7592552E+003
  6.6749541E+003
  6.4634247E+003
  6.2243953E+003
  5.9433480E+003
  5.6310539E+003
  5.2932289E+003
  4.9357285E+003
  4.5640289E+003
  4.1901067E+003
  3.8377861E+003
  3.5441173E+003
  3.3636671E+003
  3.3278249E+003
  3.4524721E+003
  3.5166252E+003
  3.2415115E+003
  1.2889726E+003
 -2.0916926E+002
  9.1072990E+003
 -4.2832489E+003
  1.5340755E+003
  7.4510913E+003
  6.2818452E+003
  4.6033253E+003
  3.3158508E+003
  1.8682804E+003
  2.6125851E+003
  8.6451012E+002
  3.8947205E+003
  9.5084484E+003
  8.3827844E+003
  7.2573124E+003
  6.9218298E+003
  6.8738587E+003
  6.5346534E+003
  6.2192098E+003
  5.8424380E+003
  5.4353300E+003
  5.0018080E+003
  4.5371425E+003
  4.0361951E+003
  3.5027341E+003
  2.9565846E+003
  2.4475330E+003
  2.0440422E+003
  1.9026231E+003
  1.9903326E+003
  2.6110637E+003
  2.4493918E+003
  3.9811229E+003
  2.2096438E+003
  2.7385700E+004
  1.4701768E+004
  9.0277628E+003
  5.3832078E+003
  2.6626554E+003
 -2.8500131E+001
 -6.2386965E+003
 -2.9191090E+003
  5.4175653E+003
  9.0559795E+003
  5.6768272E+003
  7.7670285E+003
  6.8358345E+003
  6.7019117E+003
  6.2778326E+003
  5.8249624E+003
  5.3495891E+003
  4.8514891E+003
  4.3069508E+003
  3.6925014E+003
  2.9955763E+003
  2.2232449E+003
  1.4078199E+003
  6.3981795E+002
  4.2006536E+001
 -2.4173735E+001
  4.0161203E+002
  3.5259890E+002
  2.3363663E+002
  1.6842596E+004
  1.5599044E+004
  1.1592978E+004
  8.5794404E+003
  7.0396486E+003
  4.5388144E+003
  1.6463912E+003
  1.2481676E+003
 -1.7083167E+003
  2.2765256E+002
  8.5744465E+003
  7.9294950E+003
  7.2286312E+003
  7.0865934E+003
  6.9696458E+003
  6.3832548E+003
  5.8935914E+003
  5.3958674E+003
  4.8929130E+003
  4.3183763E+003
  3.6305987E+003
  2.7982079E+003
  1.8037449E+003
  6.5670141E+002
 -6.2794506E+002
 -1.8601779E+003
 -3.0449218E+003
 -2.4250572E+003
 -1.6999375E+003
 -1.2101373E+003
  1.8937903E+004
  1.4951443E+004
  1.1727064E+004
  8.2957732E+003
  5.7120274E+003
  3.8952751E+003
  2.3762492E+003
  1.5624720E+003
  5.0529608E+002
  1.8417639E+003
  5.4715682E+003
  9.5089601E+003
  6.0423456E+003
  8.4522588E+003
  6.9782630E+003
  6.5754810E+003
  6.0059494E+003
  5.6197640E+003
  5.1864570E+003
  4.6528798E+003
  3.9544955E+003
  3.0490467E+003
  1.9037060E+003
  4.7667193E+002
 -1.2246056E+003
 -3.3675846E+003
 -5.3803021E+003
 -8.8876178E+003
 -3.5095309E+003
 -4.2854031E+002
  1.6441194E+004
  1.3827651E+004
  1.0623278E+004
  7.3846099E+003
  4.7968623E+003
  2.6273046E+003
  9.9817517E+002
 -2.2570609E+002
 -1.4682549E+003
 -3.9798413E+003
 -4.7874783E+003
 -2.8387026E+002
  1.0352069E+004
  9.3042631E+003
  8.1440397E+003
  7.2565249E+003
  6.4958486E+003
  6.2628051E+003
  6.0785317E+003
  5.8127231E+003
  5.3879806E+003
  4.7517028E+003
  3.8631556E+003
  2.6863854E+003
  1.1666217E+003
 -7.2262625E+002
 -3.2413740E+003
 -6.1034093E+003
 -1.1794752E+004
 -1.6508567E+004
 -4.4017836E+004
  1.2669925E+004
  1.6122483E+004
  8.1603994E+003
  6.2982038E+003
  4.0083321E+003
  1.9517826E+003
 -8.9090106E+000
 -1.6914762E+003
 -3.4650911E+003
 -6.2857673E+003
 -6.3975740E+003
  8.6150674E+003
  1.0887751E+004
  8.0379998E+003
  6.4211199E+003
  6.4931609E+003
  6.7898372E+003
  6.9022723E+003
  6.8555695E+003
  6.5820645E+003
  6.0698896E+003
  5.2885340E+003
  4.2170288E+003
  2.8370496E+003
  1.1170714E+003
 -9.7752424E+002
 -3.5355816E+003
 -6.4853956E+003
 -7.5669476E+003
 -9.0999571E+003
 -7.3997465E+003
 -3.4926797E+004
 -6.7970567E+003
 -1.2386811E+004
 -1.4606590E+003
  5.6771266E+003
  1.9602412E+003
  2.6649910E+003
  2.4994834E+003
  1.1844502E+003
 -3.3896898E+002
 -2.1109141E+003
 -3.9221816E+003
 -6.2860594E+003
 -6.0560463E+003
  2.8606102E+004
  7.6377296E+003
  4.2986453E+003
  5.5537232E+003
  7.2663431E+003
  7.8108051E+003
  8.2656938E+003
  8.3631204E+003
  8.2579374E+003
  7.8985464E+003
  7.2848110E+003
  6.4224814E+003
  5.3425198E+003
  4.1053391E+003
  2.7937752E+003
  1.6081938E+003
  1.0545080E+003
  1.3809322E+003
  1.2115878E+003
  5.3525465E+002
  5.9180673E+002
  6.3589592E+002
  9.4950727E+002
  7.6756860E+002
  4.7808883E+002
 -4.6553190E+002
 -2.1004688E+003
 -3.4169597E+003
 -5.3595344E+003
 -4.3846088E+003
 -1.7665894E+003
  3.1852229E+003
  8.5729970E+003
  8.6746245E+003
  9.8747040E+003
  1.0102062E+004
  1.0370231E+004
  1.0375507E+004
  1.0168371E+004
  9.7313200E+003
  9.1015906E+003
  8.3675388E+003
  7.6669463E+003
  7.1667252E+003
  7.0868909E+003
  7.4967930E+003
  7.9681566E+003
  7.9730256E+003
  7.3349952E+003
  5.9888624E+003
  4.8299039E+003
  3.6825490E+003
  2.7083478E+003
  7.4932466E+002
 -7.4506261E+002
 -5.5905037E+003
 -4.4246879E+003
 -1.1666690E+003
  1.9489006E+004
  1.4278872E+004
  1.0417279E+004
  1.2640768E+004
  1.1990658E+004
  1.2536750E+004
  1.2753851E+004
  1.2871581E+004
  1.2751190E+004
  1.2445365E+004
  1.2003666E+004
  1.1522561E+004
  1.1224181E+004
  1.1349568E+004
  1.1866472E+004
  1.2776697E+004
  1.3587008E+004
  1.3323962E+004
  1.2735257E+004
  1.2393851E+004
  1.0264571E+004
  8.6512720E+003
  5.2793903E+003
  6.8474384E+003
  1.8303915E+003
  6.0762889E+002
 -6.4218279E+003
  1.5834561E+004
  1.6450704E+004
  1.4447867E+004
  1.4762593E+004
  1.5127268E+004
  1.5615590E+004
  1.5632167E+004
  1.5450804E+004
  1.5207200E+004
  1.4852870E+004
  1.4487197E+004
  1.4364300E+004
  1.4733440E+004
  1.5836291E+004
  1.6836937E+004
  1.8555997E+004
  1.9781299E+004
  1.9450397E+004
  1.7248902E+004
  1.6928116E+004
  2.0848232E+004
  1.1173110E+004
 -7.2174848E+002
  1.5193803E+004
  1.7100453E+004
  1.5816137E+004
  1.6985820E+004
  1.8749513E+004
  1.8837773E+004
  1.8497951E+004
  1.8003449E+004
  1.7617627E+004
  1.7464815E+004
  1.7048995E+004
  1.6836346E+004
  1.7522552E+004
  1.8634320E+004
  1.9536561E+004
  2.1678577E+004
  2.0856121E+004
  4.1202756E+004
  3.7416145E+004
  6.8649871E+003
 -2.4199396E+002
  1.9390039E+004
  1.6669120E+004
  1.7402879E+004
  2.3049121E+004
  2.2597851E+004
  2.3169577E+004
  2.1429090E+004
  1.9907828E+004
  1.9200684E+004
  1.8879312E+004
  1.9106583E+004
  1.9817202E+004
  1.8403619E+004
  2.0533364E+004
  1.7977316E+004
  2.9474513E+004
  1.6124401E+004
 -7.2023764E+003
 -8.3996575E+003
  2.4436912E+004
  2.8499979E+004
  2.3714686E+004
  3.2380591E+004
  2.6052191E+004
  2.2999953E+004
  2.2400529E+004
  1.8864661E+004
  1.7741194E+004
  1.5952663E+004
  2.7089135E+004
  3.0846055E+004
  1.8068153E+004
  5.2143091E+003
 -4.6242724E+003
 -2.0649654E+004
  5.8789544E+004
  5.2504556E+004
  2.2257458E+004
  3.1287324E+004
  3.3738752E+004
  2.1211647E+004
  1.7967626E+004
  1.3157787E+004
  2.8572322E+003
 -5.4826688E+003
 -1.8547787E+004
 -1.4789024E+004
 -2.2109036E+003
 -7.5620414E+003
SCALARS Stress_zz double
LOOKUP_TABLE default
 -4.8257982E+003
  8.4994067E+004
  3.0507656E+004
 -2.5203567E+003
  3.0044080E+004
  2.8231784E+004
  2.9863250E+004
  2.8468706E+004
  3.0309808E+004
 -2.4381448E+003
  8.2455171E+004
 -2.9491136E+003
 -9.2612505E+002
  2.2653152E+003
  2.6869592E+003
  9.1441940E+002
  5.2862852E+003
  2.3833717E+003
  7.6695403E+003
  6.6502426E+003
  1.0906899E+004
  1.1326012E+004
  1.4617162E+004
  1.6685919E+004
  1.8806482E+004
  2.2540464E+004
  2.3353243E+004
  2.9021616E+004
  2.8478168E+004
  3.5774827E+004
  3.3379635E+004
  4.4556126E+004
  4.0989631E+004
  5.0987232E+004
  3.8462786E+004
  8.0981360E+004
  4.5235269E+004
  3.1681571E+004
  2.8709133E+004
  2.8599313E+004
  3.1226937E+004
  4.2993832E+004
  3.7138196E+004
  6.8801944E+004
  3.8349744E+004
  2.8915400E+003
  7.8614870E+004
  8.9856181E+003
  6.9983135E+003
  5.0952772E+003
  6.1559309E+003
  7.7607401E+003
  9.9655322E+003
  1.2571969E+004
  1.5522334E+004
  1.8766735E+004
  2.2105590E+004
  2.5786473E+004
  2.7949662E+004
  3.2661257E+004
  3.0329336E+004
  2.5234563E+004
  2.2699222E+004
  2.2777348E+004
  2.5665856E+004
  3.1422282E+004
  3.5638967E+004
  3.2887073E+004
  4.3625427E+004
  2.5244523E+004
  3.2217656E+004
  5.4360913E+004
  5.8592206E+003
  1.7652800E+003
  1.0345816E+003
  5.9137266E+003
  5.7924584E+003
  6.6799234E+003
  7.4093830E+003
  8.5959261E+003
  1.0052215E+004
  1.1743221E+004
  1.3558486E+004
  1.5439873E+004
  1.7020561E+004
  1.8663277E+004
  1.8445741E+004
  1.7845456E+004
  1.5919091E+004
  1.4375905E+004
  1.4612470E+004
  1.6844048E+004
  2.0265944E+004
  2.3695344E+004
  3.0077881E+004
  3.6105833E+004
  4.6534442E+004
  2.8997444E+004
  4.2073480E+004
  7.2907389E+003
  1.2017501E+004
  6.6311805E+003
  7.4567446E+003
  6.6161858E+003
  6.7165084E+003
  6.9159562E+003
  7.3439529E+003
  7.8780314E+003
  8.4558072E+003
  8.9442801E+003
  9.2939962E+003
  9.1441406E+003
  8.6887897E+003
  7.2847111E+003
  5.6380707E+003
  4.5593145E+003
  4.6641359E+003
  6.2833584E+003
  9.5226918E+003
  1.4280441E+004
  2.1295159E+004
  3.0252034E+004
  5.0055456E+004
  7.4594978E+004
  2.2827610E+005
  1.8360145E+004
  9.3405664E+003
  7.7905073E+003
  6.4508027E+003
  5.7192589E+003
  5.0608544E+003
  4.5032839E+003
  3.9660598E+003
  3.3832419E+003
  2.6765464E+003
  1.7237006E+003
  4.7993082E+002
 -1.2222480E+003
 -3.1489893E+003
 -5.0801801E+003
 -6.5045964E+003
 -6.8666989E+003
 -5.7629666E+003
 -2.9231423E+003
  1.9778388E+003
  9.6073606E+003
  2.0558099E+004
  3.7799665E+004
  5.4988875E+004
  8.9283966E+004
  5.5490582E+004
  5.4521844E+004
  1.5730056E+005
  9.7833215E+003
  2.3153414E+002
  1.7425679E+003
  6.9634373E+003
  7.9104725E+003
  7.1468168E+003
  5.9851130E+003
  4.5766830E+003
  3.1291760E+003
  1.6408558E+003
  1.0330002E+002
 -1.5415372E+003
 -3.3735890E+003
 -5.4656129E+003
 -7.8893730E+003
 -1.0606405E+004
 -1.3530513E+004
 -1.6346003E+004
 -1.8618681E+004
 -1.9853373E+004
 -1.9573714E+004
 -1.7350183E+004
 -1.2807135E+004
 -5.5848349E+003
  4.7223201E+003
  1.8038479E+004
  3.5613302E+004
  5.4496485E+004
  5.7416580E+004
  6.4665047E+004
  4.5133114E+004
  4.5987853E+004
  1.1551021E+005
  8.8671786E+003
  7.4970378E+003
  7.6329947E+003
  7.8870877E+003
  7.0870554E+003
  5.5636675E+003
  3.5177891E+003
  1.2237381E+003
 -1.1669250E+003
 -3.6502878E+003
 -6.2851254E+003
 -9.1567288E+003
 -1.2353162E+004
 -1.5924195E+004
 -1.9862722E+004
 -2.4026806E+004
 -2.8145244E+004
 -3.1775131E+004
 -3.4364448E+004
 -3.5309823E+004
 -3.4093527E+004
 -3.0369173E+004
 -2.3840948E+004
 -1.4595316E+004
 -2.7422789E+003
  1.0648508E+004
  2.2102435E+004
  3.1122386E+004
  4.2330535E+004
  4.1833476E+004
  4.5895187E+004
  2.9094959E+004
  3.5479691E+004
  7.0602365E+004
  6.8073385E+003
 -1.6230004E+003
 -3.1435064E+003
  3.4160913E+003
  6.4550198E+003
  8.1580517E+003
  7.9046372E+003
  5.7117124E+003
  2.6722824E+003
 -5.7495392E+002
 -3.8766020E+003
 -7.2520265E+003
 -1.0790240E+004
 -1.4619064E+004
 -1.8860704E+004
 -2.3605787E+004
 -2.8871008E+004
 -3.4568649E+004
 -4.0427280E+004
 -4.5982118E+004
 -5.0506650E+004
 -5.3232202E+004
 -5.3453685E+004
 -5.0620521E+004
 -4.4943583E+004
 -3.6294452E+004
 -2.5352181E+004
 -1.3340031E+004
 -1.4854598E+003
  8.8278919E+003
  1.5800749E+004
  2.1693102E+004
  2.8233181E+004
  2.6427655E+004
  2.5133277E+004
  1.3586870E+004
  2.1870220E+004
  2.8078574E+004
  3.9589504E+003
  1.5625689E+003
  1.2949674E+003
  8.1374713E+003
  1.2404388E+004
  1.0732331E+004
  6.5237429E+003
  2.0727151E+003
 -2.2908193E+003
 -6.5170720E+003
 -1.0690628E+004
 -1.5006973E+004
 -1.9668545E+004
 -2.4868525E+004
 -3.0765464E+004
 -3.7461047E+004
 -4.4940606E+004
 -5.3032864E+004
 -6.1173832E+004
 -6.8506972E+004
 -7.3615697E+004
 -7.5443021E+004
 -7.4121969E+004
 -6.8584181E+004
 -6.0229155E+004
 -4.9269124E+004
 -3.6853792E+004
 -2.4564663E+004
 -1.3385492E+004
 -3.6283421E+003
  3.9567833E+003
  8.5897632E+003
  1.1592646E+004
  1.4272105E+004
  1.1455434E+004
  7.4086101E+003
  1.6027832E+003
  8.1723036E+003
  3.1016887E+003
 -9.7719053E+002
  8.1539138E+003
  8.0184444E+003
  1.6941941E+004
  1.4755768E+004
  8.0460641E+003
  1.4954999E+003
 -4.1798180E+003
 -9.2102142E+003
 -1.3992575E+004
 -1.8878760E+004
 -2.4180134E+004
 -3.0176946E+004
 -3.7131084E+004
 -4.5264822E+004
 -5.4742202E+004
 -6.5506375E+004
 -7.7293804E+004
 -8.8544927E+004
 -9.7536474E+004
 -1.0215027E+005
 -1.0023338E+005
 -9.6486505E+004
 -8.7006140E+004
 -7.4275193E+004
 -6.0343348E+004
 -4.6250527E+004
 -3.3351921E+004
 -2.2102214E+004
 -1.2745331E+004
 -5.3366545E+003
 -2.9526132E+002
  1.9829938E+003
  2.5621224E+003
  2.3403645E+003
 -5.5763082E+002
 -3.9179250E+003
 -7.7336164E+003
 -3.2143724E+003
  1.8150345E+003
  6.0336659E+004
  2.4548497E+004
  8.9743991E+003
 -6.5568890E+001
 -6.7470652E+003
 -1.2161961E+004
 -1.7192810E+004
 -2.2335470E+004
 -2.7993736E+004
 -3.4527062E+004
 -4.2304038E+004
 -5.1743122E+004
 -6.3235801E+004
 -7.7183361E+004
 -9.3417581E+004
 -1.1149542E+005
 -1.2522756E+005
 -1.2953083E+005
 -1.3363323E+005
 -1.2478263E+005
 -1.1645988E+005
 -1.0170151E+005
 -8.3697698E+004
 -6.7082705E+004
 -5.1735804E+004
 -3.8379908E+004
 -2.7011531E+004
 -1.7725364E+004
 -1.0736304E+004
 -6.0214282E+003
 -3.7765107E+003
 -3.8325146E+003
 -5.1056105E+003
 -7.7354103E+003
 -8.8711383E+003
 -1.7396095E+004
 -7.3697158E+003
  5.9073104E+004
  9.8157507E+003
  7.2056117E+003
 -4.9855053E+003
 -1.0307640E+004
 -1.5566803E+004
 -2.0258684E+004
 -2.5279335E+004
 -3.0929958E+004
 -3.7624895E+004
 -4.5819653E+004
 -5.6098849E+004
 -6.9349354E+004
 -8.6482655E+004
 -1.0863869E+005
 -1.3612281E+005
 -1.6647916E+005
 -1.7786438E+005
 -1.5916438E+005
 -1.7178769E+005
 -1.5604005E+005
 -1.2731461E+005
 -1.0628057E+005
 -8.6116908E+004
 -6.8469751E+004
 -5.2889544E+004
 -3.9243655E+004
 -2.7672132E+004
 -1.8500574E+004
 -1.2171331E+004
 -8.5345317E+003
 -7.3423358E+003
 -8.4539230E+003
 -1.0918580E+004
 -1.5318093E+004
 -1.3764141E+004
 -1.7345506E+004
 -3.0692457E+003
  3.2546486E+004
  8.6365195E+003
 -7.2264238E+003
 -1.1048643E+004
 -1.5447945E+004
 -1.9109808E+004
 -2.3101182E+004
 -2.7561854E+004
 -3.2827436E+004
 -3.9226876E+004
 -4.7225311E+004
 -5.7529940E+004
 -7.1310549E+004
 -9.0615353E+004
 -1.1990719E+005
 -1.5775617E+005
 -2.2058630E+005
 -1.7974087E+005
 -2.2088020E+005
 -1.8072744E+005
 -1.9983903E+005
 -1.5512683E+005
 -1.3174719E+005
 -1.0351710E+005
 -8.0733504E+004
 -6.5437477E+004
 -4.9637255E+004
 -3.5001757E+004
 -2.3641046E+004
 -1.5450116E+004
 -1.0637619E+004
 -8.9649451E+003
 -1.0226657E+004
 -1.3387952E+004
 -2.0643131E+004
 -2.5285129E+004
 -6.3501278E+004
 -8.9746911E+004
 -2.3690894E+004
 -2.2268962E+004
 -1.9044693E+004
 -2.0568885E+004
 -2.2513309E+004
 -2.5420756E+004
 -2.9053331E+004
 -3.3592620E+004
 -3.9225599E+004
 -4.6374740E+004
 -5.5384126E+004
 -6.8177247E+004
 -8.3700960E+004
 -1.1937522E+005
 -1.5589435E+005
 -4.2494287E+005
 -3.1003338E+005
 -2.0900406E+005
 -3.1394047E+005
 -3.5482950E+005
 -1.2670100E+005
 -1.5696803E+005
 -1.0134828E+005
 -9.7432382E+004
 -7.9555718E+004
 -5.7419899E+004
 -3.9477648E+004
 -2.5552716E+004
 -1.5495784E+004
 -9.5589462E+003
 -7.7721977E+003
 -9.3861449E+003
 -1.4367709E+004
 -2.1016684E+004
 -3.2894204E+004
 -2.7839601E+004
 -4.2111608E+004
 -3.1251284E+003
 -7.7930682E+003
 -2.3828343E+003
  4.7657139E+003
  2.4214380E+004
  3.0727994E+003
  3.3475625E+004
  8.0436583E+003
  2.7411471E+003
  2.6982415E+004
  5.1085362E+003
 -4.6142154E+003
 -1.0304716E+005
 -5.0851595E+004
  6.6195166E+002
 -4.9433193E+004
 -8.3378435E+004
 -5.4893027E+004
 -3.6420012E+004
 -2.9672124E+004
 -2.5419298E+004
 -2.4550273E+004
 -2.5176445E+004
 -2.6964495E+004
 -2.9660344E+004
 -3.3246975E+004
 -3.7776359E+004
 -4.3452941E+004
 -5.0336047E+004
 -5.9453934E+004
 -6.8522036E+004
 -8.6509458E+004
 -6.5336458E+004
 -6.7034013E+004
  2.0103144E+004
 -5.8247845E+004
 -2.6112566E+005
 -1.0333013E+005
 -8.7202908E+004
 -9.7463503E+004
 -5.9733746E+004
 -4.1685005E+004
 -2.3739925E+004
 -1.0634650E+004
 -4.5080375E+003
 -3.0606791E+003
 -5.6578749E+003
 -1.1890582E+004
 -2.1001541E+004
 -3.6189767E+004
 -5.6329877E+004
 -1.2341630E+005
 -6.0110673E+003
 -5.0497495E+003
 -1.6489606E+004
 -7.6338704E+003
 -4.2840177E+003
 -4.0373086E+003
  7.0449203E+002
 -3.6116438E+003
  1.9229921E+004
 -2.3009050E+003
  5.4928096E+003
 -4.5522695E+003
  7.8950560E+003
  6.4693035E+002
 -1.4231352E+005
 -5.6801433E+004
 -2.6315274E+004
 -7.0653616E+004
 -5.3130470E+004
 -5.5434722E+004
 -4.8159046E+004
 -3.8837471E+004
 -3.2382804E+004
 -2.8741291E+004
 -2.6951677E+004
 -2.6714618E+004
 -2.7597059E+004
 -2.9384374E+004
 -3.1945609E+004
 -3.5229134E+004
 -3.9133930E+004
 -4.3725764E+004
 -4.8028516E+004
 -5.3510249E+004
 -4.8771534E+004
 -6.0188415E+004
 -9.1473541E+003
 -2.0318858E+004
  3.0956631E+004
 -1.1521816E+005
 -1.8870995E+005
 -4.0658637E+004
 -4.5906693E+004
 -1.1631770E+004
 -2.1632138E+003
  5.4652064E+003
  5.7902024E+003
  1.5531216E+003
 -6.0810555E+003
 -1.7350893E+004
 -3.1008199E+004
 -4.8301978E+004
 -5.5160409E+004
 -8.3305174E+004
 -4.5443987E+004
 -2.9345061E+004
 -2.5120761E+004
 -1.9955657E+004
 -1.7738173E+004
 -1.4826878E+004
 -1.2867103E+004
 -1.2511495E+004
 -1.5456618E+004
 -1.8210063E+004
 -2.1626931E+004
 -1.4181130E+004
 -2.6738348E+004
 -1.2473765E+004
 -2.8217675E+004
  7.8291747E+003
 -7.4618877E+004
  1.3243491E+004
  1.5593149E+004
 -2.2714684E+005
 -8.1486985E+004
 -2.9420714E+004
 -9.3469073E+004
 -7.1722282E+004
 -6.6072944E+004
 -5.6342245E+004
 -4.9241867E+004
 -4.4230485E+004
 -3.8417988E+004
 -3.3202740E+004
 -2.9791809E+004
 -2.7850053E+004
 -2.7104114E+004
 -2.7330822E+004
 -2.8327958E+004
 -2.9935902E+004
 -3.1996189E+004
 -3.4328837E+004
 -3.6557402E+004
 -3.8284792E+004
 -3.7710505E+004
 -3.5180531E+004
 -2.4359273E+004
  5.1833251E+003
  6.2836378E+003
  4.8621918E+004
 -6.2818175E+004
  5.4071067E+003
  1.7291084E+004
  2.3202324E+004
  1.8554608E+004
  1.2540254E+004
  2.7974347E+003
 -9.4762934E+003
 -2.4808462E+004
 -4.1843995E+004
 -6.4727076E+004
 -5.1163937E+004
 -4.9084274E+004
 -2.8826750E+004
  4.7913753E+003
 -2.7427111E+004
 -3.6188019E+004
 -3.0120815E+004
 -3.1311532E+004
 -2.8443055E+004
 -2.6765274E+004
 -2.5151614E+004
 -2.4828951E+004
 -2.4944413E+004
 -2.6742375E+004
 -2.9922581E+004
 -3.4305418E+004
 -4.1431393E+004
 -5.8465382E+004
 -6.1293863E+004
 -9.1180780E+004
 -7.1786018E+004
 -7.8325685E+004
 -7.4199850E+004
 -8.5637133E+004
 -7.8463251E+004
 -9.0237099E+004
 -8.2221121E+004
 -9.5914577E+004
 -8.5996750E+004
 -1.0098363E+005
 -8.9570274E+004
 -1.0574661E+005
 -9.2985875E+004
 -1.1020615E+005
 -9.6247346E+004
 -1.1452317E+005
 -9.9416470E+004
 -1.1878149E+005
 -1.0263292E+005
 -1.2291222E+005
 -1.0591557E+005
 -1.2720105E+005
 -1.1022763E+005
 -1.3090451E+005
 -1.1407255E+005
 -1.3892494E+005
 -1.2611480E+005
 -1.4138205E+005
 -1.1446996E+005
 -2.0710414E+005
 -1.2785925E+005
 -9.8441235E+004
 -8.5398239E+004
 -6.9532899E+004
 -6.0128976E+004
 -5.2821619E+004
 -4.6788059E+004
 -4.1369182E+004
 -3.6512482E+004
 -3.2484450E+004
 -2.9448544E+004
 -2.7516218E+004
 -2.6517921E+004
 -2.6287879E+004
 -2.6660492E+004
 -2.7464171E+004
 -2.8510338E+004
 -2.9531273E+004
 -3.0205729E+004
 -2.9766847E+004
 -2.7946434E+004
 -2.1557210E+004
 -1.2019512E+004
  1.5310945E+004
  3.6260119E+004
  3.7067232E+004
  4.4510453E+004
  4.0349778E+004
  3.6719448E+004
  2.6359297E+004
  1.4569171E+004
  8.6883219E+002
 -1.5887506E+004
 -3.4251722E+004
 -6.3960906E+004
 -9.7306381E+004
 -2.8116411E+005
 -3.9408859E+004
 -4.1747144E+004
 -4.3012015E+004
 -4.1189034E+004
 -4.0114779E+004
 -3.7923526E+004
 -3.6048615E+004
 -3.4639520E+004
 -3.4296658E+004
 -3.4901392E+004
 -3.6658695E+004
 -4.0013015E+004
 -4.5069541E+004
 -5.3181600E+004
 -6.0669048E+004
 -6.2549392E+004
 -6.6587882E+004
 -6.9370945E+004
 -7.2266447E+004
 -7.5039211E+004
 -7.7758093E+004
 -8.0326898E+004
 -8.2753679E+004
 -8.5036680E+004
 -8.7284372E+004
 -8.9789145E+004
 -9.2403271E+004
 -9.6280855E+004
 -9.7092329E+004
 -1.0570451E+005
 -9.8943089E+004
 -8.2955709E+004
 -7.1981059E+004
 -6.2823851E+004
 -5.4573081E+004
 -4.8013177E+004
 -4.2553187E+004
 -3.7933270E+004
 -3.3959423E+004
 -3.0622488E+004
 -2.8058549E+004
 -2.6257523E+004
 -2.5159709E+004
 -2.4640348E+004
 -2.4558415E+004
 -2.4753475E+004
 -2.5030983E+004
 -2.5149443E+004
 -2.4756547E+004
 -2.3465039E+004
 -2.0511824E+004
 -1.5458000E+004
 -7.5757577E+003
  2.0108215E+003
  9.0764126E+003
  8.0129457E+003
  3.5700311E+004
  1.2830236E+005
  7.7712844E+004
  5.6033544E+004
  4.1419520E+004
  2.8536712E+004
  1.3613740E+004
 -3.3160880E+003
 -2.2946412E+004
 -4.7046818E+004
 -7.0371103E+004
 -1.0096527E+005
 -5.6900263E+004
 -1.2745278E+005
 -6.0895489E+004
 -5.1525237E+004
 -3.5566937E+004
 -3.7798450E+004
 -2.6155537E+004
 -2.3750083E+004
 -1.7534127E+004
 -1.5660133E+004
 -1.1918513E+004
 -9.2265905E+003
 -7.6828963E+003
 -4.7364070E+003
 -4.7142338E+003
 -1.7253648E+003
 -2.6257854E+003
 -1.0672634E+001
 -1.1523253E+003
  1.1493604E+002
  7.5810433E+002
  1.3035181E+002
 -5.2570136E+004
 -5.1282705E+004
 -5.2544460E+004
 -5.3662813E+004
 -5.1580579E+004
 -4.9175394E+004
 -4.6397420E+004
 -4.4020933E+004
 -4.2302992E+004
 -4.1554411E+004
 -4.1908413E+004
 -4.3367006E+004
 -4.6398591E+004
 -5.0092229E+004
 -5.3123879E+004
 -5.6241018E+004
 -5.7951949E+004
 -5.9757867E+004
 -6.1379809E+004
 -6.3087944E+004
 -6.4901996E+004
 -6.6707268E+004
 -6.8116004E+004
 -6.9292246E+004
 -7.0411029E+004
 -7.1566320E+004
 -7.3253154E+004
 -7.4780115E+004
 -7.7282417E+004
 -7.5862408E+004
 -7.3569298E+004
 -6.7678619E+004
 -5.9951139E+004
 -5.3145013E+004
 -4.7220284E+004
 -4.2072238E+004
 -3.7698446E+004
 -3.3929606E+004
 -3.0699659E+004
 -2.8017778E+004
 -2.5885797E+004
 -2.4306266E+004
 -2.3224842E+004
 -2.2554784E+004
 -2.2179513E+004
 -2.1958282E+004
 -2.1721593E+004
 -2.1257507E+004
 -2.0315945E+004
 -1.8567423E+004
 -1.5709585E+004
 -1.1442583E+004
 -5.7028825E+003
  3.0585887E+002
  3.5502259E+003
  3.7006166E+003
  4.3556215E+003
  2.1684519E+004
  6.5045891E+004
  6.8019756E+004
  5.8668771E+004
  4.4026451E+004
  2.8452796E+004
  1.1655183E+004
 -6.4463173E+003
 -2.5242779E+004
 -4.5164392E+004
 -6.1308835E+004
 -5.6936944E+004
 -3.7571921E+004
 -3.1630237E+004
 -2.2619223E+004
 -1.6776268E+004
 -1.2025094E+004
 -8.5076320E+003
 -5.8323346E+003
 -3.8055643E+003
 -2.3191370E+003
 -9.6842117E+002
 -3.9036661E+002
  1.2513960E+003
  8.7943727E+001
  3.6171434E+002
  7.3939189E+002
  4.2798245E+002
 -6.2409413E+004
 -6.1431078E+004
 -6.7908294E+004
 -6.6036826E+004
 -6.4438767E+004
 -6.0536335E+004
 -5.6415608E+004
 -5.2574136E+004
 -4.9440046E+004
 -4.7192241E+004
 -4.5923120E+004
 -4.5714648E+004
 -4.6345473E+004
 -4.7591523E+004
 -4.8896328E+004
 -4.9584814E+004
 -5.0141984E+004
 -5.0376102E+004
 -5.0655503E+004
 -5.1385449E+004
 -5.2599088E+004
 -5.3522147E+004
 -5.4192933E+004
 -5.4117629E+004
 -5.3728071E+004
 -5.3821190E+004
 -5.4060085E+004
 -5.5161285E+004
 -5.5783549E+004
 -5.6358233E+004
 -5.4649316E+004
 -5.1209915E+004
 -4.7203772E+004
 -4.2973606E+004
 -3.9004425E+004
 -3.5398472E+004
 -3.2181228E+004
 -2.9359678E+004
 -2.6916036E+004
 -2.4847598E+004
 -2.3165168E+004
 -2.1855188E+004
 -2.0880897E+004
 -2.0175285E+004
 -1.9646876E+004
 -1.9180885E+004
 -1.8638813E+004
 -1.7858946E+004
 -1.6654420E+004
 -1.4833484E+004
 -1.2228214E+004
 -8.7360333E+003
 -4.6639721E+003
 -2.2336906E+002
  3.7207519E+003
  1.1336361E+004
  6.3943940E+004
  1.7364529E+005
  9.5077309E+004
  7.5149975E+004
  5.9832988E+004
  4.4822541E+004
  2.7966973E+004
  1.1157538E+004
 -5.3804513E+003
 -2.0067445E+004
 -2.8656295E+004
 -2.9515880E+004
 -2.8111617E+004
 -2.2317192E+004
 -1.8421984E+004
 -1.4452822E+004
 -1.1313176E+004
 -8.6973370E+003
 -6.5545445E+003
 -4.7665548E+003
 -3.2334304E+003
 -1.9505842E+003
 -9.5717318E+002
 -3.6368512E+002
  1.6546311E+002
  2.8270057E+002
  3.7304473E+002
 -8.2388828E+004
 -4.9248080E+004
 -7.9741111E+004
 -8.3009033E+004
 -7.8747184E+004
 -7.2317697E+004
 -6.6142534E+004
 -6.0470423E+004
 -5.5656123E+004
 -5.1811814E+004
 -4.8969039E+004
 -4.7032927E+004
 -4.5852889E+004
 -4.5083630E+004
 -4.4368553E+004
 -4.3531747E+004
 -4.2332070E+004
 -4.0982522E+004
 -3.9620993E+004
 -3.8702773E+004
 -3.9552610E+004
 -4.1660795E+004
 -4.0322647E+004
 -3.8549614E+004
 -3.6866000E+004
 -3.4145924E+004
 -3.3745085E+004
 -3.4867808E+004
 -3.6443693E+004
 -3.6640022E+004
 -3.6713910E+004
 -3.6069051E+004
 -3.4535478E+004
 -3.2562348E+004
 -3.0430559E+004
 -2.8308569E+004
 -2.6286688E+004
 -2.4420933E+004
 -2.2748613E+004
 -2.1294555E+004
 -2.0069334E+004
 -1.9069346E+004
 -1.8268621E+004
 -1.7619497E+004
 -1.7052847E+004
 -1.6480346E+004
 -1.5796679E+004
 -1.4882516E+004
 -1.3612985E+004
 -1.1872372E+004
 -9.5820365E+003
 -6.7724117E+003
 -3.5899686E+003
 -4.3204879E+002
  1.9055771E+003
  3.1245666E+003
 -2.5127988E+002
  3.5915784E+000
  3.3819516E+004
  7.6356273E+004
  9.3270561E+004
  7.9312363E+004
  6.1472571E+004
  4.4776522E+004
  2.8202671E+004
  1.2809041E+004
 -1.8278366E+002
 -9.6629958E+003
 -1.4464501E+004
 -1.5055492E+004
 -1.4662735E+004
 -1.3093371E+004
 -1.1542663E+004
 -9.9116929E+003
 -8.3659422E+003
 -6.8613224E+003
 -5.3817822E+003
 -3.9343641E+003
 -2.5916422E+003
 -1.4978440E+003
 -5.7045137E+002
  8.9645709E+001
  9.7742042E+002
  5.0750666E+004
 -8.5820759E+004
 -1.3375348E+005
 -1.0270384E+005
 -9.4997699E+004
 -8.3958305E+004
 -7.5338079E+004
 -6.7490887E+004
 -6.0898485E+004
 -5.5443017E+004
 -5.1084224E+004
 -4.7648282E+004
 -4.4888454E+004
 -4.2518045E+004
 -4.0221700E+004
 -3.7690676E+004
 -3.4799443E+004
 -3.1389466E+004
 -2.8117336E+004
 -2.5218080E+004
 -2.8585067E+004
 -2.9779514E+004
 -2.8551787E+004
 -2.4972962E+004
 -2.0001657E+004
 -1.8491644E+004
 -1.2773437E+004
 -1.6387416E+004
 -1.5249310E+004
 -1.7255949E+004
 -2.0159418E+004
 -2.1684044E+004
 -2.2228281E+004
 -2.2305238E+004
 -2.1878191E+004
 -2.1124344E+004
 -2.0228377E+004
 -1.9286564E+004
 -1.8365095E+004
 -1.7510769E+004
 -1.6748540E+004
 -1.6083930E+004
 -1.5505208E+004
 -1.4981763E+004
 -1.4465311E+004
 -1.3891824E+004
 -1.3184976E+004
 -1.2261450E+004
 -1.1039393E+004
 -9.4516411E+003
 -7.4725417E+003
 -5.1355030E+003
 -2.6070368E+003
 -1.3292699E+002
  2.1147133E+003
  3.4574463E+003
  3.7791150E+003
  9.2543139E+004
  1.2149589E+005
  1.0801932E+005
  9.5864159E+004
  8.0059583E+004
  6.1106207E+004
  4.3870022E+004
  2.8807633E+004
  1.5929019E+004
  6.0180876E+003
 -7.8305956E+002
 -5.0489382E+003
 -7.1715631E+003
 -8.2551313E+003
 -8.5828139E+003
 -8.4811254E+003
 -7.9988996E+003
 -7.1554598E+003
 -5.9551230E+003
 -4.5212262E+003
 -3.0511973E+003
 -1.6944027E+003
 -7.0473986E+002
  5.7431257E+001
  1.0505354E+003
 -1.6438848E+005
 -1.5079641E+005
 -1.2664184E+005
 -1.0987158E+005
 -9.4978139E+004
 -8.3291017E+004
 -7.3355632E+004
 -6.4942643E+004
 -5.7987197E+004
 -5.2286658E+004
 -4.7573018E+004
 -4.3548979E+004
 -3.9883320E+004
 -3.6240906E+004
 -3.2269645E+004
 -2.7714430E+004
 -2.1943164E+004
 -1.5749332E+004
 -4.8061278E+003
 -5.4039462E+003
 -3.3008401E+004
 -1.2959637E+004
 -6.9967441E+003
  1.0170929E+002
  1.2473871E+004
  2.3152158E+004
  3.5311659E+003
 -3.6734214E+002
  1.6585418E+003
 -4.3784906E+003
 -7.2743768E+003
 -1.0828085E+004
 -1.2654100E+004
 -1.3557655E+004
 -1.4083406E+004
 -1.4233456E+004
 -1.4130057E+004
 -1.3913378E+004
 -1.3636400E+004
 -1.3329655E+004
 -1.3012654E+004
 -1.2686576E+004
 -1.2337321E+004
 -1.1935194E+004
 -1.1436854E+004
 -1.0789814E+004
 -9.9379995E+003
 -8.8289415E+003
 -7.4248235E+003
 -5.7125723E+003
 -3.7270574E+003
 -1.5348116E+003
  6.9824458E+002
  2.5404961E+003
  3.2809408E+003
 -2.0585243E+002
  9.0873541E+004
  2.3008282E+005
  1.3267760E+005
  9.7357806E+004
  7.4402922E+004
  5.7915490E+004
  4.2501355E+004
  2.9171388E+004
  1.8140114E+004
  9.6180108E+003
  3.4283095E+003
 -9.9700699E+002
 -4.0393181E+003
 -6.1160397E+003
 -7.4090180E+003
 -7.9856919E+003
 -7.8187519E+003
 -6.8716056E+003
 -5.1887182E+003
 -3.1731908E+003
 -1.6905183E+003
 -4.8862695E+002
  2.9710569E+001
  8.1222408E+002
 -1.9190947E+005
 -2.0138314E+005
 -1.5036110E+005
 -1.1863248E+005
 -1.0206297E+005
 -8.9474346E+004
 -7.7596293E+004
 -6.7544556E+004
 -5.9302121E+004
 -5.2508153E+004
 -4.6809577E+004
 -4.1844624E+004
 -3.7231671E+004
 -3.2581299E+004
 -2.7520115E+004
 -2.1492241E+004
 -1.4273067E+004
 -3.3921044E+003
  8.8043473E+003
  4.6462762E+004
  7.7231774E+003
  5.8000783E+003
  3.1924048E+004
  3.7013879E+004
  5.8487145E+003
  5.4973172E+003
 -9.3562178E+002
 -3.0631068E+003
 -5.9691031E+003
 -7.5017329E+003
 -8.4053827E+003
 -9.0938037E+003
 -9.5302811E+003
 -9.7856033E+003
 -9.9217535E+003
 -9.9510228E+003
 -9.8907461E+003
 -9.7459509E+003
 -9.5014860E+003
 -9.1305747E+003
 -8.5991320E+003
 -7.8708826E+003
 -6.9135927E+003
 -5.7035476E+003
 -4.2358258E+003
 -2.5064595E+003
 -5.5896719E+002
  1.7955359E+003
  4.5147079E+003
  1.0830599E+004
 -1.7461049E+002
  5.7282566E+004
  8.8424046E+004
  1.0166386E+005
  8.6384259E+004
  7.0169807E+004
  5.4189799E+004
  4.0066560E+004
  2.7854815E+004
  1.7893259E+004
  9.9946018E+003
  3.8824484E+003
 -8.3272419E+002
 -4.4231226E+003
 -7.0550325E+003
 -8.7396545E+003
 -9.1910348E+003
 -8.1411924E+003
 -5.9715383E+003
 -3.6441844E+003
 -7.0413806E+002
 -4.5070419E+002
  1.9287777E+002
  3.2077191E+002
 -5.0169517E+005
 -2.9271604E+005
 -1.2799278E+005
 -1.2100725E+005
 -1.0884404E+005
 -9.4607090E+004
 -7.9800758E+004
 -6.8533187E+004
 -5.9188701E+004
 -5.1612537E+004
 -4.5312908E+004
 -3.9788139E+004
 -3.4608882E+004
 -2.9356609E+004
 -2.3618764E+004
 -1.6861301E+004
 -8.6403307E+003
  2.6158904E+003
  1.4910894E+004
  3.9838734E+004
  1.2466614E+003
  8.3272816E+003
  2.7215664E+004
  5.0060690E+003
  5.1350765E+003
  5.7711586E+002
 -8.9430244E+002
 -3.1194975E+003
 -4.3370686E+003
 -5.2758934E+003
 -6.0780571E+003
 -6.6252503E+003
 -6.9723416E+003
 -7.1803872E+003
 -7.2544610E+003
 -7.1942326E+003
 -6.9848309E+003
 -6.6048350E+003
 -6.0325426E+003
 -5.2499317E+003
 -4.2418544E+003
 -3.0127543E+003
 -1.5229610E+003
  1.0293112E+002
  2.4354693E+003
  3.6949026E+003
  9.9264376E+003
  6.2500275E+004
  2.1485039E+005
  1.1630737E+005
  9.7920106E+004
  8.0272410E+004
  6.4657510E+004
  4.8833409E+004
  3.5368727E+004
  2.4051907E+004
  1.4820457E+004
  7.3429577E+003
  1.2699368E+003
 -3.7068621E+003
 -7.6786682E+003
 -1.0566934E+004
 -1.2413705E+004
 -1.1992287E+004
 -7.7202496E+003
 -1.2724833E+003
  5.3468628E+002
  1.5911355E+003
  3.6774110E+002
  1.8152721E+002
 -4.2050491E+004
 -8.3595521E+004
 -7.8777681E+004
 -1.1502021E+005
 -9.5523083E+004
 -8.1151918E+004
 -6.7255053E+004
 -5.7230332E+004
 -4.9446792E+004
 -4.3031029E+004
 -3.7389041E+004
 -3.2056119E+004
 -2.6626167E+004
 -2.0704241E+004
 -1.3817654E+004
 -5.5803411E+003
  4.9686348E+003
  1.7006844E+004
  3.7401975E+004
  8.4503908E+002
  5.7901740E+003
  1.9851716E+004
  4.2212114E+003
  4.6217684E+003
  1.6797852E+003
  5.0768205E+002
 -1.3431922E+003
 -2.6037012E+003
 -3.4853644E+003
 -4.1534093E+003
 -4.6025374E+003
 -4.8971741E+003
 -5.0370282E+003
 -5.0092121E+003
 -4.8025865E+003
 -4.4048593E+003
 -3.8086056E+003
 -3.0114677E+003
 -2.0106019E+003
 -8.2208510E+002
  5.9716181E+002
  2.0836082E+003
  4.0843519E+003
  5.8551978E+003
  4.2204117E+004
  8.8300161E+004
  1.0986488E+005
  9.3203586E+004
  7.3453837E+004
  5.5812892E+004
  4.0706308E+004
  2.8132680E+004
  1.7879265E+004
  9.4014838E+003
  2.2555115E+003
 -3.9228390E+003
 -9.4472878E+003
 -1.3906966E+004
 -1.6241567E+004
 -1.5094130E+004
 -8.6706399E+003
 -4.0888041E+003
  2.1926694E+003
 -4.1468687E+004
 -4.3435632E+004
 -2.3195510E+005
 -9.6173879E+004
 -7.9267693E+004
 -6.1449929E+004
 -5.3228742E+004
 -4.5848352E+004
 -4.0004754E+004
 -3.4676598E+004
 -2.9601888E+004
 -2.4396126E+004
 -1.8733788E+004
 -1.2224104E+004
 -4.5935034E+003
  5.0112557E+003
  1.5355619E+004
  3.2063194E+004
  5.4438682E+002
  4.4381070E+003
  1.5853838E+004
  3.6707737E+003
  5.2770433E+003
  2.0860783E+003
  5.9578291E+002
 -7.0785472E+002
 -1.4884842E+003
 -2.1844333E+003
 -2.6996215E+003
 -3.0429238E+003
 -3.2137524E+003
 -3.1909753E+003
 -2.9750190E+003
 -2.5696529E+003
 -1.9795208E+003
 -1.2167526E+003
 -2.8437147E+002
  7.6195765E+002
  2.0071804E+003
  3.1180304E+003
  4.7547135E+003
  9.4121826E+004
  1.2861366E+005
  1.1971747E+005
  1.0642293E+005
  8.1883769E+004
  6.0498240E+004
  4.3250186E+004
  2.9939998E+004
  1.9135312E+004
  1.0132892E+004
  2.2667774E+003
 -4.9228399E+003
 -1.1726970E+004
 -1.9239304E+004
 -2.6870605E+004
 -4.5974858E+004
 -4.7388805E+003
 -6.4917859E+004
 -4.9028753E+004
 -6.2648508E+004
 -5.2030086E+004
 -4.6926977E+004
 -4.1191465E+004
 -3.6344479E+004
 -3.1747689E+004
 -2.7269823E+004
 -2.2632656E+004
 -1.7595088E+004
 -1.1843206E+004
 -5.2032612E+003
  3.0568723E+003
  1.1771368E+004
  2.6287171E+004
  3.4200517E+002
  4.7284553E+003
  1.4584004E+004
  4.3850930E+003
  3.2558851E+003
  2.0264238E+003
  8.6908648E+002
  3.6185105E+001
 -6.3726964E+002
 -1.2382807E+003
 -1.6111001E+003
 -1.7707493E+003
 -1.7349271E+003
 -1.5143154E+003
 -1.1242304E+003
 -5.8028902E+002
  9.3460814E+001
  8.7295849E+002
  1.7059629E+003
  2.4713808E+003
  3.3259361E+003
  8.5241165E+004
  2.6419804E+005
  1.3128365E+005
  8.6707500E+004
  5.9361908E+004
  4.2302002E+004
  2.9085533E+004
  1.8637310E+004
  9.7084349E+003
  1.6509368E+003
 -6.3787885E+003
 -1.4275743E+004
 -2.2966295E+004
 -2.2860855E+004
 -1.2172187E+004
  2.7055799E+003
 -4.5672938E+004
 -4.1308355E+004
 -4.3672690E+004
 -3.9553097E+004
 -3.6046841E+004
 -3.2321298E+004
 -2.8727594E+004
 -2.5087106E+004
 -2.1282139E+004
 -1.7137960E+004
 -1.2467445E+004
 -7.0458012E+003
 -5.8685883E+002
  6.6875030E+003
  1.8577644E+004
  3.8425095E+003
  6.2250830E+003
  3.5585057E+003
  4.2706298E+003
  3.0843467E+003
  2.4069918E+003
  1.2110478E+003
  3.5829019E+002
 -2.0543728E+002
 -5.4995795E+002
 -6.8069042E+002
 -6.3026495E+002
 -4.2139801E+002
 -7.7008585E+001
  3.7986515E+002
  9.0669499E+002
  1.4687574E+003
  1.9236009E+003
  2.1872151E+003
  1.6427151E+005
  7.6134431E+004
  7.5268152E+004
  4.9780096E+004
  3.7165583E+004
  2.5625040E+004
  1.6574092E+004
  8.4959483E+003
  7.9692085E+002
 -7.0536675E+003
 -1.7553444E+004
 -3.0044308E+004
 -7.1919652E+004
  1.1953791E+003
 -3.5357851E+002
 -5.0060095E+004
 -3.7691147E+004
 -3.5170183E+004
 -3.2950484E+004
 -3.0700350E+004
 -2.8259318E+004
 -2.5723886E+004
 -2.3076397E+004
 -2.0263004E+004
 -1.7223056E+004
 -1.3783867E+004
 -1.0095446E+004
 -4.9879535E+003
 -1.3821401E+003
  1.0331406E+004
  3.0040389E+003
  3.5097562E+003
  1.1670784E+004
  3.4937875E+003
  4.9036876E+003
  2.7217156E+003
  1.7549707E+003
  9.1945373E+002
  4.6532770E+002
  1.9450053E+002
  9.8604301E+001
  1.4383623E+002
  3.1515231E+002
  5.9196614E+002
  9.4898596E+002
  1.2556806E+003
  1.4445885E+003
  2.9136469E+002
  6.1553910E+004
  6.2683993E+004
  4.5256396E+004
  3.7709700E+004
  2.8095362E+004
  2.0432178E+004
  1.3354633E+004
  6.8933105E+003
  2.8882316E+002
 -5.9945052E+003
 -1.6632485E+004
 -1.9366907E+004
 -5.8242242E+004
 -3.1899774E+004
 -2.3374179E+004
 -2.7962487E+004
 -2.6232790E+004
 -2.5623659E+004
 -2.4273743E+004
 -2.2838025E+004
 -2.1222760E+004
 -1.9493904E+004
 -1.7614666E+004
 -1.5670938E+004
 -1.3358761E+004
 -1.1930199E+004
 -6.9322901E+003
 -1.0295511E+004
  4.3294121E+002
  3.4908867E+003
  1.0809639E+004
  3.4979024E+003
  2.7486268E+003
  1.8290421E+003
  1.2755192E+003
  8.6390003E+002
  6.8815025E+002
  5.8730488E+002
  5.9732245E+002
  7.1768661E+002
  9.9469190E+002
  1.3194236E+003
  2.8120294E+003
  3.1424419E+002
  2.6142103E+003
  2.6595638E+004
  2.3668796E+004
  2.2174232E+004
  1.8511913E+004
  1.4209894E+004
  9.7021676E+003
  5.1051187E+003
  5.5043313E+002
 -4.6016701E+003
 -8.4738666E+003
 -1.7467175E+004
 -1.4162920E+004
 -8.6066818E+003
 -1.8766057E+004
 -1.8873267E+004
 -2.0665437E+004
 -2.0678707E+004
 -2.0548253E+004
 -2.0084568E+004
 -1.9501905E+004
 -1.8845908E+004
 -1.8167339E+004
 -1.7572609E+004
 -1.7026285E+004
 -1.7450184E+004
 -1.8200032E+004
 -3.2530942E+004
  2.3212428E+003
  3.5437337E+003
  2.3607774E+003
  2.5904875E+003
  1.6741910E+003
  1.5353797E+003
  1.1931574E+003
  8.9907317E+002
  7.7186479E+002
  7.3874165E+002
  8.7536272E+002
  7.5240332E+002
  1.4571807E+003
 -4.1554783E+004
 -5.0183638E+003
  4.1932727E+003
  9.2026761E+003
  9.4070906E+003
  8.2575014E+003
  6.0626011E+003
  3.4778601E+003
  6.9922861E+002
 -1.8231887E+003
 -4.1650370E+003
 -3.9146438E+003
 -2.4613366E+003
  1.2456265E+004
  7.9834092E+003
 -4.4296913E+003
 -1.0579660E+004
 -1.3443271E+004
 -1.5185363E+004
 -1.6352966E+004
 -1.7023917E+004
 -1.7486280E+004
 -1.7847081E+004
 -1.8215305E+004
 -1.8667333E+004
 -1.9326727E+004
 -2.0180779E+004
 -2.1770526E+004
 -2.1441077E+004
 -2.4175152E+004
 -2.0340763E+003
 -5.3649097E+003
  1.8766405E+003
  1.5327302E+003
  5.1416462E+003
  1.9149942E+003
  1.7388464E+003
  1.6454144E+003
  1.0673014E+003
  8.2656974E+002
  6.9399538E+002
  5.7634950E+002
  6.1497986E+002
  1.0856896E+002
 -2.8217941E+004
 -9.7886152E+004
 -3.6067676E+004
 -2.0206112E+004
 -6.7963564E+003
 -8.5164724E+002
  2.3106840E+003
  3.1585395E+003
  2.8854888E+003
  1.9643017E+003
  8.4715718E+002
 -4.5446256E+001
 -2.7560001E+002
  1.5508889E+003
  6.6765839E+003
  2.3113045E+004
 -1.2629895E+002
 -5.9024158E+003
 -8.4165698E+003
 -1.0742944E+004
 -1.2365114E+004
 -1.3752781E+004
 -1.4976827E+004
 -1.6190949E+004
 -1.7491190E+004
 -1.8990482E+004
 -2.0746585E+004
 -2.3057058E+004
 -2.5328372E+004
 -3.0602215E+004
 -2.8029941E+004
 -4.6747122E+004
  1.4913613E+002
 -2.1513527E+001
  2.9681757E+003
  2.8895242E+003
  9.1348960E+002
  7.7572166E+002
  5.4715303E+002
  4.1559426E+002
  3.7730975E+002
  1.3502425E+002
  4.8371285E+003
 -1.1084491E+005
 -4.0014688E+004
 -2.8159121E+004
 -5.6000956E+004
 -3.6558881E+004
 -2.4708187E+004
 -1.3428286E+004
 -6.9080628E+003
 -2.8610442E+003
 -6.8457284E+002
  3.2113958E+002
  6.6166490E+002
  7.5476069E+002
  9.8483072E+002
  1.8523659E+003
  3.8912428E+003
  7.3126965E+003
  1.1404547E+004
  1.5499159E+004
  1.2201356E+004
 -1.1576480E+003
 -2.6693882E+003
 -4.0723344E+003
 -6.7283847E+003
 -8.6997016E+003
 -1.0622392E+004
 -1.2487198E+004
 -1.4443665E+004
 -1.6580264E+004
 -1.9008565E+004
 -2.1789157E+004
 -2.5225003E+004
 -2.9017644E+004
 -3.5889033E+004
 -4.1479320E+004
 -8.2546611E+004
 -3.5791104E+002
 -2.7073465E+002
  5.4218226E+002
  3.9559103E+002
  9.1811943E+001
  1.0171955E+002
  1.5090698E+003
 -3.9306475E+004
 -1.8205033E+004
  1.2785926E+003
 -2.1151926E+004
 -1.5794782E+004
 -2.3030978E+004
 -2.1746760E+004
 -2.6439536E+004
 -2.6545128E+004
 -2.9538937E+004
 -3.0155128E+004
 -3.2837373E+004
 -3.3811973E+004
 -3.6848047E+004
 -3.7477342E+004
 -4.1052976E+004
 -4.3755015E+004
 -4.9969183E+004
 -4.8538658E+004
 -4.8288374E+004
 -8.4794949E+004
 -5.8438124E+004
 -5.0396539E+004
 -4.4624973E+004
 -3.4104412E+004
 -2.4381953E+004
 -1.6462410E+004
 -1.0351649E+004
 -6.1507034E+003
 -3.3618040E+003
 -1.5698709E+003
 -3.9481525E+002
  5.0153853E+002
  1.4425836E+003
  2.7244223E+003
  4.5881546E+003
  7.2219478E+003
  1.0036755E+004
  1.0442768E+004
  1.1976412E+004
  1.1923790E+004
  3.9975926E+003
 -4.7617455E+002
 -2.8985652E+003
 -5.2370819E+003
 -7.5203901E+003
 -9.9158718E+003
 -1.2509770E+004
 -1.5391437E+004
 -1.8631268E+004
 -2.2343431E+004
 -2.6545683E+004
 -3.1650881E+004
 -3.6618249E+004
 -4.3212300E+004
 -3.6690137E+004
 -2.5177953E+004
 -1.1160550E+003
 -1.2325981E+003
 -4.0026539E+004
 -2.0991091E+004
  5.5796186E+002
 -2.2003679E+004
 -2.9896575E+004
 -2.5856926E+004
 -2.2496626E+004
 -2.2937199E+004
 -2.4344250E+004
 -2.6456344E+004
 -2.8916284E+004
 -3.1686995E+004
 -3.4701001E+004
 -3.8559109E+004
 -4.1214518E+004
 -4.7918538E+004
 -4.7971954E+004
 -4.1691917E+004
 -3.6858966E+004
 -3.0592330E+004
 -2.3507728E+004
 -1.7180493E+004
 -1.2019092E+004
 -8.0143716E+003
 -5.0388620E+003
 -2.8437160E+003
 -1.1752328E+003
  2.1251266E+002
  1.5442664E+003
  3.0123207E+003
  4.7506073E+003
  6.6547964E+003
  8.3477194E+003
  9.8164012E+003
  8.4294400E+003
  6.2720050E+003
  4.8134879E+003
  6.2067321E+003
  2.6141626E+003
  7.4026816E+002
 -1.8111301E+003
 -4.3081647E+003
 -7.1350767E+003
 -1.0295390E+004
 -1.3834344E+004
 -1.7814694E+004
 -2.2297982E+004
 -2.7342559E+004
 -3.2956149E+004
 -3.8919366E+004
 -4.6328806E+004
 -5.4030422E+004
 -8.3321101E+004
  1.5652889E+003
 -5.7299559E+004
 -2.3276028E+004
 -9.8302441E+003
 -2.8924106E+004
 -2.3321953E+004
 -2.5544272E+004
 -2.5045522E+004
 -2.3852154E+004
 -2.3847757E+004
 -2.4719576E+004
 -2.6162971E+004
 -2.7973345E+004
 -3.0041369E+004
 -3.2367407E+004
 -3.4607030E+004
 -3.7304595E+004
 -3.8143239E+004
 -3.8162368E+004
 -3.6068568E+004
 -3.1836145E+004
 -2.6985935E+004
 -2.1832057E+004
 -1.6855612E+004
 -1.2491595E+004
 -8.8641446E+003
 -5.9356022E+003
 -3.5907038E+003
 -1.6733252E+003
 -2.1321185E+001
  1.5146670E+003
  3.0592165E+003
  4.6523844E+003
  6.3201166E+003
  7.7954556E+003
  9.5338831E+003
  1.0864372E+004
  2.0995168E+004
 -3.1188512E+002
  4.5337836E+003
  3.5688039E+003
  1.9374135E+003
 -7.9159092E+002
 -4.0345897E+003
 -7.6979236E+003
 -1.1836769E+004
 -1.6488143E+004
 -2.1705467E+004
 -2.7502129E+004
 -3.3995615E+004
 -4.0780857E+004
 -4.8585146E+004
 -4.8774467E+004
 -5.5981661E+004
  1.4441979E+003
 -7.8389666E+003
  1.2495952E+001
 -5.4416156E+004
 -2.7474293E+004
  1.1784838E+003
 -2.7889667E+004
 -3.9694338E+004
 -3.3049225E+004
 -2.9377472E+004
 -2.7820945E+004
 -2.5677387E+004
 -2.4459892E+004
 -2.4242442E+004
 -2.3958867E+004
 -2.3916861E+004
 -2.4497309E+004
 -2.5480780E+004
 -2.6761564E+004
 -2.8240087E+004
 -2.9785761E+004
 -3.1361716E+004
 -3.2509936E+004
 -3.3293856E+004
 -3.2642994E+004
 -3.0553077E+004
 -2.7596843E+004
 -2.3893426E+004
 -1.9883408E+004
 -1.5914364E+004
 -1.2242970E+004
 -9.0136879E+003
 -6.2517194E+003
 -3.9103847E+003
 -1.9053202E+003
 -1.3802781E+002
  1.4856156E+003
  3.0350562E+003
  4.5509554E+003
  5.9989607E+003
  7.3985468E+003
  8.5569837E+003
  9.5493634E+003
  8.1761886E+003
  4.5478015E+003
  6.1846298E+002
 -1.8480927E+002
  1.7115586E+004
  9.7080803E+003
  6.5777211E+003
  3.0811359E+003
 -4.7475745E+002
 -4.6221632E+003
 -9.3275944E+003
 -1.4603937E+004
 -2.0491552E+004
 -2.7093847E+004
 -3.4351788E+004
 -4.2881543E+004
 -5.0509702E+004
 -6.5964279E+004
 -5.5777590E+004
 -1.0765298E+005
  1.7100943E+003
 -6.0511972E+004
 -2.8907800E+004
  1.7924484E+003
 -2.9034307E+004
 -4.0306474E+004
 -3.4327869E+004
 -2.9120769E+004
 -3.1209666E+004
 -3.0728587E+004
 -2.7949572E+004
 -2.6480208E+004
 -2.5248137E+004
 -2.4407655E+004
 -2.3848535E+004
 -2.3531369E+004
 -2.3537090E+004
 -2.3858371E+004
 -2.4498267E+004
 -2.5352090E+004
 -2.6326199E+004
 -2.7328342E+004
 -2.8195309E+004
 -2.8799664E+004
 -2.8764481E+004
 -2.8018075E+004
 -2.6426838E+004
 -2.4023863E+004
 -2.1108733E+004
 -1.7908941E+004
 -1.4661589E+004
 -1.1552918E+004
 -8.6989405E+003
 -6.1480675E+003
 -3.8943868E+003
 -1.8991844E+003
 -1.0907986E+002
  1.5287429E+003
  3.0544306E+003
  4.4843226E+003
  5.8116146E+003
  7.0156305E+003
  8.0082664E+003
  9.2450758E+003
  1.0378226E+004
  1.6044031E+004
  3.9567164E+003
  9.8083676E+003
  1.0219860E+004
  7.5221856E+003
  3.6802415E+003
 -1.0206879E+003
 -6.2413993E+003
 -1.2096430E+004
 -1.8608702E+004
 -2.5874306E+004
 -3.4004862E+004
 -4.3448524E+004
 -5.4485934E+004
 -7.0715197E+004
 -9.5562676E+004
 -1.7615886E+005
  2.5784207E+003
 -4.3585289E+004
 -1.9859695E+004
  1.5169227E+003
 -2.3423429E+004
 -1.6724132E+004
 -2.5669011E+004
 -2.4687593E+004
 -3.2040555E+004
 -3.0056140E+004
 -3.1363307E+004
 -5.2455233E+004
 -3.8185560E+004
 -3.0960443E+004
 -3.2571180E+004
 -3.1559787E+004
 -2.9666353E+004
 -2.8365480E+004
 -2.7798633E+004
 -2.6849891E+004
 -2.5505584E+004
 -2.4479703E+004
 -2.3676369E+004
 -2.3139832E+004
 -2.2841916E+004
 -2.2764797E+004
 -2.2931594E+004
 -2.3301264E+004
 -2.3819245E+004
 -2.4405373E+004
 -2.4963002E+004
 -2.5386481E+004
 -2.5519324E+004
 -2.5245980E+004
 -2.4401288E+004
 -2.2955508E+004
 -2.0988275E+004
 -1.8608204E+004
 -1.5983247E+004
 -1.3271413E+004
 -1.0606412E+004
 -8.0817513E+003
 -5.7481061E+003
 -3.6202100E+003
 -1.6877465E+003
  7.2333857E+001
  1.6848855E+003
  3.1670917E+003
  4.5231419E+003
  5.7404796E+003
  6.7935335E+003
  7.6829057E+003
  8.2778831E+003
  8.0459566E+003
  7.0379912E+003
 -1.4020914E+001
  1.1935787E+002
 -7.8755361E+001
  3.2690056E+004
  1.8017715E+004
  1.3512844E+004
  8.2135956E+003
  3.2258687E+003
 -2.5356429E+003
 -8.9324693E+003
 -1.5983866E+004
 -2.3761649E+004
 -3.2458160E+004
 -4.2302675E+004
 -5.4134817E+004
 -6.7929783E+004
 -8.3897759E+004
 -9.5895166E+004
 -9.2412960E+004
 -7.3333093E+004
  2.0686526E+003
 -4.2544358E+004
 -2.0269470E+004
  8.7129146E+002
 -2.5114158E+004
 -1.7124865E+004
 -2.3919359E+004
 -3.6399495E+004
 -2.9211825E+004
 -2.4702541E+004
 -2.5069269E+004
 -2.6855309E+004
 -2.8580834E+004
 -3.2856434E+004
 -3.2730107E+004
 -3.0848829E+004
 -2.9434960E+004
 -2.8930494E+004
 -2.8007832E+004
 -2.7122829E+004
 -2.6271233E+004
 -2.5261055E+004
 -2.4318572E+004
 -2.3441237E+004
 -2.2750974E+004
 -2.2237845E+004
 -2.1908100E+004
 -2.1765601E+004
 -2.1791762E+004
 -2.1960671E+004
 -2.2221088E+004
 -2.2507997E+004
 -2.2744300E+004
 -2.2838507E+004
 -2.2698027E+004
 -2.2219410E+004
 -2.1344566E+004
 -2.0047616E+004
 -1.8355873E+004
 -1.6354100E+004
 -1.4144133E+004
 -1.1834242E+004
 -9.5197167E+003
 -7.2735299E+003
 -5.1427316E+003
 -3.1508304E+003
 -1.3039762E+003
  4.0140669E+002
  1.9709810E+003
  3.4058992E+003
  4.6988485E+003
  5.8299939E+003
  6.7816655E+003
  7.4895649E+003
  7.9674405E+003
  8.1021725E+003
  8.2114649E+003
  7.0983188E+003
  8.2058802E+003
  1.6327356E+004
  1.7484686E+004
  1.3491797E+004
  8.1759621E+003
  1.7790888E+003
 -5.1102765E+003
 -1.2623556E+004
 -2.0771261E+004
 -2.9648544E+004
 -3.9531082E+004
 -5.0430721E+004
 -6.3168193E+004
 -7.7223619E+004
 -9.6281999E+004
 -9.9869005E+004
 -1.9527025E+005
 -6.7593634E+004
  4.2419879E+003
 -5.8863315E+004
 -2.7217616E+004
  3.0391712E+003
 -2.6988834E+004
 -3.2214811E+004
 -2.9615378E+004
 -2.5734328E+004
 -2.5256047E+004
 -2.7501784E+004
 -2.7262523E+004
 -2.5881667E+004
 -2.5785315E+004
 -2.6436379E+004
 -2.7883970E+004
 -2.8492559E+004
 -2.9088560E+004
 -2.8577234E+004
 -2.7868528E+004
 -2.7123365E+004
 -2.6301042E+004
 -2.5460016E+004
 -2.4631642E+004
 -2.3824431E+004
 -2.2999939E+004
 -2.2257800E+004
 -2.1627093E+004
 -2.1138831E+004
 -2.0795372E+004
 -2.0590766E+004
 -2.0511758E+004
 -2.0528161E+004
 -2.0597025E+004
 -2.0663333E+004
 -2.0663711E+004
 -2.0531497E+004
 -2.0199260E+004
 -1.9610555E+004
 -1.8722251E+004
 -1.7523184E+004
 -1.6035790E+004
 -1.4307328E+004
 -1.2405134E+004
 -1.0401605E+004
 -8.3646102E+003
 -6.3500043E+003
 -4.3985726E+003
 -2.5365400E+003
 -7.7881835E+002
  8.6623617E+002
  2.3915345E+003
  3.7868304E+003
  5.0340289E+003
  6.1100257E+003
  6.9711462E+003
  7.6148303E+003
  7.9285714E+003
  8.3594279E+003
  7.6459213E+003
  1.1184141E+004
  5.0061311E+002
  4.9563678E+004
  2.6964921E+004
  2.0844199E+004
  1.3439697E+004
  6.7865255E+003
 -6.9605450E+002
 -8.6343007E+003
 -1.7021940E+004
 -2.5914593E+004
 -3.5403625E+004
 -4.5628313E+004
 -5.6798154E+004
 -6.8289683E+004
 -8.0679232E+004
 -9.1653793E+004
 -1.1071203E+005
 -7.1400074E+004
 -1.3927957E+005
 -7.6807375E+004
 -5.9333669E+004
 -5.6994217E+004
 -5.4932458E+004
 -5.0706407E+004
 -4.5393998E+004
 -4.5609820E+004
 -4.2317779E+004
 -4.2989357E+004
 -4.1304031E+004
 -4.3639898E+004
 -4.0179434E+004
 -3.8940805E+004
 -5.7232333E+004
 -4.1841278E+004
 -3.2465312E+004
 -3.1726880E+004
 -2.9805710E+004
 -2.7384940E+004
 -2.6681260E+004
 -2.6154570E+004
 -2.6131099E+004
 -2.5773358E+004
 -2.5529146E+004
 -2.5859765E+004
 -2.6304042E+004
 -2.6873357E+004
 -2.6875620E+004
 -2.6515120E+004
 -2.5935553E+004
 -2.5281215E+004
 -2.4585162E+004
 -2.3844602E+004
 -2.3092000E+004
 -2.2334675E+004
 -2.1613935E+004
 -2.0947553E+004
 -2.0370783E+004
 -1.9899526E+004
 -1.9541361E+004
 -1.9292027E+004
 -1.9135425E+004
 -1.9043442E+004
 -1.8976194E+004
 -1.8884017E+004
 -1.8715643E+004
 -1.8422414E+004
 -1.7960228E+004
 -1.7295868E+004
 -1.6407659E+004
 -1.5290469E+004
 -1.3955996E+004
 -1.2434379E+004
 -1.0767219E+004
 -9.0023541E+003
 -7.1870534E+003
 -5.3633002E+003
 -3.5650735E+003
 -1.8180227E+003
 -1.4105736E+002
  1.4507040E+003
  2.9423372E+003
  4.3151649E+003
  5.5438628E+003
  6.5930031E+003
  7.4161493E+003
  7.9631895E+003
  8.1802433E+003
  8.1322460E+003
  8.1803521E+003
  9.5082226E+003
  1.2864034E+004
  2.3136756E+004
  2.5181276E+004
  1.9681902E+004
  1.2432352E+004
  4.1685046E+003
 -4.1943804E+003
 -1.2766108E+004
 -2.1552977E+004
 -3.0610450E+004
 -3.9979358E+004
 -4.9589551E+004
 -5.9281578E+004
 -6.8432633E+004
 -7.6195386E+004
 -8.2228404E+004
 -7.9253625E+004
 -6.1938478E+004
 -5.6761320E+004
 -4.9695184E+004
 -4.5573394E+004
 -4.2906783E+004
 -4.0576411E+004
 -4.1137558E+004
 -3.7989151E+004
 -3.3913004E+004
 -3.1050867E+004
 -2.9334385E+004
 -2.7888332E+004
 -2.6687805E+004
 -2.6176000E+004
 -2.5664193E+004
 -2.5228700E+004
 -2.4996208E+004
 -2.4939079E+004
 -2.5053219E+004
 -2.5072507E+004
 -2.4974282E+004
 -2.4647006E+004
 -2.4153574E+004
 -2.3561009E+004
 -2.2906211E+004
 -2.2221826E+004
 -2.1523096E+004
 -2.0832837E+004
 -2.0166575E+004
 -1.9551303E+004
 -1.9006185E+004
 -1.8546946E+004
 -1.8179435E+004
 -1.7900220E+004
 -1.7694235E+004
 -1.7534633E+004
 -1.7379114E+004
 -1.7182068E+004
 -1.6895068E+004
 -1.6480619E+004
 -1.5923081E+004
 -1.5205375E+004
 -1.4323726E+004
 -1.3274065E+004
 -1.2063753E+004
 -1.0706807E+004
 -9.2269571E+003
 -7.6534076E+003
 -6.0178703E+003
 -4.3510370E+003
 -2.6804142E+003
 -1.0294700E+003
  5.8181871E+002
  2.1352832E+003
  3.6118406E+003
  4.9884788E+003
  6.2332107E+003
  7.3030440E+003
  8.1369044E+003
  8.6326913E+003
  8.7023715E+003
  8.1111980E+003
  6.7841489E+003
  3.5234267E+003
 -3.2932400E+003
 -2.5410092E+003
  9.4673473E+002
  6.6841070E+004
  3.6886523E+004
  2.8370195E+004
  1.8139570E+004
  9.3378803E+003
  4.5070204E+002
 -8.2917994E+003
 -1.6931746E+004
 -2.5517050E+004
 -3.4041493E+004
 -4.2397611E+004
 -5.0299542E+004
 -5.7264249E+004
 -6.3077669E+004
 -6.5082894E+004
 -6.1606698E+004
 -5.8323778E+004
 -5.2005921E+004
 -4.7854636E+004
 -4.4194092E+004
 -4.1457282E+004
 -3.9651138E+004
 -3.7401343E+004
 -3.5547659E+004
 -3.3091181E+004
 -3.0866220E+004
 -2.9107586E+004
 -2.7626908E+004
 -2.6535756E+004
 -2.5666832E+004
 -2.5051052E+004
 -2.4557027E+004
 -2.4179382E+004
 -2.3939969E+004
 -2.3763011E+004
 -2.3593501E+004
 -2.3323480E+004
 -2.2939640E+004
 -2.2449859E+004
 -2.1882167E+004
 -2.1264589E+004
 -2.0615691E+004
 -1.9955458E+004
 -1.9300360E+004
 -1.8670463E+004
 -1.8083292E+004
 -1.7556510E+004
 -1.7102906E+004
 -1.6729590E+004
 -1.6434895E+004
 -1.6207868E+004
 -1.6018624E+004
 -1.5828069E+004
 -1.5567055E+004
 -1.5190924E+004
 -1.4688414E+004
 -1.4041999E+004
 -1.3282265E+004
 -1.2405320E+004
 -1.1419836E+004
 -1.0317827E+004
 -9.1023096E+003
 -7.7802189E+003
 -6.3663415E+003
 -4.8798908E+003
 -3.3425123E+003
 -1.7760649E+003
 -2.0129874E+002
  1.3624664E+003
  2.8965546E+003
  4.3814146E+003
  5.7929445E+003
  7.1006872E+003
  8.2514557E+003
  9.1806315E+003
  9.7659213E+003
  9.7166272E+003
  8.7370879E+003
  7.2288428E+003
  7.2309315E+003
 -1.3397380E+003
  1.6178421E+004
  3.2125958E+004
  3.4586482E+004
  2.4177764E+004
  1.4561429E+004
  4.9164983E+003
 -3.9132825E+003
 -1.2372701E+004
 -2.0481332E+004
 -2.8264048E+004
 -3.5613513E+004
 -4.2309357E+004
 -4.8078175E+004
 -5.2182914E+004
 -5.4223617E+004
 -5.3826242E+004
 -5.0786584E+004
 -4.7825799E+004
 -4.4570164E+004
 -4.1862765E+004
 -3.9568712E+004
 -3.7547074E+004
 -3.5848043E+004
 -3.3884549E+004
 -3.1897418E+004
 -3.0048866E+004
 -2.8436015E+004
 -2.7100366E+004
 -2.5974510E+004
 -2.5080773E+004
 -2.4341855E+004
 -2.3739321E+004
 -2.3251200E+004
 -2.2849878E+004
 -2.2505671E+004
 -2.2161471E+004
 -2.1782173E+004
 -2.1337842E+004
 -2.0826662E+004
 -2.0259904E+004
 -1.9652596E+004
 -1.9021072E+004
 -1.8379882E+004
 -1.7744684E+004
 -1.7130915E+004
 -1.6555266E+004
 -1.6033278E+004
 -1.5578747E+004
 -1.5201041E+004
 -1.4904095E+004
 -1.4679221E+004
 -1.4512522E+004
 -1.4331013E+004
 -1.4080364E+004
 -1.3655238E+004
 -1.3013394E+004
 -1.2287591E+004
 -1.1462615E+004
 -1.0604175E+004
 -9.6793181E+003
 -8.6866020E+003
 -7.6038774E+003
 -6.4252499E+003
 -5.1517261E+003
 -3.7927482E+003
 -2.3630002E+003
 -8.8000668E+002
  6.3788450E+002
  2.1726936E+003
  3.7070845E+003
  5.2232243E+003
  6.7027235E+003
  8.1173952E+003
  9.4429998E+003
  1.0570534E+004
  1.1447202E+004
  1.1800445E+004
  1.0983298E+004
  6.8649723E+003
  1.3616955E+003
 -3.3007427E+003
  9.5697996E+004
  4.6417571E+004
  3.1585292E+004
  1.8525416E+004
  8.8928625E+003
 -9.1591688E+000
 -8.1382182E+003
 -1.5776495E+004
 -2.2915449E+004
 -2.9488274E+004
 -3.5339580E+004
 -4.0194608E+004
 -4.3785027E+004
 -4.5705187E+004
 -4.5909369E+004
 -4.5004612E+004
 -4.3141828E+004
 -4.1131269E+004
 -3.9113140E+004
 -3.7252189E+004
 -3.5547264E+004
 -3.3860409E+004
 -3.2227149E+004
 -3.0583921E+004
 -2.9009714E+004
 -2.7581375E+004
 -2.6314822E+004
 -2.5227208E+004
 -2.4290963E+004
 -2.3496039E+004
 -2.2814305E+004
 -2.2225553E+004
 -2.1709710E+004
 -2.1237668E+004
 -2.0780542E+004
 -2.0307708E+004
 -1.9802264E+004
 -1.9257476E+004
 -1.8675959E+004
 -1.8065606E+004
 -1.7436243E+004
 -1.6799300E+004
 -1.6167080E+004
 -1.5553472E+004
 -1.4973348E+004
 -1.4442697E+004
 -1.3977200E+004
 -1.3592524E+004
 -1.3299122E+004
 -1.3105777E+004
 -1.2988843E+004
 -1.2955011E+004
 -1.2732555E+004
 -1.2178424E+004
 -1.1512464E+004
 -1.0584699E+004
 -9.7236411E+003
 -8.8450323E+003
 -8.0156598E+003
 -7.1430626E+003
 -6.2017602E+003
 -5.1646964E+003
 -4.0224209E+003
 -2.7763426E+003
 -1.4366781E+003
 -1.8798727E+001
  1.4601688E+003
  2.9834536E+003
  4.5355191E+003
  6.1027109E+003
  7.6710657E+003
  9.2365042E+003
  1.0770915E+004
  1.2352968E+004
  1.3696557E+004
  1.4824679E+004
  1.2465277E+004
  6.1433718E+003
  4.1375453E+003
  8.0018953E+004
  3.8632087E+004
  3.3984947E+004
  2.0521893E+004
  1.1791430E+004
  3.2295608E+003
 -4.4206905E+003
 -1.1562742E+004
 -1.8134745E+004
 -2.4099185E+004
 -2.9328936E+004
 -3.3668975E+004
 -3.6919183E+004
 -3.8974349E+004
 -3.9840068E+004
 -3.9647968E+004
 -3.8827052E+004
 -3.7599624E+004
 -3.6228131E+004
 -3.4816986E+004
 -3.3406288E+004
 -3.2010400E+004
 -3.0592785E+004
 -2.9184531E+004
 -2.7821431E+004
 -2.6540038E+004
 -2.5369070E+004
 -2.4312881E+004
 -2.3373415E+004
 -2.2537856E+004
 -2.1794680E+004
 -2.1128854E+004
 -2.0522960E+004
 -1.9957769E+004
 -1.9411559E+004
 -1.8865796E+004
 -1.8306058E+004
 -1.7725009E+004
 -1.7121201E+004
 -1.6497364E+004
 -1.5859077E+004
 -1.5213826E+004
 -1.4571108E+004
 -1.3942479E+004
 -1.3342118E+004
 -1.2786473E+004
 -1.2295529E+004
 -1.1889737E+004
 -1.1598617E+004
 -1.1441652E+004
 -1.1458746E+004
 -1.1580929E+004
 -1.1873033E+004
 -1.1388956E+004
 -9.9287209E+003
 -8.9712206E+003
 -7.8661739E+003
 -7.1078824E+003
 -6.3774734E+003
 -5.6688696E+003
 -4.8937167E+003
 -4.0099722E+003
 -2.9971536E+003
 -1.8534266E+003
 -5.8855986E+002
  7.8137764E+002
  2.2382231E+003
  3.7654443E+003
  5.3494948E+003
  6.9797855E+003
  8.6498977E+003
  1.0355755E+004
  1.2138427E+004
  1.4003440E+004
  1.6597904E+004
  2.0623828E+004
  3.5167229E+004
  2.1019968E+003
  4.7401477E+004
  4.1227619E+004
  2.9528367E+004
  2.1839029E+004
  1.3411862E+004
  5.8540850E+003
 -1.2898527E+003
 -7.8960551E+003
 -1.3969752E+004
 -1.9438487E+004
 -2.4217733E+004
 -2.8199125E+004
 -3.1288654E+004
 -3.3422838E+004
 -3.4630752E+004
 -3.5054340E+004
 -3.4851803E+004
 -3.4243722E+004
 -3.3380178E+004
 -3.2373346E+004
 -3.1282810E+004
 -3.0132416E+004
 -2.8946937E+004
 -2.7743087E+004
 -2.6549599E+004
 -2.5396159E+004
 -2.4303789E+004
 -2.3286692E+004
 -2.2348154E+004
 -2.1487414E+004
 -2.0698094E+004
 -1.9971358E+004
 -1.9295886E+004
 -1.8658010E+004
 -1.8043364E+004
 -1.7438066E+004
 -1.6831150E+004
 -1.6215143E+004
 -1.5586212E+004
 -1.4943573E+004
 -1.4288857E+004
 -1.3625930E+004
 -1.2961020E+004
 -1.2303425E+004
 -1.1665921E+004
 -1.1066522E+004
 -1.0526141E+004
 -1.0076439E+004
 -9.7482159E+003
 -9.6149852E+003
 -9.7817591E+003
 -1.0288699E+004
 -1.1666995E+004
 -9.2146211E+003
 -8.9221750E+003
 -7.2656707E+003
 -5.9614516E+003
 -5.2004005E+003
 -4.7281764E+003
 -4.2660155E+003
 -3.6963394E+003
 -2.9821845E+003
 -2.1020622E+003
 -1.0520948E+003
  1.5458285E+002
  1.4946950E+003
  2.9459521E+003
  4.4906086E+003
  6.1177780E+003
  7.8175070E+003
  9.5964494E+003
  1.1410363E+004
  1.3392476E+004
  1.5103330E+004
  1.8192990E+004
  1.6711488E+004
  2.9821407E+004
  3.9498832E+004
  3.2697399E+004
  2.8496202E+004
  2.1516895E+004
  1.4771810E+004
  7.8822070E+003
  1.3568389E+003
 -4.7767041E+003
 -1.0405117E+004
 -1.5469532E+004
 -1.9899282E+004
 -2.3628980E+004
 -2.6603524E+004
 -2.8804114E+004
 -3.0259400E+004
 -3.1047435E+004
 -3.1297240E+004
 -3.1133973E+004
 -3.0677671E+004
 -3.0016508E+004
 -2.9211490E+004
 -2.8303820E+004
 -2.7320743E+004
 -2.6289843E+004
 -2.5237535E+004
 -2.4188746E+004
 -2.3164853E+004
 -2.2180788E+004
 -2.1246345E+004
 -2.0365592E+004
 -1.9538802E+004
 -1.8762658E+004
 -1.8030942E+004
 -1.7335210E+004
 -1.6665562E+004
 -1.6011995E+004
 -1.5365355E+004
 -1.4718184E+004
 -1.4064915E+004
 -1.3401796E+004
 -1.2726830E+004
 -1.2039963E+004
 -1.1343751E+004
 -1.0644071E+004
 -9.9527243E+003
 -9.2850833E+003
 -8.6738468E+003
 -8.1284890E+003
 -7.7494642E+003
 -7.3864439E+003
 -7.8588065E+003
 -7.5924182E+003
 -1.6078513E+004
 -1.1973803E+004
 -6.8778401E+003
 -5.3064912E+003
 -2.9293584E+003
 -3.2337182E+003
 -3.0867961E+003
 -2.9381527E+003
 -2.6380132E+003
 -2.1294592E+003
 -1.3802914E+003
 -4.0655063E+002
  7.6428344E+002
  2.0969883E+003
  3.5600932E+003
  5.1339513E+003
  6.8098539E+003
  8.5893476E+003
  1.0463798E+004
  1.2462468E+004
  1.4417594E+004
  1.6529569E+004
  1.7544985E+004
  1.9403145E+004
  1.4664550E+004
  2.7699633E+004
  3.0236224E+004
  2.7145912E+004
  2.2052909E+004
  1.5908713E+004
  9.6874595E+003
  3.5687192E+003
 -2.1515976E+003
 -7.4085795E+003
 -1.2133766E+004
 -1.6281788E+004
 -1.9811406E+004
 -2.2695949E+004
 -2.4930406E+004
 -2.6541355E+004
 -2.7588171E+004
 -2.8150031E+004
 -2.8318962E+004
 -2.8179466E+004
 -2.7803299E+004
 -2.7245598E+004
 -2.6547558E+004
 -2.5742448E+004
 -2.4858356E+004
 -2.3921676E+004
 -2.2956938E+004
 -2.1985644E+004
 -2.1025700E+004
 -2.0090611E+004
 -1.9189865E+004
 -1.8328879E+004
 -1.7509438E+004
 -1.6730010E+004
 -1.5986251E+004
 -1.5271783E+004
 -1.4579036E+004
 -1.3900108E+004
 -1.3227309E+004
 -1.2553428E+004
 -1.1871838E+004
 -1.1176679E+004
 -1.0463352E+004
 -9.7296225E+003
 -8.9773784E+003
 -8.2130504E+003
 -7.4575564E+003
 -6.7258992E+003
 -6.0829964E+003
 -5.4927647E+003
 -5.1087058E+003
 -4.5643761E+003
 -3.7069958E+003
 -1.7316346E+003
  1.7119463E+003
  6.4626691E+002
 -1.0194654E+003
 -1.4057093E+003
 -1.8657894E+003
 -1.8272005E+003
 -1.4774804E+003
 -8.7423339E+002
  3.7563803E+001
  1.2124483E+003
  2.5703089E+003
  4.0622867E+003
  5.6742684E+003
  7.4014282E+003
  9.2513890E+003
  1.1252429E+004
  1.3392307E+004
  1.5776425E+004
  1.7939051E+004
  1.9401050E+004
  1.6426099E+004
 -8.6095754E+002
 -4.8975025E+002
  2.6282479E+004
  2.7797434E+004
  2.3559445E+004
  1.7482471E+004
  1.1254230E+004
  5.4170364E+003
 -2.9543150E+000
 -4.9414407E+003
 -9.3763764E+003
 -1.3282176E+004
 -1.6639749E+004
 -1.9438028E+004
 -2.1681017E+004
 -2.3391430E+004
 -2.4610857E+004
 -2.5396457E+004
 -2.5811264E+004
 -2.5917897E+004
 -2.5771881E+004
 -2.5419745E+004
 -2.4899665E+004
 -2.4243448E+004
 -2.3479445E+004
 -2.2633881E+004
 -2.1731462E+004
 -2.0795189E+004
 -1.9845673E+004
 -1.8900653E+004
 -1.7974390E+004
 -1.7077398E+004
 -1.6216194E+004
 -1.5393380E+004
 -1.4608019E+004
 -1.3856288E+004
 -1.3132287E+004
 -1.2428758E+004
 -1.1737518E+004
 -1.1049633E+004
 -1.0355426E+004
 -9.6446542E+003
 -8.9071798E+003
 -8.1341048E+003
 -7.3207514E+003
 -6.4708727E+003
 -5.5875941E+003
 -4.7423739E+003
 -3.9246171E+003
 -3.2743758E+003
 -2.4789442E+003
 -1.7326777E+003
 -2.8243345E+003
 -8.3975416E+000
 -3.5315616E+002
 -8.2181121E+002
 -1.2177455E+003
 -1.1908069E+003
 -7.3274168E+002
  2.2942330E+002
  1.4904867E+003
  2.8996896E+003
  4.4476102E+003
  6.0987979E+003
  7.8663386E+003
  9.7743886E+003
  1.1851716E+004
  1.4223265E+004
  1.6847311E+004
  2.0657146E+004
  2.5364787E+004
  4.0641896E+004
 -3.3185583E+003
 -2.5313073E+003
  6.3727228E+004
  3.6190823E+004
  2.6701229E+004
  1.8789265E+004
  1.2530619E+004
  6.8137910E+003
  1.6728278E+003
 -2.9806676E+003
 -7.1475059E+003
 -1.0831113E+004
 -1.4027290E+004
 -1.6735871E+004
 -1.8964362E+004
 -2.0731565E+004
 -2.2067958E+004
 -2.3013038E+004
 -2.3611618E+004
 -2.3908770E+004
 -2.3946549E+004
 -2.3762135E+004
 -2.3387846E+004
 -2.2852379E+004
 -2.2182221E+004
 -2.1402960E+004
 -2.0539888E+004
 -1.9617942E+004
 -1.8661190E+004
 -1.7691916E+004
 -1.6729649E+004
 -1.5790116E+004
 -1.4884533E+004
 -1.4019294E+004
 -1.3196171E+004
 -1.2413101E+004
 -1.1665116E+004
 -1.0945140E+004
 -1.0244398E+004
 -9.5521831E+003
 -8.8555628E+003
 -8.1393298E+003
 -7.3864329E+003
 -6.5794839E+003
 -5.7017039E+003
 -4.7472465E+003
 -3.7341018E+003
 -2.5946715E+003
 -1.6200426E+003
 -8.1317357E+002
 -5.8931891E+001
 -5.4532481E+002
  2.6826823E+001
 -4.2616385E+002
 -1.7775436E+003
 -7.3094038E+002
 -1.0743226E+003
  2.0431978E+002
  1.5398077E+003
  3.1235496E+003
  4.7184980E+003
  6.4095502E+003
  8.1937803E+003
  1.0114843E+004
  1.2205704E+004
  1.4645646E+004
  1.7319594E+004
  2.1709262E+004
  2.3668831E+004
  3.9152700E+004
  5.7985096E+004
  3.0372358E+004
  2.7966215E+004
  1.8858849E+004
  1.3214205E+004
  7.6610644E+003
  2.8573875E+003
 -1.5046700E+003
 -5.4020957E+003
 -8.8673238E+003
 -1.1902557E+004
 -1.4513867E+004
 -1.6709149E+004
 -1.8502831E+004
 -1.9916099E+004
 -2.0976040E+004
 -2.1713161E+004
 -2.2158893E+004
 -2.2343383E+004
 -2.2294409E+004
 -2.2037373E+004
 -2.1596116E+004
 -2.0994173E+004
 -2.0255905E+004
 -1.9407203E+004
 -1.8475526E+004
 -1.7489212E+004
 -1.6476189E+004
 -1.5462147E+004
 -1.4468859E+004
 -1.3512547E+004
 -1.2603085E+004
 -1.1744311E+004
 -1.0934906E+004
 -1.0169980E+004
 -9.4423708E+003
 -8.7427056E+003
 -8.0590157E+003
 -7.3752966E+003
 -6.6706303E+003
 -5.9197810E+003
 -5.0943029E+003
 -4.1648620E+003
 -3.0916669E+003
 -1.8783048E+003
 -6.8357495E+002
  6.1729876E+002
  1.3696119E+003
  1.1926374E+003
 -2.5482618E+002
 -1.1204193E+003
 -3.1019664E+003
 -1.8933719E+002
  1.5819962E+003
  3.2516181E+003
  4.9185070E+003
  6.6204787E+003
  8.3916982E+003
  1.0266742E+004
  1.2283731E+004
  1.4557300E+004
  1.7102126E+004
  2.0685656E+004
  2.3355122E+004
  3.4689671E+004
  3.5798736E+004
  3.3818230E+004
  2.3921050E+004
  1.8799926E+004
  1.2885188E+004
  8.0112592E+003
  3.5333439E+003
 -4.7457497E+002
 -4.0935415E+003
 -7.3321060E+003
 -1.0202076E+004
 -1.2707856E+004
 -1.4855613E+004
 -1.6654449E+004
 -1.8117575E+004
 -1.9261731E+004
 -2.0105983E+004
 -2.0670154E+004
 -2.0973624E+004
 -2.1034755E+004
 -2.0871145E+004
 -2.0500599E+004
 -1.9942519E+004
 -1.9219339E+004
 -1.8357523E+004
 -1.7387760E+004
 -1.6344002E+004
 -1.5261409E+004
 -1.4173897E+004
 -1.3110584E+004
 -1.2093531E+004
 -1.1136208E+004
 -1.0243099E+004
 -9.4122602E+003
 -8.6377259E+003
 -7.9115775E+003
 -7.2252439E+003
 -6.5662787E+003
 -5.9160181E+003
 -5.2482316E+003
 -4.5276886E+003
 -3.7133860E+003
 -2.7576865E+003
 -1.6269052E+003
 -1.1677478E+002
  1.8151953E+003
  6.0412776E+003
  1.2507620E+003
 -1.3097587E+003
 -6.0794232E+002
  1.6986639E+003
  3.4039520E+003
  5.0829699E+003
  6.7621297E+003
  8.4870944E+003
  1.0272440E+004
  1.2125722E+004
  1.4110720E+004
  1.6146848E+004
  1.8774781E+004
  2.1865036E+004
  3.0355972E+004
  4.4120020E+004
  2.5771322E+004
  2.3697065E+004
  1.6757057E+004
  1.2248183E+004
  7.7513462E+003
  3.7951970E+003
  1.5124250E+002
 -3.1610976E+003
 -6.1664870E+003
 -8.8654506E+003
 -1.1259952E+004
 -1.3350997E+004
 -1.5141807E+004
 -1.6637972E+004
 -1.7847269E+004
 -1.8778796E+004
 -1.9442036E+004
 -1.9846143E+004
 -1.9999806E+004
 -1.9911858E+004
 -1.9592646E+004
 -1.9056017E+004
 -1.8321465E+004
 -1.7415888E+004
 -1.6374028E+004
 -1.5237437E+004
 -1.4051755E+004
 -1.2861296E+004
 -1.1705994E+004
 -1.0615277E+004
 -9.6050003E+003
 -8.6797850E+003
 -7.8336821E+003
 -7.0569543E+003
 -6.3415888E+003
 -5.6795884E+003
 -5.0630805E+003
 -4.4741189E+003
 -3.8785280E+003
 -3.2295339E+003
 -2.4757190E+003
 -1.5289008E+003
 -4.0489648E+002
  1.0718512E+003
  1.6855814E+003
  2.1032031E+003
  4.4904385E+002
  2.3660454E+003
  3.5779139E+003
  5.2406188E+003
  6.8563174E+003
  8.5248400E+003
  1.0198559E+004
  1.1877999E+004
  1.3485835E+004
  1.5034848E+004
  1.5974459E+004
  1.5793928E+004
  1.1028033E+004
 -3.1794107E+003
 -4.6970225E+003
  3.9679547E+004
  2.5803772E+004
  1.9547483E+004
  1.4890069E+004
  1.0860569E+004
  7.1514115E+003
  3.6892274E+003
  4.6029592E+002
 -2.5395667E+003
 -5.3061562E+003
 -7.8335501E+003
 -1.0115428E+004
 -1.2146649E+004
 -1.3923801E+004
 -1.5445227E+004
 -1.6710535E+004
 -1.7719841E+004
 -1.8472983E+004
 -1.8969036E+004
 -1.9206409E+004
 -1.9183791E+004
 -1.8902119E+004
 -1.8367476E+004
 -1.7594687E+004
 -1.6610380E+004
 -1.5454966E+004
 -1.4180634E+004
 -1.2846046E+004
 -1.1513930E+004
 -1.0236779E+004
 -9.0544665E+003
 -7.9891075E+003
 -7.0368642E+003
 -6.1851163E+003
 -5.4162168E+003
 -4.7165846E+003
 -4.0911013E+003
 -3.5381777E+003
 -3.0395584E+003
 -2.5617498E+003
 -2.0431778E+003
 -1.4025145E+003
 -5.9505866E+002
  6.8350626E+002
  2.2213004E+003
  7.3212067E+003
  3.5677889E+002
  1.1747913E+003
  2.2183608E+003
  3.8017265E+003
  5.3147343E+003
  6.9337445E+003
  8.5437007E+003
  1.0134149E+004
  1.1653545E+004
  1.3067805E+004
  1.4119799E+004
  1.4746094E+004
  1.3997526E+004
  1.1715332E+004
  4.5710520E+003
 -6.5038023E+002
  1.7839881E+003
  3.3111698E+003
 -9.6586923E+002
  1.3432287E+004
  1.6558793E+004
  1.4824703E+004
  1.2258769E+004
  9.2512583E+003
  6.2829361E+003
  3.3577590E+003
  5.3825157E+002
 -2.1507447E+003
 -4.6851811E+003
 -7.0471313E+003
 -9.2215859E+003
 -1.1196384E+004
 -1.2961538E+004
 -1.4508601E+004
 -1.5829790E+004
 -1.6917017E+004
 -1.7760969E+004
 -1.8350540E+004
 -1.8672912E+004
 -1.8714705E+004
 -1.8464498E+004
 -1.7917178E+004
 -1.7079522E+004
 -1.5976821E+004
 -1.4654941E+004
 -1.3181416E+004
 -1.1640817E+004
 -1.0110098E+004
 -8.6725642E+003
 -7.3845120E+003
 -6.2584759E+003
 -5.2955212E+003
 -4.4560939E+003
 -3.7033796E+003
 -3.0242395E+003
 -2.4194117E+003
 -1.9352868E+003
 -1.5828189E+003
 -1.2823613E+003
 -9.7536384E+002
 -5.3175394E+002
  2.9486567E+001
  1.0961472E+003
  1.5759190E+003
  4.9850139E+003
  5.4063896E+002
  2.5065731E+003
  3.6816590E+003
  5.3882415E+003
  6.9922150E+003
  8.5928444E+003
  1.0125107E+004
  1.1575296E+004
  1.2874563E+004
  1.4005663E+004
  1.4600631E+004
  1.4081378E+004
  1.0212068E+004
 -2.5910139E+003
 -1.1224356E+003
  3.1985719E+002
  1.6195956E+003
  6.1197275E+003
  1.0525298E+004
  1.1852707E+004
  1.1286560E+004
  9.7171419E+003
  7.6818376E+003
  5.3498397E+003
  2.9261637E+003
  4.8416950E+002
 -1.9161923E+003
 -4.2368451E+003
 -6.4482215E+003
 -8.5274407E+003
 -1.0455792E+004
 -1.2217395E+004
 -1.3797869E+004
 -1.5183019E+004
 -1.6357461E+004
 -1.7303308E+004
 -1.7999177E+004
 -1.8419890E+004
 -1.8537439E+004
 -1.8323958E+004
 -1.7757155E+004
 -1.6829781E+004
 -1.5559619E+004
 -1.4005766E+004
 -1.2257941E+004
 -1.0414915E+004
 -8.6186958E+003
 -6.9591303E+003
 -5.5238267E+003
 -4.3723606E+003
 -3.4207484E+003
 -2.6324350E+003
 -1.9271994E+003
 -1.2397778E+003
 -6.5897430E+002
 -2.8994363E+002
 -7.7576319E+001
 -3.6903531E+001
  5.8327384E+000
  1.2279872E+002
  4.6358185E+002
  8.6770525E+002
  1.6995476E+003
  1.9782240E+003
 -1.0201046E+003
  1.6862061E+003
  3.6333078E+003
  5.4168913E+003
  7.0956023E+003
  8.6970415E+003
  1.0209523E+004
  1.1617268E+004
  1.2939442E+004
  1.4161171E+004
  1.5696899E+004
  1.7804777E+004
  2.6139608E+004
 -2.9425503E+003
  8.2787745E+001
  3.0213200E+003
  5.0002732E+003
  7.3369406E+003
  8.7158170E+003
  8.7309954E+003
  7.8204553E+003
  6.3393527E+003
  4.5258635E+003
  2.5073466E+003
  3.8965726E+002
 -1.7618226E+003
 -3.8977569E+003
 -5.9815444E+003
 -7.9841977E+003
 -9.8819894E+003
 -1.1654420E+004
 -1.3282500E+004
 -1.4746991E+004
 -1.6026526E+004
 -1.7095631E+004
 -1.7922933E+004
 -1.8469926E+004
 -1.8691034E+004
 -1.8536249E+004
 -1.7957907E+004
 -1.6923192E+004
 -1.5438523E+004
 -1.3550924E+004
 -1.1394991E+004
 -9.1801055E+003
 -6.9742594E+003
 -5.0167457E+003
 -3.4876290E+003
 -2.2663953E+003
 -1.4228462E+003
 -7.3182922E+002
 -1.1578837E+002
  5.8671397E+002
  1.4423350E+003
  1.8401136E+003
  1.6118778E+003
  1.2800399E+003
  8.1369219E+002
  6.4213055E+002
  6.3680128E+002
  8.2729223E+002
  9.9222542E+002
  1.1281544E+003
 -2.8467639E+003
 -3.4351943E+003
 -6.2495756E+002
  1.7507687E+003
  3.6869035E+003
  5.5487517E+003
  7.2737073E+003
  8.8912921E+003
  1.0395542E+004
  1.1759545E+004
  1.3078022E+004
  1.4132108E+004
  1.6275202E+004
  1.5951052E+004
  2.6355726E+004
  1.3978048E+003
  3.0066225E+003
  4.6820301E+003
  6.1630337E+003
  6.9742586E+003
  7.0604534E+003
  6.4652646E+003
  5.3621335E+003
  3.8972831E+003
  2.1907660E+003
  3.2807971E+002
 -1.6227973E+003
 -3.6109107E+003
 -5.5960160E+003
 -7.5458534E+003
 -9.4335849E+003
 -1.1235840E+004
 -1.2930778E+004
 -1.4495985E+004
 -1.5906059E+004
 -1.7129815E+004
 -1.8127036E+004
 -1.8845739E+004
 -1.9220407E+004
 -1.9171797E+004
 -1.8614268E+004
 -1.7466581E+004
 -1.5681050E+004
 -1.3365692E+004
 -1.0695717E+004
 -7.8028657E+003
 -5.1491214E+003
 -2.6534344E+003
 -7.4428933E+002
  1.2900591E+002
  8.5239051E+002
  1.2671782E+003
  1.7037810E+003
  2.2159298E+003
  3.8203953E+003
  3.2329120E+003
  3.2118768E+003
  2.7060182E+003
  1.4754690E+003
  9.3185671E+002
  6.9958329E+002
  6.2431657E+002
  6.2959719E+002
  3.8178355E+002
 -2.9860338E+003
 -3.1842224E+003
 -1.8249873E+003
 -7.2416023E+000
  1.9230840E+003
  3.9318234E+003
  5.7946197E+003
  7.5633398E+003
  9.2038812E+003
  1.0699195E+004
  1.2034895E+004
  1.3156674E+004
  1.4207793E+004
  1.4819973E+004
  1.6567477E+004
  1.7232813E+004
  1.6095659E+003
  3.2126834E+003
  4.3424283E+003
  5.3587395E+003
  5.9747808E+003
  6.0599758E+003
  5.6205015E+003
  4.7414960E+003
  3.5159261E+003
  2.0294481E+003
  3.5534353E+002
 -1.4465790E+003
 -3.3270047E+003
 -5.2457601E+003
 -7.1696231E+003
 -9.0706816E+003
 -1.0924622E+004
 -1.2708851E+004
 -1.4400204E+004
 -1.5972026E+004
 -1.7390452E+004
 -1.8609838E+004
 -1.9565938E+004
 -2.0172071E+004
 -2.0317429E+004
 -1.9855765E+004
 -1.8654430E+004
 -1.6605684E+004
 -1.3550787E+004
 -9.8258171E+003
 -6.5394361E+003
 -3.1214126E+003
  4.7621893E+002
  1.5169637E+003
  2.8817201E+003
  3.0674797E+003
  3.0339924E+003
  3.1676808E+003
  3.0903600E+003
  9.2707824E+003
  8.4032992E+003
  6.5017155E+003
  4.6866007E+003
  1.2359006E+003
  9.3498235E+002
  5.5621353E+002
  4.4412571E+002
  3.0787369E+002
  8.8388168E+001
 -1.8653537E+003
 -2.8068152E+002
 -3.2923245E+003
 -1.2582253E+003
  1.5701595E+002
  2.2646239E+003
  4.2275829E+003
  6.1637923E+003
  7.9771719E+003
  9.6602950E+003
  1.1176540E+004
  1.2468743E+004
  1.3480315E+004
  1.4040556E+004
  1.4345360E+004
  1.3950759E+004
  1.4194522E+004
 -4.6258967E+002
  2.8734639E+003
  4.1527888E+003
  5.0872486E+003
  5.5308508E+003
  5.5748450E+003
  5.2126788E+003
  4.4672615E+003
  3.3951408E+003
  2.0567897E+003
  5.1047513E+002
 -1.1916315E+003
 -3.0047015E+003
 -4.8903515E+003
 -6.8161841E+003
 -8.7548987E+003
 -1.0683139E+004
 -1.2579866E+004
 -1.4424067E+004
 -1.6191569E+004
 -1.7850423E+004
 -1.9354761E+004
 -2.0637118E+004
 -2.1588272E+004
 -2.2057593E+004
 -2.1871455E+004
 -2.0622552E+004
 -1.8020728E+004
 -1.4348802E+004
 -1.0013328E+004
 -4.0457538E+003
 -1.3119809E+003
  5.7622821E+003
  8.1373207E+003
  6.8494444E+003
  6.6232021E+003
  5.7227530E+003
  4.5256917E+003
  2.2715035E+002
 -1.0687043E+002
 -7.9640208E+002
  2.6362238E+002
  4.6310010E+002
  3.4395778E+002
  2.0298688E+002
  3.1197462E+001
  3.4771147E+001
 -9.1560740E+003
 -2.6075004E+003
 -2.3156743E+003
  4.3647541E+002
  2.4884711E+003
  4.6358218E+003
  6.6306775E+003
  8.5272148E+003
  1.0288567E+004
  1.1869430E+004
  1.3209076E+004
  1.4154961E+004
  1.4454923E+004
  1.3476738E+004
  1.1989203E+004
  9.7050979E+003
 -2.2086001E+002
  6.2085646E+003
  4.6669634E+003
  5.1208400E+003
  5.4376874E+003
  5.5025875E+003
  5.1816696E+003
  4.5204266E+003
  3.5406774E+003
  2.2918129E+003
  8.2178014E+002
 -8.2557069E+002
 -2.6097093E+003
 -4.4947141E+003
 -6.4498258E+003
 -8.4495635E+003
 -1.0473164E+004
 -1.2503425E+004
 -1.4524768E+004
 -1.6519942E+004
 -1.8465469E+004
 -2.0322972E+004
 -2.2030602E+004
 -2.3492036E+004
 -2.4495156E+004
 -2.4751188E+004
 -2.4400545E+004
 -2.2072321E+004
 -1.6541441E+004
 -5.4832494E+003
 -4.5853107E+003
 -4.9324614E+002
 -2.0256904E+002
 -2.0701887E+002
  2.4114427E+002
  1.2613190E+002
  1.4948753E+002
  5.0406874E+001
 -5.1913767E+001
 -1.5039067E+004
 -6.1811878E+003
 -2.3873426E+003
  4.9736706E+002
  2.8890352E+003
  5.1193516E+003
  7.2163009E+003
  9.2086135E+003
  1.1086306E+004
  1.2834388E+004
  1.4325930E+004
  1.5459563E+004
  1.6010300E+004
  1.4850193E+004
  1.0419266E+004
 -4.8435485E+001
  1.7598240E+003
  3.9032265E+003
  5.4409380E+003
  5.7657003E+003
  5.7929732E+003
  5.5137193E+003
  4.8900512E+003
  3.9529944E+003
  2.7484005E+003
  1.3106043E+003
 -3.2255809E+002
 -2.1138425E+003
 -4.0289174E+003
 -6.0387861E+003
 -8.1203159E+003
 -1.0256468E+004
 -1.2435897E+004
 -1.4651564E+004
 -1.6898472E+004
 -1.9168382E+004
 -2.1444263E+004
 -2.3679585E+004
 -2.5789524E+004
 -2.7717667E+004
 -2.8771745E+004
 -2.8269434E+004
 -2.4235549E+004
 -2.2195980E+004
 -8.7963297E+003
  2.0121034E+003
  5.2083107E+001
  5.2758671E+001
 -4.1269637E+001
 -1.1135737E+000
  3.6916580E+001
 -4.8244001E+000
 -1.5599585E+002
 -1.0448302E+002
 -7.5358793E+003
 -9.5692330E+003
 -7.5621655E+003
 -4.5840526E+003
 -1.7050629E+003
  9.8649114E+002
  3.4508545E+003
  5.7331871E+003
  7.9076603E+003
  9.9972713E+003
  1.2029616E+004
  1.3980024E+004
  1.5937406E+004
  1.7518906E+004
  1.8749844E+004
  1.6163959E+004
  8.4991693E+003
  5.5976238E+003
  2.0641852E+003
  4.7420243E+003
  5.5385219E+003
  6.1382828E+003
  6.3651568E+003
  6.1790604E+003
  5.5596229E+003
  4.6344634E+003
  3.4395252E+003
  1.9955953E+003
  3.3814760E+002
 -1.4941723E+003
 -3.4682475E+003
 -5.5560422E+003
 -7.7363645E+003
 -9.9964214E+003
 -1.2331963E+004
 -1.4747206E+004
 -1.7253239E+004
 -1.9867713E+004
 -2.2601569E+004
 -2.5470428E+004
 -2.8375429E+004
 -3.1222827E+004
 -3.4479484E+004
 -3.8011219E+004
 -5.4281414E+004
 -9.7274982E+003
 -3.0978569E+001
 -5.1665462E+001
 -1.0331450E+001
 -1.3997947E+002
 -6.9012630E+001
 -8.6006092E+001
 -1.0710970E+004
 -1.0198839E+004
 -8.2489580E+003
 -6.0849316E+003
 -3.4869118E+003
 -7.2624310E+002
  1.7861756E+003
  4.1736018E+003
  6.4626756E+003
  8.6781857E+003
  1.0859429E+004
  1.3014590E+004
  1.5233938E+004
  1.7449468E+004
  2.0450125E+004
  2.4181151E+004
  4.2081686E+004
  4.6140678E+003
  4.1667355E+003
  1.0717504E+004
  7.4322215E+003
  7.7696288E+003
  7.2683926E+003
  6.5139388E+003
  5.6012996E+003
  4.3821476E+003
  2.8897583E+003
  1.1735979E+003
 -7.3234968E+002
 -2.7939384E+003
 -4.9806760E+003
 -7.2726333E+003
 -9.6607283E+003
 -1.2148333E+004
 -1.4751283E+004
 -1.7501338E+004
 -2.0439445E+004
 -2.3648421E+004
 -2.7136165E+004
 -3.1238943E+004
 -3.4916995E+004
 -3.9223802E+004
 -3.0105880E+004
 -1.2956220E+004
 -1.9369870E+001
  3.0977149E+001
  2.7723285E+001
 -1.1263684E+004
 -1.0839040E+004
 -8.9281092E+003
 -6.5567440E+003
 -4.4021586E+003
 -2.0481622E+003
  3.2731529E+002
  2.7059515E+003
  5.0088168E+003
  7.2616222E+003
  9.4900962E+003
  1.1731250E+004
  1.4001868E+004
  1.6399884E+004
  1.8524773E+004
  2.2100422E+004
  2.0057234E+004
  3.1079537E+004
  5.5620596E+003
  2.8343477E+003
  9.0366047E+003
  7.9955055E+003
  7.8730292E+003
  6.8636134E+003
  5.5804011E+003
  4.0101739E+003
  2.2023803E+003
  1.8391274E+002
 -1.9940403E+003
 -4.3002782E+003
 -6.7125992E+003
 -9.2255417E+003
 -1.1848767E+004
 -1.4609773E+004
 -1.7554889E+004
 -2.0763510E+004
 -2.4327789E+004
 -2.8493829E+004
 -3.3283162E+004
 -4.0505375E+004
 -4.8843292E+004
 -8.2169778E+004
  6.7143313E+003
 -1.2027159E+004
 -1.1556012E+004
 -9.5946505E+003
 -7.2606530E+003
 -5.1975405E+003
 -2.9961117E+003
 -7.9295725E+002
  1.4546472E+003
  3.6828125E+003
  5.8918955E+003
  8.0855823E+003
  1.0292251E+004
  1.2554390E+004
  1.4934072E+004
  1.7473948E+004
  2.0238589E+004
  2.1339268E+004
  2.1120373E+004
 -1.2981065E+003
 -2.1798074E+003
  5.6964738E+003
  1.9638520E+004
  1.0341242E+004
  9.6452764E+003
  8.3526073E+003
  7.0449517E+003
  5.3835713E+003
  3.4307763E+003
  1.2642445E+003
 -1.0677856E+003
 -3.5132953E+003
 -6.0519751E+003
 -8.6798412E+003
 -1.1411574E+004
 -1.4283180E+004
 -1.7348381E+004
 -2.0719405E+004
 -2.4461102E+004
 -2.9056809E+004
 -3.3819358E+004
 -4.2878689E+004
 -4.4142641E+004
 -7.4668062E+004
 -9.2213785E+003
 -2.0790040E+004
 -1.0190607E+004
 -8.3221641E+003
 -5.7998258E+003
 -3.7191875E+003
 -1.6178002E+003
  4.7631539E+002
  2.5797838E+003
  4.6860170E+003
  6.7879305E+003
  8.8956566E+003
  1.1038186E+004
  1.3257980E+004
  1.5676460E+004
  1.8365023E+004
  2.2182251E+004
  2.7513645E+004
  4.5694380E+004
 -1.1410719E+003
  7.5254856E+003
  3.4938694E+003
  1.1589267E+004
  9.9681085E+003
  9.0126924E+003
  7.0336680E+003
  4.9040200E+003
  2.4948489E+003
 -2.4236609E+001
 -2.6342713E+003
 -5.3016079E+003
 -8.0297110E+003
 -1.0836219E+004
 -1.3756887E+004
 -1.6858220E+004
 -2.0220654E+004
 -2.4045195E+004
 -2.8326083E+004
 -3.4092969E+004
 -3.8812550E+004
 -5.0662406E+004
 -5.0729510E+004
 -2.7801437E+003
 -9.5204491E+003
 -5.9303993E+003
 -7.3916784E+003
 -1.0414065E+004
 -7.9797658E+003
 -6.3536481E+003
 -4.1873509E+003
 -2.2376430E+003
 -2.4996432E+002
  1.7242091E+003
  3.7084386E+003
  5.6921541E+003
  7.6784990E+003
  9.6716941E+003
  1.1703691E+004
  1.3777149E+004
  1.6116190E+004
  1.8345953E+004
  2.2761486E+004
  2.2705083E+004
  4.0384401E+004
 -3.2772524E+003
  9.1752332E+003
  1.9222445E+004
  1.2642950E+004
  1.1213719E+004
  8.9024558E+003
  6.5379973E+003
  3.8804743E+003
  1.0952644E+003
 -1.6927802E+003
 -4.4898515E+003
 -7.3022384E+003
 -1.0145159E+004
 -1.3055826E+004
 -1.6084809E+004
 -1.9337847E+004
 -2.2869883E+004
 -2.7145794E+004
 -3.1479240E+004
 -3.9930663E+004
 -4.0851184E+004
 -6.9579588E+004
 -5.4004656E+003
 -1.6090488E+004
 -7.1021833E+003
 -7.8594895E+003
 -7.1461926E+003
 -5.9255042E+003
 -4.2580666E+003
 -2.5518944E+003
 -7.2548180E+002
  1.1130624E+003
  2.9713262E+003
  4.8340424E+003
  6.6978641E+003
  8.5588958E+003
  1.0421119E+004
  1.2286002E+004
  1.4188785E+004
  1.6085567E+004
  1.8260224E+004
  1.9862896E+004
  2.3538357E+004
  2.3705216E+004
  1.3134403E+004
  1.5225167E+004
  1.3425310E+004
  1.1625956E+004
  8.6092726E+003
  5.2867630E+003
  2.2473872E+003
 -7.3822559E+002
 -3.6678754E+003
 -6.5429517E+003
 -9.3888110E+003
 -1.2230192E+004
 -1.5110141E+004
 -1.8091486E+004
 -2.1261441E+004
 -2.4770741E+004
 -2.8822035E+004
 -3.4363900E+004
 -4.2960006E+004
 -6.8223378E+004
 -1.9284080E+003
 -6.8626950E+003
 -4.4242858E+003
 -5.3763319E+003
 -7.7722097E+003
 -6.6431709E+003
 -5.7843473E+003
 -4.9917694E+003
 -3.9386846E+003
 -2.5046764E+003
 -9.2364840E+002
  7.4368414E+002
  2.4662229E+003
  4.2101629E+003
  5.9602209E+003
  7.7054087E+003
  9.4405014E+003
  1.1159646E+004
  1.2859852E+004
  1.4507408E+004
  1.6112265E+004
  1.7474697E+004
  1.8799215E+004
  1.8892179E+004
  1.9652888E+004
  1.6382557E+004
  1.5922440E+004
  1.3635361E+004
  1.0167778E+004
  6.7531829E+003
  3.3387013E+003
  1.3391479E+002
 -2.8920706E+003
 -5.8168788E+003
 -8.6356553E+003
 -1.1366826E+004
 -1.4032522E+004
 -1.6663356E+004
 -1.9302609E+004
 -2.1940939E+004
 -2.4686388E+004
 -2.6870631E+004
 -2.7826737E+004
 -2.0811226E+004
  6.6076795E+002
 -1.8183258E+003
 -3.8517291E+003
 -1.0286228E+004
 -4.8807246E+003
 -5.7132532E+003
 -5.6054509E+003
 -4.9627772E+003
 -4.2311680E+003
 -3.3408016E+003
 -2.2126932E+003
 -8.9375580E+002
  5.9013488E+002
  2.1674033E+003
  3.7959285E+003
  5.4442945E+003
  7.0908690E+003
  8.7237160E+003
  1.0335963E+004
  1.1922634E+004
  1.3463199E+004
  1.4939227E+004
  1.6204939E+004
  1.7235138E+004
  1.7575785E+004
  1.7206123E+004
  1.3530252E+004
  1.2631869E+004
  2.7073708E+004
  1.2903729E+004
  7.8723233E+003
  4.0760889E+003
  8.8342668E+002
 -2.2418239E+003
 -5.1882302E+003
 -7.9725734E+003
 -1.0568166E+004
 -1.2986795E+004
 -1.5237396E+004
 -1.7302652E+004
 -1.9145011E+004
 -2.0495957E+004
 -2.1128689E+004
 -2.0110683E+004
 -1.5974078E+004
 -5.0794214E+003
  3.4535190E+003
  9.7340038E+003
  6.0777500E+003
  1.2626067E+004
  8.4006322E+003
  1.3329415E+002
  2.6067149E+004
 -6.3746079E+002
 -8.0912730E+002
 -3.9953805E+003
 -2.4345980E+003
 -3.5001980E+003
 -4.8745358E+003
 -4.5013322E+003
 -4.2166436E+003
 -3.9669567E+003
 -3.5342414E+003
 -2.7574196E+003
 -1.8345781E+003
 -7.2378073E+002
  5.7334406E+002
  2.0091609E+003
  3.5357649E+003
  5.1051665E+003
  6.6803062E+003
  8.2354191E+003
  9.7620336E+003
  1.1259178E+004
  1.2723752E+004
  1.4151400E+004
  1.5496912E+004
  1.6739835E+004
  1.7579122E+004
  1.7379706E+004
  1.4621171E+004
 -7.0222745E+002
  9.8428571E+003
  6.8221261E+003
  7.9624565E+003
  4.4865480E+003
  1.4857947E+003
 -1.7140246E+003
 -4.7387183E+003
 -7.4916978E+003
 -9.9475282E+003
 -1.2109527E+004
 -1.3986456E+004
 -1.5555132E+004
 -1.6717691E+004
 -1.7322540E+004
 -1.7015373E+004
 -1.5199022E+004
 -1.1040805E+004
 -5.4233781E+003
 -7.5255998E+001
  4.3062702E+003
  7.1660262E+003
  1.2771660E+004
  1.1320351E+004
  2.4767945E+004
  1.2585808E+004
  1.5694041E+004
  1.0381172E+004
  1.3013568E+004
  8.9460050E+003
  9.0727964E+003
  7.8969386E+003
  4.6528785E+002
  7.4879484E+003
  4.8827910E+003
 -2.2359401E+003
 -3.4935504E+003
 -2.1032181E+003
 -2.9769347E+003
 -3.3718710E+003
 -3.2855282E+003
 -3.1232928E+003
 -2.7950834E+003
 -2.2422159E+003
 -1.5019776E+003
 -5.4638647E+002
  5.9188192E+002
  1.8994754E+003
  3.3376374E+003
  4.8630378E+003
  6.4135029E+003
  7.9352988E+003
  9.4090827E+003
  1.0830041E+004
  1.2212418E+004
  1.3572494E+004
  1.4896345E+004
  1.6221455E+004
  1.7407046E+004
  1.8988638E+004
  2.0349945E+004
  3.1972427E+004
 -1.0215358E+003
  3.1648299E+003
  1.1931034E+004
  7.2892275E+003
  5.5352730E+003
  2.0553225E+003
 -1.3925914E+003
 -4.5518711E+003
 -7.3158974E+003
 -9.6145104E+003
 -1.1517151E+004
 -1.3047792E+004
 -1.4198007E+004
 -1.4902523E+004
 -1.5023248E+004
 -1.4352022E+004
 -1.2622013E+004
 -9.7189852E+003
 -5.8023858E+003
 -1.8250336E+003
  1.5595749E+003
  4.7691113E+003
  7.8564468E+003
  9.6112820E+003
  8.8884099E+003
  8.9641828E+003
  8.5503632E+003
  9.8979946E+003
  1.1540706E+004
  3.2792066E+004
  3.8585400E+003
 -1.2425479E+003
  4.4929714E+003
  9.2815129E+002
 -1.8831874E+003
 -7.1909089E+002
 -1.5507430E+003
 -1.8880740E+003
 -2.2219474E+003
 -2.3152824E+003
 -2.1196616E+003
 -1.7583838E+003
 -1.2013811E+003
 -4.2353376E+002
  5.5650792E+002
  1.7392534E+003
  3.0867401E+003
  4.5868524E+003
  6.1559888E+003
  7.7320969E+003
  9.2440892E+003
  1.0632766E+004
  1.1936492E+004
  1.3191787E+004
  1.4443037E+004
  1.5698747E+004
  1.6990525E+004
  1.8012982E+004
  1.9852250E+004
  1.7755879E+004
  2.4349600E+004
  9.0241914E+003
  1.1298815E+004
  6.6326160E+003
  2.8187092E+003
 -1.1409786E+003
 -4.8345194E+003
 -7.5713980E+003
 -9.6891063E+003
 -1.1290739E+004
 -1.2492608E+004
 -1.3295230E+004
 -1.3666239E+004
 -1.3519654E+004
 -1.2735420E+004
 -1.1203063E+004
 -8.9140338E+003
 -6.1284303E+003
 -3.1892904E+003
 -3.8576053E+002
  2.1664504E+003
  4.2521596E+003
  5.5084663E+003
  6.4526669E+003
  6.8470505E+003
  7.5673650E+003
  9.1785021E+003
  1.1644692E+004
  1.6679420E+004
  1.2652369E+004
  2.7478823E+004
  1.3874027E+004
  1.5545434E+004
  1.0947272E+004
  1.4035816E+004
  9.5360765E+003
  1.1655776E+004
  8.0204884E+003
  1.0200606E+004
  6.7769312E+003
  8.5518612E+003
  5.0089835E+003
  8.1693695E+003
  3.7842197E+003
  1.3887896E+003
  6.3760103E+001
 -7.0590517E+002
 -1.2146849E+003
 -1.4732677E+003
 -1.4993200E+003
 -1.3290199E+003
 -9.4726213E+002
 -3.6041938E+002
  4.3902164E+002
  1.4697516E+003
  2.7011756E+003
  4.1591066E+003
  5.7293978E+003
  7.4729007E+003
  9.1874442E+003
  1.0660574E+004
  1.1950531E+004
  1.3083686E+004
  1.4178563E+004
  1.5299008E+004
  1.6502579E+004
  1.7815688E+004
  1.9214794E+004
  1.9280322E+004
  1.7789247E+004
 -1.0873992E+003
  9.5552923E+003
  9.3965388E+003
  3.7034762E+003
 -2.1675026E+003
 -5.8518139E+003
 -8.5155858E+003
 -1.0229627E+004
 -1.1492979E+004
 -1.2330905E+004
 -1.2826815E+004
 -1.2947966E+004
 -1.2645920E+004
 -1.1858791E+004
 -1.0552485E+004
 -8.7672893E+003
 -6.6296097E+003
 -4.3570940E+003
 -2.1322761E+003
 -9.5268682E+001
  1.6477648E+003
  3.0008783E+003
  3.9093378E+003
  4.7571047E+003
  5.6889261E+003
  6.9817708E+003
  8.7483409E+003
  1.0913386E+004
  1.1551589E+004
  9.4730092E+003
  8.7572758E+003
  7.4773965E+003
  6.4007595E+003
  5.2413510E+003
  4.2236492E+003
  2.7648125E+003
  1.4603680E+003
  4.4592435E+002
 -2.7937980E+002
 -6.9885816E+002
 -9.1027272E+002
 -9.2018372E+002
 -7.2680057E+002
 -3.3743283E+002
  2.5912934E+002
  1.0844814E+003
  2.1476097E+003
  3.5147197E+003
  4.9928570E+003
  6.8190123E+003
  8.6767596E+003
  1.0643009E+004
  1.2322676E+004
  1.3390640E+004
  1.4281608E+004
  1.5135421E+004
  1.6070481E+004
  1.7187953E+004
  1.8534303E+004
  2.0781213E+004
  2.4147117E+004
  3.7879174E+004
 -1.1882226E+003
  6.7481166E+003
  6.4526397E+003
 -2.6312890E+003
 -8.3679051E+003
 -1.0138227E+004
 -1.1396492E+004
 -1.2062793E+004
 -1.2529794E+004
 -1.2727485E+004
 -1.2652148E+004
 -1.2254918E+004
 -1.1501954E+004
 -1.0383747E+004
 -8.9375667E+003
 -7.2580380E+003
 -5.4665856E+003
 -3.6923685E+003
 -2.0402845E+003
 -5.9960553E+002
  5.8987135E+002
  1.5953141E+003
  2.4787903E+003
  3.4131229E+003
  4.4797225E+003
  5.7396442E+003
  6.6735167E+003
  6.8058380E+003
  6.7622850E+003
  6.0062657E+003
  5.3484577E+003
  4.5638137E+003
  3.7857081E+003
  2.8987840E+003
  2.0414807E+003
  1.1569839E+003
  4.2117249E+002
 -9.1973308E+001
 -4.2248061E+002
 -5.6488396E+002
 -5.3239844E+002
 -3.2607953E+002
  6.3264707E+001
  6.5489401E+002
  1.4754283E+003
  2.5899793E+003
  3.9925868E+003
  5.9754956E+003
  7.3992283E+003
  1.0201619E+004
  1.3356695E+004
  1.4434375E+004
  1.5047999E+004
  1.5487336E+004
  1.6031746E+004
  1.6665746E+004
  1.7613902E+004
  1.8550985E+004
  2.1268988E+004
  2.0358803E+004
  3.3315791E+004
  8.1454458E+003
 -1.5958299E+004
 -1.3310519E+004
 -1.2974686E+004
 -1.2821192E+004
 -1.2932506E+004
 -1.2965607E+004
 -1.2908639E+004
 -1.2674694E+004
 -1.2219283E+004
 -1.1510337E+004
 -1.0544934E+004
 -9.3530522E+003
 -7.9960276E+003
 -6.5590205E+003
 -5.1296083E+003
 -3.7865372E+003
 -2.5839740E+003
 -1.5436053E+003
 -6.4906674E+002
  1.7576465E+002
  9.9725601E+002
  1.8770301E+003
  2.7352991E+003
  3.4665884E+003
  3.8719273E+003
  3.8052855E+003
  3.6212315E+003
  3.2507152E+003
  2.8330372E+003
  2.3418670E+003
  1.8182094E+003
  1.2420144E+003
  6.9708295E+002
  2.3268231E+002
 -1.1579554E+002
 -3.2238441E+002
 -3.9231265E+002
 -3.2207717E+002
 -1.0696205E+002
  2.6367779E+002
  8.1236618E+002
  1.5870958E+003
  2.6830227E+003
  4.2121763E+003
  6.3971213E+003
  8.2418966E+003
  8.9086911E+003
  1.5604572E+004
  1.7052244E+004
  1.6824811E+004
  1.6714750E+004
  1.6752199E+004
  1.7086649E+004
  1.7586404E+004
  1.8482279E+004
  1.9007404E+004
  2.1334588E+004
  1.9969950E+004
 -2.2621325E+004
 -1.6735507E+004
 -1.5265230E+004
 -1.4256395E+004
 -1.3797312E+004
 -1.3515488E+004
 -1.3259109E+004
 -1.2920077E+004
 -1.2436458E+004
 -1.1775693E+004
 -1.0933171E+004
 -9.9307284E+003
 -8.8137605E+003
 -7.6423585E+003
 -6.4817306E+003
 -5.3900314E+003
 -4.4096968E+003
 -3.5561299E+003
 -2.8117293E+003
 -2.1304699E+003
 -1.4560121E+003
 -7.6007911E+002
 -5.3853508E+001
  5.4400655E+002
  9.6377145E+002
  1.2181094E+003
  1.2791986E+003
  1.2509586E+003
  1.1357635E+003
  9.5776249E+002
  7.1633728E+002
  4.4114500E+002
  1.5770873E+002
 -9.0595815E+001
 -2.6940990E+002
 -3.6316418E+002
 -3.6025416E+002
 -2.5609763E+002
 -4.2938346E+001
  2.8388468E+002
  7.5836594E+002
  1.3391280E+003
  2.3893772E+003
  3.3258739E+003
  9.4355953E+003
  7.3826578E+003
  7.7225278E+003
  3.4029713E+004
  2.0770343E+004
  1.8754918E+004
  1.7517032E+004
  1.7271710E+004
  1.7237676E+004
  1.7452023E+004
  1.7724766E+004
  1.8240701E+004
  1.8321787E+004
  1.8251833E+004
 -2.8432601E+004
 -1.7157927E+004
 -1.7030671E+004
 -1.5061941E+004
 -1.4507121E+004
 -1.4032610E+004
 -1.3694601E+004
 -1.3309482E+004
 -1.2831020E+004
 -1.2223000E+004
 -1.1481613E+004
 -1.0623887E+004
 -9.6856088E+003
 -8.7150545E+003
 -7.7649230E+003
 -6.8836646E+003
 -6.1075412E+003
 -5.4542217E+003
 -4.9085047E+003
 -4.4327258E+003
 -3.9352489E+003
 -3.3680458E+003
 -2.7786282E+003
 -2.1724674E+003
 -1.6573016E+003
 -1.2543478E+003
 -9.2415397E+002
 -6.7700872E+002
 -4.8682539E+002
 -3.6901498E+002
 -3.3206852E+002
 -3.5865749E+002
 -4.1857309E+002
 -4.7829115E+002
 -5.1138511E+002
 -4.9853965E+002
 -4.2962147E+002
 -2.9803104E+002
 -9.6315126E+001
  1.7403573E+002
  5.3080347E+002
  8.9304097E+002
  1.4274061E+003
  9.2961994E+002
  3.8168553E+002
  2.3739540E+004
  1.7356620E+004
  1.9204506E+004
  1.7730999E+004
  1.7483278E+004
  1.7205066E+004
  1.7125582E+004
  1.7128863E+004
  1.7039615E+004
  1.6956298E+004
  1.5922774E+004
 -2.8042663E+004
 -1.8916917E+004
 -1.6674002E+004
 -1.5409976E+004
 -1.4878478E+004
 -1.4482885E+004
 -1.4159503E+004
 -1.3797352E+004
 -1.3354007E+004
 -1.2804202E+004
 -1.2146510E+004
 -1.1397473E+004
 -1.0589690E+004
 -9.7671154E+003
 -8.9788564E+003
 -8.2726834E+003
 -7.6852235E+003
 -7.2405690E+003
 -6.9508657E+003
 -6.7263336E+003
 -6.5006424E+003
 -6.1107694E+003
 -5.4468715E+003
 -4.8299005E+003
 -4.1982079E+003
 -3.6184432E+003
 -3.1028517E+003
 -2.5461755E+003
 -2.0308210E+003
 -1.6191289E+003
 -1.3180845E+003
 -1.1248560E+003
 -9.9425654E+002
 -8.9408441E+002
 -7.9806740E+002
 -6.9042976E+002
 -5.6192324E+002
 -4.0820229E+002
 -2.2663408E+002
  3.1673888E-001
  2.3645167E+002
  5.0316054E+002
  4.2444480E+002
  8.5734434E+002
 -7.7121489E+001
  1.6881246E+004
  1.9641374E+004
  1.7989467E+004
  1.7969154E+004
  1.7377211E+004
  1.7052231E+004
  1.6753173E+004
  1.6489055E+004
  1.6159108E+004
  1.5716164E+004
  1.4743763E+004
  3.0286542E+003
  1.7720074E+003
 -1.1307430E+004
 -1.4667218E+004
 -1.5267237E+004
 -1.5253933E+004
 -1.5053538E+004
 -1.4880954E+004
 -1.4657621E+004
 -1.4367970E+004
 -1.3983059E+004
 -1.3493510E+004
 -1.2902787E+004
 -1.2230072E+004
 -1.1508592E+004
 -1.0784285E+004
 -1.0111157E+004
 -9.5402906E+003
 -9.1230512E+003
 -8.8887999E+003
 -8.8606655E+003
 -9.1216838E+003
 -9.1886145E+003
 -8.7294665E+003
 -8.2995679E+003
 -7.3913015E+003
 -6.6726647E+003
 -5.9901239E+003
 -5.1503992E+003
 -4.3755024E+003
 -3.4973106E+003
 -2.7318346E+003
 -2.2099270E+003
 -1.8274773E+003
 -1.5407132E+003
 -1.3051159E+003
 -1.0969168E+003
 -9.0291220E+002
 -7.2013237E+002
 -5.4681226E+002
 -3.8584139E+002
 -2.3163245E+002
 -3.0328978E+001
  1.2245078E+002
  2.5645066E+002
  2.3048460E+001
  1.8526027E+004
  1.8495615E+004
  1.8508083E+004
  1.7733730E+004
  1.7296528E+004
  1.6793244E+004
  1.6358725E+004
  1.5919847E+004
  1.5398753E+004
  1.4840551E+004
  1.3786843E+004
 -8.0730101E+003
 -1.2018227E+004
 -1.3614928E+004
 -1.4611502E+004
 -1.5036394E+004
 -1.5268749E+004
 -1.5303879E+004
 -1.5227808E+004
 -1.5031564E+004
 -1.4717159E+004
 -1.4283747E+004
 -1.3741292E+004
 -1.3111335E+004
 -1.2430962E+004
 -1.1750823E+004
 -1.1135129E+004
 -1.0659564E+004
 -1.0363842E+004
 -1.0337629E+004
 -1.0654539E+004
 -1.1323937E+004
 -1.2629481E+004
 -1.2776914E+004
 -1.0751950E+004
 -1.0149768E+004
 -9.1798271E+003
 -8.2447143E+003
 -7.7698051E+003
 -6.3297075E+003
 -4.7374059E+003
 -3.6755572E+003
 -2.9428135E+003
 -2.4323530E+003
 -2.0291804E+003
 -1.6870368E+003
 -1.3802294E+003
 -1.1049431E+003
 -8.6623678E+002
 -6.8677006E+002
 -5.4700381E+002
 -4.6450470E+002
 -1.0900363E+002
 -2.1192404E+002
 -5.7915648E+000
  1.8882477E+004
  2.0009526E+004
  1.8252084E+004
  1.7853517E+004
  1.7070956E+004
  1.6519987E+004
  1.5960899E+004
  1.5405035E+004
  1.4772331E+004
  1.4126223E+004
  1.3100412E+004
 -1.0129908E+004
 -1.1566800E+004
 -1.3282131E+004
 -1.4434229E+004
 -1.5176792E+004
 -1.5618968E+004
 -1.5855161E+004
 -1.5911635E+004
 -1.5814618E+004
 -1.5569579E+004
 -1.5183186E+004
 -1.4666526E+004
 -1.4043800E+004
 -1.3352352E+004
 -1.2654984E+004
 -1.2031697E+004
 -1.1563505E+004
 -1.1378583E+004
 -1.1369110E+004
 -1.1902171E+004
 -1.3507957E+004
 -1.7150291E+004
 -1.3325314E+004
 -1.4615446E+004
 -1.2310992E+004
 -1.1418838E+004
 -1.0848621E+004
 -8.9667453E+003
 -8.6207077E+003
 -5.5116742E+003
 -4.2659088E+003
 -3.4714737E+003
 -2.9311175E+003
 -2.4716332E+003
 -2.0409784E+003
 -1.6355278E+003
 -1.2708460E+003
 -9.5588937E+002
 -7.5018794E+002
 -6.2985665E+002
 -1.0998102E+003
 -3.9557670E+002
  1.6061657E+001
  2.8096386E+004
  1.8368514E+004
  1.9286203E+004
  1.7452275E+004
  1.6874705E+004
  1.6179235E+004
  1.5583612E+004
  1.4944509E+004
  1.4230019E+004
  1.3526973E+004
  1.2536193E+004
 -1.0786094E+004
 -1.1995960E+004
 -1.3369921E+004
 -1.4670389E+004
 -1.5583605E+004
 -1.6204400E+004
 -1.6577589E+004
 -1.6752390E+004
 -1.6744718E+004
 -1.6563827E+004
 -1.6212221E+004
 -1.5699427E+004
 -1.5042027E+004
 -1.4284006E+004
 -1.3481536E+004
 -1.2755905E+004
 -1.2243829E+004
 -1.2065803E+004
 -1.2035473E+004
 -1.2700835E+004
 -1.1983477E+004
 -3.0533959E+004
 -2.5700093E+004
 -1.5549795E+004
 -1.5137391E+004
 -1.4046979E+004
 -1.3138211E+004
 -1.5755988E+004
 -1.3483321E+004
 -4.6317607E+003
 -4.3580704E+003
 -3.6089977E+003
 -3.3196332E+003
 -2.8387131E+003
 -2.3437351E+003
 -1.8409025E+003
 -1.3710368E+003
 -9.7934035E+002
 -6.8547258E+002
 -7.0205138E+002
 -5.2276376E+002
  2.8991715E+004
  2.0116884E+004
  1.8255737E+004
  1.7083171E+004
  1.6443983E+004
  1.5836278E+004
  1.5229809E+004
  1.4546647E+004
  1.3749845E+004
  1.2941199E+004
  1.1968818E+004
 -9.6450749E+003
 -1.1629052E+004
 -1.3690513E+004
 -1.5222318E+004
 -1.6297933E+004
 -1.7026650E+004
 -1.7507826E+004
 -1.7773816E+004
 -1.7849036E+004
 -1.7728989E+004
 -1.7403984E+004
 -1.6869624E+004
 -1.6147994E+004
 -1.5245164E+004
 -1.4249729E+004
 -1.3310243E+004
 -1.2655483E+004
 -1.2387983E+004
 -1.3019207E+004
 -8.2502621E+003
 -9.2472032E+003
 -3.3559763E+003
  1.7403037E+003
  8.5663632E+002
 -3.5684630E+003
 -4.1066059E+003
 -3.9969082E+003
 -3.4242724E+003
 -2.7510755E+003
 -2.0653569E+003
 -1.4112048E+003
 -8.5443172E+002
 -1.0389416E+002
 -2.8578932E+002
 -2.6980073E+003
 -1.2046270E+003
  1.2434354E+004
  1.5946361E+004
  1.6485355E+004
  1.6362697E+004
  1.5948106E+004
  1.5505112E+004
  1.4948094E+004
  1.4253371E+004
  1.3334627E+004
  1.2368248E+004
  1.1259817E+004
 -7.2211589E+003
 -1.2107956E+004
 -1.4439011E+004
 -1.6237645E+004
 -1.7322842E+004
 -1.8124106E+004
 -1.8644960E+004
 -1.8988997E+004
 -1.9147271E+004
 -1.9099325E+004
 -1.8807467E+004
 -1.8244410E+004
 -1.7407907E+004
 -1.6335785E+004
 -1.4960564E+004
 -1.3175109E+004
 -1.2964003E+004
 -1.1627356E+004
 -2.0469476E+004
 -6.3079662E+003
 -3.4190205E+003
  9.5830846E+003
  1.4392431E+004
  1.4859722E+004
  1.5658266E+004
  1.5639969E+004
  1.5556420E+004
  1.5256999E+004
  1.4819431E+004
  1.4138899E+004
  1.3081021E+004
  1.1494357E+004
  9.7935091E+003
  1.9833632E+003
 -1.1396731E+004
 -1.6035663E+004
 -1.7802568E+004
 -1.8805069E+004
 -1.9439627E+004
 -1.9975438E+004
 -2.0383202E+004
 -2.0651842E+004
 -2.0713869E+004
 -2.0478951E+004
 -1.9874309E+004
 -1.8906729E+004
 -1.7664665E+004
 -1.5970807E+004
 -1.3674575E+004
 -1.0166305E+004
 -1.0996390E+004
 -7.2787248E+003
  1.8672243E+004
  1.3089619E+004
  1.5293160E+004
  1.5010473E+004
  1.5289654E+004
  1.5271916E+004
  1.5197829E+004
  1.4902605E+004
  1.4393921E+004
  1.3271703E+004
  1.1554822E+004
  7.3960892E+003
  3.3238165E+003
 -2.6554252E+004
 -2.0824216E+004
 -2.0289137E+004
 -2.0427787E+004
 -2.0909843E+004
 -2.1414508E+004
 -2.1921860E+004
 -2.2357799E+004
 -2.2616456E+004
 -2.2535172E+004
 -2.1953416E+004
 -2.0893318E+004
 -1.9128569E+004
 -1.8252760E+004
 -8.9850246E+003
 -1.0733529E+004
 -8.0943160E+003
  2.0789377E+004
  1.5069534E+004
  1.4665741E+004
  1.4700831E+004
  1.4963641E+004
  1.5152307E+004
  1.5280008E+004
  1.5357987E+004
  1.5155149E+004
  1.4238741E+004
  1.0694887E+004
 -1.6797386E+003
 -2.7838145E+004
 -2.0454822E+004
 -2.2325783E+004
 -2.1780382E+004
 -2.2350435E+004
 -2.2863471E+004
 -2.3530731E+004
 -2.4238114E+004
 -2.4864047E+004
 -2.5077267E+004
 -2.4041113E+004
 -2.3137853E+004
 -2.0649524E+004
 -2.8300896E+004
 -9.8092426E+003
 -1.3959701E+003
 -1.9001420E+003
 -1.2151619E+003
  9.2735158E+003
  1.2363439E+004
  1.3602767E+004
  1.4264066E+004
  1.4696245E+004
  1.5081954E+004
  1.5464619E+004
  1.5886181E+004
  1.6732261E+004
  1.8259943E+004
  2.5440978E+004
 -2.8220505E+003
 -2.0833236E+004
 -2.3178969E+004
 -2.2512877E+004
 -2.3168716E+004
 -2.3537164E+004
 -2.4231823E+004
 -2.5121131E+004
 -2.6187184E+004
 -2.7460350E+004
 -2.8727351E+004
 -2.8885611E+004
 -2.4517244E+004
 -2.0827599E+004
 -1.6533994E+004
  6.6719832E+003
  1.0481618E+004
  1.2000685E+004
  1.3172083E+004
  1.3894516E+004
  1.4509367E+004
  1.5008687E+004
  1.5597703E+004
  1.6095828E+004
  1.7738730E+004
  1.7062885E+004
  2.5997292E+004
 -2.2476783E+004
 -2.3184044E+004
 -2.3808055E+004
 -2.4026448E+004
 -2.4624130E+004
 -2.5361924E+004
 -2.6443715E+004
 -2.8145391E+004
 -3.0251046E+004
 -3.2819951E+004
 -3.1490176E+004
 -2.4228539E+004
 -2.5004958E+004
  9.5384228E+003
  1.0883508E+004
  1.2233947E+004
  1.3067377E+004
  1.3782131E+004
  1.4365173E+004
  1.4941565E+004
  1.5514059E+004
  1.6284478E+004
  1.6856367E+004
  1.8602811E+004
  1.8553465E+004
 -2.2875904E+004
 -2.5170828E+004
 -2.4377953E+004
 -2.5056767E+004
 -2.5399908E+004
 -2.6142437E+004
 -2.7294131E+004
 -2.9088796E+004
 -3.3005512E+004
 -4.0594035E+004
 -6.8828021E+004
 -1.5550616E+004
  1.1241126E+004
  1.2670529E+004
  1.2512744E+004
  1.3261002E+004
  1.3722750E+004
  1.4275884E+004
  1.4816382E+004
  1.5410939E+004
  1.6008216E+004
  1.6811138E+004
  1.7380745E+004
  1.8340756E+004
 -3.3144578E+004
 -2.3934829E+004
 -2.6203473E+004
 -2.5488637E+004
 -2.6035858E+004
 -2.6467423E+004
 -2.7457458E+004
 -2.8286715E+004
 -3.2492590E+004
 -2.8625458E+004
 -5.1778705E+004
  1.7716401E+004
  1.2161495E+004
  1.3505931E+004
  1.3207580E+004
  1.3713178E+004
  1.4149513E+004
  1.4674113E+004
  1.5213483E+004
  1.5801412E+004
  1.6386522E+004
  1.6986258E+004
  1.7432528E+004
 -3.1064154E+004
 -2.6048385E+004
 -2.5881497E+004
 -2.6072322E+004
 -2.6338604E+004
 -2.6597046E+004
 -2.6819928E+004
 -2.7490427E+004
 -2.6740162E+004
 -2.9356667E+004
 -2.2386426E+004
  1.8635695E+004
  1.3607967E+004
  1.3124055E+004
  1.3155301E+004
  1.3550745E+004
  1.3998004E+004
  1.4490911E+004
  1.5005887E+004
  1.5529186E+004
  1.6071295E+004
  1.6531347E+004
  1.7083832E+004
  5.8085273E+003
  5.4938647E+003
 -1.5084309E+004
 -2.2694321E+004
 -2.5606130E+004
 -2.6548535E+004
 -2.6737040E+004
 -2.6605026E+004
 -2.6331923E+004
 -2.5785833E+004
 -2.5056906E+004
 -2.2603539E+004
 -1.6364773E+004
 -1.7923735E+003
 -1.1212903E+003
  8.3065317E+003
  1.1133859E+004
  1.2222373E+004
  1.2842168E+004
  1.3319057E+004
  1.3806640E+004
  1.4289754E+004
  1.4778904E+004
  1.5268080E+004
  1.5757652E+004
  1.6196115E+004
  1.6720626E+004
  6.5289961E+003
 -1.5898119E+004
 -2.4723042E+004
 -2.7212040E+004
 -2.7790714E+004
 -2.7419656E+004
 -2.6762705E+004
 -2.6012495E+004
 -2.5141877E+004
 -2.3175532E+004
 -1.8577525E+004
  1.3240221E+003
  5.9383962E+003
  9.3098335E+003
  1.0764671E+004
  1.1839527E+004
  1.2527178E+004
  1.3111265E+004
  1.3607681E+004
  1.4085046E+004
  1.4551272E+004
  1.5009608E+004
  1.5471103E+004
  1.5883508E+004
  1.6417143E+004
  9.0228763E+003
 -3.8495933E+004
 -3.3139925E+004
 -3.1090420E+004
 -2.9786963E+004
 -2.8402709E+004
 -2.7022934E+004
 -2.5691693E+004
 -2.5237395E+004
 -2.5594799E+004
 -3.6852318E+004
  1.5595225E+003
  8.1899220E+003
  9.7225154E+003
  1.0903093E+004
  1.1783469E+004
  1.2417741E+004
  1.2955053E+004
  1.3436942E+004
  1.3889041E+004
  1.4328611E+004
  1.4758674E+004
  1.5194173E+004
  1.5590553E+004
  1.6119401E+004
 -4.9879503E+004
 -3.5197742E+004
 -3.5342040E+004
 -3.1685025E+004
 -2.9491145E+004
 -2.7156165E+004
 -2.4829682E+004
 -2.4059738E+004
 -2.0089056E+004
 -2.8768100E+004
  1.0217881E+004
  1.0773008E+004
  1.1408070E+004
  1.1906737E+004
  1.2417535E+004
  1.2863352E+004
  1.3293272E+004
  1.3706898E+004
  1.4112574E+004
  1.4511487E+004
  1.4920792E+004
  1.5299056E+004
  1.5822396E+004
 -4.3872548E+004
 -4.1312786E+004
 -3.6966485E+004
 -3.3857334E+004
 -3.0356331E+004
 -2.7004579E+004
 -2.3898338E+004
 -2.0285372E+004
 -1.8747730E+004
 -1.2486178E+004
  1.1213185E+004
  1.2167036E+004
  1.1729519E+004
  1.2171460E+004
  1.2429452E+004
  1.2799829E+004
  1.3163782E+004
  1.3534053E+004
  1.3900556E+004
  1.4263772E+004
  1.4641944E+004
  1.4998272E+004
  1.5512138E+004
 -4.8581461E+004
 -4.3621870E+004
 -3.9969621E+004
 -3.5520337E+004
 -3.1234724E+004
 -2.6825611E+004
 -2.2386299E+004
 -1.7951864E+004
 -1.3480959E+004
 -7.2991665E+003
  1.7128505E+004
  1.1590350E+004
  1.2636212E+004
  1.2145737E+004
  1.2451146E+004
  1.2706423E+004
  1.3037089E+004
  1.3363534E+004
  1.3690029E+004
  1.4010809E+004
  1.4348969E+004
  1.4675026E+004
  1.5175307E+004
 -5.2090666E+004
 -4.7282320E+004
 -4.2666764E+004
 -3.7472823E+004
 -3.2100091E+004
 -2.6633077E+004
 -2.1120384E+004
 -1.5267572E+004
 -9.7482084E+003
 -1.4712644E+003
  1.7676014E+004
  1.2824099E+004
  1.2207742E+004
  1.2088044E+004
  1.2317149E+004
  1.2593642E+004
  1.2899745E+004
  1.3197724E+004
  1.3481900E+004
  1.3750636E+004
  1.4032604E+004
  1.4310531E+004
  1.4788059E+004
 -5.7208384E+004
 -5.1221031E+004
 -4.5960720E+004
 -3.9514148E+004
 -3.3100644E+004
 -2.6533367E+004
 -1.9989330E+004
 -1.2945640E+004
 -6.3512658E+003
  3.5127725E+003
 -1.7729925E+003
 -1.0877080E+003
  7.7429638E+003
  1.0365425E+004
  1.1290275E+004
  1.1777255E+004
  1.2118834E+004
  1.2459050E+004
  1.2768433E+004
  1.3046925E+004
  1.3286231E+004
  1.3487881E+004
  1.3684495E+004
  1.3884708E+004
  1.4315410E+004
 -6.1815722E+004
 -5.6932672E+004
 -4.9460348E+004
 -4.1902162E+004
 -3.4082761E+004
 -2.6581002E+004
 -1.8987329E+004
 -1.1236262E+004
 -2.9624221E+003
  7.4509360E+003
  5.4439127E+003
  8.6217695E+003
  9.9059719E+003
  1.0878798E+004
  1.1465708E+004
  1.1958845E+004
  1.2341998E+004
  1.2670998E+004
  1.2933659E+004
  1.3126369E+004
  1.3238610E+004
  1.3303189E+004
  1.3341692E+004
  1.3666766E+004
 -7.4761468E+004
 -6.2357573E+004
 -5.4564129E+004
 -4.3715727E+004
 -3.5187973E+004
 -2.6519449E+004
 -1.8454974E+004
 -9.2838540E+003
 -2.3130298E+003
  1.5076528E+004
  7.6553338E+003
  8.8084351E+003
  9.9857622E+003
  1.0741309E+004
  1.1370630E+004
  1.1865056E+004
  1.2291309E+004
  1.2635122E+004
  1.2892327E+004
  1.3038370E+004
  1.3050760E+004
  1.2909447E+004
  1.2706158E+004
  1.2751803E+004
 -7.6166301E+004
 -7.8156833E+004
 -5.5352696E+004
 -4.6600035E+004
 -3.5249935E+004
 -2.6434085E+004
 -1.7904110E+004
 -9.1277462E+003
  1.7982186E+002
  1.7157070E+004
  8.8557854E+003
  1.0063699E+004
  1.0132560E+004
  1.0860425E+004
  1.1351538E+004
  1.1868083E+004
  1.2313958E+004
  1.2691737E+004
  1.2958919E+004
  1.3085936E+004
  1.2998709E+004
  1.2602179E+004
  1.1694003E+004
  1.0982319E+004
 -1.8637195E+005
 -6.0663027E+004
 -6.7009022E+004
 -4.3676300E+004
 -3.5053039E+004
 -2.5449337E+004
 -1.7544121E+004
 -9.8140194E+003
 -2.7940276E+003
  3.1695469E+003
  1.2365589E+003
  1.0395876E+003
  1.3400893E+004
  9.6071042E+003
  1.0802217E+004
  1.0825247E+004
  1.1409379E+004
  1.1909732E+004
  1.2416745E+004
  1.2849887E+004
  1.3188768E+004
  1.3330174E+004
  1.3251727E+004
  1.2672816E+004
  1.1530726E+004
  8.2783781E+003
 -1.4587869E+005
 -7.0843367E+004
 -5.5565743E+004
 -4.0725069E+004
 -3.1873517E+004
 -2.3848147E+004
 -1.6800683E+004
 -1.0148769E+004
 -3.5620932E+003
  2.1159225E+003
  9.0514046E+003
  1.3668015E+004
  1.0520231E+004
  1.0475351E+004
  1.0809348E+004
  1.1391790E+004
  1.1988870E+004
  1.2577329E+004
  1.3116733E+004
  1.3567631E+004
  1.3919505E+004
  1.3979489E+004
  1.3314308E+004
  1.0490472E+004
 -1.2402415E+003
  2.3610428E+004
 -5.5705897E+004
 -3.4622416E+004
 -3.5053587E+004
 -2.7062141E+004
 -2.1525086E+004
 -1.5611167E+004
 -1.0112896E+004
 -4.3409200E+003
  1.8734506E+002
  9.6650064E+003
 -1.6084396E+003
 -8.8351582E+002
  6.1857120E+003
  8.6824421E+003
  9.7776531E+003
  1.0620829E+004
  1.1346065E+004
  1.2081560E+004
  1.2789106E+004
  1.3456614E+004
  1.4081630E+004
  1.4621412E+004
  1.5448715E+004
  1.6810850E+004
  2.4708890E+004
 -2.0318788E+003
 -2.1029979E+004
 -2.7390568E+004
 -2.9437908E+004
 -2.6080438E+004
 -2.2948677E+004
 -1.8650200E+004
 -1.4336713E+004
 -9.9161720E+003
 -5.5563723E+003
 -7.3081548E+002
  4.3707330E+003
  3.8861642E+003
  7.2078932E+003
  8.2230546E+003
  9.5013980E+003
  1.0405170E+004
  1.1326559E+004
  1.2189584E+004
  1.3046616E+004
  1.3845901E+004
  1.4656410E+004
  1.5160680E+004
  1.6383821E+004
  1.4576791E+004
  2.2363062E+004
 -6.1905880E+003
 -2.0668016E+004
 -2.0628166E+004
 -2.0993397E+004
 -1.8740537E+004
 -1.6149315E+004
 -1.3032591E+004
 -9.8225847E+003
 -6.6233303E+003
 -3.8974083E+003
 -1.3067078E+003
 -2.3231271E+003
 -9.9170433E+002
  8.0554429E+003
  6.6747151E+003
  8.4690976E+003
  9.2641397E+003
  1.0327305E+004
  1.1312366E+004
  1.2325742E+004
  1.3327592E+004
  1.4338049E+004
  1.5213759E+004
  1.6072864E+004
  1.6026792E+004
  1.6292588E+004
  1.1693150E+004
 -7.7978802E+003
 -1.5106478E+004
 -1.6001225E+004
 -1.6569074E+004
 -1.5612347E+004
 -1.3962345E+004
 -1.1896559E+004
 -9.6723450E+003
 -7.4629814E+003
 -5.6210424E+003
 -4.3009211E+003
 -5.8502727E+003
  9.5557580E+003
  7.5594511E+003
  8.2417928E+003
  9.1318544E+003
  1.0212073E+004
  1.1313238E+004
  1.2452292E+004
  1.3634039E+004
  1.4845984E+004
  1.6139388E+004
  1.7170495E+004
  1.7446983E+004
  1.4180815E+004
 -1.1831641E+003
 -8.8645489E+003
 -1.1110265E+004
 -1.2998553E+004
 -1.3428062E+004
 -1.3148886E+004
 -1.2226271E+004
 -1.0928305E+004
 -9.4549005E+003
 -8.0218197E+003
 -6.7469281E+003
 -6.0237760E+003
 -4.6635158E+003
 -5.5451350E+003
 -2.8875186E+003
 -9.5401918E+002
  3.7303843E+002
  4.2272761E+003
  6.4741786E+003
  7.6719357E+003
  8.8895137E+003
  1.0058120E+004
  1.1278805E+004
  1.2543998E+004
  1.3880118E+004
  1.5357317E+004
  1.6982665E+004
  1.9341003E+004
  2.2568061E+004
  3.4202595E+004
 -3.0347364E+003
 -2.3209961E+003
 -1.1489194E+004
 -9.9420709E+003
 -1.1355459E+004
 -1.1249703E+004
 -1.0880390E+004
 -1.0123361E+004
 -9.2317262E+003
 -8.3271504E+003
 -7.6053331E+003
 -6.9659563E+003
 -7.0780803E+003
 -4.4725059E+003
 -5.3669671E+003
 -3.6020087E+002
  4.2014500E+003
  4.6603219E+003
  5.9906549E+003
  7.2795899E+003
  8.5785344E+003
  9.8793740E+003
  1.1191913E+004
  1.2563252E+004
  1.4002862E+004
  1.5676628E+004
  1.7319212E+004
  2.0569706E+004
  2.0613600E+004
  3.3667209E+004
  3.4755242E+003
 -2.7350207E+003
  1.2524164E+003
 -7.1104663E+003
 -8.4992719E+003
 -9.6618105E+003
 -9.9175439E+003
 -9.8409048E+003
 -9.4787014E+003
 -8.9969607E+003
 -8.5151514E+003
 -8.1671659E+003
 -8.0346737E+003
 -8.3608819E+003
 -9.5489026E+003
 -1.4780701E+004
 -6.7893900E+002
 -4.5276713E+002
  1.7296167E+003
  3.7912399E+003
  5.4365194E+003
  6.9169868E+003
  8.3018815E+003
  9.6729488E+003
  1.1057754E+004
  1.2483898E+004
  1.4004159E+004
  1.5620393E+004
  1.7563082E+004
  1.9281246E+004
  2.2521655E+004
  2.3431934E+004
 -7.2789104E+003
 -6.4719955E+003
 -6.7754322E+003
 -7.9024789E+003
 -8.5961280E+003
 -8.9840097E+003
 -9.0636320E+003
 -8.9589904E+003
 -8.7610020E+003
 -8.5785782E+003
 -8.4981831E+003
 -8.6886921E+003
 -9.1029393E+003
 -1.0394167E+004
 -1.0896642E+004
 -2.0556910E+004
 -5.3485174E+003
 -1.3253565E+003
 -1.8475838E+003
 -2.5256040E+002
  1.8230071E+003
  3.4821777E+003
  5.0891649E+003
  6.5971881E+003
  8.0445350E+003
  9.4583158E+003
  1.0875830E+004
  1.2329001E+004
  1.3841133E+004
  1.5472184E+004
  1.7148990E+004
  1.9156846E+004
  2.0747327E+004
  2.3066729E+004
 -6.4463072E+003
 -6.1089213E+003
 -6.8756021E+003
 -7.4749231E+003
 -7.9866687E+003
 -8.3137901E+003
 -8.4829311E+003
 -8.5275010E+003
 -8.5163469E+003
 -8.5222417E+003
 -8.6235774E+003
 -8.9053194E+003
 -9.4099766E+003
 -1.0493559E+004
 -1.1386849E+004
 -1.3293776E+004
 -8.5090061E+003
 -6.2689029E+003
 -1.9836879E+004
  4.3949385E+002
 -3.1242025E+003
 -3.2839969E+003
 -2.0266982E+003
 -2.1791531E+002
  1.4858744E+003
  3.2305866E+003
  4.8332579E+003
  6.3542610E+003
  7.8132214E+003
  9.2400986E+003
  1.0661439E+004
  1.2103415E+004
  1.3596027E+004
  1.5147364E+004
  1.6811401E+004
  1.8507426E+004
  2.0222160E+004
  2.1801595E+004
 -7.4824025E+003
 -6.3496210E+003
 -6.8782707E+003
 -7.1444239E+003
 -7.5321863E+003
 -7.8186216E+003
 -8.0222099E+003
 -8.1536214E+003
 -8.2535524E+003
 -8.3721513E+003
 -8.5623707E+003
 -8.8766484E+003
 -9.3710865E+003
 -1.0005487E+004
 -1.0744886E+004
 -1.1703676E+004
 -1.1591186E+004
 -1.2750909E+004
 -1.0416909E+004
 -4.1440732E+003
 -2.6284020E+004
  1.5899429E+003
 -2.4741831E+003
 -1.1398514E+004
 -4.0580588E+003
 -2.4175725E+003
 -3.1770774E+002
  1.4161835E+003
  3.0901717E+003
  4.6669278E+003
  6.1699942E+003
  7.6159065E+003
  9.0267963E+003
  1.0424354E+004
  1.1833127E+004
  1.3269977E+004
  1.4779119E+004
  1.6308555E+004
  1.8063801E+004
  1.9529247E+004
  2.1734382E+004
 -4.7676162E+003
 -7.5174803E+003
 -6.3374567E+003
 -6.8917523E+003
 -7.1244261E+003
 -7.4169472E+003
 -7.6321105E+003
 -7.8115919E+003
 -7.9722101E+003
 -8.1488732E+003
 -8.3761773E+003
 -8.6869887E+003
 -9.0967246E+003
 -9.6115667E+003
 -1.0214972E+004
 -1.0667979E+004
 -1.1089298E+004
 -1.2312154E+004
 -1.2912781E+004
 -1.5240488E+004
 -1.2940384E+004
 -2.2144074E+004
 -1.3237891E+004
 -1.2956461E+004
 -1.1937284E+004
 -1.0246695E+004
 -1.0916666E+004
  1.0002054E+003
 -2.7308471E+004
  1.8986448E+003
  9.7527246E+002
 -1.6850392E+004
 -5.8327605E+003
 -2.9579037E+003
 -7.0626811E+003
 -4.0531843E+003
 -2.2814551E+003
 -3.0762880E+002
  1.4011415E+003
  3.0373696E+003
  4.5746970E+003
  6.0425965E+003
  7.4537122E+003
  8.8262468E+003
  1.0178228E+004
  1.1526155E+004
  1.2899570E+004
  1.4296457E+004
  1.5855048E+004
  1.7269647E+004
  1.9544826E+004
  2.0886184E+004
  3.2463375E+003
 -6.1490785E+003
 -2.9125855E+003
 -5.6217927E+003
 -6.0513583E+003
 -6.4913088E+003
 -6.7851148E+003
 -7.0590166E+003
 -7.2860351E+003
 -7.4862506E+003
 -7.6750254E+003
 -7.8748740E+003
 -8.1078619E+003
 -8.3920380E+003
 -8.7373352E+003
 -9.1416141E+003
 -9.5632400E+003
 -1.0013846E+004
 -1.0519552E+004
 -1.0965530E+004
 -1.1603157E+004
 -1.2799446E+004
 -1.2931274E+004
 -1.1575237E+004
 -1.1681163E+004
 -1.2191546E+004
 -1.6213038E+004
 -1.4213877E+004
 -2.6195096E+004
 -1.5291994E+004
 -1.6849954E+004
 -1.3287510E+004
 -1.4940138E+004
 -1.2232180E+004
 -1.2137346E+004
 -1.1098240E+004
 -1.0101040E+004
 -1.0335692E+004
 -8.4182231E+003
 -9.6819398E+003
 -7.5013660E+003
 -9.3093695E+003
 -7.2555589E+003
 -9.1800946E+003
 -7.8990450E+003
 -9.8521005E+003
 -8.5639393E+003
 -8.8953901E+003
 -1.4091445E+004
 -9.7359597E+003
 -7.4417042E+003
 -5.8328113E+003
 -3.7843512E+003
 -1.8973746E+003
 -1.5234705E+002
  1.5094314E+003
  3.0716055E+003
  4.5554534E+003
  5.9705364E+003
  7.3301367E+003
  8.6471410E+003
  9.9330913E+003
  1.1206200E+004
  1.2462860E+004
  1.3796578E+004
  1.5007615E+004
  1.7154794E+004
  1.7205548E+004
  2.6002338E+004
 -7.3417062E+003
 -6.0523758E+003
 -5.3205261E+003
 -5.8143933E+003
 -6.1686673E+003
 -6.4844928E+003
 -6.7417990E+003
 -6.9680690E+003
 -7.1716261E+003
 -7.3668566E+003
 -7.5678139E+003
 -7.7880980E+003
 -8.0377963E+003
 -8.3211707E+003
 -8.6310115E+003
 -8.9589538E+003
 -9.2874921E+003
 -9.6126675E+003
 -9.9765038E+003
 -1.0380150E+004
 -1.0563058E+004
 -1.0425581E+004
 -1.0363055E+004
 -1.0252461E+004
 -1.0881201E+004
 -1.2376888E+004
 -1.3250599E+004
 -1.2252530E+004
 -1.2268188E+004
 -1.1823861E+004
 -1.1727218E+004
 -1.1238680E+004
 -1.0907457E+004
 -1.0411466E+004
 -9.9072163E+003
 -9.3417943E+003
 -9.4201201E+003
 -8.3966042E+003
 -6.5275736E+003
 -4.9287860E+003
 -3.2389470E+003
 -1.5103591E+003
  1.3760139E+002
  1.7010803E+003
  3.1888682E+003
  4.6035977E+003
  5.9542819E+003
  7.2493994E+003
  8.4977057E+003
  9.7068899E+003
  1.0882743E+004
  1.2028315E+004
  1.3144485E+004
  1.4235266E+004
  1.5415438E+004
  1.7058377E+004
  2.1636939E+004
  1.6017840E+003
 -2.7271324E+003
 -5.1523143E+003
 -5.5812741E+003
 -5.9559041E+003
 -6.2228068E+003
 -6.4610021E+003
 -6.6709673E+003
 -6.8656003E+003
 -7.0527749E+003
 -7.2414765E+003
 -7.4391321E+003
 -7.6504615E+003
 -7.8751749E+003
 -8.1082709E+003
 -8.3389936E+003
 -8.5577879E+003
 -8.7551093E+003
 -8.9197190E+003
 -9.0183942E+003
 -9.0339152E+003
 -8.8658027E+003
 -8.5391685E+003
 -8.3808954E+003
 -8.5970952E+003
 -9.0823488E+003
 -9.5484593E+003
 -1.0168472E+004
 -1.0837557E+004
 -1.1849024E+004
 -1.1947953E+004
 -1.3211478E+004
 -1.2826048E+004
 -1.1363502E+004
 -1.0493372E+004
 -9.6504648E+003
 -8.4860150E+003
 -7.3106429E+003
 -5.8824755E+003
 -4.2502052E+003
 -2.6380694E+003
 -1.0456848E+003
  4.9924115E+002
  1.9739768E+003
  3.3782403E+003
  4.7163927E+003
  5.9934770E+003
  7.2154636E+003
  8.3875862E+003
  9.5134333E+003
  1.0592454E+004
  1.1616722E+004
  1.2553582E+004
  1.3332993E+004
  1.3656522E+004
  1.2938861E+004
  8.9166506E+003
 -3.3787167E+003
 -4.3622671E+003
 -8.5168990E+003
 -6.2236543E+003
 -5.2848457E+003
 -5.5846967E+003
 -5.7860932E+003
 -6.0057810E+003
 -6.2037579E+003
 -6.3903685E+003
 -6.5666134E+003
 -6.7372263E+003
 -6.9061734E+003
 -7.0765859E+003
 -7.2491810E+003
 -7.4213729E+003
 -7.5863677E+003
 -7.7339665E+003
 -7.8503904E+003
 -7.9208958E+003
 -7.9242547E+003
 -7.8312429E+003
 -7.5885421E+003
 -7.1906843E+003
 -6.6810877E+003
 -6.2124809E+003
 -5.8996859E+003
 -5.9868104E+003
 -6.5094400E+003
 -7.6859285E+003
 -9.8607835E+003
 -1.0921985E+004
 -1.3584545E+004
 -1.2860154E+004
 -1.4850436E+004
 -1.2529199E+004
 -1.1366202E+004
 -9.6834343E+003
 -8.2346250E+003
 -6.7472704E+003
 -5.1673481E+003
 -3.5957352E+003
 -2.0328873E+003
 -5.2104648E+002
  9.3024346E+002
  2.3154975E+003
  3.6342360E+003
  4.8901958E+003
  6.0878651E+003
  7.2313149E+003
  8.3236721E+003
  9.3662184E+003
  1.0356971E+004
  1.1286221E+004
  1.2127055E+004
  1.2800432E+004
  1.3076345E+004
  1.2295718E+004
  8.6825190E+003
 -3.1162392E+003
 -5.4182461E+003
 -5.2106298E+003
 -5.5378945E+003
 -5.4926854E+003
 -5.6480505E+003
 -5.7991523E+003
 -5.9613195E+003
 -6.1193796E+003
 -6.2735095E+003
 -6.4232804E+003
 -6.5694217E+003
 -6.7117465E+003
 -6.8483232E+003
 -6.9744488E+003
 -7.0821077E+003
 -7.1594865E+003
 -7.1911252E+003
 -7.1559788E+003
 -7.0262730E+003
 -6.7638863E+003
 -6.3294941E+003
 -5.6811683E+003
 -4.8320085E+003
 -3.6955084E+003
 -2.8436762E+003
 -2.3003695E+003
 -3.9070801E+003
 -3.5990025E+003
 -8.4877611E+003
 -1.2950861E+004
 -1.2613356E+004
 -2.1307404E+004
 -2.5377480E+004
 -9.4741924E+003
 -1.2641256E+004
 -9.4659089E+003
 -8.0096471E+003
 -6.1600892E+003
 -4.5262389E+003
 -2.9074133E+003
 -1.3837611E+003
  6.2250340E+001
  1.4285766E+003
  2.7234393E+003
  3.9528783E+003
  5.1223780E+003
  6.2364704E+003
  7.2982276E+003
  8.3093844E+003
  9.2705377E+003
  1.0181778E+004
  1.1042605E+004
  1.1859370E+004
  1.2637488E+004
  1.3558740E+004
  1.4857973E+004
  1.9671232E+004
 -3.4835013E+003
 -5.4088081E+003
 -5.4302058E+003
 -5.2889635E+003
 -5.3952203E+003
 -5.4720832E+003
 -5.5926995E+003
 -5.7206569E+003
 -5.8531595E+003
 -5.9846404E+003
 -6.1130315E+003
 -6.2364537E+003
 -6.3526363E+003
 -6.4578290E+003
 -6.5460111E+003
 -6.6081293E+003
 -6.6314434E+003
 -6.5984156E+003
 -6.4853272E+003
 -6.2596002E+003
 -5.8765503E+003
 -5.2774884E+003
 -4.3787300E+003
 -3.0984629E+003
 -1.4430759E+003
  5.8690595E+002
  3.0316606E+003
  1.7740813E+003
  1.6778018E+003
  2.8593409E+003
  1.9748390E+003
 -4.6560373E+003
 -1.8308526E+004
 -8.8201538E+003
 -7.6847849E+003
 -5.4871968E+003
 -3.8013085E+003
 -2.1460602E+003
 -6.5167999E+002
  7.2235352E+002
  1.9981690E+003
  3.1972369E+003
  4.3314788E+003
  5.4100080E+003
  6.4374438E+003
  7.4156976E+003
  8.3452117E+003
  9.2243118E+003
  1.0058993E+004
  1.0839728E+004
  1.1654784E+004
  1.2338827E+004
  1.3896619E+004
  1.3596301E+004
  2.1428641E+004
 -5.1044146E+003
 -5.1428862E+003
 -5.1715606E+003
 -5.2036907E+003
 -5.2803351E+003
 -5.3720809E+003
 -5.4771161E+003
 -5.5876094E+003
 -5.6990064E+003
 -5.8077383E+003
 -5.9107289E+003
 -6.0044879E+003
 -6.0843320E+003
 -6.1436297E+003
 -6.1730578E+003
 -6.1597185E+003
 -6.0859209E+003
 -5.9273626E+003
 -5.6496507E+003
 -5.2058742E+003
 -4.5189262E+003
 -3.4973536E+003
 -1.8253023E+003
  8.0384733E+002
  7.2805136E+003
  2.2751561E+003
 -5.3464963E+003
 -7.3550111E+003
 -6.6315635E+003
 -4.8680831E+003
 -2.9623626E+003
 -1.2361914E+003
  1.9951005E+002
  1.4778525E+003
  2.6470260E+003
  3.7354310E+003
  4.7661201E+003
  5.7487397E+003
  6.6875484E+003
  7.5823201E+003
  8.4301340E+003
  9.2278905E+003
  9.9717820E+003
  1.0674633E+004
  1.1330765E+004
  1.2084767E+004
  1.2688789E+004
  1.4198458E+004
  1.4870763E+004
 -4.9462609E+003
 -4.9527418E+003
 -4.9786389E+003
 -5.0012409E+003
 -5.0643370E+003
 -5.1393595E+003
 -5.2276161E+003
 -5.3211889E+003
 -5.4160303E+003
 -5.5081964E+003
 -5.5942316E+003
 -5.6702458E+003
 -5.7313697E+003
 -5.7711265E+003
 -5.7807527E+003
 -5.7484802E+003
 -5.6580764E+003
 -5.4883094E+003
 -5.2058294E+003
 -4.7766923E+003
 -4.0992358E+003
 -3.2088985E+003
 -1.4796673E+003
 -4.8058881E+002
  5.0717159E+003
 -7.3956167E+003
 -6.7082862E+003
 -4.2212752E+003
 -1.7518409E+003
 -1.1565078E+002
  1.2074989E+003
  2.3552774E+003
  3.3734660E+003
  4.3326563E+003
  5.2484729E+003
  6.1313873E+003
  6.9817567E+003
  7.7957484E+003
  8.5659853E+003
  9.2824313E+003
  9.9362830E+003
  1.0516493E+004
  1.1041321E+004
  1.1480053E+004
  1.2044737E+004
  1.2465683E+004
  1.3560057E+004
 -4.7492344E+003
 -4.8559916E+003
 -4.7142772E+003
 -4.7945893E+003
 -4.8248366E+003
 -4.8960368E+003
 -4.9718103E+003
 -5.0537155E+003
 -5.1356598E+003
 -5.2148065E+003
 -5.2877492E+003
 -5.3508887E+003
 -5.3997738E+003
 -5.4287306E+003
 -5.4303953E+003
 -5.3951051E+003
 -5.3103319E+003
 -5.1588724E+003
 -4.9196935E+003
 -4.5556629E+003
 -4.0435849E+003
 -3.2455954E+003
 -2.3423371E+003
 -5.5758599E+002
  1.1929164E+003
 -6.1971235E+003
 -4.7909473E+003
  1.5271055E+002
  1.2483109E+003
  2.4992348E+003
  3.3263383E+003
  4.1689943E+003
  4.9698659E+003
  5.7644879E+003
  6.5463390E+003
  7.3124003E+003
  8.0531078E+003
  8.7552282E+003
  9.4010750E+003
  9.9679124E+003
  1.0432193E+004
  1.0764344E+004
  1.0969045E+004
  1.1035347E+004
  1.1114954E+004
  1.1317428E+004
 -4.8046036E+003
 -4.2695989E+003
 -4.6206061E+003
 -4.4981875E+003
 -4.5811473E+003
 -4.6384127E+003
 -4.7126312E+003
 -4.7855231E+003
 -4.8582893E+003
 -4.9275718E+003
 -4.9910828E+003
 -5.0457811E+003
 -5.0881006E+003
 -5.1136348E+003
 -5.1169338E+003
 -5.0913623E+003
 -5.0285864E+003
 -4.9194719E+003
 -4.7497663E+003
 -4.5150725E+003
 -4.1638718E+003
 -3.7981584E+003
 -2.9182097E+003
 -2.8620430E+003
  3.5614389E+001
  4.6725816E+003
  3.1692301E+003
  3.5255541E+003
  3.8223680E+003
  4.3824026E+003
  4.9758444E+003
  5.6210718E+003
  6.2910380E+003
  6.9776777E+003
  7.6683232E+003
  8.3490302E+003
  9.0010977E+003
  9.5980481E+003
  1.0104116E+004
  1.0470714E+004
  1.0638632E+004
  1.0544308E+004
  1.0175930E+004
  9.5161802E+003
  8.8398007E+003
 -5.6780223E+003
 -4.9325873E+003
 -4.0177107E+003
 -4.2589260E+003
 -4.2967761E+003
 -4.3829491E+003
 -4.4501368E+003
 -4.5188040E+003
 -4.5840669E+003
 -4.6462006E+003
 -4.7032034E+003
 -4.7530575E+003
 -4.7932175E+003
 -4.8207609E+003
 -4.8324133E+003
 -4.8245912E+003
 -4.7940853E+003
 -4.7373615E+003
 -4.6570113E+003
 -4.5453433E+003
 -4.4595806E+003
 -4.2678617E+003
 -4.6030226E+003
 -3.2339430E+003
 -6.3311390E+003
  1.0988150E+004
  5.5522272E+003
  5.3317348E+003
  5.0617522E+003
  5.3601601E+003
  5.7451661E+003
  6.2442216E+003
  6.8020156E+003
  7.4048292E+003
  8.0343173E+003
  8.6738149E+003
  9.3014631E+003
  9.8871692E+003
  1.0379857E+004
  1.0709331E+004
  1.0773177E+004
  1.0399000E+004
  9.3152141E+003
  7.9647775E+003
  6.0105469E+003
  1.2853213E+003
 -2.1262320E+003
 -3.7724182E+003
 -3.9061829E+003
 -4.0539306E+003
 -4.1234273E+003
 -4.1922493E+003
 -4.2538370E+003
 -4.3133912E+003
 -4.3698371E+003
 -4.4225004E+003
 -4.4700229E+003
 -4.5109545E+003
 -4.5438088E+003
 -4.5673205E+003
 -4.5808026E+003
 -4.5849020E+003
 -4.5825687E+003
 -4.5822920E+003
 -4.5987664E+003
 -4.6755473E+003
 -4.8570024E+003
 -5.4466169E+003
 -6.7668918E+003
 -1.2099005E+004
  5.1031798E+002
  7.2765580E+001
  6.2575404E+003
  6.0719015E+003
  6.1768557E+003
  6.0745217E+003
  6.1687292E+003
  6.4258202E+003
  6.8026214E+003
  7.2698598E+003
  7.8049005E+003
  8.3905645E+003
  9.0104494E+003
  9.6449131E+003
  1.0264478E+004
  1.0825488E+004
  1.1222403E+004
  1.1300965E+004
  1.1023853E+004
  9.7020478E+003
  6.7007609E+003
 -3.5805474E+001
 -6.0925454E+003
 -4.3845709E+003
 -3.6363934E+003
 -3.7715414E+003
 -3.8144259E+003
 -3.8810174E+003
 -3.9366323E+003
 -3.9920386E+003
 -4.0454676E+003
 -4.0973314E+003
 -4.1469124E+003
 -4.1935884E+003
 -4.2367756E+003
 -4.2762174E+003
 -4.3122794E+003
 -4.3464619E+003
 -4.3821560E+003
 -4.4261302E+003
 -4.4900738E+003
 -4.5965788E+003
 -4.7770525E+003
 -5.1098968E+003
 -5.6396325E+003
 -6.4003857E+003
 -7.1506941E+003
 -7.3999558E+003
 -5.6996803E+003
  1.0452709E+004
  7.0135253E+003
  7.7511790E+003
  6.9649382E+003
  6.8434817E+003
  6.8214668E+003
  6.9817922E+003
  7.2716687E+003
  7.6694907E+003
  8.1544006E+003
  8.7125618E+003
  9.3328092E+003
  1.0003491E+004
  1.0706483E+004
  1.1404642E+004
  1.2073252E+004
  1.2411803E+004
  1.1940242E+004
  9.8262923E+003
  5.5309786E+003
  3.2245932E+003
 -3.5568543E+003
 -3.4517535E+003
 -3.6504637E+003
 -3.5586363E+003
 -3.6014111E+003
 -3.6376596E+003
 -3.6843562E+003
 -3.7313780E+003
 -3.7793168E+003
 -3.8270480E+003
 -3.8742452E+003
 -3.9206427E+003
 -3.9663512E+003
 -4.0120145E+003
 -4.0591450E+003
 -4.1105939E+003
 -4.1712994E+003
 -4.2492196E+003
 -4.3572117E+003
 -4.5134725E+003
 -4.7481171E+003
 -5.0874661E+003
 -5.5726007E+003
 -6.2779607E+003
 -7.0112007E+003
 -7.3289969E+003
 -7.7022308E+003
 -7.9161958E+003
  1.7695183E+004
  9.3147829E+003
  8.6559794E+003
  7.6677464E+003
  7.4158478E+003
  7.3056444E+003
  7.4035118E+003
  7.6330149E+003
  7.9816638E+003
  8.4305321E+003
  8.9722193E+003
  9.6046572E+003
  1.0330638E+004
  1.1153754E+004
  1.2067091E+004
  1.3006348E+004
  1.4310527E+004
  1.5662416E+004
  2.3166823E+004
  3.8041854E+003
 -3.4234691E+003
 -3.4433626E+003
 -3.3168855E+003
 -3.3566660E+003
 -3.3615367E+003
 -3.3936399E+003
 -3.4296418E+003
 -3.4704674E+003
 -3.5132341E+003
 -3.5573482E+003
 -3.6023710E+003
 -3.6483928E+003
 -3.6959746E+003
 -3.7463492E+003
 -3.8016843E+003
 -3.8654821E+003
 -3.9430936E+003
 -4.0424527E+003
 -4.1746079E+003
 -4.3549858E+003
 -4.6009762E+003
 -4.9342409E+003
 -5.3752450E+003
 -5.8893610E+003
 -6.4283333E+003
 -6.9882719E+003
 -7.6944630E+003
 -8.2123551E+003
 -8.3342507E+003
 -3.8717927E+002
  5.9283971E+003
  7.3157565E+003
  9.5645160E+003
  8.4969451E+003
  8.0965054E+003
  7.7239282E+003
  7.6264617E+003
  7.6809362E+003
  7.8785786E+003
  8.1924834E+003
  8.6138673E+003
  9.1410020E+003
  9.7813538E+003
  1.0562209E+004
  1.1502150E+004
  1.2724973E+004
  1.3975523E+004
  1.5560611E+004
  1.2339458E+004
  5.7605757E+003
 -3.0585866E+003
 -3.0908763E+003
 -3.1000039E+003
 -3.0962297E+003
 -3.1161355E+003
 -3.1401089E+003
 -3.1716467E+003
 -3.2072854E+003
 -3.2459243E+003
 -3.2867251E+003
 -3.3295104E+003
 -3.3745834E+003
 -3.4228050E+003
 -3.4757162E+003
 -3.5357493E+003
 -3.6065078E+003
 -3.6931194E+003
 -3.8025723E+003
 -3.9440982E+003
 -4.1288843E+003
 -4.3701358E+003
 -4.6810091E+003
 -5.0676079E+003
 -5.5318585E+003
 -6.0578554E+003
 -6.6525361E+003
 -7.3326105E+003
 -8.2820560E+003
 -8.9263945E+003
 -9.2596344E+003
  1.9094047E+004
  1.1493616E+004
  9.6368820E+003
  8.5761635E+003
  8.1172632E+003
  7.8540952E+003
  7.7665795E+003
  7.8244305E+003
  8.0054500E+003
  8.2964038E+003
  8.6916891E+003
  9.1947875E+003
  9.8234011E+003
  1.0609207E+004
  1.1643953E+004
  1.3008257E+004
  1.5305507E+004
  1.8685239E+004
  3.2022283E+004
 -1.7745288E+003
 -2.8153259E+003
 -2.8314715E+003
 -2.8362102E+003
 -2.8405632E+003
 -2.8579792E+003
 -2.8806015E+003
 -2.9089949E+003
 -2.9412171E+003
 -2.9764304E+003
 -3.0141323E+003
 -3.0543639E+003
 -3.0976259E+003
 -3.1449414E+003
 -3.1979515E+003
 -3.2590667E+003
 -3.3316524E+003
 -3.4202238E+003
 -3.5306282E+003
 -3.6700627E+003
 -3.8470310E+003
 -4.0706435E+003
 -4.3495194E+003
 -4.6895342E+003
 -5.0952637E+003
 -5.5670189E+003
 -6.1694823E+003
 -6.8518037E+003
 -8.2589345E+003
 -9.2752273E+003
 -1.9822826E+004
 -6.3851079E+003
  5.4681508E+003
  1.1992335E+004
  9.1136086E+003
  9.3009544E+003
  8.7412238E+003
  8.3054803E+003
  7.9537725E+003
  7.7979539E+003
  7.7644578E+003
  7.8436107E+003
  8.0229921E+003
  8.2959674E+003
  8.6618184E+003
  9.1236098E+003
  9.7077539E+003
  1.0412697E+004
  1.1446147E+004
  1.2444905E+004
  1.5589523E+004
  1.4405338E+004
  3.0473576E+004
 -2.5446654E+003
 -2.6133982E+003
 -2.5496200E+003
 -2.5837557E+003
 -2.5912816E+003
 -2.6158970E+003
 -2.6422014E+003
 -2.6722052E+003
 -2.7044292E+003
 -2.7390171E+003
 -2.7761865E+003
 -2.8166133E+003
 -2.8613771E+003
 -2.9120708E+003
 -2.9708978E+003
 -3.0407855E+003
 -3.1254857E+003
 -3.2296221E+003
 -3.3586609E+003
 -3.5187065E+003
 -3.7160487E+003
 -3.9566613E+003
 -4.2454006E+003
 -4.5891869E+003
 -4.9959846E+003
 -5.4991993E+003
 -6.1138682E+003
 -7.0663335E+003
 -7.9471286E+003
 -9.7353865E+003
 -5.1810552E+003
 -1.3885622E+004
 -4.8212302E+003
 -4.9747949E+003
 -5.5377368E+002
 -3.8146619E+003
  8.0333129E+002
  3.8936287E+003
  6.1689906E+003
  7.6460186E+003
  8.0468744E+003
  7.8323302E+003
  7.7419836E+003
  7.6498482E+003
  7.6130746E+003
  7.6510167E+003
  7.7624420E+003
  7.9468107E+003
  8.2035360E+003
  8.5333279E+003
  8.9410494E+003
  9.4325879E+003
  1.0036287E+004
  1.0739636E+004
  1.1744873E+004
  1.2582279E+004
  1.5358676E+004
  1.7493499E+004
 -2.4303779E+003
 -2.1798090E+003
 -2.3451861E+003
 -2.2893687E+003
 -2.3244088E+003
 -2.3451121E+003
 -2.3729381E+003
 -2.4006603E+003
 -2.4301514E+003
 -2.4612973E+003
 -2.4947561E+003
 -2.5312586E+003
 -2.5718772E+003
 -2.6180481E+003
 -2.6716575E+003
 -2.7350993E+003
 -2.8113096E+003
 -2.9037528E+003
 -3.0163255E+003
 -3.1531519E+003
 -3.3182723E+003
 -3.5152758E+003
 -3.7473753E+003
 -4.0175749E+003
 -4.3314029E+003
 -4.6944610E+003
 -5.1199130E+003
 -5.5609340E+003
 -5.9760825E+003
 -6.1473714E+003
 -5.1882037E+003
 -2.3649247E+003
 -6.9390671E+002
  2.3824055E+003
  4.5522666E+003
  5.8631685E+003
  6.6446272E+003
  7.0295402E+003
  7.1773380E+003
  7.2723899E+003
  7.3573819E+003
  7.4637291E+003
  7.6083308E+003
  7.7983652E+003
  8.0376960E+003
  8.3281791E+003
  8.6700294E+003
  9.0624048E+003
  9.4961298E+003
  9.9603600E+003
  1.0367572E+004
  1.0633022E+004
  1.0012728E+004
  6.9985185E+003
 -1.9854814E+003
 -3.3254844E+003
 -2.5448035E+003
 -2.3188159E+003
 -1.9110984E+003
 -2.0264631E+003
 -2.0407361E+003
 -2.0761393E+003
 -2.1016000E+003
 -2.1279698E+003
 -2.1540583E+003
 -2.1813044E+003
 -2.2102670E+003
 -2.2417863E+003
 -2.2768191E+003
 -2.3165815E+003
 -2.3625803E+003
 -2.4166436E+003
 -2.4809113E+003
 -2.5577779E+003
 -2.6497675E+003
 -2.7593276E+003
 -2.8885451E+003
 -3.0388486E+003
 -3.2107033E+003
 -3.4034924E+003
 -3.6144580E+003
 -3.8369439E+003
 -4.0502597E+003
 -4.2115074E+003
 -4.2533161E+003
 -3.8569182E+003
 -2.7545520E+003
 -1.5081057E+003
  3.7473989E+002
  2.0132923E+003
  3.7615221E+003
  5.0582544E+003
  5.8600267E+003
  6.3642780E+003
  6.6878744E+003
  6.9052081E+003
  7.0777596E+003
  7.2385616E+003
  7.4086504E+003
  7.6005427E+003
  7.8206950E+003
  8.0711522E+003
  8.3493443E+003
  8.6457354E+003
  8.9388538E+003
  9.1817297E+003
  9.2773584E+003
  9.0822527E+003
  8.1920815E+003
  6.3287969E+003
  2.7356573E+003
  5.6593243E+002
 -9.3489022E+002
 -1.6526372E+003
 -1.7145038E+003
 -1.7783231E+003
 -1.8061628E+003
 -1.8322405E+003
 -1.8547747E+003
 -1.8770031E+003
 -1.8995337E+003
 -1.9232305E+003
 -1.9487923E+003
 -1.9770282E+003
 -2.0088746E+003
 -2.0454368E+003
 -2.0879854E+003
 -2.1379209E+003
 -2.1966905E+003
 -2.2656452E+003
 -2.3458288E+003
 -2.4376942E+003
 -2.5407405E+003
 -2.6530568E+003
 -2.7705613E+003
 -2.8856888E+003
 -2.9845138E+003
 -3.0419230E+003
 -3.0196933E+003
 -2.8247625E+003
 -2.3721539E+003
 -1.5878432E+003
 -4.0552903E+002
  8.5828971E+002
  2.2709752E+003
  3.5210738E+003
  4.5561271E+003
  5.3450481E+003
  5.9031853E+003
  6.2971940E+003
  6.5852380E+003
  6.8101646E+003
  7.0037313E+003
  7.1871704E+003
  7.3743680E+003
  7.5732329E+003
  7.7862483E+003
  8.0097858E+003
  8.2326998E+003
  8.4292103E+003
  8.5579804E+003
  8.5194729E+003
  8.2055542E+003
  7.2845942E+003
  5.6565325E+003
  2.8127726E+003
 -2.5454901E+003
 -1.7511775E+003
 -1.4452546E+003
 -1.5002322E+003
 -1.5196742E+003
 -1.5449955E+003
 -1.5642920E+003
 -1.5823695E+003
 -1.5994915E+003
 -1.6166260E+003
 -1.6343143E+003
 -1.6531230E+003
 -1.6736231E+003
 -1.6964501E+003
 -1.7223061E+003
 -1.7519414E+003
 -1.7860993E+003
 -1.8254191E+003
 -1.8702874E+003
 -1.9206272E+003
 -1.9756140E+003
 -2.0332990E+003
 -2.0900840E+003
 -2.1399478E+003
 -2.1732190E+003
 -2.1746333E+003
 -2.1215583E+003
 -1.9760191E+003
 -1.6925767E+003
 -1.2098668E+003
 -4.9976248E+002
  3.8189355E+002
  1.4201288E+003
  2.4696524E+003
  3.4808227E+003
  4.3561296E+003
  5.0594845E+003
  5.6032843E+003
  6.0146813E+003
  6.3279728E+003
  6.5743338E+003
  6.7791314E+003
  6.9618842E+003
  7.1364765E+003
  7.3115722E+003
  7.4905485E+003
  7.6712223E+003
  7.8442736E+003
  7.9939231E+003
  8.0873233E+003
  8.0945381E+003
  7.8674609E+003
  7.1513910E+003
  5.1979934E+003
 -9.1031937E+002
 -1.1917835E+003
 -1.2108793E+003
 -1.2900343E+003
 -1.2583994E+003
 -1.2739488E+003
 -1.2855160E+003
 -1.2986953E+003
 -1.3106175E+003
 -1.3220394E+003
 -1.3331410E+003
 -1.3442808E+003
 -1.3557588E+003
 -1.3678897E+003
 -1.3809952E+003
 -1.3953958E+003
 -1.4113752E+003
 -1.4291158E+003
 -1.4485968E+003
 -1.4694500E+003
 -1.4907616E+003
 -1.5108110E+003
 -1.5267273E+003
 -1.5340314E+003
 -1.5260164E+003
 -1.4928973E+003
 -1.4208636E+003
 -1.2902369E+003
 -1.0761259E+003
 -7.4748967E+002
 -2.8079771E+002
  3.3221962E+002
  1.0808580E+003
  1.9062242E+003
  2.7641359E+003
  3.5812093E+003
  4.3135250E+003
  4.9336474E+003
  5.4351663E+003
  5.8301249E+003
  6.1379747E+003
  6.3801561E+003
  6.5767001E+003
  6.7448090E+003
  6.8980955E+003
  7.0459923E+003
  7.1933305E+003
  7.3398694E+003
  7.4815253E+003
  7.6087120E+003
  7.7234540E+003
  7.8088793E+003
  8.0424355E+003
  8.5090356E+003
  1.1806569E+004
 -1.2276426E+003
 -1.0135252E+003
 -1.0499472E+003
 -1.0021268E+003
 -1.0214776E+003
 -1.0208326E+003
 -1.0277795E+003
 -1.0336881E+003
 -1.0395860E+003
 -1.0448664E+003
 -1.0496337E+003
 -1.0539067E+003
 -1.0577419E+003
 -1.0611808E+003
 -1.0642445E+003
 -1.0669062E+003
 -1.0690478E+003
 -1.0703911E+003
 -1.0704002E+003
 -1.0681497E+003
 -1.0621519E+003
 -1.0501373E+003
 -1.0287793E+003
 -9.9335255E+002
 -9.3731687E+002
 -8.5185757E+002
 -7.2532937E+002
 -5.4319516E+002
 -2.8818426E+002
  5.6321202E+001
  5.0282201E+002
  1.0517162E+003
  1.6853062E+003
  2.3770950E+003
  3.0831821E+003
  3.7654172E+003
  4.3872547E+003
  4.9260027E+003
  5.3734543E+003
  5.7324534E+003
  6.0136574E+003
  6.2317221E+003
  6.4027871E+003
  6.5426155E+003
  6.6651598E+003
  6.7810656E+003
  6.8969667E+003
  7.0139871E+003
  7.1326539E+003
  7.2408769E+003
  7.3768830E+003
  7.4375896E+003
  7.9822777E+003
  7.4327975E+003
  1.1325659E+004
 -7.0147536E+002
 -7.6035819E+002
 -7.6625336E+002
 -7.6653363E+002
 -7.6852948E+002
 -7.6899037E+002
 -7.6924698E+002
 -7.6906299E+002
 -7.6824947E+002
 -7.6662052E+002
 -7.6397394E+002
 -7.6012154E+002
 -7.5484713E+002
 -7.4789556E+002
 -7.3893685E+002
 -7.2751901E+002
 -7.1300080E+002
 -6.9446336E+002
 -6.7059714E+002
 -6.3956189E+002
 -5.9881782E+002
 -5.4492830E+002
 -4.7333816E+002
 -3.7814565E+002
 -2.5189206E+002
 -8.5511180E+001
  1.3147411E+002
  4.0987483E+002
  7.5909379E+002
  1.1836352E+003
  1.6802561E+003
  2.2364768E+003
  2.8289449E+003
  3.4304188E+003
  4.0103495E+003
  4.5430482E+003
  5.0096522E+003
  5.3999924E+003
  5.7124882E+003
  5.9524402E+003
  6.1303334E+003
  6.2601774E+003
  6.3578236E+003
  6.4388273E+003
  6.5164062E+003
  6.5989076E+003
  6.6894180E+003
  6.7843166E+003
  6.8831390E+003
  6.9656204E+003
  7.0984017E+003
  7.0776749E+003
  7.5929391E+003
  7.1886454E+003
 -4.5830965E+002
 -5.1885572E+002
 -5.1946002E+002
 -5.1839762E+002
 -5.1559145E+002
 -5.1055835E+002
 -5.0516463E+002
 -4.9916136E+002
 -4.9247574E+002
 -4.8462225E+002
 -4.7525094E+002
 -4.6392260E+002
 -4.5019077E+002
 -4.3355378E+002
 -4.1342708E+002
 -3.8909139E+002
 -3.5963107E+002
 -3.2385746E+002
 -2.8021766E+002
 -2.2668869E+002
 -1.6065913E+002
 -7.8804072E+001
  2.3034076E+001
  1.4993694E+002
  3.0792178E+002
  5.0380508E+002
  7.4474495E+002
  1.0373829E+003
  1.3863241E+003
  1.7924020E+003
  2.2508086E+003
  2.7500561E+003
  3.2730682E+003
  3.7980629E+003
  4.3025021E+003
  4.7652407E+003
  5.1694949E+003
  5.5042911E+003
  5.7649745E+003
  5.9532605E+003
  6.0770399E+003
  6.1498506E+003
  6.1895641E+003
  6.2161028E+003
  6.2467306E+003
  6.2933352E+003
  6.3589567E+003
  6.4383274E+003
  6.5172957E+003
  6.5855436E+003
  6.5975095E+003
  6.6056646E+003
  6.4728453E+003
  6.4111732E+003
 -2.0886567E+002
 -3.3459401E+002
 -2.6918089E+002
 -2.7823503E+002
 -2.6253478E+002
 -2.5305470E+002
 -2.4131151E+002
 -2.3016395E+002
 -2.1779903E+002
 -2.0416401E+002
 -1.8847656E+002
 -1.7012855E+002
 -1.4843859E+002
 -1.2270211E+002
 -9.2127046E+001
 -5.5789925E+001
 -1.2577019E+001
  3.8878620E+001
  1.0026694E+002
  1.7367489E+002
  2.6166054E+002
  3.6731882E+002
  4.9432449E+002
  6.4692699E+002
  8.2985950E+002
  1.0480982E+003
  1.3064091E+003
  1.6085954E+003
  1.9564959E+003
  2.3487917E+003
  2.7800348E+003
  3.2402060E+003
  3.7148745E+003
  4.1866101E+003
  4.6364069E+003
  5.0458482E+003
  5.3987499E+003
  5.6826106E+003
  5.8897654E+003
  6.0185904E+003
  6.0747799E+003
  6.0726870E+003
  6.0350995E+003
  5.9886997E+003
  5.9609420E+003
  5.9684894E+003
  6.0152575E+003
  6.0908764E+003
  6.1714875E+003
  6.2239066E+003
  6.2115465E+003
  6.0375758E+003
  5.6485688E+003
  5.0580340E+003
 -4.4887498E+001
 -8.6963012E+001
 -3.1734040E+001
 -3.1241348E+001
 -1.2532104E+001
  5.9622129E+000
  2.1162116E+001
  3.8264134E+001
  5.5424737E+001
  7.4308332E+001
  9.5623134E+001
  1.2033051E+002
  1.4926622E+002
  1.8331107E+002
  2.2340963E+002
  2.7063376E+002
  3.2623133E+002
  3.9167786E+002
  4.6872615E+002
  5.5945304E+002
  6.6629798E+002
  7.9208467E+002
  9.4001169E+002
  1.1135915E+003
  1.3165079E+003
  1.5523567E+003
  1.8242301E+003
  2.1341349E+003
  2.4822611E+003
  2.8662260E+003
  3.2804334E+003
  3.7157549E+003
  4.1597175E+003
  4.5970423E+003
  5.0106980E+003
  5.3830211E+003
  5.6969953E+003
  5.9375007E+003
  6.0928044E+003
  6.1564724E+003
  6.1309959E+003
  6.0313939E+003
  5.8874011E+003
  5.7444337E+003
  5.6397532E+003
  5.6042170E+003
  5.6428481E+003
  5.7374570E+003
  5.8575123E+003
  5.9388533E+003
  5.9431117E+003
  5.7239125E+003
  5.2224317E+003
  3.6869583E+003
  3.4071715E+002
  1.6394884E+002
  2.1393412E+002
  2.4497490E+002
  2.5922921E+002
  2.8529369E+002
  3.0562620E+002
  3.2728115E+002
  3.5025579E+002
  3.7636429E+002
  4.0655458E+002
  4.4186496E+002
  4.8326925E+002
  5.3181937E+002
  5.8868156E+002
  6.5518756E+002
  7.3287134E+002
  8.2350187E+002
  9.2910750E+002
  1.0519880E+003
  1.1947060E+003
  1.3600462E+003
  1.5509265E+003
  1.7702406E+003
  2.0206124E+003
  2.3040452E+003
  2.6214662E+003
  2.9721971E+003
  3.3534113E+003
  3.7596792E+003
  4.1826889E+003
  4.6111890E+003
  5.0311970E+003
  5.4263729E+003
  5.7785816E+003
  6.0686697E+003
  6.2774582E+003
  6.3870125E+003
  6.3835366E+003
  6.2613823E+003
  6.0343918E+003
  5.7468278E+003
  5.4542935E+003
  5.2480991E+003
  5.1652619E+003
  5.2132007E+003
  5.3629320E+003
  5.5648033E+003
  5.7788284E+003
  5.8953460E+003
  5.6904253E+003
  4.5574430E+003
 -4.6670745E+002
  9.0957204E+002
  3.6639112E+002
  5.0796116E+002
  4.5592822E+002
  5.2826881E+002
  5.4752927E+002
  5.7411634E+002
  5.9708543E+002
  6.2328715E+002
  6.5296426E+002
  6.8767747E+002
  7.2836509E+002
  7.7608192E+002
  8.3191457E+002
  8.9708293E+002
  9.7296282E+002
  1.0611146E+003
  1.1632988E+003
  1.2814835E+003
  1.4178377E+003
  1.5747042E+003
  1.7545433E+003
  1.9598349E+003
  2.1929273E+003
  2.4558219E+003
  2.7498856E+003
  3.0754982E+003
  3.4316523E+003
  3.8155440E+003
  4.2221937E+003
  4.6441339E+003
  5.0711728E+003
  5.4902073E+003
  5.8850566E+003
  6.2363995E+003
  6.5217638E+003
  6.7164259E+003
  6.7942890E+003
  6.7280004E+003
  6.4975017E+003
  6.1012968E+003
  5.5822052E+003
  5.1041107E+003
  4.7344410E+003
  4.5973060E+003
  4.6830753E+003
  4.9309803E+003
  5.2749755E+003
  5.6435641E+003
  6.1660316E+003
  6.8876351E+003
  1.0390514E+004
 -7.8439483E+002
 -2.7681430E+002
  2.0357250E+002
  5.2759626E+002
  7.7645578E+002
  7.8542749E+002
  8.2115394E+002
  8.4038880E+002
  8.6529761E+002
  8.9236925E+002
  9.2466141E+002
  9.6279025E+002
  1.0078462E+003
  1.0607740E+003
  1.1226719E+003
  1.1947694E+003
  1.2784632E+003
  1.3753226E+003
  1.4870926E+003
  1.6156879E+003
  1.7631740E+003
  1.9317307E+003
  2.1235912E+003
  2.3409481E+003
  2.5858199E+003
  2.8598709E+003
  3.1641845E+003
  3.4989928E+003
  3.8633726E+003
  4.2549219E+003
  4.6694242E+003
  5.1004956E+003
  5.5391761E+003
  5.9733968E+003
  6.3872937E+003
  6.7602061E+003
  7.0662102E+003
  7.2725767E+003
  7.3429793E+003
  7.2367494E+003
  6.8967585E+003
  6.2856810E+003
  5.4883456E+003
  4.5432441E+003
  3.9755975E+003
  3.7992637E+003
  3.9974479E+003
  4.4081000E+003
  4.9471667E+003
  5.4152667E+003
  6.2135704E+003
  5.7402697E+003
  9.2860760E+003
  1.8472583E+003
  1.1650828E+003
  1.0725503E+003
  1.0814114E+003
  1.0875461E+003
  1.1080777E+003
  1.1292802E+003
  1.1568246E+003
  1.1903559E+003
  1.2310280E+003
  1.2794412E+003
  1.3364956E+003
  1.4032246E+003
  1.4808564E+003
  1.5707954E+003
  1.6746179E+003
  1.7940598E+003
  1.9310010E+003
  2.0874399E+003
  2.2654549E+003
  2.4671456E+003
  2.6945509E+003
  2.9495381E+003
  3.2336613E+003
  3.5479910E+003
  3.8929158E+003
  4.2679221E+003
  4.6713477E+003
  5.1000994E+003
  5.5492752E+003
  6.0116580E+003
  6.4769243E+003
  6.9303196E+003
  7.3511411E+003
  7.7095509E+003
  7.9686457E+003
  8.0736531E+003
  7.9685770E+003
  7.5690288E+003
  6.6948512E+003
  5.1345261E+003
  3.9760737E+003
  2.8547885E+003
  2.6618444E+003
  3.0813640E+003
  3.8044546E+003
  4.5576664E+003
  5.3074268E+003
  5.7132945E+003
  6.2400712E+003
  4.9489008E+003
  1.0500006E+003
  1.2986612E+003
  1.3852006E+003
  1.3315560E+003
  1.3624562E+003
  1.3685583E+003
  1.3889862E+003
  1.4146687E+003
  1.4491198E+003
  1.4914786E+003
  1.5424021E+003
  1.6025313E+003
  1.6728696E+003
  1.7546324E+003
  1.8492422E+003
  1.9582926E+003
  2.0835273E+003
  2.2268165E+003
  2.3901309E+003
  2.5755053E+003
  2.7849882E+003
  3.0205751E+003
  3.2841228E+003
  3.5772463E+003
  3.9012005E+003
  4.2567525E+003
  4.6440444E+003
  5.0624444E+003
  5.5103473E+003
  5.9848925E+003
  6.4813471E+003
  6.9922770E+003
  7.5060270E+003
  8.0030363E+003
  8.4548306E+003
  8.8098660E+003
  9.0241856E+003
  8.9907097E+003
  8.6742843E+003
  7.7045037E+003
  5.8834875E+003
  2.0136861E+003
  6.1384614E+002
  8.4290462E+002
  1.9281921E+003
  3.0984587E+003
  4.2978489E+003
  5.2965439E+003
  5.8975881E+003
  5.3001323E+003
 -2.5486976E+002
  1.3537015E+003
  1.6763366E+003
  1.4709684E+003
  1.6606804E+003
  1.6125239E+003
  1.6291195E+003
  1.6388075E+003
  1.6651826E+003
  1.6996544E+003
  1.7434454E+003
  1.7961132E+003
  1.8583519E+003
  1.9310827E+003
  2.0155595E+003
  2.1132476E+003
  2.2257834E+003
  2.3549408E+003
  2.5026078E+003
  2.6707636E+003
  2.8614494E+003
  3.0767295E+003
  3.3186412E+003
  3.5891337E+003
  3.8900001E+003
  4.2228084E+003
  4.5888403E+003
  4.9890461E+003
  5.4240156E+003
  5.8939569E+003
  6.3985470E+003
  6.9367381E+003
  7.5052750E+003
  8.0976065E+003
  8.7022116E+003
  9.2849061E+003
  9.8193834E+003
  1.0198278E+004
  1.0502643E+004
  1.0187651E+004
  1.0183615E+004
  2.8514113E+003
  2.8410770E+003
 -2.7474004E+003
 -1.3289207E+003
  4.1790324E+002
  2.4176129E+003
  4.1096733E+003
  5.7974656E+003
  7.3077113E+003
  1.2856861E+004
 -6.4145227E+002
 -5.1918904E+002
  2.0568840E+003
  2.1450478E+003
  1.8724224E+003
  1.8947011E+003
  1.8646336E+003
  1.8815988E+003
  1.9053931E+003
  1.9414535E+003
  1.9863108E+003
  2.0402597E+003
  2.1036601E+003
  2.1775491E+003
  2.2632760E+003
  2.3624068E+003
  2.4766541E+003
  2.6078461E+003
  2.7579120E+003
  2.9288683E+003
  3.1228016E+003
  3.3418421E+003
  3.5881294E+003
  3.8637729E+003
  4.1708122E+003
  4.5111889E+003
  4.8867447E+003
  5.2992637E+003
  5.7505965E+003
  6.2428394E+003
  6.7786967E+003
  7.3612656E+003
  7.9953597E+003
  8.6799577E+003
  9.4147903E+003
  1.0187876E+004
  1.0911457E+004
  1.1378315E+004
  1.2163661E+004
  1.2155238E+004
  1.9448126E+004
  8.7460322E+003
 -4.3998228E+003
 -1.7764491E+004
 -4.7525560E+003
 -9.5387647E+002
  2.0583942E+003
  4.0280679E+003
  6.1988247E+003
  6.5103687E+003
  1.0776148E+004
  1.8805550E+003
  2.1003426E+003
  2.2074314E+003
  2.0892835E+003
  2.0992909E+003
  2.1077728E+003
  2.1358327E+003
  2.1735308E+003
  2.2201287E+003
  2.2749084E+003
  2.3384837E+003
  2.4121837E+003
  2.4975937E+003
  2.5964536E+003
  2.7105827E+003
  2.8418797E+003
  2.9923273E+003
  3.1639979E+003
  3.3590490E+003
  3.5797110E+003
  3.8282654E+003
  4.1070203E+003
  4.4182897E+003
  4.7643904E+003
  5.1476773E+003
  5.5706570E+003
  6.0362197E+003
  6.5481364E+003
  7.1117202E+003
  7.7354169E+003
  8.4299906E+003
  9.2192837E+003
  1.0102100E+004
  1.1085158E+004
  1.2314937E+004
  1.3349835E+004
  1.3172250E+004
  1.3316261E+004
  1.0630974E+004
 -9.7903293E+003
 -2.4173224E+003
 -8.8762234E+002
  2.2837530E+003
  4.5085448E+003
  6.0161190E+003
  6.8697433E+003
 -1.3650944E+002
  1.9743957E+003
  2.7962940E+003
  2.2503486E+003
  2.3420376E+003
  2.3000135E+003
  2.3213647E+003
  2.3536180E+003
  2.3965986E+003
  2.4458131E+003
  2.5007471E+003
  2.5632258E+003
  2.6351190E+003
  2.7184723E+003
  2.8152360E+003
  2.9273464E+003
  3.0567642E+003
  3.2055212E+003
  3.3757483E+003
  3.5696876E+003
  3.7896906E+003
  4.0382055E+003
  4.3177598E+003
  4.6309441E+003
  4.9804121E+003
  5.3689208E+003
  5.7994493E+003
  6.2755002E+003
  6.8016597E+003
  7.3849674E+003
  8.0367644E+003
  8.7779031E+003
  9.6343019E+003
  1.0709202E+004
  1.1972563E+004
  1.3198203E+004
  1.4222735E+004
  1.4073033E+004
  1.4420582E+004
 -5.8018198E+003
 -2.5392213E+003
  3.7228958E+002
  2.7795694E+003
  5.4463257E+003
  8.0988772E+003
  1.6363310E+004
  1.8783428E+002
 -7.3195116E+002
  3.4292136E+003
  2.6362844E+003
  2.5371520E+003
  2.4596900E+003
  2.5136124E+003
  2.5589999E+003
  2.6148802E+003
  2.6654302E+003
  2.7193191E+003
  2.7785421E+003
  2.8466273E+003
  2.9259465E+003
  3.0186766E+003
  3.1268045E+003
  3.2523101E+003
  3.3972451E+003
  3.5637869E+003
  3.7542638E+003
  3.9711607E+003
  4.2171109E+003
  4.4948774E+003
  4.8073279E+003
  5.1574115E+003
  5.5481569E+003
  5.9827327E+003
  6.4646119E+003
  6.9981642E+003
  7.5895463E+003
  8.2504101E+003
  9.0015332E+003
  9.8881776E+003
  1.0927018E+004
  1.2737797E+004
  1.5718468E+004
  2.6471657E+004
  1.0897844E+004
 -3.9438436E+003
 -1.0100273E+003
  1.2242019E+003
  3.4259475E+003
  6.0934447E+003
  6.6797202E+003
  1.2746406E+004
  5.0694727E+003
  2.7508191E+003
  2.3584362E+003
  2.5885072E+003
  2.6659624E+003
  2.7771037E+003
  2.8320879E+003
  2.8842274E+003
  2.9320136E+003
  2.9851803E+003
  3.0468729E+003
  3.1200222E+003
  3.2067178E+003
  3.3088845E+003
  3.4284255E+003
  3.5673609E+003
  3.7278894E+003
  3.9124195E+003
  4.1235781E+003
  4.3642027E+003
  4.6373182E+003
  4.9460929E+003
  5.2937793E+003
  5.6836034E+003
  6.1187363E+003
  6.6020269E+003
  7.1367282E+003
  7.7244509E+003
  8.3769215E+003
  9.0825450E+003
  9.9809358E+003
  1.0734584E+004
  1.2072968E+004
  9.1326277E+003
  8.7681512E+003
  5.3131210E+002
  8.3106421E+001
 -2.0273579E+002
  6.4088451E+002
  2.3385461E+003
  4.2750435E+003
  5.7174536E+003
  7.0249286E+003
  3.2637806E+002
 -2.1892408E+003
 -5.7278785E+002
  2.4744570E+003
  2.5096082E+003
  2.9601720E+003
  2.9967142E+003
  3.0698682E+003
  3.1025909E+003
  3.1404648E+003
  3.1829989E+003
  3.2357197E+003
  3.3005300E+003
  3.3792879E+003
  3.4735861E+003
  3.5851431E+003
  3.7158805E+003
  3.8679877E+003
  4.0439445E+003
  4.2465274E+003
  4.4788025E+003
  4.7440993E+003
  5.0459596E+003
  5.3880200E+003
  5.7738600E+003
  6.2065386E+003
  6.6885556E+003
  7.2200413E+003
  7.8015095E+003
  8.4195030E+003
  9.1042867E+003
  9.7090842E+003
  1.1045511E+004
  1.1650040E+004
  2.1034794E+004
 -2.1277006E+001
 -5.5128874E+002
  5.0687047E+002
  1.6618142E+003
  3.0964525E+003
  5.1065259E+003
  7.6292650E+003
  1.5557373E+004
  6.5450188E+002
  2.5906429E+003
  2.0623380E+003
  3.4190425E+003
  3.1820940E+003
  3.3208478E+003
  3.3083454E+003
  3.3247146E+003
  3.3419829E+003
  3.3711038E+003
  3.4123305E+003
  3.4671105E+003
  3.5363046E+003
  3.6210249E+003
  3.7226746E+003
  3.8430256E+003
  3.9842324E+003
  4.1488394E+003
  4.3397801E+003
  4.5603739E+003
  4.8143108E+003
  5.1056080E+003
  5.4385116E+003
  5.8172285E+003
  6.2454666E+003
  6.7253043E+003
  7.2552981E+003
  7.8325570E+003
  8.4246032E+003
  9.0540694E+003
  9.5333868E+003
  1.0045731E+004
  8.1518361E+003
  5.4855975E+003
  9.7927015E+002
  1.4118074E+003
  2.3970835E+003
  3.4199671E+003
  5.2824286E+003
  5.4360124E+003
  1.1631018E+004
  6.7145697E+003
  5.0927504E+003
  3.5564888E+003
  3.7576693E+003
  3.6011269E+003
  3.5585087E+003
  3.5377013E+003
  3.5332996E+003
  3.5467043E+003
  3.5754460E+003
  3.6192631E+003
  3.6777917E+003
  3.7515258E+003
  3.8414979E+003
  3.9493092E+003
  4.0770727E+003
  4.2273964E+003
  4.4033745E+003
  4.6085938E+003
  4.8471437E+003
  5.1236268E+003
  5.4431184E+003
  5.8110771E+003
  6.2327344E+003
  6.7122469E+003
  7.2489749E+003
  7.8289322E+003
  8.4563045E+003
  8.9217581E+003
  9.5429502E+003
  9.6567496E+003
  1.6939715E+004
  5.6182131E+002
  2.2056463E+002
  2.2862779E+002
  1.3806356E+003
  2.0900240E+003
  2.7894185E+003
  3.6659655E+003
  4.3487517E+003
  5.6588754E+003
  4.8083808E+003
 -2.0235939E+003
  4.8398505E+003
  4.3277126E+003
  4.1506377E+003
  3.8221124E+003
  3.8002984E+003
  3.7276691E+003
  3.7092687E+003
  3.7061073E+003
  3.7238039E+003
  3.7566341E+003
  3.8040837E+003
  3.8657716E+003
  3.9424741E+003
  4.0356345E+003
  4.1473496E+003
  4.2802963E+003
  4.4377248E+003
  4.6234755E+003
  4.8420327E+003
  5.0985869E+003
  5.3992324E+003
  5.7508583E+003
  6.1623244E+003
  6.6404312E+003
  7.2005323E+003
  7.8148168E+003
  8.5018471E+003
  9.0935876E+003
  9.5445754E+003
  6.9300799E+003
  4.6429660E+003
  1.1905315E+003
  2.5050652E+003
  2.6129890E+003
  3.2007432E+003
  3.6835751E+003
  4.1461697E+003
  3.9992385E+003
  5.2377745E+002
  2.3938667E+003
  5.4030885E+003
  3.7497355E+003
  4.2305486E+003
  3.9340920E+003
  3.9095211E+003
  3.8560353E+003
  3.8489163E+003
  3.8560052E+003
  3.8796575E+003
  3.9160387E+003
  3.9650038E+003
  4.0269786E+003
  4.1034023E+003
  4.1963931E+003
  4.3087148E+003
  4.4437530E+003
  4.6055560E+003
  4.7989079E+003
  5.0295061E+003
  5.3041026E+003
  5.6314800E+003
  6.0217774E+003
  6.4950978E+003
  7.0614274E+003
  7.8077907E+003
  8.6060883E+003
  9.6131153E+003
  8.8225502E+003
  8.0077043E+003
  3.0846554E+003
  4.5861154E+003
  2.8477746E+003
  3.4500806E+003
  3.3868927E+003
  3.8965727E+003
  4.4409600E+003
  8.0407458E+003
  2.6594853E+002
 -1.4524950E+002
  5.2731399E+003
  4.6421325E+003
  4.2182367E+003
  4.1287788E+003
  4.0196056E+003
  3.9864089E+003
  3.9701016E+003
  3.9735730E+003
  3.9893638E+003
  4.0154911E+003
  4.0511780E+003
  4.0970364E+003
  4.1546009E+003
  4.2261078E+003
  4.3144194E+003
  4.4230236E+003
  4.5560904E+003
  4.7185799E+003
  4.9163595E+003
  5.1566216E+003
  5.4479110E+003
  5.8035640E+003
  6.2373096E+003
  6.8037563E+003
  7.5120730E+003
  8.8434393E+003
  1.0935286E+004
  1.9900315E+004
  4.2614496E+003
  7.3405048E+003
  4.1954820E+003
  3.7742903E+003
  3.4338976E+003
  3.6730766E+003
  3.1514141E+003
  5.0045423E+003
  2.6876747E+003
  4.4012946E+003
  4.3374274E+003
  4.1685099E+003
  4.1209371E+003
  4.0855296E+003
  4.0744568E+003
  4.0778090E+003
  4.0886951E+003
  4.1053475E+003
  4.1271722E+003
  4.1553956E+003
  4.1918609E+003
  4.2390222E+003
  4.2998351E+003
  4.3778367E+003
  4.4772182E+003
  4.6029717E+003
  4.7608364E+003
  4.9579946E+003
  5.2011304E+003
  5.5047239E+003
  5.8632523E+003
  6.3608200E+003
  6.7989432E+003
  8.0929838E+003
  6.9242695E+003
  1.2877920E+004
  2.0408514E+002
  4.7353729E+002
  3.7407111E+003
  3.9866311E+003
  3.6733640E+003
  3.3701294E+003
  2.9060247E+003
  2.8011919E+003
  1.8285913E+002
  3.0858333E+003
  5.7247974E+003
  4.0784056E+003
  4.3120550E+003
  4.1689685E+003
  4.1615154E+003
  4.1637857E+003
  4.1732169E+003
  4.1826598E+003
  4.1898996E+003
  4.1968467E+003
  4.2055138E+003
  4.2184405E+003
  4.2382860E+003
  4.2680654E+003
  4.3112635E+003
  4.3720102E+003
  4.4551590E+003
  4.5664468E+003
  4.7119482E+003
  4.8993470E+003
  5.1311616E+003
  5.4235279E+003
  5.7224525E+003
  6.1485535E+003
  6.0948660E+003
  6.9894877E+003
  4.1418687E+003
  4.3700080E+003
  5.3704020E+003
  4.2444518E+003
  3.7145795E+003
  3.1017530E+003
  2.7240974E+003
  3.7716503E+003
  5.1236531E+002
 -7.3469622E+002
  6.7049167E+003
  4.0891703E+003
  4.4011765E+003
  4.1126722E+003
  4.2264829E+003
  4.2389433E+003
  4.2721033E+003
  4.2778801E+003
  4.2752238E+003
  4.2647278E+003
  4.2514413E+003
  4.2380966E+003
  4.2276185E+003
  4.2228675E+003
  4.2271407E+003
  4.2443678E+003
  4.2793047E+003
  4.3374809E+003
  4.4252602E+003
  4.5481928E+003
  4.7129553E+003
  4.9130914E+003
  5.1593194E+003
  5.3309797E+003
  5.3653948E+003
  4.5084770E+003
  2.8487276E+002
  1.0866885E+004
  5.2385618E+003
  5.1970673E+003
  3.5039885E+003
  2.6405331E+003
  1.5396174E+003
  1.4431497E+003
  3.7985235E+003
  4.6909649E+003
  3.5118187E+003
  4.1971853E+003
  4.2065717E+003
  4.3580109E+003
  4.3806910E+003
  4.3872633E+003
  4.3668418E+003
  4.3359621E+003
  4.2972951E+003
  4.2549239E+003
  4.2112033E+003
  4.1686331E+003
  4.1300371E+003
  4.0990121E+003
  4.0801264E+003
  4.0791658E+003
  4.1024999E+003
  4.1582678E+003
  4.2484459E+003
  4.3893651E+003
  4.5406040E+003
  4.8851363E+003
  5.1312175E+003
  8.1375362E+003
 -5.4503680E+001
  1.4740498E+004
  7.4488003E+003
  5.1150805E+003
  3.2534579E+003
  1.8063889E+003
  9.2377930E+002
  1.1811216E+002
 -3.7719185E+003
  8.3818145E+002
  3.7085032E+003
  3.8663795E+003
  4.4372425E+003
  4.4927105E+003
  4.5394427E+003
  4.5130732E+003
  4.4723176E+003
  4.4140146E+003
  4.3470893E+003
  4.2730200E+003
  4.1936390E+003
  4.1103934E+003
  4.0253336E+003
  3.9414540E+003
  3.8630653E+003
  3.7962552E+003
  3.7485362E+003
  3.7302921E+003
  3.7470273E+003
  3.8209118E+003
  3.8738851E+003
  4.1950657E+003
  3.6396700E+003
  5.1933953E+003
  6.1732955E+002
  2.8814371E+002
  7.1799102E+003
  5.8427910E+003
  4.5270748E+003
  2.5841668E+003
  6.7804461E+002
 -1.5278756E+003
  4.7463103E+002
 -2.5649449E+003
  2.5448006E+003
  3.0417715E+003
  4.7577371E+003
  4.6657235E+003
  4.7868415E+003
  4.7172849E+003
  4.6713749E+003
  4.5898968E+003
  4.5019526E+003
  4.4036513E+003
  4.2965026E+003
  4.1798964E+003
  4.0539468E+003
  3.9194110E+003
  3.7783101E+003
  3.6344440E+003
  3.4938898E+003
  3.3662644E+003
  3.2637593E+003
  3.2051734E+003
  3.1983641E+003
  3.2834823E+003
  3.1084340E+003
  3.1036293E+003
  1.0245207E+002
  1.3194353E+004
  7.0962155E+003
  6.5922329E+003
  3.9259275E+003
  1.8563741E+003
  9.6956799E+001
 -3.3095399E+003
  9.8180234E+003
  5.7813110E+003
  5.2954182E+003
  5.2875276E+003
  5.0193235E+003
  4.9705337E+003
  4.8353636E+003
  4.7207583E+003
  4.5985223E+003
  4.4694873E+003
  4.3293047E+003
  4.1755395E+003
  4.0060561E+003
  3.8200042E+003
  3.6178883E+003
  3.4022532E+003
  3.1787967E+003
  2.9578081E+003
  2.7561109E+003
  2.6042773E+003
  2.5186283E+003
  2.6482230E+003
  2.9022629E+003
  4.7133149E+003
  4.2275399E+002
  2.0613061E+004
  8.9342603E+003
  6.3833067E+003
  3.4534406E+003
  1.1885419E+003
 -7.7828649E+002
 -3.1643884E+003
  1.9776109E+003
  5.2882780E+003
  7.1894153E+003
  5.3075049E+003
  5.5075130E+003
  5.1597506E+003
  5.0097149E+003
  4.8533943E+003
  4.7034465E+003
  4.5459333E+003
  4.3759639E+003
  4.1868366E+003
  3.9747494E+003
  3.7366460E+003
  3.4708866E+003
  3.1778685E+003
  2.8605565E+003
  2.5302109E+003
  2.1997102E+003
  1.9241082E+003
  1.7143296E+003
  1.7663811E+003
  1.5831913E+003
  1.6910458E+003
 -2.8977681E+002
  6.7285284E+003
  7.1327486E+003
  8.0318768E+003
  5.0624969E+003
  2.6990657E+003
  4.1391947E+002
 -1.3146094E+003
 -3.2133228E+002
  5.8783010E+002
  4.5154471E+003
  7.3022221E+003
  5.5489724E+003
  5.7698140E+003
  5.2804301E+003
  5.1827068E+003
  4.9814828E+003
  4.8140638E+003
  4.6361728E+003
  4.4414058E+003
  4.2212392E+003
  3.9694336E+003
  3.6809139E+003
  3.3513764E+003
  2.9769451E+003
  2.5577954E+003
  2.0925913E+003
  1.6156325E+003
  1.0986071E+003
  8.3193062E+002
  4.4356383E+002
  2.4127035E+003
  6.6188630E+002
  2.0873609E+004
  1.1032653E+004
  7.1754626E+003
  4.1500597E+003
  1.5111641E+003
 -1.1750323E+003
 -6.4172567E+003
 -2.2275241E+002
  1.0421144E+003
  7.9920181E+003
  5.0224666E+003
  5.7043389E+003
  5.2632291E+003
  5.1136706E+003
  4.9307860E+003
  4.7437937E+003
  4.5323395E+003
  4.2871654E+003
  4.0008150E+003
  3.6663895E+003
  3.2763991E+003
  2.8226743E+003
  2.2947794E+003
  1.6889696E+003
  9.9004718E+002
  2.6843064E+002
 -5.7916870E+002
 -1.2028339E+003
 -1.3781850E+003
  7.8292713E+003
  1.0072863E+004
  9.4914768E+003
  7.5699975E+003
  5.3984397E+003
  3.0686885E+003
  5.1123886E+002
 -9.6259369E+002
 -5.6876705E+003
  1.3572710E+003
  6.5874433E+003
  5.5519741E+003
  5.8334148E+003
  5.3077762E+003
  5.2576268E+003
  5.0503666E+003
  4.8777284E+003
  4.6559142E+003
  4.3943161E+003
  4.0802876E+003
  3.7073892E+003
  3.2658062E+003
  2.7411966E+003
  2.1166660E+003
  1.3567836E+003
  4.6487412E+002
 -7.1009125E+002
 -1.6875427E+003
 -3.8575188E+003
 -3.9267872E+003
  1.0485082E+004
  9.1844664E+003
  8.4256573E+003
  7.6215837E+003
  5.8314818E+003
  3.6806962E+003
  1.6077909E+003
 -4.5568948E+001
 -1.8197188E+003
 -6.8284909E+002
  1.1321277E+003
  8.4894464E+003
  4.8761595E+003
  5.7593342E+003
  5.2557611E+003
  5.2273018E+003
  5.0333919E+003
  4.8254541E+003
  4.5523141E+003
  4.2189927E+003
  3.8172937E+003
  3.3374629E+003
  2.7632972E+003
  2.0621134E+003
  1.2054807E+003
  5.9767936E+001
 -1.2542374E+003
 -3.7500903E+003
 -3.9579558E+003
 -1.0349224E+004
  9.2631474E+003
  8.4521886E+003
  7.5155515E+003
  6.3956755E+003
  5.2028703E+003
  3.7337044E+003
  1.9831277E+003
  1.8789471E+002
 -1.5485371E+003
 -3.1552555E+003
 -1.9873712E+003
  1.2098013E+003
  7.5689435E+003
  5.5563610E+003
  5.4018525E+003
  5.4548700E+003
  5.3769566E+003
  5.2479861E+003
  5.0498406E+003
  4.7730478E+003
  4.4257265E+003
  4.0051380E+003
  3.5045704E+003
  2.9077720E+003
  2.1799794E+003
  1.2797150E+003
  6.6969189E+001
 -1.4747072E+003
 -4.3868778E+003
 -8.1302680E+003
 -2.5639243E+004
  7.1968279E+003
  9.5330592E+003
  6.3768858E+003
  5.7619418E+003
  4.6906421E+003
  3.5014199E+003
  2.0451657E+003
  4.1151255E+002
 -1.5046169E+003
 -3.7203452E+003
 -3.4390401E+003
  2.6176076E+003
  5.1824221E+003
  5.3744460E+003
  5.5799910E+003
  5.5836648E+003
  5.5475626E+003
  5.3463229E+003
  5.0678526E+003
  4.7049159E+003
  4.2728836E+003
  3.7685178E+003
  3.1797735E+003
  2.4804465E+003
  1.6232054E+003
  5.3657370E+002
 -9.0177760E+002
 -2.8738931E+003
 -5.0575917E+003
 -7.4992232E+003
 -2.9576338E+003
 -1.0312157E+004
 -1.9216077E+003
 -4.0765847E+003
  3.6737631E+002
  2.1822137E+003
  4.3168591E+003
  4.5010101E+003
  4.1562463E+003
  3.1148982E+003
  1.8863723E+003
  5.9752111E+002
 -1.0218759E+003
 -3.2512358E+003
 -3.6052762E+003
  1.1948440E+004
  2.8958737E+003
  5.4592793E+003
  5.5529686E+003
  6.0776718E+003
  5.9200106E+003
  5.7551619E+003
  5.4358981E+003
  5.0558223E+003
  4.6123703E+003
  4.1163634E+003
  3.5633529E+003
  2.9353297E+003
  2.2056336E+003
  1.3337029E+003
  2.9804582E+002
 -8.8228427E+002
 -2.1715590E+003
 -3.0840710E+003
 -1.9193612E+003
  3.3705945E+002
  2.0848290E+003
  3.3695978E+003
  3.4935001E+003
  3.0139540E+003
  1.9776552E+003
  3.1789706E+002
 -4.5154530E+002
 -2.3014138E+003
 -2.9023002E+003
  4.7657941E+003
  4.6543172E+003
  7.0896408E+003
  6.4689858E+003
  6.5749228E+003
  6.2285069E+003
  5.8911333E+003
  5.4638430E+003
  5.0053154E+003
  4.5220566E+003
  4.0195604E+003
  3.4959098E+003
  2.9268457E+003
  2.3030052E+003
  1.6558378E+003
  1.0238441E+003
  5.7445098E+002
  7.2943649E+002
  1.3764652E+003
  2.0541209E+003
  3.0031693E+003
  3.5549451E+003
  3.3455831E+003
  2.1291033E+003
  7.5619785E+002
 -1.9303887E+003
 -8.8134411E+002
 -1.4776161E+003
  1.1528074E+004
  1.0491914E+004
  7.0996553E+003
  7.7569762E+003
  7.1297931E+003
  6.8626714E+003
  6.3776412E+003
  5.9128511E+003
  5.4247997E+003
  4.9438008E+003
  4.5029387E+003
  4.0940764E+003
  3.7129957E+003
  3.3285769E+003
  2.9502081E+003
  2.7773363E+003
  2.8146804E+003
  3.2015840E+003
  4.2105727E+003
  4.6009945E+003
  3.8167208E+003
  4.5373196E+003
  2.4986769E+003
  3.7802123E+003
  1.0049103E+003
 -5.3415104E+001
 -3.5188141E+003
  1.0263394E+004
  8.7491867E+003
  8.3234667E+003
  8.0891415E+003
  7.4244057E+003
  6.9517126E+003
  6.3838773E+003
  5.8277678E+003
  5.3402923E+003
  4.9310288E+003
  4.6826521E+003
  4.4848939E+003
  4.2265517E+003
  4.1181093E+003
  4.2163104E+003
  4.9717731E+003
  5.5543398E+003
  7.0484303E+003
  5.2698767E+003
  5.2806717E+003
  9.3279085E+003
  3.3919698E+003
  6.6464680E+002
  5.2430821E+003
  9.3558635E+003
  9.4568761E+003
  8.5373103E+003
  8.2868107E+003
  7.4048869E+003
  6.8001151E+003
  6.2185633E+003
  5.6231595E+003
  5.2621395E+003
  5.1424879E+003
  5.3848005E+003
  5.4126733E+003
  4.9422742E+003
  4.8925465E+003
  6.7834531E+003
  5.6928365E+003
  1.6871395E+004
  1.1695809E+004
  9.6548858E+002
  1.6440568E+003
  7.9754688E+003
  1.0641007E+004
  1.0015015E+004
  1.1231083E+004
  8.2259538E+003
  8.2411323E+003
  7.4854689E+003
  6.3596459E+003
  5.7602871E+003
  5.3162044E+003
  5.2500355E+003
  6.4557638E+003
  5.3288156E+003
  5.7983512E+003
  4.7557139E+003
  1.1559733E+004
  3.1099808E+003
  1.2090430E+002
 -2.6903826E+003
  1.2859855E+004
  1.7942721E+004
  7.5309608E+003
  9.6655855E+003
  8.4836509E+003
  7.1336023E+003
  6.7990951E+003
  5.4958662E+003
  5.0473372E+003
  4.3726798E+003
  1.0291734E+004
  9.4008349E+003
  5.1688086E+003
  8.2798058E+001
  1.9739678E+001
 -8.4571606E+003
  2.9730227E+004
  1.6431703E+004
  6.1144597E+003
  1.1323641E+004
  1.0292125E+004
  6.1760721E+003
  5.1338241E+003
  3.6215453E+003
 -4.3405119E+002
 -7.8606852E+002
 -1.2483517E+004
 -7.5754796E+003
 -2.8500910E+003
 -1.8211982E+003
SCALARS Stress_xy double
LOOKUP_TABLE default
 -4.9773630E+004
 -5.1997153E+004
 -1.8635600E+004
 -1.5705305E+004
 -1.1087852E+004
 -1.1851017E+004
  1.0413172E+004
  1.1559751E+004
  1.9385531E+004
  1.5772699E+004
  5.4387004E+004
  4.8804405E+004
  1.3169587E+003
 -3.3572344E+003
 -5.6845008E+003
 -1.2887315E+003
 -9.6143950E+003
 -2.9179188E+003
 -1.1598964E+004
 -3.7338348E+003
 -1.3533382E+004
 -4.2094760E+003
 -1.5123567E+004
 -4.6935514E+003
 -1.6637045E+004
 -5.1123131E+003
 -1.8033615E+004
 -5.6416265E+003
 -1.9663974E+004
 -5.8763704E+003
 -2.1152617E+004
 -7.6701504E+003
 -2.5411574E+004
 -6.8316144E+003
 -2.9443441E+004
 -2.3321780E+004
 -2.0543280E+004
 -7.7664136E+003
 -7.4892203E+003
  5.0025065E+003
  9.1402551E+003
  2.9258413E+004
  5.1050153E+004
  3.9214444E+004
  4.7777663E+004
  2.3013782E+004
  7.7126814E+004
  4.6664117E+004
 -8.8423104E+003
 -1.2572609E+004
 -1.7711698E+004
 -2.1852791E+004
 -2.5438650E+004
 -2.8617221E+004
 -3.1464115E+004
 -3.4063198E+004
 -3.6339955E+004
 -3.8502795E+004
 -3.9238884E+004
 -3.4155567E+004
 -1.7237807E+004
 -9.4538550E+003
 -5.8598092E+003
 -2.3121829E+003
  6.3457301E+003
  2.3691450E+004
  5.1877081E+004
  5.9794258E+004
  7.8821244E+004
  7.9010761E+004
  4.3900066E+004
  6.5213829E+004
  1.6173656E+004
 -4.2749173E+003
 -2.8894465E+003
 -1.0197952E+004
 -1.7626698E+004
 -2.2545241E+004
 -2.7588618E+004
 -3.2150791E+004
 -3.6246752E+004
 -3.9834741E+004
 -4.2840424E+004
 -4.5079468E+004
 -4.5853481E+004
 -4.3638798E+004
 -3.6462333E+004
 -2.8242472E+004
 -1.9023833E+004
 -1.3079813E+004
 -6.5540206E+003
  4.1929358E+003
  2.1781919E+004
  3.9266069E+004
  6.0342602E+004
  8.1490118E+004
  1.1939644E+005
  1.1069695E+005
  9.3564831E+004
 -7.2258445E+003
 -9.0446637E+003
 -1.4575173E+004
 -2.1026537E+004
 -2.5294709E+004
 -3.1097029E+004
 -3.6264518E+004
 -4.0958687E+004
 -4.4961316E+004
 -4.8186077E+004
 -5.0296884E+004
 -5.0655656E+004
 -4.8387767E+004
 -4.3537341E+004
 -3.6262395E+004
 -2.9319845E+004
 -2.2216990E+004
 -1.3890282E+004
 -2.2586824E+003
  1.2884285E+004
  3.1451855E+004
  5.1113868E+004
  7.2350736E+004
  9.2993848E+004
  1.0685732E+005
  2.0732954E+005
 -1.4919870E+004
 -1.3715732E+004
 -1.9024186E+004
 -2.5832420E+004
 -3.1926827E+004
 -3.7594123E+004
 -4.2470152E+004
 -4.6619397E+004
 -4.9965011E+004
 -5.2275520E+004
 -5.3126171E+004
 -5.2151360E+004
 -4.9166467E+004
 -4.4767144E+004
 -3.9045239E+004
 -3.2173667E+004
 -2.3287199E+004
 -1.1693788E+004
  2.7654695E+003
  1.8807850E+004
  3.5478842E+004
  4.9093010E+004
  5.9746701E+004
  5.0783952E+004
  1.1209341E+005
  1.2255483E+005
  1.1182186E+005
  1.4833157E+005
  6.2972713E+004
 -1.0436940E+004
 -5.3800021E+003
 -7.6515551E+003
 -1.0463055E+004
 -1.6700081E+004
 -2.4314059E+004
 -3.0966539E+004
 -3.6566808E+004
 -4.1259959E+004
 -4.5285460E+004
 -4.8745223E+004
 -5.1541103E+004
 -5.3441197E+004
 -5.4171057E+004
 -5.3575277E+004
 -5.1465549E+004
 -4.7733974E+004
 -4.1881453E+004
 -3.3427683E+004
 -2.2159068E+004
 -8.5855341E+003
  6.0887041E+003
  1.9863669E+004
  3.0988012E+004
  3.8098896E+004
  5.5039181E+004
  8.6987105E+004
  1.0812259E+005
  1.1856966E+005
  9.7041137E+004
  7.8753581E+004
  1.1242670E+005
  5.3146527E+004
 -5.4702230E+003
 -5.0109234E+003
 -7.8687155E+003
 -1.4635636E+004
 -2.2149573E+004
 -2.8496182E+004
 -3.3346834E+004
 -3.7314868E+004
 -4.0940187E+004
 -4.4454130E+004
 -4.7846303E+004
 -5.0970408E+004
 -5.3609237E+004
 -5.5444330E+004
 -5.6022431E+004
 -5.4624904E+004
 -5.0454250E+004
 -4.2923585E+004
 -3.2050624E+004
 -1.8802669E+004
 -4.6421477E+003
  8.7701657E+003
  2.0423219E+004
  3.2604821E+004
  4.8582633E+004
  6.8695013E+004
  8.2610737E+004
  9.7721916E+004
  9.7658810E+004
  9.3554341E+004
  7.1728312E+004
  5.6886322E+004
  7.1662427E+004
  3.0532139E+004
 -2.7030555E+003
 -4.7665330E+002
  2.2339398E+003
  2.4249193E+003
 -3.4465147E+003
 -1.1948112E+004
 -1.9497837E+004
 -2.4519346E+004
 -2.7664097E+004
 -3.0400343E+004
 -3.3426757E+004
 -3.6922978E+004
 -4.0858993E+004
 -4.5140172E+004
 -4.9602692E+004
 -5.3908449E+004
 -5.7358167E+004
 -5.8806082E+004
 -5.6876303E+004
 -5.0517361E+004
 -3.9994334E+004
 -2.6375379E+004
 -1.1908639E+004
  2.1273182E+003
  1.5514476E+004
  2.8764830E+004
  4.3226017E+004
  5.7862697E+004
  7.2073602E+004
  8.0044412E+004
  8.0383892E+004
  8.2056460E+004
  7.5332326E+004
  6.2166602E+004
  4.2069240E+004
  3.2435999E+004
  3.1289582E+004
  9.7813833E+003
  1.4544830E+003
  5.1563773E+003
  9.8330843E+003
  4.3804742E+003
 -8.2466871E+003
 -1.6184170E+004
 -1.7957005E+004
 -1.8643847E+004
 -2.0078147E+004
 -2.2591186E+004
 -2.6048078E+004
 -3.0339599E+004
 -3.5429692E+004
 -4.1304707E+004
 -4.7787677E+004
 -5.4195651E+004
 -5.9000116E+004
 -5.9882793E+004
 -5.5107106E+004
 -4.4191941E+004
 -3.0520768E+004
 -1.5536548E+004
 -1.2504311E+003
  1.1824352E+004
  2.4752625E+004
  3.6779765E+004
  4.8125641E+004
  5.7670318E+004
  6.4795255E+004
  6.9216946E+004
  6.8412178E+004
  6.1808839E+004
  5.5622958E+004
  4.4775391E+004
  2.7533627E+004
  1.1852162E+004
  1.0931403E+004
  1.4917719E+003
 -2.3588678E+003
  1.1659974E+004
  2.0654200E+004
  1.0217019E+004
 -8.1175692E+003
 -8.8843237E+003
 -6.3496972E+003
 -5.1632710E+003
 -6.2150484E+003
 -8.6549466E+003
 -1.2112025E+004
 -1.6411705E+004
 -2.1640154E+004
 -2.8026775E+004
 -3.5773585E+004
 -4.4684760E+004
 -5.3216249E+004
 -5.7965326E+004
 -5.4413843E+004
 -4.3865788E+004
 -2.7789491E+004
 -1.5740642E+004
 -4.9572484E+003
  7.8711506E+003
  1.8170662E+004
  2.7038001E+004
  3.4738078E+004
  4.1807525E+004
  4.8247128E+004
  5.2407550E+004
  5.3476345E+004
  5.1069182E+004
  4.3890985E+004
  3.2454773E+004
  2.0851715E+004
  8.0278191E+003
 -4.6568741E+003
 -1.1663195E+004
 -5.6016499E+003
  4.4208844E+004
  3.7764917E+004
  9.0305622E+003
  7.7194623E+003
  1.3248090E+004
  1.2370565E+004
  1.0402380E+004
  7.3770533E+003
  3.9902577E+003
  2.1110322E+002
 -4.1702372E+003
 -9.6140465E+003
 -1.6785238E+004
 -2.6296227E+004
 -3.8162035E+004
 -4.7966453E+004
 -4.8076245E+004
 -3.0339381E+004
 -1.9538998E+004
 -1.1955677E+004
 -8.6053899E+003
 -5.9449920E+003
  4.6492621E+003
  1.0337336E+004
  1.3788755E+004
  1.9860824E+004
  2.6788031E+004
  3.3235632E+004
  3.6512850E+004
  3.5301405E+004
  2.9664914E+004
  2.0405366E+004
  8.0962343E+003
 -4.9397616E+003
 -1.6475381E+004
 -2.2562861E+004
 -2.2734548E+004
 -1.3858664E+004
  7.2118140E+003
  2.9618342E+004
  3.9693964E+004
  3.5632888E+004
  3.1592932E+004
  2.7289145E+004
  2.3696738E+004
  2.0678820E+004
  1.8118453E+004
  1.5704338E+004
  1.2931329E+004
  9.0576293E+003
  2.6774481E+003
 -7.5601201E+003
 -2.4215393E+004
 -2.8076977E+004
 -9.2113059E+003
  2.5841610E+004
 -6.0262853E+003
 -3.9623971E+004
 -2.0054343E+004
 -1.5600664E+004
 -2.2936884E+004
 -1.9486965E+004
 -1.1584780E+004
 -2.5861695E+002
  9.9363965E+003
  1.7010495E+004
  1.8209249E+004
  1.3772773E+004
  4.9746278E+003
 -6.4538756E+003
 -1.9461482E+004
 -3.1069191E+004
 -4.3557382E+004
 -3.8400016E+004
 -2.6514481E+004
 -4.6868457E+003
  4.5311177E+004
  5.7618755E+004
  6.6805581E+004
  5.3266491E+004
  4.6942836E+004
  4.1363885E+004
  3.7968696E+004
  3.5989609E+004
  3.5327613E+004
  3.5733576E+004
  3.7030547E+004
  3.8694073E+004
  4.0593312E+004
  3.9245503E+004
  3.6449942E+004
  3.2961493E+003
  6.5821699E+004
  8.3714586E+004
 -3.7227105E+003
 -7.6914207E+004
 -8.8766442E+004
 -8.0333191E+004
 -8.1856955E+004
 -6.2035305E+004
 -4.9852530E+004
 -3.7748397E+004
 -1.6553825E+004
 -3.9235172E+003
 -4.3962878E+002
 -3.2443767E+003
 -1.0663499E+004
 -2.1417005E+004
 -3.3811112E+004
 -4.6353572E+004
 -5.7599805E+004
 -6.2316043E+004
 -6.7411249E+004
  8.3642841E+004
  6.2274246E+004
  6.7669630E+004
  5.9135831E+004
  5.4137784E+004
  5.0161573E+004
  4.8241063E+004
  4.8067994E+004
  4.9679813E+004
  5.3117667E+004
  5.8541251E+004
  6.6368610E+004
  7.7109229E+004
  9.2288137E+004
  1.1586473E+005
  1.3940496E+005
  3.1006193E+005
  1.0359255E+005
 -1.1159692E+004
 -8.0014641E+004
 -2.4111510E+005
 -1.5261476E+005
 -1.5338049E+005
 -1.0254111E+005
 -1.2080911E+005
 -7.5274095E+004
 -4.2085025E+004
 -2.7246566E+004
 -2.1081881E+004
 -2.0139981E+004
 -2.5544449E+004
 -3.4915907E+004
 -4.5790046E+004
 -5.7833884E+004
 -6.6758483E+004
 -8.2556017E+004
 -7.7827361E+004
 -6.6147976E+004
 -1.8636623E+004
 -6.6857438E+003
 -7.5318966E+003
  4.0420698E+003
  2.5130404E+004
  1.4099530E+004
  1.4909580E+004
  1.3690784E+004
  9.3972725E+003
  2.0896718E+004
  1.8662437E+004
  5.6505639E+004
  9.4516062E+004
  5.2396465E+004
  2.8272158E+004
  6.2645381E+004
  4.5319876E+004
  4.3052261E+004
  3.6097955E+004
  5.1252156E+004
  5.3412386E+004
  5.3448817E+004
  5.3045288E+004
  5.3650012E+004
  5.5676079E+004
  5.9449684E+004
  6.5214325E+004
  7.3538217E+004
  8.4495975E+004
  1.0121167E+005
  1.1820114E+005
  1.6248241E+005
  1.5978000E+005
  1.5586854E+005
 -1.8016184E+005
 -1.4794222E+005
 -2.4031822E+005
 -1.4297832E+005
 -1.7529699E+005
 -1.2530712E+005
 -7.1536591E+004
 -6.1335324E+004
 -4.1095287E+004
 -3.4280350E+004
 -3.8126187E+004
 -4.5414579E+004
 -5.4109257E+004
 -6.3311346E+004
 -7.4071478E+004
 -8.5291139E+004
 -1.0108925E+005
 -1.3522262E+005
  4.3459846E+002
 -8.3392687E+003
 -1.0112611E+004
 -5.5876794E+003
  7.5491029E+003
  9.6112308E+003
  1.3836766E+004
  1.5873135E+004
  1.1164081E+004
  1.1043580E+004
  3.8274263E+003
  4.6253288E+003
  2.9655158E+002
  6.7615814E+004
  1.3083310E+005
  7.1841743E+004
  6.2391551E+004
  7.6436016E+004
  5.5552940E+004
  5.6623863E+004
  3.6165113E+004
  3.1050985E+004
  3.6623806E+004
  4.3825985E+004
  4.8067705E+004
  5.1236051E+004
  5.4454550E+004
  5.8483321E+004
  6.3773077E+004
  7.0672197E+004
  7.9423105E+004
  9.0363787E+004
  1.0290646E+005
  1.1655281E+005
  1.2145019E+005
  7.2741156E+004
 -1.8412938E+004
 -1.8789260E+005
 -1.2329666E+005
 -1.9231413E+005
 -2.0462383E+005
 -1.2000085E+005
 -1.0481660E+005
 -4.9373373E+004
 -4.6217432E+004
 -4.6622972E+004
 -5.1140106E+004
 -5.6674399E+004
 -6.3382997E+004
 -7.1768646E+004
 -8.0730087E+004
 -8.9838751E+004
 -1.1202259E+005
 -1.2158173E+005
 -1.2101726E+005
 -2.6300753E+004
 -1.9012361E+004
 -4.7036598E+003
  1.3902068E+003
  9.3392322E+003
  1.5673367E+004
  2.1281716E+004
  2.0014657E+004
  1.5957785E+004
  1.0522165E+004
  4.2613960E+003
  3.5829209E+001
 -7.7753368E+003
 -4.5173131E+003
 -8.5380982E+003
 -3.3406997E+004
 -4.1757787E+004
  1.2038791E+005
  1.4728600E+005
  8.4676372E+004
  8.1772501E+004
  8.9355762E+004
  6.0288792E+004
  5.2679815E+004
  4.1610470E+004
  3.4687476E+004
  3.0175038E+004
  2.6056721E+004
  2.8932430E+004
  3.4997875E+004
  4.1131962E+004
  4.6508798E+004
  5.1618364E+004
  5.6961619E+004
  6.2895617E+004
  6.9570677E+004
  7.6931811E+004
  8.4301320E+004
  9.0480145E+004
  9.0305214E+004
  7.6906968E+004
  3.7014905E+004
  2.1347674E+004
 -1.4295626E+005
 -1.4277042E+005
 -1.3259530E+005
 -4.9586616E+004
 -4.6850587E+004
 -4.5247202E+004
 -4.9421358E+004
 -5.1195624E+004
 -5.6228243E+004
 -6.3189845E+004
 -7.4763665E+004
 -9.2235363E+004
 -1.3840847E+005
 -1.4315022E+005
 -1.2197525E+005
 -2.1072903E+004
  2.2527982E+003
 -1.3923318E+004
 -2.3111469E+004
 -1.7802377E+004
 -7.8277966E+003
  3.4424263E+003
  1.2400150E+004
  2.0359514E+004
  2.5304244E+004
  2.8099692E+004
  2.8259733E+004
  2.4542317E+004
  1.9168409E+004
  2.2453817E+004
  1.5297208E+004
  9.8830562E+003
 -6.3270308E+003
  1.2692088E+004
  4.2176384E+003
  1.5400664E+004
  4.0479543E+003
  1.5229496E+004
  4.8171537E+003
  1.4590164E+004
  4.4241968E+003
  1.3506569E+004
  4.1237186E+003
  1.2575392E+004
  3.8137877E+003
  1.2013101E+004
  3.6398781E+003
  1.1781064E+004
  3.5703661E+003
  1.1690012E+004
  3.5480483E+003
  1.1665965E+004
  3.4212698E+003
  1.1787258E+004
  3.6068911E+003
  1.3449452E+004
  3.1845725E+003
  1.6770247E+004
  7.5275424E+003
  3.1081949E+004
  5.6931017E+003
  5.2624504E+004
  5.4036750E+004
  4.9170453E+004
  3.8001232E+004
  4.2293451E+004
  3.1548832E+004
  2.9006540E+004
  2.5140418E+004
  2.1851308E+004
  1.9027271E+004
  1.9201924E+004
  2.2163540E+004
  2.7623428E+004
  3.3982101E+004
  4.0271499E+004
  4.6277014E+004
  5.2114808E+004
  5.7869552E+004
  6.3439008E+004
  6.8360028E+004
  7.1626689E+004
  7.1126276E+004
  6.3577840E+004
  4.5909492E+004
  2.3044134E+004
  1.3214472E+004
 -7.6345946E+004
 -3.1229086E+004
 -3.1343468E+004
 -3.7943921E+004
 -3.1932211E+004
 -3.5728663E+004
 -4.1434174E+004
 -4.8850842E+004
 -5.9653252E+004
 -7.6357729E+004
 -9.8923381E+004
 -1.2067802E+005
 -2.3145248E+005
 -2.0597620E+004
 -1.9277838E+004
 -1.3113110E+004
 -4.6632441E+003
  6.8550514E+003
  1.7218316E+004
  2.5245881E+004
  3.1187623E+004
  3.4760403E+004
  3.6239085E+004
  3.6901026E+004
  3.9032743E+004
  4.2487816E+004
  4.3638819E+004
  3.4164109E+004
  3.0913675E+004
  3.0516238E+004
  2.9799395E+004
  2.7963123E+004
  2.5753933E+004
  2.3864376E+004
  2.2717302E+004
  2.2352633E+004
  2.2310782E+004
  2.2275381E+004
  2.2527479E+004
  2.3871456E+004
  2.8468062E+004
  3.5330947E+004
  3.4638872E+004
  7.6301760E+003
  6.9800475E+002
  6.3835620E+003
  8.7250616E+003
  8.0559217E+003
  8.3253063E+003
  8.4223909E+003
  9.2977755E+003
  1.1345731E+004
  1.5287079E+004
  2.0723789E+004
  2.6975870E+004
  3.3354977E+004
  3.9466258E+004
  4.5127155E+004
  5.0175178E+004
  5.4290441E+004
  5.6858758E+004
  5.6810617E+004
  5.2640542E+004
  4.2804272E+004
  2.7839568E+004
  1.1165653E+004
  9.0541953E+003
  1.3007760E+004
  1.7589926E+004
  1.8210563E+004
  5.8244604E+004
  2.6698954E+004
  6.1578749E+002
 -1.2196010E+004
 -2.0051437E+004
 -2.8435045E+004
 -3.7857301E+004
 -4.5997133E+004
 -5.2754576E+004
 -3.8944322E+004
 -9.5905009E+004
 -1.1660957E+005
 -9.8802515E+004
 -6.6914098E+004
 -6.1638617E+003
 -4.0547941E+004
 -1.6757928E+004
 -2.9864474E+004
 -6.9181146E+003
 -2.1572096E+004
 -6.5033128E+003
 -1.5980822E+004
 -4.3796288E+003
 -1.1313658E+004
 -3.1576293E+003
 -7.4761102E+003
 -1.9672092E+003
 -4.2837082E+003
 -8.6307973E+002
 -1.8601009E+003
  1.1253453E+002
 -2.4720721E+002
  8.4376657E+002
 -2.2108257E+004
 -1.8785940E+004
 -1.2227565E+004
 -5.4689359E+002
  1.2623442E+004
  2.2656484E+004
  2.9919601E+004
  3.5193142E+004
  3.9144197E+004
  4.2259273E+004
  4.5152949E+004
  4.8382266E+004
  5.1052609E+004
  4.9870188E+004
  4.7839503E+004
  4.4016830E+004
  4.1598951E+004
  3.9287333E+004
  3.6179138E+004
  3.2529501E+004
  2.9433359E+004
  2.8048603E+004
  2.7847783E+004
  2.8061637E+004
  2.7914572E+004
  2.7311521E+004
  2.6529979E+004
  2.5760864E+004
  2.2377938E+004
  1.1293961E+004
  6.9969696E+002
 -1.0216422E+004
 -1.2412638E+004
 -1.0050000E+004
 -7.2498312E+003
 -4.8982910E+003
 -2.3786962E+003
  4.2706305E+002
  4.0600332E+003
  8.6754235E+003
  1.4197555E+004
  2.0225825E+004
  2.6302776E+004
  3.2037553E+004
  3.7123008E+004
  4.1254613E+004
  4.4028154E+004
  4.4859268E+004
  4.2982407E+004
  3.7644657E+004
  2.8682336E+004
  1.7528302E+004
  8.6232744E+003
  6.1946331E+003
  7.8024584E+003
  6.4080697E+003
  7.6517955E+003
  5.8930535E+004
  4.0968734E+004
  2.6434239E+004
  1.7648936E+004
  6.4144460E+003
 -6.1339838E+003
 -1.5290716E+004
 -2.1506000E+004
 -2.4795733E+004
 -4.1704823E+004
 -7.7466664E+004
 -1.1438659E+005
 -9.9883596E+004
 -7.4921831E+004
 -5.5720075E+004
 -4.2216238E+004
 -3.1434419E+004
 -2.2685198E+004
 -1.5405529E+004
 -9.5457088E+003
 -5.3776228E+003
 -2.1168352E+003
  2.3439949E+001
  3.5353751E+002
  7.0213684E+002
  5.0240505E+002
  8.8919585E+002
  6.4138961E+002
 -1.7397012E+004
 -3.2037775E+004
 -1.3230429E+004
  6.4497296E+003
  1.9630604E+004
  2.6977914E+004
  3.2038596E+004
  3.6094476E+004
  3.9854833E+004
  4.3476895E+004
  4.7101315E+004
  5.0538291E+004
  5.2959515E+004
  5.3934324E+004
  5.2608104E+004
  5.0963327E+004
  4.8918514E+004
  4.6190946E+004
  4.1749974E+004
  3.6057852E+004
  3.1469424E+004
  2.9116602E+004
  2.9518179E+004
  3.0298806E+004
  3.0065813E+004
  2.8052002E+004
  2.4912065E+004
  2.0009401E+004
  1.2868356E+004
  2.9765052E+003
 -9.2694391E+003
 -1.7246384E+004
 -2.0493777E+004
 -1.9797106E+004
 -1.7168622E+004
 -1.3859534E+004
 -1.0302433E+004
 -6.3948184E+003
 -2.0298997E+003
  2.9092973E+003
  8.3316469E+003
  1.3991896E+004
  1.9553410E+004
  2.4671924E+004
  2.9018605E+004
  3.2257658E+004
  3.4008649E+004
  3.3837765E+004
  3.1331398E+004
  2.6310387E+004
  1.9228555E+004
  1.1602189E+004
  5.7933941E+003
  3.2972353E+003
  4.3433991E+003
  8.2578756E+003
  5.6576604E+003
  1.0813797E+005
  7.6973596E+004
  5.3598991E+004
  3.1382731E+004
  1.4093522E+004
  2.8695912E+003
 -5.5228353E+003
 -1.6809005E+004
 -3.6127104E+004
 -6.5121008E+004
 -8.4463141E+004
 -9.1164054E+004
 -8.0885328E+004
 -6.6200381E+004
 -5.2248223E+004
 -4.0054343E+004
 -2.9416585E+004
 -2.0353150E+004
 -1.2988847E+004
 -7.3784982E+003
 -3.3845909E+003
 -7.5116903E+002
  5.1108525E+002
  6.9901946E+002
  4.2513709E+002
  6.0112866E+002
 -1.0225960E+004
  9.6774100E+003
 -8.6736331E+002
  1.8772358E+004
  2.3780825E+004
  2.6913906E+004
  2.8726794E+004
  3.1783463E+004
  3.5535405E+004
  3.9497260E+004
  4.3343212E+004
  4.6816547E+004
  4.9568692E+004
  5.1142846E+004
  5.1854022E+004
  5.1750339E+004
  5.1203082E+004
  4.9562036E+004
  4.5051305E+004
  3.5890301E+004
  2.6922024E+004
  2.6018256E+004
  2.7755910E+004
  2.8501238E+004
  2.8575495E+004
  2.7017779E+004
  2.0619075E+004
  1.4142836E+004
  7.0613848E+003
 -1.9730097E+003
 -1.2152543E+004
 -1.9754041E+004
 -2.3181248E+004
 -2.3405780E+004
 -2.1558433E+004
 -1.8542383E+004
 -1.4901617E+004
 -1.0849726E+004
 -6.4057582E+003
 -1.6019425E+003
  3.4608935E+003
  8.5809165E+003
  1.3488699E+004
  1.7886817E+004
  2.1474223E+004
  2.3950008E+004
  2.5016159E+004
  2.4407537E+004
  2.1978516E+004
  1.7859753E+004
  1.2648068E+004
  7.4269385E+003
  3.4170481E+003
  1.0452482E+003
  2.4333214E+002
  1.7893794E+003
  2.4314359E+003
  6.2851808E+003
  7.0422389E+004
  9.1939843E+004
  8.7981078E+004
  4.9517423E+004
  3.0297304E+004
  1.8495492E+004
  6.4360836E+003
 -9.0661512E+003
 -2.9421746E+004
 -5.1557405E+004
 -7.0552398E+004
 -7.7749667E+004
 -7.5499352E+004
 -6.6570610E+004
 -5.5234045E+004
 -4.3587023E+004
 -3.2528607E+004
 -2.2562818E+004
 -1.4183933E+004
 -7.7788893E+003
 -3.4503003E+003
 -9.8530703E+002
  1.4829985E+002
  4.2606207E+002
  3.0573803E+002
  2.8710614E+004
  1.4103205E+004
 -1.3022962E+004
  2.4177201E+004
  1.8499129E+004
  1.6447335E+004
  1.6722636E+004
  2.0817444E+004
  2.5689582E+004
  3.0327129E+004
  3.4471360E+004
  3.8157618E+004
  4.1283611E+004
  4.3782827E+004
  4.5622955E+004
  4.7079960E+004
  4.8147889E+004
  4.8533574E+004
  4.6740559E+004
  3.7331067E+004
  2.1793617E+004
  1.6658137E+004
  1.8083416E+004
  1.7033301E+004
  1.7642302E+004
  1.9528109E+004
  1.5465975E+004
  1.0915539E+004
  9.6215697E+003
 -2.5249633E+003
 -1.2298566E+004
 -1.7692143E+004
 -2.0984514E+004
 -2.2275324E+004
 -2.1440864E+004
 -1.9292160E+004
 -1.6341488E+004
 -1.2817340E+004
 -8.8685773E+003
 -4.6087972E+003
 -1.7196750E+002
  4.2446320E+003
  8.4006174E+003
  1.2038878E+004
  1.4904379E+004
  1.6757198E+004
  1.7391527E+004
  1.6675712E+004
  1.4622122E+004
  1.1476968E+004
  7.7731488E+003
  4.2666390E+003
  1.6456717E+003
  1.7681743E+002
 -3.5656155E+002
 -2.3911176E+002
 -1.3131441E+002
 -4.9935606E+002
  1.0737508E+005
  8.3170200E+004
  5.5643705E+004
  5.0969317E+004
  3.6379830E+004
  1.9378086E+004
  8.7678915E+002
 -1.9053742E+004
 -3.8676365E+004
 -5.3952966E+004
 -6.2868899E+004
 -6.4156293E+004
 -5.9765873E+004
 -5.1782619E+004
 -4.2027317E+004
 -3.1655177E+004
 -2.1601193E+004
 -1.2819114E+004
 -6.2000673E+003
 -2.1494235E+003
 -5.0502837E+002
 -7.6718441E+001
 -8.2234878E+001
 -6.5264964E+001
 -6.0192586E+004
 -9.6868235E+003
  6.3900876E+003
 -6.8269235E+003
 -1.1389807E+004
 -5.5056203E+003
  3.4223403E+003
  1.0957086E+004
  1.6610624E+004
  2.1189442E+004
  2.5238523E+004
  2.8853685E+004
  3.1997261E+004
  3.4747547E+004
  3.7113807E+004
  3.9424865E+004
  4.0545619E+004
  4.3042758E+004
  3.3376825E+004
  1.9327299E+004
  3.5057170E+003
  9.1613434E+003
  5.7093397E+003
  5.0356307E+003
  1.1921972E+004
  1.9528487E+004
  1.3429594E+004
  1.4129868E+004
  3.9296912E+003
 -5.7247873E+003
 -9.6473020E+003
 -1.5007944E+004
 -1.6992006E+004
 -1.7466142E+004
 -1.6785188E+004
 -1.4970622E+004
 -1.2443624E+004
 -9.4394664E+003
 -6.0440208E+003
 -2.4472495E+003
  1.1336265E+003
  4.4686234E+003
  7.3328838E+003
  9.5208827E+003
  1.0855463E+004
  1.1205863E+004
  1.0524056E+004
  8.8929226E+003
  6.5668934E+003
  3.9805305E+003
  1.6652373E+003
  1.3784549E+002
 -3.1435586E+002
 -5.6771124E+002
 -2.2474053E+003
 -2.2944424E+003
  1.4034098E+005
  1.8379373E+005
  1.2308651E+005
  8.1925712E+004
  5.6017642E+004
  3.4079671E+004
  1.2990157E+004
 -7.3402053E+003
 -2.4814103E+004
 -3.8431111E+004
 -4.6918076E+004
 -5.0260404E+004
 -4.8958465E+004
 -4.4111003E+004
 -3.6706063E+004
 -2.7628010E+004
 -1.7856832E+004
 -8.8922498E+003
 -2.4525326E+003
  3.6970841E+002
  7.3308207E+002
 -4.0070820E+002
 -6.9343421E+002
 -3.8331912E+002
 -6.0186789E+004
 -6.9448180E+004
 -3.9563061E+004
 -6.6715314E+004
 -5.4797044E+004
 -3.4409821E+004
 -1.7222606E+004
 -7.1102398E+003
 -8.1972643E+002
  4.3434999E+003
  8.9867661E+003
  1.3161916E+004
  1.6843778E+004
  2.0053334E+004
  2.2813661E+004
  2.5144906E+004
  2.6317791E+004
  2.6553627E+004
  1.6050056E+004
  1.0914233E+004
  1.7865282E+004
  9.8104724E+003
  1.4008259E+004
  2.2703904E+004
  1.0053293E+004
  4.4625920E+003
 -5.2159347E+003
 -7.9460707E+003
 -1.1049275E+004
 -1.1555824E+004
 -1.1148613E+004
 -1.0122226E+004
 -8.2948302E+003
 -5.9802563E+003
 -3.3704525E+003
 -7.0598633E+002
  1.7621629E+003
  3.8418181E+003
  5.3836940E+003
  6.2618195E+003
  6.3936912E+003
  5.7706844E+003
  4.4878481E+003
  2.7673315E+003
  9.1979299E+002
 -6.2629984E+002
 -1.7222677E+003
 -1.6818097E+003
 -2.5732848E+003
 -6.7125817E+003
 -6.4304334E+003
  1.1392505E+005
  1.0673409E+005
  9.9532648E+004
  7.3315081E+004
  5.0491261E+004
  2.4798255E+004
  4.9947842E+003
 -1.0376454E+004
 -2.1784206E+004
 -2.9798303E+004
 -3.4337274E+004
 -3.5510719E+004
 -3.3550075E+004
 -2.8766599E+004
 -2.1348585E+004
 -1.2148974E+004
 -3.1051971E+003
  2.9738881E+003
  4.8194865E+003
  1.4730580E+003
 -8.4204819E+002
 -8.5811125E+002
 -3.6159369E+002
 -1.8450456E+004
 -2.0775820E+005
 -1.4898231E+005
 -1.5092521E+005
 -1.0204917E+005
 -6.0399308E+004
 -3.6476274E+004
 -2.8019493E+004
 -2.1070086E+004
 -1.4888107E+004
 -9.3260757E+003
 -4.5236311E+003
 -4.5092913E+002
  2.9344709E+003
  5.6669919E+003
  7.5720100E+003
  8.2782579E+003
  5.7649532E+003
  1.0114002E+002
 -5.7045377E+003
  2.2364087E+004
  1.5468814E+004
  2.0294410E+004
  7.2801564E+003
  3.9397941E+003
 -2.6469872E+003
 -4.0845588E+003
 -6.0125050E+003
 -6.1063653E+003
 -5.7361303E+003
 -4.6441902E+003
 -3.0166471E+003
 -1.3030574E+003
  2.4804755E+002
  1.5322087E+003
  2.4461876E+003
  2.9013659E+003
  2.8337172E+003
  2.2394810E+003
  1.1994881E+003
 -1.2518758E+002
 -1.4903890E+003
 -2.7057300E+003
 -3.4192147E+003
 -4.2417774E+003
 -4.0699878E+003
 -3.2478073E+003
  1.0055171E+004
  1.5501111E+005
  1.2381855E+005
  9.5756697E+004
  6.1470140E+004
  3.4455287E+004
  1.6964231E+004
  5.5112096E+003
 -3.4999318E+003
 -1.0934461E+004
 -1.6587357E+004
 -2.0038773E+004
 -2.0887616E+004
 -1.8845396E+004
 -1.3822947E+004
 -4.6102756E+003
  6.0696190E+003
  1.0517042E+004
  5.2474945E+003
  3.2790967E+002
 -1.0028359E+003
 -4.1415353E+002
 -2.1706056E+002
 -2.6442585E+005
 -1.5903122E+005
 -1.5860365E+005
 -1.2948157E+005
 -6.4061461E+004
 -6.1641814E+004
 -5.1413615E+004
 -4.2726078E+004
 -3.4550034E+004
 -2.7983341E+004
 -2.2619672E+004
 -1.8350145E+004
 -1.4983001E+004
 -1.2392720E+004
 -1.0576251E+004
 -9.5944333E+003
 -9.8627654E+003
 -7.5790377E+003
 -2.6155850E+003
  1.4938192E+004
  1.1529178E+004
  1.5198418E+004
  6.3040193E+003
  4.7410044E+003
  5.9560942E+002
 -8.2652057E+002
 -2.2973155E+003
 -2.1988689E+003
 -1.4742798E+003
 -7.8555235E+002
 -1.8860128E+002
  2.7998521E+002
  5.9311456E+002
  6.5315062E+002
  3.8870092E+002
 -2.1796607E+002
 -1.1159369E+003
 -2.1858395E+003
 -3.2688449E+003
 -4.2022817E+003
 -4.8320698E+003
 -5.1536619E+003
 -3.6229868E+003
 -1.0716122E+003
  8.5337136E+004
  1.1696024E+005
  1.1391459E+005
  6.3674015E+004
  4.0153723E+004
  3.0962822E+004
  2.4685994E+004
  1.7534819E+004
  1.0047050E+004
  3.0025813E+003
 -2.8420397E+003
 -6.5870799E+003
 -7.0784919E+003
 -3.9866782E+003
  9.3084795E+002
  1.2616895E+004
  2.0138592E+004
  5.3431698E+003
 -4.2285916E+003
 -4.6346073E+004
 -1.0574869E+005
 -2.1312514E+005
 -1.0583688E+005
 -9.2407315E+004
 -7.4515704E+004
 -6.1505795E+004
 -5.2048479E+004
 -4.4871256E+004
 -3.9437281E+004
 -3.5293302E+004
 -3.2135654E+004
 -2.9637575E+004
 -2.7485851E+004
 -2.4938126E+004
 -2.1469097E+004
 -1.2530377E+004
 -4.7579798E+003
  1.0637007E+004
  8.8677013E+003
  1.2804275E+004
  6.8888952E+003
  5.8403387E+003
  1.0891708E+003
  1.4313566E+003
  1.1506332E+003
  6.7613502E+002
  1.8768580E+002
 -7.8431904E+001
 -3.2242271E+002
 -6.2273982E+002
 -1.0732435E+003
 -1.7311198E+003
 -2.5632997E+003
 -3.4789283E+003
 -4.3499205E+003
 -5.0605429E+003
 -5.3964047E+003
 -5.1708224E+003
 -3.1096628E+003
 -1.2162240E+003
  9.2695142E+002
  1.2056603E+005
  9.3920503E+004
  5.1436516E+004
  5.2815379E+004
  5.3130553E+004
  4.8974542E+004
  4.1496657E+004
  3.2838611E+004
  2.4008244E+004
  1.5865573E+004
  8.9549609E+003
  5.6743074E+003
  9.0689081E+003
  2.1978729E+004
  4.0047619E+004
  3.3224791E+004
 -9.1091208E+004
 -1.0829817E+005
 -1.0976039E+005
 -8.2770265E+004
 -7.3462902E+004
 -6.4277526E+004
 -5.8217570E+004
 -5.3462994E+004
 -4.9972660E+004
 -4.7277681E+004
 -4.4934380E+004
 -4.2307694E+004
 -3.8068842E+004
 -3.1218118E+004
 -1.7155394E+004
 -5.2059928E+003
  7.7123609E+003
  8.6718575E+003
  1.3390275E+004
  6.7660105E+003
  6.5583956E+003
  4.1354241E+003
  2.3261460E+003
  1.2768855E+003
  2.7819069E+002
 -4.7472591E+002
 -1.0437604E+003
 -1.6689719E+003
 -2.4204502E+003
 -3.2553304E+003
 -4.0798293E+003
 -4.7870442E+003
 -5.2652957E+003
 -5.3341283E+003
 -4.8589867E+003
 -2.9026119E+003
 -9.4023903E+002
  1.7098167E+005
  1.7649496E+005
  1.0036835E+005
  8.6591022E+004
  8.6238341E+004
  7.6448647E+004
  6.6703662E+004
  5.5759694E+004
  4.5266710E+004
  3.5376383E+004
  2.6448465E+004
  1.7996250E+004
  1.8290953E+004
  2.8409309E+004
  2.8476248E+004
  9.9949857E+001
 -5.2041013E+004
 -7.9681634E+004
 -7.8549192E+004
 -7.4838669E+004
 -7.0664899E+004
 -6.6824341E+004
 -6.3822063E+004
 -6.1499343E+004
 -5.9610827E+004
 -5.7628130E+004
 -5.4829498E+004
 -4.9591154E+004
 -4.0728545E+004
 -2.1803507E+004
 -7.2651615E+003
  1.3164484E+004
  1.0120143E+004
  8.1768297E+003
  6.9719005E+003
  4.6128676E+003
  2.9664380E+003
  1.1073246E+003
  6.1743768E+001
 -6.7762454E+002
 -1.5159192E+003
 -2.4303436E+003
 -3.3197606E+003
 -4.1132378E+003
 -4.6984382E+003
 -4.9811978E+003
 -4.8131357E+003
 -4.3399817E+003
 -2.7389009E+003
 -1.1840645E+003
  1.0340911E+005
  1.1814718E+005
  1.3477031E+005
  1.1271726E+005
  1.0254189E+005
  8.8416670E+004
  7.6092838E+004
  6.4580920E+004
  5.4150604E+004
  4.5452962E+004
  3.5062812E+004
  3.1813387E+004
  5.1414115E+004
  3.8906349E+004
 -3.4533458E+004
 -4.6343195E+004
 -5.4486422E+004
 -6.5797984E+004
 -7.1035955E+004
 -7.1331487E+004
 -7.0964158E+004
 -7.0206582E+004
 -6.9526133E+004
 -6.8737743E+004
 -6.7412643E+004
 -6.4817514E+004
 -5.9514488E+004
 -5.0590244E+004
 -2.8965364E+004
 -7.4241391E+003
  4.6073960E+003
  5.9055035E+003
  1.0324072E+004
  6.4672346E+003
  5.8172598E+003
  1.9669099E+003
  1.5007892E+003
  4.1706006E+002
 -7.9273829E+002
 -1.9224346E+003
 -2.9270997E+003
 -3.7213590E+003
 -4.2510853E+003
 -4.4110395E+003
 -4.0809835E+003
 -3.3546606E+003
 -2.1450003E+003
 -9.6340062E+002
  2.1774282E+004
  9.2876551E+004
  1.3742894E+005
  1.2888698E+005
  1.1645823E+005
  1.0302558E+005
  9.0449615E+004
  7.9201135E+004
  6.9815914E+004
  6.0993458E+004
  5.6899739E+004
  4.2055284E+004
  2.7308160E+004
 -2.2209224E+004
 -3.7694941E+004
 -5.7217965E+004
 -6.3220951E+004
 -6.8613469E+004
 -7.1160748E+004
 -7.2976031E+004
 -7.4105755E+004
 -7.4650146E+004
 -7.4156047E+004
 -7.2223541E+004
 -6.6826187E+004
 -5.9820218E+004
 -3.8596273E+004
 -2.0642616E+004
  5.5805715E+003
  6.4390854E+003
  9.9474199E+003
  4.7097492E+003
  3.9682351E+003
  1.7102548E+003
  1.3550069E+002
 -1.1410572E+003
 -2.1477649E+003
 -3.0665581E+003
 -3.5725602E+003
 -3.7206057E+003
 -3.4313854E+003
 -2.7902668E+003
 -2.6627940E+003
 -1.6381804E+003
  4.9798722E+004
  8.1788809E+004
  1.2454551E+005
  1.2364116E+005
  1.1793077E+005
  1.0734797E+005
  9.6969442E+004
  8.7147835E+004
  7.8672467E+004
  7.0782987E+004
  6.4998165E+004
  4.3613157E+004
  8.4336502E+003
 -4.8516681E+003
 -2.4694409E+004
 -4.4765024E+004
 -5.5249576E+004
 -6.3052917E+004
 -6.8578305E+004
 -7.2653643E+004
 -7.5644878E+004
 -7.7567386E+004
 -7.8158231E+004
 -7.6755024E+004
 -7.2597347E+004
 -6.3695243E+004
 -4.7685096E+004
 -3.5902105E+004
  9.0025672E+003
  6.3203815E+003
  4.4375534E+003
  2.9525651E+003
  9.9404355E+002
  1.8176661E+002
 -1.3653698E+003
 -2.2685107E+003
 -2.7254694E+003
 -2.8270332E+003
 -2.8747803E+003
 -2.1482340E+003
 -1.3831100E+003
  7.1555166E+004
  7.7386646E+004
  9.9066164E+004
  1.0789961E+005
  1.0766683E+005
  1.0261478E+005
  9.5486401E+004
  8.7808382E+004
  8.0040623E+004
  7.2149313E+004
  6.1225115E+004
  4.5041003E+004
  2.1876060E+004
  1.1521152E+004
 -1.2082722E+004
 -4.6610474E+003
 -1.5715336E+004
 -3.3647417E+004
 -4.6274588E+004
 -5.6271028E+004
 -6.3918530E+004
 -6.9977509E+004
 -7.4653336E+004
 -7.7971895E+004
 -7.9687393E+004
 -7.9333357E+004
 -7.6181413E+004
 -6.8913918E+004
 -5.8207310E+004
 -3.6032380E+004
 -1.0123662E+004
 -1.9797032E+004
  2.9057938E+003
  2.8725038E+003
  4.3071376E+003
  1.6293603E+003
  1.2199056E+003
 -2.4251159E+002
 -1.2929399E+003
 -1.5593328E+003
 -1.8818377E+003
 -1.8851785E+003
 -1.1492029E+003
 -1.9254381E+002
  8.7684571E+004
  9.9459168E+004
  5.3057872E+004
  5.9498143E+004
  7.4544063E+004
  8.6862857E+004
  9.1705936E+004
  9.1420163E+004
  8.7849578E+004
  8.2343715E+004
  7.5460404E+004
  6.6770148E+004
  5.5251445E+004
  3.9938007E+004
  2.6365978E+004
  2.6371259E+004
 -1.3449229E+003
 -9.9156565E+003
 -2.4973226E+004
 -3.7838372E+004
 -4.8854401E+004
 -5.7966967E+004
 -6.5566350E+004
 -7.1705467E+004
 -7.6331451E+004
 -7.9288859E+004
 -8.0106033E+004
 -7.8899454E+004
 -7.3854210E+004
 -7.2632900E+004
 -5.6272416E+004
 -3.7397988E+004
  2.8871727E+003
  1.2335562E+003
  1.3180556E+003
  1.4056054E+003
  6.1374101E+000
 -4.1545318E+002
 -8.5906753E+002
 -8.0259546E+002
 -5.3421944E+002
 -2.6505754E+002
  5.2203319E+004
  8.2311572E+004
  6.0706342E+004
  5.7602895E+004
  6.2986147E+004
  3.6219987E+004
  4.4933708E+004
  5.5233907E+004
  6.7089085E+004
  7.4449749E+004
  7.7353097E+004
  7.6593095E+004
  7.3074978E+004
  6.7228013E+004
  5.9031944E+004
  4.8297741E+004
  3.5962679E+004
  2.4281836E+004
  2.1692476E+004
  2.4650561E+004
  2.7281391E+004
 -5.4182012E+002
 -7.3016094E+003
 -1.7738954E+004
 -3.0283962E+004
 -4.1135096E+004
 -5.1217730E+004
 -5.9946735E+004
 -6.7285068E+004
 -7.3114042E+004
 -7.7260855E+004
 -7.9561621E+004
 -7.9600391E+004
 -7.7979845E+004
 -7.2172976E+004
 -6.4850078E+004
 -7.3322577E+004
  1.7105653E+003
  3.6613537E+002
  1.5551885E+002
 -3.0127693E+002
 -1.7146474E+002
 -2.0909671E+002
  2.2134535E+004
  2.8761642E+004
  1.4993043E+004
  8.1693679E+003
  1.5640253E+004
  8.5209533E+003
  1.2061813E+004
  3.6927972E+003
  1.0689962E+004
  3.3772825E+003
  1.0290542E+004
  2.8662238E+003
  1.0898726E+004
  3.1425117E+003
  1.2994500E+004
  3.2617048E+003
  1.6529909E+004
  6.1386762E+003
  2.6294373E+004
  5.5878536E+003
  4.1347795E+004
  3.2907565E+004
  4.5542643E+004
  4.3884263E+004
  3.9613097E+004
  3.1191775E+004
  3.2597261E+004
  4.1486875E+004
  5.1109988E+004
  5.8780582E+004
  6.3133355E+004
  6.4162816E+004
  6.2241895E+004
  5.7714214E+004
  5.0836488E+004
  4.2071730E+004
  3.2600095E+004
  2.5345276E+004
  2.2101340E+004
  2.1084446E+004
  1.8645034E+004
  2.0814187E+004
 -4.2278711E+003
 -1.0721017E+004
 -2.2538031E+004
 -3.3253802E+004
 -4.3983666E+004
 -5.3485005E+004
 -6.1767855E+004
 -6.8634557E+004
 -7.3956504E+004
 -7.7621695E+004
 -7.9345647E+004
 -7.9231320E+004
 -7.4365604E+004
 -7.3091930E+004
 -6.2299543E+004
 -4.6790034E+004
 -3.9327173E+004
  2.1737573E+004
  3.7274768E+004
  2.1502527E+004
  9.8679992E+003
  2.6547987E+004
  1.9427827E+004
  2.1468432E+004
  1.7879490E+004
  2.1207717E+004
  2.0516890E+004
  1.9859045E+004
  1.9982414E+004
  2.1472163E+004
  2.4582071E+004
  3.0272346E+004
  3.8000873E+004
  4.2646821E+004
  3.2393747E+004
  2.6851478E+004
  2.6365641E+004
  2.4233895E+004
  2.5685947E+004
  3.1478900E+004
  3.9042523E+004
  4.5773974E+004
  5.0347581E+004
  5.2256856E+004
  5.1508979E+004
  4.8331470E+004
  4.3105640E+004
  3.6521435E+004
  2.9773905E+004
  2.4471064E+004
  2.1190679E+004
  2.1447742E+004
  1.7602960E+004
  1.0801160E+004
  8.1936593E+003
  1.6182070E+003
 -3.4018766E+003
 -1.3919535E+004
 -2.5615072E+004
 -3.6355409E+004
 -4.6400645E+004
 -5.5383016E+004
 -6.3109737E+004
 -6.9494273E+004
 -7.4490874E+004
 -7.8162033E+004
 -8.0262519E+004
 -8.2075157E+004
 -8.3473274E+004
 -8.2567199E+004
 -8.1928069E+004
  2.9732581E+004
  4.4448419E+004
  2.9133550E+004
  2.3649224E+004
  3.2158992E+004
  2.6562895E+004
  2.9013521E+004
  2.2392608E+004
  2.0483394E+004
  2.1709022E+004
  2.3355088E+004
  2.4207188E+004
  2.5269947E+004
  2.7072592E+004
  2.9909200E+004
  3.3399571E+004
  3.5827192E+004
  3.3696029E+004
  2.9884305E+004
  2.3745542E+004
  1.9712410E+004
  1.8812887E+004
  2.0341195E+004
  2.4449047E+004
  3.0020491E+004
  3.5474438E+004
  3.9603336E+004
  4.1776332E+004
  4.1799905E+004
  3.9788293E+004
  3.6107933E+004
  3.1396735E+004
  2.6559876E+004
  2.2504877E+004
  1.9959951E+004
  1.8196539E+004
  1.7196669E+004
  1.9528629E+004
  3.5763670E+003
  1.1354413E+003
 -7.7800604E+003
 -1.7671413E+004
 -2.8328940E+004
 -3.8766385E+004
 -4.8242376E+004
 -5.6627042E+004
 -6.3872043E+004
 -7.0062760E+004
 -7.5438425E+004
 -8.0587563E+004
 -8.6256488E+004
 -9.1441866E+004
 -9.4206941E+004
 -6.9170587E+004
 -1.7433295E+004
 -5.0979548E+004
  3.2345926E+004
  4.1081542E+004
  2.6809461E+004
  1.1910340E+004
  3.4933607E+004
  2.7197933E+004
  3.0909245E+004
  2.7057919E+004
  2.7228464E+004
  2.5454278E+004
  2.4618118E+004
  2.4201528E+004
  2.2991107E+004
  2.3615762E+004
  2.5049221E+004
  2.6541404E+004
  2.8016336E+004
  2.9711227E+004
  3.1563816E+004
  3.2998330E+004
  3.2807115E+004
  3.0466508E+004
  2.5372698E+004
  2.0496206E+004
  1.6983424E+004
  1.5519598E+004
  1.6430195E+004
  1.9276032E+004
  2.3298591E+004
  2.7488136E+004
  3.0929499E+004
  3.3017802E+004
  3.3485742E+004
  3.2355630E+004
  2.9897975E+004
  2.6591416E+004
  2.3053358E+004
  1.9834428E+004
  1.7312650E+004
  1.4875106E+004
  1.3662442E+004
  1.2094994E+004
  9.5940977E+003
  1.0355781E+004
  9.6801443E+003
  1.3088980E+004
  3.7474853E+003
 -8.4128353E+003
 -1.9862828E+004
 -3.0553835E+004
 -4.0340272E+004
 -4.9226983E+004
 -5.7052926E+004
 -6.3986993E+004
 -7.0554595E+004
 -7.7124931E+004
 -8.5887585E+004
 -9.3633438E+004
 -1.1903806E+005
 -1.1251961E+005
 -9.1805907E+004
  3.5488631E+004
  4.1987540E+004
  2.6025671E+004
  1.2473737E+004
  3.3900902E+004
  2.7105561E+004
  3.0244654E+004
  2.8965117E+004
  3.5215283E+004
  2.7641075E+004
  2.3735227E+004
  2.4000718E+004
  2.4012739E+004
  2.3897617E+004
  2.3526924E+004
  2.3732274E+004
  2.4443497E+004
  2.5719448E+004
  2.7171911E+004
  2.8585266E+004
  2.9850049E+004
  3.0752731E+004
  3.0823471E+004
  2.9553280E+004
  2.6564795E+004
  2.2582273E+004
  1.8299762E+004
  1.5006592E+004
  1.3406742E+004
  1.3625054E+004
  1.5427492E+004
  1.8240644E+004
  2.1353634E+004
  2.4086759E+004
  2.5930832E+004
  2.6609249E+004
  2.6078119E+004
  2.4497328E+004
  2.2184641E+004
  1.9533332E+004
  1.6921432E+004
  1.4515201E+004
  1.2651223E+004
  1.1595199E+004
  1.2112098E+004
  1.4211814E+004
  1.1316712E+004
  9.3144022E+003
 -4.0084926E+002
 -1.0973364E+004
 -2.1396791E+004
 -3.1789089E+004
 -4.0972262E+004
 -4.9065147E+004
 -5.6245406E+004
 -6.2882073E+004
 -6.9830405E+004
 -7.7290247E+004
 -8.8710502E+004
 -9.7197914E+004
 -1.1800323E+005
 -1.7998100E+005
  2.4144512E+004
  3.0314728E+004
  1.5617613E+004
  8.7985460E+003
  1.7717933E+004
  9.2855465E+003
  1.5581991E+004
  5.6092740E+003
  1.8859824E+004
  4.9015045E+003
  2.4469401E+004
  1.8598046E+004
  2.5044564E+004
  2.5276230E+004
  3.3470680E+004
  2.7572020E+004
  2.6342566E+004
  2.6467453E+004
  2.6240984E+004
  2.3691120E+004
  2.2429646E+004
  2.2439444E+004
  2.2630976E+004
  2.3000639E+004
  2.3509699E+004
  2.4374338E+004
  2.5495407E+004
  2.6708435E+004
  2.7802178E+004
  2.8575706E+004
  2.8783396E+004
  2.8134115E+004
  2.6367685E+004
  2.3522705E+004
  1.9901333E+004
  1.6300799E+004
  1.3409268E+004
  1.1743772E+004
  1.1493281E+004
  1.2504942E+004
  1.4392960E+004
  1.6646372E+004
  1.8755657E+004
  2.0309705E+004
  2.1052083E+004
  2.0896535E+004
  1.9911687E+004
  1.8283528E+004
  1.6261283E+004
  1.4096111E+004
  1.2023955E+004
  1.0329758E+004
  8.9020376E+003
  7.8291695E+003
  6.3745387E+003
  3.9153529E+003
  8.5268517E+003
  1.7121853E+004
  2.7294053E+004
  1.4649768E+004
  5.2959694E+002
 -1.1796635E+004
 -2.2626261E+004
 -3.2015235E+004
 -4.0191168E+004
 -4.7097918E+004
 -5.3168305E+004
 -5.8856385E+004
 -6.4879208E+004
 -7.0838966E+004
 -7.7189585E+004
 -8.5655498E+004
 -1.3193778E+005
 -1.8012118E+005
 -1.9768753E+005
  2.3621299E+004
  3.1035626E+004
  1.7088260E+004
  9.4851482E+003
  2.1034731E+004
  9.8931823E+003
  2.1333805E+004
  1.4567577E+004
  1.9443571E+004
  1.7506850E+004
  2.3431610E+004
  2.5488691E+004
  2.7783688E+004
  2.8258044E+004
  2.2018236E+004
  2.2366112E+004
  2.4456382E+004
  2.6107517E+004
  2.4830232E+004
  2.4383163E+004
  2.3301442E+004
  2.2291723E+004
  2.1558729E+004
  2.1378097E+004
  2.1641321E+004
  2.2095022E+004
  2.2751004E+004
  2.3573493E+004
  2.4514363E+004
  2.5436991E+004
  2.6169645E+004
  2.6516786E+004
  2.6272541E+004
  2.5248137E+004
  2.3354034E+004
  2.0671689E+004
  1.7546330E+004
  1.4442335E+004
  1.1888371E+004
  1.0264513E+004
  9.7250343E+003
  1.0194826E+004
  1.1413210E+004
  1.3016444E+004
  1.4622614E+004
  1.5904019E+004
  1.6633405E+004
  1.6702015E+004
  1.6112986E+004
  1.4957226E+004
  1.3379557E+004
  1.1558716E+004
  9.6951253E+003
  8.0364921E+003
  6.7851447E+003
  7.1036883E+003
  6.0998078E+003
  3.4609388E+003
  1.9903942E+004
  1.9692492E+004
  9.7247761E+003
 -2.1119778E+003
 -1.2639220E+004
 -2.2792504E+004
 -3.0852856E+004
 -3.7239094E+004
 -4.2330199E+004
 -4.6631378E+004
 -5.0574139E+004
 -5.4644437E+004
 -6.1256202E+004
 -7.9063010E+004
 -1.1352859E+005
 -1.2924628E+005
 -1.8434797E+005
 -2.0824887E+005
  3.3946151E+004
  3.6947239E+004
  2.0217518E+004
  1.0802964E+004
  2.5669020E+004
  2.1678412E+004
  2.1222305E+004
  1.9243113E+004
  2.4913948E+004
  2.4591649E+004
  1.8912913E+004
  1.8972463E+004
  2.2449128E+004
  2.5885918E+004
  2.7156940E+004
  2.5730317E+004
  2.4408083E+004
  2.2604857E+004
  2.2945253E+004
  2.2954244E+004
  2.2840277E+004
  2.2224652E+004
  2.1660984E+004
  2.0989277E+004
  2.0532728E+004
  2.0421296E+004
  2.0619984E+004
  2.1052415E+004
  2.1628769E+004
  2.2306754E+004
  2.3013009E+004
  2.3642385E+004
  2.4053221E+004
  2.4082213E+004
  2.3567767E+004
  2.2387164E+004
  2.0514433E+004
  1.8068932E+004
  1.5313171E+004
  1.2623057E+004
  1.0369176E+004
  8.8350582E+003
  8.1510713E+003
  8.2796962E+003
  9.0451339E+003
  1.0185776E+004
  1.1414451E+004
  1.2470971E+004
  1.3158470E+004
  1.3360053E+004
  1.3036925E+004
  1.2213182E+004
  1.0954244E+004
  9.3604824E+003
  7.5579129E+003
  5.8050093E+003
  4.3291368E+003
  3.7326681E+003
  2.9847757E+003
  1.9003586E+003
  2.5275351E+004
  4.3025587E+004
  2.7208794E+004
  1.0726733E+004
 -2.9032973E+003
 -1.3667019E+004
 -2.1552342E+004
 -2.7349470E+004
 -3.1444250E+004
 -3.4573786E+004
 -3.7404850E+004
 -4.0927313E+004
 -4.7684940E+004
 -5.8349948E+004
 -7.2638559E+004
 -7.2422994E+004
 -1.0232794E+005
 -9.0272933E+004
 -7.8650467E+004
 -5.0587966E+004
 -5.1427631E+003
 -2.6243814E+004
 -1.0788770E+004
 -1.6620077E+004
 -3.0100566E+003
 -9.0878833E+003
 -2.5807262E+003
 -3.7864347E+003
  1.1306855E+002
  3.4202132E+003
  5.6613636E+002
  1.1149115E+004
  1.3671701E+004
  1.2975152E+004
  1.3609353E+004
  2.1431867E+004
  1.7230862E+004
  1.7487680E+004
  1.9927926E+004
  2.0836877E+004
  2.0857225E+004
  2.0710875E+004
  2.2632132E+004
  2.4799770E+004
  2.5722799E+004
  2.5252206E+004
  2.3507418E+004
  2.2385547E+004
  2.1682896E+004
  2.1488878E+004
  2.1144031E+004
  2.0738934E+004
  2.0228840E+004
  1.9795747E+004
  1.9504522E+004
  1.9425772E+004
  1.9563318E+004
  1.9865772E+004
  2.0277082E+004
  2.0736461E+004
  2.1182574E+004
  2.1534556E+004
  2.1684590E+004
  2.1502423E+004
  2.0849064E+004
  1.9635589E+004
  1.7853301E+004
  1.5623220E+004
  1.3176664E+004
  1.0808980E+004
  8.8106897E+003
  7.3985829E+003
  6.6748231E+003
  6.6186553E+003
  7.1049811E+003
  7.9407277E+003
  8.9067679E+003
  9.7958537E+003
  1.0439949E+004
  1.0723941E+004
  1.0586082E+004
  1.0006404E+004
  8.9908894E+003
  7.5480173E+003
  5.7348276E+003
  3.6132766E+003
  1.6930206E+003
 -4.8208953E+002
 -2.1016155E+002
  3.5101600E+003
  2.9166256E+004
  3.0606391E+004
  1.9954532E+004
  5.7063520E+003
 -4.5932148E+003
 -1.2915835E+004
 -1.7840889E+004
 -2.1064011E+004
 -2.3483733E+004
 -2.5844385E+004
 -2.9068676E+004
 -3.3994259E+004
 -4.0962715E+004
 -4.7409640E+004
 -5.6474154E+004
 -7.0867733E+004
 -9.1479862E+004
 -7.3252908E+004
 -5.0047581E+004
 -3.2426715E+004
 -2.0233720E+004
 -1.0143427E+004
 -1.6904043E+003
  3.4698338E+003
  1.3093284E+003
  5.0674995E+003
  9.7869932E+003
  1.3694491E+004
  1.5107476E+004
  1.7089558E+004
  1.8776351E+004
  1.9501979E+004
  2.0541346E+004
  2.1902804E+004
  2.3279443E+004
  2.3959627E+004
  2.3622416E+004
  2.2760073E+004
  2.1668873E+004
  2.0885647E+004
  2.0298897E+004
  1.9864129E+004
  1.9436311E+004
  1.9041791E+004
  1.8699905E+004
  1.8472976E+004
  1.8387633E+004
  1.8436827E+004
  1.8586287E+004
  1.8787353E+004
  1.8994807E+004
  1.9167871E+004
  1.9262166E+004
  1.9212461E+004
  1.8906170E+004
  1.8224991E+004
  1.7043106E+004
  1.5369832E+004
  1.3309671E+004
  1.1090114E+004
  8.9714812E+003
  7.1947821E+003
  5.9278795E+003
  5.2444837E+003
  5.1235620E+003
  5.4664393E+003
  6.1232792E+003
  6.9225762E+003
  7.6978510E+003
  8.3072107E+003
  8.6437763E+003
  8.6366663E+003
  8.2436826E+003
  7.4331595E+003
  6.1558962E+003
  4.3141070E+003
  1.8846212E+003
 -9.1612900E+002
 -3.1148863E+003
 -3.1878557E+003
 -8.2549822E+002
 -6.1618353E+001
  4.0981442E+003
  3.3237330E+004
  5.9464706E+004
  3.7993410E+004
  1.6996416E+004
  2.5102428E+003
 -4.9255630E+003
 -8.6363344E+003
 -1.1274470E+004
 -1.3475088E+004
 -1.5828519E+004
 -1.8883422E+004
 -2.3133554E+004
 -2.8618938E+004
 -3.6017191E+004
 -4.6849257E+004
 -6.2096928E+004
 -6.7656808E+004
 -6.6642879E+004
 -5.4401094E+004
 -4.0235928E+004
 -2.7681049E+004
 -1.7465665E+004
 -9.7967147E+003
 -5.5112768E+003
 -1.8429506E+003
  7.2853377E+002
  4.9378846E+003
  8.5471216E+003
  1.1710321E+004
  1.4208447E+004
  1.6254337E+004
  1.7945571E+004
  1.9312027E+004
  2.0617737E+004
  2.1665907E+004
  2.2187732E+004
  2.2086260E+004
  2.1459814E+004
  2.0670659E+004
  1.9900066E+004
  1.9274228E+004
  1.8753682E+004
  1.8319123E+004
  1.7945942E+004
  1.7648606E+004
  1.7437646E+004
  1.7316430E+004
  1.7267822E+004
  1.7256768E+004
  1.7241127E+004
  1.7185905E+004
  1.7077964E+004
  1.6925839E+004
  1.6717027E+004
  1.6390643E+004
  1.5729797E+004
  1.4647531E+004
  1.3043156E+004
  1.1092328E+004
  9.0143107E+003
  7.0839092E+003
  5.5084698E+003
  4.4136172E+003
  3.8374430E+003
  3.7455255E+003
  4.0484931E+003
  4.6220763E+003
  5.3276925E+003
  6.0303440E+003
  6.6114457E+003
  6.9752973E+003
  7.0504048E+003
  6.7860309E+003
  6.1445882E+003
  5.0709631E+003
  3.3956840E+003
  7.5541650E+002
 -2.8214509E+003
 -5.6306878E+003
 -6.1941920E+003
 -5.7209435E+003
 -1.9515155E+003
  3.8097442E+004
  3.9289597E+004
  2.0709649E+004
  7.2409597E+003
  3.8846461E+003
  6.5804132E+002
 -1.9614283E+003
 -4.5010787E+003
 -7.2542633E+003
 -1.0629717E+004
 -1.5029348E+004
 -2.0934756E+004
 -2.8921417E+004
 -3.9268536E+004
 -4.9558357E+004
 -5.7804982E+004
 -5.7669248E+004
 -5.1795456E+004
 -4.2169027E+004
 -3.1986914E+004
 -2.2901827E+004
 -1.5726272E+004
 -1.0319096E+004
 -6.5798756E+003
 -2.6654815E+003
  1.2115225E+003
  5.1622826E+003
  8.6061035E+003
  1.1564586E+004
  1.4017558E+004
  1.6004726E+004
  1.7654589E+004
  1.8975556E+004
  1.9931842E+004
  2.0428016E+004
  2.0433571E+004
  2.0057471E+004
  1.9453386E+004
  1.8802715E+004
  1.8196126E+004
  1.7676832E+004
  1.7241111E+004
  1.6884881E+004
  1.6601049E+004
  1.6384074E+004
  1.6219022E+004
  1.6078879E+004
  1.5925233E+004
  1.5714541E+004
  1.5410198E+004
  1.5014146E+004
  1.4595271E+004
  1.4261777E+004
  1.3928542E+004
  1.3509682E+004
  1.2447181E+004
  1.0891899E+004
  8.9066122E+003
  6.8938287E+003
  5.1135834E+003
  3.7486167E+003
  2.8654559E+003
  2.4577832E+003
  2.4685159E+003
  2.8073796E+003
  3.3648024E+003
  4.0253459E+003
  4.6793262E+003
  5.2292037E+003
  5.5913332E+003
  5.6940727E+003
  5.4799055E+003
  4.9077333E+003
  3.9732841E+003
  2.6388410E+003
  4.1860894E+002
 -4.1546675E+003
 -1.0397177E+004
 -9.6722539E+003
 -4.1984279E+003
  5.1195822E+004
  6.6008721E+004
  2.9404585E+004
  1.6588752E+004
  1.4634953E+004
  1.0007075E+004
  6.7371039E+003
  3.3404447E+003
 -8.5295248E+001
 -4.0414276E+003
 -8.9328995E+003
 -1.5178910E+004
 -2.3016820E+004
 -3.2009624E+004
 -4.0935885E+004
 -4.6917566E+004
 -4.8991121E+004
 -4.6264213E+004
 -4.0357546E+004
 -3.2977147E+004
 -2.5648866E+004
 -1.9189536E+004
 -1.3892438E+004
 -9.3174417E+003
 -5.2512260E+003
 -1.2238501E+003
  2.6164031E+003
  6.1796645E+003
  9.3011724E+003
  1.1948988E+004
  1.4139889E+004
  1.5896542E+004
  1.7249849E+004
  1.8187488E+004
  1.8695082E+004
  1.8793700E+004
  1.8557240E+004
  1.8110586E+004
  1.7571181E+004
  1.7033390E+004
  1.6546790E+004
  1.6133070E+004
  1.5793182E+004
  1.5519004E+004
  1.5293593E+004
  1.5092150E+004
  1.4881605E+004
  1.4622243E+004
  1.4268783E+004
  1.3776565E+004
  1.3111820E+004
  1.2370065E+004
  1.1830900E+004
  1.1804050E+004
  1.1293363E+004
  1.0487626E+004
  8.6691336E+003
  6.6406193E+003
  4.6429180E+003
  3.0422125E+003
  1.9392642E+003
  1.3258878E+003
  1.1403724E+003
  1.3064141E+003
  1.7307149E+003
  2.3113433E+003
  2.9504126E+003
  3.5601439E+003
  4.0640003E+003
  4.3908392E+003
  4.4684712E+003
  4.2117805E+003
  3.5547254E+003
  2.4373860E+003
  1.1058650E+003
 -4.2467670E+002
 -3.0569655E+003
 -1.1667413E+004
 -1.4172823E+004
 -5.9952707E+003
  2.7587538E+004
  3.3413702E+004
  3.2305952E+004
  2.3252808E+004
  1.8833112E+004
  1.3907158E+004
  9.7987451E+003
  5.6767917E+003
  1.2145309E+003
 -4.0303000E+003
 -1.0327226E+004
 -1.7670792E+004
 -2.5596751E+004
 -3.2969661E+004
 -3.8564043E+004
 -4.1025359E+004
 -4.0275377E+004
 -3.6818458E+004
 -3.1754284E+004
 -2.6110514E+004
 -2.0630060E+004
 -1.5617092E+004
 -1.1116086E+004
 -6.8998563E+003
 -2.9050075E+003
  8.9994457E+002
  4.4071870E+003
  7.5363137E+003
  1.0226027E+004
  1.2457684E+004
  1.4241283E+004
  1.5587421E+004
  1.6508938E+004
  1.7023961E+004
  1.7173155E+004
  1.7029146E+004
  1.6684376E+004
  1.6236575E+004
  1.5765128E+004
  1.5324778E+004
  1.4943225E+004
  1.4627389E+004
  1.4367422E+004
  1.4141262E+004
  1.3918064E+004
  1.3663164E+004
  1.3341691E+004
  1.2920278E+004
  1.2354266E+004
  1.1589319E+004
  1.0508277E+004
  9.5627197E+003
  9.3526401E+003
  1.0268511E+004
  8.5394046E+003
  6.4850714E+003
  4.0935083E+003
  2.1956411E+003
  9.1273015E+002
  1.8653850E+002
 -1.1526569E+002
 -4.8766361E+001
  2.9944472E+002
  8.3004601E+002
  1.4465488E+003
  2.0625432E+003
  2.6121410E+003
  3.0424431E+003
  3.3014179E+003
  3.3139909E+003
  2.9816633E+003
  2.0848012E+003
  5.8299300E+002
 -2.1546556E+003
 -3.8617719E+003
 -9.7527651E+003
 -2.4803264E+004
 -2.6189128E+004
  6.8498326E+003
  2.5692741E+004
  3.4943325E+004
  2.9707132E+004
  2.4079872E+004
  1.8952227E+004
  1.4431202E+004
  1.0060936E+004
  5.3826362E+003
  7.0000706E+001
 -6.0252588E+003
 -1.2792347E+004
 -1.9774267E+004
 -2.6218395E+004
 -3.1170082E+004
 -3.3980221E+004
 -3.4342042E+004
 -3.2549111E+004
 -2.9200518E+004
 -2.4995570E+004
 -2.0495337E+004
 -1.6048780E+004
 -1.1775351E+004
 -7.7066518E+003
 -3.8184444E+003
 -1.4931146E+002
  3.2406490E+003
  6.2729884E+003
  8.8918980E+003
  1.1068040E+004
  1.2795128E+004
  1.4084275E+004
  1.4956583E+004
  1.5445890E+004
  1.5602815E+004
  1.5495599E+004
  1.5205370E+004
  1.4813538E+004
  1.4391299E+004
  1.3990677E+004
  1.3641957E+004
  1.3353521E+004
  1.3114221E+004
  1.2896846E+004
  1.2664845E+004
  1.2382143E+004
  1.2026055E+004
  1.1589014E+004
  1.1083726E+004
  1.0466888E+004
  9.7295298E+003
  7.9718933E+003
  9.0449290E+003
  7.8734430E+003
  4.6527698E+003
  2.2475843E+003
  9.3417061E+002
 -3.1477566E+002
 -9.5707350E+002
 -1.3267144E+003
 -1.3122443E+003
 -1.0150740E+003
 -5.0187983E+002
  1.3187498E+002
  7.7055553E+002
  1.3379220E+003
  1.7906317E+003
  2.1072466E+003
  2.2620440E+003
  2.2043405E+003
  1.8043482E+003
  8.7503943E+002
 -1.2177260E+003
 -4.5397447E+003
 -1.1090874E+004
 -1.3621979E+004
 -1.1509018E+004
  8.2769764E+003
  2.1577234E+004
  3.3009683E+004
  3.0097488E+004
  2.5556538E+004
  2.1210949E+004
  1.7251899E+004
  1.3159487E+004
  8.6541963E+003
  3.5456991E+003
 -2.1856423E+003
 -8.3619575E+003
 -1.4588865E+004
 -2.0286964E+004
 -2.4844739E+004
 -2.7748241E+004
 -2.8796716E+004
 -2.8087283E+004
 -2.5971337E+004
 -2.2896886E+004
 -1.9284622E+004
 -1.5443251E+004
 -1.1566320E+004
 -7.7518545E+003
 -4.0711929E+003
 -5.8725969E+002
  2.6249624E+003
  5.4953819E+003
  7.9679454E+003
  1.0010192E+004
  1.1613642E+004
  1.2789507E+004
  1.3565452E+004
  1.3983233E+004
  1.4097960E+004
  1.3976236E+004
  1.3691148E+004
  1.3315469E+004
  1.2913491E+004
  1.2534720E+004
  1.2209238E+004
  1.1945517E+004
  1.1729810E+004
  1.1527861E+004
  1.1292498E+004
  1.0978494E+004
  1.0574508E+004
  1.0098887E+004
  9.6848806E+003
  9.2421494E+003
  9.6654094E+003
  8.6763425E+003
  1.3244953E+004
  5.9546253E+003
  2.8811004E+002
 -2.0517692E+003
 -9.9750897E+002
 -1.9265707E+003
 -2.1809442E+003
 -2.2329619E+003
 -2.1199745E+003
 -1.6993474E+003
 -1.0457878E+003
 -3.4401223E+002
  2.8863988E+002
  7.5937256E+002
  1.0585152E+003
  1.2071640E+003
  1.2163690E+003
  1.0703958E+003
  6.9147152E+002
 -8.1549259E+001
 -1.7290286E+003
 -5.0261628E+003
 -1.2563291E+004
 -1.4121705E+004
 -7.5778812E+003
  1.3899958E+004
  2.4963705E+004
  3.0261639E+004
  2.5611354E+004
  2.3729543E+004
  2.1398982E+004
  1.8671367E+004
  1.5286460E+004
  1.1235656E+004
  6.5129594E+003
  1.2274277E+003
 -4.3947601E+003
 -9.9975555E+003
 -1.5135907E+004
 -1.9348641E+004
 -2.2276681E+004
 -2.3730401E+004
 -2.3734318E+004
 -2.2482410E+004
 -2.0266483E+004
 -1.7392622E+004
 -1.4126622E+004
 -1.0670003E+004
 -7.1720797E+003
 -3.7456256E+003
 -4.8933798E+002
  2.5087271E+003
  5.1723422E+003
  7.4452059E+003
  9.2954007E+003
  1.0716194E+004
  1.1723397E+004
  1.2350871E+004
  1.2646403E+004
  1.2668124E+004
  1.2481089E+004
  1.2153485E+004
  1.1751829E+004
  1.1335809E+004
  1.0952723E+004
  1.0632443E+004
  1.0382918E+004
  1.0187454E+004
  1.0003533E+004
  9.7639257E+003
  9.3990099E+003
  8.8688951E+003
  8.2561464E+003
  7.6560348E+003
  7.4302120E+003
  7.2108049E+003
  7.9678096E+003
  1.2526044E+004
 -2.4737771E+003
 -7.1437814E+002
 -1.8629015E+003
 -1.7563516E+003
 -2.5951462E+003
 -2.4322526E+003
 -2.0038063E+003
 -1.3679452E+003
 -5.8490329E+002
 -1.8239148E+000
  3.0110639E+002
  3.7726975E+002
  3.0006756E+002
  1.0998651E+002
 -1.7615824E+002
 -5.4665304E+002
 -1.0560124E+003
 -1.7977701E+003
 -3.0819632E+003
 -7.1416639E+003
 -1.1596145E+004
 -8.3258755E+003
  1.3968364E+004
  2.2038109E+004
  2.0333985E+004
  1.9696522E+004
  2.1147619E+004
  2.0974198E+004
  1.9468566E+004
  1.6884960E+004
  1.3360096E+004
  9.0771306E+003
  4.2381218E+003
 -8.9163298E+002
 -5.9858315E+003
 -1.0678068E+004
 -1.4613761E+004
 -1.7507321E+004
 -1.9197311E+004
 -1.9662215E+004
 -1.9007222E+004
 -1.7421425E+004
 -1.5129872E+004
 -1.2353839E+004
 -9.2903030E+003
 -6.1061817E+003
 -2.9444003E+003
  7.1855587E+001
  2.8369253E+003
  5.2663895E+003
  7.3015627E+003
  8.9128182E+003
  1.0099224E+004
  1.0884616E+004
  1.1311481E+004
  1.1434412E+004
  1.1314524E+004
  1.1015531E+004
  1.0601062E+004
  1.0132469E+004
  9.6656825E+003
  9.2469552E+003
  8.9067265E+003
  8.6531091E+003
  8.4658178E+003
  8.2942490E+003
  8.0556974E+003
  7.6129599E+003
  6.9006906E+003
  5.9043054E+003
  5.0550793E+003
  3.9694580E+003
  3.4614792E+003
  4.5735585E+003
 -4.5255745E+002
 -8.2273249E+002
 -1.6365898E+003
 -2.2889248E+003
 -2.3041187E+003
 -1.5071956E+003
 -6.1699216E+002
 -1.3402843E+002
 -1.0215289E+002
 -2.9331228E+002
 -6.3240828E+002
 -1.0754377E+003
 -1.5728224E+003
 -2.1372547E+003
 -2.4717336E+003
 -3.2330137E+003
 -2.3236442E+003
 -8.0556249E+003
 -2.4551205E+004
 -2.2856560E+004
  3.6667970E+004
  4.2316610E+004
  2.1133346E+004
  1.7460280E+004
  2.1014742E+004
  2.0999242E+004
  2.0409012E+004
  1.8308699E+004
  1.5221878E+004
  1.1313182E+004
  6.8636065E+003
  2.1457935E+003
 -2.5366037E+003
 -6.8732609E+003
 -1.0573545E+004
 -1.3404605E+004
 -1.5220310E+004
 -1.5976376E+004
 -1.5723316E+004
 -1.4584590E+004
 -1.2727575E+004
 -1.0337595E+004
 -7.5996752E+003
 -4.6893110E+003
 -1.7677990E+003
  1.0205610E+003
  3.5532709E+003
  5.7355169E+003
  7.5058207E+003
  8.8387403E+003
  9.7431041E+003
  1.0255652E+004
  1.0431778E+004
  1.0335457E+004
  1.0031510E+004
  9.5814072E+003
  9.0428787E+003
  8.4708677E+003
  7.9178424E+003
  7.4296646E+003
  7.0393069E+003
  6.7567984E+003
  6.5580739E+003
  6.3785196E+003
  6.1212088E+003
  5.6650631E+003
  4.5656978E+003
  3.0478149E+003
  1.2944336E+003
  3.6405357E+002
  1.0839807E+003
  1.1859004E+002
 -7.5852478E+002
 -2.1369829E+003
 -2.1390547E+003
 -1.7957175E+003
 -3.8958596E+002
 -3.5569035E+002
 -5.2915656E+002
 -9.8561775E+002
 -1.5651972E+003
 -2.2632545E+003
 -3.0723086E+003
 -3.8860271E+003
 -4.8047309E+003
 -5.0600659E+003
 -6.5373161E+003
 -7.7389302E+003
 -9.1262901E+003
  1.7336125E+004
  2.1061987E+004
  2.2358640E+004
  2.1092487E+004
  2.2273314E+004
  2.1516846E+004
  1.9743983E+004
  1.6874201E+004
  1.3243083E+004
  9.0958378E+003
  4.7094328E+003
  3.5709845E+002
 -3.6915216E+003
 -7.1912879E+003
 -9.9429184E+003
 -1.1812809E+004
 -1.2742888E+004
 -1.2749527E+004
 -1.1912410E+004
 -1.0358385E+004
 -8.2448975E+003
 -5.7462091E+003
 -3.0425423E+003
 -3.1095911E+002
  2.2842811E+003
  4.6022964E+003
  6.5362581E+003
  8.0217879E+003
  9.0402734E+003
  9.6156883E+003
  9.8048963E+003
  9.6826329E+003
  9.3267887E+003
  8.8066378E+003
  8.1790061E+003
  7.4912329E+003
  6.7887890E+003
  6.1185051E+003
  5.5286191E+003
  5.0560992E+003
  4.7155634E+003
  4.4854367E+003
  4.2750956E+003
  3.9371155E+003
  3.3258965E+003
  2.5849182E+003
 -9.6185730E+001
 -2.4458113E+003
 -1.7496101E+003
 -6.5313250E+002
 -1.7554181E+003
 -2.9720070E+003
 -1.0097380E+003
 -6.8480228E+002
 -1.0922127E+003
 -1.6642419E+003
 -2.4004287E+003
 -3.3217968E+003
 -4.3895952E+003
 -5.6081593E+003
 -6.7776472E+003
 -8.0820842E+003
 -7.8618833E+003
 -3.0199614E+003
  3.6048200E+003
  3.0894569E+003
  1.2001212E+004
  1.9750779E+004
  2.2279472E+004
  2.3310371E+004
  2.2775900E+004
  2.1010544E+004
  1.8269276E+004
  1.4814820E+004
  1.0901620E+004
  6.7801920E+003
  2.6965973E+003
 -1.1139217E+003
 -4.4387588E+003
 -7.1024697E+003
 -8.9796562E+003
 -1.0003167E+004
 -1.0165770E+004
 -9.5161909E+003
 -8.1515011E+003
 -6.2081373E+003
 -3.8525954E+003
 -1.2714450E+003
  1.3407208E+003
  3.7963017E+003
  5.9319821E+003
  7.6258728E+003
  8.8101941E+003
  9.4770396E+003
  9.6735122E+003
  9.4860634E+003
  9.0198494E+003
  8.3728823E+003
  7.6200732E+003
  6.8078550E+003
  5.9651269E+003
  5.1187774E+003
  4.3116958E+003
  3.5922893E+003
  3.0100140E+003
  2.5856610E+003
  2.2956679E+003
  2.0818885E+003
  1.6427255E+003
  6.3504831E+002
 -1.5722611E+003
 -4.9766116E+003
 -5.1223303E+003
 -2.5268969E+003
 -1.6759063E+003
 -1.2879192E+003
 -1.6579179E+003
 -2.1637663E+003
 -3.0036091E+003
 -4.0680216E+003
 -5.3237757E+003
 -6.6569143E+003
 -8.2045402E+003
 -9.0747479E+003
 -1.0417775E+004
 -2.8195405E+003
  1.4140838E+004
 -4.1219427E+003
  3.3632112E+003
  1.6599463E+004
  2.2693323E+004
  2.4039890E+004
  2.3660183E+004
  2.1907987E+004
  1.9253897E+004
  1.5945610E+004
  1.2231062E+004
  8.3367373E+003
  4.4830315E+003
  8.7790135E+002
 -2.2901426E+003
 -4.8619379E+003
 -6.7168697E+003
 -7.7797466E+003
 -8.0245361E+003
 -7.4752325E+003
 -6.2047985E+003
 -4.3327938E+003
 -2.0212354E+003
  5.3309297E+002
  3.1122294E+003
  5.4974661E+003
  7.4952783E+003
  8.9628799E+003
  9.8291579E+003
  1.0101194E+004
  9.8588620E+003
  9.2360558E+003
  8.3802856E+003
  7.4221714E+003
  6.4423324E+003
  5.4683548E+003
  4.4919260E+003
  3.5136824E+003
  2.5565610E+003
  1.6957532E+003
  9.8559128E+002
  4.6380177E+002
  1.1036774E+002
 -1.6759848E+002
 -3.6082869E+002
 -1.3944822E+003
 -3.3512365E+003
 -3.7300957E+003
 -7.8352477E+002
 -1.2241549E+003
 -1.7470504E+003
 -2.2805636E+003
 -3.2577670E+003
 -4.4285278E+003
 -5.7102655E+003
 -6.9958286E+003
 -8.1184787E+003
 -8.9298866E+003
 -8.7820988E+003
 -5.1249220E+003
  2.7005417E+003
  3.8044768E+003
  1.6817128E+004
 -2.4774317E+004
  4.8659647E+003
  1.8509618E+004
  2.2188266E+004
  2.4283571E+004
  2.3820361E+004
  2.2220909E+004
  1.9687909E+004
  1.6556676E+004
  1.3044885E+004
  9.3688311E+003
  5.7277620E+003
  2.3100979E+003
 -7.1270155E+002
 -3.1919200E+003
 -5.0082276E+003
 -6.0775250E+003
 -6.3559406E+003
 -5.8443098E+003
 -4.5926401E+003
 -2.7043831E+003
 -3.3880112E+002
  2.2923108E+003
  4.9381264E+003
  7.3361378E+003
  9.2493477E+003
  1.0507311E+004
  1.1031163E+004
  1.0852340E+004
  1.0101270E+004
  8.9686045E+003
  7.6779168E+003
  6.4010185E+003
  5.2304271E+003
  4.1569674E+003
  3.1132830E+003
  2.0279277E+003
  9.4912665E+002
 -6.8793047E+001
 -8.8513373E+002
 -1.4942009E+003
 -1.8912223E+003
 -2.2541132E+003
 -2.4315005E+003
 -3.1419493E+003
 -5.6368715E+003
 -4.0020405E+003
 -2.3242043E+002
 -4.3166427E+002
 -1.0737897E+003
 -2.0046096E+003
 -3.1788388E+003
 -4.4510558E+003
 -5.6973538E+003
 -6.7304364E+003
 -7.2964605E+003
 -7.0446979E+003
 -5.6762702E+003
 -3.1652058E+003
 -8.5758194E+002
  2.3114651E+002
  9.1114240E+003
 -1.9960606E+003
 -1.0090006E+004
 -1.3655968E+004
 -8.6032174E+003
  8.6614963E+003
  1.7148964E+004
  2.1683175E+004
  2.3291097E+004
  2.3212273E+004
  2.1802316E+004
  1.9514648E+004
  1.6614357E+004
  1.3338999E+004
  9.8920148E+003
  6.4623709E+003
  3.2250210E+003
  3.4045651E+002
 -2.0485576E+003
 -3.8209416E+003
 -4.8819036E+003
 -5.1684188E+003
 -4.6563451E+003
 -3.3698340E+003
 -1.3928402E+003
  1.1196966E+003
  3.9367644E+003
  6.7622171E+003
  9.2684159E+003
  1.1155686E+004
  1.2209070E+004
  1.2356851E+004
  1.1655000E+004
  1.0290363E+004
  8.5765586E+003
  6.7989419E+003
  5.2147477E+003
  3.9240540E+003
  2.8745070E+003
  1.8746775E+003
  7.9132191E+002
 -4.5981746E+002
 -1.5685458E+003
 -2.4874076E+003
 -3.0551902E+003
 -3.4587113E+003
 -3.6685695E+003
 -4.2601801E+003
 -3.8257340E+003
 -2.7919613E+003
  9.7880057E+002
  7.1090456E+002
 -1.3407760E+002
 -1.5641304E+003
 -2.9244926E+003
 -4.3092772E+003
 -5.5467768E+003
 -6.4175150E+003
 -6.5996267E+003
 -5.6165603E+003
 -3.2799863E+003
 -2.0208458E+003
 -4.2660890E+003
 -3.8193877E+003
  1.1993067E+003
 -2.9229674E+002
 -3.8502448E+003
 -9.4773532E+003
 -5.0229141E+003
  5.0453253E+003
  1.4473278E+004
  1.9362061E+004
  2.1509003E+004
  2.1773036E+004
  2.0736315E+004
  1.8765751E+004
  1.6160927E+004
  1.3156708E+004
  9.9573532E+003
  6.7451340E+003
  3.6869292E+003
  9.3593937E+002
 -1.3682309E+003
 -3.1008782E+003
 -4.1549195E+003
 -4.4459177E+003
 -3.9207336E+003
 -2.5712599E+003
 -4.5365129E+002
  2.2885320E+003
  5.4047919E+003
  8.5359568E+003
  1.1258218E+004
  1.3169644E+004
  1.4018410E+004
  1.3705397E+004
  1.2376289E+004
  1.0330754E+004
  7.9016584E+003
  5.6211538E+003
  3.7513633E+003
  2.4359392E+003
  1.5735617E+003
  8.3707283E+002
 -2.6073615E+002
 -1.4237743E+003
 -2.7173438E+003
 -3.5123352E+003
 -4.0246602E+003
 -4.1915170E+003
 -4.2646264E+003
 -4.2968085E+003
 -2.9288535E+003
 -8.3696258E+002
  2.6141402E+003
  1.4069827E+003
  2.9129908E+002
 -1.1958075E+003
 -2.6890944E+003
 -4.1727064E+003
 -5.5005668E+003
 -6.5115138E+003
 -6.7543128E+003
 -6.4013067E+003
 -3.8772750E+003
 -5.2687421E+003
 -1.4978489E+004
 -1.4306027E+004
 -1.1466937E+003
 -3.2978814E+003
 -4.0784836E+003
 -1.0641918E+003
  5.3892191E+003
  1.1969136E+004
  1.6752607E+004
  1.9206211E+004
  1.9866998E+004
  1.9204162E+004
  1.7586874E+004
  1.5303005E+004
  1.2590559E+004
  9.6511100E+003
  6.6621693E+003
  3.7837368E+003
  1.1627733E+003
 -1.0639603E+003
 -2.7681957E+003
 -3.8302176E+003
 -4.1422423E+003
 -3.6173245E+003
 -2.2060451E+003
  7.6268016E+001
  3.1127449E+003
  6.6413781E+003
  1.0229937E+004
  1.3297659E+004
  1.5273147E+004
  1.5772247E+004
  1.4920784E+004
  1.2849116E+004
  9.8534804E+003
  6.7948208E+003
  4.0313874E+003
  2.0128657E+003
  7.2257400E+002
  2.1121155E+002
  2.3609634E+001
 -6.3218426E+002
 -2.3770547E+003
 -3.2424822E+003
 -4.0016932E+003
 -4.0356624E+003
 -3.9397649E+003
 -3.7629595E+003
 -3.4435465E+003
 -2.0206075E+003
 -7.8965035E+002
  3.7921878E+003
  4.7112544E+003
  2.7969858E+003
  1.3597637E+003
  3.7605756E+002
 -1.0129974E+003
 -2.5419158E+003
 -4.1116353E+003
 -5.6436080E+003
 -6.9797262E+003
 -8.0371228E+003
 -8.2212844E+003
 -8.8848934E+003
 -8.1148187E+003
 -6.4915178E+003
 -7.3516368E+002
 -1.3326674E+003
 -1.1816553E+003
  1.5285836E+003
  5.9233292E+003
  1.0797261E+004
  1.4667274E+004
  1.7016414E+004
  1.7861384E+004
  1.7482776E+004
  1.6173220E+004
  1.4193371E+004
  1.1766886E+004
  9.0869037E+003
  6.3223890E+003
  3.6244284E+003
  1.1317042E+003
 -1.0242722E+003
 -2.7143233E+003
 -3.8080334E+003
 -4.1737596E+003
 -3.6862226E+003
 -2.2453339E+003
  1.9212853E+002
  3.5576772E+003
  7.6041733E+003
  1.1812308E+004
  1.5391492E+004
  1.7424459E+004
  1.7492068E+004
  1.5504544E+004
  1.2540446E+004
  9.0001247E+003
  4.8493902E+003
  2.0093657E+003
  2.2952679E+002
 -9.9762853E+002
 -1.7949520E+003
 -1.0914939E+003
 -1.9877743E+003
 -2.6352947E+003
 -1.9397170E+003
 -2.2306474E+003
 -2.8295911E+003
 -2.5198786E+003
 -2.5917483E+003
 -2.2885718E+003
 -1.3065569E+003
 -3.8557908E+002
  5.1206823E+003
  4.7425104E+003
  4.6342705E+003
  3.2340376E+003
  1.9212557E+003
  5.2033064E+002
 -9.1681142E+002
 -2.4706466E+003
 -4.1071309E+003
 -5.8243668E+003
 -7.6161034E+003
 -9.3999187E+003
 -1.0844544E+004
 -1.1659251E+004
 -8.1518248E+003
 -2.4812931E+003
  6.6250196E+002
  9.1140732E+002
  1.6504741E+003
  3.5729757E+003
  6.8542663E+003
  1.0364698E+004
  1.3334618E+004
  1.5273401E+004
  1.6067545E+004
  1.5819555E+004
  1.4725593E+004
  1.2995557E+004
  1.0825825E+004
  8.3917453E+003
  5.8480577E+003
  3.3324025E+003
  9.7081800E+002
 -1.1153532E+003
 -2.8015148E+003
 -3.9517378E+003
 -4.4128310E+003
 -4.0167647E+003
 -2.6020215E+003
 -5.5131158E+001
  3.6423336E+003
  8.2810593E+003
  1.3341798E+004
  1.7744284E+004
  1.9949258E+004
  1.8399284E+004
  1.4911330E+004
  1.0759661E+004
  5.3994643E+003
  1.5522829E+003
  2.4086788E+002
 -5.6833677E+002
 -1.3880932E+003
 -2.5495914E+003
 -2.6964567E+003
 -5.8235846E+003
 -2.4710990E+003
 -8.6079618E+001
  2.0310833E+003
  1.7896171E+001
 -7.6965874E+002
 -1.2662521E+003
 -1.2351928E+003
 -6.2359989E+002
 -1.2640577E+002
  3.2967478E+003
  1.0421577E+003
  5.4700470E+003
  6.4639522E+003
  4.4290140E+003
  2.4364256E+003
  7.0225000E+002
 -9.0505090E+002
 -2.4862668E+003
 -4.1222827E+003
 -5.9027568E+003
 -7.9509758E+003
 -1.0352015E+004
 -1.2619252E+004
 -1.3696164E+004
 -8.8629857E+003
 -3.2079799E+003
  1.1152713E+003
  1.9771012E+003
  3.2779870E+003
  5.3655651E+003
  7.9218518E+003
  1.0459710E+004
  1.2620459E+004
  1.4067131E+004
  1.4651630E+004
  1.4392420E+004
  1.3408637E+004
  1.1857401E+004
  9.9009203E+003
  7.6909772E+003
  5.3628600E+003
  3.0357058E+003
  8.1739589E+002
 -1.1874202E+003
 -2.8666956E+003
 -4.0879173E+003
 -4.6841316E+003
 -4.4428540E+003
 -3.1185033E+003
 -5.0475487E+002
  3.4717426E+003
  8.8022853E+003
  1.4744638E+004
  2.0010955E+004
  2.2564680E+004
  2.0945259E+004
  1.1592928E+004
  4.2099915E+003
 -1.1434532E+003
 -4.4359526E+002
 -1.7389363E+002
 -5.0907006E+002
 -6.2279823E+002
 -1.9145419E+003
 -2.1927433E+003
 -5.5959282E+003
  1.4681803E+003
  7.2975089E+002
  2.2555811E+002
 -3.8861378E+002
 -3.9626767E+002
 -2.0381930E+002
  2.9442775E+001
  7.7211684E+003
  8.7350608E+003
  8.1414137E+003
  4.6394016E+003
  2.5463299E+003
  5.4308164E+002
 -1.1158897E+003
 -2.6792191E+003
 -4.2289049E+003
 -5.8853150E+003
 -7.8098490E+003
 -1.0444929E+004
 -1.3362768E+004
 -1.5512607E+004
 -1.1238921E+004
 -5.4128055E+003
  3.1051727E+003
  5.5484865E+003
  5.7027273E+003
  7.2044221E+003
  9.1279494E+003
  1.0881215E+004
  1.2402312E+004
  1.3376976E+004
  1.3674944E+004
  1.3304122E+004
  1.2339499E+004
  1.0895674E+004
  9.1046590E+003
  7.0949662E+003
  4.9796948E+003
  2.8552545E+003
  8.0615584E+002
 -1.0863282E+003
 -2.7317463E+003
 -4.0134160E+003
 -4.7648639E+003
 -4.7429306E+003
 -3.5924981E+003
 -9.0244017E+002
  3.4941907E+003
  9.2913211E+003
  1.7343028E+004
  2.4698684E+004
  2.6917148E+004
  1.6063079E+004
  7.1502333E+003
  3.7687828E+002
 -4.6744482E+003
 -4.1274488E+002
 -1.1986951E+002
  7.8718327E+001
  2.5308700E+001
  2.7056259E+001
  4.0783461E+001
  1.5768447E+004
  9.0812911E+003
  6.0079519E+003
  3.9534332E+003
  1.7055785E+003
 -1.0433592E+002
 -1.7177528E+003
 -3.1764724E+003
 -4.6098073E+003
 -6.0819260E+003
 -7.6220418E+003
 -9.5434997E+003
 -1.3428133E+004
 -1.8373594E+004
 -1.3770201E+004
 -4.1154450E+003
  3.5073727E+003
  6.7852747E+003
  9.4875779E+003
  1.0225012E+004
  1.1576688E+004
  1.2655028E+004
  1.3164875E+004
  1.3145333E+004
  1.2609381E+004
  1.1595227E+004
  1.0192274E+004
  8.5203275E+003
  6.6894961E+003
  4.7898366E+003
  2.8923481E+003
  1.0544881E+003
 -6.7094844E+002
 -2.2229158E+003
 -3.5132525E+003
 -4.3977488E+003
 -4.6280969E+003
 -3.7927495E+003
 -1.1389147E+003
  4.2357321E+003
  1.1567435E+004
  1.8336013E+004
  2.7147371E+004
  3.6459803E+004
  1.2450343E+004
 -3.6062276E+003
  3.3415427E+002
 -4.8475172E+001
  1.5371693E+001
 -2.0481938E+002
 -2.8604888E+001
  1.0286577E+002
  1.7918052E+002
  1.6579529E+002
  1.8643600E+004
  1.6834749E+004
  1.1269132E+004
  5.7205707E+003
  3.8710110E+003
  2.0663895E+003
  3.3577961E+002
 -1.2931392E+003
 -2.7404711E+003
 -4.0795687E+003
 -5.4066349E+003
 -6.9253497E+003
 -8.4520329E+003
 -9.7270093E+003
 -1.0881207E+004
 -1.7995614E+004
 -1.8676868E+004
 -8.2611902E+003
  3.5107947E+003
  8.2063744E+003
  9.3946580E+003
  1.0756554E+004
  1.2769864E+004
  1.3313596E+004
  1.3371679E+004
  1.3061698E+004
  1.2359908E+004
  1.1223741E+004
  9.7952197E+003
  8.1995303E+003
  6.5305452E+003
  4.8548074E+003
  3.2171183E+003
  1.6463010E+003
  1.6459474E+002
 -1.2001409E+003
 -2.3971372E+003
 -3.3214329E+003
 -3.7707836E+003
 -3.3055384E+003
 -1.2816474E+003
  4.7762188E+003
  1.6888085E+004
  3.4997338E+004
  5.4854816E+004
  4.6185423E+004
  7.1505150E+000
 -9.0799495E+001
 -4.4805429E+001
  3.6978198E+001
  8.8457289E+001
  1.3754274E+002
  1.7978134E+004
  1.7530693E+004
  1.4137528E+004
  9.5097207E+003
  5.3255677E+003
  2.2123907E+003
  2.9651648E+002
 -1.3396931E+003
 -2.8179797E+003
 -4.1579599E+003
 -5.3780567E+003
 -6.6704663E+003
 -8.1719475E+003
 -1.1140761E+004
 -1.3263734E+004
 -1.8411877E+004
 -3.2600163E+004
 -3.2488210E+004
  9.9581618E+003
  1.3317260E+004
  1.4513750E+004
  1.4963806E+004
  1.4348452E+004
  1.3839274E+004
  1.3592088E+004
  1.2599747E+004
  1.1239919E+004
  9.7216725E+003
  8.1657394E+003
  6.6434878E+003
  5.2021648E+003
  3.8600573E+003
  2.6175447E+003
  1.4676747E+003
  4.0674042E+002
 -5.5164465E+002
 -1.3529799E+003
 -1.8442488E+003
 -1.7257946E+003
 -1.3227142E+002
  3.0759986E+003
  1.7242949E+004
  3.3527317E+004
  3.3086481E+004
  4.1303778E+000
  1.6235479E-001
  7.1597877E+001
  1.9095987E+004
  1.8667824E+004
  1.5327330E+004
  1.1096617E+004
  7.3442496E+003
  3.7484577E+003
  9.0694396E+002
 -1.2946905E+003
 -3.0356844E+003
 -4.5404431E+003
 -5.8677380E+003
 -7.0794838E+003
 -8.1752854E+003
 -9.7779952E+003
 -1.1929663E+004
 -2.0718196E+004
 -2.4154156E+004
 -2.1210810E+004
  6.8919779E+003
  1.2325317E+004
  1.6135455E+004
  1.3564916E+004
  1.5731497E+004
  1.4811482E+004
  1.3310781E+004
  1.1622144E+004
  9.9810319E+003
  8.4203334E+003
  7.0268661E+003
  5.8260709E+003
  4.8091622E+003
  3.9475337E+003
  3.2098711E+003
  2.5657409E+003
  2.0046291E+003
  1.5111479E+003
  1.2655939E+003
  1.1800125E+003
  3.1648434E+003
  4.6725724E+003
  1.9402470E+004
  5.4393944E+004
  4.1048642E+004
  2.0172381E+004
  2.0491511E+004
  1.6374291E+004
  1.2195788E+004
  8.7744656E+003
  5.3158366E+003
  2.1786856E+003
 -5.4992630E+002
 -2.8047547E+003
 -4.6964015E+003
 -6.3329935E+003
 -7.7893324E+003
 -9.0692691E+003
 -1.0208431E+004
 -1.1151610E+004
 -1.2138885E+004
 -1.5979042E+004
 -1.8660468E+004
 -9.1036515E+003
 -4.7173213E+003
  9.2577644E+003
  2.2399457E+004
  1.9189245E+004
  1.8847201E+004
  1.6498902E+004
  1.4275918E+004
  1.2421975E+004
  1.0573808E+004
  8.9550481E+003
  7.6572370E+003
  6.6943435E+003
  6.0144296E+003
  5.5602785E+003
  5.2813662E+003
  5.1354640E+003
  5.0755856E+003
  5.0937700E+003
  5.1123424E+003
  5.5586333E+003
  5.8586010E+003
  1.1510279E+004
  1.7802200E+004
  1.8204754E+004
  2.3239551E+004
  2.2953376E+004
  1.5100836E+004
  1.2806536E+004
  9.3786101E+003
  6.3605440E+003
  3.3653589E+003
  5.5671600E+002
 -2.0004960E+003
 -4.2673104E+003
 -6.2731262E+003
 -8.0857510E+003
 -9.7397490E+003
 -1.1311240E+004
 -1.2529879E+004
 -1.4021673E+004
 -1.3215561E+004
 -1.6858430E+004
 -3.1051379E+004
 -2.7308910E+004
  1.0510250E+004
  1.6669986E+004
  2.2135923E+004
  1.7103569E+004
  1.6162133E+004
  1.3741757E+004
  1.1560857E+004
  9.7335638E+003
  8.5034086E+003
  7.7616176E+003
  7.4009873E+003
  7.3334661E+003
  7.5070552E+003
  7.8696373E+003
  8.3595243E+003
  8.9035249E+003
  9.4041233E+003
  9.7175041E+003
  9.5426527E+003
  8.4813079E+003
  4.7766502E+003
  1.0798806E+003
  4.3737462E+003
  1.4443933E+004
  1.5383527E+004
  1.1664794E+004
  1.6028883E+004
  1.0405898E+004
  9.2483856E+003
  6.7392356E+003
  4.2457613E+003
  1.6368625E+003
 -9.1252416E+002
 -3.3379889E+003
 -5.5913406E+003
 -7.6795452E+003
 -9.6346233E+003
 -1.1523096E+004
 -1.3316274E+004
 -1.5223059E+004
 -1.6355260E+004
 -1.9092314E+004
 -1.7376361E+004
 -1.3682185E+004
 -6.2432912E+003
  1.1900089E+004
  2.5979378E+004
  2.0810456E+004
  1.9019955E+004
  1.5662182E+004
  1.2803696E+004
  1.0729078E+004
  9.5382910E+003
  9.0017721E+003
  8.8776544E+003
  9.1122684E+003
  9.6686260E+003
  1.0479147E+004
  1.1457019E+004
  1.2466898E+004
  1.3392476E+004
  1.3620878E+004
  1.3052939E+004
  6.2256712E+003
 -6.5413426E+003
 -1.3312497E+004
  1.5241197E+004
  1.7266020E+004
  1.3246263E+004
  1.6077198E+004
  1.2794146E+004
  9.6044036E+003
  6.9349569E+003
  4.8681060E+003
  2.6050854E+003
  2.5570508E+002
 -2.1234475E+003
 -4.4536941E+003
 -6.6865231E+003
 -8.8082157E+003
 -1.0840109E+004
 -1.2823409E+004
 -1.4810174E+004
 -1.6817621E+004
 -1.8604360E+004
 -1.9774336E+004
 -1.3742873E+004
 -3.6241801E+003
  2.6392608E+004
  2.6344358E+004
  2.3107445E+004
  1.8759903E+004
  1.4440254E+004
  1.1815086E+004
  1.0895405E+004
  1.0396357E+004
  1.0320367E+004
  1.0715450E+004
  1.1542440E+004
  1.2686074E+004
  1.3993478E+004
  1.5324822E+004
  1.6353470E+004
  1.7043097E+004
  1.5255437E+004
  1.3519861E+004
 -3.2076546E+003
 -4.0460143E+004
  3.0131472E+003
  1.0193617E+004
  1.1512708E+004
  8.5618840E+003
  1.3062355E+004
  1.0980624E+004
  1.1523890E+004
  1.0681256E+004
  8.3028414E+003
  5.9047308E+003
  3.7039245E+003
  1.5407740E+003
 -7.0644156E+002
 -3.0035582E+003
 -5.2865328E+003
 -7.4961147E+003
 -9.6014870E+003
 -1.1604344E+004
 -1.3531551E+004
 -1.5380885E+004
 -1.7194702E+004
 -1.8661467E+004
 -1.8909942E+004
 -1.1760815E+004
 -4.2948276E+003
  2.7507009E+004
  2.7956572E+004
  2.0759403E+004
  1.4687906E+004
  1.3913755E+004
  1.2710116E+004
  1.1817033E+004
  1.1518878E+004
  1.1947092E+004
  1.2940718E+004
  1.4285252E+004
  1.5740708E+004
  1.7067741E+004
  1.8031828E+004
  1.8163869E+004
  1.7112469E+004
  1.3396578E+004
  4.3740253E+003
 -1.6720107E+004
 -2.1787487E+004
 -4.2663929E+004
  1.0156210E+004
  1.1391003E+004
  9.6091894E+003
  1.2478296E+004
  1.1309299E+004
  1.0287211E+004
  9.6883628E+003
  8.6877842E+003
  7.1086993E+003
  5.1423810E+003
  3.0855477E+003
  9.6313178E+002
 -1.2559542E+003
 -3.5450877E+003
 -5.8285294E+003
 -8.0221730E+003
 -1.0070611E+004
 -1.1954741E+004
 -1.3688893E+004
 -1.5213125E+004
 -1.6438447E+004
 -1.6928060E+004
 -1.8043953E+004
 -1.3711274E+004
 -7.1952432E+003
  3.1029151E+004
  3.0156778E+004
  2.0963212E+004
  1.7002535E+004
  1.4676657E+004
  1.2752309E+004
  1.2199116E+004
  1.2613949E+004
  1.3759996E+004
  1.5216898E+004
  1.6631221E+004
  1.7696427E+004
  1.8097496E+004
  1.7435409E+004
  1.4962804E+004
  9.1297305E+003
 -3.2946670E+003
 -1.8664239E+004
 -2.0875329E+004
 -8.1779409E+003
 -6.1297125E+003
  2.3711208E+003
  6.1900793E+003
  5.9049398E+003
  5.4740558E+003
  1.5863041E+004
  1.6037650E+004
  1.3429897E+003
  5.4050532E+003
  6.9948520E+003
  5.3969839E+003
  8.8377265E+003
  8.3857941E+003
  9.5163620E+003
  9.8742735E+003
  9.2155696E+003
  8.3843309E+003
  7.4688314E+003
  6.1982127E+003
  4.6225171E+003
  2.8060397E+003
  7.7585389E+002
 -1.4404830E+003
 -3.7813894E+003
 -6.1187431E+003
 -8.3226223E+003
 -1.0297209E+004
 -1.2012432E+004
 -1.3483125E+004
 -1.4745777E+004
 -1.5556346E+004
 -1.5114508E+004
 -1.4302501E+004
 -1.2506746E+004
 -6.9285621E+003
  1.5126809E+004
  1.9219043E+004
  1.9758363E+004
  1.4724968E+004
  1.2881239E+004
  1.2027916E+004
  1.2649610E+004
  1.4018326E+004
  1.5583055E+004
  1.6830279E+004
  1.7422883E+004
  1.7053182E+004
  1.5296765E+004
  1.1455592E+004
  4.5169105E+003
 -5.1596945E+003
 -1.4336842E+004
 -1.7650931E+004
 -1.2651663E+004
 -3.8596379E+003
 -1.2421717E+003
  3.8860804E+003
  7.4729308E+003
  6.9924680E+003
  7.0835873E+003
  2.1524591E+003
  7.3659200E+003
  2.8802791E+003
  9.2278471E+003
  4.6153231E+003
  1.1134815E+004
  3.8226699E+003
  1.5285656E+004
  7.2692277E+003
  4.3887328E+003
  4.5140669E+003
  5.4771054E+003
  7.8873738E+003
  8.0466803E+003
  8.0650511E+003
  8.3600092E+003
  8.3679314E+003
  8.0151309E+003
  7.3832700E+003
  6.5746502E+003
  5.5873185E+003
  4.3530646E+003
  2.8110448E+003
  9.3470218E+002
 -1.3019785E+003
 -3.7541443E+003
 -6.2259402E+003
 -8.4894740E+003
 -1.0409390E+004
 -1.1928718E+004
 -1.3146326E+004
 -1.4099080E+004
 -1.5592452E+004
 -1.5597834E+004
 -1.6484205E+004
 -2.3286002E+004
 -1.8158617E+004
  5.1984225E+003
  1.6897485E+004
  1.6741532E+004
  1.4034736E+004
  1.1687822E+004
  1.1039136E+004
  1.2075260E+004
  1.3924358E+004
  1.5626354E+004
  1.6627775E+004
  1.6650969E+004
  1.5504035E+004
  1.2896744E+004
  8.4447702E+003
  2.0437763E+003
 -5.5344767E+003
 -1.1932551E+004
 -1.4244807E+004
 -1.2226918E+004
 -8.8027285E+003
 -5.1709480E+003
 -8.9633672E+002
  5.7708739E+003
  8.8937148E+003
  1.0650938E+004
  1.1944674E+004
  1.3685521E+004
  1.3183715E+004
  2.4212418E+004
  2.5990334E+004
 -3.3396667E+003
 -1.9702688E+002
  2.9759033E+003
  1.4829269E+003
  4.7458430E+003
  5.9030575E+003
  6.9533486E+003
  7.6247724E+003
  7.5993979E+003
  7.4468307E+003
  7.2598151E+003
  6.8907949E+003
  6.3882969E+003
  5.7981927E+003
  5.1140644E+003
  4.2486131E+003
  3.0981094E+003
  1.3967648E+003
 -8.3070399E+002
 -3.5109326E+003
 -6.2175440E+003
 -8.6260887E+003
 -1.0522173E+004
 -1.1895496E+004
 -1.2748467E+004
 -1.3541528E+004
 -1.4274722E+004
 -1.9474491E+004
 -1.9927843E+004
 -1.5920770E+004
  1.6191412E+004
  1.7232352E+004
  1.3449898E+004
  9.9544577E+003
  9.5080056E+003
  1.1243150E+004
  1.3808816E+004
  1.5671977E+004
  1.6286988E+004
  1.5705844E+004
  1.3934958E+004
  1.0881751E+004
  6.4815103E+003
  9.5780643E+002
 -4.8450483E+003
 -9.5353032E+003
 -1.1875472E+004
 -1.1570746E+004
 -9.3277913E+003
 -6.0362692E+003
 -1.5051856E+003
  2.6756628E+003
  6.4559612E+003
  8.5783124E+003
  9.2165171E+003
  8.9020462E+003
  6.0198787E+003
  1.0676290E+004
  1.2164021E+004
  1.0699192E+004
  8.4243915E+003
  1.6140570E+003
  5.8554276E+003
  2.2498422E+003
  5.0385295E+003
  1.3278015E+003
  4.4776617E+003
  1.2930877E+003
  4.2013430E+003
  1.1216006E+003
  4.3245986E+003
  9.8602293E+002
  5.4944824E+003
  6.9189020E+003
  6.8077948E+003
  7.0487642E+003
  7.3070554E+003
  7.3091199E+003
  7.0917189E+003
  6.7155865E+003
  6.2690279E+003
  5.8092645E+003
  5.3557806E+003
  4.9407757E+003
  4.5561978E+003
  4.1950871E+003
  3.5189615E+003
  2.3695502E+003
  1.4544567E+001
 -3.0095064E+003
 -6.1715178E+003
 -8.7905330E+003
 -1.0717013E+004
 -1.1968723E+004
 -1.2672030E+004
 -1.2861393E+004
 -1.2745401E+004
 -1.4765526E+004
 -1.5753237E+004
 -7.8576162E+003
  1.6878822E+004
  1.4429411E+004
  8.5521944E+003
  6.6692577E+003
  1.0460677E+004
  1.4221858E+004
  1.5845919E+004
  1.5854427E+004
  1.4683308E+004
  1.2510804E+004
  9.3648545E+003
  5.3318437E+003
  7.1844189E+002
 -3.8525405E+003
 -7.5365783E+003
 -9.6091495E+003
 -9.8537428E+003
 -8.5223996E+003
 -5.9266570E+003
 -2.6111155E+003
  1.0656093E+003
  3.9706293E+003
  5.7903110E+003
  6.2848954E+003
  5.4948940E+003
  5.1013356E+003
  7.0208399E+003
  1.2194138E+004
  1.2234199E+004
  1.0755079E+004
  9.5300799E+003
  8.8541031E+003
  8.5822858E+003
  8.8833812E+003
  9.5705929E+003
  9.2610339E+003
  8.7708145E+003
  8.2022498E+003
  7.7135229E+003
  7.2241046E+003
  6.6309480E+003
  5.9674169E+003
  5.2900770E+003
  4.6592068E+003
  4.1614339E+003
  3.8292518E+003
  3.6845475E+003
  3.6878438E+003
  4.1583461E+003
  3.4570473E+003
  1.5061367E+003
 -2.3870864E+003
 -6.0998866E+003
 -8.9772995E+003
 -1.0883325E+004
 -1.2172891E+004
 -1.2784964E+004
 -1.3406901E+004
 -1.2123101E+004
 -1.4693173E+004
 -2.6015321E+004
 -2.2170385E+004
  1.2593594E+004
  7.2163768E+003
  5.3546568E+003
  1.1334714E+004
  1.4954700E+004
  1.5757479E+004
  1.5023624E+004
  1.3453641E+004
  1.1148161E+004
  8.1954909E+003
  4.6996232E+003
  9.2840793E+002
 -2.6787078E+003
 -5.5972335E+003
 -7.3951382E+003
 -7.8716515E+003
 -7.0830048E+003
 -5.2940830E+003
 -2.8325988E+003
 -2.6525808E+002
  1.9927072E+003
  3.4879154E+003
  4.1423797E+003
  4.3988345E+003
  5.2775433E+003
  7.8576725E+003
  1.0101167E+004
  1.2005230E+004
  1.2229053E+004
  1.1829324E+004
  1.1408437E+004
  1.1197580E+004
  1.1177975E+004
  1.1021439E+004
  1.0692381E+004
  9.8863786E+003
  8.9573355E+003
  8.0294908E+003
  7.1066872E+003
  6.1721905E+003
  5.2181606E+003
  4.2726770E+003
  3.4006803E+003
  2.6892930E+003
  2.3443711E+003
  2.1706892E+003
  2.3990272E+003
  3.5937905E+003
  6.7051428E+003
  4.1126610E+003
 -1.2426594E+003
 -6.1427340E+003
 -8.8570940E+003
 -1.0784559E+004
 -1.2107741E+004
 -1.3165308E+004
 -1.3427942E+004
 -1.5238222E+004
 -1.3952796E+004
 -1.1235568E+004
 -3.5956261E+003
 -1.9517989E+003
  9.0822912E+003
  1.4916385E+004
  1.4221579E+004
  1.3458057E+004
  1.1768394E+004
  9.7134574E+003
  7.1996140E+003
  4.3627289E+003
  1.3953035E+003
 -1.3988669E+003
 -3.6823007E+003
 -5.1725771E+003
 -5.7267278E+003
 -5.3662502E+003
 -4.2436705E+003
 -2.6329838E+003
 -8.3282333E+002
  8.1708691E+002
  2.1358232E+003
  3.1398460E+003
  4.1346644E+003
  5.6152970E+003
  7.6223158E+003
  1.0056318E+004
  1.1724779E+004
  1.2659716E+004
  1.2902346E+004
  1.2824145E+004
  1.2633304E+004
  1.2361012E+004
  1.1955847E+004
  1.1243633E+004
  1.0310690E+004
  9.2053985E+003
  8.0383880E+003
  6.8573666E+003
  5.6674774E+003
  4.4703005E+003
  3.2792625E+003
  2.1080571E+003
  1.0673557E+003
  1.5235835E+002
  2.9885629E+002
 -1.1467048E+003
  3.0519585E+002
  8.1445863E+003
  8.2577382E+003
 -1.6324935E+003
 -5.0608129E+003
 -8.0001454E+003
 -1.0017886E+004
 -1.1617733E+004
 -1.2699833E+004
 -1.3355609E+004
 -1.3678364E+004
 -9.4828312E+003
 -2.2220316E+003
  8.5950945E+002
  6.6536059E+003
  1.1411070E+004
  1.1488705E+004
  1.0756095E+004
  9.6565451E+003
  8.1437759E+003
  6.3044553E+003
  4.2152055E+003
  2.0384991E+003
 -1.6378875E+001
 -1.7257798E+003
 -2.9071198E+003
 -3.4625178E+003
 -3.3981785E+003
 -2.8172719E+003
 -1.8785426E+003
 -7.6249081E+002
  4.0791757E+002
  1.5799267E+003
  2.7922777E+003
  4.1889981E+003
  5.8362560E+003
  7.7791479E+003
  9.6673436E+003
  1.1320362E+004
  1.2420104E+004
  1.3006038E+004
  1.3151451E+004
  1.2993581E+004
  1.2604842E+004
  1.1996350E+004
  1.1186157E+004
  1.0166269E+004
  9.0002259E+003
  7.7426125E+003
  6.4379577E+003
  5.1113779E+003
  3.7724580E+003
  2.4202993E+003
  1.0454891E+003
 -3.6546008E+002
 -1.8707020E+003
 -3.2485291E+003
 -6.6926909E+003
 -5.0003622E+003
  1.0525727E+004
  2.3915387E+004
  4.5806162E+003
 -2.6708239E+003
 -5.9145706E+003
 -8.7761137E+003
 -1.0478036E+004
 -1.1567819E+004
 -1.1754013E+004
 -1.0721873E+004
 -5.9547110E+003
 -2.2624467E+003
  5.8556709E+003
  6.6628810E+003
  7.3610020E+003
  7.2380231E+003
  7.6455161E+003
  7.2824923E+003
  6.6007166E+003
  5.5458995E+003
  4.2567868E+003
  2.8552621E+003
  1.4962720E+003
  3.2774018E+002
 -5.3293188E+002
 -1.0241210E+003
 -1.1505080E+003
 -9.7599063E+002
 -5.9369612E+002
 -6.1999669E+001
  6.3791278E+002
  1.5991985E+003
  2.9123390E+003
  4.4194044E+003
  6.1029762E+003
  7.7315561E+003
  9.2953786E+003
  1.0653591E+004
  1.1750919E+004
  1.2431961E+004
  1.2700091E+004
  1.2541871E+004
  1.2078638E+004
  1.1400855E+004
  1.0551376E+004
  9.5535167E+003
  8.4196717E+003
  7.1792956E+003
  5.8679378E+003
  4.5225631E+003
  3.1664588E+003
  1.8171470E+003
  4.2063356E+002
 -8.8656729E+002
 -2.6800301E+003
 -2.9189024E+003
 -3.5504073E+003
  8.2873402E+003
  5.9633657E+003
  7.4927554E+002
 -4.6596141E+003
 -7.2626291E+003
 -9.0983759E+003
 -9.9052492E+003
 -9.6665847E+003
 -8.1100996E+003
 -4.3867516E+003
 -1.1518649E+003
  1.6094919E+004
  4.6248765E+003
  1.7194215E+003
  3.9069065E+003
  4.5944252E+003
  5.2325611E+003
  5.3078407E+003
  5.0601021E+003
  4.5456747E+003
  3.8864052E+003
  3.1864815E+003
  2.5404400E+003
  2.0158385E+003
  1.6477574E+003
  1.4336744E+003
  1.3340237E+003
  1.2837957E+003
  1.2608113E+003
  1.4261416E+003
  2.0743392E+003
  3.2685296E+003
  5.0289609E+003
  6.4342176E+003
  7.6138156E+003
  8.5767879E+003
  9.5649865E+003
  1.0517596E+004
  1.1337484E+004
  1.1587940E+004
  1.1392561E+004
  1.0860114E+004
  1.0182707E+004
  9.4166986E+003
  8.5415102E+003
  7.5354923E+003
  6.4039804E+003
  5.1778717E+003
  3.9099625E+003
  2.6632949E+003
  1.4659940E+003
  3.2139061E+002
 -7.4498517E+002
 -1.2561184E+003
 -1.0209631E+003
  1.7180295E+003
 -1.1936774E+003
  7.5260467E+002
 -9.8349986E+002
 -4.1096601E+003
 -6.3941238E+003
 -7.7090588E+003
 -8.2157552E+003
 -7.7219359E+003
 -6.2206973E+003
 -3.1812969E+003
 -9.2779850E+002
  1.5711426E+004
  4.5672330E+003
  5.8976999E+003
  1.9693262E+003
  4.5375479E+002
  1.4812924E+003
  2.7687599E+003
  3.8112122E+003
  4.5456942E+003
  4.9691048E+003
  5.1560262E+003
  5.1778988E+003
  5.0989182E+003
  4.9621622E+003
  4.7904049E+003
  4.5937497E+003
  4.3832768E+003
  4.1519365E+003
  3.8467707E+003
  3.3713387E+003
  2.8041906E+003
  2.8707750E+003
  4.3722459E+003
  5.6590668E+003
  6.9785269E+003
  7.2051679E+003
  7.2916523E+003
  7.7318924E+003
  8.6974744E+003
  9.4169000E+003
  9.8927475E+003
  9.5313840E+003
  8.9501264E+003
  8.3991386E+003
  7.8588742E+003
  7.2167577E+003
  6.4224787E+003
  5.4743409E+003
  4.4057608E+003
  3.2769951E+003
  2.2042793E+003
  1.2902218E+003
  5.1697693E+002
 -1.4615088E+002
 -3.3796899E+002
 -1.6520292E+002
 -6.4228008E+002
 -2.3059659E+003
 -3.8486022E+003
 -4.8369584E+003
 -5.8531373E+003
 -6.5483450E+003
 -6.7224781E+003
 -6.1508067E+003
 -4.8092270E+003
 -2.4194088E+003
 -6.5174707E+002
  4.2451481E+003
  5.1936901E+003
  3.6468488E+003
  8.5723866E+002
  9.9535564E+002
  2.0220169E+003
  3.2739224E+003
  4.4000353E+003
  5.3475401E+003
  6.1215156E+003
  6.7524150E+003
  7.2545356E+003
  7.6187522E+003
  7.8149243E+003
  7.8199276E+003
  7.6530249E+003
  7.4161774E+003
  7.1334800E+003
  6.5713012E+003
  5.4047797E+003
  4.2089938E+003
  4.8586801E+003
  8.4181972E+003
  7.7152382E+003
  6.2226077E+003
  5.2589229E+003
  4.9992784E+003
  5.5938336E+003
  7.5067393E+003
  7.4937314E+003
  6.8238555E+003
  6.2987437E+003
  6.1506422E+003
  5.9813981E+003
  5.6489528E+003
  5.1171237E+003
  4.4077157E+003
  3.5548411E+003
  2.6333816E+003
  1.7220721E+003
  1.1662732E+003
  5.7333890E+002
  2.0012904E+002
 -2.6156523E+001
 -1.3755075E+003
 -4.8138543E+003
 -6.0125851E+003
 -5.2924281E+003
 -5.3024487E+003
 -5.5007091E+003
 -5.4804594E+003
 -4.9524000E+003
 -3.8392969E+003
 -1.9044236E+003
 -5.0843415E+002
  6.0493741E+002
  1.8023340E+003
  1.8500876E+003
  1.0261808E+003
  1.1531960E+003
  2.1387446E+003
  3.4647092E+003
  4.8393473E+003
  6.1660010E+003
  7.4210654E+003
  8.5893553E+003
  9.6372127E+003
  1.0499679E+004
  1.1085923E+004
  1.1299718E+004
  1.1156464E+004
  1.0845618E+004
  1.0818922E+004
  1.1005299E+004
  1.0166373E+004
  7.1470984E+003
  9.7733017E+003
  9.5974606E+003
  5.6035555E+003
  3.1538641E+003
  2.5370239E+003
  1.7363836E+003
  1.1590358E+003
  2.3013666E+003
  3.6019090E+003
  2.6524794E+003
  3.2809288E+003
  3.7916427E+003
  4.0554688E+003
  4.0042555E+003
  3.7198824E+003
  3.2668600E+003
  2.6829347E+003
  2.0343910E+003
  1.3483967E+003
  1.2889989E+003
  5.4659829E+002
 -5.2566992E+001
 -7.0570783E+003
 -7.4576683E+003
 -6.2680919E+003
 -4.4766740E+003
 -4.4756473E+003
 -4.4381095E+003
 -4.4580877E+003
 -4.1077508E+003
 -3.2743328E+003
 -1.6538077E+003
 -4.4696839E+002
 -2.1118407E+002
 -3.9467080E+002
 -2.6828578E+002
  4.0907771E+002
  1.4370746E+003
  2.7285151E+003
  4.1738448E+003
  5.7150159E+003
  7.3257042E+003
  8.9802842E+003
  1.0628931E+004
  1.2190721E+004
  1.3552820E+004
  1.4552389E+004
  1.5018840E+004
  1.4779794E+004
  1.4098873E+004
  1.3982657E+004
  1.5042290E+004
  1.7916989E+004
  1.4804414E+004
  2.3011564E+004
  9.2579136E+003
  6.0772240E+002
  1.3098022E+003
  3.7672361E+002
  5.6103005E+002
 -1.5528209E+003
 -6.4004747E+003
 -1.3488654E+003
 -6.9060945E+002
  8.8031101E+002
  1.5901679E+003
  1.9236617E+003
  1.9803264E+003
  1.8756759E+003
  1.6772263E+003
  1.4462827E+003
  1.1281240E+003
  1.0870469E+003
  1.1271613E+003
 -1.7946005E+004
 -6.7604908E+003
 -3.0334701E+003
 -3.6452290E+003
 -3.2516981E+003
 -3.4498210E+003
 -3.5937455E+003
 -3.5895946E+003
 -3.1276003E+003
 -1.6981945E+003
 -4.6293592E+002
 -9.9942015E+002
 -2.4655877E+003
 -2.2068247E+003
  1.5174526E+001
  2.0144821E+003
  3.6518112E+003
  5.1982691E+003
  6.8524866E+003
  8.6891468E+003
  1.0701623E+004
  1.2796938E+004
  1.4833344E+004
  1.6667659E+004
  1.8124932E+004
  1.8824044E+004
  1.8667176E+004
  1.7404494E+004
  1.5472438E+004
  1.8162259E+004
  1.6886376E+004
  1.6872166E+004
  2.4387432E+004
 -7.8149186E+003
 -2.0424831E+003
 -1.6485783E+003
  1.4940900E+002
  3.5554331E+002
  5.6966345E+002
  5.8667094E+002
  5.7025396E+002
  4.9901114E+002
  5.2383540E+002
  3.4481926E+002
  5.1859099E+002
 -1.6102934E+004
 -5.4919562E+003
 -8.1260821E+003
 -5.5903208E+003
 -3.1703899E+003
 -2.6484709E+003
 -2.4401736E+003
 -2.4968338E+003
 -2.8411280E+003
 -3.2777704E+003
 -3.4616049E+003
 -2.1870674E+003
 -8.1293336E+002
 -4.3063750E+003
 -5.4355892E+003
 -3.5038023E+003
  8.4288219E+002
  3.1253790E+003
  4.8244561E+003
  6.3671778E+003
  8.0855312E+003
  1.0115156E+004
  1.2489557E+004
  1.5067758E+004
  1.7545025E+004
  1.9713471E+004
  2.1508086E+004
  2.2793039E+004
  2.1662555E+004
  2.0860790E+004
  1.7549428E+004
  2.2884974E+004
  1.1155746E+004
  4.9044101E+003
 -5.4596005E+003
 -9.5143681E+003
 -8.8483404E+003
 -4.4340889E+003
 -2.7052360E+003
 -1.9073480E+003
 -1.6949398E+003
 -1.9878063E+003
 -2.8958819E+003
 -4.0852543E+003
 -3.2043847E+003
 -1.0692311E+003
 -4.1490203E+003
 -5.7364257E+003
 -1.3641234E+003
  2.5604697E+003
  4.4551643E+003
  6.0139073E+003
  7.5557971E+003
  9.2866002E+003
  1.1477251E+004
  1.4263055E+004
  1.7455169E+004
  2.0513668E+004
  2.2704950E+004
  2.4389958E+004
  2.5661802E+004
  2.6274923E+004
  2.0212214E+004
  1.8909430E+004
  2.0606829E+004
 -6.2047000E+003
 -8.3578590E+003
 -7.8887758E+003
 -4.6224387E+003
 -2.8389097E+003
 -1.6309397E+003
 -1.0532786E+003
 -1.0076730E+003
 -1.7480674E+003
 -4.6935989E+003
 -5.6274399E+003
 -4.1575273E+003
 -1.4696481E+004
 -1.5179628E+004
 -2.6454720E+003
  3.6526506E+003
  5.0321045E+003
  7.1947585E+003
  8.7210059E+003
  1.0452540E+004
  1.2690350E+004
  1.5880980E+004
  2.0057601E+004
  2.4202691E+004
  2.6924681E+004
  2.6293767E+004
  2.8673169E+004
  2.1723937E+004
  1.6073792E+004
  1.4406680E+004
 -1.3455868E+004
 -6.6356075E+003
 -4.4667280E+003
 -4.1179332E+003
 -2.6256477E+003
 -1.5942323E+003
 -8.0965098E+002
 -3.3893539E+002
 -3.1538829E+002
 -2.4119921E+003
 -5.7769758E+003
 -4.1536457E+003
 -5.0947479E+003
 -2.8485404E+003
  1.9249840E+003
  6.0745753E+003
  8.3098416E+003
  1.0197839E+004
  1.1791868E+004
  1.3764691E+004
  1.7168113E+004
  2.2501790E+004
  2.8358510E+004
  3.3045379E+004
  3.1544426E+004
  3.5719800E+004
  1.5655096E+004
  2.5139956E+003
 -1.1429218E+004
 -3.6905276E+003
 -5.9445228E+003
 -4.9451560E+003
 -3.9527518E+003
 -3.5468277E+003
 -2.7289039E+003
 -1.8786751E+003
 -1.1012616E+003
 -9.9351433E+002
 -1.6814867E+002
 -4.0046687E+003
 -1.4814023E+004
 -1.4191704E+004
  8.6450772E+001
  1.7900611E+002
  3.5464753E+003
  7.3786370E+003
  1.0212604E+004
  1.2296055E+004
  1.3880838E+004
  1.5286704E+004
  1.7641322E+004
  2.4775700E+004
  3.5323319E+004
  3.9705447E+004
  3.8144674E+004
  3.6496060E+004
 -3.8345678E+003
 -6.2984667E+003
 -6.9291075E+003
 -4.9929905E+003
 -4.0599916E+003
 -3.1986046E+003
 -2.4675585E+003
 -2.0621733E+003
 -1.8501054E+003
 -3.3482456E+003
 -5.0462537E+003
 -5.4914602E+003
  9.2213019E+002
  3.2751388E+003
  6.8908094E+003
  9.9087730E+003
  1.2825798E+004
  1.5307072E+004
  1.7321489E+004
  1.8550385E+004
  1.9540360E+004
  2.2196389E+004
  3.7676467E+004
  4.7345075E+004
  4.0832343E+004
 -1.7409011E+003
 -4.7107387E+003
 -6.9389213E+003
 -5.9689600E+003
 -4.7846983E+003
 -3.8310710E+003
 -3.1935161E+003
 -2.8779982E+003
 -3.0378392E+003
 -3.8499969E+003
 -3.3420765E+003
 -7.3518250E+002
  1.7933478E+003
  6.4895436E+003
  1.0197890E+004
  1.2617433E+004
  1.5826484E+004
  1.9049655E+004
  2.1698791E+004
  2.4780863E+004
  2.5156120E+004
  3.2911495E+004
  5.9191138E+004
  6.4250836E+004
 -1.4760977E+003
 -5.0854647E+003
 -6.9368825E+003
 -6.0389490E+003
 -5.0813720E+003
 -4.2658845E+003
 -3.7036949E+003
 -3.4233314E+003
 -3.3473077E+003
 -3.2502228E+003
 -1.8603694E+003
 -8.2578909E+002
  7.1649010E+003
  9.1388146E+003
  1.1688924E+004
  1.4519223E+004
  1.8926850E+004
  2.2602842E+004
  2.6441283E+004
  2.9144208E+004
  3.5727721E+004
  3.2953558E+004
  2.6842057E+004
 -4.9355722E+003
 -6.0393789E+003
 -6.2927271E+003
 -5.2612998E+003
 -4.9143276E+003
 -4.3469370E+003
 -3.9259149E+003
 -3.5804337E+003
 -3.2235360E+003
 -2.6389470E+003
 -1.4357675E+003
 -3.4041153E+002
  1.7623501E+004
  8.2877584E+003
  9.9499193E+003
  1.7188222E+004
  2.1756567E+004
  2.5770583E+004
  2.8936207E+004
  3.1879400E+004
  3.4163971E+004
  2.3642452E+004
  4.4971196E+003
 -1.1739231E+004
 -5.3563086E+003
 -3.8049279E+003
 -4.6646680E+003
 -4.4368879E+003
 -4.2698574E+003
 -3.9258516E+003
 -3.5373715E+003
 -3.0073378E+003
 -2.2918399E+003
 -1.1314401E+003
 -3.2595708E+002
  1.7209905E+004
 -3.3576337E+002
  2.9508811E+003
  6.1406846E+003
  1.3762954E+004
  2.0380335E+004
  2.5140555E+004
  2.8132755E+004
  2.9800927E+004
  2.9884289E+004
  2.9814924E+004
  2.0046345E+004
  1.0554864E+004
 -1.0297863E+004
 -3.2416857E+003
 -5.2817237E+003
 -4.3542807E+003
 -3.8114856E+003
 -4.1935621E+003
 -4.3128372E+003
 -4.1791822E+003
 -3.8844007E+003
 -3.4463114E+003
 -2.8427921E+003
 -2.0752640E+003
 -1.0087090E+003
 -2.6519816E+002
 -2.2315749E+002
  1.4055297E+003
  1.2347974E+004
  1.9796314E+004
  2.4911187E+004
  2.8441534E+004
  3.0339453E+004
  3.0010462E+004
  2.6877900E+004
  2.2618797E+004
  1.6557343E+004
  7.5164082E+003
 -3.4673163E+003
 -5.5445403E+003
 -6.2498667E+003
 -4.8930005E+003
 -4.6520880E+003
 -4.4696177E+003
 -4.2404635E+003
 -3.8811520E+003
 -3.3943265E+003
 -2.7471755E+003
 -1.9699081E+003
 -9.4332519E+002
 -2.5426168E+002
 -2.1601777E+004
 -1.5780157E+004
  9.5642744E+003
  2.4082957E+004
  2.7526557E+004
  3.1416460E+004
  3.2366190E+004
  3.1516053E+004
  2.6516106E+004
  2.2519825E+004
  2.7609253E+004
  2.0326006E+004
 -1.2729998E+003
 -4.0793048E+003
 -6.1037378E+003
 -5.7881460E+003
 -5.2395882E+003
 -4.7731486E+003
 -4.3686646E+003
 -3.9262775E+003
 -3.3923103E+003
 -2.7211344E+003
 -1.9373818E+003
 -9.2656647E+002
 -2.4876500E+002
 -2.1416389E+003
  7.3262789E+003
  2.1227114E+004
  2.9183523E+004
  3.3004439E+004
  3.4493446E+004
  3.2793076E+004
  3.0672487E+004
  2.2043216E+004
  1.3831189E+004
 -1.4511384E+003
 -3.6382674E+003
 -5.9982179E+003
 -5.9589226E+003
 -5.4725110E+003
 -4.9159765E+003
 -4.4429496E+003
 -3.9668054E+003
 -3.4238608E+003
 -2.7506916E+003
 -1.9646169E+003
 -9.4248134E+002
 -2.5487079E+002
  2.6609716E+003
  9.0367993E+003
  2.1015571E+004
  2.9358721E+004
  3.4145260E+004
  3.5564542E+004
  3.4061240E+004
  3.0178022E+004
  1.8271654E+004
  4.9521093E+003
 -1.0890014E+003
 -4.2420838E+003
 -5.9533921E+003
 -5.6043070E+003
 -5.1915090E+003
 -4.7705338E+003
 -4.3737365E+003
 -3.9626246E+003
 -3.4709542E+003
 -2.8303950E+003
 -2.0491014E+003
 -9.9228327E+002
 -2.6988801E+002
  2.9893494E+003
  1.1283856E+004
  2.2598044E+004
  3.0269170E+004
  3.4816807E+004
  3.5878120E+004
  3.3568973E+004
  2.8086356E+004
  1.5221532E+004
  5.2043146E+003
 -4.4945091E+003
 -5.2539451E+003
 -5.3168093E+003
 -4.5648461E+003
 -4.5757509E+003
 -4.3601213E+003
 -4.1736147E+003
 -3.9085885E+003
 -3.5355667E+003
 -2.9691875E+003
 -2.2061766E+003
 -1.0865322E+003
 -2.9950545E+002
  3.6601655E+003
  1.2673321E+004
  2.4854955E+004
  3.1847308E+004
  3.5370102E+004
  3.5328415E+004
  3.2045247E+004
  2.5807850E+004
  1.3894873E+004
  4.1219162E+003
 -1.0913726E+004
 -4.5179495E+003
 -2.8346333E+003
 -3.7272319E+003
 -3.7393651E+003
 -3.8942628E+003
 -3.8965219E+003
 -3.8345985E+003
 -3.6321101E+003
 -3.1909960E+003
 -2.4683763E+003
 -1.2493224E+003
 -3.4916770E+002
  4.3690983E+003
  1.4594195E+004
  2.8044078E+004
  3.3974659E+004
  3.5651598E+004
  3.3840407E+004
  2.9578205E+004
  2.3432240E+004
  1.2419641E+004
  4.1171494E+003
 -9.7876775E+003
 -3.0292703E+003
 -4.7108391E+003
 -3.4286702E+003
 -2.6646045E+003
 -2.9810315E+003
 -3.2541116E+003
 -3.4532278E+003
 -3.6268837E+003
 -3.7517863E+003
 -3.7691772E+003
 -3.5193796E+003
 -2.8900450E+003
 -1.5261634E+003
 -4.5010731E+002
  4.8378582E+003
  1.8842184E+004
  3.3002548E+004
  3.6745451E+004
  3.5082374E+004
  3.0813493E+004
  2.5582198E+004
  2.0135298E+004
  1.1272113E+004
  3.1260198E+003
 -3.1272007E+003
 -4.8675326E+003
 -5.0525291E+003
 -3.4395057E+003
 -3.0599607E+003
 -2.9971027E+003
 -3.1282380E+003
 -3.3502351E+003
 -3.6361656E+003
 -3.9084216E+003
 -3.9564489E+003
 -3.5289907E+003
 -1.9843105E+003
 -5.8959906E+002
  1.0555850E+004
  2.4980823E+004
  4.2100545E+004
  3.8912291E+004
  3.2365205E+004
  2.5477661E+004
  1.9254540E+004
  1.4712780E+004
  9.7371187E+003
  5.9634910E+003
 -1.2489090E+003
 -3.3651908E+003
 -4.7802883E+003
 -3.9372314E+003
 -3.1770445E+003
 -2.8206073E+003
 -2.8067370E+003
 -3.0190399E+003
 -3.4072746E+003
 -3.9416593E+003
 -4.4121785E+003
 -4.4744708E+003
 -2.7887469E+003
 -1.0291568E+003
  1.3014189E+004
  4.6860698E+004
  5.2008068E+004
  3.6695612E+004
  2.5690430E+004
  1.7517170E+004
  1.1311019E+004
  6.0396046E+003
  4.2184469E+003
  1.0495604E+004
 -9.9590050E+002
 -3.3657603E+003
 -4.4058105E+003
 -3.5910411E+003
 -2.8891522E+003
 -2.4760667E+003
 -2.3956020E+003
 -2.5916202E+003
 -3.0137839E+003
 -3.6867950E+003
 -4.6399498E+003
 -5.5768122E+003
 -4.0264416E+003
 -1.3484557E+003
  6.9352200E+004
  6.8439927E+004
  5.1022725E+004
  2.4289985E+004
  1.6077101E+004
  7.6986811E+003
  2.6108624E+003
 -1.0291622E+003
 -1.7123236E+003
  3.0575798E+003
  4.4784682E+003
  1.1229857E+004
 -3.3358679E+003
 -3.8241524E+003
 -3.5807667E+003
 -2.6039651E+003
 -2.2408694E+003
 -1.9136730E+003
 -1.8895222E+003
 -2.1170694E+003
 -2.5479971E+003
 -3.1798717E+003
 -4.0585538E+003
 -6.5586649E+003
 -6.5980967E+003
 -4.4307870E+003
  2.0761618E+005
  8.5193691E+004
  1.4617199E+004
  1.6206986E+004
  3.1732393E+003
 -1.0854796E+003
 -5.1287549E+003
 -6.4971520E+003
 -4.0179886E+003
  2.7454456E+002
  2.2193607E+003
 -8.3525268E+003
 -3.2451554E+003
 -1.5518035E+003
 -1.8004874E+003
 -1.4098485E+003
 -1.3109598E+003
 -1.3627810E+003
 -1.6970238E+003
 -2.2881258E+003
 -2.9365297E+003
 -3.3381865E+003
 -4.7313228E+003
 -6.7044314E+003
 -4.4964398E+003
  8.5959025E+004
  5.8154757E+004
  1.7614575E+004
  3.4186155E+003
 -3.3728863E+003
 -8.3121187E+003
 -1.0842330E+004
 -1.1264250E+004
 -9.3808774E+003
 -4.6106949E+003
 -1.5210176E+003
 -7.4177235E+003
 -2.3442570E+003
 -3.6476065E+003
 -2.6028953E+003
 -1.4518510E+003
 -1.1339594E+003
 -9.0189865E+002
 -7.9378860E+002
 -9.1129693E+002
 -1.4006322E+003
 -2.2569151E+003
 -3.8393501E+003
 -4.2910737E+003
 -7.1663484E+003
 -1.5790938E+004
 -1.3793406E+004
  6.7118191E+004
  5.2134391E+004
  2.0436420E+004
  2.8509756E+003
 -6.6771357E+003
 -1.1762551E+004
 -1.4536589E+004
 -1.5060187E+004
 -1.4223308E+004
 -9.6550664E+003
 -1.8178378E+003
 -2.4640902E+003
 -4.3636878E+003
 -4.1047269E+003
 -2.0375958E+003
 -1.1490650E+003
 -6.8496299E+002
 -5.0340263E+002
 -5.9758791E+002
 -1.0760768E+003
 -2.3450801E+003
 -4.4460069E+003
 -8.5036462E+003
 -9.5091183E+003
 -7.2617499E+003
  4.4756476E+004
  3.6622619E+004
  1.9729356E+004
  3.9671510E+003
 -6.4623640E+003
 -1.2637826E+004
 -1.5935012E+004
 -1.7178270E+004
 -1.6350798E+004
 -1.3732321E+004
 -6.4634937E+003
 -2.6044964E+003
  4.2587026E+003
 -2.9444962E+003
 -4.0235355E+003
 -3.8173340E+003
 -2.2060979E+003
 -1.3144000E+003
 -7.2330891E+002
 -4.6581506E+002
 -4.6737682E+002
 -8.0954429E+002
 -1.8113368E+003
 -4.0224295E+003
 -9.6110006E+003
 -1.0901582E+004
 -6.4062600E+003
  3.2542163E+004
  2.8689147E+004
  1.5974577E+004
  4.1286614E+003
 -5.4652951E+003
 -1.1864862E+004
 -1.5662412E+004
 -1.7280668E+004
 -1.6914064E+004
 -1.4346300E+004
 -1.0409722E+004
 -8.2191134E+003
 -6.5940826E+003
 -3.5058381E+003
 -2.3522223E+003
 -2.0539530E+003
 -1.3712298E+003
 -9.5958013E+002
 -7.0827964E+002
 -6.5353226E+002
 -8.3654861E+002
 -1.3063626E+003
 -2.2236264E+003
 -5.5298696E+003
 -9.3121215E+003
 -6.6116132E+003
  2.8385746E+004
  2.0425727E+004
  1.2355937E+004
  3.1643500E+003
 -4.5381081E+003
 -1.0488553E+004
 -1.4338731E+004
 -1.6258425E+004
 -1.6384796E+004
 -1.4950877E+004
 -1.2692408E+004
 -1.0016764E+004
 -7.9289511E+003
 -6.0533400E+003
 -4.9386087E+003
 -2.6730634E+003
 -3.3835201E+003
 -2.6915782E+003
 -1.9557730E+003
 -1.8493614E+003
 -1.6066328E+003
 -1.3924771E+003
 -1.2563472E+003
 -1.2923248E+003
 -1.3678416E+003
 -2.1649413E+003
 -1.8039059E+003
 -6.7888785E+003
 -2.0773705E+004
 -1.9192967E+004
  9.2288856E+003
  1.6157180E+004
  7.5184724E+003
  2.5848173E+003
 -3.9075088E+003
 -8.9192664E+003
 -1.2585976E+004
 -1.4677007E+004
 -1.5340862E+004
 -1.5035969E+004
 -1.4026384E+004
 -1.4595116E+004
 -1.1395677E+004
 -8.1842145E+003
 -8.7583730E+002
 -3.7843320E+003
 -3.4971477E+003
 -2.8176477E+003
 -2.3292851E+003
 -2.1575427E+003
 -2.1173038E+003
 -2.0788976E+003
 -2.1023544E+003
 -2.2100837E+003
 -2.6466447E+003
 -3.1133120E+003
 -5.6111312E+003
 -7.6857209E+003
 -7.8861004E+003
 -1.6355132E+004
  4.6224091E+003
  4.4374323E+003
  1.0597139E+004
  6.3404931E+003
  1.8286927E+003
 -3.1098284E+003
 -7.4236273E+003
 -1.0714767E+004
 -1.2837315E+004
 -1.3900718E+004
 -1.4177251E+004
 -1.4275126E+004
 -1.4234168E+004
 -1.5209495E+004
 -1.9685273E+004
 -1.4495766E+003
  1.7306674E+002
 -1.3442506E+003
 -2.3045902E+003
 -2.7386596E+003
 -2.8365884E+003
 -2.8514415E+003
 -2.9115444E+003
 -2.9931522E+003
 -3.1066701E+003
 -3.3172685E+003
 -3.7062872E+003
 -4.4581421E+003
 -5.7863094E+003
 -4.8857738E+003
 -1.0453597E+003
  7.3474169E+003
  8.9817680E+003
  8.7727464E+003
  5.5305091E+003
  1.5976008E+003
 -2.4276702E+003
 -6.0291611E+003
 -8.9053065E+003
 -1.0910134E+004
 -1.2089535E+004
 -1.2625371E+004
 -1.2790241E+004
 -1.2627368E+004
 -1.2934713E+004
 -1.3639231E+004
 -2.2822254E+004
 -2.1623639E+004
  2.3030514E+003
  3.1809932E+003
  5.9852408E+002
 -1.7424607E+003
 -2.6279240E+003
 -3.1739636E+003
 -3.5206933E+003
 -3.7412504E+003
 -3.9037566E+003
 -4.0453730E+003
 -4.1817057E+003
 -4.3263628E+003
 -4.5285035E+003
 -4.7125957E+003
 -4.6186898E+003
 -2.6335789E+003
 -1.1417401E+003
  3.8006445E+003
  5.5134438E+003
  5.9381270E+003
  4.1822492E+003
  1.2305639E+003
 -1.9120013E+003
 -4.8340496E+003
 -7.2482403E+003
 -9.0195259E+003
 -1.0136721E+004
 -1.0680070E+004
 -1.0805658E+004
 -1.0652546E+004
 -1.1145045E+004
 -1.1359666E+004
 -1.6392949E+004
 -1.4015433E+004
 -1.2192717E+004
 -1.9038439E+004
 -7.7289510E+003
  4.9744621E+003
  6.4833777E+003
  3.2191387E+003
  1.9979859E+002
 -1.7724408E+003
 -3.1354864E+003
 -3.9280901E+003
 -4.4312950E+003
 -4.7688148E+003
 -5.0025191E+003
 -5.1623572E+003
 -5.2512728E+003
 -5.2415706E+003
 -5.0665607E+003
 -4.5648319E+003
 -3.5960966E+003
 -1.8366157E+003
 -4.3982569E+002
  6.4588903E+003
  4.4424136E+003
  3.9162552E+003
  2.5996142E+003
  7.1374873E+002
 -1.5980232E+003
 -3.8516907E+003
 -5.7984149E+003
 -7.2811852E+003
 -8.2528946E+003
 -8.7492476E+003
 -8.8816708E+003
 -8.8980188E+003
 -9.0194452E+003
 -1.0021093E+004
 -1.2212695E+004
 -1.3483215E+004
 -1.4902435E+004
 -1.2283362E+004
 -1.0634324E+004
 -1.8317284E+004
 -1.3407241E+004
  9.7058081E+003
  1.0964315E+004
  4.3024808E+003
  1.9957683E+003
 -7.8488775E+002
 -2.6636380E+003
 -4.0133240E+003
 -4.9031754E+003
 -5.4960005E+003
 -5.8907430E+003
 -6.1487342E+003
 -6.2915190E+003
 -6.3052338E+003
 -6.1298478E+003
 -5.6232792E+003
 -4.5724510E+003
 -2.9699456E+003
 -1.2622944E+003
 -1.3199853E+002
  5.6499630E+002
  3.2674182E+003
  1.8433655E+003
  1.5632750E+003
  2.2711145E+002
 -1.3564018E+003
 -3.0505850E+003
 -4.5669923E+003
 -5.7669229E+003
 -6.5828357E+003
 -7.0305357E+003
 -7.2072453E+003
 -7.2793039E+003
 -7.5504873E+003
 -8.2673260E+003
 -9.2144737E+003
 -9.3666107E+003
 -1.0128527E+004
 -8.7714846E+003
 -8.8533970E+003
 -8.7066186E+003
 -7.3899160E+003
 -6.7860235E+003
 -1.6492409E+003
 -7.5802306E+003
 -5.3202757E+003
 -7.2945463E+003
 -5.1411425E+003
 -1.6759447E+004
 -1.5679789E+004
  8.5552374E+003
  1.1656710E+004
  6.9761703E+003
  7.0432798E+003
  6.1440229E+003
  1.0982486E+003
 -4.1132433E+002
 -2.4128639E+003
 -3.9672253E+003
 -5.1874574E+003
 -6.0555542E+003
 -6.6563599E+003
 -7.0548009E+003
 -7.2959939E+003
 -7.3944199E+003
 -7.3344465E+003
 -7.0452533E+003
 -6.4079390E+003
 -5.1093134E+003
 -2.8087731E+003
 -3.0535892E+002
 -7.3197864E+001
 -3.6105765E+003
  2.6116508E+003
 -4.2730295E+002
  1.6786858E+003
  1.1441249E+003
  9.6407020E+002
  5.3652121E+001
 -1.0991261E+003
 -2.3670162E+003
 -3.5420888E+003
 -4.5015050E+003
 -5.1815877E+003
 -5.5872090E+003
 -5.7851847E+003
 -5.9043299E+003
 -6.0896626E+003
 -6.3906709E+003
 -6.6331559E+003
 -6.7891420E+003
 -6.1437425E+003
 -4.8641634E+003
 -5.1016350E+003
 -7.8252204E+003
 -7.8620037E+003
 -7.3119801E+003
 -4.0975343E+003
 -6.1846227E+003
 -8.2154117E+003
 -7.1378261E+003
 -7.0563589E+003
 -1.9904229E+003
 -6.0262660E+003
 -2.3844603E+003
 -5.5869956E+003
 -1.8724631E+003
 -4.6837975E+003
 -1.6327276E+003
 -3.4040812E+003
 -1.0689036E+003
 -1.6389226E+003
 -4.9615221E+002
 -3.5388903E+001
  6.7918783E+001
  1.3076020E+003
  8.1635926E+002
  3.0756862E+003
  8.8665281E+002
  5.0356374E+003
  4.7424703E+003
  4.7523606E+003
  3.2003599E+003
  1.7631465E+003
 -8.0388768E+002
 -2.7672341E+003
 -4.2333568E+003
 -5.5144739E+003
 -6.5412745E+003
 -7.3148099E+003
 -7.8607422E+003
 -8.2146418E+003
 -8.4021604E+003
 -8.4332871E+003
 -8.2890635E+003
 -7.9530840E+003
 -7.2791031E+003
 -6.3310087E+003
 -3.9014724E+003
  2.5725439E+002
  2.8359883E+003
 -3.7931304E+003
  4.7704704E+002
  1.2186656E+003
  1.4626629E+003
  8.6264862E+002
  1.5554578E+002
 -7.8446273E+002
 -1.7723190E+003
 -2.7032632E+003
 -3.4797870E+003
 -4.0532707E+003
 -4.4208396E+003
 -4.6245089E+003
 -4.7346739E+003
 -4.8128987E+003
 -4.8578763E+003
 -4.8094341E+003
 -4.4695426E+003
 -3.9041834E+003
 -3.5686685E+003
 -3.9913549E+003
 -4.2855106E+003
 -4.5241669E+003
 -3.2760418E+003
 -1.9985534E+003
 -2.8783760E+003
 -7.7199830E+003
 -9.5493353E+003
 -9.6124620E+003
 -9.2210640E+003
 -8.1235189E+003
 -5.9706660E+003
 -3.6346018E+003
 -9.5669134E+002
  1.1720910E+003
  2.7465266E+003
  3.2868596E+003
  1.1193248E+003
 -4.0014713E+002
 -1.4600180E+003
 -3.0758748E+003
 -4.6785980E+003
 -6.0032371E+003
 -7.0795295E+003
 -7.9456192E+003
 -8.6002951E+003
 -9.0562629E+003
 -9.3304875E+003
 -9.4354935E+003
 -9.3678607E+003
 -9.1263559E+003
 -8.6533581E+003
 -8.0872079E+003
 -6.9583416E+003
 -6.8597416E+003
 -1.7009743E+003
  1.0070564E+004
  9.1605400E+002
  1.5023395E+003
  2.1429446E+003
  1.7020474E+003
  1.1106332E+003
  3.5467400E+002
 -4.5072528E+002
 -1.2733972E+003
 -2.0373509E+003
 -2.6853649E+003
 -3.1816073E+003
 -3.5205025E+003
 -3.7224248E+003
 -3.8203448E+003
 -3.8370060E+003
 -3.7664639E+003
 -3.5597794E+003
 -3.1999626E+003
 -2.7447122E+003
 -2.3800708E+003
 -2.2011893E+003
 -2.2082010E+003
 -1.7238486E+003
 -1.1160795E+003
 -1.1290379E+003
 -2.9896870E+003
 -5.2873179E+003
 -8.0180910E+003
 -9.4932651E+003
 -9.2017438E+003
 -9.2032177E+003
 -8.4653448E+003
 -4.5464502E+003
 -2.3257009E+003
 -1.4070400E+003
 -2.5689240E+002
 -1.3894064E+002
 -8.5789725E+002
 -2.3739926E+003
 -3.8206074E+003
 -5.1579407E+003
 -6.4779823E+003
 -7.6393821E+003
 -8.5829978E+003
 -9.3142265E+003
 -9.8479648E+003
 -1.0197144E+004
 -1.0372399E+004
 -1.0375158E+004
 -1.0194547E+004
 -9.8006467E+003
 -9.1722617E+003
 -8.2499769E+003
 -7.1597868E+003
 -5.9076563E+003
 -4.1135572E+003
  2.8035923E+001
  2.6792785E+002
  1.2297666E+004
  6.9863041E+003
  3.8508963E+003
  2.8271614E+003
  1.8817291E+003
  1.2549063E+003
  5.3428927E+002
 -1.8270521E+002
 -8.8847055E+002
 -1.5389219E+003
 -2.0990242E+003
 -2.5445927E+003
 -2.8687420E+003
 -3.0789608E+003
 -3.1886431E+003
 -3.2054631E+003
 -3.1214446E+003
 -2.9214952E+003
 -2.6008249E+003
 -2.1991451E+003
 -1.7630064E+003
 -1.2950513E+003
 -6.5865463E+002
 -5.8080481E+000
  4.1316435E+002
 -1.6861036E+002
 -1.7217688E+003
 -3.6018168E+003
 -4.8793133E+003
 -4.8753641E+003
 -4.8512074E+003
 -6.3572339E+003
 -8.6895600E+003
 -8.2601316E+003
 -6.8401669E+003
 -5.8298453E+003
 -3.6813680E+003
 -2.9456869E+003
 -3.5279539E+003
 -4.4853086E+003
 -5.6930563E+003
 -6.9634938E+003
 -8.1521974E+003
 -9.1801635E+003
 -9.9985787E+003
 -1.0603807E+004
 -1.1014228E+004
 -1.1248862E+004
 -1.1318125E+004
 -1.1218639E+004
 -1.0926085E+004
 -1.0396818E+004
 -9.5454732E+003
 -8.3039737E+003
 -6.4423751E+003
 -3.8658086E+003
 -1.0496419E+003
 -1.1765824E+003
 -1.1230938E+002
 -1.1407698E+002
  1.8477861E+003
  2.0337499E+003
  1.7592315E+003
  1.1855042E+003
  5.9863533E+002
 -2.4538852E+001
 -6.3209041E+002
 -1.1991956E+003
 -1.6994593E+003
 -2.1161677E+003
 -2.4421887E+003
 -2.6788821E+003
 -2.8310463E+003
 -2.9006615E+003
 -2.8837831E+003
 -2.7722366E+003
 -2.5614019E+003
 -2.2443379E+003
 -1.8009650E+003
 -1.1681412E+003
 -3.1793390E+002
  6.5529168E+002
  8.7162241E+002
  3.6804460E+002
 -1.6220573E+003
 -1.7622532E+003
 -9.6047036E+002
  2.5387165E+003
 -1.2155457E+003
 -1.5668115E+003
 -7.0433956E+003
 -1.7590333E+004
 -1.1421150E+004
 -1.2155846E+004
 -6.5634235E+003
 -6.4185623E+003
 -5.9873391E+003
 -6.4745657E+003
 -7.4352697E+003
 -8.6101712E+003
 -9.7219006E+003
 -1.0638693E+004
 -1.1323497E+004
 -1.1790462E+004
 -1.2068304E+004
 -1.2183034E+004
 -1.2149085E+004
 -1.1962135E+004
 -1.1597183E+004
 -1.0986025E+004
 -1.0067472E+004
 -8.5863484E+003
 -6.8006042E+003
 -3.3445032E+003
 -3.4683880E+003
 -1.0590883E+004
 -1.1133474E+004
  2.0469573E+003
  1.5261604E+003
  1.4985618E+003
  1.3721124E+003
  1.0146910E+003
  5.3997778E+002
  2.4209054E+001
 -4.9891147E+002
 -1.0004223E+003
 -1.4604260E+003
 -1.8653003E+003
 -2.2085816E+003
 -2.4894809E+003
 -2.7100358E+003
 -2.8717599E+003
 -2.9731405E+003
 -3.0088879E+003
 -2.9670269E+003
 -2.8245672E+003
 -2.5300707E+003
 -2.0202126E+003
 -1.1999011E+003
 -1.7580625E+002
  7.6058331E+002
 -1.3805502E+003
 -4.0928375E+003
 -1.0774627E+003
  4.4904895E+002
  4.1242686E+003
 -1.2215319E+004
 -1.1156419E+004
 -1.9137145E+004
 -1.0877163E+004
 -9.8133560E+003
 -8.0427519E+003
 -8.1320901E+003
 -9.0052293E+003
 -1.0186121E+004
 -1.1236912E+004
 -1.2020988E+004
 -1.2543687E+004
 -1.2849503E+004
 -1.2980796E+004
 -1.2970968E+004
 -1.2840000E+004
 -1.2590938E+004
 -1.2200801E+004
 -1.1624971E+004
 -1.0755079E+004
 -9.5775726E+003
 -7.7897329E+003
 -6.6496249E+003
 -5.4463135E+003
 -4.3560892E+003
  1.4107726E+003
  1.5152368E+003
  1.2754571E+003
  1.0919492E+003
  7.9562612E+002
  4.1771794E+002
 -1.2731443E+001
 -4.6428012E+002
 -9.1584565E+002
 -1.3500539E+003
 -1.7558429E+003
 -2.1277027E+003
 -2.4649293E+003
 -2.7697941E+003
 -3.0453572E+003
 -3.2934022E+003
 -3.5116825E+003
 -3.6910221E+003
 -3.8047923E+003
 -3.8145900E+003
 -3.6236971E+003
 -3.2699800E+003
 -2.5220107E+003
 -2.5390181E+003
 -5.9746233E+003
 -7.1183044E+003
 -1.7336647E+004
 -1.4057446E+004
 -1.1029891E+004
 -9.1294732E+003
 -9.2588742E+003
 -1.0430926E+004
 -1.1774510E+004
 -1.2716162E+004
 -1.3302024E+004
 -1.3622303E+004
 -1.3744597E+004
 -1.3718024E+004
 -1.3580234E+004
 -1.3357768E+004
 -1.3064184E+004
 -1.2694905E+004
 -1.2218252E+004
 -1.1575259E+004
 -1.0685773E+004
 -9.5055236E+003
 -8.2918544E+003
 -5.2819959E+003
 -1.4825546E+003
  1.6197097E+003
  1.3879414E+003
  1.1538445E+003
  8.7838756E+002
  5.8858367E+002
  2.6697822E+002
 -9.7930336E+001
 -4.9672995E+002
 -9.1293841E+002
 -1.3332835E+003
 -1.7486355E+003
 -2.1549840E+003
 -2.5527384E+003
 -2.9456180E+003
 -3.3391736E+003
 -3.7389098E+003
 -4.1483534E+003
 -4.5639996E+003
 -4.9753509E+003
 -5.3372889E+003
 -5.6356270E+003
 -5.6131359E+003
 -5.7652668E+003
 -4.7465881E+003
 -3.3070074E+003
 -1.2405279E+004
 -1.1104455E+004
 -9.1500295E+003
 -9.7406878E+003
 -1.2108842E+004
 -1.3406659E+004
 -1.4076819E+004
 -1.4396937E+004
 -1.4495041E+004
 -1.4428809E+004
 -1.4245182E+004
 -1.3980136E+004
 -1.3666396E+004
 -1.3331543E+004
 -1.2992103E+004
 -1.2645854E+004
 -1.2242161E+004
 -1.1698310E+004
 -1.0730384E+004
 -9.0984504E+003
 -4.9936781E+003
 -1.7223219E+003
  1.1231952E+003
  1.3998563E+003
  9.5645058E+002
  6.4485431E+002
  3.8940582E+002
  1.2188758E+002
 -2.0006920E+002
 -5.6382835E+002
 -9.5947016E+002
 -1.3754611E+003
 -1.8051651E+003
 -2.2461981E+003
 -2.7004451E+003
 -3.1732080E+003
 -3.6722131E+003
 -4.2062790E+003
 -4.7836767E+003
 -5.4090183E+003
 -6.0802216E+003
 -6.7732947E+003
 -7.4397038E+003
 -7.8607792E+003
 -7.7078695E+003
 -4.7226069E+003
 -1.4416400E+003
 -9.1827924E+003
 -9.0867889E+003
 -1.1495042E+004
 -1.4113438E+004
 -1.4759665E+004
 -1.5090479E+004
 -1.5176403E+004
 -1.5083135E+004
 -1.4859536E+004
 -1.4537895E+004
 -1.4153513E+004
 -1.3744070E+004
 -1.3351629E+004
 -1.3016932E+004
 -1.2767659E+004
 -1.2578830E+004
 -1.2333029E+004
 -1.1593524E+004
 -9.9000873E+003
 -5.5694447E+003
 -1.7754562E+003
  2.7524019E+003
  1.0457238E+003
  5.4754177E+002
  3.6539210E+002
  2.4726574E+002
  5.0338867E+000
 -2.8983179E+002
 -6.3975653E+002
 -1.0275652E+003
 -1.4463494E+003
 -1.8912967E+003
 -2.3620326E+003
 -2.8616799E+003
 -3.3965174E+003
 -3.9751954E+003
 -4.6077601E+003
 -5.3042321E+003
 -6.0723323E+003
 -6.9131549E+003
 -7.8105379E+003
 -8.7080863E+003
 -9.3979359E+003
 -9.4404653E+003
 -5.9641044E+003
 -1.2083429E+003
 -8.1723945E+003
 -1.1627373E+004
 -1.5277185E+004
 -1.5088628E+004
 -1.5583175E+004
 -1.5508519E+004
 -1.5343412E+004
 -1.5017931E+004
 -1.4598549E+004
 -1.4111029E+004
 -1.3600485E+004
 -1.3121628E+004
 -1.2738618E+004
 -1.2512385E+004
 -1.2463268E+004
 -1.2511948E+004
 -1.2202510E+004
 -1.1022225E+004
 -6.4855362E+003
 -2.0765082E+003
 -2.4021425E+003
 -3.7132350E+002
 -1.8051559E+001
  3.7755261E+002
  1.7491384E+002
 -4.3549527E+001
 -3.5537462E+002
 -7.0634264E+002
 -1.0978507E+003
 -1.5227220E+003
 -1.9802528E+003
 -2.4715681E+003
 -3.0006661E+003
 -3.5737214E+003
 -4.1986086E+003
 -4.8836893E+003
 -5.6370725E+003
 -6.4611148E+003
 -7.3585570E+003
 -8.2835591E+003
 -9.2684744E+003
 -9.8685634E+003
 -1.0932201E+004
 -8.8348859E+003
 -6.3189888E+003
 -9.0645795E+003
 -1.0491846E+004
 -1.3445235E+004
 -1.4959165E+004
 -1.5353782E+004
 -1.5455993E+004
 -1.5275935E+004
 -1.4935800E+004
 -1.4464381E+004
 -1.3901361E+004
 -1.3289770E+004
 -1.2694735E+004
 -1.2204412E+004
 -1.1914357E+004
 -1.1880905E+004
 -1.2176256E+004
 -1.2379633E+004
 -1.1952361E+004
 -7.8321476E+003
 -3.5303843E+003
  5.6929863E+002
  9.6969109E+002
  8.7946446E+002
  5.2851409E+002
  2.6501857E+002
 -5.4888346E+001
 -3.9164347E+002
 -7.6057427E+002
 -1.1592879E+003
 -1.5899343E+003
 -2.0539281E+003
 -2.5541307E+003
 -3.0945447E+003
 -3.6802283E+003
 -4.3165987E+003
 -5.0083910E+003
 -5.7573457E+003
 -6.5604681E+003
 -7.3995355E+003
 -8.2513109E+003
 -9.0086612E+003
 -9.6974758E+003
 -9.7952141E+003
 -1.0191557E+004
 -1.3467120E+004
 -6.6281510E+003
 -2.5827316E+003
 -7.6802904E+003
 -1.0906105E+004
 -1.2823622E+004
 -1.4259568E+004
 -1.4896799E+004
 -1.5078892E+004
 -1.4983408E+004
 -1.4678224E+004
 -1.4209731E+004
 -1.3608251E+004
 -1.2912360E+004
 -1.2185047E+004
 -1.1538422E+004
 -1.1132615E+004
 -1.1057363E+004
 -1.1329088E+004
 -1.2269916E+004
 -1.3481151E+004
 -8.9305284E+003
 -2.5626260E+003
  5.0564277E+003
  2.5346746E+003
  1.5263091E+003
  7.3929413E+002
  3.3390365E+002
 -5.4703611E+001
 -4.2265090E+002
 -8.0568580E+002
 -1.2095392E+003
 -1.6407158E+003
 -2.1027979E+003
 -2.5992539E+003
 -3.1333839E+003
 -3.7082733E+003
 -4.3260810E+003
 -4.9866988E+003
 -5.6857569E+003
 -6.4107897E+003
 -7.1381212E+003
 -7.8198305E+003
 -8.3964672E+003
 -8.7369853E+003
 -8.7826397E+003
 -8.6406776E+003
 -1.0709405E+004
 -1.3259060E+004
 -1.4219066E+004
 -7.9152843E+003
 -1.1199674E+004
 -1.3468305E+004
 -1.2907744E+004
 -1.3840791E+004
 -1.4311945E+004
 -1.4578611E+004
 -1.4564830E+004
 -1.4340865E+004
 -1.3923727E+004
 -1.3335755E+004
 -1.2598987E+004
 -1.1760827E+004
 -1.0924149E+004
 -1.0353832E+004
 -1.0403440E+004
 -1.0936198E+004
 -1.0905860E+004
 -1.2365339E+004
 -1.1650136E+004
 -4.9207006E+003
 -2.7971411E+002
  1.0946895E+003
  1.0082807E+003
  7.1462826E+002
  2.8341877E+002
 -8.8850381E+001
 -4.6661559E+002
 -8.4926621E+002
 -1.2498813E+003
 -1.6734372E+003
 -2.1242837E+003
 -2.6052119E+003
 -3.1181602E+003
 -3.6638700E+003
 -4.2411985E+003
 -4.8458722E+003
 -5.4685651E+003
 -6.0926009E+003
 -6.6905068E+003
 -7.2242916E+003
 -7.6446150E+003
 -7.9260968E+003
 -8.1742168E+003
 -9.0795009E+003
 -1.0786193E+004
 -1.2380608E+004
 -1.3453833E+004
 -1.3375594E+004
 -1.5094550E+004
 -1.2247629E+004
 -1.2432273E+004
 -1.3005927E+004
 -1.3307877E+004
 -1.3762144E+004
 -1.4039053E+004
 -1.4127032E+004
 -1.4006690E+004
 -1.3688214E+004
 -1.3176336E+004
 -1.2477857E+004
 -1.1604145E+004
 -1.0632219E+004
 -9.7174463E+003
 -9.8538815E+003
 -1.1931420E+004
 -1.6461401E+004
 -2.2487805E+004
 -1.7309938E+004
  1.2996474E+003
  8.5029359E+002
  6.6018989E+002
  4.7568491E+002
  1.7236277E+002
 -1.7055683E+002
 -5.2576773E+002
 -8.9529496E+002
 -1.2819335E+003
 -1.6895664E+003
 -2.1206702E+003
 -2.5766538E+003
 -3.0576312E+003
 -3.5621128E+003
 -4.0863441E+003
 -4.6233442E+003
 -5.1617810E+003
 -5.6849405E+003
 -6.1711918E+003
 -6.5976112E+003
 -6.9550260E+003
 -7.2872117E+003
 -7.7764077E+003
 -8.6125876E+003
 -9.8828222E+003
 -1.1374555E+004
 -1.3009580E+004
 -1.4395538E+004
 -1.4202873E+004
 -7.5714537E+003
 -1.1059225E+004
 -1.2946114E+004
 -1.2937903E+004
 -1.1654769E+004
 -1.2371092E+004
 -1.2752194E+004
 -1.3209228E+004
 -1.3548421E+004
 -1.3733911E+004
 -1.3735070E+004
 -1.3548982E+004
 -1.3176148E+004
 -1.2613024E+004
 -1.1857978E+004
 -1.0884394E+004
 -9.8521999E+003
 -8.6782182E+003
 -1.1521099E+004
 -1.5158276E+004
 -1.3853469E+004
  8.2685592E+002
  8.4584744E+002
  5.2733379E+002
  3.0819929E+002
  3.5870773E+001
 -2.6661913E+002
 -5.9457382E+002
 -9.4091008E+002
 -1.3065339E+003
 -1.6918033E+003
 -2.0971638E+003
 -2.5221055E+003
 -2.9649657E+003
 -3.4224803E+003
 -3.8892909E+003
 -4.3574205E+003
 -4.8159762E+003
 -5.2516974E+003
 -5.6514591E+003
 -6.0092032E+003
 -6.3407055E+003
 -6.7076347E+003
 -7.2136871E+003
 -7.9751255E+003
 -9.0092302E+003
 -1.0275915E+004
 -1.1720688E+004
 -1.3838448E+004
 -1.6443409E+004
 -1.5445894E+004
 -2.0773699E+004
 -1.4909691E+004
 -1.2344665E+004
 -1.1640881E+004
 -1.1721648E+004
 -1.2249482E+004
 -1.2740143E+004
 -1.3154483E+004
 -1.3429680E+004
 -1.3547532E+004
 -1.3503462E+004
 -1.3305914E+004
 -1.2953664E+004
 -1.2477910E+004
 -1.1752055E+004
 -1.1142455E+004
 -9.2735062E+003
 -1.1406940E+004
 -2.2847481E+004
 -1.6080608E+004
  9.4200290E+002
  7.6266814E+002
  4.6184283E+002
  1.9249477E+002
 -8.0147034E+001
 -3.5966870E+002
 -6.6009726E+002
 -9.8187418E+002
 -1.3234869E+003
 -1.6835578E+003
 -2.0604090E+003
 -2.4518809E+003
 -2.8548828E+003
 -3.2650434E+003
 -3.6764024E+003
 -4.0813056E+003
 -4.4707837E+003
 -4.8359423E+003
 -5.1712121E+003
 -5.4804748E+003
 -5.7858353E+003
 -6.1327761E+003
 -6.5825161E+003
 -7.1857107E+003
 -7.9486760E+003
 -8.8934301E+003
 -9.9182045E+003
 -1.1581457E+004
 -1.2411696E+004
 -1.8388552E+004
 -2.0461433E+004
 -1.9235038E+004
 -1.7117139E+004
 -1.2379396E+004
 -1.0714065E+004
 -1.0923328E+004
 -1.1116544E+004
 -1.1423375E+004
 -1.1921937E+004
 -1.2449423E+004
 -1.2899751E+004
 -1.3233648E+004
 -1.3434522E+004
 -1.3505893E+004
 -1.3461990E+004
 -1.3334334E+004
 -1.3128079E+004
 -1.2954149E+004
 -1.2496362E+004
 -1.2747721E+004
 -9.8768460E+003
 -6.5442951E+003
  6.9357412E+002
  7.5381384E+002
  3.6041741E+002
  7.8016986E+001
 -1.8025330E+002
 -4.3559502E+002
 -7.1451190E+002
 -1.0141013E+003
 -1.3333115E+003
 -1.6687999E+003
 -2.0176688E+003
 -2.3765832E+003
 -2.7416370E+003
 -3.1080385E+003
 -3.4700228E+003
 -3.8210421E+003
 -4.1544852E+003
 -4.4652496E+003
 -4.7524817E+003
 -5.0234014E+003
 -5.2965152E+003
 -5.6013167E+003
 -5.9694447E+003
 -6.4227642E+003
 -6.9519902E+003
 -7.5410959E+003
 -8.0689872E+003
 -8.6415656E+003
 -7.8894195E+003
 -1.1230709E+004
 -1.1163552E+004
 -8.2421273E+003
 -8.4081181E+003
 -1.6602021E+003
 -8.5522504E+003
 -1.6627842E+003
 -1.2108452E+004
 -7.6837168E+003
 -1.4524520E+004
 -1.2655558E+004
 -1.1576622E+004
 -1.0816542E+004
 -1.1040411E+004
 -1.1426146E+004
 -1.1897621E+004
 -1.2381164E+004
 -1.2810581E+004
 -1.3144489E+004
 -1.3369095E+004
 -1.3489273E+004
 -1.3522915E+004
 -1.3508307E+004
 -1.3460575E+004
 -1.3502732E+004
 -1.3233089E+004
 -1.3582382E+004
 -6.9588061E+003
  7.6015720E+003
  1.3854357E+003
  5.7230028E+002
  1.6736490E+002
 -5.3333514E+001
 -2.4821442E+002
 -4.9015278E+002
 -7.5215609E+002
 -1.0368345E+003
 -1.3379360E+003
 -1.6523535E+003
 -1.9763333E+003
 -2.3061999E+003
 -2.6378395E+003
 -2.9666574E+003
 -3.2876219E+003
 -3.5956289E+003
 -3.8862870E+003
 -4.1572524E+003
 -4.4100736E+003
 -4.6520427E+003
 -4.8969222E+003
 -5.1627900E+003
 -5.4663774E+003
 -5.8141935E+003
 -6.1978657E+003
 -6.5857927E+003
 -6.9541729E+003
 -7.2152169E+003
 -8.1280969E+003
 -1.0310972E+004
 -1.3894781E+004
 -1.4383332E+004
 -1.5216655E+004
 -1.6795058E+004
 -1.5657019E+004
 -1.3834001E+004
 -1.2451190E+004
 -1.1803411E+004
 -1.1639801E+004
 -1.1837506E+004
 -1.2172938E+004
 -1.2542887E+004
 -1.2881724E+004
 -1.3148015E+004
 -1.3322350E+004
 -1.3402789E+004
 -1.3399610E+004
 -1.3328112E+004
 -1.3200530E+004
 -1.2976272E+004
 -1.2501628E+004
 -1.0890788E+004
 -5.8326194E+003
  7.7106523E+002
  2.0292356E+003
  9.8465056E+003
 -8.5903177E+002
 -6.0781880E+001
 -9.5520792E+001
 -5.3274173E+001
 -2.8503620E+002
 -5.1160609E+002
 -7.7573223E+002
 -1.0520830E+003
 -1.3416687E+003
 -1.6398262E+003
 -1.9436558E+003
 -2.2495867E+003
 -2.5539154E+003
 -2.8526815E+003
 -3.1419073E+003
 -3.4180098E+003
 -3.6785143E+003
 -3.9230472E+003
 -4.1544478E+003
 -4.3795803E+003
 -4.6091713E+003
 -4.8560989E+003
 -5.1321525E+003
 -5.4450702E+003
 -5.7979333E+003
 -6.2004754E+003
 -6.6905045E+003
 -7.4854232E+003
 -8.9765761E+003
 -1.1483665E+004
 -1.3663938E+004
 -1.5734071E+004
 -1.6882779E+004
 -1.7082329E+004
 -1.6648208E+004
 -1.5254784E+004
 -1.3898427E+004
 -1.3013235E+004
 -1.2620694E+004
 -1.2561069E+004
 -1.2691628E+004
 -1.2892181E+004
 -1.3085607E+004
 -1.3223323E+004
 -1.3277305E+004
 -1.3233511E+004
 -1.3082993E+004
 -1.2811361E+004
 -1.2373725E+004
 -1.1672291E+004
 -1.0415451E+004
 -8.1061361E+003
 -3.8059384E+003
  2.7757139E+002
  1.8516201E+003
  2.7932147E+002
  4.7842971E+002
  2.9685981E+002
 -4.5345006E+000
 -2.5121767E+002
 -5.2014885E+002
 -7.8965338E+002
 -1.0673240E+003
 -1.3503332E+003
 -1.6375276E+003
 -1.9263909E+003
 -2.2141979E+003
 -2.4979372E+003
 -2.7745766E+003
 -3.0413307E+003
 -3.2960975E+003
 -3.5380577E+003
 -3.7683980E+003
 -3.9910087E+003
 -4.2129002E+003
 -4.4440683E+003
 -4.6967455E+003
 -4.9845982E+003
 -5.3232691E+003
 -5.7355155E+003
 -6.2640712E+003
 -7.0063081E+003
 -8.1323898E+003
 -9.8175055E+003
 -1.1929986E+004
 -1.4277955E+004
 -1.6076921E+004
 -1.7236912E+004
 -1.7613424E+004
 -1.7085965E+004
 -1.6112808E+004
 -1.5035154E+004
 -1.4184235E+004
 -1.3659886E+004
 -1.3415748E+004
 -1.3349702E+004
 -1.3364262E+004
 -1.3382223E+004
 -1.3350162E+004
 -1.3232934E+004
 -1.3005462E+004
 -1.2642083E+004
 -1.2099546E+004
 -1.1301653E+004
 -1.0099673E+004
 -8.3240509E+003
 -5.9139851E+003
 -3.9789442E+003
 -2.3967597E+003
 -1.6376796E+003
  2.3182230E+003
  1.1470937E+003
  5.3500810E+002
  7.4948583E+001
 -2.3599442E+002
 -5.2931548E+002
 -8.1039519E+002
 -1.0907136E+003
 -1.3711403E+003
 -1.6515713E+003
 -1.9304721E+003
 -2.2058845E+003
 -2.4756628E+003
 -2.7377883E+003
 -2.9906850E+003
 -3.2336318E+003
 -3.4672691E+003
 -3.6941585E+003
 -3.9193035E+003
 -4.1505170E+003
 -4.3985886E+003
 -4.6774198E+003
 -5.0046851E+003
 -5.4041531E+003
 -5.9109853E+003
 -6.5816928E+003
 -7.5011346E+003
 -8.7659216E+003
 -1.0411290E+004
 -1.2359497E+004
 -1.4286221E+004
 -1.5949637E+004
 -1.7036980E+004
 -1.7442904E+004
 -1.7255357E+004
 -1.6622083E+004
 -1.5839499E+004
 -1.5127626E+004
 -1.4599103E+004
 -1.4257269E+004
 -1.4046423E+004
 -1.3893562E+004
 -1.3732577E+004
 -1.3512731E+004
 -1.3198164E+004
 -1.2761287E+004
 -1.2171011E+004
 -1.1379896E+004
 -1.0303651E+004
 -8.8369256E+003
 -6.8639561E+003
 -4.5248635E+003
 -3.0187553E+003
 -2.9285087E+003
 -1.7625252E+003
 -4.6555111E+001
  4.8722846E+002
  2.8746133E+002
  3.8728657E+001
 -2.7659159E+002
 -5.6345744E+002
 -8.4930728E+002
 -1.1306962E+003
 -1.4103033E+003
 -1.6872477E+003
 -1.9605448E+003
 -2.2287917E+003
 -2.4906624E+003
 -2.7451139E+003
 -2.9916996E+003
 -3.2309346E+003
 -3.4647327E+003
 -3.6968795E+003
 -3.9334931E+003
 -4.1834425E+003
 -4.4587619E+003
 -4.7752366E+003
 -5.1535232E+003
 -5.6212153E+003
 -6.2159658E+003
 -6.9875214E+003
 -7.9925423E+003
 -9.2725009E+003
 -1.0818501E+004
 -1.2523171E+004
 -1.4215018E+004
 -1.5648534E+004
 -1.6660447E+004
 -1.7164316E+004
 -1.7180187E+004
 -1.6851271E+004
 -1.6346083E+004
 -1.5822014E+004
 -1.5369698E+004
 -1.5010438E+004
 -1.4715035E+004
 -1.4431627E+004
 -1.4107368E+004
 -1.3700327E+004
 -1.3182534E+004
 -1.2535069E+004
 -1.1740847E+004
 -1.0765490E+004
 -9.5790598E+003
 -8.0657475E+003
 -6.4361803E+003
 -4.1625773E+003
 -3.8410308E+003
 -7.3693697E+003
 -6.5229149E+003
  5.9076485E+002
  3.5113565E+002
  1.1034376E+002
 -8.9780546E+001
 -3.5113719E+002
 -6.2873105E+002
 -9.1043028E+002
 -1.1922793E+003
 -1.4720602E+003
 -1.7482924E+003
 -2.0197049E+003
 -2.2853262E+003
 -2.5445148E+003
 -2.7971036E+003
 -3.0436298E+003
 -3.2856522E+003
 -3.5261329E+003
 -3.7698554E+003
 -4.0238547E+003
 -4.2978530E+003
 -4.6047401E+003
 -4.9611862E+003
 -5.3884777E+003
 -5.9134886E+003
 -6.5690248E+003
 -7.3915104E+003
 -8.4126899E+003
 -9.6436778E+003
 -1.1052748E+004
 -1.2554840E+004
 -1.4009550E+004
 -1.5271548E+004
 -1.6212407E+004
 -1.6772287E+004
 -1.6970202E+004
 -1.6882999E+004
 -1.6624530E+004
 -1.6297378E+004
 -1.5966668E+004
 -1.5649747E+004
 -1.5325715E+004
 -1.4953540E+004
 -1.4490727E+004
 -1.3906801E+004
 -1.3188537E+004
 -1.2338121E+004
 -1.1363360E+004
 -1.0276099E+004
 -9.0632350E+003
 -7.7896777E+003
 -6.3247900E+003
 -5.4819752E+003
 -4.2753116E+003
 -3.1818493E+003
  3.3946248E+002
  3.0222645E+002
  2.3457508E+001
 -1.8985079E+002
 -4.4336520E+002
 -7.1263076E+002
 -9.9328675E+002
 -1.2764878E+003
 -1.5585851E+003
 -1.8366932E+003
 -2.1094516E+003
 -2.3762421E+003
 -2.6370572E+003
 -2.8924766E+003
 -3.1438384E+003
 -3.3935078E+003
 -3.6452135E+003
 -3.9044179E+003
 -4.1786986E+003
 -4.4781310E+003
 -4.8156750E+003
 -5.2075541E+003
 -5.6735375E+003
 -6.2367967E+003
 -6.9225781E+003
 -7.7544415E+003
 -8.7469387E+003
 -9.8947709E+003
 -1.1162401E+004
 -1.2478555E+004
 -1.3746742E+004
 -1.4861141E+004
 -1.5739207E+004
 -1.6338668E+004
 -1.6666492E+004
 -1.6773026E+004
 -1.6727428E+004
 -1.6593945E+004
 -1.6410372E+004
 -1.6179887E+004
 -1.5875676E+004
 -1.5455548E+004
 -1.4880523E+004
 -1.4130355E+004
 -1.3211673E+004
 -1.2155555E+004
 -1.1008302E+004
 -9.8201740E+003
 -8.6418774E+003
 -7.5153373E+003
 -6.4609085E+003
 -5.5505723E+003
 -3.4598054E+003
 -8.6745280E+002
  3.0664404E+002
  2.2148562E+002
 -3.1346275E+001
 -2.7020632E+002
 -5.3510232E+002
 -8.0919540E+002
 -1.0941635E+003
 -1.3832025E+003
 -1.6704619E+003
 -1.9530141E+003
 -2.2298087E+003
 -2.5008235E+003
 -2.7666651E+003
 -3.0285334E+003
 -3.2883531E+003
 -3.5490224E+003
 -3.8147133E+003
 -4.0911899E+003
 -4.3861172E+003
 -4.7093359E+003
 -5.0730720E+003
 -5.4920104E+003
 -5.9830710E+003
 -6.5645676E+003
 -7.2542412E+003
 -8.0656205E+003
 -9.0025118E+003
 -1.0052572E+004
 -1.1182119E+004
 -1.2336086E+004
 -1.3444198E+004
 -1.4435937E+004
 -1.5255139E+004
 -1.5874054E+004
 -1.6297511E+004
 -1.6556306E+004
 -1.6693487E+004
 -1.6745362E+004
 -1.6725779E+004
 -1.6618016E+004
 -1.6378087E+004
 -1.5949776E+004
 -1.5286659E+004
 -1.4374918E+004
 -1.3243645E+004
 -1.1961249E+004
 -1.0617535E+004
 -9.3059560E+003
 -8.1040514E+003
 -7.0866907E+003
 -6.1744001E+003
 -5.1797917E+003
 -2.8380876E+003
 -1.0276882E+003
  1.7915115E+002
  1.5634244E+002
 -9.4861087E+001
 -3.5588864E+002
 -6.2990598E+002
 -9.1332291E+002
 -1.2127233E+003
 -1.5125023E+003
 -1.8077207E+003
 -2.0966610E+003
 -2.3795311E+003
 -2.6570815E+003
 -2.9305362E+003
 -3.2015428E+003
 -3.4723687E+003
 -3.7461472E+003
 -4.0271565E+003
 -4.3210831E+003
 -4.6352415E+003
 -4.9787213E+003
 -5.3624096E+003
 -5.7988046E+003
 -6.3014691E+003
 -6.8839003E+003
 -7.5575612E+003
 -8.3289239E+003
 -9.1957564E+003
 -1.0143483E+004
 -1.1143201E+004
 -1.2152915E+004
 -1.3123328E+004
 -1.4006654E+004
 -1.4767221E+004
 -1.5388769E+004
 -1.5876600E+004
 -1.6252910E+004
 -1.6545529E+004
 -1.6773324E+004
 -1.6931411E+004
 -1.6981345E+004
 -1.6852452E+004
 -1.6458392E+004
 -1.5730977E+004
 -1.4652138E+004
 -1.3277888E+004
 -1.1726398E+004
 -1.0142692E+004
 -8.6591030E+003
 -7.3689200E+003
 -6.3406067E+003
 -5.5585660E+003
 -4.8325190E+003
 -2.8779094E+003
 -8.3849527E+002
  4.4346852E+001
  5.4360284E+001
 -1.6809438E+002
 -4.6317559E+002
 -7.0910917E+002
 -1.0308155E+003
 -1.3522871E+003
 -1.6659540E+003
 -1.9697236E+003
 -2.2660118E+003
 -2.5561646E+003
 -2.8419284E+003
 -3.1249439E+003
 -3.4070854E+003
 -3.6906716E+003
 -3.9787658E+003
 -4.2754331E+003
 -4.5859491E+003
 -4.9169287E+003
 -5.2763486E+003
 -5.6734171E+003
 -6.1182181E+003
 -6.6210208E+003
 -7.1911362E+003
 -7.8352318E+003
 -8.5551597E+003
 -9.3456151E+003
 -1.0192300E+004
 -1.1071505E+004
 -1.1952016E+004
 -1.2799539E+004
 -1.3583172E+004
 -1.4281856E+004
 -1.4889063E+004
 -1.5413479E+004
 -1.5874872E+004
 -1.6295348E+004
 -1.6686387E+004
 -1.7032882E+004
 -1.7277710E+004
 -1.7315110E+004
 -1.7010251E+004
 -1.6241915E+004
 -1.4979814E+004
 -1.3309251E+004
 -1.1421893E+004
 -9.5453945E+003
 -7.8629865E+003
 -6.4554578E+003
 -5.3528808E+003
 -4.5303092E+003
 -4.5344609E+003
 -3.5239753E+003
 -2.0365336E+003
 -3.8844752E+002
 -2.7944791E+002
 -4.5743975E+002
 -7.9314122E+002
 -1.1791565E+003
 -1.5208559E+003
 -1.8435930E+003
 -2.1548278E+003
 -2.4579430E+003
 -2.7560571E+003
 -3.0512894E+003
 -3.3454771E+003
 -3.6403562E+003
 -3.9379856E+003
 -4.2410589E+003
 -4.5531578E+003
 -4.8788975E+003
 -5.2239664E+003
 -5.5950430E+003
 -5.9995590E+003
 -6.4452599E+003
 -6.9395013E+003
 -7.4882319E+003
 -8.0946735E+003
 -8.7578223E+003
 -9.4710743E+003
 -1.0221451E+004
 -1.0989994E+004
 -1.1753759E+004
 -1.2489459E+004
 -1.3178125E+004
 -1.3809687E+004
 -1.4385855E+004
 -1.4920065E+004
 -1.5433912E+004
 -1.5950273E+004
 -1.6482827E+004
 -1.7019199E+004
 -1.7495067E+004
 -1.7770405E+004
 -1.7628362E+004
 -1.6869295E+004
 -1.5389217E+004
 -1.3327441E+004
 -1.1005668E+004
 -8.7821458E+003
 -6.9154753E+003
 -5.4898689E+003
 -4.3999256E+003
 -3.4536762E+003
 -3.1277364E+003
 -3.2197053E+003
 -1.9518423E+003
 -4.9481575E+001
  1.1657417E+002
 -3.9343181E+002
 -9.9459223E+002
 -1.3790903E+003
 -1.7161318E+003
 -2.0433503E+003
 -2.3582416E+003
 -2.6677225E+003
 -2.9742307E+003
 -3.2802885E+003
 -3.5872816E+003
 -3.8964544E+003
 -4.2092528E+003
 -4.5277471E+003
 -4.8548418E+003
 -5.1943506E+003
 -5.5509419E+003
 -5.9299690E+003
 -6.3371708E+003
 -6.7782151E+003
 -7.2580557E+003
 -7.7800976E+003
 -8.3452173E+003
 -8.9507760E+003
 -9.5898674E+003
 -1.0251137E+004
 -1.0919525E+004
 -1.1578170E+004
 -1.2211454E+004
 -1.2808744E+004
 -1.3367956E+004
 -1.3897702E+004
 -1.4416778E+004
 -1.4950513E+004
 -1.5524909E+004
 -1.6161013E+004
 -1.6864388E+004
 -1.7592243E+004
 -1.8184710E+004
 -1.8339801E+004
 -1.7622957E+004
 -1.5888749E+004
 -1.3300797E+004
 -1.0390172E+004
 -7.7678326E+003
 -5.7981834E+003
 -4.5074456E+003
 -3.9144581E+003
 -3.1400245E+003
 -3.5880098E+003
 -6.7813973E+003
 -5.7811482E+003
  1.0885537E+003
 -3.9411557E+002
 -9.0157752E+002
 -1.3392860E+003
 -1.5810058E+003
 -1.9345895E+003
 -2.2536173E+003
 -2.5734959E+003
 -2.8883520E+003
 -3.2047465E+003
 -3.5234707E+003
 -3.8453998E+003
 -4.1706852E+003
 -4.4998789E+003
 -4.8342405E+003
 -5.1759230E+003
 -5.5279215E+003
 -5.8939176E+003
 -6.2780379E+003
 -6.6845284E+003
 -7.1173274E+003
 -7.5795236E+003
 -8.0727089E+003
 -8.5962822E+003
 -9.1468184E+003
 -9.7176860E+003
 -1.0299143E+004
 -1.0879147E+004
 -1.1445058E+004
 -1.1986233E+004
 -1.2497303E+004
 -1.2981552E+004
 -1.3453188E+004
 -1.3936833E+004
 -1.4462645E+004
 -1.5058532E+004
 -1.5744718E+004
 -1.6545830E+004
 -1.7485108E+004
 -1.8478019E+004
 -1.9064853E+004
 -1.8678816E+004
 -1.6577545E+004
 -1.3143749E+004
 -9.4368412E+003
 -6.3787092E+003
 -4.4219097E+003
 -3.5403488E+003
 -3.4160267E+003
 -4.3211428E+003
 -4.1636348E+003
 -3.0398945E+003
 -1.6651668E+003
 -1.2274366E+003
 -1.4281179E+003
 -1.7997430E+003
 -2.1401072E+003
 -2.4692834E+003
 -2.7890745E+003
 -3.1124847E+003
 -3.4407704E+003
 -3.7753881E+003
 -4.1151914E+003
 -4.4589314E+003
 -4.8059569E+003
 -5.1567165E+003
 -5.5126919E+003
 -5.8761810E+003
 -6.2500194E+003
 -6.6372877E+003
 -7.0409953E+003
 -7.4637180E+003
 -7.9071786E+003
 -8.3717792E+003
 -8.8561295E+003
 -9.3566545E+003
 -9.8674040E+003
 -1.0380219E+004
 -1.0885420E+004
 -1.1373183E+004
 -1.1835694E+004
 -1.2270148E+004
 -1.2682430E+004
 -1.3090786E+004
 -1.3526719E+004
 -1.4029192E+004
 -1.4628269E+004
 -1.5331092E+004
 -1.6124248E+004
 -1.7092041E+004
 -1.8387102E+004
 -1.9820968E+004
 -1.9538977E+004
 -1.7129250E+004
 -1.2659586E+004
 -7.7923619E+003
 -4.5146750E+003
 -2.8960348E+003
 -2.4766504E+003
 -2.8114760E+003
 -4.4727774E+003
 -4.5007739E+003
 -2.4794654E+003
 -5.6795786E+002
 -8.4746202E+002
 -1.5190585E+003
 -1.9980359E+003
 -2.3495829E+003
 -2.6703772E+003
 -2.9979552E+003
 -3.3308186E+003
 -3.6758997E+003
 -4.0311391E+003
 -4.3930400E+003
 -4.7580669E+003
 -5.1244656E+003
 -5.4921169E+003
 -5.8621320E+003
 -6.2363600E+003
 -6.6170037E+003
 -7.0063118E+003
 -7.4063139E+003
 -7.8185572E+003
 -8.2438252E+003
 -8.6818422E+003
 -9.1309877E+003
 -9.5880688E+003
 -1.0048220E+004
 -1.0505016E+004
 -1.0950907E+004
 -1.1378127E+004
 -1.1780284E+004
 -1.2154918E+004
 -1.2507408E+004
 -1.2856693E+004
 -1.3242202E+004
 -1.3720484E+004
 -1.4342709E+004
 -1.5093139E+004
 -1.5881734E+004
 -1.6553521E+004
 -1.7664588E+004
 -1.9584703E+004
 -2.1669174E+004
 -1.8408620E+004
 -1.1341582E+004
 -5.3616805E+003
 -2.3055914E+003
 -1.7035873E+003
 -1.8750656E+003
 -2.2570739E+003
 -3.0595710E+003
 -3.9515613E+003
 -2.7257940E+003
 -5.9253906E+002
 -1.3222567E+003
 -1.9069655E+003
 -2.2356339E+003
 -2.5176928E+003
 -2.8593355E+003
 -3.1866211E+003
 -3.5353838E+003
 -3.9041485E+003
 -4.2879006E+003
 -4.6771555E+003
 -5.0664105E+003
 -5.4533524E+003
 -5.8380235E+003
 -6.2216629E+003
 -6.6060038E+003
 -6.9928389E+003
 -7.3837730E+003
 -7.7800619E+003
 -8.1824823E+003
 -8.5912057E+003
 -9.0056736E+003
 -9.4244823E+003
 -9.8452970E+003
 -1.0264809E+004
 -1.0678756E+004
 -1.1082041E+004
 -1.1469072E+004
 -1.1834535E+004
 -1.2175177E+004
 -1.2493222E+004
 -1.2802814E+004
 -1.3142873E+004
 -1.3602304E+004
 -1.4286137E+004
 -1.5259077E+004
 -1.6280198E+004
 -1.7062161E+004
 -1.6425172E+004
 -1.8955516E+004
 -1.7105375E+004
 -1.4272366E+004
 -8.4687607E+003
 -1.4746666E+003
 -1.3972731E+003
 -1.5188687E+003
 -2.4353788E+003
 -3.0183770E+003
 -4.4730143E+003
 -8.5087652E+003
 -7.3946992E+003
  4.5834612E+002
 -1.9877797E+003
 -2.1615094E+003
 -2.2523922E+003
 -2.7012532E+003
 -3.0120632E+003
 -3.3450360E+003
 -3.7148429E+003
 -4.1240354E+003
 -4.5465667E+003
 -4.9686584E+003
 -5.3838985E+003
 -5.7913657E+003
 -6.1923269E+003
 -6.5887668E+003
 -6.9825902E+003
 -7.3753227E+003
 -7.7680213E+003
 -8.1612766E+003
 -8.5552456E+003
 -8.9496915E+003
 -9.3440318E+003
 -9.7373994E+003
 -1.0128714E+004
 -1.0516736E+004
 -1.0900045E+004
 -1.1276891E+004
 -1.1644923E+004
 -1.2001055E+004
 -1.2341827E+004
 -1.2665944E+004
 -1.2979458E+004
 -1.3304705E+004
 -1.3721994E+004
 -1.4481494E+004
 -1.5790913E+004
 -1.7388192E+004
 -1.9269373E+004
 -1.9019274E+004
 -2.3356337E+004
 -1.0206142E+004
 -7.4721263E+003
 -1.3712657E+004
 -4.1325818E+003
 -2.8814353E+003
 -2.9522469E+003
 -3.2587695E+003
 -5.8038570E+003
 -6.9905016E+003
 -6.0766633E+003
 -1.4792738E+003
 -1.6649107E+003
 -2.4506899E+003
 -2.8841823E+003
 -3.1160711E+003
 -3.4351416E+003
 -3.8694743E+003
 -4.3422757E+003
 -4.8148145E+003
 -5.2717421E+003
 -5.7116602E+003
 -6.1373865E+003
 -6.5526289E+003
 -6.9604951E+003
 -7.3631330E+003
 -7.7617574E+003
 -8.1568252E+003
 -8.5482432E+003
 -8.9355729E+003
 -9.3182338E+003
 -9.6957197E+003
 -1.0067845E+004
 -1.0435015E+004
 -1.0798474E+004
 -1.1160395E+004
 -1.1523636E+004
 -1.1891011E+004
 -1.2264047E+004
 -1.2642463E+004
 -1.3023230E+004
 -1.3408830E+004
 -1.3808255E+004
 -1.4238914E+004
 -1.4821773E+004
 -1.6723611E+004
 -1.9925453E+004
 -2.2128012E+004
 -2.3617068E+004
 -2.4098494E+004
 -5.7584430E+003
 -6.3486819E+003
 -5.9132206E+003
 -4.7600403E+003
 -4.7235988E+003
 -5.3511787E+003
 -6.3917303E+003
 -3.6936236E+003
 -1.1160547E+003
 -2.1363407E+003
 -3.1654609E+003
 -2.9782673E+003
 -3.0065370E+003
 -3.4572009E+003
 -4.0219113E+003
 -4.5838817E+003
 -5.1063970E+003
 -5.5922847E+003
 -6.0502869E+003
 -6.4891875E+003
 -6.9153920E+003
 -7.3329202E+003
 -7.7438281E+003
 -8.1487198E+003
 -8.5472297E+003
 -8.9384327E+003
 -9.3212001E+003
 -9.6945361E+003
 -1.0057938E+004
 -1.0411820E+004
 -1.0758022E+004
 -1.1100359E+004
 -1.1445072E+004
 -1.1800856E+004
 -1.2177882E+004
 -1.2585909E+004
 -1.3030867E+004
 -1.3517796E+004
 -1.4039777E+004
 -1.4637576E+004
 -1.5325940E+004
 -1.6037168E+004
 -1.6260016E+004
 -2.0580938E+004
 -2.5486821E+004
 -2.4093408E+004
 -5.0142167E+001
 -3.9001053E+003
 -6.5051405E+003
 -6.9002410E+003
 -6.6797561E+003
 -7.4601631E+003
 -1.1681651E+004
 -9.9496722E+003
  1.3102513E+003
 -4.3016200E+003
 -3.3273051E+003
 -2.2165271E+003
 -2.6942581E+003
 -3.4987716E+003
 -4.2507987E+003
 -4.8848070E+003
 -5.4359223E+003
 -5.9328460E+003
 -6.3969710E+003
 -6.8417862E+003
 -7.2750628E+003
 -7.7006887E+003
 -8.1198403E+003
 -8.5319756E+003
 -8.9355498E+003
 -9.3285694E+003
 -9.7090389E+003
 -1.0075372E+004
 -1.0426842E+004
 -1.0764139E+004
 -1.1090096E+004
 -1.1410624E+004
 -1.1735767E+004
 -1.2080472E+004
 -1.2464377E+004
 -1.2908340E+004
 -1.3431135E+004
 -1.4036865E+004
 -1.4758047E+004
 -1.5519493E+004
 -1.6719925E+004
 -1.8314715E+004
 -2.1907840E+004
 -2.9474723E+004
 -2.8531231E+004
  6.1703763E+002
 -3.7451749E+003
 -6.8199058E+003
 -7.4304821E+003
 -9.7496819E+003
 -9.7777290E+003
 -7.8388661E+003
 -1.6002045E+003
 -8.9408425E+002
 -7.9411743E+002
 -2.6809253E+003
 -3.8078060E+003
 -4.6429816E+003
 -5.2691935E+003
 -5.8041322E+003
 -6.2859362E+003
 -6.7424989E+003
 -7.1861067E+003
 -7.6235929E+003
 -8.0569073E+003
 -8.4853509E+003
 -8.9065874E+003
 -9.3175043E+003
 -9.7147926E+003
 -1.0095400E+004
 -1.0456937E+004
 -1.0798133E+004
 -1.1119438E+004
 -1.1423878E+004
 -1.1718287E+004
 -1.2015013E+004
 -1.2334141E+004
 -1.2704694E+004
 -1.3163883E+004
 -1.3742201E+004
 -1.4464647E+004
 -1.5280871E+004
 -1.6407279E+004
 -1.6999174E+004
 -1.9464186E+004
 -1.8185387E+004
 -1.5447928E+004
  2.6237203E+003
  5.6096108E+002
 -1.0077483E+003
 -4.7250014E+003
 -6.8472836E+003
 -7.5790136E+003
 -8.1630778E+003
 -7.8906763E+003
 -3.9268293E+003
  3.9318717E+003
  6.1449857E+002
 -1.5354336E+003
 -3.6270500E+003
 -4.5279061E+003
 -5.1869243E+003
 -5.7126409E+003
 -6.1827642E+003
 -6.6308787E+003
 -7.0698260E+003
 -7.5091123E+003
 -7.9507809E+003
 -8.3935824E+003
 -8.8339529E+003
 -9.2672440E+003
 -9.6884771E+003
 -1.0092871E+004
 -1.0476199E+004
 -1.0835100E+004
 -1.1167456E+004
 -1.1472925E+004
 -1.1753742E+004
 -1.2015990E+004
 -1.2271651E+004
 -1.2542007E+004
 -1.2862344E+004
 -1.3286487E+004
 -1.3873065E+004
 -1.4660578E+004
 -1.5550434E+004
 -1.6549885E+004
 -1.7749415E+004
 -1.8830749E+004
 -2.0815144E+004
 -7.6410578E+003
 -6.0140294E+002
 -2.3527504E+003
 -5.2288852E+003
 -7.4556001E+003
 -7.9639459E+003
 -8.3897850E+003
 -1.1867798E+004
 -9.5127620E+003
 -3.6814167E+003
 -3.9087725E+003
 -5.1821464E+003
 -5.2848104E+003
 -5.7512417E+003
 -6.1133199E+003
 -6.5282547E+003
 -6.9339530E+003
 -7.3577964E+003
 -7.7955541E+003
 -8.2457535E+003
 -8.7026334E+003
 -9.1594004E+003
 -9.6087807E+003
 -1.0043864E+004
 -1.0458422E+004
 -1.0847081E+004
 -1.1205466E+004
 -1.1530433E+004
 -1.1820448E+004
 -1.2076177E+004
 -1.2301386E+004
 -1.2504678E+004
 -1.2702535E+004
 -1.2927195E+004
 -1.3237393E+004
 -1.3744207E+004
 -1.4511397E+004
 -1.5600688E+004
 -1.6069297E+004
 -1.7015088E+004
 -1.4385340E+004
 -1.0497634E+004
 -1.9639370E+003
 -3.8954247E+003
 -6.3039982E+003
 -7.8851613E+003
 -9.6655360E+003
 -8.3472229E+003
 -5.8582870E+003
 -6.0869070E+003
 -5.0894677E+003
 -5.6004284E+003
 -5.8016401E+003
 -6.0274011E+003
 -6.4327125E+003
 -6.7769156E+003
 -7.1672716E+003
 -7.5853613E+003
 -8.0318793E+003
 -8.4989887E+003
 -8.9773771E+003
 -9.4565819E+003
 -9.9268058E+003
 -1.0379437E+004
 -1.0807086E+004
 -1.1203445E+004
 -1.1563232E+004
 -1.1882272E+004
 -1.2157745E+004
 -1.2388502E+004
 -1.2575463E+004
 -1.2722111E+004
 -1.2835800E+004
 -1.2932552E+004
 -1.3049653E+004
 -1.3306840E+004
 -1.3939016E+004
 -1.5139853E+004
 -1.6153832E+004
 -1.6100691E+004
 -1.6979694E+004
 -7.2925255E+003
 -2.5041798E+002
 -6.2854245E+002
 -2.3383720E+003
 -5.1891917E+003
 -6.9267007E+003
 -8.0852659E+003
 -9.0910544E+003
 -6.9092429E+003
 -2.6058002E+003
  3.0587613E+003
 -4.7660803E+003
 -5.1600629E+003
 -5.4581804E+003
 -6.3083166E+003
 -6.5557028E+003
 -6.9201781E+003
 -7.3090770E+003
 -7.7403649E+003
 -8.2086778E+003
 -8.7047373E+003
 -9.2140697E+003
 -9.7225420E+003
 -1.0218271E+004
 -1.0691617E+004
 -1.1134606E+004
 -1.1540379E+004
 -1.1902943E+004
 -1.2217195E+004
 -1.2479162E+004
 -1.2686267E+004
 -1.2837376E+004
 -1.2932378E+004
 -1.2970754E+004
 -1.2948554E+004
 -1.2865066E+004
 -1.2714546E+004
 -1.2840909E+004
 -1.3817823E+004
 -1.6802399E+004
 -1.3908044E+004
 -8.2062790E+003
 -1.0041627E+003
 -3.8144606E+003
 -6.3911305E+003
 -7.3779173E+003
 -7.5690925E+003
 -7.0070388E+003
 -4.9129061E+003
 -2.5177042E+003
 -2.6341946E+003
 -4.4171122E+003
 -6.1694834E+003
 -6.2917426E+003
 -6.5500711E+003
 -6.9606559E+003
 -7.3593386E+003
 -7.8172938E+003
 -8.3231417E+003
 -8.8629544E+003
 -9.4133758E+003
 -9.9572613E+003
 -1.0481781E+004
 -1.0977527E+004
 -1.1436773E+004
 -1.1852560E+004
 -1.2218332E+004
 -1.2528059E+004
 -1.2776702E+004
 -1.2960714E+004
 -1.3078628E+004
 -1.3129995E+004
 -1.3116220E+004
 -1.3026079E+004
 -1.2848127E+004
 -1.2467238E+004
 -1.1806901E+004
 -1.1287164E+004
 -1.3413485E+004
 -1.3624121E+004
 -4.8868310E+003
 -3.2074747E+003
 -5.2410355E+003
 -7.2748536E+003
 -7.5827660E+003
 -7.3464753E+003
 -6.3630163E+003
 -6.8720904E+003
 -4.4661157E+003
  1.8864568E+003
 -6.2280627E+003
 -6.6262576E+003
 -5.7613438E+003
 -6.6160012E+003
 -6.8971166E+003
 -7.3263218E+003
 -7.8115945E+003
 -8.3822609E+003
 -8.9810944E+003
 -9.5815136E+003
 -1.0163814E+004
 -1.0717384E+004
 -1.1234664E+004
 -1.1709160E+004
 -1.2134137E+004
 -1.2502387E+004
 -1.2806621E+004
 -1.3040269E+004
 -1.3198825E+004
 -1.3280418E+004
 -1.3289475E+004
 -1.3227834E+004
 -1.3129437E+004
 -1.2934369E+004
 -1.2873561E+004
 -1.2077469E+004
 -1.2519102E+004
 -1.8010471E+004
 -1.7120081E+004
 -6.3188978E+003
 -5.9676105E+003
 -7.0821779E+003
 -7.5100153E+003
 -7.6075506E+003
 -5.9158969E+003
 -3.9157207E+003
 -5.1176796E+003
 -5.0989638E+003
 -6.1649032E+003
 -6.5989133E+003
 -6.7813983E+003
 -7.1551891E+003
 -7.7418898E+003
 -8.4035057E+003
 -9.0776455E+003
 -9.7297538E+003
 -1.0347527E+004
 -1.0925518E+004
 -1.1460093E+004
 -1.1946615E+004
 -1.2378571E+004
 -1.2747644E+004
 -1.3044416E+004
 -1.3259719E+004
 -1.3386164E+004
 -1.3421485E+004
 -1.3367001E+004
 -1.3245325E+004
 -1.3049618E+004
 -1.2961541E+004
 -1.2665736E+004
 -1.3649432E+004
 -1.1369476E+004
 -8.3502520E+003
 -4.0129129E+003
 -2.3047854E+003
 -4.6068038E+003
 -6.7667731E+003
 -7.4295650E+003
 -7.2860282E+003
 -6.3809761E+003
 -4.0067098E+003
 -1.1704178E+003
 -3.1064447E+003
 -5.1612832E+003
 -7.2515305E+003
 -6.4398418E+003
 -6.3119580E+003
 -6.8826076E+003
 -7.6421498E+003
 -8.4318581E+003
 -9.1788956E+003
 -9.8723110E+003
 -1.0513183E+004
 -1.1105095E+004
 -1.1649158E+004
 -1.2142526E+004
 -1.2578378E+004
 -1.2946445E+004
 -1.3233973E+004
 -1.3427227E+004
 -1.3513712E+004
 -1.3485201E+004
 -1.3340747E+004
 -1.3089371E+004
 -1.2745679E+004
 -1.2333010E+004
 -1.1862427E+004
 -1.1688725E+004
 -8.0989438E+003
 -2.2884318E+003
 -2.4204082E+003
 -6.6155743E+003
 -8.8987579E+003
 -8.1287495E+003
 -7.0862400E+003
 -5.3316013E+003
 -4.1261846E+003
 -2.2132945E+003
  3.1458340E+003
 -8.7031639E+003
 -7.4987816E+003
 -4.8276804E+003
 -5.6570126E+003
 -6.5987193E+003
 -7.6325100E+003
 -8.5229147E+003
 -9.3132009E+003
 -1.0019016E+004
 -1.0660806E+004
 -1.1250933E+004
 -1.1794098E+004
 -1.2288063E+004
 -1.2724714E+004
 -1.3090893E+004
 -1.3369245E+004
 -1.3539515E+004
 -1.3580758E+004
 -1.3474775E+004
 -1.3209982E+004
 -1.2783918E+004
 -1.2191174E+004
 -1.1398904E+004
 -1.0132078E+004
 -8.4243957E+003
 -5.1760154E+003
 -2.4540017E+003
 -5.6250188E+003
 -8.1175159E+003
 -9.6513391E+003
 -8.1051575E+003
 -6.7785151E+003
 -3.9857741E+003
 -2.0332262E+003
 -5.0482484E+003
 -3.3719833E+003
 -3.0183338E+003
 -5.2617854E+003
 -6.6658026E+003
 -7.8264170E+003
 -8.7195154E+003
 -9.4918159E+003
 -1.0165775E+004
 -1.0781022E+004
 -1.1351733E+004
 -1.1883219E+004
 -1.2371729E+004
 -1.2806933E+004
 -1.3172181E+004
 -1.3444866E+004
 -1.3596925E+004
 -1.3596057E+004
 -1.3410263E+004
 -1.3010418E+004
 -1.2389190E+004
 -1.1517392E+004
 -1.0484474E+004
 -8.8562251E+003
 -6.9677490E+003
 -6.9247061E+003
 -4.2322098E+003
 -1.1435493E+004
 -8.4446650E+003
 -8.1017661E+003
 -7.6481745E+003
 -5.7421494E+003
 -2.3212730E+003
  6.0993057E+001
  1.0956340E+003
 -8.9665885E+002
 -3.4861396E+003
 -6.0022010E+003
 -7.2747406E+003
 -8.2009643E+003
 -9.0183419E+003
 -9.6848924E+003
 -1.0288831E+004
 -1.0852944E+004
 -1.1390434E+004
 -1.1901376E+004
 -1.2379745E+004
 -1.2812353E+004
 -1.3179429E+004
 -1.3453776E+004
 -1.3599614E+004
 -1.3572788E+004
 -1.3321291E+004
 -1.2800639E+004
 -1.1965231E+004
 -1.0874293E+004
 -9.4081980E+003
 -8.4661033E+003
 -6.1377541E+003
 -3.9188743E+003
 -9.0557055E+003
 -3.6315122E+003
 -8.2090935E+003
 -8.7695694E+003
 -7.5166512E+003
 -6.4064026E+003
 -4.0170146E+003
 -7.0972586E+002
  1.0632871E+003
 -1.3705575E+003
 -4.7414218E+003
 -6.7859039E+003
 -7.5451367E+003
 -7.7466378E+003
 -8.7303659E+003
 -9.2914982E+003
 -9.8340512E+003
 -1.0344254E+004
 -1.0850730E+004
 -1.1346928E+004
 -1.1832596E+004
 -1.2297522E+004
 -1.2726696E+004
 -1.3098549E+004
 -1.3383641E+004
 -1.3541545E+004
 -1.3517201E+004
 -1.3240247E+004
 -1.2630571E+004
 -1.1625887E+004
 -1.0229017E+004
 -8.4840840E+003
 -6.6957449E+003
 -4.1208260E+003
 -1.3099787E+003
 -9.1122245E+003
 -1.1524925E+004
 -1.0989727E+004
 -6.9809942E+003
 -4.8217483E+003
 -2.0452434E+003
 -6.4899517E+002
 -1.1284404E+004
 -6.4515005E+003
 -6.5787712E+003
 -8.4942911E+003
 -9.0346724E+003
 -9.4293558E+003
 -9.8498786E+003
 -1.0302069E+004
 -1.0748505E+004
 -1.1205539E+004
 -1.1663656E+004
 -1.2112590E+004
 -1.2535727E+004
 -1.2912071E+004
 -1.3213971E+004
 -1.3402093E+004
 -1.3418037E+004
 -1.3174139E+004
 -1.2558737E+004
 -1.1434594E+004
 -9.7846396E+003
 -7.6992741E+003
 -5.6544598E+003
 -4.7036501E+003
 -2.6782984E+003
 -1.6493011E+004
 -1.0865516E+004
 -8.3399060E+003
 -6.1228196E+003
 -2.8935632E+003
 -2.4518806E+002
  8.4279925E+002
 -1.5901428E+003
 -3.4884138E+003
 -6.1180478E+003
 -9.1507543E+003
 -8.8612919E+003
 -9.2980147E+003
 -9.7538965E+003
 -1.0134302E+004
 -1.0540153E+004
 -1.0958351E+004
 -1.1389108E+004
 -1.1818425E+004
 -1.2228715E+004
 -1.2601387E+004
 -1.2915530E+004
 -1.3141494E+004
 -1.3228655E+004
 -1.3091703E+004
 -1.2574937E+004
 -1.1509676E+004
 -9.5709179E+003
 -7.1809952E+003
 -4.1922977E+003
 -2.4895479E+003
 -9.4193934E+003
 -1.2369470E+004
 -1.2898004E+004
 -9.7984673E+003
 -5.8789351E+003
 -4.1574607E+003
 -1.9494807E+003
  9.0150354E+002
  1.5845020E+003
 -1.5817791E+003
 -9.7002312E+002
 -8.2141027E+003
 -9.0043223E+003
 -7.9984304E+003
 -9.3371430E+003
 -9.4789243E+003
 -9.8831649E+003
 -1.0226802E+004
 -1.0610898E+004
 -1.1014484E+004
 -1.1419778E+004
 -1.1803768E+004
 -1.2152362E+004
 -1.2455782E+004
 -1.2702090E+004
 -1.2864508E+004
 -1.2878973E+004
 -1.2610515E+004
 -1.1747277E+004
 -9.9988232E+003
 -6.6665942E+003
 -3.7430756E+003
 -8.8649486E+002
 -2.1915315E+004
 -1.3514488E+004
 -7.7274121E+003
 -3.9987631E+003
 -1.6000398E+003
  4.8820655E+002
  3.8415365E+003
  4.1961539E+003
 -5.3996892E+003
 -6.5410647E+003
 -9.0715810E+003
 -8.8835518E+003
 -9.2642964E+003
 -9.5503657E+003
 -9.8244338E+003
 -1.0176873E+004
 -1.0562784E+004
 -1.0937966E+004
 -1.1274650E+004
 -1.1564081E+004
 -1.1811136E+004
 -1.2024763E+004
 -1.2214768E+004
 -1.2353080E+004
 -1.2407053E+004
 -1.1986612E+004
 -1.0817188E+004
 -6.3377235E+003
 -3.1411722E+003
 -2.1845897E+004
 -1.8306761E+004
 -1.2941105E+004
 -6.9849133E+003
 -4.4350785E+003
 -1.5957389E+003
  1.3727373E+003
  2.9119330E+003
  2.8267326E+003
  3.4143976E+003
 -8.5427903E+003
 -9.4132073E+003
 -8.4156370E+003
 -9.2559775E+003
 -9.0832448E+003
 -9.3394718E+003
 -9.6907047E+003
 -1.0079722E+004
 -1.0416724E+004
 -1.0675744E+004
 -1.0858323E+004
 -1.0983443E+004
 -1.1080893E+004
 -1.1184237E+004
 -1.1334462E+004
 -1.1538715E+004
 -1.1757650E+004
 -1.1648876E+004
 -7.4003843E+003
 -5.8698967E+002
 -1.7458111E+004
 -1.5871944E+004
 -1.4207124E+004
 -1.0650897E+004
 -6.0974182E+003
 -2.2934323E+003
  3.8653727E+002
  2.8062337E+003
  3.5278935E+003
  1.6938845E+003
 -5.8301375E+003
 -7.2456142E+003
 -9.7782431E+003
 -8.7150272E+003
 -8.4793344E+003
 -8.7816969E+003
 -9.2306473E+003
 -9.6426845E+003
 -9.9205402E+003
 -1.0062285E+004
 -1.0083322E+004
 -1.0016281E+004
 -9.8982595E+003
 -9.7865713E+003
 -9.7020294E+003
 -9.8522519E+003
 -9.9058021E+003
 -1.1579164E+004
 -1.0853422E+004
 -9.3459763E+003
 -1.5734462E+004
 -1.4417026E+004
 -1.2962634E+004
 -1.0545265E+004
 -7.5397545E+003
 -4.0806484E+003
 -9.1899140E+002
  1.5952123E+003
  3.8742038E+003
  4.7021364E+003
  3.1509054E+003
  4.4046133E+003
 -1.0482949E+004
 -1.1014433E+004
 -7.1783137E+003
 -7.8022162E+003
 -8.2598380E+003
 -8.9588962E+003
 -9.3429973E+003
 -9.5248982E+003
 -9.4996127E+003
 -9.3095993E+003
 -8.9915077E+003
 -8.5891891E+003
 -8.1407446E+003
 -7.6985986E+003
 -7.2657891E+003
 -7.0468811E+003
 -6.8998513E+003
 -7.7850959E+003
 -1.8926741E+004
 -1.3852787E+004
 -1.3117190E+004
 -1.1101201E+004
 -1.0171617E+004
 -8.1150451E+003
 -5.3343050E+003
 -2.3038692E+003
  4.6256635E+002
  3.3543819E+003
  5.5951182E+003
  5.7618451E+003
 -1.1043056E+004
 -7.2514292E+003
 -5.8031300E+003
 -6.9775441E+003
 -8.3310999E+003
 -8.9665637E+003
 -9.2757933E+003
 -9.2816815E+003
 -9.0483752E+003
 -8.6116561E+003
 -8.0159432E+003
 -7.3049757E+003
 -6.5167208E+003
 -5.6569237E+003
 -4.7521203E+003
 -3.6652183E+003
 -2.7196201E+003
 -1.1030666E+003
 -7.7526435E+003
 -1.1247112E+004
 -9.4849404E+003
 -9.2418879E+003
 -4.6459396E+002
 -1.0711208E+004
 -7.2986036E+003
 -1.1885083E+004
 -9.6244797E+003
 -8.5669329E+003
 -6.3208051E+003
 -3.4985770E+003
 -3.8687742E+002
  2.4170674E+003
  5.0086281E+003
  6.1624729E+003
 -1.2078209E+004
 -2.0301852E+003
 -4.8339600E+003
 -8.0183614E+003
 -8.9143381E+003
 -9.3577900E+003
 -9.4221215E+003
 -9.2097178E+003
 -8.7420840E+003
 -8.0484744E+003
 -7.1808506E+003
 -6.1979431E+003
 -5.1481971E+003
 -4.0507608E+003
 -2.9058986E+003
 -1.7812322E+003
 -9.7423059E+002
 -2.5038312E+003
 -6.9136646E+003
 -1.2473113E+004
 -1.4140794E+004
 -1.4578852E+004
 -1.2571493E+004
 -9.9424725E+003
 -7.5971116E+003
 -5.3635000E+003
 -1.6062948E+003
  1.3875916E+003
  3.4992970E+003
  4.8946103E+003
 -5.5360376E+003
 -7.6158483E+003
 -1.0048641E+004
 -9.7452324E+003
 -9.9226826E+003
 -9.6790940E+003
 -9.2875323E+003
 -8.5835814E+003
 -7.6441454E+003
 -6.5352100E+003
 -5.3478570E+003
 -4.1723403E+003
 -3.0795068E+003
 -2.0700494E+003
 -1.3215928E+003
 -1.3673626E+003
 -2.9456743E+003
 -6.6641997E+003
 -1.0625347E+004
 -1.3142625E+004
 -1.3259920E+004
 -1.2042538E+004
 -9.8680141E+003
 -6.2222268E+003
 -2.8727834E+003
  5.6048844E+002
  1.4162891E+003
  2.3701612E+003
 -1.2040314E+004
 -9.5822153E+003
 -1.0558431E+004
 -1.0545651E+004
 -1.0136283E+004
 -1.0078776E+004
 -9.4563747E+003
 -8.5268941E+003
 -7.3728982E+003
 -6.0671257E+003
 -4.7324309E+003
 -3.5598799E+003
 -2.6540070E+003
 -2.1093087E+003
 -1.8235806E+003
 -2.2240769E+003
 -3.6059864E+003
 -5.7847972E+003
 -9.4720324E+003
 -1.3138207E+004
 -1.1914257E+004
 -1.0315917E+004
 -7.2193298E+003
 -5.0589008E+003
 -1.2076623E+003
  1.8429217E+003
  6.4265788E+003
 -1.0504348E+004
 -1.1323587E+004
 -9.1611753E+003
 -1.0888938E+004
 -1.0474452E+004
 -9.6600403E+003
 -8.4863093E+003
 -7.1592534E+003
 -5.7471843E+003
 -4.2973348E+003
 -3.1239459E+003
 -2.7167916E+003
 -2.6273365E+003
 -2.7922579E+003
 -3.2031546E+003
 -4.7501590E+003
 -6.1401777E+003
 -8.9933574E+003
 -1.0974000E+004
 -8.2827379E+003
 -9.6224188E+003
 -4.8004624E+003
 -1.1647576E+003
 -8.6440696E+003
 -7.1353223E+003
 -1.0993695E+004
 -1.1664137E+004
 -1.1332866E+004
 -9.7287086E+003
 -8.0232176E+003
 -6.8018102E+003
 -5.4948393E+003
 -3.9692000E+003
 -2.6452879E+003
 -2.3635186E+003
 -3.8644661E+003
 -4.6357175E+003
 -4.0992663E+003
 -7.0039472E+003
 -7.6380023E+003
 -1.2969982E+004
 -7.7698956E+003
 -3.2066678E+003
 -5.8007104E+003
 -4.1155868E+003
 -9.1964651E+003
 -1.0622305E+004
 -1.4815623E+004
 -1.1955727E+004
 -8.3760878E+003
 -7.3342948E+003
 -6.2002394E+003
 -5.0860413E+003
 -4.2570775E+003
 -2.6224916E+003
 -3.1009065E+003
 -3.8877622E+003
 -4.6038160E+003
 -4.1548462E+003
 -9.8695348E+003
 -6.8783772E+003
 -9.2186521E+003
  9.4548651E+002
 -8.2211640E+003
 -2.0747985E+004
 -1.9686194E+004
 -1.0135448E+004
 -6.2309334E+003
 -5.2459779E+003
 -3.8305301E+003
 -3.0110123E+003
 -3.4058320E+003
 -3.0125916E+003
 -6.5356946E+003
 -2.9143308E+003
 -2.3878581E+003
 -2.9006369E+003
 -6.1530121E+003
  4.5204922E+003
 -1.5535122E+004
 -1.0549867E+004
 -2.3590889E+003
 -7.7797448E+003
 -3.1172653E+003
 -1.0709261E+003
 -9.7492912E+002
 -1.9380661E+003
 -1.9328653E+003
 -5.7674059E+003
  2.4524980E+004
  2.0129932E+003
  1.4907559E+003
 -5.9098453E+003
SCALARS Stress_yz double
LOOKUP_TABLE default
  0.0000000E+000
  0.0000000E+000
  0.0000000E+000
  0.0000000E+000
  0.0000000E+000
  0.0000000E+000
  0.0000000E+000
  0.0000000E+000
  0.0000000E+000
  0.0000000E+000
  0.0000000E+000
  0.0000000E+000
  0.0000000E+000
  0.0000000E+000
  0.0000000E+000
  0.0000000E+000
  0.0000000E+000
  0.0000000E+000
  0.0000000E+000
  0.0000000E+000
  0.0000000E+000
  0.0000000E+000
  0.0000000E+000
  0.0000000E+000
  0.0000000E+000
  0.0000000E+000
  0.0000000E+000
  0.0000000E+000
  0.0000000E+000
  0.0000000E+000
  0.0000000E+000
  0.0000000E+000
  0.0000000E+000
  0.0000000E+000
  0.0000000E+000
  0.0000000E+000
  0.0000000E+000
  0.0000000E+000
  0.0000000E+000
  0.0000000E+000
  0.0000000E+000
  0.0000000E+000
  0.0000000E+000
  0.0000000E+000
  0.0000000E+000
  0.0000000E+000
  0.0000000E+000
  0.0000000E+000
  0.0000000E+000
  0.0000000E+000
  0.0000000E+000
  0.0000000E+000
  0.0000000E+000
  0.0000000E+000
  0.0000000E+000
  0.0000000E+000
  0.0000000E+000
  0.0000000E+000
  0.0000000E+000
  0.0000000E+000
  0.0000000E+000
  0.0000000E+000
  0.0000000E+000
  0.0000000E+000
  0.0000000E+000
  0.0000000E+000
  0.0000000E+000
  0.0000000E+000
  0.0000000E+000
  0.0000000E+000
  0.0000000E+000
  0.0000000E+000
  0.0000000E+000
  0.0000000E+000
  0.0000000E+000
  0.0000000E+000
  0.0000000E+000
  0.0000000E+000
  0.0000000E+000
  0.0000000E+000
  0.0000000E+000
  0.0000000E+000
  0.0000000E+000
  0.0000000E+000
  0.0000000E+000
  0.0000000E+000
  0.0000000E+000
  0.0000000E+000
  0.0000000E+000
  0.0000000E+000
  0.0000000E+000
  0.0000000E+000
  0.0000000E+000
  0.0000000E+000
  0.0000000E+000
  0.0000000E+000
  0.0000000E+000
  0.0000000E+000
  0.0000000E+000
  0.0000000E+000
  0.0000000E+000
  0.0000000E+000
  0.0000000E+000
  0.0000000E+000
  0.0000000E+000
  0.0000000E+000
  0.0000000E+000
  0.0000000E+000
  0.0000000E+000
  0.0000000E+000
  0.0000000E+000
  0.0000000E+000
  0.0000000E+000
  0.0000000E+000
  0.0000000E+000
  0.0000000E+000
  0.0000000E+000
  0.0000000E+000
  0.0000000E+000
  0.0000000E+000
  0.0000000E+000
  0.0000000E+000
  0.0000000E+000
  0.0000000E+000
  0.0000000E+000
  0.0000000E+000
  0.0000000E+000
  0.0000000E+000
  0.0000000E+000
  0.0000000E+000
  0.0000000E+000
  0.0000000E+000
  0.0000000E+000
  0.0000000E+000
  0.0000000E+000
  0.0000000E+000
  0.0000000E+000
  0.0000000E+000
  0.0000000E+000
  0.0000000E+000
  0.0000000E+000
  0.0000000E+000
  0.0000000E+000
  0.0000000E+000
  0.0000000E+000
  0.0000000E+000
  0.0000000E+000
  0.0000000E+000
  0.0000000E+000
  0.0000000E+000
  0.0000000E+000
  0.0000000E+000
  0.0000000E+000
  0.0000000E+000
  0.0000000E+000
  0.0000000E+000
  0.0000000E+000
  0.0000000E+000
  0.0000000E+000
  0.0000000E+000
  0.0000000E+000
  0.0000000E+000
  0.0000000E+000
  0.0000000E+000
  0.0000000E+000
  0.0000000E+000
  0.0000000E+000
  0.0000000E+000
  0.0000000E+000
  0.0000000E+000
  0.0000000E+000
  0.0000000E+000
  0.0000000E+000
  0.0000000E+000
  0.0000000E+000
  0.0000000E+000
  0.0000000E+000
  0.0000000E+000
  0.0000000E+000
  0.0000000E+000
  0.0000000E+000
  0.0000000E+000
  0.0000000E+000
  0.0000000E+000
  0.0000000E+000
  0.0000000E+000
  0.0000000E+000
  0.0000000E+000
  0.0000000E+000
  0.0000000E+000
  0.0000000E+000
  0.0000000E+000
  0.0000000E+000
  0.0000000E+000
  0.0000000E+000
  0.0000000E+000
  0.0000000E+000
  0.0000000E+000
  0.0000000E+000
  0.0000000E+000
  0.0000000E+000
  0.0000000E+000
  0.0000000E+000
  0.0000000E+000
  0.0000000E+000
  0.0000000E+000
  0.0000000E+000
  0.0000000E+000
  0.0000000E+000
  0.0000000E+000
  0.0000000E+000
  0.0000000E+000
  0.0000000E+000
  0.0000000E+000
  0.0000000E+000
  0.0000000E+000
  0.0000000E+000
  0.0000000E+000
  0.0000000E+000
  0.0000000E+000
  0.0000000E+000
  0.0000000E+000
  0.0000000E+000
  0.0000000E+000
  0.0000000E+000
  0.0000000E+000
  0.0000000E+000
  0.0000000E+000
  0.0000000E+000
  0.0000000E+000
  0.0000000E+000
  0.0000000E+000
  0.0000000E+000
  0.0000000E+000
  0.0000000E+000
  0.0000000E+000
  0.0000000E+000
  0.0000000E+000
  0.0000000E+000
  0.0000000E+000
  0.0000000E+000
  0.0000000E+000
  0.0000000E+000
  0.0000000E+000
  0.0000000E+000
  0.0000000E+000
  0.0000000E+000
  0.0000000E+000
  0.0000000E+000
  0.0000000E+000
  0.0000000E+000
  0.0000000E+000
  0.0000000E+000
  0.0000000E+000
  0.0000000E+000
  0.0000000E+000
  0.0000000E+000
  0.0000000E+000
  0.0000000E+000
  0.0000000E+000
  0.0000000E+000
  0.0000000E+000
  0.0000000E+000
  0.0000000E+000
  0.0000000E+000
  0.0000000E+000
  0.0000000E+000
  0.0000000E+000
  0.0000000E+000
  0.0000000E+000
  0.0000000E+000
  0.0000000E+000
  0.0000000E+000
  0.0000000E+000
  0.0000000E+000
  0.0000000E+000
  0.0000000E+000
  0.0000000E+000
  0.0000000E+000
  0.0000000E+000
  0.0000000E+000
  0.0000000E+000
  0.0000000E+000
  0.0000000E+000
  0.0000000E+000
  0.0000000E+000
  0.0000000E+000
  0.0000000E+000
  0.0000000E+000
  0.0000000E+000
  0.0000000E+000
  0.0000000E+000
  0.0000000E+000
  0.0000000E+000
  0.0000000E+000
  0.0000000E+000
  0.0000000E+000
  0.0000000E+000
  0.0000000E+000
  0.0000000E+000
  0.0000000E+000
  0.0000000E+000
  0.0000000E+000
  0.0000000E+000
  0.0000000E+000
  0.0000000E+000
  0.0000000E+000
  0.0000000E+000
  0.0000000E+000
  0.0000000E+000
  0.0000000E+000
  0.0000000E+000
  0.0000000E+000
  0.0000000E+000
  0.0000000E+000
  0.0000000E+000
  0.0000000E+000
  0.0000000E+000
  0.0000000E+000
  0.0000000E+000
  0.0000000E+000
  0.0000000E+000
  0.0000000E+000
  0.0000000E+000
  0.0000000E+000
  0.0000000E+000
  0.0000000E+000
  0.0000000E+000
  0.0000000E+000
  0.0000000E+000
  0.0000000E+000
  0.0000000E+000
  0.0000000E+000
  0.0000000E+000
  0.0000000E+000
  0.0000000E+000
  0.0000000E+000
  0.0000000E+000
  0.0000000E+000
  0.0000000E+000
  0.0000000E+000
  0.0000000E+000
  0.0000000E+000
  0.0000000E+000
  0.0000000E+000
  0.0000000E+000
  0.0000000E+000
  0.0000000E+000
  0.0000000E+000
  0.0000000E+000
  0.0000000E+000
  0.0000000E+000
  0.0000000E+000
  0.0000000E+000
  0.0000000E+000
  0.0000000E+000
  0.0000000E+000
  0.0000000E+000
  0.0000000E+000
  0.0000000E+000
  0.0000000E+000
  0.0000000E+000
  0.0000000E+000
  0.0000000E+000
  0.0000000E+000
  0.0000000E+000
  0.0000000E+000
  0.0000000E+000
  0.0000000E+000
  0.0000000E+000
  0.0000000E+000
  0.0000000E+000
  0.0000000E+000
  0.0000000E+000
  0.0000000E+000
  0.0000000E+000
  0.0000000E+000
  0.0000000E+000
  0.0000000E+000
  0.0000000E+000
  0.0000000E+000
  0.0000000E+000
  0.0000000E+000
  0.0000000E+000
  0.0000000E+000
  0.0000000E+000
  0.0000000E+000
  0.0000000E+000
  0.0000000E+000
  0.0000000E+000
  0.0000000E+000
  0.0000000E+000
  0.0000000E+000
  0.0000000E+000
  0.0000000E+000
  0.0000000E+000
  0.0000000E+000
  0.0000000E+000
  0.0000000E+000
  0.0000000E+000
  0.0000000E+000
  0.0000000E+000
  0.0000000E+000
  0.0000000E+000
  0.0000000E+000
  0.0000000E+000
  0.0000000E+000
  0.0000000E+000
  0.0000000E+000
  0.0000000E+000
  0.0000000E+000
  0.0000000E+000
  0.0000000E+000
  0.0000000E+000
  0.0000000E+000
  0.0000000E+000
  0.0000000E+000
  0.0000000E+000
  0.0000000E+000
  0.0000000E+000
  0.0000000E+000
  0.0000000E+000
  0.0000000E+000
  0.0000000E+000
  0.0000000E+000
  0.0000000E+000
  0.0000000E+000
  0.0000000E+000
  0.0000000E+000
  0.0000000E+000
  0.0000000E+000
  0.0000000E+000
  0.0000000E+000
  0.0000000E+000
  0.0000000E+000
  0.0000000E+000
  0.0000000E+000
  0.0000000E+000
  0.0000000E+000
  0.0000000E+000
  0.0000000E+000
  0.0000000E+000
  0.0000000E+000
  0.0000000E+000
  0.0000000E+000
  0.0000000E+000
  0.0000000E+000
  0.0000000E+000
  0.0000000E+000
  0.0000000E+000
  0.0000000E+000
  0.0000000E+000
  0.0000000E+000
  0.0000000E+000
  0.0000000E+000
  0.0000000E+000
  0.0000000E+000
  0.0000000E+000
  0.0000000E+000
  0.0000000E+000
  0.0000000E+000
  0.0000000E+000
  0.0000000E+000
  0.0000000E+000
  0.0000000E+000
  0.0000000E+000
  0.0000000E+000
  0.0000000E+000
  0.0000000E+000
  0.0000000E+000
  0.0000000E+000
  0.0000000E+000
  0.0000000E+000
  0.0000000E+000
  0.0000000E+000
  0.0000000E+000
  0.0000000E+000
  0.0000000E+000
  0.0000000E+000
  0.0000000E+000
  0.0000000E+000
  0.0000000E+000
  0.0000000E+000
  0.0000000E+000
  0.0000000E+000
  0.0000000E+000
  0.0000000E+000
  0.0000000E+000
  0.0000000E+000
  0.0000000E+000
  0.0000000E+000
  0.0000000E+000
  0.0000000E+000
  0.0000000E+000
  0.0000000E+000
  0.0000000E+000
  0.0000000E+000
  0.0000000E+000
  0.0000000E+000
  0.0000000E+000
  0.0000000E+000
  0.0000000E+000
  0.0000000E+000
  0.0000000E+000
  0.0000000E+000
  0.0000000E+000
  0.0000000E+000
  0.0000000E+000
  0.0000000E+000
  0.0000000E+000
  0.0000000E+000
  0.0000000E+000
  0.0000000E+000
  0.0000000E+000
  0.0000000E+000
  0.0000000E+000
  0.0000000E+000
  0.0000000E+000
  0.0000000E+000
  0.0000000E+000
  0.0000000E+000
  0.0000000E+000
  0.0000000E+000
  0.0000000E+000
  0.0000000E+000
  0.0000000E+000
  0.0000000E+000
  0.0000000E+000
  0.0000000E+000
  0.0000000E+000
  0.0000000E+000
  0.0000000E+000
  0.0000000E+000
  0.0000000E+000
  0.0000000E+000
  0.0000000E+000
  0.0000000E+000
  0.0000000E+000
  0.0000000E+000
  0.0000000E+000
  0.0000000E+000
  0.0000000E+000
  0.0000000E+000
  0.0000000E+000
  0.0000000E+000
  0.0000000E+000
  0.0000000E+000
  0.0000000E+000
  0.0000000E+000
  0.0000000E+000
  0.0000000E+000
  0.0000000E+000
  0.0000000E+000
  0.0000000E+000
  0.0000000E+000
  0.0000000E+000
  0.0000000E+000
  0.0000000E+000
  0.0000000E+000
  0.0000000E+000
  0.0000000E+000
  0.0000000E+000
  0.0000000E+000
  0.0000000E+000
  0.0000000E+000
  0.0000000E+000
  0.0000000E+000
  0.0000000E+000
  0.0000000E+000
  0.0000000E+000
  0.0000000E+000
  0.0000000E+000
  0.0000000E+000
  0.0000000E+000
  0.0000000E+000
  0.0000000E+000
  0.0000000E+000
  0.0000000E+000
  0.0000000E+000
  0.0000000E+000
  0.0000000E+000
  0.0000000E+000
  0.0000000E+000
  0.0000000E+000
  0.0000000E+000
  0.0000000E+000
  0.0000000E+000
  0.0000000E+000
  0.0000000E+000
  0.0000000E+000
  0.0000000E+000
  0.0000000E+000
  0.0000000E+000
  0.0000000E+000
  0.0000000E+000
  0.0000000E+000
  0.0000000E+000
  0.0000000E+000
  0.0000000E+000
  0.0000000E+000
  0.0000000E+000
  0.0000000E+000
  0.0000000E+000
  0.0000000E+000
  0.0000000E+000
  0.0000000E+000
  0.0000000E+000
  0.0000000E+000
  0.0000000E+000
  0.0000000E+000
  0.0000000E+000
  0.0000000E+000
  0.0000000E+000
  0.0000000E+000
  0.0000000E+000
  0.0000000E+000
  0.0000000E+000
  0.0000000E+000
  0.0000000E+000
  0.0000000E+000
  0.0000000E+000
  0.0000000E+000
  0.0000000E+000
  0.0000000E+000
  0.0000000E+000
  0.0000000E+000
  0.0000000E+000
  0.0000000E+000
  0.0000000E+000
  0.0000000E+000
  0.0000000E+000
  0.0000000E+000
  0.0000000E+000
  0.0000000E+000
  0.0000000E+000
  0.0000000E+000
  0.0000000E+000
  0.0000000E+000
  0.0000000E+000
  0.0000000E+000
  0.0000000E+000
  0.0000000E+000
  0.0000000E+000
  0.0000000E+000
  0.0000000E+000
  0.0000000E+000
  0.0000000E+000
  0.0000000E+000
  0.0000000E+000
  0.0000000E+000
  0.0000000E+000
  0.0000000E+000
  0.0000000E+000
  0.0000000E+000
  0.0000000E+000
  0.0000000E+000
  0.0000000E+000
  0.0000000E+000
  0.0000000E+000
  0.0000000E+000
  0.0000000E+000
  0.0000000E+000
  0.0000000E+000
  0.0000000E+000
  0.0000000E+000
  0.0000000E+000
  0.0000000E+000
  0.0000000E+000
  0.0000000E+000
  0.0000000E+000
  0.0000000E+000
  0.0000000E+000
  0.0000000E+000
  0.0000000E+000
  0.0000000E+000
  0.0000000E+000
  0.0000000E+000
  0.0000000E+000
  0.0000000E+000
  0.0000000E+000
  0.0000000E+000
  0.0000000E+000
  0.0000000E+000
  0.0000000E+000
  0.0000000E+000
  0.0000000E+000
  0.0000000E+000
  0.0000000E+000
  0.0000000E+000
  0.0000000E+000
  0.0000000E+000
  0.0000000E+000
  0.0000000E+000
  0.0000000E+000
  0.0000000E+000
  0.0000000E+000
  0.0000000E+000
  0.0000000E+000
  0.0000000E+000
  0.0000000E+000
  0.0000000E+000
  0.0000000E+000
  0.0000000E+000
  0.0000000E+000
  0.0000000E+000
  0.0000000E+000
  0.0000000E+000
  0.0000000E+000
  0.0000000E+000
  0.0000000E+000
  0.0000000E+000
  0.0000000E+000
  0.0000000E+000
  0.0000000E+000
  0.0000000E+000
  0.0000000E+000
  0.0000000E+000
  0.0000000E+000
  0.0000000E+000
  0.0000000E+000
  0.0000000E+000
  0.0000000E+000
  0.0000000E+000
  0.0000000E+000
  0.0000000E+000
  0.0000000E+000
  0.0000000E+000
  0.0000000E+000
  0.0000000E+000
  0.0000000E+000
  0.0000000E+000
  0.0000000E+000
  0.0000000E+000
  0.0000000E+000
  0.0000000E+000
  0.0000000E+000
  0.0000000E+000
  0.0000000E+000
  0.0000000E+000
  0.0000000E+000
  0.0000000E+000
  0.0000000E+000
  0.0000000E+000
  0.0000000E+000
  0.0000000E+000
  0.0000000E+000
  0.0000000E+000
  0.0000000E+000
  0.0000000E+000
  0.0000000E+000
  0.0000000E+000
  0.0000000E+000
  0.0000000E+000
  0.0000000E+000
  0.0000000E+000
  0.0000000E+000
  0.0000000E+000
  0.0000000E+000
  0.0000000E+000
  0.0000000E+000
  0.0000000E+000
  0.0000000E+000
  0.0000000E+000
  0.0000000E+000
  0.0000000E+000
  0.0000000E+000
  0.0000000E+000
  0.0000000E+000
  0.0000000E+000
  0.0000000E+000
  0.0000000E+000
  0.0000000E+000
  0.0000000E+000
  0.0000000E+000
  0.0000000E+000
  0.0000000E+000
  0.0000000E+000
  0.0000000E+000
  0.0000000E+000
  0.0000000E+000
  0.0000000E+000
  0.0000000E+000
  0.0000000E+000
  0.0000000E+000
  0.0000000E+000
  0.0000000E+000
  0.0000000E+000
  0.0000000E+000
  0.0000000E+000
  0.0000000E+000
  0.0000000E+000
  0.0000000E+000
  0.0000000E+000
  0.0000000E+000
  0.0000000E+000
  0.0000000E+000
  0.0000000E+000
  0.0000000E+000
  0.0000000E+000
  0.0000000E+000
  0.0000000E+000
  0.0000000E+000
  0.0000000E+000
  0.0000000E+000
  0.0000000E+000
  0.0000000E+000
  0.0000000E+000
  0.0000000E+000
  0.0000000E+000
  0.0000000E+000
  0.0000000E+000
  0.0000000E+000
  0.0000000E+000
  0.0000000E+000
  0.0000000E+000
  0.0000000E+000
  0.0000000E+000
  0.0000000E+000
  0.0000000E+000
  0.0000000E+000
  0.0000000E+000
  0.0000000E+000
  0.0000000E+000
  0.0000000E+000
  0.0000000E+000
  0.0000000E+000
  0.0000000E+000
  0.0000000E+000
  0.0000000E+000
  0.0000000E+000
  0.0000000E+000
  0.0000000E+000
  0.0000000E+000
  0.0000000E+000
  0.0000000E+000
  0.0000000E+000
  0.0000000E+000
  0.0000000E+000
  0.0000000E+000
  0.0000000E+000
  0.0000000E+000
  0.0000000E+000
  0.0000000E+000
  0.0000000E+000
  0.0000000E+000
  0.0000000E+000
  0.0000000E+000
  0.0000000E+000
  0.0000000E+000
  0.0000000E+000
  0.0000000E+000
  0.0000000E+000
  0.0000000E+000
  0.0000000E+000
  0.0000000E+000
  0.0000000E+000
  0.0000000E+000
  0.0000000E+000
  0.0000000E+000
  0.0000000E+000
  0.0000000E+000
  0.0000000E+000
  0.0000000E+000
  0.0000000E+000
  0.0000000E+000
  0.0000000E+000
  0.0000000E+000
  0.0000000E+000
  0.0000000E+000
  0.0000000E+000
  0.0000000E+000
  0.0000000E+000
  0.0000000E+000
  0.0000000E+000
  0.0000000E+000
  0.0000000E+000
  0.0000000E+000
  0.0000000E+000
  0.0000000E+000
  0.0000000E+000
  0.0000000E+000
  0.0000000E+000
  0.0000000E+000
  0.0000000E+000
  0.0000000E+000
  0.0000000E+000
  0.0000000E+000
  0.0000000E+000
  0.0000000E+000
  0.0000000E+000
  0.0000000E+000
  0.0000000E+000
  0.0000000E+000
  0.0000000E+000
  0.0000000E+000
  0.0000000E+000
  0.0000000E+000
  0.0000000E+000
  0.0000000E+000
  0.0000000E+000
  0.0000000E+000
  0.0000000E+000
  0.0000000E+000
  0.0000000E+000
  0.0000000E+000
  0.0000000E+000
  0.0000000E+000
  0.0000000E+000
  0.0000000E+000
  0.0000000E+000
  0.0000000E+000
  0.0000000E+000
  0.0000000E+000
  0.0000000E+000
  0.0000000E+000
  0.0000000E+000
  0.0000000E+000
  0.0000000E+000
  0.0000000E+000
  0.0000000E+000
  0.0000000E+000
  0.0000000E+000
  0.0000000E+000
  0.0000000E+000
  0.0000000E+000
  0.0000000E+000
  0.0000000E+000
  0.0000000E+000
  0.0000000E+000
  0.0000000E+000
  0.0000000E+000
  0.0000000E+000
  0.0000000E+000
  0.0000000E+000
  0.0000000E+000
  0.0000000E+000
  0.0000000E+000
  0.0000000E+000
  0.0000000E+000
  0.0000000E+000
  0.0000000E+000
  0.0000000E+000
  0.0000000E+000
  0.0000000E+000
  0.0000000E+000
  0.0000000E+000
  0.0000000E+000
  0.0000000E+000
  0.0000000E+000
  0.0000000E+000
  0.0000000E+000
  0.0000000E+000
  0.0000000E+000
  0.0000000E+000
  0.0000000E+000
  0.0000000E+000
  0.0000000E+000
  0.0000000E+000
  0.0000000E+000
  0.0000000E+000
  0.0000000E+000
  0.0000000E+000
  0.0000000E+000
  0.0000000E+000
  0.0000000E+000
  0.0000000E+000
  0.0000000E+000
  0.0000000E+000
  0.0000000E+000
  0.0000000E+000
  0.0000000E+000
  0.0000000E+000
  0.0000000E+000
  0.0000000E+000
  0.0000000E+000
  0.0000000E+000
  0.0000000E+000
  0.0000000E+000
  0.0000000E+000
  0.0000000E+000
  0.0000000E+000
  0.0000000E+000
  0.0000000E+000
  0.0000000E+000
  0.0000000E+000
  0.0000000E+000
  0.0000000E+000
  0.0000000E+000
  0.0000000E+000
  0.0000000E+000
  0.0000000E+000
  0.0000000E+000
  0.0000000E+000
  0.0000000E+000
  0.0000000E+000
  0.0000000E+000
  0.0000000E+000
  0.0000000E+000
  0.0000000E+000
  0.0000000E+000
  0.0000000E+000
  0.0000000E+000
  0.0000000E+000
  0.0000000E+000
  0.0000000E+000
  0.0000000E+000
  0.0000000E+000
  0.0000000E+000
  0.0000000E+000
  0.0000000E+000
  0.0000000E+000
  0.0000000E+000
  0.0000000E+000
  0.0000000E+000
  0.0000000E+000
  0.0000000E+000
  0.0000000E+000
  0.0000000E+000
  0.0000000E+000
  0.0000000E+000
  0.0000000E+000
  0.0000000E+000
  0.0000000E+000
  0.0000000E+000
  0.0000000E+000
  0.0000000E+000
  0.0000000E+000
  0.0000000E+000
  0.0000000E+000
  0.0000000E+000
  0.0000000E+000
  0.0000000E+000
  0.0000000E+000
  0.0000000E+000
  0.0000000E+000
  0.0000000E+000
  0.0000000E+000
  0.0000000E+000
  0.0000000E+000
  0.0000000E+000
  0.0000000E+000
  0.0000000E+000
  0.0000000E+000
  0.0000000E+000
  0.0000000E+000
  0.0000000E+000
  0.0000000E+000
  0.0000000E+000
  0.0000000E+000
  0.0000000E+000
  0.0000000E+000
  0.0000000E+000
  0.0000000E+000
  0.0000000E+000
  0.0000000E+000
  0.0000000E+000
  0.0000000E+000
  0.0000000E+000
  0.0000000E+000
  0.0000000E+000
  0.0000000E+000
  0.0000000E+000
  0.0000000E+000
  0.0000000E+000
  0.0000000E+000
  0.0000000E+000
  0.0000000E+000
  0.0000000E+000
  0.0000000E+000
  0.0000000E+000
  0.0000000E+000
  0.0000000E+000
  0.0000000E+000
  0.0000000E+000
  0.0000000E+000
  0.0000000E+000
  0.0000000E+000
  0.0000000E+000
  0.0000000E+000
  0.0000000E+000
  0.0000000E+000
  0.0000000E+000
  0.0000000E+000
  0.0000000E+000
  0.0000000E+000
  0.0000000E+000
  0.0000000E+000
  0.0000000E+000
  0.0000000E+000
  0.0000000E+000
  0.0000000E+000
  0.0000000E+000
  0.0000000E+000
  0.0000000E+000
  0.0000000E+000
  0.0000000E+000
  0.0000000E+000
  0.0000000E+000
  0.0000000E+000
  0.0000000E+000
  0.0000000E+000
  0.0000000E+000
  0.0000000E+000
  0.0000000E+000
  0.0000000E+000
  0.0000000E+000
  0.0000000E+000
  0.0000000E+000
  0.0000000E+000
  0.0000000E+000
  0.0000000E+000
  0.0000000E+000
  0.0000000E+000
  0.0000000E+000
  0.0000000E+000
  0.0000000E+000
  0.0000000E+000
  0.0000000E+000
  0.0000000E+000
  0.0000000E+000
  0.0000000E+000
  0.0000000E+000
  0.0000000E+000
  0.0000000E+000
  0.0000000E+000
  0.0000000E+000
  0.0000000E+000
  0.0000000E+000
  0.0000000E+000
  0.0000000E+000
  0.0000000E+000
  0.0000000E+000
  0.0000000E+000
  0.0000000E+000
  0.0000000E+000
  0.0000000E+000
  0.0000000E+000
  0.0000000E+000
  0.0000000E+000
  0.0000000E+000
  0.0000000E+000
  0.0000000E+000
  0.0000000E+000
  0.0000000E+000
  0.0000000E+000
  0.0000000E+000
  0.0000000E+000
  0.0000000E+000
  0.0000000E+000
  0.0000000E+000
  0.0000000E+000
  0.0000000E+000
  0.0000000E+000
  0.0000000E+000
  0.0000000E+000
  0.0000000E+000
  0.0000000E+000
  0.0000000E+000
  0.0000000E+000
  0.0000000E+000
  0.0000000E+000
  0.0000000E+000
  0.0000000E+000
  0.0000000E+000
  0.0000000E+000
  0.0000000E+000
  0.0000000E+000
  0.0000000E+000
  0.0000000E+000
  0.0000000E+000
  0.0000000E+000
  0.0000000E+000
  0.0000000E+000
  0.0000000E+000
  0.0000000E+000
  0.0000000E+000
  0.0000000E+000
  0.0000000E+000
  0.0000000E+000
  0.0000000E+000
  0.0000000E+000
  0.0000000E+000
  0.0000000E+000
  0.0000000E+000
  0.0000000E+000
  0.0000000E+000
  0.0000000E+000
  0.0000000E+000
  0.0000000E+000
  0.0000000E+000
  0.0000000E+000
  0.0000000E+000
  0.0000000E+000
  0.0000000E+000
  0.0000000E+000
  0.0000000E+000
  0.0000000E+000
  0.0000000E+000
  0.0000000E+000
  0.0000000E+000
  0.0000000E+000
  0.0000000E+000
  0.0000000E+000
  0.0000000E+000
  0.0000000E+000
  0.0000000E+000
  0.0000000E+000
  0.0000000E+000
  0.0000000E+000
  0.0000000E+000
  0.0000000E+000
  0.0000000E+000
  0.0000000E+000
  0.0000000E+000
  0.0000000E+000
  0.0000000E+000
  0.0000000E+000
  0.0000000E+000
  0.0000000E+000
  0.0000000E+000
  0.0000000E+000
  0.0000000E+000
  0.0000000E+000
  0.0000000E+000
  0.0000000E+000
  0.0000000E+000
  0.0000000E+000
  0.0000000E+000
  0.0000000E+000
  0.0000000E+000
  0.0000000E+000
  0.0000000E+000
  0.0000000E+000
  0.0000000E+000
  0.0000000E+000
  0.0000000E+000
  0.0000000E+000
  0.0000000E+000
  0.0000000E+000
  0.0000000E+000
  0.0000000E+000
  0.0000000E+000
  0.0000000E+000
  0.0000000E+000
  0.0000000E+000
  0.0000000E+000
  0.0000000E+000
  0.0000000E+000
  0.0000000E+000
  0.0000000E+000
  0.0000000E+000
  0.0000000E+000
  0.0000000E+000
  0.0000000E+000
  0.0000000E+000
  0.0000000E+000
  0.0000000E+000
  0.0000000E+000
  0.0000000E+000
  0.0000000E+000
  0.0000000E+000
  0.0000000E+000
  0.0000000E+000
  0.0000000E+000
  0.0000000E+000
  0.0000000E+000
  0.0000000E+000
  0.0000000E+000
  0.0000000E+000
  0.0000000E+000
  0.0000000E+000
  0.0000000E+000
  0.0000000E+000
  0.0000000E+000
  0.0000000E+000
  0.0000000E+000
  0.0000000E+000
  0.0000000E+000
  0.0000000E+000
  0.0000000E+000
  0.0000000E+000
  0.0000000E+000
  0.0000000E+000
  0.0000000E+000
  0.0000000E+000
  0.0000000E+000
  0.0000000E+000
  0.0000000E+000
  0.0000000E+000
  0.0000000E+000
  0.0000000E+000
  0.0000000E+000
  0.0000000E+000
  0.0000000E+000
  0.0000000E+000
  0.0000000E+000
  0.0000000E+000
  0.0000000E+000
  0.0000000E+000
  0.0000000E+000
  0.0000000E+000
  0.0000000E+000
  0.0000000E+000
  0.0000000E+000
  0.0000000E+000
  0.0000000E+000
  0.0000000E+000
  0.0000000E+000
  0.0000000E+000
  0.0000000E+000
  0.0000000E+000
  0.0000000E+000
  0.0000000E+000
  0.0000000E+000
  0.0000000E+000
  0.0000000E+000
  0.0000000E+000
  0.0000000E+000
  0.0000000E+000
  0.0000000E+000
  0.0000000E+000
  0.0000000E+000
  0.0000000E+000
  0.0000000E+000
  0.0000000E+000
  0.0000000E+000
  0.0000000E+000
  0.0000000E+000
  0.0000000E+000
  0.0000000E+000
  0.0000000E+000
  0.0000000E+000
  0.0000000E+000
  0.0000000E+000
  0.0000000E+000
  0.0000000E+000
  0.0000000E+000
  0.0000000E+000
  0.0000000E+000
  0.0000000E+000
  0.0000000E+000
  0.0000000E+000
  0.0000000E+000
  0.0000000E+000
  0.0000000E+000
  0.0000000E+000
  0.0000000E+000
  0.0000000E+000
  0.0000000E+000
  0.0000000E+000
  0.0000000E+000
  0.0000000E+000
  0.0000000E+000
  0.0000000E+000
  0.0000000E+000
  0.0000000E+000
  0.0000000E+000
  0.0000000E+000
  0.0000000E+000
  0.0000000E+000
  0.0000000E+000
  0.0000000E+000
  0.0000000E+000
  0.0000000E+000
  0.0000000E+000
  0.0000000E+000
  0.0000000E+000
  0.0000000E+000
  0.0000000E+000
  0.0000000E+000
  0.0000000E+000
  0.0000000E+000
  0.0000000E+000
  0.0000000E+000
  0.0000000E+000
  0.0000000E+000
  0.0000000E+000
  0.0000000E+000
  0.0000000E+000
  0.0000000E+000
  0.0000000E+000
  0.0000000E+000
  0.0000000E+000
  0.0000000E+000
  0.0000000E+000
  0.0000000E+000
  0.0000000E+000
  0.0000000E+000
  0.0000000E+000
  0.0000000E+000
  0.0000000E+000
  0.0000000E+000
  0.0000000E+000
  0.0000000E+000
  0.0000000E+000
  0.0000000E+000
  0.0000000E+000
  0.0000000E+000
  0.0000000E+000
  0.0000000E+000
  0.0000000E+000
  0.0000000E+000
  0.0000000E+000
  0.0000000E+000
  0.0000000E+000
  0.0000000E+000
  0.0000000E+000
  0.0000000E+000
  0.0000000E+000
  0.0000000E+000
  0.0000000E+000
  0.0000000E+000
  0.0000000E+000
  0.0000000E+000
  0.0000000E+000
  0.0000000E+000
  0.0000000E+000
  0.0000000E+000
  0.0000000E+000
  0.0000000E+000
  0.0000000E+000
  0.0000000E+000
  0.0000000E+000
  0.0000000E+000
  0.0000000E+000
  0.0000000E+000
  0.0000000E+000
  0.0000000E+000
  0.0000000E+000
  0.0000000E+000
  0.0000000E+000
  0.0000000E+000
  0.0000000E+000
  0.0000000E+000
  0.0000000E+000
  0.0000000E+000
  0.0000000E+000
  0.0000000E+000
  0.0000000E+000
  0.0000000E+000
  0.0000000E+000
  0.0000000E+000
  0.0000000E+000
  0.0000000E+000
  0.0000000E+000
  0.0000000E+000
  0.0000000E+000
  0.0000000E+000
  0.0000000E+000
  0.0000000E+000
  0.0000000E+000
  0.0000000E+000
  0.0000000E+000
  0.0000000E+000
  0.0000000E+000
  0.0000000E+000
  0.0000000E+000
  0.0000000E+000
  0.0000000E+000
  0.0000000E+000
  0.0000000E+000
  0.0000000E+000
  0.0000000E+000
  0.0000000E+000
  0.0000000E+000
  0.0000000E+000
  0.0000000E+000
  0.0000000E+000
  0.0000000E+000
  0.0000000E+000
  0.0000000E+000
  0.0000000E+000
  0.0000000E+000
  0.0000000E+000
  0.0000000E+000
  0.0000000E+000
  0.0000000E+000
  0.0000000E+000
  0.0000000E+000
  0.0000000E+000
  0.0000000E+000
  0.0000000E+000
  0.0000000E+000
  0.0000000E+000
  0.0000000E+000
  0.0000000E+000
  0.0000000E+000
  0.0000000E+000
  0.0000000E+000
  0.0000000E+000
  0.0000000E+000
  0.0000000E+000
  0.0000000E+000
  0.0000000E+000
  0.0000000E+000
  0.0000000E+000
  0.0000000E+000
  0.0000000E+000
  0.0000000E+000
  0.0000000E+000
  0.0000000E+000
  0.0000000E+000
  0.0000000E+000
  0.0000000E+000
  0.0000000E+000
  0.0000000E+000
  0.0000000E+000
  0.0000000E+000
  0.0000000E+000
  0.0000000E+000
  0.0000000E+000
  0.0000000E+000
  0.0000000E+000
  0.0000000E+000
  0.0000000E+000
  0.0000000E+000
  0.0000000E+000
  0.0000000E+000
  0.0000000E+000
  0.0000000E+000
  0.0000000E+000
  0.0000000E+000
  0.0000000E+000
  0.0000000E+000
  0.0000000E+000
  0.0000000E+000
  0.0000000E+000
  0.0000000E+000
  0.0000000E+000
  0.0000000E+000
  0.0000000E+000
  0.0000000E+000
  0.0000000E+000
  0.0000000E+000
  0.0000000E+000
  0.0000000E+000
  0.0000000E+000
  0.0000000E+000
  0.0000000E+000
  0.0000000E+000
  0.0000000E+000
  0.0000000E+000
  0.0000000E+000
  0.0000000E+000
  0.0000000E+000
  0.0000000E+000
  0.0000000E+000
  0.0000000E+000
  0.0000000E+000
  0.0000000E+000
  0.0000000E+000
  0.0000000E+000
  0.0000000E+000
  0.0000000E+000
  0.0000000E+000
  0.0000000E+000
  0.0000000E+000
  0.0000000E+000
  0.0000000E+000
  0.0000000E+000
  0.0000000E+000
  0.0000000E+000
  0.0000000E+000
  0.0000000E+000
  0.0000000E+000
  0.0000000E+000
  0.0000000E+000
  0.0000000E+000
  0.0000000E+000
  0.0000000E+000
  0.0000000E+000
  0.0000000E+000
  0.0000000E+000
  0.0000000E+000
  0.0000000E+000
  0.0000000E+000
  0.0000000E+000
  0.0000000E+000
  0.0000000E+000
  0.0000000E+000
  0.0000000E+000
  0.0000000E+000
  0.0000000E+000
  0.0000000E+000
  0.0000000E+000
  0.0000000E+000
  0.0000000E+000
  0.0000000E+000
  0.0000000E+000
  0.0000000E+000
  0.0000000E+000
  0.0000000E+000
  0.0000000E+000
  0.0000000E+000
  0.0000000E+000
  0.0000000E+000
  0.0000000E+000
  0.0000000E+000
  0.0000000E+000
  0.0000000E+000
  0.0000000E+000
  0.0000000E+000
  0.0000000E+000
  0.0000000E+000
  0.0000000E+000
  0.0000000E+000
  0.0000000E+000
  0.0000000E+000
  0.0000000E+000
  0.0000000E+000
  0.0000000E+000
  0.0000000E+000
  0.0000000E+000
  0.0000000E+000
  0.0000000E+000
  0.0000000E+000
  0.0000000E+000
  0.0000000E+000
  0.0000000E+000
  0.0000000E+000
  0.0000000E+000
  0.0000000E+000
  0.0000000E+000
  0.0000000E+000
  0.0000000E+000
  0.0000000E+000
  0.0000000E+000
  0.0000000E+000
  0.0000000E+000
  0.0000000E+000
  0.0000000E+000
  0.0000000E+000
  0.0000000E+000
  0.0000000E+000
  0.0000000E+000
  0.0000000E+000
  0.0000000E+000
  0.0000000E+000
  0.0000000E+000
  0.0000000E+000
  0.0000000E+000
  0.0000000E+000
  0.0000000E+000
  0.0000000E+000
  0.0000000E+000
  0.0000000E+000
  0.0000000E+000
  0.0000000E+000
  0.0000000E+000
  0.0000000E+000
  0.0000000E+000
  0.0000000E+000
  0.0000000E+000
  0.0000000E+000
  0.0000000E+000
  0.0000000E+000
  0.0000000E+000
  0.0000000E+000
  0.0000000E+000
  0.0000000E+000
  0.0000000E+000
  0.0000000E+000
  0.0000000E+000
  0.0000000E+000
  0.0000000E+000
  0.0000000E+000
  0.0000000E+000
  0.0000000E+000
  0.0000000E+000
  0.0000000E+000
  0.0000000E+000
  0.0000000E+000
  0.0000000E+000
  0.0000000E+000
  0.0000000E+000
  0.0000000E+000
  0.0000000E+000
  0.0000000E+000
  0.0000000E+000
  0.0000000E+000
  0.0000000E+000
  0.0000000E+000
  0.0000000E+000
  0.0000000E+000
  0.0000000E+000
  0.0000000E+000
  0.0000000E+000
  0.0000000E+000
  0.0000000E+000
  0.0000000E+000
  0.0000000E+000
  0.0000000E+000
  0.0000000E+000
  0.0000000E+000
  0.0000000E+000
  0.0000000E+000
  0.0000000E+000
  0.0000000E+000
  0.0000000E+000
  0.0000000E+000
  0.0000000E+000
  0.0000000E+000
  0.0000000E+000
  0.0000000E+000
  0.0000000E+000
  0.0000000E+000
  0.0000000E+000
  0.0000000E+000
  0.0000000E+000
  0.0000000E+000
  0.0000000E+000
  0.0000000E+000
  0.0000000E+000
  0.0000000E+000
  0.0000000E+000
  0.0000000E+000
  0.0000000E+000
  0.0000000E+000
  0.0000000E+000
  0.0000000E+000
  0.0000000E+000
  0.0000000E+000
  0.0000000E+000
  0.0000000E+000
  0.0000000E+000
  0.0000000E+000
  0.0000000E+000
  0.0000000E+000
  0.0000000E+000
  0.0000000E+000
  0.0000000E+000
  0.0000000E+000
  0.0000000E+000
  0.0000000E+000
  0.0000000E+000
  0.0000000E+000
  0.0000000E+000
  0.0000000E+000
  0.0000000E+000
  0.0000000E+000
  0.0000000E+000
  0.0000000E+000
  0.0000000E+000
  0.0000000E+000
  0.0000000E+000
  0.0000000E+000
  0.0000000E+000
  0.0000000E+000
  0.0000000E+000
  0.0000000E+000
  0.0000000E+000
  0.0000000E+000
  0.0000000E+000
  0.0000000E+000
  0.0000000E+000
  0.0000000E+000
  0.0000000E+000
  0.0000000E+000
  0.0000000E+000
  0.0000000E+000
  0.0000000E+000
  0.0000000E+000
  0.0000000E+000
  0.0000000E+000
  0.0000000E+000
  0.0000000E+000
  0.0000000E+000
  0.0000000E+000
  0.0000000E+000
  0.0000000E+000
  0.0000000E+000
  0.0000000E+000
  0.0000000E+000
  0.0000000E+000
  0.0000000E+000
  0.0000000E+000
  0.0000000E+000
  0.0000000E+000
  0.0000000E+000
  0.0000000E+000
  0.0000000E+000
  0.0000000E+000
  0.0000000E+000
  0.0000000E+000
  0.0000000E+000
  0.0000000E+000
  0.0000000E+000
  0.0000000E+000
  0.0000000E+000
  0.0000000E+000
  0.0000000E+000
  0.0000000E+000
  0.0000000E+000
  0.0000000E+000
  0.0000000E+000
  0.0000000E+000
  0.0000000E+000
  0.0000000E+000
  0.0000000E+000
  0.0000000E+000
  0.0000000E+000
  0.0000000E+000
  0.0000000E+000
  0.0000000E+000
  0.0000000E+000
  0.0000000E+000
  0.0000000E+000
  0.0000000E+000
  0.0000000E+000
  0.0000000E+000
  0.0000000E+000
  0.0000000E+000
  0.0000000E+000
  0.0000000E+000
  0.0000000E+000
  0.0000000E+000
  0.0000000E+000
  0.0000000E+000
  0.0000000E+000
  0.0000000E+000
  0.0000000E+000
  0.0000000E+000
  0.0000000E+000
  0.0000000E+000
  0.0000000E+000
  0.0000000E+000
  0.0000000E+000
  0.0000000E+000
  0.0000000E+000
  0.0000000E+000
  0.0000000E+000
  0.0000000E+000
  0.0000000E+000
  0.0000000E+000
  0.0000000E+000
  0.0000000E+000
  0.0000000E+000
  0.0000000E+000
  0.0000000E+000
  0.0000000E+000
  0.0000000E+000
  0.0000000E+000
  0.0000000E+000
  0.0000000E+000
  0.0000000E+000
  0.0000000E+000
  0.0000000E+000
  0.0000000E+000
  0.0000000E+000
  0.0000000E+000
  0.0000000E+000
  0.0000000E+000
  0.0000000E+000
  0.0000000E+000
  0.0000000E+000
  0.0000000E+000
  0.0000000E+000
  0.0000000E+000
  0.0000000E+000
  0.0000000E+000
  0.0000000E+000
  0.0000000E+000
  0.0000000E+000
  0.0000000E+000
  0.0000000E+000
  0.0000000E+000
  0.0000000E+000
  0.0000000E+000
  0.0000000E+000
  0.0000000E+000
  0.0000000E+000
  0.0000000E+000
  0.0000000E+000
  0.0000000E+000
  0.0000000E+000
  0.0000000E+000
  0.0000000E+000
  0.0000000E+000
  0.0000000E+000
  0.0000000E+000
  0.0000000E+000
  0.0000000E+000
  0.0000000E+000
  0.0000000E+000
  0.0000000E+000
  0.0000000E+000
  0.0000000E+000
  0.0000000E+000
  0.0000000E+000
  0.0000000E+000
  0.0000000E+000
  0.0000000E+000
  0.0000000E+000
  0.0000000E+000
  0.0000000E+000
  0.0000000E+000
  0.0000000E+000
  0.0000000E+000
  0.0000000E+000
  0.0000000E+000
  0.0000000E+000
  0.0000000E+000
  0.0000000E+000
  0.0000000E+000
  0.0000000E+000
  0.0000000E+000
  0.0000000E+000
  0.0000000E+000
  0.0000000E+000
  0.0000000E+000
  0.0000000E+000
  0.0000000E+000
  0.0000000E+000
  0.0000000E+000
  0.0000000E+000
  0.0000000E+000
  0.0000000E+000
  0.0000000E+000
  0.0000000E+000
  0.0000000E+000
  0.0000000E+000
  0.0000000E+000
  0.0000000E+000
  0.0000000E+000
  0.0000000E+000
  0.0000000E+000
  0.0000000E+000
  0.0000000E+000
  0.0000000E+000
  0.0000000E+000
  0.0000000E+000
  0.0000000E+000
  0.0000000E+000
  0.0000000E+000
  0.0000000E+000
  0.0000000E+000
  0.0000000E+000
  0.0000000E+000
  0.0000000E+000
  0.0000000E+000
  0.0000000E+000
  0.0000000E+000
  0.0000000E+000
  0.0000000E+000
  0.0000000E+000
  0.0000000E+000
  0.0000000E+000
  0.0000000E+000
  0.0000000E+000
  0.0000000E+000
  0.0000000E+000
  0.0000000E+000
  0.0000000E+000
  0.0000000E+000
  0.0000000E+000
  0.0000000E+000
  0.0000000E+000
  0.0000000E+000
  0.0000000E+000
  0.0000000E+000
  0.0000000E+000
  0.0000000E+000
  0.0000000E+000
  0.0000000E+000
  0.0000000E+000
  0.0000000E+000
  0.0000000E+000
  0.0000000E+000
  0.0000000E+000
  0.0000000E+000
  0.0000000E+000
  0.0000000E+000
  0.0000000E+000
  0.0000000E+000
  0.0000000E+000
  0.0000000E+000
  0.0000000E+000
  0.0000000E+000
  0.0000000E+000
  0.0000000E+000
  0.0000000E+000
  0.0000000E+000
  0.0000000E+000
  0.0000000E+000
  0.0000000E+000
  0.0000000E+000
  0.0000000E+000
  0.0000000E+000
  0.0000000E+000
  0.0000000E+000
  0.0000000E+000
  0.0000000E+000
  0.0000000E+000
  0.0000000E+000
  0.0000000E+000
  0.0000000E+000
  0.0000000E+000
  0.0000000E+000
  0.0000000E+000
  0.0000000E+000
  0.0000000E+000
  0.0000000E+000
  0.0000000E+000
  0.0000000E+000
  0.0000000E+000
  0.0000000E+000
  0.0000000E+000
  0.0000000E+000
  0.0000000E+000
  0.0000000E+000
  0.0000000E+000
  0.0000000E+000
  0.0000000E+000
  0.0000000E+000
  0.0000000E+000
  0.0000000E+000
  0.0000000E+000
  0.0000000E+000
  0.0000000E+000
  0.0000000E+000
  0.0000000E+000
  0.0000000E+000
  0.0000000E+000
  0.0000000E+000
  0.0000000E+000
  0.0000000E+000
  0.0000000E+000
  0.0000000E+000
  0.0000000E+000
  0.0000000E+000
  0.0000000E+000
  0.0000000E+000
  0.0000000E+000
  0.0000000E+000
  0.0000000E+000
  0.0000000E+000
  0.0000000E+000
  0.0000000E+000
  0.0000000E+000
  0.0000000E+000
  0.0000000E+000
  0.0000000E+000
  0.0000000E+000
  0.0000000E+000
  0.0000000E+000
  0.0000000E+000
  0.0000000E+000
  0.0000000E+000
  0.0000000E+000
  0.0000000E+000
  0.0000000E+000
  0.0000000E+000
  0.0000000E+000
  0.0000000E+000
  0.0000000E+000
  0.0000000E+000
  0.0000000E+000
  0.0000000E+000
  0.0000000E+000
  0.0000000E+000
  0.0000000E+000
  0.0000000E+000
  0.0000000E+000
  0.0000000E+000
  0.0000000E+000
  0.0000000E+000
  0.0000000E+000
  0.0000000E+000
  0.0000000E+000
  0.0000000E+000
  0.0000000E+000
  0.0000000E+000
  0.0000000E+000
  0.0000000E+000
  0.0000000E+000
  0.0000000E+000
  0.0000000E+000
  0.0000000E+000
  0.0000000E+000
  0.0000000E+000
  0.0000000E+000
  0.0000000E+000
  0.0000000E+000
  0.0000000E+000
  0.0000000E+000
  0.0000000E+000
  0.0000000E+000
  0.0000000E+000
  0.0000000E+000
  0.0000000E+000
  0.0000000E+000
  0.0000000E+000
  0.0000000E+000
  0.0000000E+000
  0.0000000E+000
  0.0000000E+000
  0.0000000E+000
  0.0000000E+000
  0.0000000E+000
  0.0000000E+000
  0.0000000E+000
  0.0000000E+000
  0.0000000E+000
  0.0000000E+000
  0.0000000E+000
  0.0000000E+000
  0.0000000E+000
  0.0000000E+000
  0.0000000E+000
  0.0000000E+000
  0.0000000E+000
  0.0000000E+000
  0.0000000E+000
  0.0000000E+000
  0.0000000E+000
  0.0000000E+000
  0.0000000E+000
  0.0000000E+000
  0.0000000E+000
  0.0000000E+000
  0.0000000E+000
  0.0000000E+000
  0.0000000E+000
  0.0000000E+000
  0.0000000E+000
  0.0000000E+000
  0.0000000E+000
  0.0000000E+000
  0.0000000E+000
  0.0000000E+000
  0.0000000E+000
  0.0000000E+000
  0.0000000E+000
  0.0000000E+000
  0.0000000E+000
  0.0000000E+000
  0.0000000E+000
  0.0000000E+000
  0.0000000E+000
  0.0000000E+000
  0.0000000E+000
  0.0000000E+000
  0.0000000E+000
  0.0000000E+000
  0.0000000E+000
  0.0000000E+000
  0.0000000E+000
  0.0000000E+000
  0.0000000E+000
  0.0000000E+000
  0.0000000E+000
  0.0000000E+000
  0.0000000E+000
  0.0000000E+000
  0.0000000E+000
  0.0000000E+000
  0.0000000E+000
  0.0000000E+000
  0.0000000E+000
  0.0000000E+000
  0.0000000E+000
  0.0000000E+000
  0.0000000E+000
  0.0000000E+000
  0.0000000E+000
  0.0000000E+000
  0.0000000E+000
  0.0000000E+000
  0.0000000E+000
  0.0000000E+000
  0.0000000E+000
  0.0000000E+000
  0.0000000E+000
  0.0000000E+000
  0.0000000E+000
  0.0000000E+000
  0.0000000E+000
  0.0000000E+000
  0.0000000E+000
  0.0000000E+000
  0.0000000E+000
  0.0000000E+000
  0.0000000E+000
  0.0000000E+000
  0.0000000E+000
  0.0000000E+000
  0.0000000E+000
  0.0000000E+000
  0.0000000E+000
  0.0000000E+000
  0.0000000E+000
  0.0000000E+000
  0.0000000E+000
  0.0000000E+000
  0.0000000E+000
  0.0000000E+000
  0.0000000E+000
  0.0000000E+000
  0.0000000E+000
  0.0000000E+000
  0.0000000E+000
  0.0000000E+000
  0.0000000E+000
  0.0000000E+000
  0.0000000E+000
  0.0000000E+000
  0.0000000E+000
  0.0000000E+000
  0.0000000E+000
  0.0000000E+000
  0.0000000E+000
  0.0000000E+000
  0.0000000E+000
  0.0000000E+000
  0.0000000E+000
  0.0000000E+000
  0.0000000E+000
  0.0000000E+000
  0.0000000E+000
  0.0000000E+000
  0.0000000E+000
  0.0000000E+000
  0.0000000E+000
  0.0000000E+000
  0.0000000E+000
  0.0000000E+000
  0.0000000E+000
  0.0000000E+000
  0.0000000E+000
  0.0000000E+000
  0.0000000E+000
  0.0000000E+000
  0.0000000E+000
  0.0000000E+000
  0.0000000E+000
  0.0000000E+000
  0.0000000E+000
  0.0000000E+000
  0.0000000E+000
  0.0000000E+000
  0.0000000E+000
  0.0000000E+000
  0.0000000E+000
  0.0000000E+000
  0.0000000E+000
  0.0000000E+000
  0.0000000E+000
  0.0000000E+000
  0.0000000E+000
  0.0000000E+000
  0.0000000E+000
  0.0000000E+000
  0.0000000E+000
  0.0000000E+000
  0.0000000E+000
  0.0000000E+000
  0.0000000E+000
  0.0000000E+000
  0.0000000E+000
  0.0000000E+000
  0.0000000E+000
  0.0000000E+000
  0.0000000E+000
  0.0000000E+000
  0.0000000E+000
  0.0000000E+000
  0.0000000E+000
  0.0000000E+000
  0.0000000E+000
  0.0000000E+000
  0.0000000E+000
  0.0000000E+000
  0.0000000E+000
  0.0000000E+000
  0.0000000E+000
  0.0000000E+000
  0.0000000E+000
  0.0000000E+000
  0.0000000E+000
  0.0000000E+000
  0.0000000E+000
  0.0000000E+000
  0.0000000E+000
  0.0000000E+000
  0.0000000E+000
  0.0000000E+000
  0.0000000E+000
  0.0000000E+000
  0.0000000E+000
  0.0000000E+000
  0.0000000E+000
  0.0000000E+000
  0.0000000E+000
  0.0000000E+000
  0.0000000E+000
  0.0000000E+000
  0.0000000E+000
  0.0000000E+000
  0.0000000E+000
  0.0000000E+000
  0.0000000E+000
  0.0000000E+000
  0.0000000E+000
  0.0000000E+000
  0.0000000E+000
  0.0000000E+000
  0.0000000E+000
  0.0000000E+000
  0.0000000E+000
  0.0000000E+000
  0.0000000E+000
  0.0000000E+000
  0.0000000E+000
  0.0000000E+000
  0.0000000E+000
  0.0000000E+000
  0.0000000E+000
  0.0000000E+000
  0.0000000E+000
  0.0000000E+000
  0.0000000E+000
  0.0000000E+000
  0.0000000E+000
  0.0000000E+000
  0.0000000E+000
  0.0000000E+000
  0.0000000E+000
  0.0000000E+000
  0.0000000E+000
  0.0000000E+000
  0.0000000E+000
  0.0000000E+000
  0.0000000E+000
  0.0000000E+000
  0.0000000E+000
  0.0000000E+000
  0.0000000E+000
  0.0000000E+000
  0.0000000E+000
  0.0000000E+000
  0.0000000E+000
  0.0000000E+000
  0.0000000E+000
  0.0000000E+000
  0.0000000E+000
  0.0000000E+000
  0.0000000E+000
  0.0000000E+000
  0.0000000E+000
  0.0000000E+000
  0.0000000E+000
  0.0000000E+000
  0.0000000E+000
  0.0000000E+000
  0.0000000E+000
  0.0000000E+000
  0.0000000E+000
  0.0000000E+000
  0.0000000E+000
  0.0000000E+000
  0.0000000E+000
  0.0000000E+000
  0.0000000E+000
  0.0000000E+000
  0.0000000E+000
  0.0000000E+000
  0.0000000E+000
  0.0000000E+000
  0.0000000E+000
  0.0000000E+000
  0.0000000E+000
  0.0000000E+000
  0.0000000E+000
  0.0000000E+000
  0.0000000E+000
  0.0000000E+000
  0.0000000E+000
  0.0000000E+000
  0.0000000E+000
  0.0000000E+000
  0.0000000E+000
  0.0000000E+000
  0.0000000E+000
  0.0000000E+000
  0.0000000E+000
  0.0000000E+000
  0.0000000E+000
  0.0000000E+000
  0.0000000E+000
  0.0000000E+000
  0.0000000E+000
  0.0000000E+000
  0.0000000E+000
  0.0000000E+000
  0.0000000E+000
  0.0000000E+000
  0.0000000E+000
  0.0000000E+000
  0.0000000E+000
  0.0000000E+000
  0.0000000E+000
  0.0000000E+000
  0.0000000E+000
  0.0000000E+000
  0.0000000E+000
  0.0000000E+000
  0.0000000E+000
  0.0000000E+000
  0.0000000E+000
  0.0000000E+000
  0.0000000E+000
  0.0000000E+000
  0.0000000E+000
  0.0000000E+000
  0.0000000E+000
  0.0000000E+000
  0.0000000E+000
  0.0000000E+000
  0.0000000E+000
  0.0000000E+000
  0.0000000E+000
  0.0000000E+000
  0.0000000E+000
  0.0000000E+000
  0.0000000E+000
  0.0000000E+000
  0.0000000E+000
  0.0000000E+000
  0.0000000E+000
  0.0000000E+000
  0.0000000E+000
  0.0000000E+000
  0.0000000E+000
  0.0000000E+000
  0.0000000E+000
  0.0000000E+000
  0.0000000E+000
  0.0000000E+000
  0.0000000E+000
  0.0000000E+000
  0.0000000E+000
  0.0000000E+000
  0.0000000E+000
  0.0000000E+000
  0.0000000E+000
  0.0000000E+000
  0.0000000E+000
  0.0000000E+000
  0.0000000E+000
  0.0000000E+000
  0.0000000E+000
  0.0000000E+000
  0.0000000E+000
  0.0000000E+000
  0.0000000E+000
  0.0000000E+000
  0.0000000E+000
  0.0000000E+000
  0.0000000E+000
  0.0000000E+000
  0.0000000E+000
  0.0000000E+000
  0.0000000E+000
  0.0000000E+000
  0.0000000E+000
  0.0000000E+000
  0.0000000E+000
  0.0000000E+000
  0.0000000E+000
  0.0000000E+000
  0.0000000E+000
  0.0000000E+000
  0.0000000E+000
  0.0000000E+000
  0.0000000E+000
  0.0000000E+000
  0.0000000E+000
  0.0000000E+000
  0.0000000E+000
  0.0000000E+000
  0.0000000E+000
  0.0000000E+000
  0.0000000E+000
  0.0000000E+000
  0.0000000E+000
  0.0000000E+000
  0.0000000E+000
  0.0000000E+000
  0.0000000E+000
  0.0000000E+000
  0.0000000E+000
  0.0000000E+000
  0.0000000E+000
  0.0000000E+000
  0.0000000E+000
  0.0000000E+000
  0.0000000E+000
  0.0000000E+000
  0.0000000E+000
  0.0000000E+000
  0.0000000E+000
  0.0000000E+000
  0.0000000E+000
  0.0000000E+000
  0.0000000E+000
  0.0000000E+000
  0.0000000E+000
  0.0000000E+000
  0.0000000E+000
  0.0000000E+000
  0.0000000E+000
  0.0000000E+000
  0.0000000E+000
  0.0000000E+000
  0.0000000E+000
  0.0000000E+000
  0.0000000E+000
  0.0000000E+000
  0.0000000E+000
  0.0000000E+000
  0.0000000E+000
  0.0000000E+000
  0.0000000E+000
  0.0000000E+000
  0.0000000E+000
  0.0000000E+000
  0.0000000E+000
  0.0000000E+000
  0.0000000E+000
  0.0000000E+000
  0.0000000E+000
  0.0000000E+000
  0.0000000E+000
  0.0000000E+000
  0.0000000E+000
  0.0000000E+000
  0.0000000E+000
  0.0000000E+000
  0.0000000E+000
  0.0000000E+000
  0.0000000E+000
  0.0000000E+000
  0.0000000E+000
  0.0000000E+000
  0.0000000E+000
  0.0000000E+000
  0.0000000E+000
  0.0000000E+000
  0.0000000E+000
  0.0000000E+000
  0.0000000E+000
  0.0000000E+000
  0.0000000E+000
  0.0000000E+000
  0.0000000E+000
  0.0000000E+000
  0.0000000E+000
  0.0000000E+000
  0.0000000E+000
  0.0000000E+000
  0.0000000E+000
  0.0000000E+000
  0.0000000E+000
  0.0000000E+000
  0.0000000E+000
  0.0000000E+000
  0.0000000E+000
  0.0000000E+000
  0.0000000E+000
  0.0000000E+000
  0.0000000E+000
  0.0000000E+000
  0.0000000E+000
  0.0000000E+000
  0.0000000E+000
  0.0000000E+000
  0.0000000E+000
  0.0000000E+000
  0.0000000E+000
  0.0000000E+000
  0.0000000E+000
  0.0000000E+000
  0.0000000E+000
  0.0000000E+000
  0.0000000E+000
  0.0000000E+000
  0.0000000E+000
  0.0000000E+000
  0.0000000E+000
  0.0000000E+000
  0.0000000E+000
  0.0000000E+000
  0.0000000E+000
  0.0000000E+000
  0.0000000E+000
  0.0000000E+000
  0.0000000E+000
  0.0000000E+000
  0.0000000E+000
  0.0000000E+000
  0.0000000E+000
  0.0000000E+000
  0.0000000E+000
  0.0000000E+000
  0.0000000E+000
  0.0000000E+000
  0.0000000E+000
  0.0000000E+000
  0.0000000E+000
  0.0000000E+000
  0.0000000E+000
  0.0000000E+000
  0.0000000E+000
  0.0000000E+000
  0.0000000E+000
  0.0000000E+000
  0.0000000E+000
  0.0000000E+000
  0.0000000E+000
  0.0000000E+000
  0.0000000E+000
  0.0000000E+000
  0.0000000E+000
  0.0000000E+000
  0.0000000E+000
  0.0000000E+000
  0.0000000E+000
  0.0000000E+000
  0.0000000E+000
  0.0000000E+000
  0.0000000E+000
  0.0000000E+000
  0.0000000E+000
  0.0000000E+000
  0.0000000E+000
  0.0000000E+000
  0.0000000E+000
  0.0000000E+000
  0.0000000E+000
  0.0000000E+000
  0.0000000E+000
  0.0000000E+000
  0.0000000E+000
  0.0000000E+000
  0.0000000E+000
  0.0000000E+000
  0.0000000E+000
  0.0000000E+000
  0.0000000E+000
  0.0000000E+000
  0.0000000E+000
  0.0000000E+000
  0.0000000E+000
  0.0000000E+000
  0.0000000E+000
  0.0000000E+000
  0.0000000E+000
  0.0000000E+000
  0.0000000E+000
  0.0000000E+000
  0.0000000E+000
  0.0000000E+000
  0.0000000E+000
  0.0000000E+000
  0.0000000E+000
  0.0000000E+000
  0.0000000E+000
  0.0000000E+000
  0.0000000E+000
  0.0000000E+000
  0.0000000E+000
  0.0000000E+000
  0.0000000E+000
  0.0000000E+000
  0.0000000E+000
  0.0000000E+000
  0.0000000E+000
  0.0000000E+000
  0.0000000E+000
  0.0000000E+000
  0.0000000E+000
  0.0000000E+000
  0.0000000E+000
  0.0000000E+000
  0.0000000E+000
  0.0000000E+000
  0.0000000E+000
  0.0000000E+000
  0.0000000E+000
  0.0000000E+000
  0.0000000E+000
  0.0000000E+000
  0.0000000E+000
  0.0000000E+000
  0.0000000E+000
  0.0000000E+000
  0.0000000E+000
  0.0000000E+000
  0.0000000E+000
  0.0000000E+000
  0.0000000E+000
  0.0000000E+000
  0.0000000E+000
  0.0000000E+000
  0.0000000E+000
  0.0000000E+000
  0.0000000E+000
  0.0000000E+000
  0.0000000E+000
  0.0000000E+000
  0.0000000E+000
  0.0000000E+000
  0.0000000E+000
  0.0000000E+000
  0.0000000E+000
  0.0000000E+000
  0.0000000E+000
  0.0000000E+000
  0.0000000E+000
  0.0000000E+000
  0.0000000E+000
  0.0000000E+000
  0.0000000E+000
  0.0000000E+000
  0.0000000E+000
  0.0000000E+000
  0.0000000E+000
  0.0000000E+000
  0.0000000E+000
  0.0000000E+000
  0.0000000E+000
  0.0000000E+000
  0.0000000E+000
  0.0000000E+000
  0.0000000E+000
  0.0000000E+000
  0.0000000E+000
  0.0000000E+000
  0.0000000E+000
  0.0000000E+000
  0.0000000E+000
  0.0000000E+000
  0.0000000E+000
  0.0000000E+000
  0.0000000E+000
  0.0000000E+000
  0.0000000E+000
  0.0000000E+000
  0.0000000E+000
  0.0000000E+000
  0.0000000E+000
  0.0000000E+000
  0.0000000E+000
  0.0000000E+000
  0.0000000E+000
  0.0000000E+000
  0.0000000E+000
  0.0000000E+000
  0.0000000E+000
  0.0000000E+000
  0.0000000E+000
  0.0000000E+000
  0.0000000E+000
  0.0000000E+000
  0.0000000E+000
  0.0000000E+000
  0.0000000E+000
  0.0000000E+000
  0.0000000E+000
  0.0000000E+000
  0.0000000E+000
  0.0000000E+000
  0.0000000E+000
  0.0000000E+000
  0.0000000E+000
  0.0000000E+000
  0.0000000E+000
  0.0000000E+000
  0.0000000E+000
  0.0000000E+000
  0.0000000E+000
  0.0000000E+000
  0.0000000E+000
  0.0000000E+000
  0.0000000E+000
  0.0000000E+000
  0.0000000E+000
  0.0000000E+000
  0.0000000E+000
  0.0000000E+000
  0.0000000E+000
  0.0000000E+000
  0.0000000E+000
  0.0000000E+000
  0.0000000E+000
  0.0000000E+000
  0.0000000E+000
  0.0000000E+000
  0.0000000E+000
  0.0000000E+000
  0.0000000E+000
  0.0000000E+000
  0.0000000E+000
  0.0000000E+000
  0.0000000E+000
  0.0000000E+000
  0.0000000E+000
  0.0000000E+000
  0.0000000E+000
  0.0000000E+000
  0.0000000E+000
  0.0000000E+000
  0.0000000E+000
  0.0000000E+000
  0.0000000E+000
  0.0000000E+000
  0.0000000E+000
  0.0000000E+000
  0.0000000E+000
  0.0000000E+000
  0.0000000E+000
  0.0000000E+000
  0.0000000E+000
  0.0000000E+000
  0.0000000E+000
  0.0000000E+000
  0.0000000E+000
  0.0000000E+000
  0.0000000E+000
  0.0000000E+000
  0.0000000E+000
  0.0000000E+000
  0.0000000E+000
  0.0000000E+000
  0.0000000E+000
  0.0000000E+000
  0.0000000E+000
  0.0000000E+000
  0.0000000E+000
  0.0000000E+000
  0.0000000E+000
  0.0000000E+000
  0.0000000E+000
  0.0000000E+000
  0.0000000E+000
  0.0000000E+000
  0.0000000E+000
  0.0000000E+000
  0.0000000E+000
  0.0000000E+000
  0.0000000E+000
  0.0000000E+000
  0.0000000E+000
  0.0000000E+000
  0.0000000E+000
  0.0000000E+000
  0.0000000E+000
  0.0000000E+000
  0.0000000E+000
  0.0000000E+000
  0.0000000E+000
  0.0000000E+000
  0.0000000E+000
  0.0000000E+000
  0.0000000E+000
  0.0000000E+000
  0.0000000E+000
  0.0000000E+000
  0.0000000E+000
  0.0000000E+000
  0.0000000E+000
  0.0000000E+000
  0.0000000E+000
  0.0000000E+000
  0.0000000E+000
  0.0000000E+000
  0.0000000E+000
  0.0000000E+000
  0.0000000E+000
  0.0000000E+000
  0.0000000E+000
  0.0000000E+000
  0.0000000E+000
  0.0000000E+000
  0.0000000E+000
  0.0000000E+000
  0.0000000E+000
  0.0000000E+000
  0.0000000E+000
  0.0000000E+000
  0.0000000E+000
  0.0000000E+000
  0.0000000E+000
  0.0000000E+000
  0.0000000E+000
  0.0000000E+000
  0.0000000E+000
  0.0000000E+000
  0.0000000E+000
  0.0000000E+000
  0.0000000E+000
  0.0000000E+000
  0.0000000E+000
  0.0000000E+000
  0.0000000E+000
  0.0000000E+000
  0.0000000E+000
  0.0000000E+000
  0.0000000E+000
  0.0000000E+000
  0.0000000E+000
  0.0000000E+000
  0.0000000E+000
  0.0000000E+000
  0.0000000E+000
  0.0000000E+000
  0.0000000E+000
  0.0000000E+000
  0.0000000E+000
  0.0000000E+000
  0.0000000E+000
  0.0000000E+000
  0.0000000E+000
  0.0000000E+000
  0.0000000E+000
  0.0000000E+000
  0.0000000E+000
  0.0000000E+000
  0.0000000E+000
  0.0000000E+000
  0.0000000E+000
  0.0000000E+000
  0.0000000E+000
  0.0000000E+000
  0.0000000E+000
  0.0000000E+000
  0.0000000E+000
  0.0000000E+000
  0.0000000E+000
  0.0000000E+000
  0.0000000E+000
  0.0000000E+000
  0.0000000E+000
  0.0000000E+000
  0.0000000E+000
  0.0000000E+000
  0.0000000E+000
  0.0000000E+000
  0.0000000E+000
  0.0000000E+000
  0.0000000E+000
  0.0000000E+000
  0.0000000E+000
  0.0000000E+000
  0.0000000E+000
  0.0000000E+000
  0.0000000E+000
  0.0000000E+000
  0.0000000E+000
  0.0000000E+000
  0.0000000E+000
  0.0000000E+000
  0.0000000E+000
  0.0000000E+000
  0.0000000E+000
  0.0000000E+000
  0.0000000E+000
  0.0000000E+000
  0.0000000E+000
  0.0000000E+000
  0.0000000E+000
  0.0000000E+000
  0.0000000E+000
  0.0000000E+000
  0.0000000E+000
  0.0000000E+000
  0.0000000E+000
  0.0000000E+000
  0.0000000E+000
  0.0000000E+000
  0.0000000E+000
  0.0000000E+000
  0.0000000E+000
  0.0000000E+000
  0.0000000E+000
  0.0000000E+000
  0.0000000E+000
  0.0000000E+000
  0.0000000E+000
  0.0000000E+000
  0.0000000E+000
  0.0000000E+000
  0.0000000E+000
  0.0000000E+000
  0.0000000E+000
  0.0000000E+000
  0.0000000E+000
  0.0000000E+000
  0.0000000E+000
  0.0000000E+000
  0.0000000E+000
  0.0000000E+000
  0.0000000E+000
  0.0000000E+000
  0.0000000E+000
  0.0000000E+000
  0.0000000E+000
  0.0000000E+000
  0.0000000E+000
  0.0000000E+000
  0.0000000E+000
  0.0000000E+000
  0.0000000E+000
  0.0000000E+000
  0.0000000E+000
  0.0000000E+000
  0.0000000E+000
  0.0000000E+000
  0.0000000E+000
  0.0000000E+000
  0.0000000E+000
  0.0000000E+000
  0.0000000E+000
  0.0000000E+000
  0.0000000E+000
  0.0000000E+000
  0.0000000E+000
  0.0000000E+000
  0.0000000E+000
  0.0000000E+000
  0.0000000E+000
  0.0000000E+000
  0.0000000E+000
  0.0000000E+000
  0.0000000E+000
  0.0000000E+000
  0.0000000E+000
  0.0000000E+000
  0.0000000E+000
  0.0000000E+000
  0.0000000E+000
  0.0000000E+000
  0.0000000E+000
  0.0000000E+000
  0.0000000E+000
  0.0000000E+000
  0.0000000E+000
  0.0000000E+000
  0.0000000E+000
  0.0000000E+000
  0.0000000E+000
  0.0000000E+000
  0.0000000E+000
  0.0000000E+000
  0.0000000E+000
  0.0000000E+000
  0.0000000E+000
  0.0000000E+000
  0.0000000E+000
  0.0000000E+000
  0.0000000E+000
  0.0000000E+000
  0.0000000E+000
  0.0000000E+000
  0.0000000E+000
  0.0000000E+000
  0.0000000E+000
  0.0000000E+000
  0.0000000E+000
  0.0000000E+000
  0.0000000E+000
  0.0000000E+000
  0.0000000E+000
  0.0000000E+000
  0.0000000E+000
  0.0000000E+000
  0.0000000E+000
  0.0000000E+000
  0.0000000E+000
  0.0000000E+000
  0.0000000E+000
  0.0000000E+000
  0.0000000E+000
  0.0000000E+000
  0.0000000E+000
  0.0000000E+000
  0.0000000E+000
  0.0000000E+000
  0.0000000E+000
  0.0000000E+000
  0.0000000E+000
  0.0000000E+000
  0.0000000E+000
  0.0000000E+000
  0.0000000E+000
  0.0000000E+000
  0.0000000E+000
  0.0000000E+000
  0.0000000E+000
  0.0000000E+000
  0.0000000E+000
  0.0000000E+000
  0.0000000E+000
  0.0000000E+000
  0.0000000E+000
  0.0000000E+000
  0.0000000E+000
  0.0000000E+000
  0.0000000E+000
  0.0000000E+000
  0.0000000E+000
  0.0000000E+000
  0.0000000E+000
  0.0000000E+000
  0.0000000E+000
  0.0000000E+000
  0.0000000E+000
  0.0000000E+000
  0.0000000E+000
  0.0000000E+000
  0.0000000E+000
  0.0000000E+000
  0.0000000E+000
  0.0000000E+000
  0.0000000E+000
  0.0000000E+000
  0.0000000E+000
  0.0000000E+000
  0.0000000E+000
  0.0000000E+000
  0.0000000E+000
  0.0000000E+000
  0.0000000E+000
  0.0000000E+000
  0.0000000E+000
  0.0000000E+000
  0.0000000E+000
  0.0000000E+000
  0.0000000E+000
  0.0000000E+000
  0.0000000E+000
  0.0000000E+000
  0.0000000E+000
  0.0000000E+000
  0.0000000E+000
  0.0000000E+000
  0.0000000E+000
  0.0000000E+000
  0.0000000E+000
  0.0000000E+000
  0.0000000E+000
  0.0000000E+000
  0.0000000E+000
  0.0000000E+000
  0.0000000E+000
  0.0000000E+000
  0.0000000E+000
  0.0000000E+000
  0.0000000E+000
  0.0000000E+000
  0.0000000E+000
  0.0000000E+000
  0.0000000E+000
  0.0000000E+000
  0.0000000E+000
  0.0000000E+000
  0.0000000E+000
  0.0000000E+000
  0.0000000E+000
  0.0000000E+000
  0.0000000E+000
  0.0000000E+000
  0.0000000E+000
  0.0000000E+000
  0.0000000E+000
  0.0000000E+000
  0.0000000E+000
  0.0000000E+000
  0.0000000E+000
  0.0000000E+000
  0.0000000E+000
  0.0000000E+000
  0.0000000E+000
  0.0000000E+000
  0.0000000E+000
  0.0000000E+000
  0.0000000E+000
  0.0000000E+000
  0.0000000E+000
  0.0000000E+000
  0.0000000E+000
  0.0000000E+000
  0.0000000E+000
  0.0000000E+000
  0.0000000E+000
  0.0000000E+000
  0.0000000E+000
  0.0000000E+000
  0.0000000E+000
  0.0000000E+000
  0.0000000E+000
  0.0000000E+000
  0.0000000E+000
  0.0000000E+000
  0.0000000E+000
  0.0000000E+000
  0.0000000E+000
  0.0000000E+000
  0.0000000E+000
  0.0000000E+000
  0.0000000E+000
  0.0000000E+000
  0.0000000E+000
  0.0000000E+000
  0.0000000E+000
  0.0000000E+000
  0.0000000E+000
  0.0000000E+000
  0.0000000E+000
  0.0000000E+000
  0.0000000E+000
  0.0000000E+000
  0.0000000E+000
  0.0000000E+000
  0.0000000E+000
  0.0000000E+000
  0.0000000E+000
  0.0000000E+000
  0.0000000E+000
  0.0000000E+000
  0.0000000E+000
  0.0000000E+000
  0.0000000E+000
  0.0000000E+000
  0.0000000E+000
  0.0000000E+000
  0.0000000E+000
  0.0000000E+000
  0.0000000E+000
  0.0000000E+000
  0.0000000E+000
  0.0000000E+000
  0.0000000E+000
  0.0000000E+000
  0.0000000E+000
  0.0000000E+000
  0.0000000E+000
  0.0000000E+000
  0.0000000E+000
  0.0000000E+000
  0.0000000E+000
  0.0000000E+000
  0.0000000E+000
  0.0000000E+000
  0.0000000E+000
  0.0000000E+000
  0.0000000E+000
  0.0000000E+000
  0.0000000E+000
  0.0000000E+000
  0.0000000E+000
  0.0000000E+000
  0.0000000E+000
  0.0000000E+000
  0.0000000E+000
  0.0000000E+000
  0.0000000E+000
  0.0000000E+000
  0.0000000E+000
  0.0000000E+000
  0.0000000E+000
  0.0000000E+000
  0.0000000E+000
  0.0000000E+000
  0.0000000E+000
  0.0000000E+000
  0.0000000E+000
  0.0000000E+000
  0.0000000E+000
  0.0000000E+000
  0.0000000E+000
  0.0000000E+000
  0.0000000E+000
  0.0000000E+000
  0.0000000E+000
  0.0000000E+000
  0.0000000E+000
  0.0000000E+000
  0.0000000E+000
  0.0000000E+000
  0.0000000E+000
  0.0000000E+000
  0.0000000E+000
  0.0000000E+000
  0.0000000E+000
  0.0000000E+000
  0.0000000E+000
  0.0000000E+000
  0.0000000E+000
  0.0000000E+000
  0.0000000E+000
  0.0000000E+000
  0.0000000E+000
  0.0000000E+000
  0.0000000E+000
  0.0000000E+000
  0.0000000E+000
  0.0000000E+000
  0.0000000E+000
  0.0000000E+000
  0.0000000E+000
  0.0000000E+000
  0.0000000E+000
  0.0000000E+000
  0.0000000E+000
  0.0000000E+000
  0.0000000E+000
  0.0000000E+000
  0.0000000E+000
  0.0000000E+000
  0.0000000E+000
  0.0000000E+000
  0.0000000E+000
  0.0000000E+000
  0.0000000E+000
  0.0000000E+000
  0.0000000E+000
  0.0000000E+000
  0.0000000E+000
  0.0000000E+000
  0.0000000E+000
  0.0000000E+000
  0.0000000E+000
  0.0000000E+000
  0.0000000E+000
  0.0000000E+000
  0.0000000E+000
  0.0000000E+000
  0.0000000E+000
  0.0000000E+000
  0.0000000E+000
  0.0000000E+000
  0.0000000E+000
  0.0000000E+000
  0.0000000E+000
  0.0000000E+000
  0.0000000E+000
  0.0000000E+000
  0.0000000E+000
  0.0000000E+000
  0.0000000E+000
  0.0000000E+000
  0.0000000E+000
  0.0000000E+000
  0.0000000E+000
  0.0000000E+000
  0.0000000E+000
  0.0000000E+000
  0.0000000E+000
  0.0000000E+000
  0.0000000E+000
  0.0000000E+000
  0.0000000E+000
  0.0000000E+000
  0.0000000E+000
  0.0000000E+000
  0.0000000E+000
  0.0000000E+000
  0.0000000E+000
  0.0000000E+000
  0.0000000E+000
  0.0000000E+000
  0.0000000E+000
  0.0000000E+000
  0.0000000E+000
  0.0000000E+000
  0.0000000E+000
  0.0000000E+000
  0.0000000E+000
  0.0000000E+000
  0.0000000E+000
  0.0000000E+000
  0.0000000E+000
  0.0000000E+000
  0.0000000E+000
  0.0000000E+000
  0.0000000E+000
  0.0000000E+000
  0.0000000E+000
  0.0000000E+000
  0.0000000E+000
  0.0000000E+000
  0.0000000E+000
  0.0000000E+000
  0.0000000E+000
  0.0000000E+000
  0.0000000E+000
  0.0000000E+000
  0.0000000E+000
  0.0000000E+000
  0.0000000E+000
  0.0000000E+000
  0.0000000E+000
  0.0000000E+000
  0.0000000E+000
  0.0000000E+000
  0.0000000E+000
  0.0000000E+000
  0.0000000E+000
  0.0000000E+000
  0.0000000E+000
  0.0000000E+000
  0.0000000E+000
  0.0000000E+000
  0.0000000E+000
  0.0000000E+000
  0.0000000E+000
  0.0000000E+000
  0.0000000E+000
  0.0000000E+000
  0.0000000E+000
  0.0000000E+000
  0.0000000E+000
  0.0000000E+000
  0.0000000E+000
  0.0000000E+000
  0.0000000E+000
  0.0000000E+000
  0.0000000E+000
  0.0000000E+000
  0.0000000E+000
  0.0000000E+000
  0.0000000E+000
  0.0000000E+000
  0.0000000E+000
  0.0000000E+000
  0.0000000E+000
  0.0000000E+000
  0.0000000E+000
  0.0000000E+000
  0.0000000E+000
  0.0000000E+000
  0.0000000E+000
  0.0000000E+000
  0.0000000E+000
  0.0000000E+000
  0.0000000E+000
  0.0000000E+000
  0.0000000E+000
  0.0000000E+000
  0.0000000E+000
  0.0000000E+000
  0.0000000E+000
  0.0000000E+000
  0.0000000E+000
  0.0000000E+000
  0.0000000E+000
  0.0000000E+000
  0.0000000E+000
  0.0000000E+000
  0.0000000E+000
  0.0000000E+000
  0.0000000E+000
  0.0000000E+000
  0.0000000E+000
  0.0000000E+000
  0.0000000E+000
  0.0000000E+000
  0.0000000E+000
  0.0000000E+000
  0.0000000E+000
  0.0000000E+000
  0.0000000E+000
  0.0000000E+000
  0.0000000E+000
  0.0000000E+000
  0.0000000E+000
  0.0000000E+000
  0.0000000E+000
  0.0000000E+000
  0.0000000E+000
  0.0000000E+000
  0.0000000E+000
  0.0000000E+000
  0.0000000E+000
  0.0000000E+000
  0.0000000E+000
  0.0000000E+000
  0.0000000E+000
  0.0000000E+000
  0.0000000E+000
  0.0000000E+000
  0.0000000E+000
  0.0000000E+000
  0.0000000E+000
  0.0000000E+000
  0.0000000E+000
  0.0000000E+000
  0.0000000E+000
  0.0000000E+000
  0.0000000E+000
  0.0000000E+000
  0.0000000E+000
  0.0000000E+000
  0.0000000E+000
  0.0000000E+000
  0.0000000E+000
  0.0000000E+000
  0.0000000E+000
  0.0000000E+000
  0.0000000E+000
  0.0000000E+000
  0.0000000E+000
  0.0000000E+000
  0.0000000E+000
  0.0000000E+000
  0.0000000E+000
  0.0000000E+000
  0.0000000E+000
  0.0000000E+000
  0.0000000E+000
  0.0000000E+000
  0.0000000E+000
  0.0000000E+000
  0.0000000E+000
  0.0000000E+000
  0.0000000E+000
  0.0000000E+000
  0.0000000E+000
  0.0000000E+000
  0.0000000E+000
  0.0000000E+000
  0.0000000E+000
  0.0000000E+000
  0.0000000E+000
  0.0000000E+000
  0.0000000E+000
  0.0000000E+000
  0.0000000E+000
  0.0000000E+000
  0.0000000E+000
  0.0000000E+000
  0.0000000E+000
  0.0000000E+000
  0.0000000E+000
  0.0000000E+000
  0.0000000E+000
  0.0000000E+000
  0.0000000E+000
  0.0000000E+000
  0.0000000E+000
  0.0000000E+000
  0.0000000E+000
  0.0000000E+000
  0.0000000E+000
  0.0000000E+000
  0.0000000E+000
  0.0000000E+000
  0.0000000E+000
  0.0000000E+000
  0.0000000E+000
  0.0000000E+000
  0.0000000E+000
  0.0000000E+000
  0.0000000E+000
  0.0000000E+000
  0.0000000E+000
  0.0000000E+000
  0.0000000E+000
  0.0000000E+000
  0.0000000E+000
  0.0000000E+000
  0.0000000E+000
  0.0000000E+000
  0.0000000E+000
  0.0000000E+000
  0.0000000E+000
  0.0000000E+000
  0.0000000E+000
  0.0000000E+000
  0.0000000E+000
  0.0000000E+000
  0.0000000E+000
  0.0000000E+000
  0.0000000E+000
  0.0000000E+000
  0.0000000E+000
  0.0000000E+000
  0.0000000E+000
  0.0000000E+000
  0.0000000E+000
  0.0000000E+000
  0.0000000E+000
  0.0000000E+000
  0.0000000E+000
  0.0000000E+000
  0.0000000E+000
  0.0000000E+000
  0.0000000E+000
  0.0000000E+000
  0.0000000E+000
  0.0000000E+000
  0.0000000E+000
  0.0000000E+000
  0.0000000E+000
  0.0000000E+000
  0.0000000E+000
  0.0000000E+000
  0.0000000E+000
  0.0000000E+000
  0.0000000E+000
  0.0000000E+000
  0.0000000E+000
  0.0000000E+000
  0.0000000E+000
  0.0000000E+000
  0.0000000E+000
  0.0000000E+000
  0.0000000E+000
  0.0000000E+000
  0.0000000E+000
  0.0000000E+000
  0.0000000E+000
  0.0000000E+000
  0.0000000E+000
  0.0000000E+000
  0.0000000E+000
  0.0000000E+000
  0.0000000E+000
  0.0000000E+000
  0.0000000E+000
  0.0000000E+000
  0.0000000E+000
  0.0000000E+000
  0.0000000E+000
  0.0000000E+000
  0.0000000E+000
  0.0000000E+000
  0.0000000E+000
  0.0000000E+000
  0.0000000E+000
  0.0000000E+000
  0.0000000E+000
  0.0000000E+000
  0.0000000E+000
  0.0000000E+000
  0.0000000E+000
  0.0000000E+000
  0.0000000E+000
  0.0000000E+000
  0.0000000E+000
  0.0000000E+000
  0.0000000E+000
  0.0000000E+000
  0.0000000E+000
  0.0000000E+000
  0.0000000E+000
  0.0000000E+000
  0.0000000E+000
  0.0000000E+000
  0.0000000E+000
  0.0000000E+000
  0.0000000E+000
  0.0000000E+000
  0.0000000E+000
  0.0000000E+000
  0.0000000E+000
  0.0000000E+000
  0.0000000E+000
  0.0000000E+000
  0.0000000E+000
  0.0000000E+000
  0.0000000E+000
  0.0000000E+000
  0.0000000E+000
  0.0000000E+000
  0.0000000E+000
  0.0000000E+000
  0.0000000E+000
  0.0000000E+000
  0.0000000E+000
  0.0000000E+000
  0.0000000E+000
  0.0000000E+000
  0.0000000E+000
  0.0000000E+000
  0.0000000E+000
  0.0000000E+000
  0.0000000E+000
  0.0000000E+000
  0.0000000E+000
  0.0000000E+000
  0.0000000E+000
  0.0000000E+000
  0.0000000E+000
  0.0000000E+000
  0.0000000E+000
  0.0000000E+000
  0.0000000E+000
  0.0000000E+000
  0.0000000E+000
  0.0000000E+000
  0.0000000E+000
  0.0000000E+000
  0.0000000E+000
  0.0000000E+000
  0.0000000E+000
  0.0000000E+000
  0.0000000E+000
  0.0000000E+000
  0.0000000E+000
  0.0000000E+000
  0.0000000E+000
  0.0000000E+000
  0.0000000E+000
  0.0000000E+000
  0.0000000E+000
  0.0000000E+000
  0.0000000E+000
  0.0000000E+000
  0.0000000E+000
  0.0000000E+000
  0.0000000E+000
  0.0000000E+000
  0.0000000E+000
  0.0000000E+000
  0.0000000E+000
  0.0000000E+000
  0.0000000E+000
  0.0000000E+000
  0.0000000E+000
  0.0000000E+000
  0.0000000E+000
  0.0000000E+000
  0.0000000E+000
  0.0000000E+000
  0.0000000E+000
  0.0000000E+000
  0.0000000E+000
  0.0000000E+000
  0.0000000E+000
  0.0000000E+000
  0.0000000E+000
  0.0000000E+000
  0.0000000E+000
  0.0000000E+000
  0.0000000E+000
  0.0000000E+000
  0.0000000E+000
  0.0000000E+000
  0.0000000E+000
  0.0000000E+000
  0.0000000E+000
  0.0000000E+000
  0.0000000E+000
  0.0000000E+000
  0.0000000E+000
  0.0000000E+000
  0.0000000E+000
  0.0000000E+000
  0.0000000E+000
  0.0000000E+000
  0.0000000E+000
  0.0000000E+000
  0.0000000E+000
  0.0000000E+000
  0.0000000E+000
  0.0000000E+000
  0.0000000E+000
  0.0000000E+000
  0.0000000E+000
  0.0000000E+000
  0.0000000E+000
  0.0000000E+000
  0.0000000E+000
  0.0000000E+000
  0.0000000E+000
  0.0000000E+000
  0.0000000E+000
  0.0000000E+000
  0.0000000E+000
  0.0000000E+000
  0.0000000E+000
  0.0000000E+000
  0.0000000E+000
  0.0000000E+000
  0.0000000E+000
  0.0000000E+000
  0.0000000E+000
  0.0000000E+000
  0.0000000E+000
  0.0000000E+000
  0.0000000E+000
  0.0000000E+000
  0.0000000E+000
  0.0000000E+000
  0.0000000E+000
  0.0000000E+000
  0.0000000E+000
  0.0000000E+000
  0.0000000E+000
  0.0000000E+000
  0.0000000E+000
  0.0000000E+000
  0.0000000E+000
  0.0000000E+000
  0.0000000E+000
  0.0000000E+000
  0.0000000E+000
  0.0000000E+000
  0.0000000E+000
  0.0000000E+000
  0.0000000E+000
  0.0000000E+000
  0.0000000E+000
  0.0000000E+000
  0.0000000E+000
  0.0000000E+000
  0.0000000E+000
  0.0000000E+000
  0.0000000E+000
  0.0000000E+000
  0.0000000E+000
  0.0000000E+000
  0.0000000E+000
  0.0000000E+000
  0.0000000E+000
  0.0000000E+000
  0.0000000E+000
  0.0000000E+000
  0.0000000E+000
  0.0000000E+000
  0.0000000E+000
  0.0000000E+000
  0.0000000E+000
  0.0000000E+000
  0.0000000E+000
  0.0000000E+000
  0.0000000E+000
  0.0000000E+000
  0.0000000E+000
  0.0000000E+000
  0.0000000E+000
  0.0000000E+000
  0.0000000E+000
  0.0000000E+000
  0.0000000E+000
  0.0000000E+000
  0.0000000E+000
  0.0000000E+000
  0.0000000E+000
  0.0000000E+000
  0.0000000E+000
  0.0000000E+000
  0.0000000E+000
  0.0000000E+000
  0.0000000E+000
  0.0000000E+000
  0.0000000E+000
  0.0000000E+000
  0.0000000E+000
  0.0000000E+000
  0.0000000E+000
  0.0000000E+000
  0.0000000E+000
  0.0000000E+000
  0.0000000E+000
  0.0000000E+000
  0.0000000E+000
  0.0000000E+000
  0.0000000E+000
  0.0000000E+000
  0.0000000E+000
  0.0000000E+000
  0.0000000E+000
  0.0000000E+000
  0.0000000E+000
  0.0000000E+000
  0.0000000E+000
  0.0000000E+000
  0.0000000E+000
  0.0000000E+000
  0.0000000E+000
  0.0000000E+000
  0.0000000E+000
  0.0000000E+000
  0.0000000E+000
  0.0000000E+000
  0.0000000E+000
  0.0000000E+000
  0.0000000E+000
  0.0000000E+000
  0.0000000E+000
  0.0000000E+000
  0.0000000E+000
  0.0000000E+000
  0.0000000E+000
  0.0000000E+000
  0.0000000E+000
  0.0000000E+000
  0.0000000E+000
  0.0000000E+000
  0.0000000E+000
  0.0000000E+000
  0.0000000E+000
  0.0000000E+000
  0.0000000E+000
  0.0000000E+000
  0.0000000E+000
  0.0000000E+000
  0.0000000E+000
  0.0000000E+000
  0.0000000E+000
  0.0000000E+000
  0.0000000E+000
  0.0000000E+000
  0.0000000E+000
  0.0000000E+000
  0.0000000E+000
  0.0000000E+000
  0.0000000E+000
  0.0000000E+000
  0.0000000E+000
  0.0000000E+000
  0.0000000E+000
  0.0000000E+000
  0.0000000E+000
  0.0000000E+000
  0.0000000E+000
  0.0000000E+000
  0.0000000E+000
  0.0000000E+000
  0.0000000E+000
  0.0000000E+000
  0.0000000E+000
  0.0000000E+000
  0.0000000E+000
  0.0000000E+000
  0.0000000E+000
  0.0000000E+000
  0.0000000E+000
  0.0000000E+000
  0.0000000E+000
  0.0000000E+000
  0.0000000E+000
  0.0000000E+000
  0.0000000E+000
  0.0000000E+000
  0.0000000E+000
  0.0000000E+000
  0.0000000E+000
  0.0000000E+000
  0.0000000E+000
  0.0000000E+000
  0.0000000E+000
  0.0000000E+000
  0.0000000E+000
  0.0000000E+000
  0.0000000E+000
  0.0000000E+000
  0.0000000E+000
  0.0000000E+000
  0.0000000E+000
  0.0000000E+000
  0.0000000E+000
  0.0000000E+000
  0.0000000E+000
  0.0000000E+000
  0.0000000E+000
  0.0000000E+000
  0.0000000E+000
  0.0000000E+000
  0.0000000E+000
  0.0000000E+000
  0.0000000E+000
  0.0000000E+000
  0.0000000E+000
  0.0000000E+000
  0.0000000E+000
  0.0000000E+000
  0.0000000E+000
  0.0000000E+000
  0.0000000E+000
  0.0000000E+000
  0.0000000E+000
  0.0000000E+000
  0.0000000E+000
  0.0000000E+000
  0.0000000E+000
  0.0000000E+000
  0.0000000E+000
  0.0000000E+000
  0.0000000E+000
  0.0000000E+000
  0.0000000E+000
  0.0000000E+000
  0.0000000E+000
  0.0000000E+000
  0.0000000E+000
  0.0000000E+000
  0.0000000E+000
  0.0000000E+000
  0.0000000E+000
  0.0000000E+000
  0.0000000E+000
  0.0000000E+000
  0.0000000E+000
  0.0000000E+000
  0.0000000E+000
  0.0000000E+000
  0.0000000E+000
  0.0000000E+000
  0.0000000E+000
  0.0000000E+000
  0.0000000E+000
  0.0000000E+000
  0.0000000E+000
  0.0000000E+000
  0.0000000E+000
  0.0000000E+000
  0.0000000E+000
  0.0000000E+000
  0.0000000E+000
  0.0000000E+000
  0.0000000E+000
  0.0000000E+000
  0.0000000E+000
  0.0000000E+000
  0.0000000E+000
  0.0000000E+000
  0.0000000E+000
  0.0000000E+000
  0.0000000E+000
  0.0000000E+000
  0.0000000E+000
  0.0000000E+000
  0.0000000E+000
  0.0000000E+000
  0.0000000E+000
  0.0000000E+000
  0.0000000E+000
  0.0000000E+000
  0.0000000E+000
  0.0000000E+000
  0.0000000E+000
  0.0000000E+000
  0.0000000E+000
  0.0000000E+000
  0.0000000E+000
  0.0000000E+000
  0.0000000E+000
  0.0000000E+000
  0.0000000E+000
  0.0000000E+000
  0.0000000E+000
  0.0000000E+000
  0.0000000E+000
  0.0000000E+000
  0.0000000E+000
  0.0000000E+000
  0.0000000E+000
  0.0000000E+000
  0.0000000E+000
  0.0000000E+000
  0.0000000E+000
  0.0000000E+000
  0.0000000E+000
  0.0000000E+000
  0.0000000E+000
  0.0000000E+000
  0.0000000E+000
  0.0000000E+000
  0.0000000E+000
  0.0000000E+000
  0.0000000E+000
  0.0000000E+000
  0.0000000E+000
  0.0000000E+000
  0.0000000E+000
  0.0000000E+000
  0.0000000E+000
  0.0000000E+000
  0.0000000E+000
  0.0000000E+000
  0.0000000E+000
  0.0000000E+000
  0.0000000E+000
  0.0000000E+000
  0.0000000E+000
  0.0000000E+000
  0.0000000E+000
  0.0000000E+000
  0.0000000E+000
  0.0000000E+000
  0.0000000E+000
  0.0000000E+000
  0.0000000E+000
  0.0000000E+000
  0.0000000E+000
  0.0000000E+000
  0.0000000E+000
  0.0000000E+000
  0.0000000E+000
  0.0000000E+000
  0.0000000E+000
  0.0000000E+000
  0.0000000E+000
  0.0000000E+000
  0.0000000E+000
  0.0000000E+000
  0.0000000E+000
  0.0000000E+000
  0.0000000E+000
  0.0000000E+000
  0.0000000E+000
  0.0000000E+000
  0.0000000E+000
  0.0000000E+000
  0.0000000E+000
  0.0000000E+000
  0.0000000E+000
  0.0000000E+000
  0.0000000E+000
  0.0000000E+000
  0.0000000E+000
  0.0000000E+000
  0.0000000E+000
  0.0000000E+000
  0.0000000E+000
  0.0000000E+000
  0.0000000E+000
  0.0000000E+000
  0.0000000E+000
  0.0000000E+000
  0.0000000E+000
  0.0000000E+000
  0.0000000E+000
  0.0000000E+000
  0.0000000E+000
  0.0000000E+000
  0.0000000E+000
  0.0000000E+000
  0.0000000E+000
  0.0000000E+000
  0.0000000E+000
  0.0000000E+000
  0.0000000E+000
  0.0000000E+000
  0.0000000E+000
  0.0000000E+000
  0.0000000E+000
  0.0000000E+000
  0.0000000E+000
  0.0000000E+000
  0.0000000E+000
  0.0000000E+000
  0.0000000E+000
  0.0000000E+000
  0.0000000E+000
  0.0000000E+000
  0.0000000E+000
  0.0000000E+000
  0.0000000E+000
  0.0000000E+000
  0.0000000E+000
  0.0000000E+000
  0.0000000E+000
  0.0000000E+000
  0.0000000E+000
  0.0000000E+000
  0.0000000E+000
  0.0000000E+000
  0.0000000E+000
  0.0000000E+000
  0.0000000E+000
  0.0000000E+000
  0.0000000E+000
  0.0000000E+000
  0.0000000E+000
  0.0000000E+000
  0.0000000E+000
  0.0000000E+000
  0.0000000E+000
  0.0000000E+000
  0.0000000E+000
  0.0000000E+000
  0.0000000E+000
  0.0000000E+000
  0.0000000E+000
  0.0000000E+000
  0.0000000E+000
  0.0000000E+000
  0.0000000E+000
  0.0000000E+000
  0.0000000E+000
  0.0000000E+000
  0.0000000E+000
  0.0000000E+000
  0.0000000E+000
  0.0000000E+000
  0.0000000E+000
  0.0000000E+000
  0.0000000E+000
  0.0000000E+000
  0.0000000E+000
  0.0000000E+000
  0.0000000E+000
  0.0000000E+000
  0.0000000E+000
  0.0000000E+000
  0.0000000E+000
  0.0000000E+000
  0.0000000E+000
  0.0000000E+000
  0.0000000E+000
  0.0000000E+000
  0.0000000E+000
  0.0000000E+000
  0.0000000E+000
  0.0000000E+000
  0.0000000E+000
  0.0000000E+000
  0.0000000E+000
  0.0000000E+000
  0.0000000E+000
  0.0000000E+000
  0.0000000E+000
  0.0000000E+000
  0.0000000E+000
  0.0000000E+000
  0.0000000E+000
  0.0000000E+000
  0.0000000E+000
  0.0000000E+000
  0.0000000E+000
  0.0000000E+000
  0.0000000E+000
  0.0000000E+000
  0.0000000E+000
  0.0000000E+000
  0.0000000E+000
  0.0000000E+000
  0.0000000E+000
  0.0000000E+000
  0.0000000E+000
  0.0000000E+000
  0.0000000E+000
  0.0000000E+000
  0.0000000E+000
  0.0000000E+000
  0.0000000E+000
  0.0000000E+000
  0.0000000E+000
  0.0000000E+000
  0.0000000E+000
  0.0000000E+000
  0.0000000E+000
  0.0000000E+000
  0.0000000E+000
  0.0000000E+000
  0.0000000E+000
  0.0000000E+000
  0.0000000E+000
  0.0000000E+000
  0.0000000E+000
  0.0000000E+000
  0.0000000E+000
  0.0000000E+000
  0.0000000E+000
  0.0000000E+000
  0.0000000E+000
  0.0000000E+000
  0.0000000E+000
  0.0000000E+000
  0.0000000E+000
  0.0000000E+000
  0.0000000E+000
  0.0000000E+000
  0.0000000E+000
  0.0000000E+000
  0.0000000E+000
  0.0000000E+000
  0.0000000E+000
  0.0000000E+000
  0.0000000E+000
  0.0000000E+000
  0.0000000E+000
  0.0000000E+000
  0.0000000E+000
  0.0000000E+000
  0.0000000E+000
  0.0000000E+000
  0.0000000E+000
  0.0000000E+000
  0.0000000E+000
  0.0000000E+000
  0.0000000E+000
  0.0000000E+000
  0.0000000E+000
  0.0000000E+000
  0.0000000E+000
  0.0000000E+000
  0.0000000E+000
  0.0000000E+000
  0.0000000E+000
  0.0000000E+000
  0.0000000E+000
  0.0000000E+000
  0.0000000E+000
  0.0000000E+000
  0.0000000E+000
  0.0000000E+000
  0.0000000E+000
  0.0000000E+000
  0.0000000E+000
  0.0000000E+000
  0.0000000E+000
  0.0000000E+000
  0.0000000E+000
  0.0000000E+000
  0.0000000E+000
  0.0000000E+000
  0.0000000E+000
  0.0000000E+000
  0.0000000E+000
  0.0000000E+000
  0.0000000E+000
  0.0000000E+000
  0.0000000E+000
  0.0000000E+000
  0.0000000E+000
  0.0000000E+000
  0.0000000E+000
  0.0000000E+000
  0.0000000E+000
  0.0000000E+000
  0.0000000E+000
  0.0000000E+000
  0.0000000E+000
  0.0000000E+000
  0.0000000E+000
  0.0000000E+000
  0.0000000E+000
  0.0000000E+000
  0.0000000E+000
  0.0000000E+000
  0.0000000E+000
  0.0000000E+000
  0.0000000E+000
  0.0000000E+000
  0.0000000E+000
  0.0000000E+000
  0.0000000E+000
  0.0000000E+000
  0.0000000E+000
  0.0000000E+000
  0.0000000E+000
  0.0000000E+000
  0.0000000E+000
  0.0000000E+000
  0.0000000E+000
  0.0000000E+000
  0.0000000E+000
  0.0000000E+000
  0.0000000E+000
  0.0000000E+000
  0.0000000E+000
  0.0000000E+000
  0.0000000E+000
  0.0000000E+000
  0.0000000E+000
  0.0000000E+000
  0.0000000E+000
  0.0000000E+000
  0.0000000E+000
  0.0000000E+000
  0.0000000E+000
  0.0000000E+000
  0.0000000E+000
  0.0000000E+000
  0.0000000E+000
  0.0000000E+000
  0.0000000E+000
  0.0000000E+000
  0.0000000E+000
  0.0000000E+000
  0.0000000E+000
  0.0000000E+000
  0.0000000E+000
  0.0000000E+000
  0.0000000E+000
  0.0000000E+000
  0.0000000E+000
  0.0000000E+000
  0.0000000E+000
  0.0000000E+000
  0.0000000E+000
  0.0000000E+000
  0.0000000E+000
  0.0000000E+000
  0.0000000E+000
  0.0000000E+000
  0.0000000E+000
  0.0000000E+000
  0.0000000E+000
  0.0000000E+000
  0.0000000E+000
  0.0000000E+000
  0.0000000E+000
  0.0000000E+000
  0.0000000E+000
  0.0000000E+000
  0.0000000E+000
  0.0000000E+000
  0.0000000E+000
  0.0000000E+000
  0.0000000E+000
  0.0000000E+000
  0.0000000E+000
  0.0000000E+000
  0.0000000E+000
  0.0000000E+000
  0.0000000E+000
  0.0000000E+000
  0.0000000E+000
  0.0000000E+000
  0.0000000E+000
  0.0000000E+000
  0.0000000E+000
  0.0000000E+000
  0.0000000E+000
  0.0000000E+000
  0.0000000E+000
  0.0000000E+000
  0.0000000E+000
  0.0000000E+000
  0.0000000E+000
  0.0000000E+000
  0.0000000E+000
  0.0000000E+000
  0.0000000E+000
  0.0000000E+000
  0.0000000E+000
  0.0000000E+000
  0.0000000E+000
  0.0000000E+000
  0.0000000E+000
  0.0000000E+000
  0.0000000E+000
  0.0000000E+000
  0.0000000E+000
  0.0000000E+000
  0.0000000E+000
  0.0000000E+000
  0.0000000E+000
  0.0000000E+000
  0.0000000E+000
  0.0000000E+000
  0.0000000E+000
  0.0000000E+000
  0.0000000E+000
  0.0000000E+000
  0.0000000E+000
  0.0000000E+000
  0.0000000E+000
  0.0000000E+000
  0.0000000E+000
  0.0000000E+000
  0.0000000E+000
  0.0000000E+000
  0.0000000E+000
  0.0000000E+000
  0.0000000E+000
  0.0000000E+000
  0.0000000E+000
  0.0000000E+000
  0.0000000E+000
  0.0000000E+000
  0.0000000E+000
  0.0000000E+000
  0.0000000E+000
  0.0000000E+000
  0.0000000E+000
  0.0000000E+000
  0.0000000E+000
  0.0000000E+000
  0.0000000E+000
  0.0000000E+000
  0.0000000E+000
  0.0000000E+000
  0.0000000E+000
  0.0000000E+000
  0.0000000E+000
  0.0000000E+000
  0.0000000E+000
  0.0000000E+000
  0.0000000E+000
  0.0000000E+000
  0.0000000E+000
  0.0000000E+000
  0.0000000E+000
  0.0000000E+000
  0.0000000E+000
  0.0000000E+000
  0.0000000E+000
  0.0000000E+000
  0.0000000E+000
  0.0000000E+000
  0.0000000E+000
  0.0000000E+000
  0.0000000E+000
  0.0000000E+000
  0.0000000E+000
  0.0000000E+000
  0.0000000E+000
  0.0000000E+000
  0.0000000E+000
  0.0000000E+000
  0.0000000E+000
  0.0000000E+000
  0.0000000E+000
  0.0000000E+000
  0.0000000E+000
  0.0000000E+000
  0.0000000E+000
  0.0000000E+000
  0.0000000E+000
  0.0000000E+000
  0.0000000E+000
  0.0000000E+000
  0.0000000E+000
  0.0000000E+000
  0.0000000E+000
  0.0000000E+000
  0.0000000E+000
  0.0000000E+000
  0.0000000E+000
  0.0000000E+000
  0.0000000E+000
  0.0000000E+000
  0.0000000E+000
  0.0000000E+000
  0.0000000E+000
  0.0000000E+000
  0.0000000E+000
  0.0000000E+000
  0.0000000E+000
  0.0000000E+000
  0.0000000E+000
  0.0000000E+000
  0.0000000E+000
  0.0000000E+000
  0.0000000E+000
  0.0000000E+000
  0.0000000E+000
  0.0000000E+000
  0.0000000E+000
  0.0000000E+000
  0.0000000E+000
  0.0000000E+000
  0.0000000E+000
  0.0000000E+000
  0.0000000E+000
  0.0000000E+000
  0.0000000E+000
  0.0000000E+000
  0.0000000E+000
  0.0000000E+000
  0.0000000E+000
  0.0000000E+000
  0.0000000E+000
  0.0000000E+000
  0.0000000E+000
  0.0000000E+000
  0.0000000E+000
  0.0000000E+000
  0.0000000E+000
  0.0000000E+000
  0.0000000E+000
  0.0000000E+000
  0.0000000E+000
  0.0000000E+000
  0.0000000E+000
  0.0000000E+000
  0.0000000E+000
  0.0000000E+000
  0.0000000E+000
  0.0000000E+000
  0.0000000E+000
  0.0000000E+000
  0.0000000E+000
  0.0000000E+000
  0.0000000E+000
  0.0000000E+000
  0.0000000E+000
  0.0000000E+000
  0.0000000E+000
  0.0000000E+000
  0.0000000E+000
  0.0000000E+000
  0.0000000E+000
  0.0000000E+000
  0.0000000E+000
  0.0000000E+000
  0.0000000E+000
  0.0000000E+000
  0.0000000E+000
  0.0000000E+000
  0.0000000E+000
  0.0000000E+000
  0.0000000E+000
  0.0000000E+000
  0.0000000E+000
  0.0000000E+000
  0.0000000E+000
  0.0000000E+000
  0.0000000E+000
  0.0000000E+000
  0.0000000E+000
  0.0000000E+000
  0.0000000E+000
  0.0000000E+000
  0.0000000E+000
  0.0000000E+000
  0.0000000E+000
  0.0000000E+000
  0.0000000E+000
  0.0000000E+000
  0.0000000E+000
  0.0000000E+000
  0.0000000E+000
  0.0000000E+000
  0.0000000E+000
  0.0000000E+000
  0.0000000E+000
  0.0000000E+000
  0.0000000E+000
  0.0000000E+000
  0.0000000E+000
  0.0000000E+000
  0.0000000E+000
  0.0000000E+000
  0.0000000E+000
  0.0000000E+000
  0.0000000E+000
  0.0000000E+000
  0.0000000E+000
  0.0000000E+000
  0.0000000E+000
  0.0000000E+000
  0.0000000E+000
  0.0000000E+000
  0.0000000E+000
  0.0000000E+000
  0.0000000E+000
  0.0000000E+000
  0.0000000E+000
  0.0000000E+000
  0.0000000E+000
  0.0000000E+000
  0.0000000E+000
  0.0000000E+000
  0.0000000E+000
  0.0000000E+000
  0.0000000E+000
  0.0000000E+000
  0.0000000E+000
  0.0000000E+000
  0.0000000E+000
  0.0000000E+000
  0.0000000E+000
  0.0000000E+000
  0.0000000E+000
  0.0000000E+000
  0.0000000E+000
  0.0000000E+000
  0.0000000E+000
  0.0000000E+000
  0.0000000E+000
  0.0000000E+000
  0.0000000E+000
  0.0000000E+000
  0.0000000E+000
  0.0000000E+000
  0.0000000E+000
  0.0000000E+000
  0.0000000E+000
  0.0000000E+000
  0.0000000E+000
  0.0000000E+000
  0.0000000E+000
  0.0000000E+000
  0.0000000E+000
  0.0000000E+000
  0.0000000E+000
  0.0000000E+000
  0.0000000E+000
  0.0000000E+000
  0.0000000E+000
  0.0000000E+000
  0.0000000E+000
  0.0000000E+000
  0.0000000E+000
  0.0000000E+000
  0.0000000E+000
  0.0000000E+000
  0.0000000E+000
  0.0000000E+000
  0.0000000E+000
  0.0000000E+000
  0.0000000E+000
  0.0000000E+000
  0.0000000E+000
  0.0000000E+000
  0.0000000E+000
  0.0000000E+000
  0.0000000E+000
  0.0000000E+000
  0.0000000E+000
  0.0000000E+000
  0.0000000E+000
  0.0000000E+000
  0.0000000E+000
  0.0000000E+000
  0.0000000E+000
  0.0000000E+000
  0.0000000E+000
  0.0000000E+000
  0.0000000E+000
  0.0000000E+000
  0.0000000E+000
  0.0000000E+000
  0.0000000E+000
  0.0000000E+000
  0.0000000E+000
  0.0000000E+000
  0.0000000E+000
  0.0000000E+000
  0.0000000E+000
  0.0000000E+000
  0.0000000E+000
  0.0000000E+000
  0.0000000E+000
  0.0000000E+000
  0.0000000E+000
  0.0000000E+000
  0.0000000E+000
  0.0000000E+000
  0.0000000E+000
  0.0000000E+000
  0.0000000E+000
  0.0000000E+000
  0.0000000E+000
  0.0000000E+000
  0.0000000E+000
  0.0000000E+000
  0.0000000E+000
  0.0000000E+000
  0.0000000E+000
  0.0000000E+000
  0.0000000E+000
  0.0000000E+000
  0.0000000E+000
  0.0000000E+000
  0.0000000E+000
  0.0000000E+000
  0.0000000E+000
  0.0000000E+000
  0.0000000E+000
  0.0000000E+000
  0.0000000E+000
  0.0000000E+000
  0.0000000E+000
  0.0000000E+000
  0.0000000E+000
  0.0000000E+000
  0.0000000E+000
  0.0000000E+000
  0.0000000E+000
  0.0000000E+000
  0.0000000E+000
  0.0000000E+000
  0.0000000E+000
  0.0000000E+000
  0.0000000E+000
  0.0000000E+000
  0.0000000E+000
  0.0000000E+000
  0.0000000E+000
  0.0000000E+000
  0.0000000E+000
  0.0000000E+000
  0.0000000E+000
  0.0000000E+000
  0.0000000E+000
  0.0000000E+000
  0.0000000E+000
  0.0000000E+000
  0.0000000E+000
  0.0000000E+000
  0.0000000E+000
  0.0000000E+000
  0.0000000E+000
  0.0000000E+000
  0.0000000E+000
  0.0000000E+000
  0.0000000E+000
  0.0000000E+000
  0.0000000E+000
  0.0000000E+000
  0.0000000E+000
  0.0000000E+000
  0.0000000E+000
  0.0000000E+000
  0.0000000E+000
  0.0000000E+000
  0.0000000E+000
  0.0000000E+000
  0.0000000E+000
  0.0000000E+000
  0.0000000E+000
  0.0000000E+000
  0.0000000E+000
  0.0000000E+000
  0.0000000E+000
  0.0000000E+000
  0.0000000E+000
  0.0000000E+000
  0.0000000E+000
  0.0000000E+000
  0.0000000E+000
  0.0000000E+000
  0.0000000E+000
  0.0000000E+000
  0.0000000E+000
  0.0000000E+000
  0.0000000E+000
  0.0000000E+000
  0.0000000E+000
  0.0000000E+000
  0.0000000E+000
  0.0000000E+000
  0.0000000E+000
  0.0000000E+000
  0.0000000E+000
  0.0000000E+000
  0.0000000E+000
  0.0000000E+000
  0.0000000E+000
  0.0000000E+000
  0.0000000E+000
  0.0000000E+000
  0.0000000E+000
  0.0000000E+000
  0.0000000E+000
  0.0000000E+000
  0.0000000E+000
  0.0000000E+000
  0.0000000E+000
  0.0000000E+000
  0.0000000E+000
  0.0000000E+000
  0.0000000E+000
  0.0000000E+000
  0.0000000E+000
  0.0000000E+000
  0.0000000E+000
  0.0000000E+000
  0.0000000E+000
  0.0000000E+000
  0.0000000E+000
  0.0000000E+000
  0.0000000E+000
  0.0000000E+000
  0.0000000E+000
  0.0000000E+000
  0.0000000E+000
  0.0000000E+000
  0.0000000E+000
  0.0000000E+000
  0.0000000E+000
  0.0000000E+000
  0.0000000E+000
  0.0000000E+000
  0.0000000E+000
  0.0000000E+000
  0.0000000E+000
  0.0000000E+000
  0.0000000E+000
  0.0000000E+000
  0.0000000E+000
  0.0000000E+000
  0.0000000E+000
  0.0000000E+000
  0.0000000E+000
  0.0000000E+000
  0.0000000E+000
  0.0000000E+000
  0.0000000E+000
  0.0000000E+000
  0.0000000E+000
  0.0000000E+000
  0.0000000E+000
  0.0000000E+000
  0.0000000E+000
  0.0000000E+000
  0.0000000E+000
  0.0000000E+000
  0.0000000E+000
  0.0000000E+000
  0.0000000E+000
  0.0000000E+000
  0.0000000E+000
  0.0000000E+000
  0.0000000E+000
  0.0000000E+000
  0.0000000E+000
  0.0000000E+000
  0.0000000E+000
  0.0000000E+000
  0.0000000E+000
  0.0000000E+000
  0.0000000E+000
  0.0000000E+000
  0.0000000E+000
  0.0000000E+000
  0.0000000E+000
  0.0000000E+000
  0.0000000E+000
  0.0000000E+000
  0.0000000E+000
  0.0000000E+000
  0.0000000E+000
  0.0000000E+000
  0.0000000E+000
  0.0000000E+000
  0.0000000E+000
  0.0000000E+000
  0.0000000E+000
  0.0000000E+000
  0.0000000E+000
  0.0000000E+000
  0.0000000E+000
  0.0000000E+000
  0.0000000E+000
  0.0000000E+000
  0.0000000E+000
  0.0000000E+000
  0.0000000E+000
  0.0000000E+000
  0.0000000E+000
  0.0000000E+000
  0.0000000E+000
  0.0000000E+000
  0.0000000E+000
  0.0000000E+000
  0.0000000E+000
  0.0000000E+000
  0.0000000E+000
  0.0000000E+000
  0.0000000E+000
  0.0000000E+000
  0.0000000E+000
  0.0000000E+000
  0.0000000E+000
  0.0000000E+000
  0.0000000E+000
  0.0000000E+000
  0.0000000E+000
  0.0000000E+000
  0.0000000E+000
  0.0000000E+000
  0.0000000E+000
  0.0000000E+000
  0.0000000E+000
  0.0000000E+000
  0.0000000E+000
  0.0000000E+000
  0.0000000E+000
  0.0000000E+000
  0.0000000E+000
  0.0000000E+000
  0.0000000E+000
  0.0000000E+000
  0.0000000E+000
  0.0000000E+000
  0.0000000E+000
  0.0000000E+000
  0.0000000E+000
  0.0000000E+000
  0.0000000E+000
  0.0000000E+000
  0.0000000E+000
  0.0000000E+000
  0.0000000E+000
  0.0000000E+000
  0.0000000E+000
  0.0000000E+000
  0.0000000E+000
  0.0000000E+000
  0.0000000E+000
  0.0000000E+000
  0.0000000E+000
  0.0000000E+000
  0.0000000E+000
  0.0000000E+000
  0.0000000E+000
  0.0000000E+000
  0.0000000E+000
  0.0000000E+000
  0.0000000E+000
  0.0000000E+000
  0.0000000E+000
  0.0000000E+000
  0.0000000E+000
  0.0000000E+000
  0.0000000E+000
  0.0000000E+000
  0.0000000E+000
  0.0000000E+000
  0.0000000E+000
  0.0000000E+000
  0.0000000E+000
  0.0000000E+000
  0.0000000E+000
  0.0000000E+000
  0.0000000E+000
  0.0000000E+000
  0.0000000E+000
  0.0000000E+000
  0.0000000E+000
  0.0000000E+000
  0.0000000E+000
  0.0000000E+000
  0.0000000E+000
  0.0000000E+000
  0.0000000E+000
  0.0000000E+000
  0.0000000E+000
  0.0000000E+000
  0.0000000E+000
  0.0000000E+000
  0.0000000E+000
  0.0000000E+000
  0.0000000E+000
  0.0000000E+000
  0.0000000E+000
  0.0000000E+000
  0.0000000E+000
  0.0000000E+000
  0.0000000E+000
  0.0000000E+000
  0.0000000E+000
  0.0000000E+000
  0.0000000E+000
  0.0000000E+000
  0.0000000E+000
  0.0000000E+000
  0.0000000E+000
  0.0000000E+000
  0.0000000E+000
  0.0000000E+000
  0.0000000E+000
  0.0000000E+000
  0.0000000E+000
  0.0000000E+000
  0.0000000E+000
  0.0000000E+000
  0.0000000E+000
  0.0000000E+000
  0.0000000E+000
  0.0000000E+000
  0.0000000E+000
  0.0000000E+000
  0.0000000E+000
  0.0000000E+000
  0.0000000E+000
  0.0000000E+000
  0.0000000E+000
  0.0000000E+000
  0.0000000E+000
  0.0000000E+000
  0.0000000E+000
  0.0000000E+000
  0.0000000E+000
  0.0000000E+000
  0.0000000E+000
  0.0000000E+000
  0.0000000E+000
  0.0000000E+000
  0.0000000E+000
  0.0000000E+000
  0.0000000E+000
  0.0000000E+000
  0.0000000E+000
  0.0000000E+000
  0.0000000E+000
  0.0000000E+000
  0.0000000E+000
  0.0000000E+000
  0.0000000E+000
  0.0000000E+000
  0.0000000E+000
  0.0000000E+000
  0.0000000E+000
  0.0000000E+000
  0.0000000E+000
  0.0000000E+000
  0.0000000E+000
  0.0000000E+000
  0.0000000E+000
  0.0000000E+000
  0.0000000E+000
  0.0000000E+000
  0.0000000E+000
  0.0000000E+000
  0.0000000E+000
  0.0000000E+000
  0.0000000E+000
  0.0000000E+000
  0.0000000E+000
  0.0000000E+000
  0.0000000E+000
  0.0000000E+000
  0.0000000E+000
  0.0000000E+000
  0.0000000E+000
  0.0000000E+000
  0.0000000E+000
  0.0000000E+000
  0.0000000E+000
  0.0000000E+000
  0.0000000E+000
  0.0000000E+000
  0.0000000E+000
  0.0000000E+000
  0.0000000E+000
  0.0000000E+000
  0.0000000E+000
  0.0000000E+000
  0.0000000E+000
  0.0000000E+000
  0.0000000E+000
  0.0000000E+000
  0.0000000E+000
  0.0000000E+000
  0.0000000E+000
  0.0000000E+000
  0.0000000E+000
  0.0000000E+000
  0.0000000E+000
  0.0000000E+000
  0.0000000E+000
  0.0000000E+000
  0.0000000E+000
  0.0000000E+000
  0.0000000E+000
  0.0000000E+000
  0.0000000E+000
  0.0000000E+000
  0.0000000E+000
  0.0000000E+000
  0.0000000E+000
  0.0000000E+000
  0.0000000E+000
  0.0000000E+000
  0.0000000E+000
  0.0000000E+000
  0.0000000E+000
  0.0000000E+000
  0.0000000E+000
  0.0000000E+000
  0.0000000E+000
  0.0000000E+000
  0.0000000E+000
  0.0000000E+000
  0.0000000E+000
  0.0000000E+000
  0.0000000E+000
  0.0000000E+000
  0.0000000E+000
  0.0000000E+000
  0.0000000E+000
  0.0000000E+000
  0.0000000E+000
  0.0000000E+000
  0.0000000E+000
  0.0000000E+000
  0.0000000E+000
  0.0000000E+000
  0.0000000E+000
  0.0000000E+000
  0.0000000E+000
  0.0000000E+000
  0.0000000E+000
  0.0000000E+000
  0.0000000E+000
  0.0000000E+000
  0.0000000E+000
  0.0000000E+000
  0.0000000E+000
  0.0000000E+000
  0.0000000E+000
  0.0000000E+000
  0.0000000E+000
  0.0000000E+000
  0.0000000E+000
  0.0000000E+000
  0.0000000E+000
  0.0000000E+000
  0.0000000E+000
  0.0000000E+000
  0.0000000E+000
  0.0000000E+000
  0.0000000E+000
  0.0000000E+000
  0.0000000E+000
  0.0000000E+000
  0.0000000E+000
  0.0000000E+000
  0.0000000E+000
  0.0000000E+000
  0.0000000E+000
  0.0000000E+000
  0.0000000E+000
  0.0000000E+000
  0.0000000E+000
  0.0000000E+000
  0.0000000E+000
  0.0000000E+000
  0.0000000E+000
  0.0000000E+000
  0.0000000E+000
  0.0000000E+000
  0.0000000E+000
  0.0000000E+000
  0.0000000E+000
  0.0000000E+000
  0.0000000E+000
  0.0000000E+000
  0.0000000E+000
  0.0000000E+000
  0.0000000E+000
  0.0000000E+000
  0.0000000E+000
  0.0000000E+000
  0.0000000E+000
  0.0000000E+000
  0.0000000E+000
  0.0000000E+000
  0.0000000E+000
  0.0000000E+000
  0.0000000E+000
  0.0000000E+000
  0.0000000E+000
  0.0000000E+000
  0.0000000E+000
  0.0000000E+000
  0.0000000E+000
  0.0000000E+000
  0.0000000E+000
  0.0000000E+000
  0.0000000E+000
  0.0000000E+000
  0.0000000E+000
  0.0000000E+000
  0.0000000E+000
  0.0000000E+000
  0.0000000E+000
  0.0000000E+000
  0.0000000E+000
  0.0000000E+000
  0.0000000E+000
  0.0000000E+000
  0.0000000E+000
  0.0000000E+000
  0.0000000E+000
  0.0000000E+000
  0.0000000E+000
  0.0000000E+000
  0.0000000E+000
  0.0000000E+000
  0.0000000E+000
  0.0000000E+000
  0.0000000E+000
  0.0000000E+000
  0.0000000E+000
  0.0000000E+000
  0.0000000E+000
  0.0000000E+000
  0.0000000E+000
  0.0000000E+000
  0.0000000E+000
  0.0000000E+000
  0.0000000E+000
  0.0000000E+000
  0.0000000E+000
  0.0000000E+000
  0.0000000E+000
  0.0000000E+000
  0.0000000E+000
  0.0000000E+000
  0.0000000E+000
  0.0000000E+000
  0.0000000E+000
  0.0000000E+000
  0.0000000E+000
  0.0000000E+000
  0.0000000E+000
  0.0000000E+000
  0.0000000E+000
  0.0000000E+000
  0.0000000E+000
  0.0000000E+000
  0.0000000E+000
  0.0000000E+000
  0.0000000E+000
  0.0000000E+000
  0.0000000E+000
  0.0000000E+000
  0.0000000E+000
  0.0000000E+000
  0.0000000E+000
  0.0000000E+000
  0.0000000E+000
  0.0000000E+000
  0.0000000E+000
  0.0000000E+000
  0.0000000E+000
  0.0000000E+000
  0.0000000E+000
  0.0000000E+000
  0.0000000E+000
  0.0000000E+000
  0.0000000E+000
  0.0000000E+000
  0.0000000E+000
  0.0000000E+000
  0.0000000E+000
  0.0000000E+000
  0.0000000E+000
  0.0000000E+000
  0.0000000E+000
  0.0000000E+000
  0.0000000E+000
  0.0000000E+000
  0.0000000E+000
  0.0000000E+000
  0.0000000E+000
  0.0000000E+000
  0.0000000E+000
  0.0000000E+000
  0.0000000E+000
  0.0000000E+000
  0.0000000E+000
  0.0000000E+000
  0.0000000E+000
  0.0000000E+000
  0.0000000E+000
  0.0000000E+000
  0.0000000E+000
  0.0000000E+000
  0.0000000E+000
  0.0000000E+000
  0.0000000E+000
  0.0000000E+000
  0.0000000E+000
  0.0000000E+000
  0.0000000E+000
  0.0000000E+000
  0.0000000E+000
  0.0000000E+000
  0.0000000E+000
  0.0000000E+000
  0.0000000E+000
  0.0000000E+000
  0.0000000E+000
  0.0000000E+000
  0.0000000E+000
  0.0000000E+000
  0.0000000E+000
  0.0000000E+000
  0.0000000E+000
  0.0000000E+000
  0.0000000E+000
  0.0000000E+000
  0.0000000E+000
  0.0000000E+000
  0.0000000E+000
  0.0000000E+000
  0.0000000E+000
  0.0000000E+000
  0.0000000E+000
  0.0000000E+000
  0.0000000E+000
  0.0000000E+000
  0.0000000E+000
  0.0000000E+000
  0.0000000E+000
  0.0000000E+000
  0.0000000E+000
  0.0000000E+000
  0.0000000E+000
  0.0000000E+000
  0.0000000E+000
  0.0000000E+000
  0.0000000E+000
  0.0000000E+000
  0.0000000E+000
  0.0000000E+000
  0.0000000E+000
  0.0000000E+000
  0.0000000E+000
  0.0000000E+000
  0.0000000E+000
  0.0000000E+000
  0.0000000E+000
  0.0000000E+000
  0.0000000E+000
  0.0000000E+000
  0.0000000E+000
  0.0000000E+000
  0.0000000E+000
  0.0000000E+000
  0.0000000E+000
  0.0000000E+000
  0.0000000E+000
  0.0000000E+000
  0.0000000E+000
  0.0000000E+000
  0.0000000E+000
  0.0000000E+000
  0.0000000E+000
  0.0000000E+000
  0.0000000E+000
  0.0000000E+000
  0.0000000E+000
  0.0000000E+000
  0.0000000E+000
  0.0000000E+000
  0.0000000E+000
  0.0000000E+000
  0.0000000E+000
  0.0000000E+000
  0.0000000E+000
  0.0000000E+000
  0.0000000E+000
  0.0000000E+000
  0.0000000E+000
  0.0000000E+000
  0.0000000E+000
  0.0000000E+000
  0.0000000E+000
  0.0000000E+000
  0.0000000E+000
  0.0000000E+000
  0.0000000E+000
  0.0000000E+000
  0.0000000E+000
  0.0000000E+000
  0.0000000E+000
  0.0000000E+000
  0.0000000E+000
  0.0000000E+000
  0.0000000E+000
  0.0000000E+000
  0.0000000E+000
  0.0000000E+000
  0.0000000E+000
  0.0000000E+000
  0.0000000E+000
  0.0000000E+000
  0.0000000E+000
  0.0000000E+000
  0.0000000E+000
  0.0000000E+000
  0.0000000E+000
  0.0000000E+000
  0.0000000E+000
  0.0000000E+000
  0.0000000E+000
  0.0000000E+000
  0.0000000E+000
  0.0000000E+000
  0.0000000E+000
  0.0000000E+000
  0.0000000E+000
  0.0000000E+000
  0.0000000E+000
  0.0000000E+000
  0.0000000E+000
  0.0000000E+000
  0.0000000E+000
  0.0000000E+000
  0.0000000E+000
  0.0000000E+000
  0.0000000E+000
  0.0000000E+000
  0.0000000E+000
  0.0000000E+000
  0.0000000E+000
  0.0000000E+000
  0.0000000E+000
  0.0000000E+000
  0.0000000E+000
  0.0000000E+000
  0.0000000E+000
  0.0000000E+000
  0.0000000E+000
  0.0000000E+000
  0.0000000E+000
  0.0000000E+000
  0.0000000E+000
  0.0000000E+000
  0.0000000E+000
  0.0000000E+000
  0.0000000E+000
  0.0000000E+000
  0.0000000E+000
  0.0000000E+000
  0.0000000E+000
  0.0000000E+000
  0.0000000E+000
  0.0000000E+000
  0.0000000E+000
  0.0000000E+000
  0.0000000E+000
  0.0000000E+000
  0.0000000E+000
  0.0000000E+000
  0.0000000E+000
  0.0000000E+000
  0.0000000E+000
  0.0000000E+000
  0.0000000E+000
  0.0000000E+000
  0.0000000E+000
  0.0000000E+000
  0.0000000E+000
  0.0000000E+000
  0.0000000E+000
  0.0000000E+000
  0.0000000E+000
  0.0000000E+000
  0.0000000E+000
  0.0000000E+000
  0.0000000E+000
  0.0000000E+000
  0.0000000E+000
  0.0000000E+000
  0.0000000E+000
  0.0000000E+000
  0.0000000E+000
  0.0000000E+000
  0.0000000E+000
  0.0000000E+000
  0.0000000E+000
  0.0000000E+000
  0.0000000E+000
  0.0000000E+000
  0.0000000E+000
  0.0000000E+000
  0.0000000E+000
  0.0000000E+000
  0.0000000E+000
  0.0000000E+000
  0.0000000E+000
  0.0000000E+000
  0.0000000E+000
  0.0000000E+000
  0.0000000E+000
  0.0000000E+000
  0.0000000E+000
  0.0000000E+000
  0.0000000E+000
  0.0000000E+000
  0.0000000E+000
  0.0000000E+000
  0.0000000E+000
  0.0000000E+000
  0.0000000E+000
  0.0000000E+000
  0.0000000E+000
  0.0000000E+000
  0.0000000E+000
  0.0000000E+000
  0.0000000E+000
  0.0000000E+000
  0.0000000E+000
  0.0000000E+000
  0.0000000E+000
  0.0000000E+000
  0.0000000E+000
  0.0000000E+000
  0.0000000E+000
  0.0000000E+000
  0.0000000E+000
  0.0000000E+000
  0.0000000E+000
  0.0000000E+000
  0.0000000E+000
  0.0000000E+000
  0.0000000E+000
  0.0000000E+000
  0.0000000E+000
  0.0000000E+000
  0.0000000E+000
  0.0000000E+000
  0.0000000E+000
  0.0000000E+000
  0.0000000E+000
  0.0000000E+000
  0.0000000E+000
  0.0000000E+000
  0.0000000E+000
  0.0000000E+000
  0.0000000E+000
  0.0000000E+000
  0.0000000E+000
  0.0000000E+000
  0.0000000E+000
  0.0000000E+000
  0.0000000E+000
  0.0000000E+000
  0.0000000E+000
  0.0000000E+000
  0.0000000E+000
  0.0000000E+000
  0.0000000E+000
  0.0000000E+000
  0.0000000E+000
  0.0000000E+000
  0.0000000E+000
  0.0000000E+000
  0.0000000E+000
  0.0000000E+000
  0.0000000E+000
  0.0000000E+000
  0.0000000E+000
  0.0000000E+000
  0.0000000E+000
  0.0000000E+000
  0.0000000E+000
  0.0000000E+000
  0.0000000E+000
  0.0000000E+000
  0.0000000E+000
  0.0000000E+000
  0.0000000E+000
  0.0000000E+000
  0.0000000E+000
  0.0000000E+000
  0.0000000E+000
  0.0000000E+000
  0.0000000E+000
  0.0000000E+000
  0.0000000E+000
  0.0000000E+000
  0.0000000E+000
  0.0000000E+000
  0.0000000E+000
  0.0000000E+000
  0.0000000E+000
  0.0000000E+000
  0.0000000E+000
  0.0000000E+000
  0.0000000E+000
  0.0000000E+000
  0.0000000E+000
  0.0000000E+000
  0.0000000E+000
  0.0000000E+000
  0.0000000E+000
  0.0000000E+000
  0.0000000E+000
  0.0000000E+000
  0.0000000E+000
  0.0000000E+000
  0.0000000E+000
  0.0000000E+000
  0.0000000E+000
  0.0000000E+000
  0.0000000E+000
  0.0000000E+000
  0.0000000E+000
  0.0000000E+000
  0.0000000E+000
  0.0000000E+000
  0.0000000E+000
  0.0000000E+000
  0.0000000E+000
  0.0000000E+000
  0.0000000E+000
  0.0000000E+000
  0.0000000E+000
  0.0000000E+000
  0.0000000E+000
  0.0000000E+000
  0.0000000E+000
  0.0000000E+000
  0.0000000E+000
  0.0000000E+000
  0.0000000E+000
  0.0000000E+000
  0.0000000E+000
  0.0000000E+000
  0.0000000E+000
  0.0000000E+000
  0.0000000E+000
  0.0000000E+000
  0.0000000E+000
  0.0000000E+000
  0.0000000E+000
  0.0000000E+000
  0.0000000E+000
  0.0000000E+000
  0.0000000E+000
  0.0000000E+000
  0.0000000E+000
  0.0000000E+000
  0.0000000E+000
  0.0000000E+000
  0.0000000E+000
  0.0000000E+000
  0.0000000E+000
  0.0000000E+000
  0.0000000E+000
  0.0000000E+000
  0.0000000E+000
  0.0000000E+000
  0.0000000E+000
  0.0000000E+000
  0.0000000E+000
  0.0000000E+000
  0.0000000E+000
  0.0000000E+000
  0.0000000E+000
  0.0000000E+000
  0.0000000E+000
  0.0000000E+000
  0.0000000E+000
  0.0000000E+000
  0.0000000E+000
  0.0000000E+000
  0.0000000E+000
  0.0000000E+000
  0.0000000E+000
  0.0000000E+000
  0.0000000E+000
  0.0000000E+000
  0.0000000E+000
  0.0000000E+000
  0.0000000E+000
  0.0000000E+000
  0.0000000E+000
  0.0000000E+000
  0.0000000E+000
  0.0000000E+000
  0.0000000E+000
  0.0000000E+000
  0.0000000E+000
  0.0000000E+000
  0.0000000E+000
  0.0000000E+000
  0.0000000E+000
  0.0000000E+000
  0.0000000E+000
  0.0000000E+000
  0.0000000E+000
  0.0000000E+000
  0.0000000E+000
  0.0000000E+000
  0.0000000E+000
  0.0000000E+000
  0.0000000E+000
  0.0000000E+000
  0.0000000E+000
  0.0000000E+000
  0.0000000E+000
  0.0000000E+000
  0.0000000E+000
  0.0000000E+000
  0.0000000E+000
  0.0000000E+000
  0.0000000E+000
  0.0000000E+000
  0.0000000E+000
  0.0000000E+000
  0.0000000E+000
  0.0000000E+000
  0.0000000E+000
  0.0000000E+000
  0.0000000E+000
  0.0000000E+000
  0.0000000E+000
  0.0000000E+000
  0.0000000E+000
  0.0000000E+000
  0.0000000E+000
  0.0000000E+000
  0.0000000E+000
  0.0000000E+000
  0.0000000E+000
  0.0000000E+000
  0.0000000E+000
  0.0000000E+000
  0.0000000E+000
  0.0000000E+000
  0.0000000E+000
  0.0000000E+000
  0.0000000E+000
  0.0000000E+000
  0.0000000E+000
  0.0000000E+000
  0.0000000E+000
  0.0000000E+000
  0.0000000E+000
  0.0000000E+000
  0.0000000E+000
  0.0000000E+000
  0.0000000E+000
  0.0000000E+000
  0.0000000E+000
  0.0000000E+000
  0.0000000E+000
  0.0000000E+000
  0.0000000E+000
  0.0000000E+000
  0.0000000E+000
  0.0000000E+000
  0.0000000E+000
  0.0000000E+000
  0.0000000E+000
  0.0000000E+000
  0.0000000E+000
  0.0000000E+000
  0.0000000E+000
  0.0000000E+000
  0.0000000E+000
  0.0000000E+000
  0.0000000E+000
  0.0000000E+000
  0.0000000E+000
  0.0000000E+000
  0.0000000E+000
  0.0000000E+000
  0.0000000E+000
  0.0000000E+000
  0.0000000E+000
  0.0000000E+000
  0.0000000E+000
  0.0000000E+000
  0.0000000E+000
  0.0000000E+000
  0.0000000E+000
  0.0000000E+000
  0.0000000E+000
  0.0000000E+000
  0.0000000E+000
  0.0000000E+000
  0.0000000E+000
  0.0000000E+000
  0.0000000E+000
  0.0000000E+000
  0.0000000E+000
  0.0000000E+000
  0.0000000E+000
  0.0000000E+000
  0.0000000E+000
  0.0000000E+000
  0.0000000E+000
  0.0000000E+000
  0.0000000E+000
  0.0000000E+000
  0.0000000E+000
  0.0000000E+000
  0.0000000E+000
  0.0000000E+000
  0.0000000E+000
  0.0000000E+000
  0.0000000E+000
  0.0000000E+000
  0.0000000E+000
  0.0000000E+000
  0.0000000E+000
  0.0000000E+000
  0.0000000E+000
  0.0000000E+000
  0.0000000E+000
  0.0000000E+000
  0.0000000E+000
  0.0000000E+000
  0.0000000E+000
  0.0000000E+000
  0.0000000E+000
  0.0000000E+000
  0.0000000E+000
  0.0000000E+000
  0.0000000E+000
  0.0000000E+000
  0.0000000E+000
  0.0000000E+000
  0.0000000E+000
  0.0000000E+000
  0.0000000E+000
  0.0000000E+000
  0.0000000E+000
  0.0000000E+000
  0.0000000E+000
  0.0000000E+000
  0.0000000E+000
  0.0000000E+000
  0.0000000E+000
  0.0000000E+000
  0.0000000E+000
  0.0000000E+000
  0.0000000E+000
  0.0000000E+000
  0.0000000E+000
  0.0000000E+000
  0.0000000E+000
  0.0000000E+000
  0.0000000E+000
  0.0000000E+000
  0.0000000E+000
  0.0000000E+000
  0.0000000E+000
  0.0000000E+000
  0.0000000E+000
  0.0000000E+000
  0.0000000E+000
  0.0000000E+000
  0.0000000E+000
  0.0000000E+000
  0.0000000E+000
  0.0000000E+000
  0.0000000E+000
  0.0000000E+000
  0.0000000E+000
  0.0000000E+000
  0.0000000E+000
  0.0000000E+000
  0.0000000E+000
  0.0000000E+000
  0.0000000E+000
  0.0000000E+000
  0.0000000E+000
  0.0000000E+000
  0.0000000E+000
  0.0000000E+000
  0.0000000E+000
  0.0000000E+000
  0.0000000E+000
  0.0000000E+000
  0.0000000E+000
  0.0000000E+000
  0.0000000E+000
  0.0000000E+000
  0.0000000E+000
  0.0000000E+000
  0.0000000E+000
  0.0000000E+000
  0.0000000E+000
  0.0000000E+000
  0.0000000E+000
  0.0000000E+000
  0.0000000E+000
  0.0000000E+000
  0.0000000E+000
  0.0000000E+000
  0.0000000E+000
  0.0000000E+000
  0.0000000E+000
  0.0000000E+000
  0.0000000E+000
  0.0000000E+000
  0.0000000E+000
  0.0000000E+000
  0.0000000E+000
  0.0000000E+000
  0.0000000E+000
  0.0000000E+000
  0.0000000E+000
  0.0000000E+000
  0.0000000E+000
  0.0000000E+000
  0.0000000E+000
  0.0000000E+000
  0.0000000E+000
  0.0000000E+000
  0.0000000E+000
  0.0000000E+000
  0.0000000E+000
  0.0000000E+000
  0.0000000E+000
  0.0000000E+000
  0.0000000E+000
  0.0000000E+000
  0.0000000E+000
  0.0000000E+000
  0.0000000E+000
  0.0000000E+000
  0.0000000E+000
  0.0000000E+000
  0.0000000E+000
  0.0000000E+000
  0.0000000E+000
  0.0000000E+000
  0.0000000E+000
  0.0000000E+000
  0.0000000E+000
  0.0000000E+000
  0.0000000E+000
  0.0000000E+000
  0.0000000E+000
  0.0000000E+000
  0.0000000E+000
  0.0000000E+000
  0.0000000E+000
  0.0000000E+000
  0.0000000E+000
  0.0000000E+000
  0.0000000E+000
  0.0000000E+000
  0.0000000E+000
  0.0000000E+000
  0.0000000E+000
  0.0000000E+000
  0.0000000E+000
  0.0000000E+000
  0.0000000E+000
  0.0000000E+000
  0.0000000E+000
  0.0000000E+000
  0.0000000E+000
  0.0000000E+000
  0.0000000E+000
  0.0000000E+000
  0.0000000E+000
  0.0000000E+000
  0.0000000E+000
  0.0000000E+000
  0.0000000E+000
  0.0000000E+000
  0.0000000E+000
  0.0000000E+000
  0.0000000E+000
  0.0000000E+000
  0.0000000E+000
  0.0000000E+000
  0.0000000E+000
  0.0000000E+000
  0.0000000E+000
  0.0000000E+000
  0.0000000E+000
  0.0000000E+000
  0.0000000E+000
  0.0000000E+000
  0.0000000E+000
  0.0000000E+000
  0.0000000E+000
  0.0000000E+000
  0.0000000E+000
  0.0000000E+000
  0.0000000E+000
  0.0000000E+000
  0.0000000E+000
  0.0000000E+000
  0.0000000E+000
  0.0000000E+000
  0.0000000E+000
  0.0000000E+000
  0.0000000E+000
  0.0000000E+000
  0.0000000E+000
  0.0000000E+000
  0.0000000E+000
  0.0000000E+000
  0.0000000E+000
  0.0000000E+000
  0.0000000E+000
  0.0000000E+000
  0.0000000E+000
  0.0000000E+000
  0.0000000E+000
  0.0000000E+000
  0.0000000E+000
  0.0000000E+000
  0.0000000E+000
  0.0000000E+000
  0.0000000E+000
  0.0000000E+000
  0.0000000E+000
  0.0000000E+000
  0.0000000E+000
  0.0000000E+000
  0.0000000E+000
  0.0000000E+000
  0.0000000E+000
  0.0000000E+000
  0.0000000E+000
  0.0000000E+000
  0.0000000E+000
  0.0000000E+000
  0.0000000E+000
  0.0000000E+000
  0.0000000E+000
  0.0000000E+000
  0.0000000E+000
  0.0000000E+000
  0.0000000E+000
  0.0000000E+000
  0.0000000E+000
  0.0000000E+000
  0.0000000E+000
  0.0000000E+000
  0.0000000E+000
  0.0000000E+000
  0.0000000E+000
  0.0000000E+000
  0.0000000E+000
  0.0000000E+000
  0.0000000E+000
  0.0000000E+000
  0.0000000E+000
  0.0000000E+000
  0.0000000E+000
  0.0000000E+000
  0.0000000E+000
  0.0000000E+000
  0.0000000E+000
  0.0000000E+000
  0.0000000E+000
  0.0000000E+000
  0.0000000E+000
  0.0000000E+000
  0.0000000E+000
  0.0000000E+000
  0.0000000E+000
  0.0000000E+000
  0.0000000E+000
  0.0000000E+000
  0.0000000E+000
  0.0000000E+000
  0.0000000E+000
  0.0000000E+000
  0.0000000E+000
  0.0000000E+000
  0.0000000E+000
  0.0000000E+000
  0.0000000E+000
  0.0000000E+000
  0.0000000E+000
  0.0000000E+000
  0.0000000E+000
  0.0000000E+000
  0.0000000E+000
  0.0000000E+000
  0.0000000E+000
  0.0000000E+000
  0.0000000E+000
  0.0000000E+000
  0.0000000E+000
  0.0000000E+000
  0.0000000E+000
  0.0000000E+000
  0.0000000E+000
  0.0000000E+000
  0.0000000E+000
  0.0000000E+000
  0.0000000E+000
  0.0000000E+000
  0.0000000E+000
  0.0000000E+000
  0.0000000E+000
  0.0000000E+000
  0.0000000E+000
  0.0000000E+000
  0.0000000E+000
  0.0000000E+000
  0.0000000E+000
  0.0000000E+000
  0.0000000E+000
  0.0000000E+000
  0.0000000E+000
  0.0000000E+000
  0.0000000E+000
  0.0000000E+000
  0.0000000E+000
  0.0000000E+000
  0.0000000E+000
  0.0000000E+000
  0.0000000E+000
  0.0000000E+000
  0.0000000E+000
  0.0000000E+000
  0.0000000E+000
  0.0000000E+000
  0.0000000E+000
  0.0000000E+000
  0.0000000E+000
  0.0000000E+000
  0.0000000E+000
  0.0000000E+000
  0.0000000E+000
  0.0000000E+000
  0.0000000E+000
  0.0000000E+000
  0.0000000E+000
  0.0000000E+000
  0.0000000E+000
  0.0000000E+000
  0.0000000E+000
  0.0000000E+000
  0.0000000E+000
  0.0000000E+000
  0.0000000E+000
  0.0000000E+000
  0.0000000E+000
  0.0000000E+000
  0.0000000E+000
  0.0000000E+000
  0.0000000E+000
  0.0000000E+000
  0.0000000E+000
  0.0000000E+000
  0.0000000E+000
  0.0000000E+000
  0.0000000E+000
  0.0000000E+000
  0.0000000E+000
  0.0000000E+000
  0.0000000E+000
  0.0000000E+000
  0.0000000E+000
  0.0000000E+000
  0.0000000E+000
  0.0000000E+000
  0.0000000E+000
  0.0000000E+000
  0.0000000E+000
  0.0000000E+000
  0.0000000E+000
  0.0000000E+000
  0.0000000E+000
  0.0000000E+000
  0.0000000E+000
  0.0000000E+000
  0.0000000E+000
  0.0000000E+000
  0.0000000E+000
  0.0000000E+000
  0.0000000E+000
  0.0000000E+000
  0.0000000E+000
  0.0000000E+000
  0.0000000E+000
  0.0000000E+000
  0.0000000E+000
  0.0000000E+000
  0.0000000E+000
  0.0000000E+000
  0.0000000E+000
  0.0000000E+000
  0.0000000E+000
  0.0000000E+000
  0.0000000E+000
  0.0000000E+000
  0.0000000E+000
  0.0000000E+000
  0.0000000E+000
  0.0000000E+000
  0.0000000E+000
  0.0000000E+000
  0.0000000E+000
  0.0000000E+000
  0.0000000E+000
  0.0000000E+000
  0.0000000E+000
  0.0000000E+000
  0.0000000E+000
  0.0000000E+000
  0.0000000E+000
  0.0000000E+000
  0.0000000E+000
  0.0000000E+000
  0.0000000E+000
  0.0000000E+000
  0.0000000E+000
  0.0000000E+000
  0.0000000E+000
  0.0000000E+000
  0.0000000E+000
  0.0000000E+000
  0.0000000E+000
  0.0000000E+000
  0.0000000E+000
  0.0000000E+000
  0.0000000E+000
  0.0000000E+000
  0.0000000E+000
  0.0000000E+000
  0.0000000E+000
  0.0000000E+000
  0.0000000E+000
  0.0000000E+000
  0.0000000E+000
  0.0000000E+000
  0.0000000E+000
  0.0000000E+000
  0.0000000E+000
  0.0000000E+000
  0.0000000E+000
  0.0000000E+000
  0.0000000E+000
  0.0000000E+000
  0.0000000E+000
  0.0000000E+000
  0.0000000E+000
  0.0000000E+000
  0.0000000E+000
  0.0000000E+000
  0.0000000E+000
  0.0000000E+000
  0.0000000E+000
  0.0000000E+000
  0.0000000E+000
  0.0000000E+000
  0.0000000E+000
  0.0000000E+000
  0.0000000E+000
  0.0000000E+000
  0.0000000E+000
  0.0000000E+000
  0.0000000E+000
  0.0000000E+000
  0.0000000E+000
  0.0000000E+000
  0.0000000E+000
  0.0000000E+000
  0.0000000E+000
  0.0000000E+000
  0.0000000E+000
  0.0000000E+000
  0.0000000E+000
  0.0000000E+000
  0.0000000E+000
  0.0000000E+000
  0.0000000E+000
  0.0000000E+000
  0.0000000E+000
  0.0000000E+000
  0.0000000E+000
  0.0000000E+000
  0.0000000E+000
  0.0000000E+000
  0.0000000E+000
  0.0000000E+000
  0.0000000E+000
  0.0000000E+000
  0.0000000E+000
  0.0000000E+000
  0.0000000E+000
  0.0000000E+000
  0.0000000E+000
  0.0000000E+000
  0.0000000E+000
  0.0000000E+000
  0.0000000E+000
  0.0000000E+000
  0.0000000E+000
  0.0000000E+000
  0.0000000E+000
  0.0000000E+000
  0.0000000E+000
  0.0000000E+000
  0.0000000E+000
  0.0000000E+000
  0.0000000E+000
  0.0000000E+000
  0.0000000E+000
  0.0000000E+000
  0.0000000E+000
  0.0000000E+000
  0.0000000E+000
  0.0000000E+000
  0.0000000E+000
  0.0000000E+000
  0.0000000E+000
  0.0000000E+000
  0.0000000E+000
  0.0000000E+000
  0.0000000E+000
  0.0000000E+000
  0.0000000E+000
  0.0000000E+000
  0.0000000E+000
  0.0000000E+000
  0.0000000E+000
  0.0000000E+000
  0.0000000E+000
  0.0000000E+000
  0.0000000E+000
  0.0000000E+000
  0.0000000E+000
  0.0000000E+000
  0.0000000E+000
  0.0000000E+000
  0.0000000E+000
  0.0000000E+000
  0.0000000E+000
  0.0000000E+000
  0.0000000E+000
  0.0000000E+000
  0.0000000E+000
  0.0000000E+000
  0.0000000E+000
  0.0000000E+000
  0.0000000E+000
  0.0000000E+000
  0.0000000E+000
  0.0000000E+000
  0.0000000E+000
  0.0000000E+000
  0.0000000E+000
  0.0000000E+000
  0.0000000E+000
  0.0000000E+000
  0.0000000E+000
  0.0000000E+000
  0.0000000E+000
  0.0000000E+000
  0.0000000E+000
  0.0000000E+000
  0.0000000E+000
  0.0000000E+000
  0.0000000E+000
  0.0000000E+000
  0.0000000E+000
  0.0000000E+000
  0.0000000E+000
  0.0000000E+000
  0.0000000E+000
  0.0000000E+000
  0.0000000E+000
  0.0000000E+000
  0.0000000E+000
  0.0000000E+000
  0.0000000E+000
  0.0000000E+000
  0.0000000E+000
  0.0000000E+000
  0.0000000E+000
  0.0000000E+000
  0.0000000E+000
  0.0000000E+000
  0.0000000E+000
  0.0000000E+000
  0.0000000E+000
  0.0000000E+000
  0.0000000E+000
  0.0000000E+000
  0.0000000E+000
  0.0000000E+000
  0.0000000E+000
  0.0000000E+000
  0.0000000E+000
  0.0000000E+000
  0.0000000E+000
  0.0000000E+000
  0.0000000E+000
  0.0000000E+000
  0.0000000E+000
  0.0000000E+000
  0.0000000E+000
  0.0000000E+000
  0.0000000E+000
  0.0000000E+000
  0.0000000E+000
  0.0000000E+000
  0.0000000E+000
  0.0000000E+000
  0.0000000E+000
  0.0000000E+000
  0.0000000E+000
  0.0000000E+000
  0.0000000E+000
  0.0000000E+000
  0.0000000E+000
  0.0000000E+000
  0.0000000E+000
  0.0000000E+000
  0.0000000E+000
  0.0000000E+000
  0.0000000E+000
  0.0000000E+000
  0.0000000E+000
  0.0000000E+000
  0.0000000E+000
  0.0000000E+000
  0.0000000E+000
  0.0000000E+000
  0.0000000E+000
  0.0000000E+000
  0.0000000E+000
  0.0000000E+000
  0.0000000E+000
  0.0000000E+000
  0.0000000E+000
  0.0000000E+000
  0.0000000E+000
  0.0000000E+000
  0.0000000E+000
  0.0000000E+000
  0.0000000E+000
  0.0000000E+000
  0.0000000E+000
  0.0000000E+000
  0.0000000E+000
  0.0000000E+000
  0.0000000E+000
  0.0000000E+000
  0.0000000E+000
  0.0000000E+000
  0.0000000E+000
  0.0000000E+000
  0.0000000E+000
  0.0000000E+000
  0.0000000E+000
  0.0000000E+000
  0.0000000E+000
  0.0000000E+000
  0.0000000E+000
  0.0000000E+000
  0.0000000E+000
  0.0000000E+000
  0.0000000E+000
  0.0000000E+000
  0.0000000E+000
  0.0000000E+000
  0.0000000E+000
  0.0000000E+000
  0.0000000E+000
  0.0000000E+000
  0.0000000E+000
  0.0000000E+000
  0.0000000E+000
  0.0000000E+000
  0.0000000E+000
  0.0000000E+000
  0.0000000E+000
  0.0000000E+000
  0.0000000E+000
  0.0000000E+000
  0.0000000E+000
  0.0000000E+000
  0.0000000E+000
  0.0000000E+000
  0.0000000E+000
  0.0000000E+000
  0.0000000E+000
  0.0000000E+000
  0.0000000E+000
  0.0000000E+000
  0.0000000E+000
  0.0000000E+000
  0.0000000E+000
  0.0000000E+000
  0.0000000E+000
  0.0000000E+000
  0.0000000E+000
  0.0000000E+000
  0.0000000E+000
  0.0000000E+000
  0.0000000E+000
  0.0000000E+000
  0.0000000E+000
  0.0000000E+000
  0.0000000E+000
  0.0000000E+000
  0.0000000E+000
  0.0000000E+000
  0.0000000E+000
  0.0000000E+000
  0.0000000E+000
  0.0000000E+000
  0.0000000E+000
  0.0000000E+000
  0.0000000E+000
  0.0000000E+000
  0.0000000E+000
  0.0000000E+000
  0.0000000E+000
  0.0000000E+000
  0.0000000E+000
  0.0000000E+000
  0.0000000E+000
  0.0000000E+000
  0.0000000E+000
  0.0000000E+000
  0.0000000E+000
  0.0000000E+000
  0.0000000E+000
  0.0000000E+000
  0.0000000E+000
  0.0000000E+000
  0.0000000E+000
  0.0000000E+000
  0.0000000E+000
  0.0000000E+000
  0.0000000E+000
  0.0000000E+000
  0.0000000E+000
  0.0000000E+000
  0.0000000E+000
  0.0000000E+000
  0.0000000E+000
  0.0000000E+000
  0.0000000E+000
  0.0000000E+000
  0.0000000E+000
  0.0000000E+000
  0.0000000E+000
  0.0000000E+000
  0.0000000E+000
  0.0000000E+000
  0.0000000E+000
  0.0000000E+000
  0.0000000E+000
  0.0000000E+000
  0.0000000E+000
  0.0000000E+000
  0.0000000E+000
  0.0000000E+000
  0.0000000E+000
  0.0000000E+000
  0.0000000E+000
  0.0000000E+000
  0.0000000E+000
  0.0000000E+000
  0.0000000E+000
  0.0000000E+000
  0.0000000E+000
  0.0000000E+000
  0.0000000E+000
  0.0000000E+000
  0.0000000E+000
  0.0000000E+000
  0.0000000E+000
  0.0000000E+000
  0.0000000E+000
  0.0000000E+000
  0.0000000E+000
  0.0000000E+000
  0.0000000E+000
  0.0000000E+000
  0.0000000E+000
  0.0000000E+000
  0.0000000E+000
  0.0000000E+000
  0.0000000E+000
  0.0000000E+000
  0.0000000E+000
  0.0000000E+000
  0.0000000E+000
  0.0000000E+000
  0.0000000E+000
  0.0000000E+000
  0.0000000E+000
  0.0000000E+000
  0.0000000E+000
  0.0000000E+000
  0.0000000E+000
  0.0000000E+000
  0.0000000E+000
  0.0000000E+000
  0.0000000E+000
  0.0000000E+000
  0.0000000E+000
  0.0000000E+000
  0.0000000E+000
  0.0000000E+000
  0.0000000E+000
  0.0000000E+000
  0.0000000E+000
  0.0000000E+000
  0.0000000E+000
  0.0000000E+000
  0.0000000E+000
  0.0000000E+000
  0.0000000E+000
  0.0000000E+000
  0.0000000E+000
  0.0000000E+000
  0.0000000E+000
  0.0000000E+000
  0.0000000E+000
  0.0000000E+000
  0.0000000E+000
  0.0000000E+000
  0.0000000E+000
  0.0000000E+000
  0.0000000E+000
  0.0000000E+000
  0.0000000E+000
  0.0000000E+000
  0.0000000E+000
  0.0000000E+000
  0.0000000E+000
  0.0000000E+000
  0.0000000E+000
  0.0000000E+000
  0.0000000E+000
  0.0000000E+000
  0.0000000E+000
  0.0000000E+000
  0.0000000E+000
  0.0000000E+000
  0.0000000E+000
  0.0000000E+000
  0.0000000E+000
  0.0000000E+000
  0.0000000E+000
  0.0000000E+000
  0.0000000E+000
  0.0000000E+000
  0.0000000E+000
  0.0000000E+000
  0.0000000E+000
  0.0000000E+000
  0.0000000E+000
  0.0000000E+000
  0.0000000E+000
  0.0000000E+000
  0.0000000E+000
  0.0000000E+000
  0.0000000E+000
  0.0000000E+000
  0.0000000E+000
  0.0000000E+000
  0.0000000E+000
  0.0000000E+000
  0.0000000E+000
  0.0000000E+000
  0.0000000E+000
  0.0000000E+000
  0.0000000E+000
  0.0000000E+000
  0.0000000E+000
  0.0000000E+000
  0.0000000E+000
  0.0000000E+000
  0.0000000E+000
  0.0000000E+000
  0.0000000E+000
  0.0000000E+000
  0.0000000E+000
  0.0000000E+000
  0.0000000E+000
  0.0000000E+000
  0.0000000E+000
  0.0000000E+000
  0.0000000E+000
  0.0000000E+000
  0.0000000E+000
  0.0000000E+000
  0.0000000E+000
  0.0000000E+000
  0.0000000E+000
  0.0000000E+000
  0.0000000E+000
  0.0000000E+000
  0.0000000E+000
  0.0000000E+000
  0.0000000E+000
  0.0000000E+000
  0.0000000E+000
  0.0000000E+000
  0.0000000E+000
  0.0000000E+000
  0.0000000E+000
  0.0000000E+000
  0.0000000E+000
  0.0000000E+000
  0.0000000E+000
  0.0000000E+000
  0.0000000E+000
  0.0000000E+000
  0.0000000E+000
  0.0000000E+000
  0.0000000E+000
  0.0000000E+000
  0.0000000E+000
  0.0000000E+000
  0.0000000E+000
  0.0000000E+000
  0.0000000E+000
  0.0000000E+000
  0.0000000E+000
  0.0000000E+000
  0.0000000E+000
  0.0000000E+000
  0.0000000E+000
  0.0000000E+000
  0.0000000E+000
  0.0000000E+000
  0.0000000E+000
  0.0000000E+000
  0.0000000E+000
  0.0000000E+000
  0.0000000E+000
  0.0000000E+000
  0.0000000E+000
  0.0000000E+000
  0.0000000E+000
  0.0000000E+000
  0.0000000E+000
  0.0000000E+000
  0.0000000E+000
  0.0000000E+000
  0.0000000E+000
  0.0000000E+000
  0.0000000E+000
  0.0000000E+000
  0.0000000E+000
  0.0000000E+000
  0.0000000E+000
  0.0000000E+000
  0.0000000E+000
  0.0000000E+000
  0.0000000E+000
  0.0000000E+000
  0.0000000E+000
  0.0000000E+000
  0.0000000E+000
  0.0000000E+000
  0.0000000E+000
  0.0000000E+000
  0.0000000E+000
  0.0000000E+000
  0.0000000E+000
  0.0000000E+000
  0.0000000E+000
  0.0000000E+000
  0.0000000E+000
  0.0000000E+000
  0.0000000E+000
  0.0000000E+000
  0.0000000E+000
  0.0000000E+000
  0.0000000E+000
  0.0000000E+000
  0.0000000E+000
  0.0000000E+000
  0.0000000E+000
  0.0000000E+000
  0.0000000E+000
  0.0000000E+000
  0.0000000E+000
  0.0000000E+000
  0.0000000E+000
  0.0000000E+000
  0.0000000E+000
  0.0000000E+000
  0.0000000E+000
  0.0000000E+000
  0.0000000E+000
  0.0000000E+000
  0.0000000E+000
  0.0000000E+000
  0.0000000E+000
  0.0000000E+000
  0.0000000E+000
  0.0000000E+000
  0.0000000E+000
  0.0000000E+000
  0.0000000E+000
  0.0000000E+000
  0.0000000E+000
  0.0000000E+000
  0.0000000E+000
  0.0000000E+000
  0.0000000E+000
  0.0000000E+000
  0.0000000E+000
  0.0000000E+000
  0.0000000E+000
  0.0000000E+000
  0.0000000E+000
  0.0000000E+000
  0.0000000E+000
  0.0000000E+000
  0.0000000E+000
  0.0000000E+000
  0.0000000E+000
  0.0000000E+000
  0.0000000E+000
  0.0000000E+000
  0.0000000E+000
  0.0000000E+000
  0.0000000E+000
  0.0000000E+000
  0.0000000E+000
  0.0000000E+000
  0.0000000E+000
  0.0000000E+000
  0.0000000E+000
  0.0000000E+000
  0.0000000E+000
  0.0000000E+000
  0.0000000E+000
  0.0000000E+000
  0.0000000E+000
  0.0000000E+000
  0.0000000E+000
  0.0000000E+000
  0.0000000E+000
  0.0000000E+000
  0.0000000E+000
  0.0000000E+000
  0.0000000E+000
  0.0000000E+000
  0.0000000E+000
  0.0000000E+000
  0.0000000E+000
  0.0000000E+000
  0.0000000E+000
  0.0000000E+000
  0.0000000E+000
  0.0000000E+000
  0.0000000E+000
  0.0000000E+000
  0.0000000E+000
  0.0000000E+000
  0.0000000E+000
  0.0000000E+000
  0.0000000E+000
  0.0000000E+000
  0.0000000E+000
  0.0000000E+000
  0.0000000E+000
  0.0000000E+000
  0.0000000E+000
  0.0000000E+000
  0.0000000E+000
  0.0000000E+000
  0.0000000E+000
  0.0000000E+000
  0.0000000E+000
  0.0000000E+000
  0.0000000E+000
  0.0000000E+000
  0.0000000E+000
  0.0000000E+000
  0.0000000E+000
  0.0000000E+000
  0.0000000E+000
  0.0000000E+000
  0.0000000E+000
  0.0000000E+000
  0.0000000E+000
  0.0000000E+000
  0.0000000E+000
  0.0000000E+000
  0.0000000E+000
  0.0000000E+000
  0.0000000E+000
  0.0000000E+000
  0.0000000E+000
  0.0000000E+000
  0.0000000E+000
  0.0000000E+000
  0.0000000E+000
  0.0000000E+000
  0.0000000E+000
  0.0000000E+000
  0.0000000E+000
  0.0000000E+000
  0.0000000E+000
  0.0000000E+000
  0.0000000E+000
  0.0000000E+000
  0.0000000E+000
  0.0000000E+000
  0.0000000E+000
  0.0000000E+000
  0.0000000E+000
  0.0000000E+000
  0.0000000E+000
  0.0000000E+000
  0.0000000E+000
  0.0000000E+000
  0.0000000E+000
  0.0000000E+000
  0.0000000E+000
  0.0000000E+000
  0.0000000E+000
  0.0000000E+000
  0.0000000E+000
  0.0000000E+000
  0.0000000E+000
  0.0000000E+000
  0.0000000E+000
  0.0000000E+000
  0.0000000E+000
  0.0000000E+000
  0.0000000E+000
  0.0000000E+000
  0.0000000E+000
  0.0000000E+000
  0.0000000E+000
  0.0000000E+000
  0.0000000E+000
  0.0000000E+000
  0.0000000E+000
  0.0000000E+000
  0.0000000E+000
  0.0000000E+000
  0.0000000E+000
  0.0000000E+000
  0.0000000E+000
  0.0000000E+000
  0.0000000E+000
  0.0000000E+000
  0.0000000E+000
  0.0000000E+000
  0.0000000E+000
  0.0000000E+000
  0.0000000E+000
  0.0000000E+000
  0.0000000E+000
  0.0000000E+000
  0.0000000E+000
  0.0000000E+000
  0.0000000E+000
  0.0000000E+000
  0.0000000E+000
  0.0000000E+000
  0.0000000E+000
  0.0000000E+000
  0.0000000E+000
  0.0000000E+000
  0.0000000E+000
  0.0000000E+000
  0.0000000E+000
  0.0000000E+000
  0.0000000E+000
  0.0000000E+000
  0.0000000E+000
  0.0000000E+000
  0.0000000E+000
  0.0000000E+000
  0.0000000E+000
  0.0000000E+000
  0.0000000E+000
  0.0000000E+000
  0.0000000E+000
  0.0000000E+000
  0.0000000E+000
  0.0000000E+000
  0.0000000E+000
  0.0000000E+000
  0.0000000E+000
  0.0000000E+000
  0.0000000E+000
  0.0000000E+000
  0.0000000E+000
  0.0000000E+000
  0.0000000E+000
  0.0000000E+000
  0.0000000E+000
  0.0000000E+000
  0.0000000E+000
  0.0000000E+000
  0.0000000E+000
  0.0000000E+000
  0.0000000E+000
  0.0000000E+000
  0.0000000E+000
  0.0000000E+000
  0.0000000E+000
  0.0000000E+000
  0.0000000E+000
  0.0000000E+000
  0.0000000E+000
  0.0000000E+000
  0.0000000E+000
  0.0000000E+000
  0.0000000E+000
  0.0000000E+000
  0.0000000E+000
  0.0000000E+000
  0.0000000E+000
  0.0000000E+000
  0.0000000E+000
  0.0000000E+000
  0.0000000E+000
  0.0000000E+000
  0.0000000E+000
  0.0000000E+000
  0.0000000E+000
  0.0000000E+000
  0.0000000E+000
  0.0000000E+000
  0.0000000E+000
  0.0000000E+000
  0.0000000E+000
  0.0000000E+000
  0.0000000E+000
  0.0000000E+000
  0.0000000E+000
  0.0000000E+000
  0.0000000E+000
  0.0000000E+000
  0.0000000E+000
  0.0000000E+000
  0.0000000E+000
  0.0000000E+000
  0.0000000E+000
  0.0000000E+000
  0.0000000E+000
  0.0000000E+000
  0.0000000E+000
  0.0000000E+000
  0.0000000E+000
  0.0000000E+000
  0.0000000E+000
  0.0000000E+000
  0.0000000E+000
  0.0000000E+000
  0.0000000E+000
  0.0000000E+000
  0.0000000E+000
  0.0000000E+000
  0.0000000E+000
  0.0000000E+000
  0.0000000E+000
  0.0000000E+000
  0.0000000E+000
  0.0000000E+000
  0.0000000E+000
  0.0000000E+000
  0.0000000E+000
  0.0000000E+000
  0.0000000E+000
  0.0000000E+000
  0.0000000E+000
  0.0000000E+000
  0.0000000E+000
  0.0000000E+000
  0.0000000E+000
  0.0000000E+000
  0.0000000E+000
  0.0000000E+000
  0.0000000E+000
  0.0000000E+000
  0.0000000E+000
  0.0000000E+000
  0.0000000E+000
  0.0000000E+000
  0.0000000E+000
  0.0000000E+000
  0.0000000E+000
  0.0000000E+000
  0.0000000E+000
  0.0000000E+000
  0.0000000E+000
  0.0000000E+000
  0.0000000E+000
  0.0000000E+000
  0.0000000E+000
  0.0000000E+000
  0.0000000E+000
  0.0000000E+000
  0.0000000E+000
  0.0000000E+000
  0.0000000E+000
  0.0000000E+000
  0.0000000E+000
  0.0000000E+000
  0.0000000E+000
  0.0000000E+000
  0.0000000E+000
  0.0000000E+000
  0.0000000E+000
  0.0000000E+000
  0.0000000E+000
  0.0000000E+000
  0.0000000E+000
  0.0000000E+000
  0.0000000E+000
  0.0000000E+000
  0.0000000E+000
  0.0000000E+000
  0.0000000E+000
  0.0000000E+000
  0.0000000E+000
  0.0000000E+000
  0.0000000E+000
  0.0000000E+000
  0.0000000E+000
  0.0000000E+000
  0.0000000E+000
  0.0000000E+000
  0.0000000E+000
  0.0000000E+000
  0.0000000E+000
  0.0000000E+000
  0.0000000E+000
  0.0000000E+000
  0.0000000E+000
  0.0000000E+000
  0.0000000E+000
  0.0000000E+000
  0.0000000E+000
  0.0000000E+000
  0.0000000E+000
  0.0000000E+000
  0.0000000E+000
  0.0000000E+000
  0.0000000E+000
  0.0000000E+000
  0.0000000E+000
  0.0000000E+000
  0.0000000E+000
  0.0000000E+000
  0.0000000E+000
  0.0000000E+000
  0.0000000E+000
  0.0000000E+000
  0.0000000E+000
  0.0000000E+000
  0.0000000E+000
  0.0000000E+000
  0.0000000E+000
  0.0000000E+000
  0.0000000E+000
  0.0000000E+000
  0.0000000E+000
  0.0000000E+000
  0.0000000E+000
  0.0000000E+000
  0.0000000E+000
  0.0000000E+000
  0.0000000E+000
  0.0000000E+000
  0.0000000E+000
  0.0000000E+000
  0.0000000E+000
  0.0000000E+000
  0.0000000E+000
  0.0000000E+000
  0.0000000E+000
  0.0000000E+000
  0.0000000E+000
  0.0000000E+000
  0.0000000E+000
  0.0000000E+000
  0.0000000E+000
  0.0000000E+000
  0.0000000E+000
  0.0000000E+000
  0.0000000E+000
  0.0000000E+000
  0.0000000E+000
  0.0000000E+000
  0.0000000E+000
  0.0000000E+000
  0.0000000E+000
  0.0000000E+000
  0.0000000E+000
  0.0000000E+000
  0.0000000E+000
  0.0000000E+000
  0.0000000E+000
  0.0000000E+000
  0.0000000E+000
  0.0000000E+000
  0.0000000E+000
  0.0000000E+000
  0.0000000E+000
  0.0000000E+000
  0.0000000E+000
  0.0000000E+000
  0.0000000E+000
  0.0000000E+000
  0.0000000E+000
  0.0000000E+000
  0.0000000E+000
  0.0000000E+000
  0.0000000E+000
  0.0000000E+000
  0.0000000E+000
  0.0000000E+000
  0.0000000E+000
  0.0000000E+000
  0.0000000E+000
  0.0000000E+000
  0.0000000E+000
  0.0000000E+000
  0.0000000E+000
  0.0000000E+000
  0.0000000E+000
  0.0000000E+000
  0.0000000E+000
  0.0000000E+000
  0.0000000E+000
  0.0000000E+000
  0.0000000E+000
  0.0000000E+000
  0.0000000E+000
  0.0000000E+000
  0.0000000E+000
  0.0000000E+000
  0.0000000E+000
  0.0000000E+000
  0.0000000E+000
  0.0000000E+000
  0.0000000E+000
  0.0000000E+000
  0.0000000E+000
  0.0000000E+000
  0.0000000E+000
  0.0000000E+000
  0.0000000E+000
  0.0000000E+000
  0.0000000E+000
  0.0000000E+000
  0.0000000E+000
  0.0000000E+000
  0.0000000E+000
  0.0000000E+000
  0.0000000E+000
  0.0000000E+000
  0.0000000E+000
  0.0000000E+000
  0.0000000E+000
  0.0000000E+000
  0.0000000E+000
  0.0000000E+000
  0.0000000E+000
  0.0000000E+000
  0.0000000E+000
  0.0000000E+000
  0.0000000E+000
  0.0000000E+000
  0.0000000E+000
  0.0000000E+000
  0.0000000E+000
  0.0000000E+000
  0.0000000E+000
  0.0000000E+000
  0.0000000E+000
  0.0000000E+000
  0.0000000E+000
  0.0000000E+000
  0.0000000E+000
  0.0000000E+000
  0.0000000E+000
  0.0000000E+000
  0.0000000E+000
  0.0000000E+000
  0.0000000E+000
  0.0000000E+000
  0.0000000E+000
  0.0000000E+000
  0.0000000E+000
  0.0000000E+000
  0.0000000E+000
  0.0000000E+000
  0.0000000E+000
  0.0000000E+000
  0.0000000E+000
  0.0000000E+000
  0.0000000E+000
  0.0000000E+000
  0.0000000E+000
  0.0000000E+000
  0.0000000E+000
  0.0000000E+000
  0.0000000E+000
  0.0000000E+000
  0.0000000E+000
  0.0000000E+000
  0.0000000E+000
  0.0000000E+000
  0.0000000E+000
  0.0000000E+000
  0.0000000E+000
  0.0000000E+000
  0.0000000E+000
  0.0000000E+000
  0.0000000E+000
  0.0000000E+000
  0.0000000E+000
  0.0000000E+000
  0.0000000E+000
  0.0000000E+000
  0.0000000E+000
  0.0000000E+000
  0.0000000E+000
  0.0000000E+000
  0.0000000E+000
  0.0000000E+000
  0.0000000E+000
  0.0000000E+000
  0.0000000E+000
  0.0000000E+000
  0.0000000E+000
  0.0000000E+000
  0.0000000E+000
  0.0000000E+000
  0.0000000E+000
  0.0000000E+000
  0.0000000E+000
  0.0000000E+000
  0.0000000E+000
  0.0000000E+000
  0.0000000E+000
  0.0000000E+000
  0.0000000E+000
  0.0000000E+000
  0.0000000E+000
  0.0000000E+000
  0.0000000E+000
  0.0000000E+000
  0.0000000E+000
  0.0000000E+000
  0.0000000E+000
  0.0000000E+000
  0.0000000E+000
  0.0000000E+000
  0.0000000E+000
  0.0000000E+000
  0.0000000E+000
  0.0000000E+000
  0.0000000E+000
  0.0000000E+000
  0.0000000E+000
  0.0000000E+000
  0.0000000E+000
  0.0000000E+000
  0.0000000E+000
  0.0000000E+000
  0.0000000E+000
  0.0000000E+000
  0.0000000E+000
  0.0000000E+000
  0.0000000E+000
  0.0000000E+000
  0.0000000E+000
  0.0000000E+000
  0.0000000E+000
  0.0000000E+000
  0.0000000E+000
  0.0000000E+000
  0.0000000E+000
  0.0000000E+000
  0.0000000E+000
  0.0000000E+000
  0.0000000E+000
  0.0000000E+000
  0.0000000E+000
  0.0000000E+000
  0.0000000E+000
  0.0000000E+000
  0.0000000E+000
  0.0000000E+000
  0.0000000E+000
  0.0000000E+000
  0.0000000E+000
  0.0000000E+000
  0.0000000E+000
  0.0000000E+000
  0.0000000E+000
  0.0000000E+000
  0.0000000E+000
  0.0000000E+000
  0.0000000E+000
  0.0000000E+000
  0.0000000E+000
  0.0000000E+000
  0.0000000E+000
  0.0000000E+000
  0.0000000E+000
  0.0000000E+000
  0.0000000E+000
  0.0000000E+000
  0.0000000E+000
  0.0000000E+000
  0.0000000E+000
  0.0000000E+000
  0.0000000E+000
  0.0000000E+000
  0.0000000E+000
  0.0000000E+000
  0.0000000E+000
  0.0000000E+000
  0.0000000E+000
  0.0000000E+000
  0.0000000E+000
  0.0000000E+000
  0.0000000E+000
  0.0000000E+000
  0.0000000E+000
  0.0000000E+000
  0.0000000E+000
  0.0000000E+000
  0.0000000E+000
  0.0000000E+000
  0.0000000E+000
  0.0000000E+000
  0.0000000E+000
  0.0000000E+000
  0.0000000E+000
  0.0000000E+000
  0.0000000E+000
  0.0000000E+000
  0.0000000E+000
  0.0000000E+000
  0.0000000E+000
  0.0000000E+000
  0.0000000E+000
  0.0000000E+000
  0.0000000E+000
  0.0000000E+000
  0.0000000E+000
  0.0000000E+000
  0.0000000E+000
  0.0000000E+000
  0.0000000E+000
  0.0000000E+000
  0.0000000E+000
  0.0000000E+000
  0.0000000E+000
  0.0000000E+000
  0.0000000E+000
  0.0000000E+000
  0.0000000E+000
  0.0000000E+000
  0.0000000E+000
  0.0000000E+000
  0.0000000E+000
  0.0000000E+000
  0.0000000E+000
  0.0000000E+000
  0.0000000E+000
  0.0000000E+000
  0.0000000E+000
  0.0000000E+000
  0.0000000E+000
  0.0000000E+000
  0.0000000E+000
  0.0000000E+000
  0.0000000E+000
  0.0000000E+000
  0.0000000E+000
  0.0000000E+000
  0.0000000E+000
  0.0000000E+000
  0.0000000E+000
  0.0000000E+000
  0.0000000E+000
  0.0000000E+000
  0.0000000E+000
  0.0000000E+000
  0.0000000E+000
  0.0000000E+000
  0.0000000E+000
  0.0000000E+000
  0.0000000E+000
  0.0000000E+000
  0.0000000E+000
  0.0000000E+000
  0.0000000E+000
  0.0000000E+000
  0.0000000E+000
  0.0000000E+000
  0.0000000E+000
  0.0000000E+000
  0.0000000E+000
  0.0000000E+000
  0.0000000E+000
  0.0000000E+000
  0.0000000E+000
  0.0000000E+000
  0.0000000E+000
  0.0000000E+000
  0.0000000E+000
  0.0000000E+000
  0.0000000E+000
  0.0000000E+000
  0.0000000E+000
  0.0000000E+000
  0.0000000E+000
  0.0000000E+000
  0.0000000E+000
  0.0000000E+000
  0.0000000E+000
  0.0000000E+000
  0.0000000E+000
  0.0000000E+000
  0.0000000E+000
  0.0000000E+000
  0.0000000E+000
  0.0000000E+000
  0.0000000E+000
  0.0000000E+000
  0.0000000E+000
  0.0000000E+000
  0.0000000E+000
  0.0000000E+000
  0.0000000E+000
  0.0000000E+000
  0.0000000E+000
  0.0000000E+000
  0.0000000E+000
  0.0000000E+000
  0.0000000E+000
  0.0000000E+000
  0.0000000E+000
  0.0000000E+000
  0.0000000E+000
  0.0000000E+000
  0.0000000E+000
  0.0000000E+000
  0.0000000E+000
  0.0000000E+000
  0.0000000E+000
  0.0000000E+000
  0.0000000E+000
  0.0000000E+000
  0.0000000E+000
  0.0000000E+000
  0.0000000E+000
  0.0000000E+000
  0.0000000E+000
  0.0000000E+000
  0.0000000E+000
  0.0000000E+000
  0.0000000E+000
  0.0000000E+000
  0.0000000E+000
  0.0000000E+000
  0.0000000E+000
  0.0000000E+000
  0.0000000E+000
  0.0000000E+000
  0.0000000E+000
  0.0000000E+000
  0.0000000E+000
  0.0000000E+000
  0.0000000E+000
  0.0000000E+000
  0.0000000E+000
  0.0000000E+000
  0.0000000E+000
  0.0000000E+000
  0.0000000E+000
  0.0000000E+000
  0.0000000E+000
  0.0000000E+000
  0.0000000E+000
  0.0000000E+000
  0.0000000E+000
  0.0000000E+000
  0.0000000E+000
  0.0000000E+000
  0.0000000E+000
  0.0000000E+000
  0.0000000E+000
  0.0000000E+000
  0.0000000E+000
  0.0000000E+000
  0.0000000E+000
  0.0000000E+000
  0.0000000E+000
  0.0000000E+000
  0.0000000E+000
  0.0000000E+000
  0.0000000E+000
  0.0000000E+000
  0.0000000E+000
  0.0000000E+000
  0.0000000E+000
  0.0000000E+000
  0.0000000E+000
  0.0000000E+000
  0.0000000E+000
  0.0000000E+000
  0.0000000E+000
  0.0000000E+000
  0.0000000E+000
  0.0000000E+000
  0.0000000E+000
  0.0000000E+000
  0.0000000E+000
  0.0000000E+000
  0.0000000E+000
  0.0000000E+000
  0.0000000E+000
  0.0000000E+000
  0.0000000E+000
  0.0000000E+000
  0.0000000E+000
  0.0000000E+000
  0.0000000E+000
  0.0000000E+000
  0.0000000E+000
  0.0000000E+000
  0.0000000E+000
  0.0000000E+000
  0.0000000E+000
  0.0000000E+000
  0.0000000E+000
  0.0000000E+000
  0.0000000E+000
  0.0000000E+000
  0.0000000E+000
  0.0000000E+000
  0.0000000E+000
  0.0000000E+000
  0.0000000E+000
  0.0000000E+000
  0.0000000E+000
  0.0000000E+000
  0.0000000E+000
  0.0000000E+000
  0.0000000E+000
  0.0000000E+000
  0.0000000E+000
  0.0000000E+000
  0.0000000E+000
  0.0000000E+000
  0.0000000E+000
  0.0000000E+000
  0.0000000E+000
  0.0000000E+000
  0.0000000E+000
  0.0000000E+000
  0.0000000E+000
  0.0000000E+000
  0.0000000E+000
  0.0000000E+000
  0.0000000E+000
  0.0000000E+000
  0.0000000E+000
  0.0000000E+000
  0.0000000E+000
  0.0000000E+000
  0.0000000E+000
  0.0000000E+000
  0.0000000E+000
  0.0000000E+000
  0.0000000E+000
  0.0000000E+000
  0.0000000E+000
  0.0000000E+000
  0.0000000E+000
  0.0000000E+000
  0.0000000E+000
  0.0000000E+000
  0.0000000E+000
  0.0000000E+000
  0.0000000E+000
  0.0000000E+000
  0.0000000E+000
  0.0000000E+000
  0.0000000E+000
  0.0000000E+000
  0.0000000E+000
  0.0000000E+000
  0.0000000E+000
  0.0000000E+000
  0.0000000E+000
  0.0000000E+000
  0.0000000E+000
  0.0000000E+000
  0.0000000E+000
  0.0000000E+000
  0.0000000E+000
  0.0000000E+000
  0.0000000E+000
  0.0000000E+000
  0.0000000E+000
  0.0000000E+000
  0.0000000E+000
  0.0000000E+000
  0.0000000E+000
  0.0000000E+000
  0.0000000E+000
  0.0000000E+000
  0.0000000E+000
  0.0000000E+000
  0.0000000E+000
  0.0000000E+000
  0.0000000E+000
  0.0000000E+000
  0.0000000E+000
  0.0000000E+000
  0.0000000E+000
  0.0000000E+000
  0.0000000E+000
  0.0000000E+000
  0.0000000E+000
  0.0000000E+000
  0.0000000E+000
  0.0000000E+000
  0.0000000E+000
  0.0000000E+000
  0.0000000E+000
  0.0000000E+000
  0.0000000E+000
  0.0000000E+000
  0.0000000E+000
  0.0000000E+000
  0.0000000E+000
  0.0000000E+000
  0.0000000E+000
  0.0000000E+000
  0.0000000E+000
  0.0000000E+000
  0.0000000E+000
  0.0000000E+000
  0.0000000E+000
  0.0000000E+000
  0.0000000E+000
  0.0000000E+000
  0.0000000E+000
  0.0000000E+000
  0.0000000E+000
  0.0000000E+000
  0.0000000E+000
  0.0000000E+000
  0.0000000E+000
  0.0000000E+000
  0.0000000E+000
  0.0000000E+000
  0.0000000E+000
  0.0000000E+000
  0.0000000E+000
  0.0000000E+000
  0.0000000E+000
  0.0000000E+000
  0.0000000E+000
  0.0000000E+000
  0.0000000E+000
  0.0000000E+000
  0.0000000E+000
  0.0000000E+000
  0.0000000E+000
  0.0000000E+000
  0.0000000E+000
  0.0000000E+000
  0.0000000E+000
  0.0000000E+000
  0.0000000E+000
  0.0000000E+000
  0.0000000E+000
  0.0000000E+000
  0.0000000E+000
  0.0000000E+000
  0.0000000E+000
  0.0000000E+000
  0.0000000E+000
  0.0000000E+000
  0.0000000E+000
  0.0000000E+000
  0.0000000E+000
  0.0000000E+000
  0.0000000E+000
  0.0000000E+000
  0.0000000E+000
  0.0000000E+000
  0.0000000E+000
  0.0000000E+000
  0.0000000E+000
  0.0000000E+000
  0.0000000E+000
  0.0000000E+000
  0.0000000E+000
  0.0000000E+000
  0.0000000E+000
  0.0000000E+000
  0.0000000E+000
  0.0000000E+000
  0.0000000E+000
  0.0000000E+000
  0.0000000E+000
  0.0000000E+000
  0.0000000E+000
  0.0000000E+000
  0.0000000E+000
  0.0000000E+000
  0.0000000E+000
  0.0000000E+000
  0.0000000E+000
  0.0000000E+000
  0.0000000E+000
  0.0000000E+000
  0.0000000E+000
  0.0000000E+000
  0.0000000E+000
  0.0000000E+000
  0.0000000E+000
  0.0000000E+000
  0.0000000E+000
  0.0000000E+000
  0.0000000E+000
  0.0000000E+000
  0.0000000E+000
  0.0000000E+000
  0.0000000E+000
  0.0000000E+000
  0.0000000E+000
  0.0000000E+000
  0.0000000E+000
  0.0000000E+000
  0.0000000E+000
  0.0000000E+000
  0.0000000E+000
  0.0000000E+000
  0.0000000E+000
  0.0000000E+000
  0.0000000E+000
  0.0000000E+000
  0.0000000E+000
  0.0000000E+000
  0.0000000E+000
  0.0000000E+000
  0.0000000E+000
  0.0000000E+000
  0.0000000E+000
  0.0000000E+000
  0.0000000E+000
  0.0000000E+000
  0.0000000E+000
  0.0000000E+000
  0.0000000E+000
  0.0000000E+000
  0.0000000E+000
  0.0000000E+000
  0.0000000E+000
  0.0000000E+000
  0.0000000E+000
  0.0000000E+000
  0.0000000E+000
  0.0000000E+000
  0.0000000E+000
  0.0000000E+000
  0.0000000E+000
  0.0000000E+000
  0.0000000E+000
  0.0000000E+000
  0.0000000E+000
  0.0000000E+000
  0.0000000E+000
  0.0000000E+000
  0.0000000E+000
  0.0000000E+000
  0.0000000E+000
  0.0000000E+000
  0.0000000E+000
  0.0000000E+000
  0.0000000E+000
  0.0000000E+000
  0.0000000E+000
  0.0000000E+000
  0.0000000E+000
  0.0000000E+000
  0.0000000E+000
  0.0000000E+000
  0.0000000E+000
  0.0000000E+000
  0.0000000E+000
  0.0000000E+000
  0.0000000E+000
  0.0000000E+000
  0.0000000E+000
  0.0000000E+000
  0.0000000E+000
  0.0000000E+000
  0.0000000E+000
  0.0000000E+000
  0.0000000E+000
  0.0000000E+000
  0.0000000E+000
  0.0000000E+000
  0.0000000E+000
  0.0000000E+000
  0.0000000E+000
  0.0000000E+000
  0.0000000E+000
  0.0000000E+000
  0.0000000E+000
  0.0000000E+000
  0.0000000E+000
  0.0000000E+000
  0.0000000E+000
  0.0000000E+000
  0.0000000E+000
  0.0000000E+000
  0.0000000E+000
  0.0000000E+000
  0.0000000E+000
  0.0000000E+000
  0.0000000E+000
  0.0000000E+000
  0.0000000E+000
  0.0000000E+000
  0.0000000E+000
  0.0000000E+000
  0.0000000E+000
  0.0000000E+000
  0.0000000E+000
  0.0000000E+000
  0.0000000E+000
  0.0000000E+000
  0.0000000E+000
  0.0000000E+000
  0.0000000E+000
  0.0000000E+000
  0.0000000E+000
  0.0000000E+000
  0.0000000E+000
  0.0000000E+000
  0.0000000E+000
  0.0000000E+000
  0.0000000E+000
  0.0000000E+000
  0.0000000E+000
  0.0000000E+000
  0.0000000E+000
  0.0000000E+000
  0.0000000E+000
  0.0000000E+000
  0.0000000E+000
  0.0000000E+000
  0.0000000E+000
  0.0000000E+000
  0.0000000E+000
  0.0000000E+000
  0.0000000E+000
  0.0000000E+000
  0.0000000E+000
  0.0000000E+000
  0.0000000E+000
  0.0000000E+000
  0.0000000E+000
  0.0000000E+000
  0.0000000E+000
  0.0000000E+000
  0.0000000E+000
  0.0000000E+000
  0.0000000E+000
  0.0000000E+000
  0.0000000E+000
  0.0000000E+000
  0.0000000E+000
  0.0000000E+000
  0.0000000E+000
  0.0000000E+000
  0.0000000E+000
  0.0000000E+000
  0.0000000E+000
  0.0000000E+000
  0.0000000E+000
  0.0000000E+000
  0.0000000E+000
  0.0000000E+000
  0.0000000E+000
  0.0000000E+000
  0.0000000E+000
  0.0000000E+000
  0.0000000E+000
  0.0000000E+000
  0.0000000E+000
  0.0000000E+000
  0.0000000E+000
  0.0000000E+000
  0.0000000E+000
  0.0000000E+000
  0.0000000E+000
  0.0000000E+000
  0.0000000E+000
  0.0000000E+000
  0.0000000E+000
  0.0000000E+000
  0.0000000E+000
  0.0000000E+000
  0.0000000E+000
  0.0000000E+000
  0.0000000E+000
  0.0000000E+000
  0.0000000E+000
  0.0000000E+000
  0.0000000E+000
  0.0000000E+000
  0.0000000E+000
  0.0000000E+000
  0.0000000E+000
  0.0000000E+000
  0.0000000E+000
  0.0000000E+000
  0.0000000E+000
  0.0000000E+000
  0.0000000E+000
  0.0000000E+000
  0.0000000E+000
  0.0000000E+000
  0.0000000E+000
  0.0000000E+000
  0.0000000E+000
  0.0000000E+000
  0.0000000E+000
  0.0000000E+000
  0.0000000E+000
  0.0000000E+000
  0.0000000E+000
  0.0000000E+000
  0.0000000E+000
  0.0000000E+000
  0.0000000E+000
  0.0000000E+000
  0.0000000E+000
  0.0000000E+000
  0.0000000E+000
  0.0000000E+000
  0.0000000E+000
  0.0000000E+000
  0.0000000E+000
  0.0000000E+000
  0.0000000E+000
  0.0000000E+000
  0.0000000E+000
  0.0000000E+000
  0.0000000E+000
  0.0000000E+000
  0.0000000E+000
  0.0000000E+000
  0.0000000E+000
  0.0000000E+000
  0.0000000E+000
  0.0000000E+000
  0.0000000E+000
  0.0000000E+000
  0.0000000E+000
  0.0000000E+000
  0.0000000E+000
  0.0000000E+000
  0.0000000E+000
  0.0000000E+000
  0.0000000E+000
  0.0000000E+000
  0.0000000E+000
  0.0000000E+000
  0.0000000E+000
  0.0000000E+000
  0.0000000E+000
  0.0000000E+000
  0.0000000E+000
  0.0000000E+000
  0.0000000E+000
  0.0000000E+000
  0.0000000E+000
  0.0000000E+000
  0.0000000E+000
  0.0000000E+000
  0.0000000E+000
  0.0000000E+000
  0.0000000E+000
  0.0000000E+000
  0.0000000E+000
  0.0000000E+000
  0.0000000E+000
  0.0000000E+000
  0.0000000E+000
  0.0000000E+000
  0.0000000E+000
  0.0000000E+000
  0.0000000E+000
  0.0000000E+000
  0.0000000E+000
  0.0000000E+000
  0.0000000E+000
  0.0000000E+000
  0.0000000E+000
  0.0000000E+000
  0.0000000E+000
  0.0000000E+000
  0.0000000E+000
  0.0000000E+000
  0.0000000E+000
  0.0000000E+000
  0.0000000E+000
  0.0000000E+000
  0.0000000E+000
  0.0000000E+000
  0.0000000E+000
  0.0000000E+000
  0.0000000E+000
  0.0000000E+000
  0.0000000E+000
  0.0000000E+000
  0.0000000E+000
  0.0000000E+000
  0.0000000E+000
  0.0000000E+000
  0.0000000E+000
  0.0000000E+000
  0.0000000E+000
  0.0000000E+000
  0.0000000E+000
  0.0000000E+000
  0.0000000E+000
  0.0000000E+000
  0.0000000E+000
  0.0000000E+000
  0.0000000E+000
  0.0000000E+000
  0.0000000E+000
  0.0000000E+000
  0.0000000E+000
  0.0000000E+000
  0.0000000E+000
  0.0000000E+000
  0.0000000E+000
  0.0000000E+000
  0.0000000E+000
  0.0000000E+000
  0.0000000E+000
  0.0000000E+000
  0.0000000E+000
  0.0000000E+000
  0.0000000E+000
  0.0000000E+000
  0.0000000E+000
  0.0000000E+000
  0.0000000E+000
  0.0000000E+000
  0.0000000E+000
  0.0000000E+000
  0.0000000E+000
  0.0000000E+000
  0.0000000E+000
  0.0000000E+000
  0.0000000E+000
  0.0000000E+000
  0.0000000E+000
  0.0000000E+000
  0.0000000E+000
  0.0000000E+000
  0.0000000E+000
  0.0000000E+000
  0.0000000E+000
  0.0000000E+000
  0.0000000E+000
  0.0000000E+000
  0.0000000E+000
  0.0000000E+000
  0.0000000E+000
  0.0000000E+000
  0.0000000E+000
  0.0000000E+000
  0.0000000E+000
  0.0000000E+000
  0.0000000E+000
  0.0000000E+000
  0.0000000E+000
  0.0000000E+000
  0.0000000E+000
  0.0000000E+000
  0.0000000E+000
  0.0000000E+000
  0.0000000E+000
  0.0000000E+000
  0.0000000E+000
  0.0000000E+000
  0.0000000E+000
  0.0000000E+000
  0.0000000E+000
  0.0000000E+000
  0.0000000E+000
  0.0000000E+000
  0.0000000E+000
  0.0000000E+000
  0.0000000E+000
  0.0000000E+000
  0.0000000E+000
  0.0000000E+000
  0.0000000E+000
  0.0000000E+000
  0.0000000E+000
  0.0000000E+000
  0.0000000E+000
  0.0000000E+000
  0.0000000E+000
  0.0000000E+000
  0.0000000E+000
  0.0000000E+000
  0.0000000E+000
  0.0000000E+000
  0.0000000E+000
  0.0000000E+000
  0.0000000E+000
  0.0000000E+000
  0.0000000E+000
  0.0000000E+000
  0.0000000E+000
  0.0000000E+000
  0.0000000E+000
  0.0000000E+000
  0.0000000E+000
  0.0000000E+000
  0.0000000E+000
  0.0000000E+000
  0.0000000E+000
  0.0000000E+000
  0.0000000E+000
  0.0000000E+000
  0.0000000E+000
  0.0000000E+000
  0.0000000E+000
  0.0000000E+000
  0.0000000E+000
  0.0000000E+000
  0.0000000E+000
  0.0000000E+000
  0.0000000E+000
  0.0000000E+000
  0.0000000E+000
  0.0000000E+000
  0.0000000E+000
  0.0000000E+000
  0.0000000E+000
  0.0000000E+000
  0.0000000E+000
  0.0000000E+000
  0.0000000E+000
  0.0000000E+000
  0.0000000E+000
  0.0000000E+000
  0.0000000E+000
  0.0000000E+000
  0.0000000E+000
  0.0000000E+000
  0.0000000E+000
  0.0000000E+000
  0.0000000E+000
  0.0000000E+000
  0.0000000E+000
  0.0000000E+000
  0.0000000E+000
  0.0000000E+000
  0.0000000E+000
  0.0000000E+000
  0.0000000E+000
  0.0000000E+000
  0.0000000E+000
  0.0000000E+000
  0.0000000E+000
  0.0000000E+000
  0.0000000E+000
  0.0000000E+000
  0.0000000E+000
  0.0000000E+000
  0.0000000E+000
  0.0000000E+000
  0.0000000E+000
  0.0000000E+000
  0.0000000E+000
  0.0000000E+000
  0.0000000E+000
  0.0000000E+000
  0.0000000E+000
  0.0000000E+000
  0.0000000E+000
  0.0000000E+000
  0.0000000E+000
  0.0000000E+000
  0.0000000E+000
  0.0000000E+000
  0.0000000E+000
  0.0000000E+000
  0.0000000E+000
  0.0000000E+000
  0.0000000E+000
  0.0000000E+000
  0.0000000E+000
  0.0000000E+000
  0.0000000E+000
  0.0000000E+000
  0.0000000E+000
  0.0000000E+000
  0.0000000E+000
  0.0000000E+000
  0.0000000E+000
  0.0000000E+000
  0.0000000E+000
  0.0000000E+000
  0.0000000E+000
  0.0000000E+000
  0.0000000E+000
  0.0000000E+000
  0.0000000E+000
  0.0000000E+000
  0.0000000E+000
  0.0000000E+000
  0.0000000E+000
  0.0000000E+000
  0.0000000E+000
  0.0000000E+000
  0.0000000E+000
  0.0000000E+000
  0.0000000E+000
  0.0000000E+000
  0.0000000E+000
  0.0000000E+000
  0.0000000E+000
  0.0000000E+000
  0.0000000E+000
  0.0000000E+000
  0.0000000E+000
  0.0000000E+000
  0.0000000E+000
  0.0000000E+000
  0.0000000E+000
  0.0000000E+000
  0.0000000E+000
  0.0000000E+000
  0.0000000E+000
  0.0000000E+000
  0.0000000E+000
  0.0000000E+000
  0.0000000E+000
  0.0000000E+000
  0.0000000E+000
  0.0000000E+000
  0.0000000E+000
  0.0000000E+000
  0.0000000E+000
  0.0000000E+000
  0.0000000E+000
  0.0000000E+000
  0.0000000E+000
  0.0000000E+000
  0.0000000E+000
  0.0000000E+000
  0.0000000E+000
  0.0000000E+000
  0.0000000E+000
  0.0000000E+000
  0.0000000E+000
  0.0000000E+000
  0.0000000E+000
  0.0000000E+000
  0.0000000E+000
  0.0000000E+000
  0.0000000E+000
  0.0000000E+000
  0.0000000E+000
  0.0000000E+000
  0.0000000E+000
  0.0000000E+000
  0.0000000E+000
  0.0000000E+000
  0.0000000E+000
  0.0000000E+000
  0.0000000E+000
  0.0000000E+000
  0.0000000E+000
  0.0000000E+000
  0.0000000E+000
  0.0000000E+000
  0.0000000E+000
  0.0000000E+000
  0.0000000E+000
  0.0000000E+000
  0.0000000E+000
  0.0000000E+000
  0.0000000E+000
  0.0000000E+000
  0.0000000E+000
  0.0000000E+000
  0.0000000E+000
  0.0000000E+000
  0.0000000E+000
  0.0000000E+000
  0.0000000E+000
  0.0000000E+000
  0.0000000E+000
  0.0000000E+000
  0.0000000E+000
  0.0000000E+000
  0.0000000E+000
  0.0000000E+000
  0.0000000E+000
  0.0000000E+000
  0.0000000E+000
  0.0000000E+000
  0.0000000E+000
  0.0000000E+000
  0.0000000E+000
  0.0000000E+000
  0.0000000E+000
  0.0000000E+000
  0.0000000E+000
  0.0000000E+000
  0.0000000E+000
  0.0000000E+000
  0.0000000E+000
  0.0000000E+000
  0.0000000E+000
  0.0000000E+000
  0.0000000E+000
  0.0000000E+000
  0.0000000E+000
  0.0000000E+000
  0.0000000E+000
  0.0000000E+000
  0.0000000E+000
  0.0000000E+000
  0.0000000E+000
  0.0000000E+000
  0.0000000E+000
  0.0000000E+000
  0.0000000E+000
  0.0000000E+000
  0.0000000E+000
  0.0000000E+000
  0.0000000E+000
  0.0000000E+000
  0.0000000E+000
  0.0000000E+000
  0.0000000E+000
  0.0000000E+000
  0.0000000E+000
  0.0000000E+000
  0.0000000E+000
  0.0000000E+000
  0.0000000E+000
  0.0000000E+000
  0.0000000E+000
  0.0000000E+000
  0.0000000E+000
  0.0000000E+000
  0.0000000E+000
  0.0000000E+000
  0.0000000E+000
  0.0000000E+000
  0.0000000E+000
  0.0000000E+000
  0.0000000E+000
  0.0000000E+000
  0.0000000E+000
  0.0000000E+000
  0.0000000E+000
  0.0000000E+000
  0.0000000E+000
  0.0000000E+000
  0.0000000E+000
  0.0000000E+000
  0.0000000E+000
  0.0000000E+000
  0.0000000E+000
  0.0000000E+000
  0.0000000E+000
  0.0000000E+000
  0.0000000E+000
  0.0000000E+000
  0.0000000E+000
  0.0000000E+000
  0.0000000E+000
  0.0000000E+000
  0.0000000E+000
  0.0000000E+000
  0.0000000E+000
  0.0000000E+000
  0.0000000E+000
  0.0000000E+000
  0.0000000E+000
  0.0000000E+000
  0.0000000E+000
  0.0000000E+000
  0.0000000E+000
  0.0000000E+000
  0.0000000E+000
  0.0000000E+000
  0.0000000E+000
  0.0000000E+000
  0.0000000E+000
  0.0000000E+000
  0.0000000E+000
  0.0000000E+000
  0.0000000E+000
  0.0000000E+000
  0.0000000E+000
  0.0000000E+000
  0.0000000E+000
  0.0000000E+000
  0.0000000E+000
  0.0000000E+000
  0.0000000E+000
  0.0000000E+000
  0.0000000E+000
  0.0000000E+000
  0.0000000E+000
  0.0000000E+000
  0.0000000E+000
  0.0000000E+000
  0.0000000E+000
  0.0000000E+000
  0.0000000E+000
  0.0000000E+000
  0.0000000E+000
  0.0000000E+000
  0.0000000E+000
  0.0000000E+000
  0.0000000E+000
  0.0000000E+000
  0.0000000E+000
  0.0000000E+000
  0.0000000E+000
  0.0000000E+000
  0.0000000E+000
  0.0000000E+000
  0.0000000E+000
  0.0000000E+000
  0.0000000E+000
  0.0000000E+000
  0.0000000E+000
  0.0000000E+000
  0.0000000E+000
  0.0000000E+000
  0.0000000E+000
  0.0000000E+000
  0.0000000E+000
  0.0000000E+000
  0.0000000E+000
  0.0000000E+000
  0.0000000E+000
  0.0000000E+000
  0.0000000E+000
  0.0000000E+000
  0.0000000E+000
  0.0000000E+000
  0.0000000E+000
  0.0000000E+000
  0.0000000E+000
  0.0000000E+000
  0.0000000E+000
  0.0000000E+000
  0.0000000E+000
  0.0000000E+000
  0.0000000E+000
  0.0000000E+000
  0.0000000E+000
  0.0000000E+000
  0.0000000E+000
  0.0000000E+000
  0.0000000E+000
  0.0000000E+000
  0.0000000E+000
  0.0000000E+000
  0.0000000E+000
  0.0000000E+000
  0.0000000E+000
  0.0000000E+000
  0.0000000E+000
  0.0000000E+000
  0.0000000E+000
  0.0000000E+000
  0.0000000E+000
  0.0000000E+000
  0.0000000E+000
  0.0000000E+000
  0.0000000E+000
  0.0000000E+000
  0.0000000E+000
  0.0000000E+000
  0.0000000E+000
  0.0000000E+000
  0.0000000E+000
  0.0000000E+000
  0.0000000E+000
  0.0000000E+000
  0.0000000E+000
  0.0000000E+000
  0.0000000E+000
  0.0000000E+000
  0.0000000E+000
  0.0000000E+000
  0.0000000E+000
  0.0000000E+000
  0.0000000E+000
  0.0000000E+000
  0.0000000E+000
  0.0000000E+000
  0.0000000E+000
  0.0000000E+000
  0.0000000E+000
  0.0000000E+000
  0.0000000E+000
  0.0000000E+000
  0.0000000E+000
  0.0000000E+000
  0.0000000E+000
  0.0000000E+000
  0.0000000E+000
  0.0000000E+000
  0.0000000E+000
  0.0000000E+000
  0.0000000E+000
  0.0000000E+000
  0.0000000E+000
  0.0000000E+000
  0.0000000E+000
  0.0000000E+000
  0.0000000E+000
  0.0000000E+000
  0.0000000E+000
  0.0000000E+000
  0.0000000E+000
  0.0000000E+000
  0.0000000E+000
  0.0000000E+000
  0.0000000E+000
  0.0000000E+000
  0.0000000E+000
  0.0000000E+000
  0.0000000E+000
  0.0000000E+000
  0.0000000E+000
  0.0000000E+000
  0.0000000E+000
  0.0000000E+000
  0.0000000E+000
  0.0000000E+000
  0.0000000E+000
  0.0000000E+000
  0.0000000E+000
  0.0000000E+000
  0.0000000E+000
  0.0000000E+000
  0.0000000E+000
  0.0000000E+000
  0.0000000E+000
  0.0000000E+000
  0.0000000E+000
  0.0000000E+000
  0.0000000E+000
  0.0000000E+000
  0.0000000E+000
  0.0000000E+000
  0.0000000E+000
  0.0000000E+000
  0.0000000E+000
  0.0000000E+000
  0.0000000E+000
  0.0000000E+000
  0.0000000E+000
  0.0000000E+000
  0.0000000E+000
  0.0000000E+000
  0.0000000E+000
  0.0000000E+000
  0.0000000E+000
  0.0000000E+000
  0.0000000E+000
  0.0000000E+000
  0.0000000E+000
  0.0000000E+000
  0.0000000E+000
  0.0000000E+000
  0.0000000E+000
  0.0000000E+000
  0.0000000E+000
  0.0000000E+000
  0.0000000E+000
  0.0000000E+000
  0.0000000E+000
  0.0000000E+000
  0.0000000E+000
  0.0000000E+000
  0.0000000E+000
  0.0000000E+000
  0.0000000E+000
  0.0000000E+000
  0.0000000E+000
  0.0000000E+000
  0.0000000E+000
  0.0000000E+000
  0.0000000E+000
  0.0000000E+000
  0.0000000E+000
  0.0000000E+000
  0.0000000E+000
  0.0000000E+000
  0.0000000E+000
  0.0000000E+000
  0.0000000E+000
  0.0000000E+000
  0.0000000E+000
  0.0000000E+000
  0.0000000E+000
  0.0000000E+000
  0.0000000E+000
  0.0000000E+000
  0.0000000E+000
  0.0000000E+000
  0.0000000E+000
  0.0000000E+000
  0.0000000E+000
  0.0000000E+000
  0.0000000E+000
  0.0000000E+000
  0.0000000E+000
  0.0000000E+000
  0.0000000E+000
  0.0000000E+000
  0.0000000E+000
  0.0000000E+000
  0.0000000E+000
  0.0000000E+000
  0.0000000E+000
  0.0000000E+000
  0.0000000E+000
  0.0000000E+000
  0.0000000E+000
  0.0000000E+000
  0.0000000E+000
  0.0000000E+000
  0.0000000E+000
  0.0000000E+000
  0.0000000E+000
  0.0000000E+000
  0.0000000E+000
  0.0000000E+000
  0.0000000E+000
  0.0000000E+000
  0.0000000E+000
  0.0000000E+000
  0.0000000E+000
  0.0000000E+000
  0.0000000E+000
  0.0000000E+000
  0.0000000E+000
  0.0000000E+000
  0.0000000E+000
  0.0000000E+000
  0.0000000E+000
  0.0000000E+000
  0.0000000E+000
  0.0000000E+000
  0.0000000E+000
  0.0000000E+000
  0.0000000E+000
  0.0000000E+000
  0.0000000E+000
  0.0000000E+000
  0.0000000E+000
  0.0000000E+000
  0.0000000E+000
  0.0000000E+000
  0.0000000E+000
  0.0000000E+000
  0.0000000E+000
  0.0000000E+000
  0.0000000E+000
  0.0000000E+000
  0.0000000E+000
  0.0000000E+000
  0.0000000E+000
  0.0000000E+000
  0.0000000E+000
  0.0000000E+000
  0.0000000E+000
  0.0000000E+000
  0.0000000E+000
  0.0000000E+000
  0.0000000E+000
  0.0000000E+000
  0.0000000E+000
  0.0000000E+000
  0.0000000E+000
  0.0000000E+000
  0.0000000E+000
  0.0000000E+000
  0.0000000E+000
  0.0000000E+000
  0.0000000E+000
  0.0000000E+000
  0.0000000E+000
  0.0000000E+000
  0.0000000E+000
  0.0000000E+000
  0.0000000E+000
  0.0000000E+000
  0.0000000E+000
  0.0000000E+000
  0.0000000E+000
  0.0000000E+000
  0.0000000E+000
  0.0000000E+000
  0.0000000E+000
  0.0000000E+000
  0.0000000E+000
  0.0000000E+000
  0.0000000E+000
  0.0000000E+000
  0.0000000E+000
  0.0000000E+000
  0.0000000E+000
  0.0000000E+000
  0.0000000E+000
  0.0000000E+000
  0.0000000E+000
  0.0000000E+000
  0.0000000E+000
  0.0000000E+000
  0.0000000E+000
  0.0000000E+000
  0.0000000E+000
  0.0000000E+000
  0.0000000E+000
  0.0000000E+000
  0.0000000E+000
  0.0000000E+000
  0.0000000E+000
  0.0000000E+000
  0.0000000E+000
  0.0000000E+000
  0.0000000E+000
  0.0000000E+000
  0.0000000E+000
  0.0000000E+000
  0.0000000E+000
  0.0000000E+000
  0.0000000E+000
  0.0000000E+000
  0.0000000E+000
  0.0000000E+000
  0.0000000E+000
  0.0000000E+000
  0.0000000E+000
  0.0000000E+000
  0.0000000E+000
  0.0000000E+000
  0.0000000E+000
  0.0000000E+000
  0.0000000E+000
  0.0000000E+000
  0.0000000E+000
  0.0000000E+000
  0.0000000E+000
  0.0000000E+000
  0.0000000E+000
  0.0000000E+000
  0.0000000E+000
  0.0000000E+000
  0.0000000E+000
  0.0000000E+000
  0.0000000E+000
  0.0000000E+000
  0.0000000E+000
  0.0000000E+000
  0.0000000E+000
  0.0000000E+000
  0.0000000E+000
  0.0000000E+000
  0.0000000E+000
  0.0000000E+000
  0.0000000E+000
  0.0000000E+000
  0.0000000E+000
  0.0000000E+000
  0.0000000E+000
  0.0000000E+000
  0.0000000E+000
  0.0000000E+000
  0.0000000E+000
  0.0000000E+000
  0.0000000E+000
  0.0000000E+000
  0.0000000E+000
  0.0000000E+000
  0.0000000E+000
  0.0000000E+000
  0.0000000E+000
  0.0000000E+000
  0.0000000E+000
  0.0000000E+000
  0.0000000E+000
  0.0000000E+000
  0.0000000E+000
  0.0000000E+000
  0.0000000E+000
  0.0000000E+000
  0.0000000E+000
  0.0000000E+000
  0.0000000E+000
  0.0000000E+000
  0.0000000E+000
  0.0000000E+000
  0.0000000E+000
  0.0000000E+000
  0.0000000E+000
  0.0000000E+000
  0.0000000E+000
  0.0000000E+000
  0.0000000E+000
  0.0000000E+000
  0.0000000E+000
  0.0000000E+000
  0.0000000E+000
  0.0000000E+000
  0.0000000E+000
  0.0000000E+000
  0.0000000E+000
  0.0000000E+000
  0.0000000E+000
  0.0000000E+000
  0.0000000E+000
  0.0000000E+000
  0.0000000E+000
  0.0000000E+000
  0.0000000E+000
  0.0000000E+000
  0.0000000E+000
  0.0000000E+000
SCALARS Stress_xz double
LOOKUP_TABLE default
  0.0000000E+000
  0.0000000E+000
  0.0000000E+000
  0.0000000E+000
  0.0000000E+000
  0.0000000E+000
  0.0000000E+000
  0.0000000E+000
  0.0000000E+000
  0.0000000E+000
  0.0000000E+000
  0.0000000E+000
  0.0000000E+000
  0.0000000E+000
  0.0000000E+000
  0.0000000E+000
  0.0000000E+000
  0.0000000E+000
  0.0000000E+000
  0.0000000E+000
  0.0000000E+000
  0.0000000E+000
  0.0000000E+000
  0.0000000E+000
  0.0000000E+000
  0.0000000E+000
  0.0000000E+000
  0.0000000E+000
  0.0000000E+000
  0.0000000E+000
  0.0000000E+000
  0.0000000E+000
  0.0000000E+000
  0.0000000E+000
  0.0000000E+000
  0.0000000E+000
  0.0000000E+000
  0.0000000E+000
  0.0000000E+000
  0.0000000E+000
  0.0000000E+000
  0.0000000E+000
  0.0000000E+000
  0.0000000E+000
  0.0000000E+000
  0.0000000E+000
  0.0000000E+000
  0.0000000E+000
  0.0000000E+000
  0.0000000E+000
  0.0000000E+000
  0.0000000E+000
  0.0000000E+000
  0.0000000E+000
  0.0000000E+000
  0.0000000E+000
  0.0000000E+000
  0.0000000E+000
  0.0000000E+000
  0.0000000E+000
  0.0000000E+000
  0.0000000E+000
  0.0000000E+000
  0.0000000E+000
  0.0000000E+000
  0.0000000E+000
  0.0000000E+000
  0.0000000E+000
  0.0000000E+000
  0.0000000E+000
  0.0000000E+000
  0.0000000E+000
  0.0000000E+000
  0.0000000E+000
  0.0000000E+000
  0.0000000E+000
  0.0000000E+000
  0.0000000E+000
  0.0000000E+000
  0.0000000E+000
  0.0000000E+000
  0.0000000E+000
  0.0000000E+000
  0.0000000E+000
  0.0000000E+000
  0.0000000E+000
  0.0000000E+000
  0.0000000E+000
  0.0000000E+000
  0.0000000E+000
  0.0000000E+000
  0.0000000E+000
  0.0000000E+000
  0.0000000E+000
  0.0000000E+000
  0.0000000E+000
  0.0000000E+000
  0.0000000E+000
  0.0000000E+000
  0.0000000E+000
  0.0000000E+000
  0.0000000E+000
  0.0000000E+000
  0.0000000E+000
  0.0000000E+000
  0.0000000E+000
  0.0000000E+000
  0.0000000E+000
  0.0000000E+000
  0.0000000E+000
  0.0000000E+000
  0.0000000E+000
  0.0000000E+000
  0.0000000E+000
  0.0000000E+000
  0.0000000E+000
  0.0000000E+000
  0.0000000E+000
  0.0000000E+000
  0.0000000E+000
  0.0000000E+000
  0.0000000E+000
  0.0000000E+000
  0.0000000E+000
  0.0000000E+000
  0.0000000E+000
  0.0000000E+000
  0.0000000E+000
  0.0000000E+000
  0.0000000E+000
  0.0000000E+000
  0.0000000E+000
  0.0000000E+000
  0.0000000E+000
  0.0000000E+000
  0.0000000E+000
  0.0000000E+000
  0.0000000E+000
  0.0000000E+000
  0.0000000E+000
  0.0000000E+000
  0.0000000E+000
  0.0000000E+000
  0.0000000E+000
  0.0000000E+000
  0.0000000E+000
  0.0000000E+000
  0.0000000E+000
  0.0000000E+000
  0.0000000E+000
  0.0000000E+000
  0.0000000E+000
  0.0000000E+000
  0.0000000E+000
  0.0000000E+000
  0.0000000E+000
  0.0000000E+000
  0.0000000E+000
  0.0000000E+000
  0.0000000E+000
  0.0000000E+000
  0.0000000E+000
  0.0000000E+000
  0.0000000E+000
  0.0000000E+000
  0.0000000E+000
  0.0000000E+000
  0.0000000E+000
  0.0000000E+000
  0.0000000E+000
  0.0000000E+000
  0.0000000E+000
  0.0000000E+000
  0.0000000E+000
  0.0000000E+000
  0.0000000E+000
  0.0000000E+000
  0.0000000E+000
  0.0000000E+000
  0.0000000E+000
  0.0000000E+000
  0.0000000E+000
  0.0000000E+000
  0.0000000E+000
  0.0000000E+000
  0.0000000E+000
  0.0000000E+000
  0.0000000E+000
  0.0000000E+000
  0.0000000E+000
  0.0000000E+000
  0.0000000E+000
  0.0000000E+000
  0.0000000E+000
  0.0000000E+000
  0.0000000E+000
  0.0000000E+000
  0.0000000E+000
  0.0000000E+000
  0.0000000E+000
  0.0000000E+000
  0.0000000E+000
  0.0000000E+000
  0.0000000E+000
  0.0000000E+000
  0.0000000E+000
  0.0000000E+000
  0.0000000E+000
  0.0000000E+000
  0.0000000E+000
  0.0000000E+000
  0.0000000E+000
  0.0000000E+000
  0.0000000E+000
  0.0000000E+000
  0.0000000E+000
  0.0000000E+000
  0.0000000E+000
  0.0000000E+000
  0.0000000E+000
  0.0000000E+000
  0.0000000E+000
  0.0000000E+000
  0.0000000E+000
  0.0000000E+000
  0.0000000E+000
  0.0000000E+000
  0.0000000E+000
  0.0000000E+000
  0.0000000E+000
  0.0000000E+000
  0.0000000E+000
  0.0000000E+000
  0.0000000E+000
  0.0000000E+000
  0.0000000E+000
  0.0000000E+000
  0.0000000E+000
  0.0000000E+000
  0.0000000E+000
  0.0000000E+000
  0.0000000E+000
  0.0000000E+000
  0.0000000E+000
  0.0000000E+000
  0.0000000E+000
  0.0000000E+000
  0.0000000E+000
  0.0000000E+000
  0.0000000E+000
  0.0000000E+000
  0.0000000E+000
  0.0000000E+000
  0.0000000E+000
  0.0000000E+000
  0.0000000E+000
  0.0000000E+000
  0.0000000E+000
  0.0000000E+000
  0.0000000E+000
  0.0000000E+000
  0.0000000E+000
  0.0000000E+000
  0.0000000E+000
  0.0000000E+000
  0.0000000E+000
  0.0000000E+000
  0.0000000E+000
  0.0000000E+000
  0.0000000E+000
  0.0000000E+000
  0.0000000E+000
  0.0000000E+000
  0.0000000E+000
  0.0000000E+000
  0.0000000E+000
  0.0000000E+000
  0.0000000E+000
  0.0000000E+000
  0.0000000E+000
  0.0000000E+000
  0.0000000E+000
  0.0000000E+000
  0.0000000E+000
  0.0000000E+000
  0.0000000E+000
  0.0000000E+000
  0.0000000E+000
  0.0000000E+000
  0.0000000E+000
  0.0000000E+000
  0.0000000E+000
  0.0000000E+000
  0.0000000E+000
  0.0000000E+000
  0.0000000E+000
  0.0000000E+000
  0.0000000E+000
  0.0000000E+000
  0.0000000E+000
  0.0000000E+000
  0.0000000E+000
  0.0000000E+000
  0.0000000E+000
  0.0000000E+000
  0.0000000E+000
  0.0000000E+000
  0.0000000E+000
  0.0000000E+000
  0.0000000E+000
  0.0000000E+000
  0.0000000E+000
  0.0000000E+000
  0.0000000E+000
  0.0000000E+000
  0.0000000E+000
  0.0000000E+000
  0.0000000E+000
  0.0000000E+000
  0.0000000E+000
  0.0000000E+000
  0.0000000E+000
  0.0000000E+000
  0.0000000E+000
  0.0000000E+000
  0.0000000E+000
  0.0000000E+000
  0.0000000E+000
  0.0000000E+000
  0.0000000E+000
  0.0000000E+000
  0.0000000E+000
  0.0000000E+000
  0.0000000E+000
  0.0000000E+000
  0.0000000E+000
  0.0000000E+000
  0.0000000E+000
  0.0000000E+000
  0.0000000E+000
  0.0000000E+000
  0.0000000E+000
  0.0000000E+000
  0.0000000E+000
  0.0000000E+000
  0.0000000E+000
  0.0000000E+000
  0.0000000E+000
  0.0000000E+000
  0.0000000E+000
  0.0000000E+000
  0.0000000E+000
  0.0000000E+000
  0.0000000E+000
  0.0000000E+000
  0.0000000E+000
  0.0000000E+000
  0.0000000E+000
  0.0000000E+000
  0.0000000E+000
  0.0000000E+000
  0.0000000E+000
  0.0000000E+000
  0.0000000E+000
  0.0000000E+000
  0.0000000E+000
  0.0000000E+000
  0.0000000E+000
  0.0000000E+000
  0.0000000E+000
  0.0000000E+000
  0.0000000E+000
  0.0000000E+000
  0.0000000E+000
  0.0000000E+000
  0.0000000E+000
  0.0000000E+000
  0.0000000E+000
  0.0000000E+000
  0.0000000E+000
  0.0000000E+000
  0.0000000E+000
  0.0000000E+000
  0.0000000E+000
  0.0000000E+000
  0.0000000E+000
  0.0000000E+000
  0.0000000E+000
  0.0000000E+000
  0.0000000E+000
  0.0000000E+000
  0.0000000E+000
  0.0000000E+000
  0.0000000E+000
  0.0000000E+000
  0.0000000E+000
  0.0000000E+000
  0.0000000E+000
  0.0000000E+000
  0.0000000E+000
  0.0000000E+000
  0.0000000E+000
  0.0000000E+000
  0.0000000E+000
  0.0000000E+000
  0.0000000E+000
  0.0000000E+000
  0.0000000E+000
  0.0000000E+000
  0.0000000E+000
  0.0000000E+000
  0.0000000E+000
  0.0000000E+000
  0.0000000E+000
  0.0000000E+000
  0.0000000E+000
  0.0000000E+000
  0.0000000E+000
  0.0000000E+000
  0.0000000E+000
  0.0000000E+000
  0.0000000E+000
  0.0000000E+000
  0.0000000E+000
  0.0000000E+000
  0.0000000E+000
  0.0000000E+000
  0.0000000E+000
  0.0000000E+000
  0.0000000E+000
  0.0000000E+000
  0.0000000E+000
  0.0000000E+000
  0.0000000E+000
  0.0000000E+000
  0.0000000E+000
  0.0000000E+000
  0.0000000E+000
  0.0000000E+000
  0.0000000E+000
  0.0000000E+000
  0.0000000E+000
  0.0000000E+000
  0.0000000E+000
  0.0000000E+000
  0.0000000E+000
  0.0000000E+000
  0.0000000E+000
  0.0000000E+000
  0.0000000E+000
  0.0000000E+000
  0.0000000E+000
  0.0000000E+000
  0.0000000E+000
  0.0000000E+000
  0.0000000E+000
  0.0000000E+000
  0.0000000E+000
  0.0000000E+000
  0.0000000E+000
  0.0000000E+000
  0.0000000E+000
  0.0000000E+000
  0.0000000E+000
  0.0000000E+000
  0.0000000E+000
  0.0000000E+000
  0.0000000E+000
  0.0000000E+000
  0.0000000E+000
  0.0000000E+000
  0.0000000E+000
  0.0000000E+000
  0.0000000E+000
  0.0000000E+000
  0.0000000E+000
  0.0000000E+000
  0.0000000E+000
  0.0000000E+000
  0.0000000E+000
  0.0000000E+000
  0.0000000E+000
  0.0000000E+000
  0.0000000E+000
  0.0000000E+000
  0.0000000E+000
  0.0000000E+000
  0.0000000E+000
  0.0000000E+000
  0.0000000E+000
  0.0000000E+000
  0.0000000E+000
  0.0000000E+000
  0.0000000E+000
  0.0000000E+000
  0.0000000E+000
  0.0000000E+000
  0.0000000E+000
  0.0000000E+000
  0.0000000E+000
  0.0000000E+000
  0.0000000E+000
  0.0000000E+000
  0.0000000E+000
  0.0000000E+000
  0.0000000E+000
  0.0000000E+000
  0.0000000E+000
  0.0000000E+000
  0.0000000E+000
  0.0000000E+000
  0.0000000E+000
  0.0000000E+000
  0.0000000E+000
  0.0000000E+000
  0.0000000E+000
  0.0000000E+000
  0.0000000E+000
  0.0000000E+000
  0.0000000E+000
  0.0000000E+000
  0.0000000E+000
  0.0000000E+000
  0.0000000E+000
  0.0000000E+000
  0.0000000E+000
  0.0000000E+000
  0.0000000E+000
  0.0000000E+000
  0.0000000E+000
  0.0000000E+000
  0.0000000E+000
  0.0000000E+000
  0.0000000E+000
  0.0000000E+000
  0.0000000E+000
  0.0000000E+000
  0.0000000E+000
  0.0000000E+000
  0.0000000E+000
  0.0000000E+000
  0.0000000E+000
  0.0000000E+000
  0.0000000E+000
  0.0000000E+000
  0.0000000E+000
  0.0000000E+000
  0.0000000E+000
  0.0000000E+000
  0.0000000E+000
  0.0000000E+000
  0.0000000E+000
  0.0000000E+000
  0.0000000E+000
  0.0000000E+000
  0.0000000E+000
  0.0000000E+000
  0.0000000E+000
  0.0000000E+000
  0.0000000E+000
  0.0000000E+000
  0.0000000E+000
  0.0000000E+000
  0.0000000E+000
  0.0000000E+000
  0.0000000E+000
  0.0000000E+000
  0.0000000E+000
  0.0000000E+000
  0.0000000E+000
  0.0000000E+000
  0.0000000E+000
  0.0000000E+000
  0.0000000E+000
  0.0000000E+000
  0.0000000E+000
  0.0000000E+000
  0.0000000E+000
  0.0000000E+000
  0.0000000E+000
  0.0000000E+000
  0.0000000E+000
  0.0000000E+000
  0.0000000E+000
  0.0000000E+000
  0.0000000E+000
  0.0000000E+000
  0.0000000E+000
  0.0000000E+000
  0.0000000E+000
  0.0000000E+000
  0.0000000E+000
  0.0000000E+000
  0.0000000E+000
  0.0000000E+000
  0.0000000E+000
  0.0000000E+000
  0.0000000E+000
  0.0000000E+000
  0.0000000E+000
  0.0000000E+000
  0.0000000E+000
  0.0000000E+000
  0.0000000E+000
  0.0000000E+000
  0.0000000E+000
  0.0000000E+000
  0.0000000E+000
  0.0000000E+000
  0.0000000E+000
  0.0000000E+000
  0.0000000E+000
  0.0000000E+000
  0.0000000E+000
  0.0000000E+000
  0.0000000E+000
  0.0000000E+000
  0.0000000E+000
  0.0000000E+000
  0.0000000E+000
  0.0000000E+000
  0.0000000E+000
  0.0000000E+000
  0.0000000E+000
  0.0000000E+000
  0.0000000E+000
  0.0000000E+000
  0.0000000E+000
  0.0000000E+000
  0.0000000E+000
  0.0000000E+000
  0.0000000E+000
  0.0000000E+000
  0.0000000E+000
  0.0000000E+000
  0.0000000E+000
  0.0000000E+000
  0.0000000E+000
  0.0000000E+000
  0.0000000E+000
  0.0000000E+000
  0.0000000E+000
  0.0000000E+000
  0.0000000E+000
  0.0000000E+000
  0.0000000E+000
  0.0000000E+000
  0.0000000E+000
  0.0000000E+000
  0.0000000E+000
  0.0000000E+000
  0.0000000E+000
  0.0000000E+000
  0.0000000E+000
  0.0000000E+000
  0.0000000E+000
  0.0000000E+000
  0.0000000E+000
  0.0000000E+000
  0.0000000E+000
  0.0000000E+000
  0.0000000E+000
  0.0000000E+000
  0.0000000E+000
  0.0000000E+000
  0.0000000E+000
  0.0000000E+000
  0.0000000E+000
  0.0000000E+000
  0.0000000E+000
  0.0000000E+000
  0.0000000E+000
  0.0000000E+000
  0.0000000E+000
  0.0000000E+000
  0.0000000E+000
  0.0000000E+000
  0.0000000E+000
  0.0000000E+000
  0.0000000E+000
  0.0000000E+000
  0.0000000E+000
  0.0000000E+000
  0.0000000E+000
  0.0000000E+000
  0.0000000E+000
  0.0000000E+000
  0.0000000E+000
  0.0000000E+000
  0.0000000E+000
  0.0000000E+000
  0.0000000E+000
  0.0000000E+000
  0.0000000E+000
  0.0000000E+000
  0.0000000E+000
  0.0000000E+000
  0.0000000E+000
  0.0000000E+000
  0.0000000E+000
  0.0000000E+000
  0.0000000E+000
  0.0000000E+000
  0.0000000E+000
  0.0000000E+000
  0.0000000E+000
  0.0000000E+000
  0.0000000E+000
  0.0000000E+000
  0.0000000E+000
  0.0000000E+000
  0.0000000E+000
  0.0000000E+000
  0.0000000E+000
  0.0000000E+000
  0.0000000E+000
  0.0000000E+000
  0.0000000E+000
  0.0000000E+000
  0.0000000E+000
  0.0000000E+000
  0.0000000E+000
  0.0000000E+000
  0.0000000E+000
  0.0000000E+000
  0.0000000E+000
  0.0000000E+000
  0.0000000E+000
  0.0000000E+000
  0.0000000E+000
  0.0000000E+000
  0.0000000E+000
  0.0000000E+000
  0.0000000E+000
  0.0000000E+000
  0.0000000E+000
  0.0000000E+000
  0.0000000E+000
  0.0000000E+000
  0.0000000E+000
  0.0000000E+000
  0.0000000E+000
  0.0000000E+000
  0.0000000E+000
  0.0000000E+000
  0.0000000E+000
  0.0000000E+000
  0.0000000E+000
  0.0000000E+000
  0.0000000E+000
  0.0000000E+000
  0.0000000E+000
  0.0000000E+000
  0.0000000E+000
  0.0000000E+000
  0.0000000E+000
  0.0000000E+000
  0.0000000E+000
  0.0000000E+000
  0.0000000E+000
  0.0000000E+000
  0.0000000E+000
  0.0000000E+000
  0.0000000E+000
  0.0000000E+000
  0.0000000E+000
  0.0000000E+000
  0.0000000E+000
  0.0000000E+000
  0.0000000E+000
  0.0000000E+000
  0.0000000E+000
  0.0000000E+000
  0.0000000E+000
  0.0000000E+000
  0.0000000E+000
  0.0000000E+000
  0.0000000E+000
  0.0000000E+000
  0.0000000E+000
  0.0000000E+000
  0.0000000E+000
  0.0000000E+000
  0.0000000E+000
  0.0000000E+000
  0.0000000E+000
  0.0000000E+000
  0.0000000E+000
  0.0000000E+000
  0.0000000E+000
  0.0000000E+000
  0.0000000E+000
  0.0000000E+000
  0.0000000E+000
  0.0000000E+000
  0.0000000E+000
  0.0000000E+000
  0.0000000E+000
  0.0000000E+000
  0.0000000E+000
  0.0000000E+000
  0.0000000E+000
  0.0000000E+000
  0.0000000E+000
  0.0000000E+000
  0.0000000E+000
  0.0000000E+000
  0.0000000E+000
  0.0000000E+000
  0.0000000E+000
  0.0000000E+000
  0.0000000E+000
  0.0000000E+000
  0.0000000E+000
  0.0000000E+000
  0.0000000E+000
  0.0000000E+000
  0.0000000E+000
  0.0000000E+000
  0.0000000E+000
  0.0000000E+000
  0.0000000E+000
  0.0000000E+000
  0.0000000E+000
  0.0000000E+000
  0.0000000E+000
  0.0000000E+000
  0.0000000E+000
  0.0000000E+000
  0.0000000E+000
  0.0000000E+000
  0.0000000E+000
  0.0000000E+000
  0.0000000E+000
  0.0000000E+000
  0.0000000E+000
  0.0000000E+000
  0.0000000E+000
  0.0000000E+000
  0.0000000E+000
  0.0000000E+000
  0.0000000E+000
  0.0000000E+000
  0.0000000E+000
  0.0000000E+000
  0.0000000E+000
  0.0000000E+000
  0.0000000E+000
  0.0000000E+000
  0.0000000E+000
  0.0000000E+000
  0.0000000E+000
  0.0000000E+000
  0.0000000E+000
  0.0000000E+000
  0.0000000E+000
  0.0000000E+000
  0.0000000E+000
  0.0000000E+000
  0.0000000E+000
  0.0000000E+000
  0.0000000E+000
  0.0000000E+000
  0.0000000E+000
  0.0000000E+000
  0.0000000E+000
  0.0000000E+000
  0.0000000E+000
  0.0000000E+000
  0.0000000E+000
  0.0000000E+000
  0.0000000E+000
  0.0000000E+000
  0.0000000E+000
  0.0000000E+000
  0.0000000E+000
  0.0000000E+000
  0.0000000E+000
  0.0000000E+000
  0.0000000E+000
  0.0000000E+000
  0.0000000E+000
  0.0000000E+000
  0.0000000E+000
  0.0000000E+000
  0.0000000E+000
  0.0000000E+000
  0.0000000E+000
  0.0000000E+000
  0.0000000E+000
  0.0000000E+000
  0.0000000E+000
  0.0000000E+000
  0.0000000E+000
  0.0000000E+000
  0.0000000E+000
  0.0000000E+000
  0.0000000E+000
  0.0000000E+000
  0.0000000E+000
  0.0000000E+000
  0.0000000E+000
  0.0000000E+000
  0.0000000E+000
  0.0000000E+000
  0.0000000E+000
  0.0000000E+000
  0.0000000E+000
  0.0000000E+000
  0.0000000E+000
  0.0000000E+000
  0.0000000E+000
  0.0000000E+000
  0.0000000E+000
  0.0000000E+000
  0.0000000E+000
  0.0000000E+000
  0.0000000E+000
  0.0000000E+000
  0.0000000E+000
  0.0000000E+000
  0.0000000E+000
  0.0000000E+000
  0.0000000E+000
  0.0000000E+000
  0.0000000E+000
  0.0000000E+000
  0.0000000E+000
  0.0000000E+000
  0.0000000E+000
  0.0000000E+000
  0.0000000E+000
  0.0000000E+000
  0.0000000E+000
  0.0000000E+000
  0.0000000E+000
  0.0000000E+000
  0.0000000E+000
  0.0000000E+000
  0.0000000E+000
  0.0000000E+000
  0.0000000E+000
  0.0000000E+000
  0.0000000E+000
  0.0000000E+000
  0.0000000E+000
  0.0000000E+000
  0.0000000E+000
  0.0000000E+000
  0.0000000E+000
  0.0000000E+000
  0.0000000E+000
  0.0000000E+000
  0.0000000E+000
  0.0000000E+000
  0.0000000E+000
  0.0000000E+000
  0.0000000E+000
  0.0000000E+000
  0.0000000E+000
  0.0000000E+000
  0.0000000E+000
  0.0000000E+000
  0.0000000E+000
  0.0000000E+000
  0.0000000E+000
  0.0000000E+000
  0.0000000E+000
  0.0000000E+000
  0.0000000E+000
  0.0000000E+000
  0.0000000E+000
  0.0000000E+000
  0.0000000E+000
  0.0000000E+000
  0.0000000E+000
  0.0000000E+000
  0.0000000E+000
  0.0000000E+000
  0.0000000E+000
  0.0000000E+000
  0.0000000E+000
  0.0000000E+000
  0.0000000E+000
  0.0000000E+000
  0.0000000E+000
  0.0000000E+000
  0.0000000E+000
  0.0000000E+000
  0.0000000E+000
  0.0000000E+000
  0.0000000E+000
  0.0000000E+000
  0.0000000E+000
  0.0000000E+000
  0.0000000E+000
  0.0000000E+000
  0.0000000E+000
  0.0000000E+000
  0.0000000E+000
  0.0000000E+000
  0.0000000E+000
  0.0000000E+000
  0.0000000E+000
  0.0000000E+000
  0.0000000E+000
  0.0000000E+000
  0.0000000E+000
  0.0000000E+000
  0.0000000E+000
  0.0000000E+000
  0.0000000E+000
  0.0000000E+000
  0.0000000E+000
  0.0000000E+000
  0.0000000E+000
  0.0000000E+000
  0.0000000E+000
  0.0000000E+000
  0.0000000E+000
  0.0000000E+000
  0.0000000E+000
  0.0000000E+000
  0.0000000E+000
  0.0000000E+000
  0.0000000E+000
  0.0000000E+000
  0.0000000E+000
  0.0000000E+000
  0.0000000E+000
  0.0000000E+000
  0.0000000E+000
  0.0000000E+000
  0.0000000E+000
  0.0000000E+000
  0.0000000E+000
  0.0000000E+000
  0.0000000E+000
  0.0000000E+000
  0.0000000E+000
  0.0000000E+000
  0.0000000E+000
  0.0000000E+000
  0.0000000E+000
  0.0000000E+000
  0.0000000E+000
  0.0000000E+000
  0.0000000E+000
  0.0000000E+000
  0.0000000E+000
  0.0000000E+000
  0.0000000E+000
  0.0000000E+000
  0.0000000E+000
  0.0000000E+000
  0.0000000E+000
  0.0000000E+000
  0.0000000E+000
  0.0000000E+000
  0.0000000E+000
  0.0000000E+000
  0.0000000E+000
  0.0000000E+000
  0.0000000E+000
  0.0000000E+000
  0.0000000E+000
  0.0000000E+000
  0.0000000E+000
  0.0000000E+000
  0.0000000E+000
  0.0000000E+000
  0.0000000E+000
  0.0000000E+000
  0.0000000E+000
  0.0000000E+000
  0.0000000E+000
  0.0000000E+000
  0.0000000E+000
  0.0000000E+000
  0.0000000E+000
  0.0000000E+000
  0.0000000E+000
  0.0000000E+000
  0.0000000E+000
  0.0000000E+000
  0.0000000E+000
  0.0000000E+000
  0.0000000E+000
  0.0000000E+000
  0.0000000E+000
  0.0000000E+000
  0.0000000E+000
  0.0000000E+000
  0.0000000E+000
  0.0000000E+000
  0.0000000E+000
  0.0000000E+000
  0.0000000E+000
  0.0000000E+000
  0.0000000E+000
  0.0000000E+000
  0.0000000E+000
  0.0000000E+000
  0.0000000E+000
  0.0000000E+000
  0.0000000E+000
  0.0000000E+000
  0.0000000E+000
  0.0000000E+000
  0.0000000E+000
  0.0000000E+000
  0.0000000E+000
  0.0000000E+000
  0.0000000E+000
  0.0000000E+000
  0.0000000E+000
  0.0000000E+000
  0.0000000E+000
  0.0000000E+000
  0.0000000E+000
  0.0000000E+000
  0.0000000E+000
  0.0000000E+000
  0.0000000E+000
  0.0000000E+000
  0.0000000E+000
  0.0000000E+000
  0.0000000E+000
  0.0000000E+000
  0.0000000E+000
  0.0000000E+000
  0.0000000E+000
  0.0000000E+000
  0.0000000E+000
  0.0000000E+000
  0.0000000E+000
  0.0000000E+000
  0.0000000E+000
  0.0000000E+000
  0.0000000E+000
  0.0000000E+000
  0.0000000E+000
  0.0000000E+000
  0.0000000E+000
  0.0000000E+000
  0.0000000E+000
  0.0000000E+000
  0.0000000E+000
  0.0000000E+000
  0.0000000E+000
  0.0000000E+000
  0.0000000E+000
  0.0000000E+000
  0.0000000E+000
  0.0000000E+000
  0.0000000E+000
  0.0000000E+000
  0.0000000E+000
  0.0000000E+000
  0.0000000E+000
  0.0000000E+000
  0.0000000E+000
  0.0000000E+000
  0.0000000E+000
  0.0000000E+000
  0.0000000E+000
  0.0000000E+000
  0.0000000E+000
  0.0000000E+000
  0.0000000E+000
  0.0000000E+000
  0.0000000E+000
  0.0000000E+000
  0.0000000E+000
  0.0000000E+000
  0.0000000E+000
  0.0000000E+000
  0.0000000E+000
  0.0000000E+000
  0.0000000E+000
  0.0000000E+000
  0.0000000E+000
  0.0000000E+000
  0.0000000E+000
  0.0000000E+000
  0.0000000E+000
  0.0000000E+000
  0.0000000E+000
  0.0000000E+000
  0.0000000E+000
  0.0000000E+000
  0.0000000E+000
  0.0000000E+000
  0.0000000E+000
  0.0000000E+000
  0.0000000E+000
  0.0000000E+000
  0.0000000E+000
  0.0000000E+000
  0.0000000E+000
  0.0000000E+000
  0.0000000E+000
  0.0000000E+000
  0.0000000E+000
  0.0000000E+000
  0.0000000E+000
  0.0000000E+000
  0.0000000E+000
  0.0000000E+000
  0.0000000E+000
  0.0000000E+000
  0.0000000E+000
  0.0000000E+000
  0.0000000E+000
  0.0000000E+000
  0.0000000E+000
  0.0000000E+000
  0.0000000E+000
  0.0000000E+000
  0.0000000E+000
  0.0000000E+000
  0.0000000E+000
  0.0000000E+000
  0.0000000E+000
  0.0000000E+000
  0.0000000E+000
  0.0000000E+000
  0.0000000E+000
  0.0000000E+000
  0.0000000E+000
  0.0000000E+000
  0.0000000E+000
  0.0000000E+000
  0.0000000E+000
  0.0000000E+000
  0.0000000E+000
  0.0000000E+000
  0.0000000E+000
  0.0000000E+000
  0.0000000E+000
  0.0000000E+000
  0.0000000E+000
  0.0000000E+000
  0.0000000E+000
  0.0000000E+000
  0.0000000E+000
  0.0000000E+000
  0.0000000E+000
  0.0000000E+000
  0.0000000E+000
  0.0000000E+000
  0.0000000E+000
  0.0000000E+000
  0.0000000E+000
  0.0000000E+000
  0.0000000E+000
  0.0000000E+000
  0.0000000E+000
  0.0000000E+000
  0.0000000E+000
  0.0000000E+000
  0.0000000E+000
  0.0000000E+000
  0.0000000E+000
  0.0000000E+000
  0.0000000E+000
  0.0000000E+000
  0.0000000E+000
  0.0000000E+000
  0.0000000E+000
  0.0000000E+000
  0.0000000E+000
  0.0000000E+000
  0.0000000E+000
  0.0000000E+000
  0.0000000E+000
  0.0000000E+000
  0.0000000E+000
  0.0000000E+000
  0.0000000E+000
  0.0000000E+000
  0.0000000E+000
  0.0000000E+000
  0.0000000E+000
  0.0000000E+000
  0.0000000E+000
  0.0000000E+000
  0.0000000E+000
  0.0000000E+000
  0.0000000E+000
  0.0000000E+000
  0.0000000E+000
  0.0000000E+000
  0.0000000E+000
  0.0000000E+000
  0.0000000E+000
  0.0000000E+000
  0.0000000E+000
  0.0000000E+000
  0.0000000E+000
  0.0000000E+000
  0.0000000E+000
  0.0000000E+000
  0.0000000E+000
  0.0000000E+000
  0.0000000E+000
  0.0000000E+000
  0.0000000E+000
  0.0000000E+000
  0.0000000E+000
  0.0000000E+000
  0.0000000E+000
  0.0000000E+000
  0.0000000E+000
  0.0000000E+000
  0.0000000E+000
  0.0000000E+000
  0.0000000E+000
  0.0000000E+000
  0.0000000E+000
  0.0000000E+000
  0.0000000E+000
  0.0000000E+000
  0.0000000E+000
  0.0000000E+000
  0.0000000E+000
  0.0000000E+000
  0.0000000E+000
  0.0000000E+000
  0.0000000E+000
  0.0000000E+000
  0.0000000E+000
  0.0000000E+000
  0.0000000E+000
  0.0000000E+000
  0.0000000E+000
  0.0000000E+000
  0.0000000E+000
  0.0000000E+000
  0.0000000E+000
  0.0000000E+000
  0.0000000E+000
  0.0000000E+000
  0.0000000E+000
  0.0000000E+000
  0.0000000E+000
  0.0000000E+000
  0.0000000E+000
  0.0000000E+000
  0.0000000E+000
  0.0000000E+000
  0.0000000E+000
  0.0000000E+000
  0.0000000E+000
  0.0000000E+000
  0.0000000E+000
  0.0000000E+000
  0.0000000E+000
  0.0000000E+000
  0.0000000E+000
  0.0000000E+000
  0.0000000E+000
  0.0000000E+000
  0.0000000E+000
  0.0000000E+000
  0.0000000E+000
  0.0000000E+000
  0.0000000E+000
  0.0000000E+000
  0.0000000E+000
  0.0000000E+000
  0.0000000E+000
  0.0000000E+000
  0.0000000E+000
  0.0000000E+000
  0.0000000E+000
  0.0000000E+000
  0.0000000E+000
  0.0000000E+000
  0.0000000E+000
  0.0000000E+000
  0.0000000E+000
  0.0000000E+000
  0.0000000E+000
  0.0000000E+000
  0.0000000E+000
  0.0000000E+000
  0.0000000E+000
  0.0000000E+000
  0.0000000E+000
  0.0000000E+000
  0.0000000E+000
  0.0000000E+000
  0.0000000E+000
  0.0000000E+000
  0.0000000E+000
  0.0000000E+000
  0.0000000E+000
  0.0000000E+000
  0.0000000E+000
  0.0000000E+000
  0.0000000E+000
  0.0000000E+000
  0.0000000E+000
  0.0000000E+000
  0.0000000E+000
  0.0000000E+000
  0.0000000E+000
  0.0000000E+000
  0.0000000E+000
  0.0000000E+000
  0.0000000E+000
  0.0000000E+000
  0.0000000E+000
  0.0000000E+000
  0.0000000E+000
  0.0000000E+000
  0.0000000E+000
  0.0000000E+000
  0.0000000E+000
  0.0000000E+000
  0.0000000E+000
  0.0000000E+000
  0.0000000E+000
  0.0000000E+000
  0.0000000E+000
  0.0000000E+000
  0.0000000E+000
  0.0000000E+000
  0.0000000E+000
  0.0000000E+000
  0.0000000E+000
  0.0000000E+000
  0.0000000E+000
  0.0000000E+000
  0.0000000E+000
  0.0000000E+000
  0.0000000E+000
  0.0000000E+000
  0.0000000E+000
  0.0000000E+000
  0.0000000E+000
  0.0000000E+000
  0.0000000E+000
  0.0000000E+000
  0.0000000E+000
  0.0000000E+000
  0.0000000E+000
  0.0000000E+000
  0.0000000E+000
  0.0000000E+000
  0.0000000E+000
  0.0000000E+000
  0.0000000E+000
  0.0000000E+000
  0.0000000E+000
  0.0000000E+000
  0.0000000E+000
  0.0000000E+000
  0.0000000E+000
  0.0000000E+000
  0.0000000E+000
  0.0000000E+000
  0.0000000E+000
  0.0000000E+000
  0.0000000E+000
  0.0000000E+000
  0.0000000E+000
  0.0000000E+000
  0.0000000E+000
  0.0000000E+000
  0.0000000E+000
  0.0000000E+000
  0.0000000E+000
  0.0000000E+000
  0.0000000E+000
  0.0000000E+000
  0.0000000E+000
  0.0000000E+000
  0.0000000E+000
  0.0000000E+000
  0.0000000E+000
  0.0000000E+000
  0.0000000E+000
  0.0000000E+000
  0.0000000E+000
  0.0000000E+000
  0.0000000E+000
  0.0000000E+000
  0.0000000E+000
  0.0000000E+000
  0.0000000E+000
  0.0000000E+000
  0.0000000E+000
  0.0000000E+000
  0.0000000E+000
  0.0000000E+000
  0.0000000E+000
  0.0000000E+000
  0.0000000E+000
  0.0000000E+000
  0.0000000E+000
  0.0000000E+000
  0.0000000E+000
  0.0000000E+000
  0.0000000E+000
  0.0000000E+000
  0.0000000E+000
  0.0000000E+000
  0.0000000E+000
  0.0000000E+000
  0.0000000E+000
  0.0000000E+000
  0.0000000E+000
  0.0000000E+000
  0.0000000E+000
  0.0000000E+000
  0.0000000E+000
  0.0000000E+000
  0.0000000E+000
  0.0000000E+000
  0.0000000E+000
  0.0000000E+000
  0.0000000E+000
  0.0000000E+000
  0.0000000E+000
  0.0000000E+000
  0.0000000E+000
  0.0000000E+000
  0.0000000E+000
  0.0000000E+000
  0.0000000E+000
  0.0000000E+000
  0.0000000E+000
  0.0000000E+000
  0.0000000E+000
  0.0000000E+000
  0.0000000E+000
  0.0000000E+000
  0.0000000E+000
  0.0000000E+000
  0.0000000E+000
  0.0000000E+000
  0.0000000E+000
  0.0000000E+000
  0.0000000E+000
  0.0000000E+000
  0.0000000E+000
  0.0000000E+000
  0.0000000E+000
  0.0000000E+000
  0.0000000E+000
  0.0000000E+000
  0.0000000E+000
  0.0000000E+000
  0.0000000E+000
  0.0000000E+000
  0.0000000E+000
  0.0000000E+000
  0.0000000E+000
  0.0000000E+000
  0.0000000E+000
  0.0000000E+000
  0.0000000E+000
  0.0000000E+000
  0.0000000E+000
  0.0000000E+000
  0.0000000E+000
  0.0000000E+000
  0.0000000E+000
  0.0000000E+000
  0.0000000E+000
  0.0000000E+000
  0.0000000E+000
  0.0000000E+000
  0.0000000E+000
  0.0000000E+000
  0.0000000E+000
  0.0000000E+000
  0.0000000E+000
  0.0000000E+000
  0.0000000E+000
  0.0000000E+000
  0.0000000E+000
  0.0000000E+000
  0.0000000E+000
  0.0000000E+000
  0.0000000E+000
  0.0000000E+000
  0.0000000E+000
  0.0000000E+000
  0.0000000E+000
  0.0000000E+000
  0.0000000E+000
  0.0000000E+000
  0.0000000E+000
  0.0000000E+000
  0.0000000E+000
  0.0000000E+000
  0.0000000E+000
  0.0000000E+000
  0.0000000E+000
  0.0000000E+000
  0.0000000E+000
  0.0000000E+000
  0.0000000E+000
  0.0000000E+000
  0.0000000E+000
  0.0000000E+000
  0.0000000E+000
  0.0000000E+000
  0.0000000E+000
  0.0000000E+000
  0.0000000E+000
  0.0000000E+000
  0.0000000E+000
  0.0000000E+000
  0.0000000E+000
  0.0000000E+000
  0.0000000E+000
  0.0000000E+000
  0.0000000E+000
  0.0000000E+000
  0.0000000E+000
  0.0000000E+000
  0.0000000E+000
  0.0000000E+000
  0.0000000E+000
  0.0000000E+000
  0.0000000E+000
  0.0000000E+000
  0.0000000E+000
  0.0000000E+000
  0.0000000E+000
  0.0000000E+000
  0.0000000E+000
  0.0000000E+000
  0.0000000E+000
  0.0000000E+000
  0.0000000E+000
  0.0000000E+000
  0.0000000E+000
  0.0000000E+000
  0.0000000E+000
  0.0000000E+000
  0.0000000E+000
  0.0000000E+000
  0.0000000E+000
  0.0000000E+000
  0.0000000E+000
  0.0000000E+000
  0.0000000E+000
  0.0000000E+000
  0.0000000E+000
  0.0000000E+000
  0.0000000E+000
  0.0000000E+000
  0.0000000E+000
  0.0000000E+000
  0.0000000E+000
  0.0000000E+000
  0.0000000E+000
  0.0000000E+000
  0.0000000E+000
  0.0000000E+000
  0.0000000E+000
  0.0000000E+000
  0.0000000E+000
  0.0000000E+000
  0.0000000E+000
  0.0000000E+000
  0.0000000E+000
  0.0000000E+000
  0.0000000E+000
  0.0000000E+000
  0.0000000E+000
  0.0000000E+000
  0.0000000E+000
  0.0000000E+000
  0.0000000E+000
  0.0000000E+000
  0.0000000E+000
  0.0000000E+000
  0.0000000E+000
  0.0000000E+000
  0.0000000E+000
  0.0000000E+000
  0.0000000E+000
  0.0000000E+000
  0.0000000E+000
  0.0000000E+000
  0.0000000E+000
  0.0000000E+000
  0.0000000E+000
  0.0000000E+000
  0.0000000E+000
  0.0000000E+000
  0.0000000E+000
  0.0000000E+000
  0.0000000E+000
  0.0000000E+000
  0.0000000E+000
  0.0000000E+000
  0.0000000E+000
  0.0000000E+000
  0.0000000E+000
  0.0000000E+000
  0.0000000E+000
  0.0000000E+000
  0.0000000E+000
  0.0000000E+000
  0.0000000E+000
  0.0000000E+000
  0.0000000E+000
  0.0000000E+000
  0.0000000E+000
  0.0000000E+000
  0.0000000E+000
  0.0000000E+000
  0.0000000E+000
  0.0000000E+000
  0.0000000E+000
  0.0000000E+000
  0.0000000E+000
  0.0000000E+000
  0.0000000E+000
  0.0000000E+000
  0.0000000E+000
  0.0000000E+000
  0.0000000E+000
  0.0000000E+000
  0.0000000E+000
  0.0000000E+000
  0.0000000E+000
  0.0000000E+000
  0.0000000E+000
  0.0000000E+000
  0.0000000E+000
  0.0000000E+000
  0.0000000E+000
  0.0000000E+000
  0.0000000E+000
  0.0000000E+000
  0.0000000E+000
  0.0000000E+000
  0.0000000E+000
  0.0000000E+000
  0.0000000E+000
  0.0000000E+000
  0.0000000E+000
  0.0000000E+000
  0.0000000E+000
  0.0000000E+000
  0.0000000E+000
  0.0000000E+000
  0.0000000E+000
  0.0000000E+000
  0.0000000E+000
  0.0000000E+000
  0.0000000E+000
  0.0000000E+000
  0.0000000E+000
  0.0000000E+000
  0.0000000E+000
  0.0000000E+000
  0.0000000E+000
  0.0000000E+000
  0.0000000E+000
  0.0000000E+000
  0.0000000E+000
  0.0000000E+000
  0.0000000E+000
  0.0000000E+000
  0.0000000E+000
  0.0000000E+000
  0.0000000E+000
  0.0000000E+000
  0.0000000E+000
  0.0000000E+000
  0.0000000E+000
  0.0000000E+000
  0.0000000E+000
  0.0000000E+000
  0.0000000E+000
  0.0000000E+000
  0.0000000E+000
  0.0000000E+000
  0.0000000E+000
  0.0000000E+000
  0.0000000E+000
  0.0000000E+000
  0.0000000E+000
  0.0000000E+000
  0.0000000E+000
  0.0000000E+000
  0.0000000E+000
  0.0000000E+000
  0.0000000E+000
  0.0000000E+000
  0.0000000E+000
  0.0000000E+000
  0.0000000E+000
  0.0000000E+000
  0.0000000E+000
  0.0000000E+000
  0.0000000E+000
  0.0000000E+000
  0.0000000E+000
  0.0000000E+000
  0.0000000E+000
  0.0000000E+000
  0.0000000E+000
  0.0000000E+000
  0.0000000E+000
  0.0000000E+000
  0.0000000E+000
  0.0000000E+000
  0.0000000E+000
  0.0000000E+000
  0.0000000E+000
  0.0000000E+000
  0.0000000E+000
  0.0000000E+000
  0.0000000E+000
  0.0000000E+000
  0.0000000E+000
  0.0000000E+000
  0.0000000E+000
  0.0000000E+000
  0.0000000E+000
  0.0000000E+000
  0.0000000E+000
  0.0000000E+000
  0.0000000E+000
  0.0000000E+000
  0.0000000E+000
  0.0000000E+000
  0.0000000E+000
  0.0000000E+000
  0.0000000E+000
  0.0000000E+000
  0.0000000E+000
  0.0000000E+000
  0.0000000E+000
  0.0000000E+000
  0.0000000E+000
  0.0000000E+000
  0.0000000E+000
  0.0000000E+000
  0.0000000E+000
  0.0000000E+000
  0.0000000E+000
  0.0000000E+000
  0.0000000E+000
  0.0000000E+000
  0.0000000E+000
  0.0000000E+000
  0.0000000E+000
  0.0000000E+000
  0.0000000E+000
  0.0000000E+000
  0.0000000E+000
  0.0000000E+000
  0.0000000E+000
  0.0000000E+000
  0.0000000E+000
  0.0000000E+000
  0.0000000E+000
  0.0000000E+000
  0.0000000E+000
  0.0000000E+000
  0.0000000E+000
  0.0000000E+000
  0.0000000E+000
  0.0000000E+000
  0.0000000E+000
  0.0000000E+000
  0.0000000E+000
  0.0000000E+000
  0.0000000E+000
  0.0000000E+000
  0.0000000E+000
  0.0000000E+000
  0.0000000E+000
  0.0000000E+000
  0.0000000E+000
  0.0000000E+000
  0.0000000E+000
  0.0000000E+000
  0.0000000E+000
  0.0000000E+000
  0.0000000E+000
  0.0000000E+000
  0.0000000E+000
  0.0000000E+000
  0.0000000E+000
  0.0000000E+000
  0.0000000E+000
  0.0000000E+000
  0.0000000E+000
  0.0000000E+000
  0.0000000E+000
  0.0000000E+000
  0.0000000E+000
  0.0000000E+000
  0.0000000E+000
  0.0000000E+000
  0.0000000E+000
  0.0000000E+000
  0.0000000E+000
  0.0000000E+000
  0.0000000E+000
  0.0000000E+000
  0.0000000E+000
  0.0000000E+000
  0.0000000E+000
  0.0000000E+000
  0.0000000E+000
  0.0000000E+000
  0.0000000E+000
  0.0000000E+000
  0.0000000E+000
  0.0000000E+000
  0.0000000E+000
  0.0000000E+000
  0.0000000E+000
  0.0000000E+000
  0.0000000E+000
  0.0000000E+000
  0.0000000E+000
  0.0000000E+000
  0.0000000E+000
  0.0000000E+000
  0.0000000E+000
  0.0000000E+000
  0.0000000E+000
  0.0000000E+000
  0.0000000E+000
  0.0000000E+000
  0.0000000E+000
  0.0000000E+000
  0.0000000E+000
  0.0000000E+000
  0.0000000E+000
  0.0000000E+000
  0.0000000E+000
  0.0000000E+000
  0.0000000E+000
  0.0000000E+000
  0.0000000E+000
  0.0000000E+000
  0.0000000E+000
  0.0000000E+000
  0.0000000E+000
  0.0000000E+000
  0.0000000E+000
  0.0000000E+000
  0.0000000E+000
  0.0000000E+000
  0.0000000E+000
  0.0000000E+000
  0.0000000E+000
  0.0000000E+000
  0.0000000E+000
  0.0000000E+000
  0.0000000E+000
  0.0000000E+000
  0.0000000E+000
  0.0000000E+000
  0.0000000E+000
  0.0000000E+000
  0.0000000E+000
  0.0000000E+000
  0.0000000E+000
  0.0000000E+000
  0.0000000E+000
  0.0000000E+000
  0.0000000E+000
  0.0000000E+000
  0.0000000E+000
  0.0000000E+000
  0.0000000E+000
  0.0000000E+000
  0.0000000E+000
  0.0000000E+000
  0.0000000E+000
  0.0000000E+000
  0.0000000E+000
  0.0000000E+000
  0.0000000E+000
  0.0000000E+000
  0.0000000E+000
  0.0000000E+000
  0.0000000E+000
  0.0000000E+000
  0.0000000E+000
  0.0000000E+000
  0.0000000E+000
  0.0000000E+000
  0.0000000E+000
  0.0000000E+000
  0.0000000E+000
  0.0000000E+000
  0.0000000E+000
  0.0000000E+000
  0.0000000E+000
  0.0000000E+000
  0.0000000E+000
  0.0000000E+000
  0.0000000E+000
  0.0000000E+000
  0.0000000E+000
  0.0000000E+000
  0.0000000E+000
  0.0000000E+000
  0.0000000E+000
  0.0000000E+000
  0.0000000E+000
  0.0000000E+000
  0.0000000E+000
  0.0000000E+000
  0.0000000E+000
  0.0000000E+000
  0.0000000E+000
  0.0000000E+000
  0.0000000E+000
  0.0000000E+000
  0.0000000E+000
  0.0000000E+000
  0.0000000E+000
  0.0000000E+000
  0.0000000E+000
  0.0000000E+000
  0.0000000E+000
  0.0000000E+000
  0.0000000E+000
  0.0000000E+000
  0.0000000E+000
  0.0000000E+000
  0.0000000E+000
  0.0000000E+000
  0.0000000E+000
  0.0000000E+000
  0.0000000E+000
  0.0000000E+000
  0.0000000E+000
  0.0000000E+000
  0.0000000E+000
  0.0000000E+000
  0.0000000E+000
  0.0000000E+000
  0.0000000E+000
  0.0000000E+000
  0.0000000E+000
  0.0000000E+000
  0.0000000E+000
  0.0000000E+000
  0.0000000E+000
  0.0000000E+000
  0.0000000E+000
  0.0000000E+000
  0.0000000E+000
  0.0000000E+000
  0.0000000E+000
  0.0000000E+000
  0.0000000E+000
  0.0000000E+000
  0.0000000E+000
  0.0000000E+000
  0.0000000E+000
  0.0000000E+000
  0.0000000E+000
  0.0000000E+000
  0.0000000E+000
  0.0000000E+000
  0.0000000E+000
  0.0000000E+000
  0.0000000E+000
  0.0000000E+000
  0.0000000E+000
  0.0000000E+000
  0.0000000E+000
  0.0000000E+000
  0.0000000E+000
  0.0000000E+000
  0.0000000E+000
  0.0000000E+000
  0.0000000E+000
  0.0000000E+000
  0.0000000E+000
  0.0000000E+000
  0.0000000E+000
  0.0000000E+000
  0.0000000E+000
  0.0000000E+000
  0.0000000E+000
  0.0000000E+000
  0.0000000E+000
  0.0000000E+000
  0.0000000E+000
  0.0000000E+000
  0.0000000E+000
  0.0000000E+000
  0.0000000E+000
  0.0000000E+000
  0.0000000E+000
  0.0000000E+000
  0.0000000E+000
  0.0000000E+000
  0.0000000E+000
  0.0000000E+000
  0.0000000E+000
  0.0000000E+000
  0.0000000E+000
  0.0000000E+000
  0.0000000E+000
  0.0000000E+000
  0.0000000E+000
  0.0000000E+000
  0.0000000E+000
  0.0000000E+000
  0.0000000E+000
  0.0000000E+000
  0.0000000E+000
  0.0000000E+000
  0.0000000E+000
  0.0000000E+000
  0.0000000E+000
  0.0000000E+000
  0.0000000E+000
  0.0000000E+000
  0.0000000E+000
  0.0000000E+000
  0.0000000E+000
  0.0000000E+000
  0.0000000E+000
  0.0000000E+000
  0.0000000E+000
  0.0000000E+000
  0.0000000E+000
  0.0000000E+000
  0.0000000E+000
  0.0000000E+000
  0.0000000E+000
  0.0000000E+000
  0.0000000E+000
  0.0000000E+000
  0.0000000E+000
  0.0000000E+000
  0.0000000E+000
  0.0000000E+000
  0.0000000E+000
  0.0000000E+000
  0.0000000E+000
  0.0000000E+000
  0.0000000E+000
  0.0000000E+000
  0.0000000E+000
  0.0000000E+000
  0.0000000E+000
  0.0000000E+000
  0.0000000E+000
  0.0000000E+000
  0.0000000E+000
  0.0000000E+000
  0.0000000E+000
  0.0000000E+000
  0.0000000E+000
  0.0000000E+000
  0.0000000E+000
  0.0000000E+000
  0.0000000E+000
  0.0000000E+000
  0.0000000E+000
  0.0000000E+000
  0.0000000E+000
  0.0000000E+000
  0.0000000E+000
  0.0000000E+000
  0.0000000E+000
  0.0000000E+000
  0.0000000E+000
  0.0000000E+000
  0.0000000E+000
  0.0000000E+000
  0.0000000E+000
  0.0000000E+000
  0.0000000E+000
  0.0000000E+000
  0.0000000E+000
  0.0000000E+000
  0.0000000E+000
  0.0000000E+000
  0.0000000E+000
  0.0000000E+000
  0.0000000E+000
  0.0000000E+000
  0.0000000E+000
  0.0000000E+000
  0.0000000E+000
  0.0000000E+000
  0.0000000E+000
  0.0000000E+000
  0.0000000E+000
  0.0000000E+000
  0.0000000E+000
  0.0000000E+000
  0.0000000E+000
  0.0000000E+000
  0.0000000E+000
  0.0000000E+000
  0.0000000E+000
  0.0000000E+000
  0.0000000E+000
  0.0000000E+000
  0.0000000E+000
  0.0000000E+000
  0.0000000E+000
  0.0000000E+000
  0.0000000E+000
  0.0000000E+000
  0.0000000E+000
  0.0000000E+000
  0.0000000E+000
  0.0000000E+000
  0.0000000E+000
  0.0000000E+000
  0.0000000E+000
  0.0000000E+000
  0.0000000E+000
  0.0000000E+000
  0.0000000E+000
  0.0000000E+000
  0.0000000E+000
  0.0000000E+000
  0.0000000E+000
  0.0000000E+000
  0.0000000E+000
  0.0000000E+000
  0.0000000E+000
  0.0000000E+000
  0.0000000E+000
  0.0000000E+000
  0.0000000E+000
  0.0000000E+000
  0.0000000E+000
  0.0000000E+000
  0.0000000E+000
  0.0000000E+000
  0.0000000E+000
  0.0000000E+000
  0.0000000E+000
  0.0000000E+000
  0.0000000E+000
  0.0000000E+000
  0.0000000E+000
  0.0000000E+000
  0.0000000E+000
  0.0000000E+000
  0.0000000E+000
  0.0000000E+000
  0.0000000E+000
  0.0000000E+000
  0.0000000E+000
  0.0000000E+000
  0.0000000E+000
  0.0000000E+000
  0.0000000E+000
  0.0000000E+000
  0.0000000E+000
  0.0000000E+000
  0.0000000E+000
  0.0000000E+000
  0.0000000E+000
  0.0000000E+000
  0.0000000E+000
  0.0000000E+000
  0.0000000E+000
  0.0000000E+000
  0.0000000E+000
  0.0000000E+000
  0.0000000E+000
  0.0000000E+000
  0.0000000E+000
  0.0000000E+000
  0.0000000E+000
  0.0000000E+000
  0.0000000E+000
  0.0000000E+000
  0.0000000E+000
  0.0000000E+000
  0.0000000E+000
  0.0000000E+000
  0.0000000E+000
  0.0000000E+000
  0.0000000E+000
  0.0000000E+000
  0.0000000E+000
  0.0000000E+000
  0.0000000E+000
  0.0000000E+000
  0.0000000E+000
  0.0000000E+000
  0.0000000E+000
  0.0000000E+000
  0.0000000E+000
  0.0000000E+000
  0.0000000E+000
  0.0000000E+000
  0.0000000E+000
  0.0000000E+000
  0.0000000E+000
  0.0000000E+000
  0.0000000E+000
  0.0000000E+000
  0.0000000E+000
  0.0000000E+000
  0.0000000E+000
  0.0000000E+000
  0.0000000E+000
  0.0000000E+000
  0.0000000E+000
  0.0000000E+000
  0.0000000E+000
  0.0000000E+000
  0.0000000E+000
  0.0000000E+000
  0.0000000E+000
  0.0000000E+000
  0.0000000E+000
  0.0000000E+000
  0.0000000E+000
  0.0000000E+000
  0.0000000E+000
  0.0000000E+000
  0.0000000E+000
  0.0000000E+000
  0.0000000E+000
  0.0000000E+000
  0.0000000E+000
  0.0000000E+000
  0.0000000E+000
  0.0000000E+000
  0.0000000E+000
  0.0000000E+000
  0.0000000E+000
  0.0000000E+000
  0.0000000E+000
  0.0000000E+000
  0.0000000E+000
  0.0000000E+000
  0.0000000E+000
  0.0000000E+000
  0.0000000E+000
  0.0000000E+000
  0.0000000E+000
  0.0000000E+000
  0.0000000E+000
  0.0000000E+000
  0.0000000E+000
  0.0000000E+000
  0.0000000E+000
  0.0000000E+000
  0.0000000E+000
  0.0000000E+000
  0.0000000E+000
  0.0000000E+000
  0.0000000E+000
  0.0000000E+000
  0.0000000E+000
  0.0000000E+000
  0.0000000E+000
  0.0000000E+000
  0.0000000E+000
  0.0000000E+000
  0.0000000E+000
  0.0000000E+000
  0.0000000E+000
  0.0000000E+000
  0.0000000E+000
  0.0000000E+000
  0.0000000E+000
  0.0000000E+000
  0.0000000E+000
  0.0000000E+000
  0.0000000E+000
  0.0000000E+000
  0.0000000E+000
  0.0000000E+000
  0.0000000E+000
  0.0000000E+000
  0.0000000E+000
  0.0000000E+000
  0.0000000E+000
  0.0000000E+000
  0.0000000E+000
  0.0000000E+000
  0.0000000E+000
  0.0000000E+000
  0.0000000E+000
  0.0000000E+000
  0.0000000E+000
  0.0000000E+000
  0.0000000E+000
  0.0000000E+000
  0.0000000E+000
  0.0000000E+000
  0.0000000E+000
  0.0000000E+000
  0.0000000E+000
  0.0000000E+000
  0.0000000E+000
  0.0000000E+000
  0.0000000E+000
  0.0000000E+000
  0.0000000E+000
  0.0000000E+000
  0.0000000E+000
  0.0000000E+000
  0.0000000E+000
  0.0000000E+000
  0.0000000E+000
  0.0000000E+000
  0.0000000E+000
  0.0000000E+000
  0.0000000E+000
  0.0000000E+000
  0.0000000E+000
  0.0000000E+000
  0.0000000E+000
  0.0000000E+000
  0.0000000E+000
  0.0000000E+000
  0.0000000E+000
  0.0000000E+000
  0.0000000E+000
  0.0000000E+000
  0.0000000E+000
  0.0000000E+000
  0.0000000E+000
  0.0000000E+000
  0.0000000E+000
  0.0000000E+000
  0.0000000E+000
  0.0000000E+000
  0.0000000E+000
  0.0000000E+000
  0.0000000E+000
  0.0000000E+000
  0.0000000E+000
  0.0000000E+000
  0.0000000E+000
  0.0000000E+000
  0.0000000E+000
  0.0000000E+000
  0.0000000E+000
  0.0000000E+000
  0.0000000E+000
  0.0000000E+000
  0.0000000E+000
  0.0000000E+000
  0.0000000E+000
  0.0000000E+000
  0.0000000E+000
  0.0000000E+000
  0.0000000E+000
  0.0000000E+000
  0.0000000E+000
  0.0000000E+000
  0.0000000E+000
  0.0000000E+000
  0.0000000E+000
  0.0000000E+000
  0.0000000E+000
  0.0000000E+000
  0.0000000E+000
  0.0000000E+000
  0.0000000E+000
  0.0000000E+000
  0.0000000E+000
  0.0000000E+000
  0.0000000E+000
  0.0000000E+000
  0.0000000E+000
  0.0000000E+000
  0.0000000E+000
  0.0000000E+000
  0.0000000E+000
  0.0000000E+000
  0.0000000E+000
  0.0000000E+000
  0.0000000E+000
  0.0000000E+000
  0.0000000E+000
  0.0000000E+000
  0.0000000E+000
  0.0000000E+000
  0.0000000E+000
  0.0000000E+000
  0.0000000E+000
  0.0000000E+000
  0.0000000E+000
  0.0000000E+000
  0.0000000E+000
  0.0000000E+000
  0.0000000E+000
  0.0000000E+000
  0.0000000E+000
  0.0000000E+000
  0.0000000E+000
  0.0000000E+000
  0.0000000E+000
  0.0000000E+000
  0.0000000E+000
  0.0000000E+000
  0.0000000E+000
  0.0000000E+000
  0.0000000E+000
  0.0000000E+000
  0.0000000E+000
  0.0000000E+000
  0.0000000E+000
  0.0000000E+000
  0.0000000E+000
  0.0000000E+000
  0.0000000E+000
  0.0000000E+000
  0.0000000E+000
  0.0000000E+000
  0.0000000E+000
  0.0000000E+000
  0.0000000E+000
  0.0000000E+000
  0.0000000E+000
  0.0000000E+000
  0.0000000E+000
  0.0000000E+000
  0.0000000E+000
  0.0000000E+000
  0.0000000E+000
  0.0000000E+000
  0.0000000E+000
  0.0000000E+000
  0.0000000E+000
  0.0000000E+000
  0.0000000E+000
  0.0000000E+000
  0.0000000E+000
  0.0000000E+000
  0.0000000E+000
  0.0000000E+000
  0.0000000E+000
  0.0000000E+000
  0.0000000E+000
  0.0000000E+000
  0.0000000E+000
  0.0000000E+000
  0.0000000E+000
  0.0000000E+000
  0.0000000E+000
  0.0000000E+000
  0.0000000E+000
  0.0000000E+000
  0.0000000E+000
  0.0000000E+000
  0.0000000E+000
  0.0000000E+000
  0.0000000E+000
  0.0000000E+000
  0.0000000E+000
  0.0000000E+000
  0.0000000E+000
  0.0000000E+000
  0.0000000E+000
  0.0000000E+000
  0.0000000E+000
  0.0000000E+000
  0.0000000E+000
  0.0000000E+000
  0.0000000E+000
  0.0000000E+000
  0.0000000E+000
  0.0000000E+000
  0.0000000E+000
  0.0000000E+000
  0.0000000E+000
  0.0000000E+000
  0.0000000E+000
  0.0000000E+000
  0.0000000E+000
  0.0000000E+000
  0.0000000E+000
  0.0000000E+000
  0.0000000E+000
  0.0000000E+000
  0.0000000E+000
  0.0000000E+000
  0.0000000E+000
  0.0000000E+000
  0.0000000E+000
  0.0000000E+000
  0.0000000E+000
  0.0000000E+000
  0.0000000E+000
  0.0000000E+000
  0.0000000E+000
  0.0000000E+000
  0.0000000E+000
  0.0000000E+000
  0.0000000E+000
  0.0000000E+000
  0.0000000E+000
  0.0000000E+000
  0.0000000E+000
  0.0000000E+000
  0.0000000E+000
  0.0000000E+000
  0.0000000E+000
  0.0000000E+000
  0.0000000E+000
  0.0000000E+000
  0.0000000E+000
  0.0000000E+000
  0.0000000E+000
  0.0000000E+000
  0.0000000E+000
  0.0000000E+000
  0.0000000E+000
  0.0000000E+000
  0.0000000E+000
  0.0000000E+000
  0.0000000E+000
  0.0000000E+000
  0.0000000E+000
  0.0000000E+000
  0.0000000E+000
  0.0000000E+000
  0.0000000E+000
  0.0000000E+000
  0.0000000E+000
  0.0000000E+000
  0.0000000E+000
  0.0000000E+000
  0.0000000E+000
  0.0000000E+000
  0.0000000E+000
  0.0000000E+000
  0.0000000E+000
  0.0000000E+000
  0.0000000E+000
  0.0000000E+000
  0.0000000E+000
  0.0000000E+000
  0.0000000E+000
  0.0000000E+000
  0.0000000E+000
  0.0000000E+000
  0.0000000E+000
  0.0000000E+000
  0.0000000E+000
  0.0000000E+000
  0.0000000E+000
  0.0000000E+000
  0.0000000E+000
  0.0000000E+000
  0.0000000E+000
  0.0000000E+000
  0.0000000E+000
  0.0000000E+000
  0.0000000E+000
  0.0000000E+000
  0.0000000E+000
  0.0000000E+000
  0.0000000E+000
  0.0000000E+000
  0.0000000E+000
  0.0000000E+000
  0.0000000E+000
  0.0000000E+000
  0.0000000E+000
  0.0000000E+000
  0.0000000E+000
  0.0000000E+000
  0.0000000E+000
  0.0000000E+000
  0.0000000E+000
  0.0000000E+000
  0.0000000E+000
  0.0000000E+000
  0.0000000E+000
  0.0000000E+000
  0.0000000E+000
  0.0000000E+000
  0.0000000E+000
  0.0000000E+000
  0.0000000E+000
  0.0000000E+000
  0.0000000E+000
  0.0000000E+000
  0.0000000E+000
  0.0000000E+000
  0.0000000E+000
  0.0000000E+000
  0.0000000E+000
  0.0000000E+000
  0.0000000E+000
  0.0000000E+000
  0.0000000E+000
  0.0000000E+000
  0.0000000E+000
  0.0000000E+000
  0.0000000E+000
  0.0000000E+000
  0.0000000E+000
  0.0000000E+000
  0.0000000E+000
  0.0000000E+000
  0.0000000E+000
  0.0000000E+000
  0.0000000E+000
  0.0000000E+000
  0.0000000E+000
  0.0000000E+000
  0.0000000E+000
  0.0000000E+000
  0.0000000E+000
  0.0000000E+000
  0.0000000E+000
  0.0000000E+000
  0.0000000E+000
  0.0000000E+000
  0.0000000E+000
  0.0000000E+000
  0.0000000E+000
  0.0000000E+000
  0.0000000E+000
  0.0000000E+000
  0.0000000E+000
  0.0000000E+000
  0.0000000E+000
  0.0000000E+000
  0.0000000E+000
  0.0000000E+000
  0.0000000E+000
  0.0000000E+000
  0.0000000E+000
  0.0000000E+000
  0.0000000E+000
  0.0000000E+000
  0.0000000E+000
  0.0000000E+000
  0.0000000E+000
  0.0000000E+000
  0.0000000E+000
  0.0000000E+000
  0.0000000E+000
  0.0000000E+000
  0.0000000E+000
  0.0000000E+000
  0.0000000E+000
  0.0000000E+000
  0.0000000E+000
  0.0000000E+000
  0.0000000E+000
  0.0000000E+000
  0.0000000E+000
  0.0000000E+000
  0.0000000E+000
  0.0000000E+000
  0.0000000E+000
  0.0000000E+000
  0.0000000E+000
  0.0000000E+000
  0.0000000E+000
  0.0000000E+000
  0.0000000E+000
  0.0000000E+000
  0.0000000E+000
  0.0000000E+000
  0.0000000E+000
  0.0000000E+000
  0.0000000E+000
  0.0000000E+000
  0.0000000E+000
  0.0000000E+000
  0.0000000E+000
  0.0000000E+000
  0.0000000E+000
  0.0000000E+000
  0.0000000E+000
  0.0000000E+000
  0.0000000E+000
  0.0000000E+000
  0.0000000E+000
  0.0000000E+000
  0.0000000E+000
  0.0000000E+000
  0.0000000E+000
  0.0000000E+000
  0.0000000E+000
  0.0000000E+000
  0.0000000E+000
  0.0000000E+000
  0.0000000E+000
  0.0000000E+000
  0.0000000E+000
  0.0000000E+000
  0.0000000E+000
  0.0000000E+000
  0.0000000E+000
  0.0000000E+000
  0.0000000E+000
  0.0000000E+000
  0.0000000E+000
  0.0000000E+000
  0.0000000E+000
  0.0000000E+000
  0.0000000E+000
  0.0000000E+000
  0.0000000E+000
  0.0000000E+000
  0.0000000E+000
  0.0000000E+000
  0.0000000E+000
  0.0000000E+000
  0.0000000E+000
  0.0000000E+000
  0.0000000E+000
  0.0000000E+000
  0.0000000E+000
  0.0000000E+000
  0.0000000E+000
  0.0000000E+000
  0.0000000E+000
  0.0000000E+000
  0.0000000E+000
  0.0000000E+000
  0.0000000E+000
  0.0000000E+000
  0.0000000E+000
  0.0000000E+000
  0.0000000E+000
  0.0000000E+000
  0.0000000E+000
  0.0000000E+000
  0.0000000E+000
  0.0000000E+000
  0.0000000E+000
  0.0000000E+000
  0.0000000E+000
  0.0000000E+000
  0.0000000E+000
  0.0000000E+000
  0.0000000E+000
  0.0000000E+000
  0.0000000E+000
  0.0000000E+000
  0.0000000E+000
  0.0000000E+000
  0.0000000E+000
  0.0000000E+000
  0.0000000E+000
  0.0000000E+000
  0.0000000E+000
  0.0000000E+000
  0.0000000E+000
  0.0000000E+000
  0.0000000E+000
  0.0000000E+000
  0.0000000E+000
  0.0000000E+000
  0.0000000E+000
  0.0000000E+000
  0.0000000E+000
  0.0000000E+000
  0.0000000E+000
  0.0000000E+000
  0.0000000E+000
  0.0000000E+000
  0.0000000E+000
  0.0000000E+000
  0.0000000E+000
  0.0000000E+000
  0.0000000E+000
  0.0000000E+000
  0.0000000E+000
  0.0000000E+000
  0.0000000E+000
  0.0000000E+000
  0.0000000E+000
  0.0000000E+000
  0.0000000E+000
  0.0000000E+000
  0.0000000E+000
  0.0000000E+000
  0.0000000E+000
  0.0000000E+000
  0.0000000E+000
  0.0000000E+000
  0.0000000E+000
  0.0000000E+000
  0.0000000E+000
  0.0000000E+000
  0.0000000E+000
  0.0000000E+000
  0.0000000E+000
  0.0000000E+000
  0.0000000E+000
  0.0000000E+000
  0.0000000E+000
  0.0000000E+000
  0.0000000E+000
  0.0000000E+000
  0.0000000E+000
  0.0000000E+000
  0.0000000E+000
  0.0000000E+000
  0.0000000E+000
  0.0000000E+000
  0.0000000E+000
  0.0000000E+000
  0.0000000E+000
  0.0000000E+000
  0.0000000E+000
  0.0000000E+000
  0.0000000E+000
  0.0000000E+000
  0.0000000E+000
  0.0000000E+000
  0.0000000E+000
  0.0000000E+000
  0.0000000E+000
  0.0000000E+000
  0.0000000E+000
  0.0000000E+000
  0.0000000E+000
  0.0000000E+000
  0.0000000E+000
  0.0000000E+000
  0.0000000E+000
  0.0000000E+000
  0.0000000E+000
  0.0000000E+000
  0.0000000E+000
  0.0000000E+000
  0.0000000E+000
  0.0000000E+000
  0.0000000E+000
  0.0000000E+000
  0.0000000E+000
  0.0000000E+000
  0.0000000E+000
  0.0000000E+000
  0.0000000E+000
  0.0000000E+000
  0.0000000E+000
  0.0000000E+000
  0.0000000E+000
  0.0000000E+000
  0.0000000E+000
  0.0000000E+000
  0.0000000E+000
  0.0000000E+000
  0.0000000E+000
  0.0000000E+000
  0.0000000E+000
  0.0000000E+000
  0.0000000E+000
  0.0000000E+000
  0.0000000E+000
  0.0000000E+000
  0.0000000E+000
  0.0000000E+000
  0.0000000E+000
  0.0000000E+000
  0.0000000E+000
  0.0000000E+000
  0.0000000E+000
  0.0000000E+000
  0.0000000E+000
  0.0000000E+000
  0.0000000E+000
  0.0000000E+000
  0.0000000E+000
  0.0000000E+000
  0.0000000E+000
  0.0000000E+000
  0.0000000E+000
  0.0000000E+000
  0.0000000E+000
  0.0000000E+000
  0.0000000E+000
  0.0000000E+000
  0.0000000E+000
  0.0000000E+000
  0.0000000E+000
  0.0000000E+000
  0.0000000E+000
  0.0000000E+000
  0.0000000E+000
  0.0000000E+000
  0.0000000E+000
  0.0000000E+000
  0.0000000E+000
  0.0000000E+000
  0.0000000E+000
  0.0000000E+000
  0.0000000E+000
  0.0000000E+000
  0.0000000E+000
  0.0000000E+000
  0.0000000E+000
  0.0000000E+000
  0.0000000E+000
  0.0000000E+000
  0.0000000E+000
  0.0000000E+000
  0.0000000E+000
  0.0000000E+000
  0.0000000E+000
  0.0000000E+000
  0.0000000E+000
  0.0000000E+000
  0.0000000E+000
  0.0000000E+000
  0.0000000E+000
  0.0000000E+000
  0.0000000E+000
  0.0000000E+000
  0.0000000E+000
  0.0000000E+000
  0.0000000E+000
  0.0000000E+000
  0.0000000E+000
  0.0000000E+000
  0.0000000E+000
  0.0000000E+000
  0.0000000E+000
  0.0000000E+000
  0.0000000E+000
  0.0000000E+000
  0.0000000E+000
  0.0000000E+000
  0.0000000E+000
  0.0000000E+000
  0.0000000E+000
  0.0000000E+000
  0.0000000E+000
  0.0000000E+000
  0.0000000E+000
  0.0000000E+000
  0.0000000E+000
  0.0000000E+000
  0.0000000E+000
  0.0000000E+000
  0.0000000E+000
  0.0000000E+000
  0.0000000E+000
  0.0000000E+000
  0.0000000E+000
  0.0000000E+000
  0.0000000E+000
  0.0000000E+000
  0.0000000E+000
  0.0000000E+000
  0.0000000E+000
  0.0000000E+000
  0.0000000E+000
  0.0000000E+000
  0.0000000E+000
  0.0000000E+000
  0.0000000E+000
  0.0000000E+000
  0.0000000E+000
  0.0000000E+000
  0.0000000E+000
  0.0000000E+000
  0.0000000E+000
  0.0000000E+000
  0.0000000E+000
  0.0000000E+000
  0.0000000E+000
  0.0000000E+000
  0.0000000E+000
  0.0000000E+000
  0.0000000E+000
  0.0000000E+000
  0.0000000E+000
  0.0000000E+000
  0.0000000E+000
  0.0000000E+000
  0.0000000E+000
  0.0000000E+000
  0.0000000E+000
  0.0000000E+000
  0.0000000E+000
  0.0000000E+000
  0.0000000E+000
  0.0000000E+000
  0.0000000E+000
  0.0000000E+000
  0.0000000E+000
  0.0000000E+000
  0.0000000E+000
  0.0000000E+000
  0.0000000E+000
  0.0000000E+000
  0.0000000E+000
  0.0000000E+000
  0.0000000E+000
  0.0000000E+000
  0.0000000E+000
  0.0000000E+000
  0.0000000E+000
  0.0000000E+000
  0.0000000E+000
  0.0000000E+000
  0.0000000E+000
  0.0000000E+000
  0.0000000E+000
  0.0000000E+000
  0.0000000E+000
  0.0000000E+000
  0.0000000E+000
  0.0000000E+000
  0.0000000E+000
  0.0000000E+000
  0.0000000E+000
  0.0000000E+000
  0.0000000E+000
  0.0000000E+000
  0.0000000E+000
  0.0000000E+000
  0.0000000E+000
  0.0000000E+000
  0.0000000E+000
  0.0000000E+000
  0.0000000E+000
  0.0000000E+000
  0.0000000E+000
  0.0000000E+000
  0.0000000E+000
  0.0000000E+000
  0.0000000E+000
  0.0000000E+000
  0.0000000E+000
  0.0000000E+000
  0.0000000E+000
  0.0000000E+000
  0.0000000E+000
  0.0000000E+000
  0.0000000E+000
  0.0000000E+000
  0.0000000E+000
  0.0000000E+000
  0.0000000E+000
  0.0000000E+000
  0.0000000E+000
  0.0000000E+000
  0.0000000E+000
  0.0000000E+000
  0.0000000E+000
  0.0000000E+000
  0.0000000E+000
  0.0000000E+000
  0.0000000E+000
  0.0000000E+000
  0.0000000E+000
  0.0000000E+000
  0.0000000E+000
  0.0000000E+000
  0.0000000E+000
  0.0000000E+000
  0.0000000E+000
  0.0000000E+000
  0.0000000E+000
  0.0000000E+000
  0.0000000E+000
  0.0000000E+000
  0.0000000E+000
  0.0000000E+000
  0.0000000E+000
  0.0000000E+000
  0.0000000E+000
  0.0000000E+000
  0.0000000E+000
  0.0000000E+000
  0.0000000E+000
  0.0000000E+000
  0.0000000E+000
  0.0000000E+000
  0.0000000E+000
  0.0000000E+000
  0.0000000E+000
  0.0000000E+000
  0.0000000E+000
  0.0000000E+000
  0.0000000E+000
  0.0000000E+000
  0.0000000E+000
  0.0000000E+000
  0.0000000E+000
  0.0000000E+000
  0.0000000E+000
  0.0000000E+000
  0.0000000E+000
  0.0000000E+000
  0.0000000E+000
  0.0000000E+000
  0.0000000E+000
  0.0000000E+000
  0.0000000E+000
  0.0000000E+000
  0.0000000E+000
  0.0000000E+000
  0.0000000E+000
  0.0000000E+000
  0.0000000E+000
  0.0000000E+000
  0.0000000E+000
  0.0000000E+000
  0.0000000E+000
  0.0000000E+000
  0.0000000E+000
  0.0000000E+000
  0.0000000E+000
  0.0000000E+000
  0.0000000E+000
  0.0000000E+000
  0.0000000E+000
  0.0000000E+000
  0.0000000E+000
  0.0000000E+000
  0.0000000E+000
  0.0000000E+000
  0.0000000E+000
  0.0000000E+000
  0.0000000E+000
  0.0000000E+000
  0.0000000E+000
  0.0000000E+000
  0.0000000E+000
  0.0000000E+000
  0.0000000E+000
  0.0000000E+000
  0.0000000E+000
  0.0000000E+000
  0.0000000E+000
  0.0000000E+000
  0.0000000E+000
  0.0000000E+000
  0.0000000E+000
  0.0000000E+000
  0.0000000E+000
  0.0000000E+000
  0.0000000E+000
  0.0000000E+000
  0.0000000E+000
  0.0000000E+000
  0.0000000E+000
  0.0000000E+000
  0.0000000E+000
  0.0000000E+000
  0.0000000E+000
  0.0000000E+000
  0.0000000E+000
  0.0000000E+000
  0.0000000E+000
  0.0000000E+000
  0.0000000E+000
  0.0000000E+000
  0.0000000E+000
  0.0000000E+000
  0.0000000E+000
  0.0000000E+000
  0.0000000E+000
  0.0000000E+000
  0.0000000E+000
  0.0000000E+000
  0.0000000E+000
  0.0000000E+000
  0.0000000E+000
  0.0000000E+000
  0.0000000E+000
  0.0000000E+000
  0.0000000E+000
  0.0000000E+000
  0.0000000E+000
  0.0000000E+000
  0.0000000E+000
  0.0000000E+000
  0.0000000E+000
  0.0000000E+000
  0.0000000E+000
  0.0000000E+000
  0.0000000E+000
  0.0000000E+000
  0.0000000E+000
  0.0000000E+000
  0.0000000E+000
  0.0000000E+000
  0.0000000E+000
  0.0000000E+000
  0.0000000E+000
  0.0000000E+000
  0.0000000E+000
  0.0000000E+000
  0.0000000E+000
  0.0000000E+000
  0.0000000E+000
  0.0000000E+000
  0.0000000E+000
  0.0000000E+000
  0.0000000E+000
  0.0000000E+000
  0.0000000E+000
  0.0000000E+000
  0.0000000E+000
  0.0000000E+000
  0.0000000E+000
  0.0000000E+000
  0.0000000E+000
  0.0000000E+000
  0.0000000E+000
  0.0000000E+000
  0.0000000E+000
  0.0000000E+000
  0.0000000E+000
  0.0000000E+000
  0.0000000E+000
  0.0000000E+000
  0.0000000E+000
  0.0000000E+000
  0.0000000E+000
  0.0000000E+000
  0.0000000E+000
  0.0000000E+000
  0.0000000E+000
  0.0000000E+000
  0.0000000E+000
  0.0000000E+000
  0.0000000E+000
  0.0000000E+000
  0.0000000E+000
  0.0000000E+000
  0.0000000E+000
  0.0000000E+000
  0.0000000E+000
  0.0000000E+000
  0.0000000E+000
  0.0000000E+000
  0.0000000E+000
  0.0000000E+000
  0.0000000E+000
  0.0000000E+000
  0.0000000E+000
  0.0000000E+000
  0.0000000E+000
  0.0000000E+000
  0.0000000E+000
  0.0000000E+000
  0.0000000E+000
  0.0000000E+000
  0.0000000E+000
  0.0000000E+000
  0.0000000E+000
  0.0000000E+000
  0.0000000E+000
  0.0000000E+000
  0.0000000E+000
  0.0000000E+000
  0.0000000E+000
  0.0000000E+000
  0.0000000E+000
  0.0000000E+000
  0.0000000E+000
  0.0000000E+000
  0.0000000E+000
  0.0000000E+000
  0.0000000E+000
  0.0000000E+000
  0.0000000E+000
  0.0000000E+000
  0.0000000E+000
  0.0000000E+000
  0.0000000E+000
  0.0000000E+000
  0.0000000E+000
  0.0000000E+000
  0.0000000E+000
  0.0000000E+000
  0.0000000E+000
  0.0000000E+000
  0.0000000E+000
  0.0000000E+000
  0.0000000E+000
  0.0000000E+000
  0.0000000E+000
  0.0000000E+000
  0.0000000E+000
  0.0000000E+000
  0.0000000E+000
  0.0000000E+000
  0.0000000E+000
  0.0000000E+000
  0.0000000E+000
  0.0000000E+000
  0.0000000E+000
  0.0000000E+000
  0.0000000E+000
  0.0000000E+000
  0.0000000E+000
  0.0000000E+000
  0.0000000E+000
  0.0000000E+000
  0.0000000E+000
  0.0000000E+000
  0.0000000E+000
  0.0000000E+000
  0.0000000E+000
  0.0000000E+000
  0.0000000E+000
  0.0000000E+000
  0.0000000E+000
  0.0000000E+000
  0.0000000E+000
  0.0000000E+000
  0.0000000E+000
  0.0000000E+000
  0.0000000E+000
  0.0000000E+000
  0.0000000E+000
  0.0000000E+000
  0.0000000E+000
  0.0000000E+000
  0.0000000E+000
  0.0000000E+000
  0.0000000E+000
  0.0000000E+000
  0.0000000E+000
  0.0000000E+000
  0.0000000E+000
  0.0000000E+000
  0.0000000E+000
  0.0000000E+000
  0.0000000E+000
  0.0000000E+000
  0.0000000E+000
  0.0000000E+000
  0.0000000E+000
  0.0000000E+000
  0.0000000E+000
  0.0000000E+000
  0.0000000E+000
  0.0000000E+000
  0.0000000E+000
  0.0000000E+000
  0.0000000E+000
  0.0000000E+000
  0.0000000E+000
  0.0000000E+000
  0.0000000E+000
  0.0000000E+000
  0.0000000E+000
  0.0000000E+000
  0.0000000E+000
  0.0000000E+000
  0.0000000E+000
  0.0000000E+000
  0.0000000E+000
  0.0000000E+000
  0.0000000E+000
  0.0000000E+000
  0.0000000E+000
  0.0000000E+000
  0.0000000E+000
  0.0000000E+000
  0.0000000E+000
  0.0000000E+000
  0.0000000E+000
  0.0000000E+000
  0.0000000E+000
  0.0000000E+000
  0.0000000E+000
  0.0000000E+000
  0.0000000E+000
  0.0000000E+000
  0.0000000E+000
  0.0000000E+000
  0.0000000E+000
  0.0000000E+000
  0.0000000E+000
  0.0000000E+000
  0.0000000E+000
  0.0000000E+000
  0.0000000E+000
  0.0000000E+000
  0.0000000E+000
  0.0000000E+000
  0.0000000E+000
  0.0000000E+000
  0.0000000E+000
  0.0000000E+000
  0.0000000E+000
  0.0000000E+000
  0.0000000E+000
  0.0000000E+000
  0.0000000E+000
  0.0000000E+000
  0.0000000E+000
  0.0000000E+000
  0.0000000E+000
  0.0000000E+000
  0.0000000E+000
  0.0000000E+000
  0.0000000E+000
  0.0000000E+000
  0.0000000E+000
  0.0000000E+000
  0.0000000E+000
  0.0000000E+000
  0.0000000E+000
  0.0000000E+000
  0.0000000E+000
  0.0000000E+000
  0.0000000E+000
  0.0000000E+000
  0.0000000E+000
  0.0000000E+000
  0.0000000E+000
  0.0000000E+000
  0.0000000E+000
  0.0000000E+000
  0.0000000E+000
  0.0000000E+000
  0.0000000E+000
  0.0000000E+000
  0.0000000E+000
  0.0000000E+000
  0.0000000E+000
  0.0000000E+000
  0.0000000E+000
  0.0000000E+000
  0.0000000E+000
  0.0000000E+000
  0.0000000E+000
  0.0000000E+000
  0.0000000E+000
  0.0000000E+000
  0.0000000E+000
  0.0000000E+000
  0.0000000E+000
  0.0000000E+000
  0.0000000E+000
  0.0000000E+000
  0.0000000E+000
  0.0000000E+000
  0.0000000E+000
  0.0000000E+000
  0.0000000E+000
  0.0000000E+000
  0.0000000E+000
  0.0000000E+000
  0.0000000E+000
  0.0000000E+000
  0.0000000E+000
  0.0000000E+000
  0.0000000E+000
  0.0000000E+000
  0.0000000E+000
  0.0000000E+000
  0.0000000E+000
  0.0000000E+000
  0.0000000E+000
  0.0000000E+000
  0.0000000E+000
  0.0000000E+000
  0.0000000E+000
  0.0000000E+000
  0.0000000E+000
  0.0000000E+000
  0.0000000E+000
  0.0000000E+000
  0.0000000E+000
  0.0000000E+000
  0.0000000E+000
  0.0000000E+000
  0.0000000E+000
  0.0000000E+000
  0.0000000E+000
  0.0000000E+000
  0.0000000E+000
  0.0000000E+000
  0.0000000E+000
  0.0000000E+000
  0.0000000E+000
  0.0000000E+000
  0.0000000E+000
  0.0000000E+000
  0.0000000E+000
  0.0000000E+000
  0.0000000E+000
  0.0000000E+000
  0.0000000E+000
  0.0000000E+000
  0.0000000E+000
  0.0000000E+000
  0.0000000E+000
  0.0000000E+000
  0.0000000E+000
  0.0000000E+000
  0.0000000E+000
  0.0000000E+000
  0.0000000E+000
  0.0000000E+000
  0.0000000E+000
  0.0000000E+000
  0.0000000E+000
  0.0000000E+000
  0.0000000E+000
  0.0000000E+000
  0.0000000E+000
  0.0000000E+000
  0.0000000E+000
  0.0000000E+000
  0.0000000E+000
  0.0000000E+000
  0.0000000E+000
  0.0000000E+000
  0.0000000E+000
  0.0000000E+000
  0.0000000E+000
  0.0000000E+000
  0.0000000E+000
  0.0000000E+000
  0.0000000E+000
  0.0000000E+000
  0.0000000E+000
  0.0000000E+000
  0.0000000E+000
  0.0000000E+000
  0.0000000E+000
  0.0000000E+000
  0.0000000E+000
  0.0000000E+000
  0.0000000E+000
  0.0000000E+000
  0.0000000E+000
  0.0000000E+000
  0.0000000E+000
  0.0000000E+000
  0.0000000E+000
  0.0000000E+000
  0.0000000E+000
  0.0000000E+000
  0.0000000E+000
  0.0000000E+000
  0.0000000E+000
  0.0000000E+000
  0.0000000E+000
  0.0000000E+000
  0.0000000E+000
  0.0000000E+000
  0.0000000E+000
  0.0000000E+000
  0.0000000E+000
  0.0000000E+000
  0.0000000E+000
  0.0000000E+000
  0.0000000E+000
  0.0000000E+000
  0.0000000E+000
  0.0000000E+000
  0.0000000E+000
  0.0000000E+000
  0.0000000E+000
  0.0000000E+000
  0.0000000E+000
  0.0000000E+000
  0.0000000E+000
  0.0000000E+000
  0.0000000E+000
  0.0000000E+000
  0.0000000E+000
  0.0000000E+000
  0.0000000E+000
  0.0000000E+000
  0.0000000E+000
  0.0000000E+000
  0.0000000E+000
  0.0000000E+000
  0.0000000E+000
  0.0000000E+000
  0.0000000E+000
  0.0000000E+000
  0.0000000E+000
  0.0000000E+000
  0.0000000E+000
  0.0000000E+000
  0.0000000E+000
  0.0000000E+000
  0.0000000E+000
  0.0000000E+000
  0.0000000E+000
  0.0000000E+000
  0.0000000E+000
  0.0000000E+000
  0.0000000E+000
  0.0000000E+000
  0.0000000E+000
  0.0000000E+000
  0.0000000E+000
  0.0000000E+000
  0.0000000E+000
  0.0000000E+000
  0.0000000E+000
  0.0000000E+000
  0.0000000E+000
  0.0000000E+000
  0.0000000E+000
  0.0000000E+000
  0.0000000E+000
  0.0000000E+000
  0.0000000E+000
  0.0000000E+000
  0.0000000E+000
  0.0000000E+000
  0.0000000E+000
  0.0000000E+000
  0.0000000E+000
  0.0000000E+000
  0.0000000E+000
  0.0000000E+000
  0.0000000E+000
  0.0000000E+000
  0.0000000E+000
  0.0000000E+000
  0.0000000E+000
  0.0000000E+000
  0.0000000E+000
  0.0000000E+000
  0.0000000E+000
  0.0000000E+000
  0.0000000E+000
  0.0000000E+000
  0.0000000E+000
  0.0000000E+000
  0.0000000E+000
  0.0000000E+000
  0.0000000E+000
  0.0000000E+000
  0.0000000E+000
  0.0000000E+000
  0.0000000E+000
  0.0000000E+000
  0.0000000E+000
  0.0000000E+000
  0.0000000E+000
  0.0000000E+000
  0.0000000E+000
  0.0000000E+000
  0.0000000E+000
  0.0000000E+000
  0.0000000E+000
  0.0000000E+000
  0.0000000E+000
  0.0000000E+000
  0.0000000E+000
  0.0000000E+000
  0.0000000E+000
  0.0000000E+000
  0.0000000E+000
  0.0000000E+000
  0.0000000E+000
  0.0000000E+000
  0.0000000E+000
  0.0000000E+000
  0.0000000E+000
  0.0000000E+000
  0.0000000E+000
  0.0000000E+000
  0.0000000E+000
  0.0000000E+000
  0.0000000E+000
  0.0000000E+000
  0.0000000E+000
  0.0000000E+000
  0.0000000E+000
  0.0000000E+000
  0.0000000E+000
  0.0000000E+000
  0.0000000E+000
  0.0000000E+000
  0.0000000E+000
  0.0000000E+000
  0.0000000E+000
  0.0000000E+000
  0.0000000E+000
  0.0000000E+000
  0.0000000E+000
  0.0000000E+000
  0.0000000E+000
  0.0000000E+000
  0.0000000E+000
  0.0000000E+000
  0.0000000E+000
  0.0000000E+000
  0.0000000E+000
  0.0000000E+000
  0.0000000E+000
  0.0000000E+000
  0.0000000E+000
  0.0000000E+000
  0.0000000E+000
  0.0000000E+000
  0.0000000E+000
  0.0000000E+000
  0.0000000E+000
  0.0000000E+000
  0.0000000E+000
  0.0000000E+000
  0.0000000E+000
  0.0000000E+000
  0.0000000E+000
  0.0000000E+000
  0.0000000E+000
  0.0000000E+000
  0.0000000E+000
  0.0000000E+000
  0.0000000E+000
  0.0000000E+000
  0.0000000E+000
  0.0000000E+000
  0.0000000E+000
  0.0000000E+000
  0.0000000E+000
  0.0000000E+000
  0.0000000E+000
  0.0000000E+000
  0.0000000E+000
  0.0000000E+000
  0.0000000E+000
  0.0000000E+000
  0.0000000E+000
  0.0000000E+000
  0.0000000E+000
  0.0000000E+000
  0.0000000E+000
  0.0000000E+000
  0.0000000E+000
  0.0000000E+000
  0.0000000E+000
  0.0000000E+000
  0.0000000E+000
  0.0000000E+000
  0.0000000E+000
  0.0000000E+000
  0.0000000E+000
  0.0000000E+000
  0.0000000E+000
  0.0000000E+000
  0.0000000E+000
  0.0000000E+000
  0.0000000E+000
  0.0000000E+000
  0.0000000E+000
  0.0000000E+000
  0.0000000E+000
  0.0000000E+000
  0.0000000E+000
  0.0000000E+000
  0.0000000E+000
  0.0000000E+000
  0.0000000E+000
  0.0000000E+000
  0.0000000E+000
  0.0000000E+000
  0.0000000E+000
  0.0000000E+000
  0.0000000E+000
  0.0000000E+000
  0.0000000E+000
  0.0000000E+000
  0.0000000E+000
  0.0000000E+000
  0.0000000E+000
  0.0000000E+000
  0.0000000E+000
  0.0000000E+000
  0.0000000E+000
  0.0000000E+000
  0.0000000E+000
  0.0000000E+000
  0.0000000E+000
  0.0000000E+000
  0.0000000E+000
  0.0000000E+000
  0.0000000E+000
  0.0000000E+000
  0.0000000E+000
  0.0000000E+000
  0.0000000E+000
  0.0000000E+000
  0.0000000E+000
  0.0000000E+000
  0.0000000E+000
  0.0000000E+000
  0.0000000E+000
  0.0000000E+000
  0.0000000E+000
  0.0000000E+000
  0.0000000E+000
  0.0000000E+000
  0.0000000E+000
  0.0000000E+000
  0.0000000E+000
  0.0000000E+000
  0.0000000E+000
  0.0000000E+000
  0.0000000E+000
  0.0000000E+000
  0.0000000E+000
  0.0000000E+000
  0.0000000E+000
  0.0000000E+000
  0.0000000E+000
  0.0000000E+000
  0.0000000E+000
  0.0000000E+000
  0.0000000E+000
  0.0000000E+000
  0.0000000E+000
  0.0000000E+000
  0.0000000E+000
  0.0000000E+000
  0.0000000E+000
  0.0000000E+000
  0.0000000E+000
  0.0000000E+000
  0.0000000E+000
  0.0000000E+000
  0.0000000E+000
  0.0000000E+000
  0.0000000E+000
  0.0000000E+000
  0.0000000E+000
  0.0000000E+000
  0.0000000E+000
  0.0000000E+000
  0.0000000E+000
  0.0000000E+000
  0.0000000E+000
  0.0000000E+000
  0.0000000E+000
  0.0000000E+000
  0.0000000E+000
  0.0000000E+000
  0.0000000E+000
  0.0000000E+000
  0.0000000E+000
  0.0000000E+000
  0.0000000E+000
  0.0000000E+000
  0.0000000E+000
  0.0000000E+000
  0.0000000E+000
  0.0000000E+000
  0.0000000E+000
  0.0000000E+000
  0.0000000E+000
  0.0000000E+000
  0.0000000E+000
  0.0000000E+000
  0.0000000E+000
  0.0000000E+000
  0.0000000E+000
  0.0000000E+000
  0.0000000E+000
  0.0000000E+000
  0.0000000E+000
  0.0000000E+000
  0.0000000E+000
  0.0000000E+000
  0.0000000E+000
  0.0000000E+000
  0.0000000E+000
  0.0000000E+000
  0.0000000E+000
  0.0000000E+000
  0.0000000E+000
  0.0000000E+000
  0.0000000E+000
  0.0000000E+000
  0.0000000E+000
  0.0000000E+000
  0.0000000E+000
  0.0000000E+000
  0.0000000E+000
  0.0000000E+000
  0.0000000E+000
  0.0000000E+000
  0.0000000E+000
  0.0000000E+000
  0.0000000E+000
  0.0000000E+000
  0.0000000E+000
  0.0000000E+000
  0.0000000E+000
  0.0000000E+000
  0.0000000E+000
  0.0000000E+000
  0.0000000E+000
  0.0000000E+000
  0.0000000E+000
  0.0000000E+000
  0.0000000E+000
  0.0000000E+000
  0.0000000E+000
  0.0000000E+000
  0.0000000E+000
  0.0000000E+000
  0.0000000E+000
  0.0000000E+000
  0.0000000E+000
  0.0000000E+000
  0.0000000E+000
  0.0000000E+000
  0.0000000E+000
  0.0000000E+000
  0.0000000E+000
  0.0000000E+000
  0.0000000E+000
  0.0000000E+000
  0.0000000E+000
  0.0000000E+000
  0.0000000E+000
  0.0000000E+000
  0.0000000E+000
  0.0000000E+000
  0.0000000E+000
  0.0000000E+000
  0.0000000E+000
  0.0000000E+000
  0.0000000E+000
  0.0000000E+000
  0.0000000E+000
  0.0000000E+000
  0.0000000E+000
  0.0000000E+000
  0.0000000E+000
  0.0000000E+000
  0.0000000E+000
  0.0000000E+000
  0.0000000E+000
  0.0000000E+000
  0.0000000E+000
  0.0000000E+000
  0.0000000E+000
  0.0000000E+000
  0.0000000E+000
  0.0000000E+000
  0.0000000E+000
  0.0000000E+000
  0.0000000E+000
  0.0000000E+000
  0.0000000E+000
  0.0000000E+000
  0.0000000E+000
  0.0000000E+000
  0.0000000E+000
  0.0000000E+000
  0.0000000E+000
  0.0000000E+000
  0.0000000E+000
  0.0000000E+000
  0.0000000E+000
  0.0000000E+000
  0.0000000E+000
  0.0000000E+000
  0.0000000E+000
  0.0000000E+000
  0.0000000E+000
  0.0000000E+000
  0.0000000E+000
  0.0000000E+000
  0.0000000E+000
  0.0000000E+000
  0.0000000E+000
  0.0000000E+000
  0.0000000E+000
  0.0000000E+000
  0.0000000E+000
  0.0000000E+000
  0.0000000E+000
  0.0000000E+000
  0.0000000E+000
  0.0000000E+000
  0.0000000E+000
  0.0000000E+000
  0.0000000E+000
  0.0000000E+000
  0.0000000E+000
  0.0000000E+000
  0.0000000E+000
  0.0000000E+000
  0.0000000E+000
  0.0000000E+000
  0.0000000E+000
  0.0000000E+000
  0.0000000E+000
  0.0000000E+000
  0.0000000E+000
  0.0000000E+000
  0.0000000E+000
  0.0000000E+000
  0.0000000E+000
  0.0000000E+000
  0.0000000E+000
  0.0000000E+000
  0.0000000E+000
  0.0000000E+000
  0.0000000E+000
  0.0000000E+000
  0.0000000E+000
  0.0000000E+000
  0.0000000E+000
  0.0000000E+000
  0.0000000E+000
  0.0000000E+000
  0.0000000E+000
  0.0000000E+000
  0.0000000E+000
  0.0000000E+000
  0.0000000E+000
  0.0000000E+000
  0.0000000E+000
  0.0000000E+000
  0.0000000E+000
  0.0000000E+000
  0.0000000E+000
  0.0000000E+000
  0.0000000E+000
  0.0000000E+000
  0.0000000E+000
  0.0000000E+000
  0.0000000E+000
  0.0000000E+000
  0.0000000E+000
  0.0000000E+000
  0.0000000E+000
  0.0000000E+000
  0.0000000E+000
  0.0000000E+000
  0.0000000E+000
  0.0000000E+000
  0.0000000E+000
  0.0000000E+000
  0.0000000E+000
  0.0000000E+000
  0.0000000E+000
  0.0000000E+000
  0.0000000E+000
  0.0000000E+000
  0.0000000E+000
  0.0000000E+000
  0.0000000E+000
  0.0000000E+000
  0.0000000E+000
  0.0000000E+000
  0.0000000E+000
  0.0000000E+000
  0.0000000E+000
  0.0000000E+000
  0.0000000E+000
  0.0000000E+000
  0.0000000E+000
  0.0000000E+000
  0.0000000E+000
  0.0000000E+000
  0.0000000E+000
  0.0000000E+000
  0.0000000E+000
  0.0000000E+000
  0.0000000E+000
  0.0000000E+000
  0.0000000E+000
  0.0000000E+000
  0.0000000E+000
  0.0000000E+000
  0.0000000E+000
  0.0000000E+000
  0.0000000E+000
  0.0000000E+000
  0.0000000E+000
  0.0000000E+000
  0.0000000E+000
  0.0000000E+000
  0.0000000E+000
  0.0000000E+000
  0.0000000E+000
  0.0000000E+000
  0.0000000E+000
  0.0000000E+000
  0.0000000E+000
  0.0000000E+000
  0.0000000E+000
  0.0000000E+000
  0.0000000E+000
  0.0000000E+000
  0.0000000E+000
  0.0000000E+000
  0.0000000E+000
  0.0000000E+000
  0.0000000E+000
  0.0000000E+000
  0.0000000E+000
  0.0000000E+000
  0.0000000E+000
  0.0000000E+000
  0.0000000E+000
  0.0000000E+000
  0.0000000E+000
  0.0000000E+000
  0.0000000E+000
  0.0000000E+000
  0.0000000E+000
  0.0000000E+000
  0.0000000E+000
  0.0000000E+000
  0.0000000E+000
  0.0000000E+000
  0.0000000E+000
  0.0000000E+000
  0.0000000E+000
  0.0000000E+000
  0.0000000E+000
  0.0000000E+000
  0.0000000E+000
  0.0000000E+000
  0.0000000E+000
  0.0000000E+000
  0.0000000E+000
  0.0000000E+000
  0.0000000E+000
  0.0000000E+000
  0.0000000E+000
  0.0000000E+000
  0.0000000E+000
  0.0000000E+000
  0.0000000E+000
  0.0000000E+000
  0.0000000E+000
  0.0000000E+000
  0.0000000E+000
  0.0000000E+000
  0.0000000E+000
  0.0000000E+000
  0.0000000E+000
  0.0000000E+000
  0.0000000E+000
  0.0000000E+000
  0.0000000E+000
  0.0000000E+000
  0.0000000E+000
  0.0000000E+000
  0.0000000E+000
  0.0000000E+000
  0.0000000E+000
  0.0000000E+000
  0.0000000E+000
  0.0000000E+000
  0.0000000E+000
  0.0000000E+000
  0.0000000E+000
  0.0000000E+000
  0.0000000E+000
  0.0000000E+000
  0.0000000E+000
  0.0000000E+000
  0.0000000E+000
  0.0000000E+000
  0.0000000E+000
  0.0000000E+000
  0.0000000E+000
  0.0000000E+000
  0.0000000E+000
  0.0000000E+000
  0.0000000E+000
  0.0000000E+000
  0.0000000E+000
  0.0000000E+000
  0.0000000E+000
  0.0000000E+000
  0.0000000E+000
  0.0000000E+000
  0.0000000E+000
  0.0000000E+000
  0.0000000E+000
  0.0000000E+000
  0.0000000E+000
  0.0000000E+000
  0.0000000E+000
  0.0000000E+000
  0.0000000E+000
  0.0000000E+000
  0.0000000E+000
  0.0000000E+000
  0.0000000E+000
  0.0000000E+000
  0.0000000E+000
  0.0000000E+000
  0.0000000E+000
  0.0000000E+000
  0.0000000E+000
  0.0000000E+000
  0.0000000E+000
  0.0000000E+000
  0.0000000E+000
  0.0000000E+000
  0.0000000E+000
  0.0000000E+000
  0.0000000E+000
  0.0000000E+000
  0.0000000E+000
  0.0000000E+000
  0.0000000E+000
  0.0000000E+000
  0.0000000E+000
  0.0000000E+000
  0.0000000E+000
  0.0000000E+000
  0.0000000E+000
  0.0000000E+000
  0.0000000E+000
  0.0000000E+000
  0.0000000E+000
  0.0000000E+000
  0.0000000E+000
  0.0000000E+000
  0.0000000E+000
  0.0000000E+000
  0.0000000E+000
  0.0000000E+000
  0.0000000E+000
  0.0000000E+000
  0.0000000E+000
  0.0000000E+000
  0.0000000E+000
  0.0000000E+000
  0.0000000E+000
  0.0000000E+000
  0.0000000E+000
  0.0000000E+000
  0.0000000E+000
  0.0000000E+000
  0.0000000E+000
  0.0000000E+000
  0.0000000E+000
  0.0000000E+000
  0.0000000E+000
  0.0000000E+000
  0.0000000E+000
  0.0000000E+000
  0.0000000E+000
  0.0000000E+000
  0.0000000E+000
  0.0000000E+000
  0.0000000E+000
  0.0000000E+000
  0.0000000E+000
  0.0000000E+000
  0.0000000E+000
  0.0000000E+000
  0.0000000E+000
  0.0000000E+000
  0.0000000E+000
  0.0000000E+000
  0.0000000E+000
  0.0000000E+000
  0.0000000E+000
  0.0000000E+000
  0.0000000E+000
  0.0000000E+000
  0.0000000E+000
  0.0000000E+000
  0.0000000E+000
  0.0000000E+000
  0.0000000E+000
  0.0000000E+000
  0.0000000E+000
  0.0000000E+000
  0.0000000E+000
  0.0000000E+000
  0.0000000E+000
  0.0000000E+000
  0.0000000E+000
  0.0000000E+000
  0.0000000E+000
  0.0000000E+000
  0.0000000E+000
  0.0000000E+000
  0.0000000E+000
  0.0000000E+000
  0.0000000E+000
  0.0000000E+000
  0.0000000E+000
  0.0000000E+000
  0.0000000E+000
  0.0000000E+000
  0.0000000E+000
  0.0000000E+000
  0.0000000E+000
  0.0000000E+000
  0.0000000E+000
  0.0000000E+000
  0.0000000E+000
  0.0000000E+000
  0.0000000E+000
  0.0000000E+000
  0.0000000E+000
  0.0000000E+000
  0.0000000E+000
  0.0000000E+000
  0.0000000E+000
  0.0000000E+000
  0.0000000E+000
  0.0000000E+000
  0.0000000E+000
  0.0000000E+000
  0.0000000E+000
  0.0000000E+000
  0.0000000E+000
  0.0000000E+000
  0.0000000E+000
  0.0000000E+000
  0.0000000E+000
  0.0000000E+000
  0.0000000E+000
  0.0000000E+000
  0.0000000E+000
  0.0000000E+000
  0.0000000E+000
  0.0000000E+000
  0.0000000E+000
  0.0000000E+000
  0.0000000E+000
  0.0000000E+000
  0.0000000E+000
  0.0000000E+000
  0.0000000E+000
  0.0000000E+000
  0.0000000E+000
  0.0000000E+000
  0.0000000E+000
  0.0000000E+000
  0.0000000E+000
  0.0000000E+000
  0.0000000E+000
  0.0000000E+000
  0.0000000E+000
  0.0000000E+000
  0.0000000E+000
  0.0000000E+000
  0.0000000E+000
  0.0000000E+000
  0.0000000E+000
  0.0000000E+000
  0.0000000E+000
  0.0000000E+000
  0.0000000E+000
  0.0000000E+000
  0.0000000E+000
  0.0000000E+000
  0.0000000E+000
  0.0000000E+000
  0.0000000E+000
  0.0000000E+000
  0.0000000E+000
  0.0000000E+000
  0.0000000E+000
  0.0000000E+000
  0.0000000E+000
  0.0000000E+000
  0.0000000E+000
  0.0000000E+000
  0.0000000E+000
  0.0000000E+000
  0.0000000E+000
  0.0000000E+000
  0.0000000E+000
  0.0000000E+000
  0.0000000E+000
  0.0000000E+000
  0.0000000E+000
  0.0000000E+000
  0.0000000E+000
  0.0000000E+000
  0.0000000E+000
  0.0000000E+000
  0.0000000E+000
  0.0000000E+000
  0.0000000E+000
  0.0000000E+000
  0.0000000E+000
  0.0000000E+000
  0.0000000E+000
  0.0000000E+000
  0.0000000E+000
  0.0000000E+000
  0.0000000E+000
  0.0000000E+000
  0.0000000E+000
  0.0000000E+000
  0.0000000E+000
  0.0000000E+000
  0.0000000E+000
  0.0000000E+000
  0.0000000E+000
  0.0000000E+000
  0.0000000E+000
  0.0000000E+000
  0.0000000E+000
  0.0000000E+000
  0.0000000E+000
  0.0000000E+000
  0.0000000E+000
  0.0000000E+000
  0.0000000E+000
  0.0000000E+000
  0.0000000E+000
  0.0000000E+000
  0.0000000E+000
  0.0000000E+000
  0.0000000E+000
  0.0000000E+000
  0.0000000E+000
  0.0000000E+000
  0.0000000E+000
  0.0000000E+000
  0.0000000E+000
  0.0000000E+000
  0.0000000E+000
  0.0000000E+000
  0.0000000E+000
  0.0000000E+000
  0.0000000E+000
  0.0000000E+000
  0.0000000E+000
  0.0000000E+000
  0.0000000E+000
  0.0000000E+000
  0.0000000E+000
  0.0000000E+000
  0.0000000E+000
  0.0000000E+000
  0.0000000E+000
  0.0000000E+000
  0.0000000E+000
  0.0000000E+000
  0.0000000E+000
  0.0000000E+000
  0.0000000E+000
  0.0000000E+000
  0.0000000E+000
  0.0000000E+000
  0.0000000E+000
  0.0000000E+000
  0.0000000E+000
  0.0000000E+000
  0.0000000E+000
  0.0000000E+000
  0.0000000E+000
  0.0000000E+000
  0.0000000E+000
  0.0000000E+000
  0.0000000E+000
  0.0000000E+000
  0.0000000E+000
  0.0000000E+000
  0.0000000E+000
  0.0000000E+000
  0.0000000E+000
  0.0000000E+000
  0.0000000E+000
  0.0000000E+000
  0.0000000E+000
  0.0000000E+000
  0.0000000E+000
  0.0000000E+000
  0.0000000E+000
  0.0000000E+000
  0.0000000E+000
  0.0000000E+000
  0.0000000E+000
  0.0000000E+000
  0.0000000E+000
  0.0000000E+000
  0.0000000E+000
  0.0000000E+000
  0.0000000E+000
  0.0000000E+000
  0.0000000E+000
  0.0000000E+000
  0.0000000E+000
  0.0000000E+000
  0.0000000E+000
  0.0000000E+000
  0.0000000E+000
  0.0000000E+000
  0.0000000E+000
  0.0000000E+000
  0.0000000E+000
  0.0000000E+000
  0.0000000E+000
  0.0000000E+000
  0.0000000E+000
  0.0000000E+000
  0.0000000E+000
  0.0000000E+000
  0.0000000E+000
  0.0000000E+000
  0.0000000E+000
  0.0000000E+000
  0.0000000E+000
  0.0000000E+000
  0.0000000E+000
  0.0000000E+000
  0.0000000E+000
  0.0000000E+000
  0.0000000E+000
  0.0000000E+000
  0.0000000E+000
  0.0000000E+000
  0.0000000E+000
  0.0000000E+000
  0.0000000E+000
  0.0000000E+000
  0.0000000E+000
  0.0000000E+000
  0.0000000E+000
  0.0000000E+000
  0.0000000E+000
  0.0000000E+000
  0.0000000E+000
  0.0000000E+000
  0.0000000E+000
  0.0000000E+000
  0.0000000E+000
  0.0000000E+000
  0.0000000E+000
  0.0000000E+000
  0.0000000E+000
  0.0000000E+000
  0.0000000E+000
  0.0000000E+000
  0.0000000E+000
  0.0000000E+000
  0.0000000E+000
  0.0000000E+000
  0.0000000E+000
  0.0000000E+000
  0.0000000E+000
  0.0000000E+000
  0.0000000E+000
  0.0000000E+000
  0.0000000E+000
  0.0000000E+000
  0.0000000E+000
  0.0000000E+000
  0.0000000E+000
  0.0000000E+000
  0.0000000E+000
  0.0000000E+000
  0.0000000E+000
  0.0000000E+000
  0.0000000E+000
  0.0000000E+000
  0.0000000E+000
  0.0000000E+000
  0.0000000E+000
  0.0000000E+000
  0.0000000E+000
  0.0000000E+000
  0.0000000E+000
  0.0000000E+000
  0.0000000E+000
  0.0000000E+000
  0.0000000E+000
  0.0000000E+000
  0.0000000E+000
  0.0000000E+000
  0.0000000E+000
  0.0000000E+000
  0.0000000E+000
  0.0000000E+000
  0.0000000E+000
  0.0000000E+000
  0.0000000E+000
  0.0000000E+000
  0.0000000E+000
  0.0000000E+000
  0.0000000E+000
  0.0000000E+000
  0.0000000E+000
  0.0000000E+000
  0.0000000E+000
  0.0000000E+000
  0.0000000E+000
  0.0000000E+000
  0.0000000E+000
  0.0000000E+000
  0.0000000E+000
  0.0000000E+000
  0.0000000E+000
  0.0000000E+000
  0.0000000E+000
  0.0000000E+000
  0.0000000E+000
  0.0000000E+000
  0.0000000E+000
  0.0000000E+000
  0.0000000E+000
  0.0000000E+000
  0.0000000E+000
  0.0000000E+000
  0.0000000E+000
  0.0000000E+000
  0.0000000E+000
  0.0000000E+000
  0.0000000E+000
  0.0000000E+000
  0.0000000E+000
  0.0000000E+000
  0.0000000E+000
  0.0000000E+000
  0.0000000E+000
  0.0000000E+000
  0.0000000E+000
  0.0000000E+000
  0.0000000E+000
  0.0000000E+000
  0.0000000E+000
  0.0000000E+000
  0.0000000E+000
  0.0000000E+000
  0.0000000E+000
  0.0000000E+000
  0.0000000E+000
  0.0000000E+000
  0.0000000E+000
  0.0000000E+000
  0.0000000E+000
  0.0000000E+000
  0.0000000E+000
  0.0000000E+000
  0.0000000E+000
  0.0000000E+000
  0.0000000E+000
  0.0000000E+000
  0.0000000E+000
  0.0000000E+000
  0.0000000E+000
  0.0000000E+000
  0.0000000E+000
  0.0000000E+000
  0.0000000E+000
  0.0000000E+000
  0.0000000E+000
  0.0000000E+000
  0.0000000E+000
  0.0000000E+000
  0.0000000E+000
  0.0000000E+000
  0.0000000E+000
  0.0000000E+000
  0.0000000E+000
  0.0000000E+000
  0.0000000E+000
  0.0000000E+000
  0.0000000E+000
  0.0000000E+000
  0.0000000E+000
  0.0000000E+000
  0.0000000E+000
  0.0000000E+000
  0.0000000E+000
  0.0000000E+000
  0.0000000E+000
  0.0000000E+000
  0.0000000E+000
  0.0000000E+000
  0.0000000E+000
  0.0000000E+000
  0.0000000E+000
  0.0000000E+000
  0.0000000E+000
  0.0000000E+000
  0.0000000E+000
  0.0000000E+000
  0.0000000E+000
  0.0000000E+000
  0.0000000E+000
  0.0000000E+000
  0.0000000E+000
  0.0000000E+000
  0.0000000E+000
  0.0000000E+000
  0.0000000E+000
  0.0000000E+000
  0.0000000E+000
  0.0000000E+000
  0.0000000E+000
  0.0000000E+000
  0.0000000E+000
  0.0000000E+000
  0.0000000E+000
  0.0000000E+000
  0.0000000E+000
  0.0000000E+000
  0.0000000E+000
  0.0000000E+000
  0.0000000E+000
  0.0000000E+000
  0.0000000E+000
  0.0000000E+000
  0.0000000E+000
  0.0000000E+000
  0.0000000E+000
  0.0000000E+000
  0.0000000E+000
  0.0000000E+000
  0.0000000E+000
  0.0000000E+000
  0.0000000E+000
  0.0000000E+000
  0.0000000E+000
  0.0000000E+000
  0.0000000E+000
  0.0000000E+000
  0.0000000E+000
  0.0000000E+000
  0.0000000E+000
  0.0000000E+000
  0.0000000E+000
  0.0000000E+000
  0.0000000E+000
  0.0000000E+000
  0.0000000E+000
  0.0000000E+000
  0.0000000E+000
  0.0000000E+000
  0.0000000E+000
  0.0000000E+000
  0.0000000E+000
  0.0000000E+000
  0.0000000E+000
  0.0000000E+000
  0.0000000E+000
  0.0000000E+000
  0.0000000E+000
  0.0000000E+000
  0.0000000E+000
  0.0000000E+000
  0.0000000E+000
  0.0000000E+000
  0.0000000E+000
  0.0000000E+000
  0.0000000E+000
  0.0000000E+000
  0.0000000E+000
  0.0000000E+000
  0.0000000E+000
  0.0000000E+000
  0.0000000E+000
  0.0000000E+000
  0.0000000E+000
  0.0000000E+000
  0.0000000E+000
  0.0000000E+000
  0.0000000E+000
  0.0000000E+000
  0.0000000E+000
  0.0000000E+000
  0.0000000E+000
  0.0000000E+000
  0.0000000E+000
  0.0000000E+000
  0.0000000E+000
  0.0000000E+000
  0.0000000E+000
  0.0000000E+000
  0.0000000E+000
  0.0000000E+000
  0.0000000E+000
  0.0000000E+000
  0.0000000E+000
  0.0000000E+000
  0.0000000E+000
  0.0000000E+000
  0.0000000E+000
  0.0000000E+000
  0.0000000E+000
  0.0000000E+000
  0.0000000E+000
  0.0000000E+000
  0.0000000E+000
  0.0000000E+000
  0.0000000E+000
  0.0000000E+000
  0.0000000E+000
  0.0000000E+000
  0.0000000E+000
  0.0000000E+000
  0.0000000E+000
  0.0000000E+000
  0.0000000E+000
  0.0000000E+000
  0.0000000E+000
  0.0000000E+000
  0.0000000E+000
  0.0000000E+000
  0.0000000E+000
  0.0000000E+000
  0.0000000E+000
  0.0000000E+000
  0.0000000E+000
  0.0000000E+000
  0.0000000E+000
  0.0000000E+000
  0.0000000E+000
  0.0000000E+000
  0.0000000E+000
  0.0000000E+000
  0.0000000E+000
  0.0000000E+000
  0.0000000E+000
  0.0000000E+000
  0.0000000E+000
  0.0000000E+000
  0.0000000E+000
  0.0000000E+000
  0.0000000E+000
  0.0000000E+000
  0.0000000E+000
  0.0000000E+000
  0.0000000E+000
  0.0000000E+000
  0.0000000E+000
  0.0000000E+000
  0.0000000E+000
  0.0000000E+000
  0.0000000E+000
  0.0000000E+000
  0.0000000E+000
  0.0000000E+000
  0.0000000E+000
  0.0000000E+000
  0.0000000E+000
  0.0000000E+000
  0.0000000E+000
  0.0000000E+000
  0.0000000E+000
  0.0000000E+000
  0.0000000E+000
  0.0000000E+000
  0.0000000E+000
  0.0000000E+000
  0.0000000E+000
  0.0000000E+000
  0.0000000E+000
  0.0000000E+000
  0.0000000E+000
  0.0000000E+000
  0.0000000E+000
  0.0000000E+000
  0.0000000E+000
  0.0000000E+000
  0.0000000E+000
  0.0000000E+000
  0.0000000E+000
  0.0000000E+000
  0.0000000E+000
  0.0000000E+000
  0.0000000E+000
  0.0000000E+000
  0.0000000E+000
  0.0000000E+000
  0.0000000E+000
  0.0000000E+000
  0.0000000E+000
  0.0000000E+000
  0.0000000E+000
  0.0000000E+000
  0.0000000E+000
  0.0000000E+000
  0.0000000E+000
  0.0000000E+000
  0.0000000E+000
  0.0000000E+000
  0.0000000E+000
  0.0000000E+000
  0.0000000E+000
  0.0000000E+000
  0.0000000E+000
  0.0000000E+000
  0.0000000E+000
  0.0000000E+000
  0.0000000E+000
  0.0000000E+000
  0.0000000E+000
  0.0000000E+000
  0.0000000E+000
  0.0000000E+000
  0.0000000E+000
  0.0000000E+000
  0.0000000E+000
  0.0000000E+000
  0.0000000E+000
  0.0000000E+000
  0.0000000E+000
  0.0000000E+000
  0.0000000E+000
  0.0000000E+000
  0.0000000E+000
  0.0000000E+000
  0.0000000E+000
  0.0000000E+000
  0.0000000E+000
  0.0000000E+000
  0.0000000E+000
  0.0000000E+000
  0.0000000E+000
  0.0000000E+000
  0.0000000E+000
  0.0000000E+000
  0.0000000E+000
  0.0000000E+000
  0.0000000E+000
  0.0000000E+000
  0.0000000E+000
  0.0000000E+000
  0.0000000E+000
  0.0000000E+000
  0.0000000E+000
  0.0000000E+000
  0.0000000E+000
  0.0000000E+000
  0.0000000E+000
  0.0000000E+000
  0.0000000E+000
  0.0000000E+000
  0.0000000E+000
  0.0000000E+000
  0.0000000E+000
  0.0000000E+000
  0.0000000E+000
  0.0000000E+000
  0.0000000E+000
  0.0000000E+000
  0.0000000E+000
  0.0000000E+000
  0.0000000E+000
  0.0000000E+000
  0.0000000E+000
  0.0000000E+000
  0.0000000E+000
  0.0000000E+000
  0.0000000E+000
  0.0000000E+000
  0.0000000E+000
  0.0000000E+000
  0.0000000E+000
  0.0000000E+000
  0.0000000E+000
  0.0000000E+000
  0.0000000E+000
  0.0000000E+000
  0.0000000E+000
  0.0000000E+000
  0.0000000E+000
  0.0000000E+000
  0.0000000E+000
  0.0000000E+000
  0.0000000E+000
  0.0000000E+000
  0.0000000E+000
  0.0000000E+000
  0.0000000E+000
  0.0000000E+000
  0.0000000E+000
  0.0000000E+000
  0.0000000E+000
  0.0000000E+000
  0.0000000E+000
  0.0000000E+000
  0.0000000E+000
  0.0000000E+000
  0.0000000E+000
  0.0000000E+000
  0.0000000E+000
  0.0000000E+000
  0.0000000E+000
  0.0000000E+000
  0.0000000E+000
  0.0000000E+000
  0.0000000E+000
  0.0000000E+000
  0.0000000E+000
  0.0000000E+000
  0.0000000E+000
  0.0000000E+000
  0.0000000E+000
  0.0000000E+000
  0.0000000E+000
  0.0000000E+000
  0.0000000E+000
  0.0000000E+000
  0.0000000E+000
  0.0000000E+000
  0.0000000E+000
  0.0000000E+000
  0.0000000E+000
  0.0000000E+000
  0.0000000E+000
  0.0000000E+000
  0.0000000E+000
  0.0000000E+000
  0.0000000E+000
  0.0000000E+000
  0.0000000E+000
  0.0000000E+000
  0.0000000E+000
  0.0000000E+000
  0.0000000E+000
  0.0000000E+000
  0.0000000E+000
  0.0000000E+000
  0.0000000E+000
  0.0000000E+000
  0.0000000E+000
  0.0000000E+000
  0.0000000E+000
  0.0000000E+000
  0.0000000E+000
  0.0000000E+000
  0.0000000E+000
  0.0000000E+000
  0.0000000E+000
  0.0000000E+000
  0.0000000E+000
  0.0000000E+000
  0.0000000E+000
  0.0000000E+000
  0.0000000E+000
  0.0000000E+000
  0.0000000E+000
  0.0000000E+000
  0.0000000E+000
  0.0000000E+000
  0.0000000E+000
  0.0000000E+000
  0.0000000E+000
  0.0000000E+000
  0.0000000E+000
  0.0000000E+000
  0.0000000E+000
  0.0000000E+000
  0.0000000E+000
  0.0000000E+000
  0.0000000E+000
  0.0000000E+000
  0.0000000E+000
  0.0000000E+000
  0.0000000E+000
  0.0000000E+000
  0.0000000E+000
  0.0000000E+000
  0.0000000E+000
  0.0000000E+000
  0.0000000E+000
  0.0000000E+000
  0.0000000E+000
  0.0000000E+000
  0.0000000E+000
  0.0000000E+000
  0.0000000E+000
  0.0000000E+000
  0.0000000E+000
  0.0000000E+000
  0.0000000E+000
  0.0000000E+000
  0.0000000E+000
  0.0000000E+000
  0.0000000E+000
  0.0000000E+000
  0.0000000E+000
  0.0000000E+000
  0.0000000E+000
  0.0000000E+000
  0.0000000E+000
  0.0000000E+000
  0.0000000E+000
  0.0000000E+000
  0.0000000E+000
  0.0000000E+000
  0.0000000E+000
  0.0000000E+000
  0.0000000E+000
  0.0000000E+000
  0.0000000E+000
  0.0000000E+000
  0.0000000E+000
  0.0000000E+000
  0.0000000E+000
  0.0000000E+000
  0.0000000E+000
  0.0000000E+000
  0.0000000E+000
  0.0000000E+000
  0.0000000E+000
  0.0000000E+000
  0.0000000E+000
  0.0000000E+000
  0.0000000E+000
  0.0000000E+000
  0.0000000E+000
  0.0000000E+000
  0.0000000E+000
  0.0000000E+000
  0.0000000E+000
  0.0000000E+000
  0.0000000E+000
  0.0000000E+000
  0.0000000E+000
  0.0000000E+000
  0.0000000E+000
  0.0000000E+000
  0.0000000E+000
  0.0000000E+000
  0.0000000E+000
  0.0000000E+000
  0.0000000E+000
  0.0000000E+000
  0.0000000E+000
  0.0000000E+000
  0.0000000E+000
  0.0000000E+000
  0.0000000E+000
  0.0000000E+000
  0.0000000E+000
  0.0000000E+000
  0.0000000E+000
  0.0000000E+000
  0.0000000E+000
  0.0000000E+000
  0.0000000E+000
  0.0000000E+000
  0.0000000E+000
  0.0000000E+000
  0.0000000E+000
  0.0000000E+000
  0.0000000E+000
  0.0000000E+000
  0.0000000E+000
  0.0000000E+000
  0.0000000E+000
  0.0000000E+000
  0.0000000E+000
  0.0000000E+000
  0.0000000E+000
  0.0000000E+000
  0.0000000E+000
  0.0000000E+000
  0.0000000E+000
  0.0000000E+000
  0.0000000E+000
  0.0000000E+000
  0.0000000E+000
  0.0000000E+000
  0.0000000E+000
  0.0000000E+000
  0.0000000E+000
  0.0000000E+000
  0.0000000E+000
  0.0000000E+000
  0.0000000E+000
  0.0000000E+000
  0.0000000E+000
  0.0000000E+000
  0.0000000E+000
  0.0000000E+000
  0.0000000E+000
  0.0000000E+000
  0.0000000E+000
  0.0000000E+000
  0.0000000E+000
  0.0000000E+000
  0.0000000E+000
  0.0000000E+000
  0.0000000E+000
  0.0000000E+000
  0.0000000E+000
  0.0000000E+000
  0.0000000E+000
  0.0000000E+000
  0.0000000E+000
  0.0000000E+000
  0.0000000E+000
  0.0000000E+000
  0.0000000E+000
  0.0000000E+000
  0.0000000E+000
  0.0000000E+000
  0.0000000E+000
  0.0000000E+000
  0.0000000E+000
  0.0000000E+000
  0.0000000E+000
  0.0000000E+000
  0.0000000E+000
  0.0000000E+000
  0.0000000E+000
  0.0000000E+000
  0.0000000E+000
  0.0000000E+000
  0.0000000E+000
  0.0000000E+000
  0.0000000E+000
  0.0000000E+000
  0.0000000E+000
  0.0000000E+000
  0.0000000E+000
  0.0000000E+000
  0.0000000E+000
  0.0000000E+000
  0.0000000E+000
  0.0000000E+000
  0.0000000E+000
  0.0000000E+000
  0.0000000E+000
  0.0000000E+000
  0.0000000E+000
  0.0000000E+000
  0.0000000E+000
  0.0000000E+000
  0.0000000E+000
  0.0000000E+000
  0.0000000E+000
  0.0000000E+000
  0.0000000E+000
  0.0000000E+000
  0.0000000E+000
  0.0000000E+000
  0.0000000E+000
  0.0000000E+000
  0.0000000E+000
  0.0000000E+000
  0.0000000E+000
  0.0000000E+000
  0.0000000E+000
  0.0000000E+000
  0.0000000E+000
  0.0000000E+000
  0.0000000E+000
  0.0000000E+000
  0.0000000E+000
  0.0000000E+000
  0.0000000E+000
  0.0000000E+000
  0.0000000E+000
  0.0000000E+000
  0.0000000E+000
  0.0000000E+000
  0.0000000E+000
  0.0000000E+000
  0.0000000E+000
  0.0000000E+000
  0.0000000E+000
  0.0000000E+000
  0.0000000E+000
  0.0000000E+000
  0.0000000E+000
  0.0000000E+000
  0.0000000E+000
  0.0000000E+000
  0.0000000E+000
  0.0000000E+000
  0.0000000E+000
  0.0000000E+000
  0.0000000E+000
  0.0000000E+000
  0.0000000E+000
  0.0000000E+000
  0.0000000E+000
  0.0000000E+000
  0.0000000E+000
  0.0000000E+000
  0.0000000E+000
  0.0000000E+000
  0.0000000E+000
  0.0000000E+000
  0.0000000E+000
  0.0000000E+000
  0.0000000E+000
  0.0000000E+000
  0.0000000E+000
  0.0000000E+000
  0.0000000E+000
  0.0000000E+000
  0.0000000E+000
  0.0000000E+000
  0.0000000E+000
  0.0000000E+000
  0.0000000E+000
  0.0000000E+000
  0.0000000E+000
  0.0000000E+000
  0.0000000E+000
  0.0000000E+000
  0.0000000E+000
  0.0000000E+000
  0.0000000E+000
  0.0000000E+000
  0.0000000E+000
  0.0000000E+000
  0.0000000E+000
  0.0000000E+000
  0.0000000E+000
  0.0000000E+000
  0.0000000E+000
  0.0000000E+000
  0.0000000E+000
  0.0000000E+000
  0.0000000E+000
  0.0000000E+000
  0.0000000E+000
  0.0000000E+000
  0.0000000E+000
  0.0000000E+000
  0.0000000E+000
  0.0000000E+000
  0.0000000E+000
  0.0000000E+000
  0.0000000E+000
  0.0000000E+000
  0.0000000E+000
  0.0000000E+000
  0.0000000E+000
  0.0000000E+000
  0.0000000E+000
  0.0000000E+000
  0.0000000E+000
  0.0000000E+000
  0.0000000E+000
  0.0000000E+000
  0.0000000E+000
  0.0000000E+000
  0.0000000E+000
  0.0000000E+000
  0.0000000E+000
  0.0000000E+000
  0.0000000E+000
  0.0000000E+000
  0.0000000E+000
  0.0000000E+000
  0.0000000E+000
  0.0000000E+000
  0.0000000E+000
  0.0000000E+000
  0.0000000E+000
  0.0000000E+000
  0.0000000E+000
  0.0000000E+000
  0.0000000E+000
  0.0000000E+000
  0.0000000E+000
  0.0000000E+000
  0.0000000E+000
  0.0000000E+000
  0.0000000E+000
  0.0000000E+000
  0.0000000E+000
  0.0000000E+000
  0.0000000E+000
  0.0000000E+000
  0.0000000E+000
  0.0000000E+000
  0.0000000E+000
  0.0000000E+000
  0.0000000E+000
  0.0000000E+000
  0.0000000E+000
  0.0000000E+000
  0.0000000E+000
  0.0000000E+000
  0.0000000E+000
  0.0000000E+000
  0.0000000E+000
  0.0000000E+000
  0.0000000E+000
  0.0000000E+000
  0.0000000E+000
  0.0000000E+000
  0.0000000E+000
  0.0000000E+000
  0.0000000E+000
  0.0000000E+000
  0.0000000E+000
  0.0000000E+000
  0.0000000E+000
  0.0000000E+000
  0.0000000E+000
  0.0000000E+000
  0.0000000E+000
  0.0000000E+000
  0.0000000E+000
  0.0000000E+000
  0.0000000E+000
  0.0000000E+000
  0.0000000E+000
  0.0000000E+000
  0.0000000E+000
  0.0000000E+000
  0.0000000E+000
  0.0000000E+000
  0.0000000E+000
  0.0000000E+000
  0.0000000E+000
  0.0000000E+000
  0.0000000E+000
  0.0000000E+000
  0.0000000E+000
  0.0000000E+000
  0.0000000E+000
  0.0000000E+000
  0.0000000E+000
  0.0000000E+000
  0.0000000E+000
  0.0000000E+000
  0.0000000E+000
  0.0000000E+000
  0.0000000E+000
  0.0000000E+000
  0.0000000E+000
  0.0000000E+000
  0.0000000E+000
  0.0000000E+000
  0.0000000E+000
  0.0000000E+000
  0.0000000E+000
  0.0000000E+000
  0.0000000E+000
  0.0000000E+000
  0.0000000E+000
  0.0000000E+000
  0.0000000E+000
  0.0000000E+000
  0.0000000E+000
  0.0000000E+000
  0.0000000E+000
  0.0000000E+000
  0.0000000E+000
  0.0000000E+000
  0.0000000E+000
  0.0000000E+000
  0.0000000E+000
  0.0000000E+000
  0.0000000E+000
  0.0000000E+000
  0.0000000E+000
  0.0000000E+000
  0.0000000E+000
  0.0000000E+000
  0.0000000E+000
  0.0000000E+000
  0.0000000E+000
  0.0000000E+000
  0.0000000E+000
  0.0000000E+000
  0.0000000E+000
  0.0000000E+000
  0.0000000E+000
  0.0000000E+000
  0.0000000E+000
  0.0000000E+000
  0.0000000E+000
  0.0000000E+000
  0.0000000E+000
  0.0000000E+000
  0.0000000E+000
  0.0000000E+000
  0.0000000E+000
  0.0000000E+000
  0.0000000E+000
  0.0000000E+000
  0.0000000E+000
  0.0000000E+000
  0.0000000E+000
  0.0000000E+000
  0.0000000E+000
  0.0000000E+000
  0.0000000E+000
  0.0000000E+000
  0.0000000E+000
  0.0000000E+000
  0.0000000E+000
  0.0000000E+000
  0.0000000E+000
  0.0000000E+000
  0.0000000E+000
  0.0000000E+000
  0.0000000E+000
  0.0000000E+000
  0.0000000E+000
  0.0000000E+000
  0.0000000E+000
  0.0000000E+000
  0.0000000E+000
  0.0000000E+000
  0.0000000E+000
  0.0000000E+000
  0.0000000E+000
  0.0000000E+000
  0.0000000E+000
  0.0000000E+000
  0.0000000E+000
  0.0000000E+000
  0.0000000E+000
  0.0000000E+000
  0.0000000E+000
  0.0000000E+000
  0.0000000E+000
  0.0000000E+000
  0.0000000E+000
  0.0000000E+000
  0.0000000E+000
  0.0000000E+000
  0.0000000E+000
  0.0000000E+000
  0.0000000E+000
  0.0000000E+000
  0.0000000E+000
  0.0000000E+000
  0.0000000E+000
  0.0000000E+000
  0.0000000E+000
  0.0000000E+000
  0.0000000E+000
  0.0000000E+000
  0.0000000E+000
  0.0000000E+000
  0.0000000E+000
  0.0000000E+000
  0.0000000E+000
  0.0000000E+000
  0.0000000E+000
  0.0000000E+000
  0.0000000E+000
  0.0000000E+000
  0.0000000E+000
  0.0000000E+000
  0.0000000E+000
  0.0000000E+000
  0.0000000E+000
  0.0000000E+000
  0.0000000E+000
  0.0000000E+000
  0.0000000E+000
  0.0000000E+000
  0.0000000E+000
  0.0000000E+000
  0.0000000E+000
  0.0000000E+000
  0.0000000E+000
  0.0000000E+000
  0.0000000E+000
  0.0000000E+000
  0.0000000E+000
  0.0000000E+000
  0.0000000E+000
  0.0000000E+000
  0.0000000E+000
  0.0000000E+000
  0.0000000E+000
  0.0000000E+000
  0.0000000E+000
  0.0000000E+000
  0.0000000E+000
  0.0000000E+000
  0.0000000E+000
  0.0000000E+000
  0.0000000E+000
  0.0000000E+000
  0.0000000E+000
  0.0000000E+000
  0.0000000E+000
  0.0000000E+000
  0.0000000E+000
  0.0000000E+000
  0.0000000E+000
  0.0000000E+000
  0.0000000E+000
  0.0000000E+000
  0.0000000E+000
  0.0000000E+000
  0.0000000E+000
  0.0000000E+000
  0.0000000E+000
  0.0000000E+000
  0.0000000E+000
  0.0000000E+000
  0.0000000E+000
  0.0000000E+000
  0.0000000E+000
  0.0000000E+000
  0.0000000E+000
  0.0000000E+000
  0.0000000E+000
  0.0000000E+000
  0.0000000E+000
  0.0000000E+000
  0.0000000E+000
  0.0000000E+000
  0.0000000E+000
  0.0000000E+000
  0.0000000E+000
  0.0000000E+000
  0.0000000E+000
  0.0000000E+000
  0.0000000E+000
  0.0000000E+000
  0.0000000E+000
  0.0000000E+000
  0.0000000E+000
  0.0000000E+000
  0.0000000E+000
  0.0000000E+000
  0.0000000E+000
  0.0000000E+000
  0.0000000E+000
  0.0000000E+000
  0.0000000E+000
  0.0000000E+000
  0.0000000E+000
  0.0000000E+000
  0.0000000E+000
  0.0000000E+000
  0.0000000E+000
  0.0000000E+000
  0.0000000E+000
  0.0000000E+000
  0.0000000E+000
  0.0000000E+000
  0.0000000E+000
  0.0000000E+000
  0.0000000E+000
  0.0000000E+000
  0.0000000E+000
  0.0000000E+000
  0.0000000E+000
  0.0000000E+000
  0.0000000E+000
  0.0000000E+000
  0.0000000E+000
  0.0000000E+000
  0.0000000E+000
  0.0000000E+000
  0.0000000E+000
  0.0000000E+000
  0.0000000E+000
  0.0000000E+000
  0.0000000E+000
  0.0000000E+000
  0.0000000E+000
  0.0000000E+000
  0.0000000E+000
  0.0000000E+000
  0.0000000E+000
  0.0000000E+000
  0.0000000E+000
  0.0000000E+000
  0.0000000E+000
  0.0000000E+000
  0.0000000E+000
  0.0000000E+000
  0.0000000E+000
  0.0000000E+000
  0.0000000E+000
  0.0000000E+000
  0.0000000E+000
  0.0000000E+000
  0.0000000E+000
  0.0000000E+000
  0.0000000E+000
  0.0000000E+000
  0.0000000E+000
  0.0000000E+000
  0.0000000E+000
  0.0000000E+000
  0.0000000E+000
  0.0000000E+000
  0.0000000E+000
  0.0000000E+000
  0.0000000E+000
  0.0000000E+000
  0.0000000E+000
  0.0000000E+000
  0.0000000E+000
  0.0000000E+000
  0.0000000E+000
  0.0000000E+000
  0.0000000E+000
  0.0000000E+000
  0.0000000E+000
  0.0000000E+000
  0.0000000E+000
  0.0000000E+000
  0.0000000E+000
  0.0000000E+000
  0.0000000E+000
  0.0000000E+000
  0.0000000E+000
  0.0000000E+000
  0.0000000E+000
  0.0000000E+000
  0.0000000E+000
  0.0000000E+000
  0.0000000E+000
  0.0000000E+000
  0.0000000E+000
  0.0000000E+000
  0.0000000E+000
  0.0000000E+000
  0.0000000E+000
  0.0000000E+000
  0.0000000E+000
  0.0000000E+000
  0.0000000E+000
  0.0000000E+000
  0.0000000E+000
  0.0000000E+000
  0.0000000E+000
  0.0000000E+000
  0.0000000E+000
  0.0000000E+000
  0.0000000E+000
  0.0000000E+000
  0.0000000E+000
  0.0000000E+000
  0.0000000E+000
  0.0000000E+000
  0.0000000E+000
  0.0000000E+000
  0.0000000E+000
  0.0000000E+000
  0.0000000E+000
  0.0000000E+000
  0.0000000E+000
  0.0000000E+000
  0.0000000E+000
  0.0000000E+000
  0.0000000E+000
  0.0000000E+000
  0.0000000E+000
  0.0000000E+000
  0.0000000E+000
  0.0000000E+000
  0.0000000E+000
  0.0000000E+000
  0.0000000E+000
  0.0000000E+000
  0.0000000E+000
  0.0000000E+000
  0.0000000E+000
  0.0000000E+000
  0.0000000E+000
  0.0000000E+000
  0.0000000E+000
  0.0000000E+000
  0.0000000E+000
  0.0000000E+000
  0.0000000E+000
  0.0000000E+000
  0.0000000E+000
  0.0000000E+000
  0.0000000E+000
  0.0000000E+000
  0.0000000E+000
  0.0000000E+000
  0.0000000E+000
  0.0000000E+000
  0.0000000E+000
  0.0000000E+000
  0.0000000E+000
  0.0000000E+000
  0.0000000E+000
  0.0000000E+000
  0.0000000E+000
  0.0000000E+000
  0.0000000E+000
  0.0000000E+000
  0.0000000E+000
  0.0000000E+000
  0.0000000E+000
  0.0000000E+000
  0.0000000E+000
  0.0000000E+000
  0.0000000E+000
  0.0000000E+000
  0.0000000E+000
  0.0000000E+000
  0.0000000E+000
  0.0000000E+000
  0.0000000E+000
  0.0000000E+000
  0.0000000E+000
  0.0000000E+000
  0.0000000E+000
  0.0000000E+000
  0.0000000E+000
  0.0000000E+000
  0.0000000E+000
  0.0000000E+000
  0.0000000E+000
  0.0000000E+000
  0.0000000E+000
  0.0000000E+000
  0.0000000E+000
  0.0000000E+000
  0.0000000E+000
  0.0000000E+000
  0.0000000E+000
  0.0000000E+000
  0.0000000E+000
  0.0000000E+000
  0.0000000E+000
  0.0000000E+000
  0.0000000E+000
  0.0000000E+000
  0.0000000E+000
  0.0000000E+000
  0.0000000E+000
  0.0000000E+000
  0.0000000E+000
  0.0000000E+000
  0.0000000E+000
  0.0000000E+000
  0.0000000E+000
  0.0000000E+000
  0.0000000E+000
  0.0000000E+000
  0.0000000E+000
  0.0000000E+000
  0.0000000E+000
  0.0000000E+000
  0.0000000E+000
  0.0000000E+000
  0.0000000E+000
  0.0000000E+000
  0.0000000E+000
  0.0000000E+000
  0.0000000E+000
  0.0000000E+000
  0.0000000E+000
  0.0000000E+000
  0.0000000E+000
  0.0000000E+000
  0.0000000E+000
  0.0000000E+000
  0.0000000E+000
  0.0000000E+000
  0.0000000E+000
  0.0000000E+000
  0.0000000E+000
  0.0000000E+000
  0.0000000E+000
  0.0000000E+000
  0.0000000E+000
  0.0000000E+000
  0.0000000E+000
  0.0000000E+000
  0.0000000E+000
  0.0000000E+000
  0.0000000E+000
  0.0000000E+000
  0.0000000E+000
  0.0000000E+000
  0.0000000E+000
  0.0000000E+000
  0.0000000E+000
  0.0000000E+000
  0.0000000E+000
  0.0000000E+000
  0.0000000E+000
  0.0000000E+000
  0.0000000E+000
  0.0000000E+000
  0.0000000E+000
  0.0000000E+000
  0.0000000E+000
  0.0000000E+000
  0.0000000E+000
  0.0000000E+000
  0.0000000E+000
  0.0000000E+000
  0.0000000E+000
  0.0000000E+000
  0.0000000E+000
  0.0000000E+000
  0.0000000E+000
  0.0000000E+000
  0.0000000E+000
  0.0000000E+000
  0.0000000E+000
  0.0000000E+000
  0.0000000E+000
  0.0000000E+000
  0.0000000E+000
  0.0000000E+000
  0.0000000E+000
  0.0000000E+000
  0.0000000E+000
  0.0000000E+000
  0.0000000E+000
  0.0000000E+000
  0.0000000E+000
  0.0000000E+000
  0.0000000E+000
  0.0000000E+000
  0.0000000E+000
  0.0000000E+000
  0.0000000E+000
  0.0000000E+000
  0.0000000E+000
  0.0000000E+000
  0.0000000E+000
  0.0000000E+000
  0.0000000E+000
  0.0000000E+000
  0.0000000E+000
  0.0000000E+000
  0.0000000E+000
  0.0000000E+000
  0.0000000E+000
  0.0000000E+000
  0.0000000E+000
  0.0000000E+000
  0.0000000E+000
  0.0000000E+000
  0.0000000E+000
  0.0000000E+000
  0.0000000E+000
  0.0000000E+000
  0.0000000E+000
  0.0000000E+000
  0.0000000E+000
  0.0000000E+000
  0.0000000E+000
  0.0000000E+000
  0.0000000E+000
  0.0000000E+000
  0.0000000E+000
  0.0000000E+000
  0.0000000E+000
  0.0000000E+000
  0.0000000E+000
  0.0000000E+000
  0.0000000E+000
  0.0000000E+000
  0.0000000E+000
  0.0000000E+000
  0.0000000E+000
  0.0000000E+000
  0.0000000E+000
  0.0000000E+000
  0.0000000E+000
  0.0000000E+000
  0.0000000E+000
  0.0000000E+000
  0.0000000E+000
  0.0000000E+000
  0.0000000E+000
  0.0000000E+000
  0.0000000E+000
  0.0000000E+000
  0.0000000E+000
  0.0000000E+000
  0.0000000E+000
  0.0000000E+000
  0.0000000E+000
  0.0000000E+000
  0.0000000E+000
  0.0000000E+000
  0.0000000E+000
  0.0000000E+000
  0.0000000E+000
  0.0000000E+000
  0.0000000E+000
  0.0000000E+000
  0.0000000E+000
  0.0000000E+000
  0.0000000E+000
  0.0000000E+000
  0.0000000E+000
  0.0000000E+000
  0.0000000E+000
  0.0000000E+000
  0.0000000E+000
  0.0000000E+000
  0.0000000E+000
  0.0000000E+000
  0.0000000E+000
  0.0000000E+000
  0.0000000E+000
  0.0000000E+000
  0.0000000E+000
  0.0000000E+000
  0.0000000E+000
  0.0000000E+000
  0.0000000E+000
  0.0000000E+000
  0.0000000E+000
  0.0000000E+000
  0.0000000E+000
  0.0000000E+000
  0.0000000E+000
  0.0000000E+000
  0.0000000E+000
  0.0000000E+000
  0.0000000E+000
  0.0000000E+000
  0.0000000E+000
  0.0000000E+000
  0.0000000E+000
  0.0000000E+000
  0.0000000E+000
  0.0000000E+000
  0.0000000E+000
  0.0000000E+000
  0.0000000E+000
  0.0000000E+000
  0.0000000E+000
  0.0000000E+000
  0.0000000E+000
  0.0000000E+000
  0.0000000E+000
  0.0000000E+000
  0.0000000E+000
  0.0000000E+000
  0.0000000E+000
  0.0000000E+000
  0.0000000E+000
  0.0000000E+000
  0.0000000E+000
  0.0000000E+000
  0.0000000E+000
  0.0000000E+000
  0.0000000E+000
  0.0000000E+000
  0.0000000E+000
  0.0000000E+000
  0.0000000E+000
  0.0000000E+000
  0.0000000E+000
  0.0000000E+000
  0.0000000E+000
  0.0000000E+000
  0.0000000E+000
  0.0000000E+000
  0.0000000E+000
  0.0000000E+000
  0.0000000E+000
  0.0000000E+000
  0.0000000E+000
  0.0000000E+000
  0.0000000E+000
  0.0000000E+000
  0.0000000E+000
  0.0000000E+000
  0.0000000E+000
  0.0000000E+000
  0.0000000E+000
  0.0000000E+000
  0.0000000E+000
  0.0000000E+000
  0.0000000E+000
  0.0000000E+000
  0.0000000E+000
  0.0000000E+000
  0.0000000E+000
  0.0000000E+000
  0.0000000E+000
  0.0000000E+000
  0.0000000E+000
  0.0000000E+000
  0.0000000E+000
  0.0000000E+000
  0.0000000E+000
  0.0000000E+000
  0.0000000E+000
  0.0000000E+000
  0.0000000E+000
  0.0000000E+000
  0.0000000E+000
  0.0000000E+000
  0.0000000E+000
  0.0000000E+000
  0.0000000E+000
  0.0000000E+000
  0.0000000E+000
  0.0000000E+000
  0.0000000E+000
  0.0000000E+000
  0.0000000E+000
  0.0000000E+000
  0.0000000E+000
  0.0000000E+000
  0.0000000E+000
  0.0000000E+000
  0.0000000E+000
  0.0000000E+000
  0.0000000E+000
  0.0000000E+000
  0.0000000E+000
  0.0000000E+000
  0.0000000E+000
  0.0000000E+000
  0.0000000E+000
  0.0000000E+000
  0.0000000E+000
  0.0000000E+000
  0.0000000E+000
  0.0000000E+000
  0.0000000E+000
  0.0000000E+000
  0.0000000E+000
  0.0000000E+000
  0.0000000E+000
  0.0000000E+000
  0.0000000E+000
  0.0000000E+000
  0.0000000E+000
  0.0000000E+000
  0.0000000E+000
  0.0000000E+000
  0.0000000E+000
  0.0000000E+000
  0.0000000E+000
  0.0000000E+000
  0.0000000E+000
  0.0000000E+000
  0.0000000E+000
  0.0000000E+000
  0.0000000E+000
  0.0000000E+000
  0.0000000E+000
  0.0000000E+000
  0.0000000E+000
  0.0000000E+000
  0.0000000E+000
  0.0000000E+000
  0.0000000E+000
  0.0000000E+000
  0.0000000E+000
  0.0000000E+000
  0.0000000E+000
  0.0000000E+000
  0.0000000E+000
  0.0000000E+000
  0.0000000E+000
  0.0000000E+000
  0.0000000E+000
  0.0000000E+000
  0.0000000E+000
  0.0000000E+000
  0.0000000E+000
  0.0000000E+000
  0.0000000E+000
  0.0000000E+000
  0.0000000E+000
  0.0000000E+000
  0.0000000E+000
  0.0000000E+000
  0.0000000E+000
  0.0000000E+000
  0.0000000E+000
  0.0000000E+000
  0.0000000E+000
  0.0000000E+000
  0.0000000E+000
  0.0000000E+000
  0.0000000E+000
  0.0000000E+000
  0.0000000E+000
  0.0000000E+000
  0.0000000E+000
  0.0000000E+000
  0.0000000E+000
  0.0000000E+000
  0.0000000E+000
  0.0000000E+000
  0.0000000E+000
  0.0000000E+000
  0.0000000E+000
  0.0000000E+000
  0.0000000E+000
  0.0000000E+000
  0.0000000E+000
  0.0000000E+000
  0.0000000E+000
  0.0000000E+000
  0.0000000E+000
  0.0000000E+000
  0.0000000E+000
  0.0000000E+000
  0.0000000E+000
  0.0000000E+000
  0.0000000E+000
  0.0000000E+000
  0.0000000E+000
  0.0000000E+000
  0.0000000E+000
  0.0000000E+000
  0.0000000E+000
  0.0000000E+000
  0.0000000E+000
  0.0000000E+000
  0.0000000E+000
  0.0000000E+000
  0.0000000E+000
  0.0000000E+000
  0.0000000E+000
  0.0000000E+000
  0.0000000E+000
  0.0000000E+000
  0.0000000E+000
  0.0000000E+000
  0.0000000E+000
  0.0000000E+000
  0.0000000E+000
  0.0000000E+000
  0.0000000E+000
  0.0000000E+000
  0.0000000E+000
  0.0000000E+000
  0.0000000E+000
  0.0000000E+000
  0.0000000E+000
  0.0000000E+000
  0.0000000E+000
  0.0000000E+000
  0.0000000E+000
  0.0000000E+000
  0.0000000E+000
  0.0000000E+000
  0.0000000E+000
  0.0000000E+000
  0.0000000E+000
  0.0000000E+000
  0.0000000E+000
  0.0000000E+000
  0.0000000E+000
  0.0000000E+000
  0.0000000E+000
  0.0000000E+000
  0.0000000E+000
  0.0000000E+000
  0.0000000E+000
  0.0000000E+000
  0.0000000E+000
  0.0000000E+000
  0.0000000E+000
  0.0000000E+000
  0.0000000E+000
  0.0000000E+000
  0.0000000E+000
  0.0000000E+000
  0.0000000E+000
  0.0000000E+000
  0.0000000E+000
  0.0000000E+000
  0.0000000E+000
  0.0000000E+000
  0.0000000E+000
  0.0000000E+000
  0.0000000E+000
  0.0000000E+000
  0.0000000E+000
  0.0000000E+000
  0.0000000E+000
  0.0000000E+000
  0.0000000E+000
  0.0000000E+000
  0.0000000E+000
  0.0000000E+000
  0.0000000E+000
  0.0000000E+000
  0.0000000E+000
  0.0000000E+000
  0.0000000E+000
  0.0000000E+000
  0.0000000E+000
  0.0000000E+000
  0.0000000E+000
  0.0000000E+000
  0.0000000E+000
  0.0000000E+000
  0.0000000E+000
  0.0000000E+000
  0.0000000E+000
  0.0000000E+000
  0.0000000E+000
  0.0000000E+000
  0.0000000E+000
  0.0000000E+000
  0.0000000E+000
  0.0000000E+000
  0.0000000E+000
  0.0000000E+000
  0.0000000E+000
  0.0000000E+000
  0.0000000E+000
  0.0000000E+000
  0.0000000E+000
  0.0000000E+000
  0.0000000E+000
  0.0000000E+000
  0.0000000E+000
  0.0000000E+000
  0.0000000E+000
  0.0000000E+000
  0.0000000E+000
  0.0000000E+000
  0.0000000E+000
  0.0000000E+000
  0.0000000E+000
  0.0000000E+000
  0.0000000E+000
  0.0000000E+000
  0.0000000E+000
  0.0000000E+000
  0.0000000E+000
  0.0000000E+000
  0.0000000E+000
  0.0000000E+000
  0.0000000E+000
  0.0000000E+000
  0.0000000E+000
  0.0000000E+000
  0.0000000E+000
  0.0000000E+000
  0.0000000E+000
  0.0000000E+000
  0.0000000E+000
  0.0000000E+000
  0.0000000E+000
  0.0000000E+000
  0.0000000E+000
  0.0000000E+000
  0.0000000E+000
  0.0000000E+000
  0.0000000E+000
  0.0000000E+000
  0.0000000E+000
  0.0000000E+000
  0.0000000E+000
  0.0000000E+000
  0.0000000E+000
  0.0000000E+000
  0.0000000E+000
  0.0000000E+000
  0.0000000E+000
  0.0000000E+000
  0.0000000E+000
  0.0000000E+000
  0.0000000E+000
  0.0000000E+000
  0.0000000E+000
  0.0000000E+000
  0.0000000E+000
  0.0000000E+000
  0.0000000E+000
  0.0000000E+000
  0.0000000E+000
  0.0000000E+000
  0.0000000E+000
  0.0000000E+000
  0.0000000E+000
  0.0000000E+000
  0.0000000E+000
  0.0000000E+000
  0.0000000E+000
  0.0000000E+000
  0.0000000E+000
  0.0000000E+000
  0.0000000E+000
  0.0000000E+000
  0.0000000E+000
  0.0000000E+000
  0.0000000E+000
  0.0000000E+000
  0.0000000E+000
  0.0000000E+000
  0.0000000E+000
  0.0000000E+000
  0.0000000E+000
  0.0000000E+000
  0.0000000E+000
  0.0000000E+000
  0.0000000E+000
  0.0000000E+000
  0.0000000E+000
  0.0000000E+000
  0.0000000E+000
  0.0000000E+000
  0.0000000E+000
  0.0000000E+000
  0.0000000E+000
  0.0000000E+000
  0.0000000E+000
  0.0000000E+000
  0.0000000E+000
  0.0000000E+000
  0.0000000E+000
  0.0000000E+000
  0.0000000E+000
  0.0000000E+000
  0.0000000E+000
  0.0000000E+000
  0.0000000E+000
  0.0000000E+000
  0.0000000E+000
  0.0000000E+000
  0.0000000E+000
  0.0000000E+000
  0.0000000E+000
  0.0000000E+000
  0.0000000E+000
  0.0000000E+000
  0.0000000E+000
  0.0000000E+000
  0.0000000E+000
  0.0000000E+000
  0.0000000E+000
  0.0000000E+000
  0.0000000E+000
  0.0000000E+000
  0.0000000E+000
  0.0000000E+000
  0.0000000E+000
  0.0000000E+000
  0.0000000E+000
  0.0000000E+000
  0.0000000E+000
  0.0000000E+000
  0.0000000E+000
  0.0000000E+000
  0.0000000E+000
  0.0000000E+000
  0.0000000E+000
  0.0000000E+000
  0.0000000E+000
  0.0000000E+000
  0.0000000E+000
  0.0000000E+000
  0.0000000E+000
  0.0000000E+000
  0.0000000E+000
  0.0000000E+000
  0.0000000E+000
  0.0000000E+000
  0.0000000E+000
  0.0000000E+000
  0.0000000E+000
  0.0000000E+000
  0.0000000E+000
  0.0000000E+000
  0.0000000E+000
  0.0000000E+000
  0.0000000E+000
  0.0000000E+000
  0.0000000E+000
  0.0000000E+000
  0.0000000E+000
  0.0000000E+000
  0.0000000E+000
  0.0000000E+000
  0.0000000E+000
  0.0000000E+000
  0.0000000E+000
  0.0000000E+000
  0.0000000E+000
  0.0000000E+000
  0.0000000E+000
  0.0000000E+000
  0.0000000E+000
  0.0000000E+000
  0.0000000E+000
  0.0000000E+000
  0.0000000E+000
  0.0000000E+000
  0.0000000E+000
  0.0000000E+000
  0.0000000E+000
  0.0000000E+000
  0.0000000E+000
  0.0000000E+000
  0.0000000E+000
  0.0000000E+000
  0.0000000E+000
  0.0000000E+000
  0.0000000E+000
  0.0000000E+000
  0.0000000E+000
  0.0000000E+000
  0.0000000E+000
  0.0000000E+000
  0.0000000E+000
  0.0000000E+000
  0.0000000E+000
  0.0000000E+000
  0.0000000E+000
  0.0000000E+000
  0.0000000E+000
  0.0000000E+000
  0.0000000E+000
  0.0000000E+000
  0.0000000E+000
  0.0000000E+000
  0.0000000E+000
  0.0000000E+000
  0.0000000E+000
  0.0000000E+000
  0.0000000E+000
  0.0000000E+000
  0.0000000E+000
  0.0000000E+000
  0.0000000E+000
  0.0000000E+000
  0.0000000E+000
  0.0000000E+000
  0.0000000E+000
  0.0000000E+000
  0.0000000E+000
  0.0000000E+000
  0.0000000E+000
  0.0000000E+000
  0.0000000E+000
  0.0000000E+000
  0.0000000E+000
  0.0000000E+000
  0.0000000E+000
  0.0000000E+000
  0.0000000E+000
  0.0000000E+000
  0.0000000E+000
  0.0000000E+000
  0.0000000E+000
  0.0000000E+000
  0.0000000E+000
  0.0000000E+000
  0.0000000E+000
  0.0000000E+000
  0.0000000E+000
  0.0000000E+000
  0.0000000E+000
  0.0000000E+000
  0.0000000E+000
  0.0000000E+000
  0.0000000E+000
  0.0000000E+000
  0.0000000E+000
  0.0000000E+000
  0.0000000E+000
  0.0000000E+000
  0.0000000E+000
  0.0000000E+000
  0.0000000E+000
  0.0000000E+000
  0.0000000E+000
  0.0000000E+000
  0.0000000E+000
  0.0000000E+000
  0.0000000E+000
  0.0000000E+000
  0.0000000E+000
  0.0000000E+000
  0.0000000E+000
  0.0000000E+000
  0.0000000E+000
  0.0000000E+000
  0.0000000E+000
  0.0000000E+000
  0.0000000E+000
  0.0000000E+000
  0.0000000E+000
  0.0000000E+000
  0.0000000E+000
  0.0000000E+000
  0.0000000E+000
  0.0000000E+000
  0.0000000E+000
  0.0000000E+000
  0.0000000E+000
  0.0000000E+000
  0.0000000E+000
  0.0000000E+000
  0.0000000E+000
  0.0000000E+000
  0.0000000E+000
  0.0000000E+000
  0.0000000E+000
  0.0000000E+000
  0.0000000E+000
  0.0000000E+000
  0.0000000E+000
  0.0000000E+000
  0.0000000E+000
  0.0000000E+000
  0.0000000E+000
  0.0000000E+000
  0.0000000E+000
  0.0000000E+000
  0.0000000E+000
  0.0000000E+000
  0.0000000E+000
  0.0000000E+000
  0.0000000E+000
  0.0000000E+000
  0.0000000E+000
  0.0000000E+000
  0.0000000E+000
  0.0000000E+000
  0.0000000E+000
  0.0000000E+000
  0.0000000E+000
  0.0000000E+000
  0.0000000E+000
  0.0000000E+000
  0.0000000E+000
  0.0000000E+000
  0.0000000E+000
  0.0000000E+000
  0.0000000E+000
  0.0000000E+000
  0.0000000E+000
  0.0000000E+000
  0.0000000E+000
  0.0000000E+000
  0.0000000E+000
  0.0000000E+000
  0.0000000E+000
  0.0000000E+000
  0.0000000E+000
  0.0000000E+000
  0.0000000E+000
  0.0000000E+000
  0.0000000E+000
  0.0000000E+000
  0.0000000E+000
  0.0000000E+000
  0.0000000E+000
  0.0000000E+000
  0.0000000E+000
  0.0000000E+000
  0.0000000E+000
  0.0000000E+000
  0.0000000E+000
  0.0000000E+000
  0.0000000E+000
  0.0000000E+000
  0.0000000E+000
  0.0000000E+000
  0.0000000E+000
  0.0000000E+000
  0.0000000E+000
  0.0000000E+000
  0.0000000E+000
  0.0000000E+000
  0.0000000E+000
  0.0000000E+000
  0.0000000E+000
  0.0000000E+000
  0.0000000E+000
  0.0000000E+000
  0.0000000E+000
  0.0000000E+000
  0.0000000E+000
  0.0000000E+000
  0.0000000E+000
  0.0000000E+000
  0.0000000E+000
  0.0000000E+000
  0.0000000E+000
  0.0000000E+000
  0.0000000E+000
  0.0000000E+000
  0.0000000E+000
  0.0000000E+000
  0.0000000E+000
  0.0000000E+000
  0.0000000E+000
  0.0000000E+000
  0.0000000E+000
  0.0000000E+000
  0.0000000E+000
  0.0000000E+000
  0.0000000E+000
  0.0000000E+000
  0.0000000E+000
  0.0000000E+000
  0.0000000E+000
  0.0000000E+000
  0.0000000E+000
  0.0000000E+000
  0.0000000E+000
  0.0000000E+000
  0.0000000E+000
  0.0000000E+000
  0.0000000E+000
  0.0000000E+000
  0.0000000E+000
  0.0000000E+000
  0.0000000E+000
  0.0000000E+000
  0.0000000E+000
  0.0000000E+000
  0.0000000E+000
  0.0000000E+000
  0.0000000E+000
  0.0000000E+000
  0.0000000E+000
  0.0000000E+000
  0.0000000E+000
  0.0000000E+000
  0.0000000E+000
  0.0000000E+000
  0.0000000E+000
  0.0000000E+000
  0.0000000E+000
  0.0000000E+000
  0.0000000E+000
  0.0000000E+000
  0.0000000E+000
  0.0000000E+000
  0.0000000E+000
  0.0000000E+000
  0.0000000E+000
  0.0000000E+000
  0.0000000E+000
  0.0000000E+000
  0.0000000E+000
  0.0000000E+000
  0.0000000E+000
  0.0000000E+000
  0.0000000E+000
  0.0000000E+000
  0.0000000E+000
  0.0000000E+000
  0.0000000E+000
  0.0000000E+000
  0.0000000E+000
  0.0000000E+000
  0.0000000E+000
  0.0000000E+000
  0.0000000E+000
  0.0000000E+000
  0.0000000E+000
  0.0000000E+000
  0.0000000E+000
  0.0000000E+000
  0.0000000E+000
  0.0000000E+000
  0.0000000E+000
  0.0000000E+000
  0.0000000E+000
  0.0000000E+000
  0.0000000E+000
  0.0000000E+000
  0.0000000E+000
  0.0000000E+000
  0.0000000E+000
  0.0000000E+000
  0.0000000E+000
  0.0000000E+000
  0.0000000E+000
  0.0000000E+000
  0.0000000E+000
  0.0000000E+000
  0.0000000E+000
  0.0000000E+000
  0.0000000E+000
  0.0000000E+000
  0.0000000E+000
  0.0000000E+000
  0.0000000E+000
  0.0000000E+000
  0.0000000E+000
  0.0000000E+000
  0.0000000E+000
  0.0000000E+000
  0.0000000E+000
  0.0000000E+000
  0.0000000E+000
  0.0000000E+000
  0.0000000E+000
  0.0000000E+000
  0.0000000E+000
  0.0000000E+000
  0.0000000E+000
  0.0000000E+000
  0.0000000E+000
  0.0000000E+000
  0.0000000E+000
  0.0000000E+000
  0.0000000E+000
  0.0000000E+000
  0.0000000E+000
  0.0000000E+000
  0.0000000E+000
  0.0000000E+000
  0.0000000E+000
  0.0000000E+000
  0.0000000E+000
  0.0000000E+000
  0.0000000E+000
  0.0000000E+000
  0.0000000E+000
  0.0000000E+000
  0.0000000E+000
  0.0000000E+000
  0.0000000E+000
  0.0000000E+000
  0.0000000E+000
  0.0000000E+000
  0.0000000E+000
  0.0000000E+000
  0.0000000E+000
  0.0000000E+000
  0.0000000E+000
  0.0000000E+000
  0.0000000E+000
  0.0000000E+000
  0.0000000E+000
  0.0000000E+000
  0.0000000E+000
  0.0000000E+000
  0.0000000E+000
  0.0000000E+000
  0.0000000E+000
  0.0000000E+000
  0.0000000E+000
  0.0000000E+000
  0.0000000E+000
  0.0000000E+000
  0.0000000E+000
  0.0000000E+000
  0.0000000E+000
  0.0000000E+000
  0.0000000E+000
  0.0000000E+000
  0.0000000E+000
  0.0000000E+000
  0.0000000E+000
  0.0000000E+000
  0.0000000E+000
  0.0000000E+000
  0.0000000E+000
  0.0000000E+000
  0.0000000E+000
  0.0000000E+000
  0.0000000E+000
  0.0000000E+000
  0.0000000E+000
  0.0000000E+000
  0.0000000E+000
  0.0000000E+000
  0.0000000E+000
  0.0000000E+000
  0.0000000E+000
  0.0000000E+000
  0.0000000E+000
  0.0000000E+000
  0.0000000E+000
  0.0000000E+000
  0.0000000E+000
  0.0000000E+000
  0.0000000E+000
  0.0000000E+000
  0.0000000E+000
  0.0000000E+000
  0.0000000E+000
  0.0000000E+000
  0.0000000E+000
  0.0000000E+000
  0.0000000E+000
  0.0000000E+000
  0.0000000E+000
  0.0000000E+000
  0.0000000E+000
  0.0000000E+000
  0.0000000E+000
  0.0000000E+000
  0.0000000E+000
  0.0000000E+000
  0.0000000E+000
  0.0000000E+000
  0.0000000E+000
  0.0000000E+000
  0.0000000E+000
  0.0000000E+000
  0.0000000E+000
  0.0000000E+000
  0.0000000E+000
  0.0000000E+000
  0.0000000E+000
  0.0000000E+000
  0.0000000E+000
  0.0000000E+000
  0.0000000E+000
  0.0000000E+000
  0.0000000E+000
  0.0000000E+000
  0.0000000E+000
  0.0000000E+000
  0.0000000E+000
  0.0000000E+000
  0.0000000E+000
  0.0000000E+000
  0.0000000E+000
  0.0000000E+000
  0.0000000E+000
  0.0000000E+000
  0.0000000E+000
  0.0000000E+000
  0.0000000E+000
  0.0000000E+000
  0.0000000E+000
  0.0000000E+000
  0.0000000E+000
  0.0000000E+000
  0.0000000E+000
  0.0000000E+000
  0.0000000E+000
  0.0000000E+000
  0.0000000E+000
  0.0000000E+000
  0.0000000E+000
  0.0000000E+000
  0.0000000E+000
  0.0000000E+000
  0.0000000E+000
  0.0000000E+000
  0.0000000E+000
  0.0000000E+000
  0.0000000E+000
  0.0000000E+000
  0.0000000E+000
  0.0000000E+000
  0.0000000E+000
  0.0000000E+000
  0.0000000E+000
  0.0000000E+000
  0.0000000E+000
  0.0000000E+000
  0.0000000E+000
  0.0000000E+000
  0.0000000E+000
  0.0000000E+000
  0.0000000E+000
  0.0000000E+000
  0.0000000E+000
  0.0000000E+000
  0.0000000E+000
  0.0000000E+000
  0.0000000E+000
  0.0000000E+000
  0.0000000E+000
  0.0000000E+000
  0.0000000E+000
  0.0000000E+000
  0.0000000E+000
  0.0000000E+000
  0.0000000E+000
  0.0000000E+000
  0.0000000E+000
  0.0000000E+000
  0.0000000E+000
  0.0000000E+000
  0.0000000E+000
  0.0000000E+000
  0.0000000E+000
  0.0000000E+000
  0.0000000E+000
  0.0000000E+000
  0.0000000E+000
  0.0000000E+000
  0.0000000E+000
  0.0000000E+000
  0.0000000E+000
  0.0000000E+000
  0.0000000E+000
  0.0000000E+000
  0.0000000E+000
  0.0000000E+000
  0.0000000E+000
  0.0000000E+000
  0.0000000E+000
  0.0000000E+000
  0.0000000E+000
  0.0000000E+000
  0.0000000E+000
  0.0000000E+000
  0.0000000E+000
  0.0000000E+000
  0.0000000E+000
  0.0000000E+000
  0.0000000E+000
  0.0000000E+000
  0.0000000E+000
  0.0000000E+000
  0.0000000E+000
  0.0000000E+000
  0.0000000E+000
  0.0000000E+000
  0.0000000E+000
  0.0000000E+000
  0.0000000E+000
  0.0000000E+000
  0.0000000E+000
  0.0000000E+000
  0.0000000E+000
  0.0000000E+000
  0.0000000E+000
  0.0000000E+000
  0.0000000E+000
  0.0000000E+000
  0.0000000E+000
  0.0000000E+000
  0.0000000E+000
  0.0000000E+000
  0.0000000E+000
  0.0000000E+000
  0.0000000E+000
  0.0000000E+000
  0.0000000E+000
  0.0000000E+000
  0.0000000E+000
  0.0000000E+000
  0.0000000E+000
  0.0000000E+000
  0.0000000E+000
  0.0000000E+000
  0.0000000E+000
  0.0000000E+000
  0.0000000E+000
  0.0000000E+000
  0.0000000E+000
  0.0000000E+000
  0.0000000E+000
  0.0000000E+000
  0.0000000E+000
  0.0000000E+000
  0.0000000E+000
  0.0000000E+000
  0.0000000E+000
  0.0000000E+000
  0.0000000E+000
  0.0000000E+000
  0.0000000E+000
  0.0000000E+000
  0.0000000E+000
  0.0000000E+000
  0.0000000E+000
  0.0000000E+000
  0.0000000E+000
  0.0000000E+000
  0.0000000E+000
  0.0000000E+000
  0.0000000E+000
  0.0000000E+000
  0.0000000E+000
  0.0000000E+000
  0.0000000E+000
  0.0000000E+000
  0.0000000E+000
  0.0000000E+000
  0.0000000E+000
  0.0000000E+000
  0.0000000E+000
  0.0000000E+000
  0.0000000E+000
  0.0000000E+000
  0.0000000E+000
  0.0000000E+000
  0.0000000E+000
  0.0000000E+000
  0.0000000E+000
  0.0000000E+000
  0.0000000E+000
  0.0000000E+000
  0.0000000E+000
  0.0000000E+000
  0.0000000E+000
  0.0000000E+000
  0.0000000E+000
  0.0000000E+000
  0.0000000E+000
  0.0000000E+000
  0.0000000E+000
  0.0000000E+000
  0.0000000E+000
  0.0000000E+000
  0.0000000E+000
  0.0000000E+000
  0.0000000E+000
  0.0000000E+000
  0.0000000E+000
  0.0000000E+000
  0.0000000E+000
  0.0000000E+000
  0.0000000E+000
  0.0000000E+000
  0.0000000E+000
  0.0000000E+000
  0.0000000E+000
  0.0000000E+000
  0.0000000E+000
  0.0000000E+000
  0.0000000E+000
  0.0000000E+000
  0.0000000E+000
  0.0000000E+000
  0.0000000E+000
  0.0000000E+000
  0.0000000E+000
  0.0000000E+000
  0.0000000E+000
  0.0000000E+000
  0.0000000E+000
  0.0000000E+000
  0.0000000E+000
  0.0000000E+000
  0.0000000E+000
  0.0000000E+000
  0.0000000E+000
  0.0000000E+000
  0.0000000E+000
  0.0000000E+000
  0.0000000E+000
  0.0000000E+000
  0.0000000E+000
  0.0000000E+000
  0.0000000E+000
  0.0000000E+000
  0.0000000E+000
  0.0000000E+000
  0.0000000E+000
  0.0000000E+000
  0.0000000E+000
  0.0000000E+000
  0.0000000E+000
  0.0000000E+000
  0.0000000E+000
  0.0000000E+000
  0.0000000E+000
  0.0000000E+000
  0.0000000E+000
  0.0000000E+000
  0.0000000E+000
  0.0000000E+000
  0.0000000E+000
  0.0000000E+000
  0.0000000E+000
  0.0000000E+000
  0.0000000E+000
  0.0000000E+000
  0.0000000E+000
  0.0000000E+000
  0.0000000E+000
  0.0000000E+000
  0.0000000E+000
  0.0000000E+000
  0.0000000E+000
  0.0000000E+000
  0.0000000E+000
  0.0000000E+000
  0.0000000E+000
  0.0000000E+000
  0.0000000E+000
  0.0000000E+000
  0.0000000E+000
  0.0000000E+000
  0.0000000E+000
  0.0000000E+000
  0.0000000E+000
  0.0000000E+000
  0.0000000E+000
  0.0000000E+000
  0.0000000E+000
  0.0000000E+000
  0.0000000E+000
  0.0000000E+000
  0.0000000E+000
  0.0000000E+000
  0.0000000E+000
  0.0000000E+000
  0.0000000E+000
  0.0000000E+000
  0.0000000E+000
  0.0000000E+000
  0.0000000E+000
  0.0000000E+000
  0.0000000E+000
  0.0000000E+000
  0.0000000E+000
  0.0000000E+000
  0.0000000E+000
  0.0000000E+000
  0.0000000E+000
  0.0000000E+000
  0.0000000E+000
  0.0000000E+000
  0.0000000E+000
  0.0000000E+000
  0.0000000E+000
  0.0000000E+000
  0.0000000E+000
  0.0000000E+000
  0.0000000E+000
  0.0000000E+000
  0.0000000E+000
  0.0000000E+000
  0.0000000E+000
  0.0000000E+000
  0.0000000E+000
  0.0000000E+000
  0.0000000E+000
  0.0000000E+000
  0.0000000E+000
  0.0000000E+000
  0.0000000E+000
  0.0000000E+000
  0.0000000E+000
  0.0000000E+000
  0.0000000E+000
  0.0000000E+000
  0.0000000E+000
  0.0000000E+000
  0.0000000E+000
  0.0000000E+000
  0.0000000E+000
  0.0000000E+000
  0.0000000E+000
  0.0000000E+000
  0.0000000E+000
  0.0000000E+000
  0.0000000E+000
  0.0000000E+000
  0.0000000E+000
  0.0000000E+000
  0.0000000E+000
  0.0000000E+000
  0.0000000E+000
  0.0000000E+000
  0.0000000E+000
  0.0000000E+000
  0.0000000E+000
  0.0000000E+000
  0.0000000E+000
  0.0000000E+000
  0.0000000E+000
  0.0000000E+000
  0.0000000E+000
  0.0000000E+000
  0.0000000E+000
  0.0000000E+000
  0.0000000E+000
  0.0000000E+000
  0.0000000E+000
  0.0000000E+000
  0.0000000E+000
  0.0000000E+000
  0.0000000E+000
  0.0000000E+000
  0.0000000E+000
  0.0000000E+000
  0.0000000E+000
  0.0000000E+000
  0.0000000E+000
  0.0000000E+000
  0.0000000E+000
  0.0000000E+000
  0.0000000E+000
  0.0000000E+000
  0.0000000E+000
  0.0000000E+000
  0.0000000E+000
  0.0000000E+000
  0.0000000E+000
  0.0000000E+000
  0.0000000E+000
  0.0000000E+000
  0.0000000E+000
  0.0000000E+000
  0.0000000E+000
  0.0000000E+000
  0.0000000E+000
  0.0000000E+000
  0.0000000E+000
  0.0000000E+000
  0.0000000E+000
  0.0000000E+000
  0.0000000E+000
  0.0000000E+000
  0.0000000E+000
  0.0000000E+000
  0.0000000E+000
  0.0000000E+000
  0.0000000E+000
  0.0000000E+000
  0.0000000E+000
  0.0000000E+000
  0.0000000E+000
  0.0000000E+000
  0.0000000E+000
  0.0000000E+000
  0.0000000E+000
  0.0000000E+000
  0.0000000E+000
  0.0000000E+000
  0.0000000E+000
  0.0000000E+000
  0.0000000E+000
  0.0000000E+000
  0.0000000E+000
  0.0000000E+000
  0.0000000E+000
  0.0000000E+000
  0.0000000E+000
  0.0000000E+000
  0.0000000E+000
  0.0000000E+000
  0.0000000E+000
  0.0000000E+000
  0.0000000E+000
  0.0000000E+000
  0.0000000E+000
  0.0000000E+000
  0.0000000E+000
  0.0000000E+000
  0.0000000E+000
  0.0000000E+000
  0.0000000E+000
  0.0000000E+000
  0.0000000E+000
  0.0000000E+000
  0.0000000E+000
  0.0000000E+000
  0.0000000E+000
  0.0000000E+000
  0.0000000E+000
  0.0000000E+000
  0.0000000E+000
  0.0000000E+000
  0.0000000E+000
  0.0000000E+000
  0.0000000E+000
  0.0000000E+000
  0.0000000E+000
  0.0000000E+000
  0.0000000E+000
  0.0000000E+000
  0.0000000E+000
  0.0000000E+000
  0.0000000E+000
  0.0000000E+000
  0.0000000E+000
  0.0000000E+000
  0.0000000E+000
  0.0000000E+000
  0.0000000E+000
  0.0000000E+000
  0.0000000E+000
  0.0000000E+000
  0.0000000E+000
  0.0000000E+000
  0.0000000E+000
  0.0000000E+000
  0.0000000E+000
  0.0000000E+000
  0.0000000E+000
  0.0000000E+000
  0.0000000E+000
  0.0000000E+000
  0.0000000E+000
  0.0000000E+000
  0.0000000E+000
  0.0000000E+000
  0.0000000E+000
  0.0000000E+000
  0.0000000E+000
  0.0000000E+000
  0.0000000E+000
  0.0000000E+000
  0.0000000E+000
  0.0000000E+000
  0.0000000E+000
  0.0000000E+000
  0.0000000E+000
  0.0000000E+000
  0.0000000E+000
  0.0000000E+000
  0.0000000E+000
  0.0000000E+000
  0.0000000E+000
  0.0000000E+000
  0.0000000E+000
  0.0000000E+000
  0.0000000E+000
  0.0000000E+000
  0.0000000E+000
  0.0000000E+000
  0.0000000E+000
  0.0000000E+000
  0.0000000E+000
  0.0000000E+000
  0.0000000E+000
  0.0000000E+000
  0.0000000E+000
  0.0000000E+000
  0.0000000E+000
  0.0000000E+000
  0.0000000E+000
  0.0000000E+000
  0.0000000E+000
  0.0000000E+000
  0.0000000E+000
  0.0000000E+000
  0.0000000E+000
  0.0000000E+000
  0.0000000E+000
  0.0000000E+000
  0.0000000E+000
  0.0000000E+000
  0.0000000E+000
  0.0000000E+000
  0.0000000E+000
  0.0000000E+000
  0.0000000E+000
  0.0000000E+000
  0.0000000E+000
  0.0000000E+000
  0.0000000E+000
  0.0000000E+000
  0.0000000E+000
  0.0000000E+000
  0.0000000E+000
  0.0000000E+000
  0.0000000E+000
  0.0000000E+000
  0.0000000E+000
  0.0000000E+000
  0.0000000E+000
  0.0000000E+000
  0.0000000E+000
  0.0000000E+000
  0.0000000E+000
  0.0000000E+000
  0.0000000E+000
  0.0000000E+000
  0.0000000E+000
  0.0000000E+000
  0.0000000E+000
  0.0000000E+000
  0.0000000E+000
  0.0000000E+000
  0.0000000E+000
  0.0000000E+000
  0.0000000E+000
  0.0000000E+000
  0.0000000E+000
  0.0000000E+000
  0.0000000E+000
  0.0000000E+000
  0.0000000E+000
  0.0000000E+000
  0.0000000E+000
  0.0000000E+000
  0.0000000E+000
  0.0000000E+000
  0.0000000E+000
  0.0000000E+000
  0.0000000E+000
  0.0000000E+000
  0.0000000E+000
  0.0000000E+000
  0.0000000E+000
  0.0000000E+000
  0.0000000E+000
  0.0000000E+000
  0.0000000E+000
  0.0000000E+000
  0.0000000E+000
  0.0000000E+000
  0.0000000E+000
  0.0000000E+000
  0.0000000E+000
  0.0000000E+000
  0.0000000E+000
  0.0000000E+000
  0.0000000E+000
  0.0000000E+000
  0.0000000E+000
  0.0000000E+000
  0.0000000E+000
  0.0000000E+000
  0.0000000E+000
  0.0000000E+000
  0.0000000E+000
  0.0000000E+000
  0.0000000E+000
  0.0000000E+000
  0.0000000E+000
  0.0000000E+000
  0.0000000E+000
  0.0000000E+000
  0.0000000E+000
  0.0000000E+000
  0.0000000E+000
  0.0000000E+000
  0.0000000E+000
  0.0000000E+000
  0.0000000E+000
  0.0000000E+000
  0.0000000E+000
  0.0000000E+000
  0.0000000E+000
  0.0000000E+000
  0.0000000E+000
  0.0000000E+000
  0.0000000E+000
  0.0000000E+000
  0.0000000E+000
  0.0000000E+000
  0.0000000E+000
  0.0000000E+000
  0.0000000E+000
  0.0000000E+000
  0.0000000E+000
  0.0000000E+000
  0.0000000E+000
  0.0000000E+000
  0.0000000E+000
  0.0000000E+000
  0.0000000E+000
  0.0000000E+000
  0.0000000E+000
  0.0000000E+000
  0.0000000E+000
  0.0000000E+000
  0.0000000E+000
  0.0000000E+000
  0.0000000E+000
  0.0000000E+000
  0.0000000E+000
  0.0000000E+000
  0.0000000E+000
  0.0000000E+000
  0.0000000E+000
  0.0000000E+000
  0.0000000E+000
  0.0000000E+000
  0.0000000E+000
  0.0000000E+000
  0.0000000E+000
  0.0000000E+000
  0.0000000E+000
  0.0000000E+000
  0.0000000E+000
  0.0000000E+000
  0.0000000E+000
  0.0000000E+000
  0.0000000E+000
  0.0000000E+000
  0.0000000E+000
  0.0000000E+000
  0.0000000E+000
  0.0000000E+000
  0.0000000E+000
  0.0000000E+000
  0.0000000E+000
  0.0000000E+000
  0.0000000E+000
  0.0000000E+000
  0.0000000E+000
  0.0000000E+000
  0.0000000E+000
  0.0000000E+000
  0.0000000E+000
  0.0000000E+000
  0.0000000E+000
  0.0000000E+000
  0.0000000E+000
  0.0000000E+000
  0.0000000E+000
  0.0000000E+000
  0.0000000E+000
  0.0000000E+000
  0.0000000E+000
  0.0000000E+000
  0.0000000E+000
  0.0000000E+000
  0.0000000E+000
  0.0000000E+000
  0.0000000E+000
  0.0000000E+000
  0.0000000E+000
  0.0000000E+000
  0.0000000E+000
  0.0000000E+000
  0.0000000E+000
  0.0000000E+000
  0.0000000E+000
  0.0000000E+000
  0.0000000E+000
  0.0000000E+000
  0.0000000E+000
  0.0000000E+000
  0.0000000E+000
  0.0000000E+000
  0.0000000E+000
  0.0000000E+000
  0.0000000E+000
  0.0000000E+000
  0.0000000E+000
  0.0000000E+000
  0.0000000E+000
  0.0000000E+000
  0.0000000E+000
  0.0000000E+000
  0.0000000E+000
  0.0000000E+000
  0.0000000E+000
  0.0000000E+000
  0.0000000E+000
  0.0000000E+000
  0.0000000E+000
  0.0000000E+000
  0.0000000E+000
  0.0000000E+000
  0.0000000E+000
  0.0000000E+000
  0.0000000E+000
  0.0000000E+000
  0.0000000E+000
  0.0000000E+000
  0.0000000E+000
  0.0000000E+000
  0.0000000E+000
  0.0000000E+000
  0.0000000E+000
  0.0000000E+000
  0.0000000E+000
  0.0000000E+000
  0.0000000E+000
  0.0000000E+000
  0.0000000E+000
  0.0000000E+000
  0.0000000E+000
  0.0000000E+000
  0.0000000E+000
  0.0000000E+000
  0.0000000E+000
  0.0000000E+000
  0.0000000E+000
  0.0000000E+000
  0.0000000E+000
  0.0000000E+000
  0.0000000E+000
  0.0000000E+000
  0.0000000E+000
  0.0000000E+000
  0.0000000E+000
  0.0000000E+000
  0.0000000E+000
  0.0000000E+000
  0.0000000E+000
  0.0000000E+000
  0.0000000E+000
  0.0000000E+000
  0.0000000E+000
  0.0000000E+000
  0.0000000E+000
  0.0000000E+000
  0.0000000E+000
  0.0000000E+000
  0.0000000E+000
  0.0000000E+000
  0.0000000E+000
  0.0000000E+000
  0.0000000E+000
  0.0000000E+000
  0.0000000E+000
  0.0000000E+000
  0.0000000E+000
  0.0000000E+000
  0.0000000E+000
  0.0000000E+000
  0.0000000E+000
  0.0000000E+000
  0.0000000E+000
  0.0000000E+000
  0.0000000E+000
  0.0000000E+000
  0.0000000E+000
  0.0000000E+000
  0.0000000E+000
  0.0000000E+000
  0.0000000E+000
  0.0000000E+000
  0.0000000E+000
  0.0000000E+000
  0.0000000E+000
  0.0000000E+000
  0.0000000E+000
  0.0000000E+000
  0.0000000E+000
  0.0000000E+000
  0.0000000E+000
  0.0000000E+000
  0.0000000E+000
  0.0000000E+000
  0.0000000E+000
  0.0000000E+000
  0.0000000E+000
  0.0000000E+000
  0.0000000E+000
  0.0000000E+000
  0.0000000E+000
  0.0000000E+000
  0.0000000E+000
  0.0000000E+000
  0.0000000E+000
  0.0000000E+000
  0.0000000E+000
  0.0000000E+000
  0.0000000E+000
  0.0000000E+000
  0.0000000E+000
  0.0000000E+000
  0.0000000E+000
  0.0000000E+000
  0.0000000E+000
  0.0000000E+000
  0.0000000E+000
  0.0000000E+000
  0.0000000E+000
  0.0000000E+000
  0.0000000E+000
  0.0000000E+000
  0.0000000E+000
  0.0000000E+000
  0.0000000E+000
  0.0000000E+000
  0.0000000E+000
  0.0000000E+000
  0.0000000E+000
  0.0000000E+000
  0.0000000E+000
  0.0000000E+000
  0.0000000E+000
  0.0000000E+000
  0.0000000E+000
  0.0000000E+000
  0.0000000E+000
  0.0000000E+000
  0.0000000E+000
  0.0000000E+000
  0.0000000E+000
  0.0000000E+000
  0.0000000E+000
  0.0000000E+000
  0.0000000E+000
  0.0000000E+000
  0.0000000E+000
  0.0000000E+000
  0.0000000E+000
  0.0000000E+000
  0.0000000E+000
  0.0000000E+000
  0.0000000E+000
  0.0000000E+000
  0.0000000E+000
  0.0000000E+000
  0.0000000E+000
  0.0000000E+000
  0.0000000E+000
  0.0000000E+000
  0.0000000E+000
  0.0000000E+000
  0.0000000E+000
  0.0000000E+000
  0.0000000E+000
  0.0000000E+000
  0.0000000E+000
  0.0000000E+000
  0.0000000E+000
  0.0000000E+000
  0.0000000E+000
  0.0000000E+000
  0.0000000E+000
  0.0000000E+000
  0.0000000E+000
  0.0000000E+000
  0.0000000E+000
  0.0000000E+000
  0.0000000E+000
  0.0000000E+000
  0.0000000E+000
  0.0000000E+000
  0.0000000E+000
  0.0000000E+000
  0.0000000E+000
  0.0000000E+000
  0.0000000E+000
  0.0000000E+000
  0.0000000E+000
  0.0000000E+000
  0.0000000E+000
  0.0000000E+000
  0.0000000E+000
  0.0000000E+000
  0.0000000E+000
  0.0000000E+000
  0.0000000E+000
  0.0000000E+000
  0.0000000E+000
  0.0000000E+000
  0.0000000E+000
  0.0000000E+000
  0.0000000E+000
  0.0000000E+000
  0.0000000E+000
  0.0000000E+000
  0.0000000E+000
  0.0000000E+000
  0.0000000E+000
  0.0000000E+000
  0.0000000E+000
  0.0000000E+000
  0.0000000E+000
  0.0000000E+000
  0.0000000E+000
  0.0000000E+000
  0.0000000E+000
  0.0000000E+000
  0.0000000E+000
  0.0000000E+000
  0.0000000E+000
  0.0000000E+000
  0.0000000E+000
  0.0000000E+000
  0.0000000E+000
  0.0000000E+000
  0.0000000E+000
  0.0000000E+000
  0.0000000E+000
  0.0000000E+000
  0.0000000E+000
  0.0000000E+000
  0.0000000E+000
  0.0000000E+000
  0.0000000E+000
  0.0000000E+000
  0.0000000E+000
  0.0000000E+000
  0.0000000E+000
  0.0000000E+000
  0.0000000E+000
  0.0000000E+000
  0.0000000E+000
  0.0000000E+000
  0.0000000E+000
  0.0000000E+000
  0.0000000E+000
  0.0000000E+000
  0.0000000E+000
  0.0000000E+000
  0.0000000E+000
  0.0000000E+000
  0.0000000E+000
  0.0000000E+000
  0.0000000E+000
  0.0000000E+000
  0.0000000E+000
  0.0000000E+000
  0.0000000E+000
  0.0000000E+000
  0.0000000E+000
  0.0000000E+000
  0.0000000E+000
  0.0000000E+000
  0.0000000E+000
  0.0000000E+000
  0.0000000E+000
  0.0000000E+000
  0.0000000E+000
  0.0000000E+000
  0.0000000E+000
  0.0000000E+000
  0.0000000E+000
  0.0000000E+000
  0.0000000E+000
  0.0000000E+000
  0.0000000E+000
  0.0000000E+000
  0.0000000E+000
  0.0000000E+000
  0.0000000E+000
  0.0000000E+000
  0.0000000E+000
  0.0000000E+000
  0.0000000E+000
  0.0000000E+000
  0.0000000E+000
  0.0000000E+000
  0.0000000E+000
  0.0000000E+000
  0.0000000E+000
  0.0000000E+000
  0.0000000E+000
  0.0000000E+000
  0.0000000E+000
  0.0000000E+000
  0.0000000E+000
  0.0000000E+000
  0.0000000E+000
  0.0000000E+000
  0.0000000E+000
  0.0000000E+000
  0.0000000E+000
  0.0000000E+000
  0.0000000E+000
  0.0000000E+000
  0.0000000E+000
  0.0000000E+000
  0.0000000E+000
  0.0000000E+000
  0.0000000E+000
  0.0000000E+000
  0.0000000E+000
  0.0000000E+000
  0.0000000E+000
  0.0000000E+000
  0.0000000E+000
  0.0000000E+000
  0.0000000E+000
  0.0000000E+000
  0.0000000E+000
  0.0000000E+000
  0.0000000E+000
  0.0000000E+000
  0.0000000E+000
  0.0000000E+000
  0.0000000E+000
  0.0000000E+000
  0.0000000E+000
  0.0000000E+000
  0.0000000E+000
  0.0000000E+000
  0.0000000E+000
  0.0000000E+000
  0.0000000E+000
  0.0000000E+000
  0.0000000E+000
  0.0000000E+000
  0.0000000E+000
  0.0000000E+000
  0.0000000E+000
  0.0000000E+000
  0.0000000E+000
  0.0000000E+000
  0.0000000E+000
  0.0000000E+000
  0.0000000E+000
  0.0000000E+000
  0.0000000E+000
  0.0000000E+000
  0.0000000E+000
  0.0000000E+000
  0.0000000E+000
  0.0000000E+000
  0.0000000E+000
  0.0000000E+000
  0.0000000E+000
  0.0000000E+000
  0.0000000E+000
  0.0000000E+000
  0.0000000E+000
  0.0000000E+000
  0.0000000E+000
  0.0000000E+000
  0.0000000E+000
  0.0000000E+000
  0.0000000E+000
  0.0000000E+000
  0.0000000E+000
  0.0000000E+000
  0.0000000E+000
  0.0000000E+000
  0.0000000E+000
  0.0000000E+000
  0.0000000E+000
  0.0000000E+000
  0.0000000E+000
  0.0000000E+000
  0.0000000E+000
  0.0000000E+000
  0.0000000E+000
  0.0000000E+000
  0.0000000E+000
  0.0000000E+000
  0.0000000E+000
  0.0000000E+000
  0.0000000E+000
  0.0000000E+000
  0.0000000E+000
  0.0000000E+000
  0.0000000E+000
  0.0000000E+000
  0.0000000E+000
  0.0000000E+000
  0.0000000E+000
  0.0000000E+000
  0.0000000E+000
  0.0000000E+000
  0.0000000E+000
  0.0000000E+000
  0.0000000E+000
  0.0000000E+000
  0.0000000E+000
  0.0000000E+000
  0.0000000E+000
  0.0000000E+000
  0.0000000E+000
  0.0000000E+000
  0.0000000E+000
  0.0000000E+000
  0.0000000E+000
  0.0000000E+000
  0.0000000E+000
  0.0000000E+000
  0.0000000E+000
  0.0000000E+000
  0.0000000E+000
  0.0000000E+000
  0.0000000E+000
  0.0000000E+000
  0.0000000E+000
  0.0000000E+000
  0.0000000E+000
  0.0000000E+000
  0.0000000E+000
  0.0000000E+000
  0.0000000E+000
  0.0000000E+000
  0.0000000E+000
  0.0000000E+000
  0.0000000E+000
  0.0000000E+000
  0.0000000E+000
  0.0000000E+000
  0.0000000E+000
  0.0000000E+000
  0.0000000E+000
  0.0000000E+000
  0.0000000E+000
  0.0000000E+000
  0.0000000E+000
  0.0000000E+000
  0.0000000E+000
  0.0000000E+000
  0.0000000E+000
  0.0000000E+000
  0.0000000E+000
  0.0000000E+000
  0.0000000E+000
  0.0000000E+000
  0.0000000E+000
  0.0000000E+000
  0.0000000E+000
  0.0000000E+000
  0.0000000E+000
  0.0000000E+000
  0.0000000E+000
  0.0000000E+000
  0.0000000E+000
  0.0000000E+000
  0.0000000E+000
  0.0000000E+000
  0.0000000E+000
  0.0000000E+000
  0.0000000E+000
  0.0000000E+000
  0.0000000E+000
  0.0000000E+000
  0.0000000E+000
  0.0000000E+000
  0.0000000E+000
  0.0000000E+000
  0.0000000E+000
  0.0000000E+000
  0.0000000E+000
  0.0000000E+000
  0.0000000E+000
  0.0000000E+000
  0.0000000E+000
  0.0000000E+000
  0.0000000E+000
  0.0000000E+000
  0.0000000E+000
  0.0000000E+000
  0.0000000E+000
  0.0000000E+000
  0.0000000E+000
  0.0000000E+000
  0.0000000E+000
  0.0000000E+000
  0.0000000E+000
  0.0000000E+000
  0.0000000E+000
  0.0000000E+000
  0.0000000E+000
  0.0000000E+000
  0.0000000E+000
  0.0000000E+000
  0.0000000E+000
  0.0000000E+000
  0.0000000E+000
  0.0000000E+000
  0.0000000E+000
  0.0000000E+000
  0.0000000E+000
  0.0000000E+000
  0.0000000E+000
  0.0000000E+000
  0.0000000E+000
  0.0000000E+000
  0.0000000E+000
  0.0000000E+000
  0.0000000E+000
  0.0000000E+000
  0.0000000E+000
  0.0000000E+000
  0.0000000E+000
  0.0000000E+000
  0.0000000E+000
  0.0000000E+000
  0.0000000E+000
  0.0000000E+000
  0.0000000E+000
  0.0000000E+000
  0.0000000E+000
  0.0000000E+000
  0.0000000E+000
  0.0000000E+000
  0.0000000E+000
  0.0000000E+000
  0.0000000E+000
  0.0000000E+000
  0.0000000E+000
  0.0000000E+000
  0.0000000E+000
  0.0000000E+000
  0.0000000E+000
  0.0000000E+000
  0.0000000E+000
  0.0000000E+000
  0.0000000E+000
  0.0000000E+000
  0.0000000E+000
  0.0000000E+000
  0.0000000E+000
  0.0000000E+000
  0.0000000E+000
  0.0000000E+000
  0.0000000E+000
  0.0000000E+000
  0.0000000E+000
  0.0000000E+000
  0.0000000E+000
  0.0000000E+000
  0.0000000E+000
  0.0000000E+000
  0.0000000E+000
  0.0000000E+000
  0.0000000E+000
  0.0000000E+000
  0.0000000E+000
  0.0000000E+000
  0.0000000E+000
  0.0000000E+000
  0.0000000E+000
  0.0000000E+000
  0.0000000E+000
  0.0000000E+000
  0.0000000E+000
  0.0000000E+000
  0.0000000E+000
  0.0000000E+000
  0.0000000E+000
  0.0000000E+000
  0.0000000E+000
  0.0000000E+000
  0.0000000E+000
  0.0000000E+000
  0.0000000E+000
  0.0000000E+000
  0.0000000E+000
  0.0000000E+000
  0.0000000E+000
  0.0000000E+000
  0.0000000E+000
  0.0000000E+000
  0.0000000E+000
  0.0000000E+000
  0.0000000E+000
  0.0000000E+000
  0.0000000E+000
  0.0000000E+000
  0.0000000E+000
  0.0000000E+000
  0.0000000E+000
  0.0000000E+000
  0.0000000E+000
  0.0000000E+000
  0.0000000E+000
  0.0000000E+000
  0.0000000E+000
  0.0000000E+000
  0.0000000E+000
  0.0000000E+000
  0.0000000E+000
  0.0000000E+000
  0.0000000E+000
  0.0000000E+000
  0.0000000E+000
  0.0000000E+000
  0.0000000E+000
  0.0000000E+000
  0.0000000E+000
  0.0000000E+000
  0.0000000E+000
  0.0000000E+000
  0.0000000E+000
  0.0000000E+000
  0.0000000E+000
  0.0000000E+000
  0.0000000E+000
  0.0000000E+000
  0.0000000E+000
  0.0000000E+000
  0.0000000E+000
  0.0000000E+000
  0.0000000E+000
  0.0000000E+000
  0.0000000E+000
  0.0000000E+000
  0.0000000E+000
  0.0000000E+000
  0.0000000E+000
  0.0000000E+000
  0.0000000E+000
  0.0000000E+000
  0.0000000E+000
  0.0000000E+000
  0.0000000E+000
  0.0000000E+000
  0.0000000E+000
  0.0000000E+000
  0.0000000E+000
  0.0000000E+000
  0.0000000E+000
  0.0000000E+000
  0.0000000E+000
  0.0000000E+000
  0.0000000E+000
  0.0000000E+000
  0.0000000E+000
  0.0000000E+000
  0.0000000E+000
  0.0000000E+000
  0.0000000E+000
  0.0000000E+000
  0.0000000E+000
  0.0000000E+000
  0.0000000E+000
  0.0000000E+000
  0.0000000E+000
  0.0000000E+000
  0.0000000E+000
  0.0000000E+000
  0.0000000E+000
  0.0000000E+000
  0.0000000E+000
  0.0000000E+000
  0.0000000E+000
  0.0000000E+000
  0.0000000E+000
  0.0000000E+000
  0.0000000E+000
  0.0000000E+000
  0.0000000E+000
  0.0000000E+000
  0.0000000E+000
  0.0000000E+000
  0.0000000E+000
  0.0000000E+000
  0.0000000E+000
  0.0000000E+000
  0.0000000E+000
  0.0000000E+000
  0.0000000E+000
  0.0000000E+000
  0.0000000E+000
  0.0000000E+000
  0.0000000E+000
  0.0000000E+000
  0.0000000E+000
  0.0000000E+000
  0.0000000E+000
  0.0000000E+000
  0.0000000E+000
  0.0000000E+000
  0.0000000E+000
  0.0000000E+000
  0.0000000E+000
  0.0000000E+000
  0.0000000E+000
  0.0000000E+000
  0.0000000E+000
  0.0000000E+000
  0.0000000E+000
  0.0000000E+000
  0.0000000E+000
  0.0000000E+000
  0.0000000E+000
  0.0000000E+000
  0.0000000E+000
  0.0000000E+000
  0.0000000E+000
  0.0000000E+000
  0.0000000E+000
  0.0000000E+000
  0.0000000E+000
  0.0000000E+000
  0.0000000E+000
  0.0000000E+000
  0.0000000E+000
  0.0000000E+000
  0.0000000E+000
  0.0000000E+000
  0.0000000E+000
  0.0000000E+000
  0.0000000E+000
  0.0000000E+000
  0.0000000E+000
  0.0000000E+000
  0.0000000E+000
  0.0000000E+000
  0.0000000E+000
  0.0000000E+000
  0.0000000E+000
  0.0000000E+000
  0.0000000E+000
  0.0000000E+000
  0.0000000E+000
  0.0000000E+000
  0.0000000E+000
  0.0000000E+000
  0.0000000E+000
  0.0000000E+000
  0.0000000E+000
  0.0000000E+000
  0.0000000E+000
  0.0000000E+000
  0.0000000E+000
  0.0000000E+000
  0.0000000E+000
  0.0000000E+000
  0.0000000E+000
  0.0000000E+000
  0.0000000E+000
  0.0000000E+000
  0.0000000E+000
  0.0000000E+000
  0.0000000E+000
  0.0000000E+000
  0.0000000E+000
  0.0000000E+000
  0.0000000E+000
  0.0000000E+000
  0.0000000E+000
  0.0000000E+000
  0.0000000E+000
  0.0000000E+000
  0.0000000E+000
  0.0000000E+000
  0.0000000E+000
  0.0000000E+000
  0.0000000E+000
  0.0000000E+000
  0.0000000E+000
  0.0000000E+000
  0.0000000E+000
  0.0000000E+000
  0.0000000E+000
  0.0000000E+000
  0.0000000E+000
  0.0000000E+000
  0.0000000E+000
  0.0000000E+000
  0.0000000E+000
  0.0000000E+000
  0.0000000E+000
  0.0000000E+000
  0.0000000E+000
  0.0000000E+000
  0.0000000E+000
  0.0000000E+000
  0.0000000E+000
  0.0000000E+000
  0.0000000E+000
  0.0000000E+000
  0.0000000E+000
  0.0000000E+000
  0.0000000E+000
  0.0000000E+000
  0.0000000E+000
  0.0000000E+000
  0.0000000E+000
  0.0000000E+000
  0.0000000E+000
  0.0000000E+000
  0.0000000E+000
  0.0000000E+000
  0.0000000E+000
  0.0000000E+000
  0.0000000E+000
  0.0000000E+000
  0.0000000E+000
  0.0000000E+000
  0.0000000E+000
  0.0000000E+000
  0.0000000E+000
  0.0000000E+000
  0.0000000E+000
  0.0000000E+000
  0.0000000E+000
  0.0000000E+000
  0.0000000E+000
  0.0000000E+000
  0.0000000E+000
  0.0000000E+000
  0.0000000E+000
  0.0000000E+000
  0.0000000E+000
  0.0000000E+000
  0.0000000E+000
  0.0000000E+000
  0.0000000E+000
  0.0000000E+000
  0.0000000E+000
  0.0000000E+000
  0.0000000E+000
  0.0000000E+000
  0.0000000E+000
  0.0000000E+000
  0.0000000E+000
  0.0000000E+000
  0.0000000E+000
  0.0000000E+000
  0.0000000E+000
  0.0000000E+000
  0.0000000E+000
  0.0000000E+000
  0.0000000E+000
  0.0000000E+000
  0.0000000E+000
  0.0000000E+000
  0.0000000E+000
  0.0000000E+000
  0.0000000E+000
  0.0000000E+000
  0.0000000E+000
  0.0000000E+000
  0.0000000E+000
  0.0000000E+000
  0.0000000E+000
  0.0000000E+000
  0.0000000E+000
  0.0000000E+000
  0.0000000E+000
  0.0000000E+000
  0.0000000E+000
  0.0000000E+000
  0.0000000E+000
  0.0000000E+000
  0.0000000E+000
  0.0000000E+000
  0.0000000E+000
  0.0000000E+000
  0.0000000E+000
  0.0000000E+000
  0.0000000E+000
  0.0000000E+000
  0.0000000E+000
  0.0000000E+000
  0.0000000E+000
  0.0000000E+000
  0.0000000E+000
  0.0000000E+000
  0.0000000E+000
  0.0000000E+000
  0.0000000E+000
  0.0000000E+000
  0.0000000E+000
  0.0000000E+000
  0.0000000E+000
  0.0000000E+000
  0.0000000E+000
  0.0000000E+000
  0.0000000E+000
  0.0000000E+000
  0.0000000E+000
  0.0000000E+000
  0.0000000E+000
  0.0000000E+000
  0.0000000E+000
  0.0000000E+000
  0.0000000E+000
  0.0000000E+000
  0.0000000E+000
  0.0000000E+000
  0.0000000E+000
  0.0000000E+000
  0.0000000E+000
  0.0000000E+000
  0.0000000E+000
  0.0000000E+000
  0.0000000E+000
  0.0000000E+000
  0.0000000E+000
  0.0000000E+000
  0.0000000E+000
  0.0000000E+000
  0.0000000E+000
  0.0000000E+000
  0.0000000E+000
  0.0000000E+000
  0.0000000E+000
  0.0000000E+000
  0.0000000E+000
  0.0000000E+000
  0.0000000E+000
  0.0000000E+000
  0.0000000E+000
  0.0000000E+000
  0.0000000E+000
  0.0000000E+000
  0.0000000E+000
  0.0000000E+000
  0.0000000E+000
  0.0000000E+000
  0.0000000E+000
  0.0000000E+000
  0.0000000E+000
  0.0000000E+000
  0.0000000E+000
  0.0000000E+000
  0.0000000E+000
  0.0000000E+000
  0.0000000E+000
  0.0000000E+000
  0.0000000E+000
  0.0000000E+000
  0.0000000E+000
  0.0000000E+000
  0.0000000E+000
  0.0000000E+000
  0.0000000E+000
  0.0000000E+000
  0.0000000E+000
  0.0000000E+000
  0.0000000E+000
  0.0000000E+000
  0.0000000E+000
  0.0000000E+000
  0.0000000E+000
  0.0000000E+000
  0.0000000E+000
  0.0000000E+000
  0.0000000E+000
  0.0000000E+000
  0.0000000E+000
  0.0000000E+000
  0.0000000E+000
  0.0000000E+000
  0.0000000E+000
  0.0000000E+000
  0.0000000E+000
  0.0000000E+000
  0.0000000E+000
  0.0000000E+000
  0.0000000E+000
  0.0000000E+000
  0.0000000E+000
  0.0000000E+000
  0.0000000E+000
  0.0000000E+000
  0.0000000E+000
  0.0000000E+000
  0.0000000E+000
  0.0000000E+000
  0.0000000E+000
  0.0000000E+000
  0.0000000E+000
  0.0000000E+000
  0.0000000E+000
  0.0000000E+000
  0.0000000E+000
  0.0000000E+000
  0.0000000E+000
  0.0000000E+000
  0.0000000E+000
  0.0000000E+000
  0.0000000E+000
  0.0000000E+000
  0.0000000E+000
  0.0000000E+000
  0.0000000E+000
  0.0000000E+000
  0.0000000E+000
  0.0000000E+000
  0.0000000E+000
  0.0000000E+000
  0.0000000E+000
  0.0000000E+000
  0.0000000E+000
  0.0000000E+000
  0.0000000E+000
  0.0000000E+000
  0.0000000E+000
  0.0000000E+000
  0.0000000E+000
  0.0000000E+000
  0.0000000E+000
  0.0000000E+000
  0.0000000E+000
  0.0000000E+000
  0.0000000E+000
  0.0000000E+000
  0.0000000E+000
  0.0000000E+000
  0.0000000E+000
  0.0000000E+000
  0.0000000E+000
  0.0000000E+000
  0.0000000E+000
  0.0000000E+000
  0.0000000E+000
  0.0000000E+000
  0.0000000E+000
  0.0000000E+000
  0.0000000E+000
  0.0000000E+000
  0.0000000E+000
  0.0000000E+000
  0.0000000E+000
  0.0000000E+000
  0.0000000E+000
  0.0000000E+000
  0.0000000E+000
  0.0000000E+000
  0.0000000E+000
  0.0000000E+000
  0.0000000E+000
  0.0000000E+000
  0.0000000E+000
  0.0000000E+000
  0.0000000E+000
  0.0000000E+000
  0.0000000E+000
  0.0000000E+000
  0.0000000E+000
  0.0000000E+000
  0.0000000E+000
  0.0000000E+000
  0.0000000E+000
  0.0000000E+000
  0.0000000E+000
  0.0000000E+000
  0.0000000E+000
  0.0000000E+000
  0.0000000E+000
  0.0000000E+000
  0.0000000E+000
  0.0000000E+000
  0.0000000E+000
  0.0000000E+000
  0.0000000E+000
  0.0000000E+000
  0.0000000E+000
  0.0000000E+000
  0.0000000E+000
  0.0000000E+000
  0.0000000E+000
  0.0000000E+000
  0.0000000E+000
  0.0000000E+000
  0.0000000E+000
  0.0000000E+000
  0.0000000E+000
  0.0000000E+000
  0.0000000E+000
  0.0000000E+000
  0.0000000E+000
  0.0000000E+000
  0.0000000E+000
  0.0000000E+000
  0.0000000E+000
  0.0000000E+000
  0.0000000E+000
  0.0000000E+000
  0.0000000E+000
  0.0000000E+000
  0.0000000E+000
  0.0000000E+000
  0.0000000E+000
  0.0000000E+000
  0.0000000E+000
  0.0000000E+000
  0.0000000E+000
  0.0000000E+000
  0.0000000E+000
  0.0000000E+000
  0.0000000E+000
  0.0000000E+000
  0.0000000E+000
  0.0000000E+000
  0.0000000E+000
  0.0000000E+000
  0.0000000E+000
  0.0000000E+000
  0.0000000E+000
  0.0000000E+000
  0.0000000E+000
  0.0000000E+000
  0.0000000E+000
  0.0000000E+000
  0.0000000E+000
  0.0000000E+000
  0.0000000E+000
  0.0000000E+000
  0.0000000E+000
  0.0000000E+000
  0.0000000E+000
  0.0000000E+000
  0.0000000E+000
  0.0000000E+000
  0.0000000E+000
  0.0000000E+000
  0.0000000E+000
  0.0000000E+000
  0.0000000E+000
  0.0000000E+000
  0.0000000E+000
  0.0000000E+000
  0.0000000E+000
  0.0000000E+000
  0.0000000E+000
  0.0000000E+000
  0.0000000E+000
  0.0000000E+000
  0.0000000E+000
  0.0000000E+000
  0.0000000E+000
  0.0000000E+000
  0.0000000E+000
  0.0000000E+000
  0.0000000E+000
  0.0000000E+000
  0.0000000E+000
  0.0000000E+000
  0.0000000E+000
  0.0000000E+000
  0.0000000E+000
  0.0000000E+000
  0.0000000E+000
  0.0000000E+000
  0.0000000E+000
  0.0000000E+000
  0.0000000E+000
  0.0000000E+000
  0.0000000E+000
  0.0000000E+000
  0.0000000E+000
  0.0000000E+000
  0.0000000E+000
  0.0000000E+000
  0.0000000E+000
  0.0000000E+000
  0.0000000E+000
  0.0000000E+000
  0.0000000E+000
  0.0000000E+000
  0.0000000E+000
  0.0000000E+000
  0.0000000E+000
  0.0000000E+000
  0.0000000E+000
  0.0000000E+000
  0.0000000E+000
  0.0000000E+000
  0.0000000E+000
  0.0000000E+000
  0.0000000E+000
  0.0000000E+000
  0.0000000E+000
  0.0000000E+000
  0.0000000E+000
  0.0000000E+000
  0.0000000E+000
  0.0000000E+000
  0.0000000E+000
  0.0000000E+000
  0.0000000E+000
  0.0000000E+000
  0.0000000E+000
  0.0000000E+000
  0.0000000E+000
  0.0000000E+000
  0.0000000E+000
  0.0000000E+000
  0.0000000E+000
  0.0000000E+000
  0.0000000E+000
  0.0000000E+000
  0.0000000E+000
  0.0000000E+000
  0.0000000E+000
  0.0000000E+000
  0.0000000E+000
  0.0000000E+000
  0.0000000E+000
  0.0000000E+000
  0.0000000E+000
  0.0000000E+000
  0.0000000E+000
  0.0000000E+000
  0.0000000E+000
  0.0000000E+000
  0.0000000E+000
  0.0000000E+000
  0.0000000E+000
  0.0000000E+000
  0.0000000E+000
  0.0000000E+000
  0.0000000E+000
  0.0000000E+000
  0.0000000E+000
  0.0000000E+000
  0.0000000E+000
  0.0000000E+000
  0.0000000E+000
  0.0000000E+000
  0.0000000E+000
  0.0000000E+000
  0.0000000E+000
  0.0000000E+000
  0.0000000E+000
  0.0000000E+000
  0.0000000E+000
  0.0000000E+000
  0.0000000E+000
  0.0000000E+000
  0.0000000E+000
  0.0000000E+000
  0.0000000E+000
  0.0000000E+000
  0.0000000E+000
  0.0000000E+000
  0.0000000E+000
  0.0000000E+000
  0.0000000E+000
  0.0000000E+000
  0.0000000E+000
  0.0000000E+000
  0.0000000E+000
  0.0000000E+000
  0.0000000E+000
  0.0000000E+000
  0.0000000E+000
  0.0000000E+000
  0.0000000E+000
  0.0000000E+000
  0.0000000E+000
  0.0000000E+000
  0.0000000E+000
  0.0000000E+000
  0.0000000E+000
  0.0000000E+000
  0.0000000E+000
  0.0000000E+000
  0.0000000E+000
  0.0000000E+000
  0.0000000E+000
  0.0000000E+000
  0.0000000E+000
  0.0000000E+000
  0.0000000E+000
  0.0000000E+000
  0.0000000E+000
  0.0000000E+000
  0.0000000E+000
  0.0000000E+000
  0.0000000E+000
  0.0000000E+000
  0.0000000E+000
SCALARS Vonmises double
LOOKUP_TABLE default
  1.0445501E+005
  1.6962520E+005
  1.2257853E+005
  6.1138112E+004
  1.1986829E+005
  9.7544329E+004
  1.2021463E+005
  9.8000210E+004
  1.2413841E+005
  6.1530530E+004
  1.6798093E+005
  1.0225517E+005
  2.6036427E+003
  7.0506784E+003
  1.0480492E+004
  2.4095181E+003
  2.0663745E+004
  1.0208059E+004
  2.9023126E+004
  2.1602596E+004
  3.9229288E+004
  3.4945450E+004
  5.0652664E+004
  5.0230658E+004
  6.3523868E+004
  6.7067831E+004
  7.7533409E+004
  8.5678795E+004
  9.3071065E+004
  1.0519069E+005
  1.0812332E+005
  1.2962885E+005
  1.2779742E+005
  1.4706163E+005
  1.2538815E+005
  2.2183542E+005
  1.1880526E+005
  1.3926791E+005
  1.4117389E+005
  1.4364559E+005
  1.4664213E+005
  1.3000122E+005
  1.5342833E+005
  2.0294349E+005
  1.5040908E+005
  7.7629864E+004
  1.7224388E+005
  9.5091832E+004
  1.6664497E+004
  2.2166660E+004
  3.2248389E+004
  4.1358431E+004
  5.0318864E+004
  5.9457909E+004
  6.8964598E+004
  7.8898548E+004
  8.8740462E+004
  9.8319374E+004
  1.0256452E+005
  9.7477281E+004
  9.3505495E+004
  1.1603694E+005
  1.3477945E+005
  1.4144855E+005
  1.3585101E+005
  1.2921311E+005
  1.5427441E+005
  1.6234233E+005
  1.6338131E+005
  1.5041861E+005
  1.2080528E+005
  1.1980420E+005
  3.9227816E+004
  8.2736401E+003
  8.9071898E+003
  2.1658902E+004
  3.1159767E+004
  3.9401298E+004
  4.8617970E+004
  5.7418037E+004
  6.5793171E+004
  7.3711183E+004
  8.1022661E+004
  8.7356179E+004
  9.1295164E+004
  9.0795382E+004
  8.6472355E+004
  8.9314676E+004
  1.0141499E+005
  1.1844777E+005
  1.2846729E+005
  1.3090899E+005
  1.3646214E+005
  1.4795663E+005
  1.6258365E+005
  1.7902997E+005
  2.2811964E+005
  1.9299277E+005
  2.3025231E+005
  5.5639937E+004
  3.5653246E+004
  2.9947632E+004
  3.8092900E+004
  4.4645373E+004
  5.4216206E+004
  6.3013376E+004
  7.1208778E+004
  7.8388114E+004
  8.4399115E+004
  8.8693613E+004
  9.0340916E+004
  8.8520300E+004
  8.5071915E+004
  8.4164254E+004
  9.2219925E+004
  1.0450337E+005
  1.1531840E+005
  1.2290056E+005
  1.3073250E+005
  1.4302053E+005
  1.6120723E+005
  1.8362800E+005
  2.1730928E+005
  2.2773248E+005
  4.0343174E+005
  3.7619930E+004
  3.0893848E+004
  3.7940145E+004
  4.8540102E+004
  5.7907827E+004
  6.6895687E+004
  7.4775048E+004
  8.1568343E+004
  8.7050879E+004
  9.0771485E+004
  9.2035965E+004
  9.0558391E+004
  8.7196244E+004
  8.5407101E+004
  8.7919137E+004
  9.5116593E+004
  1.0366780E+005
  1.1169022E+005
  1.2013500E+005
  1.3075978E+005
  1.4426163E+005
  1.5726414E+005
  1.6801516E+005
  1.3430906E+005
  2.0943986E+005
  2.5176596E+005
  3.1840512E+005
  3.2191426E+005
  1.7153556E+005
  2.2518486E+004
  1.9959905E+004
  2.9491094E+004
  3.7126495E+004
  4.3033025E+004
  5.2674226E+004
  6.1785197E+004
  6.9931897E+004
  7.7199346E+004
  8.3699238E+004
  8.9295727E+004
  9.3517068E+004
  9.5734162E+004
  9.5501869E+004
  9.3249069E+004
  9.0416625E+004
  8.9364093E+004
  9.1098972E+004
  9.4936673E+004
  9.9604443E+004
  1.0475040E+005
  1.1050487E+005
  1.1572849E+005
  1.1692053E+005
  1.0687119E+005
  1.0729739E+005
  1.5687638E+005
  1.9666242E+005
  2.1663576E+005
  1.9791107E+005
  2.2555213E+005
  2.3601930E+005
  1.2969256E+005
  2.1228433E+004
  3.2469451E+004
  4.4062679E+004
  5.2191593E+004
  5.9170925E+004
  6.5920457E+004
  7.2175809E+004
  7.8457081E+004
  8.4958016E+004
  9.1359469E+004
  9.6994840E+004
  1.0107367E+005
  1.0296039E+005
  1.0244700E+005
  1.0006017E+005
  9.6824262E+004
  9.3816278E+004
  9.1466590E+004
  8.9520251E+004
  8.7764861E+004
  8.5572733E+004
  8.1449984E+004
  7.3519854E+004
  6.7812903E+004
  8.4829740E+004
  1.2051633E+005
  1.4611321E+005
  1.7249188E+005
  1.7214085E+005
  1.6584360E+005
  1.3537809E+005
  1.5875945E+005
  1.4410481E+005
  7.7681422E+004
  7.4224097E+003
  2.4226454E+003
  1.5619238E+004
  3.6977451E+004
  5.1023994E+004
  6.0947606E+004
  6.5619864E+004
  6.8718904E+004
  7.2654482E+004
  7.8531259E+004
  8.5992216E+004
  9.4144631E+004
  1.0199854E+005
  1.0862810E+005
  1.1323756E+005
  1.1524601E+005
  1.1435708E+005
  1.1061794E+005
  1.0435628E+005
  9.5918971E+004
  8.6060562E+004
  7.4779987E+004
  6.2645641E+004
  5.0188273E+004
  4.2342623E+004
  5.3514651E+004
  8.2922283E+004
  1.1527529E+005
  1.4200184E+005
  1.5360832E+005
  1.5300992E+005
  1.5283358E+005
  1.3559369E+005
  1.1157275E+005
  7.3802757E+004
  8.5778460E+004
  5.8709825E+004
  2.9252210E+004
  3.7936444E+003
  1.3252808E+004
  3.8402544E+004
  6.2218434E+004
  6.8769371E+004
  6.8234800E+004
  6.6991891E+004
  7.0737550E+004
  7.8557120E+004
  8.8573774E+004
  9.9330010E+004
  1.0980755E+005
  1.1921900E+005
  1.2685078E+005
  1.3195346E+005
  1.3363609E+005
  1.3094308E+005
  1.2309168E+005
  1.1038709E+005
  9.3455572E+004
  7.6100243E+004
  6.0076041E+004
  5.0694383E+004
  5.6706892E+004
  7.8557877E+004
  1.0695910E+005
  1.3323543E+005
  1.5220116E+005
  1.6318557E+005
  1.6601387E+005
  1.5824069E+005
  1.4266085E+005
  1.2560201E+005
  9.7124042E+004
  6.2353913E+004
  2.6773041E+004
  2.4861921E+004
  6.9463094E+003
  5.1053825E+003
  2.3146463E+004
  4.1817966E+004
  6.5124973E+004
  7.1715078E+004
  5.9894137E+004
  6.0798472E+004
  7.0315980E+004
  8.2740880E+004
  9.5924933E+004
  1.0900488E+005
  1.2158511E+005
  1.3333682E+005
  1.4384732E+005
  1.5243302E+005
  1.5787293E+005
  1.5793955E+005
  1.5038777E+005
  1.3445426E+005
  1.1583027E+005
  1.0037985E+005
  9.6040038E+004
  9.8446977E+004
  1.0846315E+005
  1.2784535E+005
  1.4916204E+005
  1.6681407E+005
  1.7813738E+005
  1.8359409E+005
  1.8370830E+005
  1.7859697E+005
  1.6689703E+005
  1.4665120E+005
  1.2034285E+005
  9.1922884E+004
  6.0643570E+004
  3.3653994E+004
  2.3275250E+004
  1.0974577E+004
  8.2551978E+004
  1.1102973E+005
  5.9650424E+004
  4.9156121E+004
  6.6846631E+004
  8.1915339E+004
  9.6768645E+004
  1.1061929E+005
  1.2407059E+005
  1.3726881E+005
  1.5031202E+005
  1.6312292E+005
  1.7534245E+005
  1.8582855E+005
  1.9178487E+005
  1.8682839E+005
  1.6953164E+005
  1.5259707E+005
  1.5699849E+005
  1.6969503E+005
  1.7771069E+005
  1.8252498E+005
  1.9103000E+005
  2.0439926E+005
  2.1040675E+005
  2.0994178E+005
  2.0751597E+005
  2.0440081E+005
  1.9925293E+005
  1.8949372E+005
  1.7352764E+005
  1.5087010E+005
  1.2320001E+005
  9.4352681E+004
  6.9265724E+004
  4.7572023E+004
  4.1521605E+004
  2.4638767E+004
  1.6028900E+005
  7.5586004E+004
  8.8345111E+004
  1.0010975E+005
  1.1006708E+005
  1.2065473E+005
  1.3139976E+005
  1.4277137E+005
  1.5486420E+005
  1.6789805E+005
  1.8208107E+005
  1.9752022E+005
  2.1398581E+005
  2.2950454E+005
  2.3666557E+005
  2.1661497E+005
  1.9746088E+005
  2.5667779E+005
  3.0645625E+005
  2.9760411E+005
  2.6236126E+005
  2.7568411E+005
  2.7795551E+005
  2.5999505E+005
  2.4377571E+005
  2.2996953E+005
  2.2118704E+005
  2.1634861E+005
  2.1004973E+005
  1.9787475E+005
  1.7938457E+005
  1.5617465E+005
  1.3101232E+005
  1.0624046E+005
  9.2059759E+004
  6.7269822E+004
  6.6863159E+004
  1.8494005E+004
  9.5591103E+004
  1.2876572E+005
  1.5337252E+005
  1.4317612E+005
  1.4456188E+005
  1.4742398E+005
  1.5329374E+005
  1.6110429E+005
  1.7086057E+005
  1.8265654E+005
  1.9690395E+005
  2.1421844E+005
  2.3566750E+005
  2.6157987E+005
  2.9363709E+005
  2.9819365E+005
  3.1933589E+005
  4.6340979E+005
  5.6351017E+005
  4.8892310E+005
  4.2046771E+005
  4.0878857E+005
  3.4869973E+005
  3.0694916E+005
  2.8381499E+005
  2.5127597E+005
  2.2970460E+005
  2.2677823E+005
  2.2477627E+005
  2.1705214E+005
  2.0353190E+005
  1.8524228E+005
  1.6465702E+005
  1.4407746E+005
  1.2935141E+005
  1.1324125E+005
  1.3257941E+005
  2.3018425E+005
  1.9464983E+005
  1.9571178E+005
  1.7791683E+005
  1.7194405E+005
  1.6917648E+005
  1.7050017E+005
  1.7465982E+005
  1.8150070E+005
  1.9101392E+005
  2.0374733E+005
  2.2019323E+005
  2.4349859E+005
  2.7102415E+005
  3.3114862E+005
  3.6054893E+005
  6.8479099E+005
  9.0015281E+005
  6.0280742E+005
  8.6764197E+005
  6.9400834E+005
  4.6871623E+005
  4.0973823E+005
  3.7189239E+005
  3.4897694E+005
  2.5444348E+005
  2.2948507E+005
  2.3232346E+005
  2.2988560E+005
  2.2597852E+005
  2.1897442E+005
  2.0620757E+005
  1.8977351E+005
  1.7380099E+005
  1.5570225E+005
  1.5409483E+005
  1.3976202E+005
  1.7284994E+005
  6.3589929E+004
  2.4188845E+004
  2.2628799E+004
  1.1841280E+004
  5.9704249E+004
  3.0449128E+004
  8.1737805E+004
  3.7539088E+004
  3.2047973E+004
  4.7217765E+004
  3.6080633E+004
  1.1933325E+005
  2.2887369E+005
  1.8511343E+005
  8.9357342E+004
  1.8991499E+005
  2.3609831E+005
  1.6621868E+005
  1.9592518E+005
  2.0253670E+005
  1.9304028E+005
  1.8554799E+005
  1.8073738E+005
  1.7912054E+005
  1.8030458E+005
  1.8413991E+005
  1.9058384E+005
  2.0013519E+005
  2.1261897E+005
  2.3218945E+005
  2.4888677E+005
  3.0700442E+005
  2.8221218E+005
  4.1015810E+005
  4.1783371E+005
  4.4649812E+005
  5.3308057E+005
  4.0618167E+005
  4.0543643E+005
  2.8052125E+005
  2.4551620E+005
  2.3047224E+005
  2.1408668E+005
  2.2119369E+005
  2.2170455E+005
  2.1395591E+005
  2.0183215E+005
  1.8831955E+005
  1.7572513E+005
  1.7128503E+005
  1.8301818E+005
  2.5735063E+005
  4.8616176E+003
  2.2521217E+004
  2.1777790E+004
  1.2647685E+004
  1.5768805E+004
  1.7593437E+004
  2.8465531E+004
  3.0840600E+004
  4.6593830E+004
  2.2835418E+004
  1.3637310E+004
  3.1668091E+004
  8.8057687E+003
  1.6257377E+005
  3.1336754E+005
  2.1939400E+005
  1.9014862E+005
  2.1562118E+005
  2.0314137E+005
  1.9069046E+005
  1.6725780E+005
  1.7969346E+005
  1.9120845E+005
  1.9059795E+005
  1.8565975E+005
  1.8106016E+005
  1.7806444E+005
  1.7704880E+005
  1.7803336E+005
  1.8103304E+005
  1.8597276E+005
  1.9318964E+005
  2.0136930E+005
  2.1218290E+005
  2.1390228E+005
  1.6661811E+005
  3.6660503E+004
  4.0442710E+005
  2.4014321E+005
  4.8450114E+005
  4.0743629E+005
  2.5553001E+005
  2.1794260E+005
  1.7384044E+005
  1.9929709E+005
  2.0595966E+005
  2.0446761E+005
  1.9635824E+005
  1.8629141E+005
  1.7692988E+005
  1.6875035E+005
  1.6338372E+005
  2.0072275E+005
  2.2970709E+005
  2.1612318E+005
  5.0438468E+004
  4.5578678E+004
  2.7182972E+004
  3.0992937E+004
  4.1621376E+004
  5.5313467E+004
  6.5588485E+004
  6.9876265E+004
  7.6077358E+004
  7.8234932E+004
  5.3165151E+004
  9.4447341E+004
  5.2569436E+004
  1.0424241E+005
  3.4623176E+004
  1.6111072E+005
  9.1488860E+004
  2.7259293E+005
  4.4553584E+005
  2.9749753E+005
  2.5649413E+005
  2.6779437E+005
  2.3407410E+005
  2.1138673E+005
  1.9158793E+005
  1.8171120E+005
  1.7391720E+005
  1.7326324E+005
  1.7775300E+005
  1.7883918E+005
  1.7612296E+005
  1.7217949E+005
  1.6856222E+005
  1.6589387E+005
  1.6435268E+005
  1.6385433E+005
  1.6420055E+005
  1.6461053E+005
  1.6452580E+005
  1.5878213E+005
  1.4340790E+005
  8.2699672E+004
  3.8819558E+004
  3.9566792E+005
  2.5258707E+005
  2.3415580E+005
  1.0470073E+005
  1.5278898E+005
  1.6807041E+005
  1.7386450E+005
  1.7085709E+005
  1.6712808E+005
  1.6105057E+005
  1.5881640E+005
  1.7020735E+005
  2.4450097E+005
  2.5991148E+005
  3.1839037E+005
  1.0694181E+005
  1.5385725E+004
  4.8165376E+004
  4.8996554E+004
  4.5713057E+004
  4.6447400E+004
  5.1357610E+004
  6.5341122E+004
  8.0979048E+004
  9.4305427E+004
  1.0544798E+005
  1.1356481E+005
  1.2234919E+005
  1.3778524E+005
  1.6204853E+005
  1.6610396E+005
  1.8509763E+005
  2.5873519E+005
  2.1738795E+005
  2.3365866E+005
  2.3056481E+005
  2.5553248E+005
  2.4503845E+005
  2.6976602E+005
  2.5757440E+005
  2.8613616E+005
  2.6925595E+005
  3.0084989E+005
  2.7990736E+005
  3.1460296E+005
  2.8996193E+005
  3.2750475E+005
  2.9981170E+005
  3.4001318E+005
  3.0966784E+005
  3.5240011E+005
  3.1960576E+005
  3.6452708E+005
  3.2929358E+005
  3.7697397E+005
  3.3990482E+005
  3.8821313E+005
  3.4782414E+005
  4.0924222E+005
  3.6637947E+005
  4.1397234E+005
  3.3086217E+005
  5.7198129E+005
  2.8335251E+005
  2.8032844E+005
  2.4090361E+005
  2.1254072E+005
  1.9912619E+005
  1.8350342E+005
  1.7243058E+005
  1.6603196E+005
  1.6424201E+005
  1.6416327E+005
  1.6344248E+005
  1.6093126E+005
  1.5716101E+005
  1.5302703E+005
  1.4905665E+005
  1.4540509E+005
  1.4194803E+005
  1.3823070E+005
  1.3349797E+005
  1.2598058E+005
  1.1313746E+005
  9.0385144E+004
  5.7613211E+004
  2.5433064E+004
  2.6366996E+005
  9.7917439E+004
  7.1492738E+004
  1.0874972E+005
  1.1704642E+005
  1.3037311E+005
  1.3307389E+005
  1.3218652E+005
  1.3506143E+005
  1.5031275E+005
  1.9095110E+005
  2.2881807E+005
  4.5180030E+005
  6.6889537E+004
  6.3857087E+004
  5.6358107E+004
  5.8919922E+004
  6.9762790E+004
  8.6901163E+004
  1.0493723E+005
  1.2050072E+005
  1.3262964E+005
  1.4275766E+005
  1.5313642E+005
  1.6593691E+005
  1.7461325E+005
  1.7479203E+005
  1.7758953E+005
  1.9332249E+005
  2.0927757E+005
  2.2090166E+005
  2.3053842E+005
  2.3822330E+005
  2.4461388E+005
  2.5048559E+005
  2.5665344E+005
  2.6337828E+005
  2.7018171E+005
  2.7623291E+005
  2.7969695E+005
  2.7960631E+005
  2.6370025E+005
  2.2761003E+005
  1.9782738E+005
  2.0648617E+005
  2.0518140E+005
  1.8973264E+005
  1.7707380E+005
  1.6726277E+005
  1.5908572E+005
  1.5362475E+005
  1.5039836E+005
  1.4833711E+005
  1.4602148E+005
  1.4280990E+005
  1.3870320E+005
  1.3402054E+005
  1.2904230E+005
  1.2384212E+005
  1.1824708E+005
  1.1182443E+005
  1.0375229E+005
  9.2842378E+004
  7.7331862E+004
  5.6404471E+004
  2.6747644E+004
  1.6139198E+004
  2.5393882E+004
  3.1122655E+004
  2.2131815E+005
  1.4102411E+005
  7.4203602E+004
  7.6548146E+004
  8.6682703E+004
  9.1665891E+004
  9.3592880E+004
  9.4916700E+004
  9.9331069E+004
  1.0860730E+005
  8.5528178E+004
  1.8380927E+005
  2.2448471E+005
  4.0761272E+005
  1.7946848E+005
  1.4129535E+005
  1.1517282E+005
  1.1760903E+005
  8.5358558E+004
  7.2956887E+004
  5.8960778E+004
  4.9436996E+004
  4.0677454E+004
  2.9934682E+004
  2.6532333E+004
  1.6476760E+004
  1.6120117E+004
  7.2566819E+003
  8.4619031E+003
  1.8317009E+003
  3.3367450E+003
  8.2643262E+002
  1.4280197E+003
  1.6130021E+003
  8.5243057E+004
  8.0674727E+004
  7.5543629E+004
  7.4163337E+004
  8.8562254E+004
  1.0896616E+005
  1.2736383E+005
  1.4222535E+005
  1.5384777E+005
  1.6319369E+005
  1.7135729E+005
  1.7777546E+005
  1.8044826E+005
  1.7934889E+005
  1.8006194E+005
  1.8427293E+005
  1.9274823E+005
  2.0111417E+005
  2.0731118E+005
  2.1088273E+005
  2.1220047E+005
  2.1313922E+005
  2.1526551E+005
  2.1877321E+005
  2.2248927E+005
  2.2448521E+005
  2.2225217E+005
  2.1234384E+005
  1.9284108E+005
  1.7112836E+005
  1.5963125E+005
  1.5923336E+005
  1.6200962E+005
  1.5935499E+005
  1.5299219E+005
  1.4662776E+005
  1.4113433E+005
  1.3673048E+005
  1.3334286E+005
  1.3034933E+005
  1.2714021E+005
  1.2331504E+005
  1.1879235E+005
  1.1366421E+005
  1.0803766E+005
  1.0192056E+005
  9.5162996E+004
  8.7419399E+004
  7.8137791E+004
  6.6593066E+004
  5.2090136E+004
  3.4348544E+004
  1.6570589E+004
  1.2704648E+004
  2.0204118E+004
  2.2240624E+004
  1.6453194E+004
  1.0786806E+005
  9.6268541E+004
  7.6269345E+004
  6.8378312E+004
  6.4936063E+004
  5.6979343E+004
  4.8014379E+004
  4.2542550E+004
  4.7720819E+004
  9.7673195E+004
  1.6448388E+005
  2.0555344E+005
  1.7705798E+005
  1.3832965E+005
  1.0404735E+005
  7.8615647E+004
  5.7700727E+004
  4.0935041E+004
  2.7362414E+004
  1.6782097E+004
  9.5106771E+003
  3.8280433E+003
  8.7972231E+002
  3.2200165E+003
  1.4729867E+003
  1.6317720E+003
  1.6323982E+003
  1.2208169E+003
  9.5662378E+004
  1.1429236E+005
  8.8602105E+004
  9.0356868E+004
  1.1333646E+005
  1.3345264E+005
  1.4922889E+005
  1.6055629E+005
  1.6880653E+005
  1.7484822E+005
  1.7893109E+005
  1.8074928E+005
  1.7998486E+005
  1.7746035E+005
  1.7505945E+005
  1.7574428E+005
  1.7901362E+005
  1.8365039E+005
  1.8666575E+005
  1.8563721E+005
  1.8095318E+005
  1.7553223E+005
  1.7309229E+005
  1.7358974E+005
  1.7473228E+005
  1.7333716E+005
  1.6737083E+005
  1.5506313E+005
  1.3929521E+005
  1.2497661E+005
  1.1924637E+005
  1.2224121E+005
  1.2621737E+005
  1.2756952E+005
  1.2623148E+005
  1.2342544E+005
  1.2027714E+005
  1.1719420E+005
  1.1419462E+005
  1.1108439E+005
  1.0758384E+005
  1.0350963E+005
  9.8803521E+004
  9.3496462E+004
  8.7635364E+004
  8.1221491E+004
  7.4169358E+004
  6.6287881E+004
  5.7292017E+004
  4.6860447E+004
  3.4845820E+004
  2.1815017E+004
  1.0588008E+004
  9.3312150E+003
  1.4504925E+004
  2.3056033E+004
  2.6135888E+005
  2.2565697E+005
  1.5034949E+005
  1.1052209E+005
  7.8280515E+004
  4.7716844E+004
  2.1440062E+004
  2.4653146E+004
  6.1608725E+004
  1.0739681E+005
  1.4875539E+005
  1.6550412E+005
  1.6451327E+005
  1.4176274E+005
  1.1549333E+005
  9.1119765E+004
  6.9933001E+004
  5.1599967E+004
  3.6144590E+004
  2.3650180E+004
  1.3965034E+004
  6.7663736E+003
  2.0080760E+003
  9.3896373E+002
  1.5345425E+003
  1.5022957E+003
  1.1554576E+003
  1.1900344E+005
  1.0409973E+005
  9.7758269E+004
  1.2592285E+005
  1.4661723E+005
  1.6191190E+005
  1.7009040E+005
  1.7473445E+005
  1.7771720E+005
  1.7920108E+005
  1.7888735E+005
  1.7662609E+005
  1.7269798E+005
  1.6799885E+005
  1.6408044E+005
  1.6203104E+005
  1.6263439E+005
  1.6526464E+005
  1.6773750E+005
  1.6324912E+005
  1.4967301E+005
  1.3672181E+005
  1.3103323E+005
  1.2842331E+005
  1.2623213E+005
  1.2444936E+005
  1.1590964E+005
  1.0256793E+005
  9.0308599E+004
  8.3866592E+004
  8.3655187E+004
  8.7904704E+004
  9.3242484E+004
  9.7182786E+004
  9.8938451E+004
  9.8975829E+004
  9.7975783E+004
  9.6331241E+004
  9.4166980E+004
  9.1467599E+004
  8.8174377E+004
  8.4245174E+004
  7.9683771E+004
  7.4529262E+004
  6.8833524E+004
  6.2634068E+004
  5.5931892E+004
  4.8681213E+004
  4.0799458E+004
  3.2219993E+004
  2.3029498E+004
  1.3804643E+004
  7.3319364E+003
  9.6785129E+003
  1.5569368E+004
  1.5542170E+004
  9.2057417E+003
  1.3330449E+004
  1.3421091E+005
  1.7218789E+005
  1.6986412E+005
  1.0591544E+005
  6.8878300E+004
  5.3481965E+004
  5.8078972E+004
  8.2954642E+004
  1.1567745E+005
  1.4409572E+005
  1.5961269E+005
  1.5668398E+005
  1.4313672E+005
  1.2277452E+005
  1.0119335E+005
  8.0486163E+004
  6.1432594E+004
  4.4428037E+004
  2.9870500E+004
  1.8074404E+004
  9.2963675E+003
  3.5929830E+003
  6.4709534E+002
  1.3182025E+003
  2.6442538E+003
  8.3768818E+004
  1.4854741E+005
  2.0082699E+005
  1.7378669E+005
  1.9305290E+005
  1.9302579E+005
  1.8812511E+005
  1.8377967E+005
  1.8086223E+005
  1.7768069E+005
  1.7303697E+005
  1.6680287E+005
  1.5958253E+005
  1.5234382E+005
  1.4615611E+005
  1.4204548E+005
  1.4056008E+005
  1.4174877E+005
  1.4557411E+005
  1.4686353E+005
  1.2345373E+005
  9.6630483E+004
  8.8626447E+004
  7.8482384E+004
  6.7481677E+004
  6.4580406E+004
  6.1089858E+004
  4.5792604E+004
  4.5863021E+004
  4.6192635E+004
  4.8227027E+004
  5.3814901E+004
  6.1763651E+004
  6.8151028E+004
  7.2099151E+004
  7.4448693E+004
  7.5452685E+004
  7.5326191E+004
  7.4257436E+004
  7.2330225E+004
  6.9609912E+004
  6.6166320E+004
  6.2061372E+004
  5.7363518E+004
  5.2154851E+004
  4.6525543E+004
  4.0559326E+004
  3.4320115E+004
  2.7852575E+004
  2.1206251E+004
  1.4512240E+004
  8.3460847E+003
  5.9835315E+003
  1.0763981E+004
  1.5910453E+004
  1.5382335E+004
  1.2471957E+004
  2.5453426E+005
  2.1501844E+005
  1.6394077E+005
  1.1926274E+005
  1.1211908E+005
  9.2593618E+004
  8.6722884E+004
  9.8671965E+004
  1.2016337E+005
  1.4016956E+005
  1.5096967E+005
  1.5097804E+005
  1.4108408E+005
  1.2560110E+005
  1.0738808E+005
  8.8502274E+004
  6.9881925E+004
  5.2147046E+004
  3.5950624E+004
  2.2197468E+004
  1.1583642E+004
  4.5903921E+003
  8.9156651E+002
  1.1530548E+003
  2.8642175E+003
  2.5681789E+005
  2.0778916E+005
  2.4977417E+005
  2.4849696E+005
  2.2251873E+005
  2.0025193E+005
  1.8675512E+005
  1.7922451E+005
  1.7213673E+005
  1.6336471E+005
  1.5315173E+005
  1.4237749E+005
  1.3201482E+005
  1.2303904E+005
  1.1616564E+005
  1.1219991E+005
  1.1019092E+005
  1.1378115E+005
  1.1042784E+005
  1.1580291E+005
  8.1565563E+004
  5.4577174E+004
  3.3591926E+004
  1.6714319E+004
  2.7153636E+004
  3.8517420E+004
  2.9636153E+004
  2.5527906E+004
  8.3602725E+003
  1.0458024E+004
  2.0291968E+004
  3.2755540E+004
  3.9946489E+004
  4.6265462E+004
  5.0834233E+004
  5.3563995E+004
  5.5029996E+004
  5.5248034E+004
  5.4299308E+004
  5.2403872E+004
  4.9706315E+004
  4.6308693E+004
  4.2301189E+004
  3.7796297E+004
  3.2938849E+004
  2.7881837E+004
  2.2762106E+004
  1.7688898E+004
  1.2747630E+004
  8.0573762E+003
  4.2011999E+003
  4.5925664E+003
  9.0323916E+003
  1.4765444E+004
  1.4899181E+004
  8.6209774E+003
  3.4130235E+005
  3.5944065E+005
  2.3909549E+005
  1.6413049E+005
  1.2579892E+005
  1.0918177E+005
  1.0899340E+005
  1.2272947E+005
  1.3769982E+005
  1.4587891E+005
  1.4522008E+005
  1.3755183E+005
  1.2519893E+005
  1.1035166E+005
  9.4173205E+004
  7.7190534E+004
  5.9698313E+004
  4.2478991E+004
  2.6474749E+004
  1.3474144E+004
  4.7736080E+003
  8.0312167E+002
  1.6252861E+003
  2.2820296E+003
  2.8925631E+005
  3.5846432E+005
  3.5298821E+005
  3.0736085E+005
  2.4698678E+005
  2.0268127E+005
  1.8415248E+005
  1.7528957E+005
  1.6504253E+005
  1.5233211E+005
  1.3835079E+005
  1.2405389E+005
  1.1028398E+005
  9.7861488E+004
  8.7558927E+004
  7.9845743E+004
  7.4672427E+004
  7.1553584E+004
  6.6966753E+004
  1.0967420E+005
  3.3618305E+004
  3.6329114E+004
  8.1548464E+004
  6.2992074E+004
  3.4579180E+004
  1.5484871E+004
  1.1710330E+004
  1.4289410E+004
  2.3057046E+004
  2.8196596E+004
  3.2927266E+004
  3.6180789E+004
  3.7627209E+004
  3.7793995E+004
  3.6871878E+004
  3.5100201E+004
  3.2602470E+004
  2.9439688E+004
  2.5755432E+004
  2.1754130E+004
  1.7647954E+004
  1.3622521E+004
  9.8233776E+003
  6.3736826E+003
  3.4572301E+003
  2.2407328E+003
  4.3073591E+003
  6.6633621E+003
  1.1800458E+004
  2.0895878E+004
  1.3326537E+004
  2.3665381E+005
  2.0306990E+005
  1.8916736E+005
  1.5251892E+005
  1.2635887E+005
  1.1514753E+005
  1.2486770E+005
  1.3671791E+005
  1.4186896E+005
  1.3961242E+005
  1.3209804E+005
  1.2164088E+005
  1.0967749E+005
  9.6836259E+004
  8.2817660E+004
  6.6977126E+004
  4.8931518E+004
  3.1399161E+004
  1.6340365E+004
  3.5778917E+003
  1.4965810E+003
  1.5004793E+003
  1.0552764E+003
  7.6357274E+005
  5.6613950E+005
  3.9486995E+005
  3.6688748E+005
  2.5100521E+005
  1.9511907E+005
  1.8073002E+005
  1.7292923E+005
  1.5876492E+005
  1.4266906E+005
  1.2585116E+005
  1.0891368E+005
  9.2348846E+004
  7.6737569E+004
  6.2838787E+004
  5.1454156E+004
  4.4062329E+004
  4.1833777E+004
  6.2242251E+004
  1.1066995E+005
  4.7595888E+004
  5.2284740E+004
  5.1884227E+004
  2.7457829E+004
  1.3913391E+004
  7.5291947E+003
  7.6886265E+003
  1.4656345E+004
  1.8651859E+004
  2.1803493E+004
  2.3047974E+004
  2.3091101E+004
  2.2446673E+004
  2.0987960E+004
  1.8742869E+004
  1.5919908E+004
  1.2799027E+004
  9.6591750E+003
  6.7557667E+003
  4.4009683E+003
  3.1699504E+003
  3.5303182E+003
  4.8152299E+003
  6.2607368E+003
  8.9231054E+003
  1.3264468E+004
  2.6699186E+004
  2.9919231E+005
  3.1094897E+005
  2.3271446E+005
  1.8431715E+005
  1.3392981E+005
  1.1923621E+005
  1.2948177E+005
  1.3934008E+005
  1.4023313E+005
  1.3448699E+005
  1.2525150E+005
  1.1504029E+005
  1.0505570E+005
  9.5202598E+004
  8.5350021E+004
  7.3545747E+004
  5.7961950E+004
  3.4754579E+004
  1.1193982E+004
  1.2327604E+003
  4.0000996E+003
  9.9787475E+002
  4.0292631E+002
  4.8673257E+005
  3.1010942E+005
  3.2989389E+005
  2.5663894E+005
  1.7888065E+005
  1.9002541E+005
  1.7248062E+005
  1.5455248E+005
  1.3647579E+005
  1.1888488E+005
  1.0149855E+005
  8.4505260E+004
  6.8333527E+004
  5.3757231E+004
  4.2092482E+004
  3.6033171E+004
  4.0794024E+004
  6.3943019E+004
  1.0158063E+005
  3.3326130E+004
  3.7960431E+004
  3.8412202E+004
  2.1023130E+004
  1.1909976E+004
  3.5234609E+003
  3.7048157E+003
  8.2439264E+003
  9.8000673E+003
  1.1142507E+004
  1.1801410E+004
  1.1421963E+004
  1.0090524E+004
  8.1374986E+003
  5.9914500E+003
  4.1175487E+003
  3.2126373E+003
  3.7203554E+003
  4.9116077E+003
  6.1602363E+003
  7.3309812E+003
  8.5379214E+003
  1.0475708E+004
  1.3469146E+004
  1.6487314E+004
  1.6809474E+005
  2.1595578E+005
  2.1291975E+005
  1.3363973E+005
  1.2537193E+005
  1.4219781E+005
  1.4742282E+005
  1.4225951E+005
  1.3139567E+005
  1.1850880E+005
  1.0645378E+005
  9.7065339E+004
  8.9713137E+004
  8.1702209E+004
  7.4896255E+004
  5.8328968E+004
  3.8969271E+004
  1.0945137E+004
  7.5952365E+003
  1.4462661E+005
  2.9363282E+005
  4.0933263E+005
  2.1530665E+005
  2.0303022E+005
  1.6992111E+005
  1.5121970E+005
  1.3396501E+005
  1.1841672E+005
  1.0334546E+005
  8.9046133E+004
  7.5973263E+004
  6.4815243E+004
  5.6236700E+004
  5.0474746E+004
  4.9620684E+004
  5.9793951E+004
  8.8862961E+004
  2.4067504E+004
  2.8394088E+004
  3.0898400E+004
  1.7923653E+004
  1.1491719E+004
  3.8990417E+003
  2.7369695E+003
  2.6944081E+003
  3.7356790E+003
  3.9198181E+003
  3.3345183E+003
  2.6124554E+003
  2.5879383E+003
  3.4982039E+003
  4.7593817E+003
  6.0225827E+003
  7.1430269E+003
  8.0559288E+003
  8.8279983E+003
  9.4920135E+003
  1.0411939E+004
  1.0930230E+004
  1.3606509E+004
  2.6530919E+005
  2.3477748E+005
  1.8457550E+005
  1.2379280E+005
  1.5402496E+005
  1.6552284E+005
  1.6159330E+005
  1.4918580E+005
  1.3270088E+005
  1.1523243E+005
  9.9353131E+004
  8.7544964E+004
  8.3398863E+004
  8.1071925E+004
  7.9389177E+004
  9.6497035E+004
  6.2179382E+004
  2.6824025E+005
  1.9796956E+005
  1.9733787E+005
  1.5651289E+005
  1.4637756E+005
  1.3306697E+005
  1.2213159E+005
  1.1121408E+005
  1.0114194E+005
  9.2117888E+004
  8.4310028E+004
  7.7262246E+004
  6.9220056E+004
  6.0015172E+004
  5.3367376E+004
  7.2606434E+004
  1.8447579E+004
  2.6000739E+004
  2.8167812E+004
  1.4904763E+004
  1.3639598E+004
  8.0163292E+003
  4.6404901E+003
  3.0713063E+003
  2.5146035E+003
  3.5832392E+003
  4.8556149E+003
  5.9280599E+003
  6.9055777E+003
  7.7818006E+003
  8.4860069E+003
  8.9597668E+003
  9.2271101E+003
  9.3469202E+003
  9.5292365E+003
  9.0220756E+003
  9.7960949E+003
  3.9116061E+005
  3.6253821E+005
  2.1474340E+005
  2.0084774E+005
  1.9505027E+005
  1.7931252E+005
  1.6071898E+005
  1.4004680E+005
  1.1936035E+005
  9.9915661E+004
  8.3485456E+004
  7.4342872E+004
  8.5963635E+004
  9.5251411E+004
  9.1377369E+004
  2.0122193E+004
  1.3065029E+005
  1.4697206E+005
  1.3996307E+005
  1.3626899E+005
  1.3179500E+005
  1.2609340E+005
  1.2021678E+005
  1.1441821E+005
  1.0896215E+005
  1.0353806E+005
  9.7271450E+004
  8.7543487E+004
  7.2656918E+004
  4.7791806E+004
  5.2008042E+004
  2.3713431E+004
  1.9260273E+004
  1.7606323E+004
  1.4091805E+004
  1.0912054E+004
  7.8375912E+003
  6.3087302E+003
  7.0674684E+003
  7.4337501E+003
  7.7473652E+003
  8.1736966E+003
  8.6207841E+003
  8.9573568E+003
  9.0421666E+003
  8.8394652E+003
  8.3911055E+003
  8.3656117E+003
  7.4351534E+003
  6.7953185E+003
  3.4445345E+005
  2.1403218E+005
  2.4850506E+005
  2.1252578E+005
  1.9717376E+005
  1.7340464E+005
  1.5193805E+005
  1.3103190E+005
  1.1134256E+005
  9.5006118E+004
  7.6987157E+004
  8.2864737E+004
  1.3861850E+005
  8.6740793E+004
  6.4797192E+004
  1.0811734E+005
  1.0774012E+005
  1.1741856E+005
  1.2559194E+005
  1.2740273E+005
  1.2782991E+005
  1.2677084E+005
  1.2505587E+005
  1.2270928E+005
  1.1935544E+005
  1.1395765E+005
  1.0419086E+005
  8.8283228E+004
  5.1102583E+004
  2.9771487E+004
  1.0772118E+004
  1.8033750E+004
  2.3554869E+004
  1.6069087E+004
  1.2898523E+004
  9.9354768E+003
  1.0083542E+004
  9.1176362E+003
  8.6008906E+003
  8.5424508E+003
  8.6721897E+003
  8.7369856E+003
  8.5772057E+003
  8.0493948E+003
  7.1061366E+003
  6.3786198E+003
  5.6064981E+003
  3.2635632E+003
  1.1138971E+005
  1.8622062E+005
  2.4098044E+005
  2.2549978E+005
  2.0531820E+005
  1.8372086E+005
  1.6315241E+005
  1.4438506E+005
  1.2827546E+005
  1.1343223E+005
  1.0663279E+005
  9.4430228E+004
  1.5899378E+005
  9.3711105E+004
  8.0702786E+004
  1.0334971E+005
  1.1123516E+005
  1.2063018E+005
  1.2578069E+005
  1.2946288E+005
  1.3147078E+005
  1.3205975E+005
  1.3063006E+005
  1.2667910E+005
  1.1675748E+005
  1.0425264E+005
  6.7094091E+004
  4.3514313E+004
  1.3357603E+004
  1.9299654E+004
  2.1579001E+004
  1.2632649E+004
  1.2345001E+004
  9.3857181E+003
  8.6383827E+003
  8.3712894E+003
  8.0646049E+003
  8.0165464E+003
  7.7537229E+003
  7.1070634E+003
  6.1021898E+003
  4.9802771E+003
  5.7727742E+003
  3.3459030E+003
  9.3836014E+004
  1.6403615E+005
  2.2974791E+005
  2.1881500E+005
  2.0531851E+005
  1.8623108E+005
  1.6872654E+005
  1.5267170E+005
  1.3921730E+005
  1.2731382E+005
  1.2077519E+005
  9.9172140E+004
  4.9918833E+004
  3.0769302E+004
  5.9415461E+004
  8.2396223E+004
  9.7285221E+004
  1.1027752E+005
  1.2036742E+005
  1.2804000E+005
  1.3355568E+005
  1.3685790E+005
  1.3756133E+005
  1.3465270E+005
  1.2688155E+005
  1.1114218E+005
  8.4069317E+004
  7.2635803E+004
  1.6397688E+004
  1.2248760E+004
  1.1151252E+004
  9.2335728E+003
  8.8436147E+003
  7.7445539E+003
  6.9225509E+003
  7.0214756E+003
  6.6629290E+003
  5.7867748E+003
  5.2044158E+003
  3.8281071E+003
  4.3322545E+003
  1.3339014E+005
  1.7506771E+005
  2.0359258E+005
  2.0416638E+005
  1.9426981E+005
  1.8038647E+005
  1.6586133E+005
  1.5213887E+005
  1.3950455E+005
  1.2804362E+005
  1.1398685E+005
  9.2825009E+004
  4.4998605E+004
  2.8278356E+004
  2.3514218E+004
  1.7970640E+004
  3.5998689E+004
  6.1909745E+004
  8.1248519E+004
  9.8228991E+004
  1.1203382E+005
  1.2325691E+005
  1.3186216E+005
  1.3775462E+005
  1.4051076E+005
  1.3940224E+005
  1.3328027E+005
  1.2039906E+005
  1.0503451E+005
  8.3358751E+004
  3.3625954E+004
  3.8714892E+004
  6.6488196E+003
  9.3238428E+003
  1.0997541E+004
  8.0539768E+003
  7.1567010E+003
  5.8198313E+003
  6.1132565E+003
  5.0708931E+003
  4.2521860E+003
  3.4613707E+003
  2.1106576E+003
  5.4228380E+002
  1.5790785E+005
  2.0278347E+005
  1.2376736E+005
  1.5635676E+005
  1.7568852E+005
  1.8150792E+005
  1.7650361E+005
  1.6702355E+005
  1.5548728E+005
  1.4327782E+005
  1.3073002E+005
  1.1700281E+005
  1.0029840E+005
  7.7562284E+004
  5.2302790E+004
  4.8829767E+004
  4.1086961E+003
  2.0383701E+004
  4.4378617E+004
  6.6007098E+004
  8.5395123E+004
  1.0203319E+005
  1.1609141E+005
  1.2734649E+005
  1.3555991E+005
  1.4044101E+005
  1.4122434E+005
  1.3833432E+005
  1.2923120E+005
  1.2927380E+005
  1.1379904E+005
  1.3981716E+005
  6.0783298E+003
  4.3070000E+003
  8.9021134E+003
  6.1322738E+003
  3.9768209E+003
  3.2381144E+003
  2.4555631E+003
  1.6649843E+003
  9.6768037E+002
  4.7773547E+002
  1.2660906E+005
  2.1611182E+005
  1.5365967E+005
  1.6611269E+005
  1.3453760E+005
  1.1177548E+005
  1.3522146E+005
  1.4890541E+005
  1.5647104E+005
  1.5535498E+005
  1.4935166E+005
  1.4031876E+005
  1.2941408E+005
  1.1688276E+005
  1.0233842E+005
  8.4912174E+004
  6.4733391E+004
  4.3261237E+004
  3.8662285E+004
  4.4497212E+004
  4.8166667E+004
  1.4282345E+003
  1.2804877E+004
  3.0985430E+004
  5.3137179E+004
  7.2894630E+004
  9.1527065E+004
  1.0765426E+005
  1.2098224E+005
  1.3118977E+005
  1.3795767E+005
  1.4104762E+005
  1.4007739E+005
  1.3670843E+005
  1.2834415E+005
  1.2342892E+005
  1.6680843E+005
  3.6577034E+003
  1.5739548E+003
  2.0317217E+003
  1.5109526E+003
  5.7687371E+002
  4.1067235E+002
  4.7019620E+004
  8.2869607E+004
  6.6704814E+004
  2.9461846E+004
  7.4237513E+004
  5.5030999E+004
  7.6850050E+004
  6.9507089E+004
  8.4537420E+004
  8.1984757E+004
  9.2519812E+004
  9.2476727E+004
  1.0140282E+005
  1.0318175E+005
  1.1201208E+005
  1.1424893E+005
  1.2312785E+005
  1.3182130E+005
  1.4283103E+005
  1.4432729E+005
  1.4226608E+005
  2.3659113E+005
  1.2796862E+005
  1.2481396E+005
  1.0630912E+005
  9.9662909E+004
  1.1300741E+005
  1.2587606E+005
  1.3282782E+005
  1.3402633E+005
  1.3046696E+005
  1.2351106E+005
  1.1400250E+005
  1.0232393E+005
  8.8554776E+004
  7.2907829E+004
  5.6564229E+004
  4.4435300E+004
  4.0665116E+004
  4.0007131E+004
  3.5240640E+004
  3.7417778E+004
  1.4119360E+004
  2.0855818E+004
  4.2004619E+004
  6.1923395E+004
  8.1628009E+004
  9.8924532E+004
  1.1364749E+005
  1.2535491E+005
  1.3379348E+005
  1.3884987E+005
  1.4030979E+005
  1.3925009E+005
  1.3265840E+005
  1.4150945E+005
  1.4077649E+005
  1.3649190E+005
  9.3821676E+004
  4.5916651E+004
  9.0021752E+004
  7.4983662E+004
  3.2591842E+004
  8.0326091E+004
  9.1964837E+004
  7.3895579E+004
  8.3795233E+004
  8.7946368E+004
  8.8029098E+004
  9.0327804E+004
  9.4541495E+004
  1.0020573E+005
  1.0658244E+005
  1.1380873E+005
  1.1646366E+005
  1.0919396E+005
  8.9049194E+004
  8.5362519E+004
  8.7294203E+004
  8.8010991E+004
  9.6074091E+004
  1.0592306E+005
  1.1240220E+005
  1.1449570E+005
  1.1259474E+005
  1.0737833E+005
  9.9489246E+004
  8.9412754E+004
  7.7623479E+004
  6.4977498E+004
  5.3209904E+004
  4.5025042E+004
  4.1149771E+004
  4.2503941E+004
  3.7453769E+004
  3.2416407E+004
  1.8899477E+004
  1.8893903E+004
  1.9128203E+004
  3.4642322E+004
  5.4323994E+004
  7.3088337E+004
  9.0668858E+004
  1.0598763E+005
  1.1860661E+005
  1.2832630E+005
  1.3511411E+005
  1.3933083E+005
  1.4140752E+005
  1.4579444E+005
  1.5537224E+005
  1.6700645E+005
  1.8278153E+005
  6.8089346E+004
  1.1639154E+005
  8.6695227E+004
  7.3165615E+004
  8.7937878E+004
  8.7295823E+004
  8.7040733E+004
  7.9224880E+004
  8.3728987E+004
  8.9114182E+004
  9.1218454E+004
  9.2379154E+004
  9.4173333E+004
  9.6551893E+004
  9.8953790E+004
  9.9587113E+004
  9.5990242E+004
  8.6716111E+004
  7.7904382E+004
  7.0568017E+004
  7.0243173E+004
  7.5110110E+004
  8.2116958E+004
  8.9617196E+004
  9.5205527E+004
  9.7650204E+004
  9.6850361E+004
  9.3141343E+004
  8.6984119E+004
  7.8895942E+004
  6.9537609E+004
  5.9879413E+004
  5.1311036E+004
  4.5085281E+004
  4.1802261E+004
  3.8726886E+004
  3.6654929E+004
  4.4619440E+004
  1.3419703E+004
  2.3888811E+004
  3.5515297E+004
  4.9232732E+004
  6.6543731E+004
  8.3358880E+004
  9.8402178E+004
  1.1126265E+005
  1.2170809E+005
  1.2989676E+005
  1.3642372E+005
  1.4295776E+005
  1.5232852E+005
  1.6535504E+005
  1.8696556E+005
  1.8176338E+005
  6.6664459E+004
  1.0102917E+005
  6.6400012E+004
  1.1234849E+005
  9.4909533E+004
  4.1321057E+004
  9.9620733E+004
  1.2150669E+005
  8.6725671E+004
  9.0631438E+004
  8.7907167E+004
  8.5942573E+004
  8.5865376E+004
  8.5369261E+004
  8.5779346E+004
  8.8319526E+004
  9.0145777E+004
  9.0914310E+004
  9.1244927E+004
  9.1310480E+004
  9.0560537E+004
  8.7982481E+004
  8.2596222E+004
  7.4794059E+004
  6.5742410E+004
  6.0594138E+004
  6.0248625E+004
  6.4036063E+004
  7.0101267E+004
  7.6247185E+004
  8.1014737E+004
  8.3537262E+004
  8.3539551E+004
  8.1144543E+004
  7.6680368E+004
  7.0616447E+004
  6.3583667E+004
  5.6398101E+004
  4.9965333E+004
  4.4885697E+004
  4.1113709E+004
  3.7438632E+004
  3.6485942E+004
  3.3527482E+004
  2.9917033E+004
  2.4104788E+004
  2.0969503E+004
  3.7580201E+004
  3.6510122E+004
  4.8039696E+004
  6.2643331E+004
  7.7126250E+004
  9.1121930E+004
  1.0350544E+005
  1.1395830E+005
  1.2272579E+005
  1.3082283E+005
  1.3925831E+005
  1.5268593E+005
  1.6652396E+005
  2.1479195E+005
  2.2714801E+005
  3.1969561E+005
  7.3231227E+004
  1.2262140E+005
  9.9188900E+004
  4.3402722E+004
  1.0232864E+005
  1.2351927E+005
  9.1834174E+004
  9.9706182E+004
  9.7320866E+004
  8.2708428E+004
  8.1910202E+004
  8.5056604E+004
  8.4996260E+004
  8.4782022E+004
  8.4585854E+004
  8.5222287E+004
  8.6134797E+004
  8.6861869E+004
  8.6887262E+004
  8.6178685E+004
  8.4702743E+004
  8.2160397E+004
  7.8081668E+004
  7.2236057E+004
  6.4997425E+004
  5.8173552E+004
  5.3442874E+004
  5.2644701E+004
  5.5436404E+004
  6.0180260E+004
  6.5226463E+004
  6.9352119E+004
  7.1868586E+004
  7.2492514E+004
  7.1236086E+004
  6.8316984E+004
  6.4106475E+004
  5.9107567E+004
  5.3915658E+004
  4.9085966E+004
  4.4969401E+004
  4.1438995E+004
  3.8932020E+004
  3.6449742E+004
  3.4116857E+004
  3.5587640E+004
  3.7792734E+004
  4.4399644E+004
  5.2261204E+004
  6.0193731E+004
  7.2382974E+004
  8.4594772E+004
  9.5492873E+004
  1.0505880E+005
  1.1341258E+005
  1.2127963E+005
  1.3021665E+005
  1.4114131E+005
  1.5978743E+005
  1.7647094E+005
  2.1624867E+005
  3.5552369E+005
  5.1585393E+004
  9.0888701E+004
  7.1351146E+004
  3.1490682E+004
  8.0305056E+004
  5.8720588E+004
  8.3526540E+004
  7.8077110E+004
  9.6605555E+004
  9.1276491E+004
  9.5884028E+004
  1.4732829E+005
  9.2990760E+004
  1.0181216E+005
  9.9834826E+004
  8.6967107E+004
  8.6936941E+004
  8.6534568E+004
  8.3395518E+004
  8.0318496E+004
  8.0559610E+004
  8.1593869E+004
  8.1963042E+004
  8.2212599E+004
  8.2384860E+004
  8.2540565E+004
  8.2338291E+004
  8.1543794E+004
  8.0002620E+004
  7.7602308E+004
  7.4180886E+004
  6.9585791E+004
  6.3859675E+004
  5.7537577E+004
  5.1618395E+004
  4.7673262E+004
  4.6651977E+004
  4.8479349E+004
  5.2077173E+004
  5.6152919E+004
  5.9731916E+004
  6.2221707E+004
  6.3345272E+004
  6.3056982E+004
  6.1483921E+004
  5.8886327E+004
  5.5621616E+004
  5.2087965E+004
  4.8633468E+004
  4.5450735E+004
  4.2609375E+004
  3.9989528E+004
  3.6955900E+004
  3.4863372E+004
  2.7688189E+004
  1.3784798E+004
  1.8490589E+004
  3.9140881E+004
  7.0249847E+004
  5.8826385E+004
  6.2917023E+004
  7.1029250E+004
  7.9057445E+004
  8.7626359E+004
  9.5254046E+004
  1.0193529E+005
  1.0827526E+005
  1.1507560E+005
  1.2349826E+005
  1.3329769E+005
  1.4429961E+005
  1.6074600E+005
  2.4027108E+005
  3.1909894E+005
  3.4823640E+005
  5.0769765E+004
  9.0192818E+004
  7.2156969E+004
  3.2989700E+004
  8.3565844E+004
  5.9167337E+004
  7.8854979E+004
  1.0592672E+005
  7.7384080E+004
  8.7318551E+004
  9.1628325E+004
  9.1703994E+004
  9.0752779E+004
  8.5874614E+004
  7.8830173E+004
  8.4005526E+004
  8.6563679E+004
  8.4917890E+004
  8.1787321E+004
  8.0437712E+004
  7.8504668E+004
  7.7400276E+004
  7.7257389E+004
  7.7711099E+004
  7.8165455E+004
  7.8315116E+004
  7.8229881E+004
  7.7811482E+004
  7.6949430E+004
  7.5498635E+004
  7.3357453E+004
  7.0441661E+004
  6.6678048E+004
  6.2051474E+004
  5.6722436E+004
  5.1142130E+004
  4.6143814E+004
  4.2686504E+004
  4.1529557E+004
  4.2652585E+004
  4.5324374E+004
  4.8602367E+004
  5.1715803E+004
  5.4166814E+004
  5.5692163E+004
  5.6208883E+004
  5.5771884E+004
  5.4541317E+004
  5.2746528E+004
  5.0635353E+004
  4.8404782E+004
  4.6150837E+004
  4.3809674E+004
  4.1218963E+004
  3.8329297E+004
  3.5407750E+004
  3.0332442E+004
  2.3743691E+004
  6.3627762E+004
  6.9763883E+004
  7.1719941E+004
  7.1029074E+004
  7.5803433E+004
  8.0719063E+004
  8.4957916E+004
  8.8830904E+004
  9.2484335E+004
  9.6412459E+004
  1.0109694E+005
  1.0679430E+005
  1.1726316E+005
  1.4797428E+005
  2.0916820E+005
  2.4052190E+005
  3.8001673E+005
  3.6730343E+005
  7.1215562E+004
  1.2108636E+005
  9.2250925E+004
  3.7622369E+004
  9.1794983E+004
  1.0169441E+005
  8.0981147E+004
  8.9085762E+004
  8.9217762E+004
  8.1877678E+004
  7.6129467E+004
  8.2237255E+004
  8.7688087E+004
  8.8099176E+004
  8.4981370E+004
  8.0198354E+004
  7.7799865E+004
  7.6899527E+004
  7.7975695E+004
  7.7416048E+004
  7.6406479E+004
  7.5151059E+004
  7.4245053E+004
  7.3555387E+004
  7.3404008E+004
  7.3592242E+004
  7.3778038E+004
  7.3729226E+004
  7.3304894E+004
  7.2447054E+004
  7.1080709E+004
  6.9152187E+004
  6.6624423E+004
  6.3470589E+004
  5.9676034E+004
  5.5274064E+004
  5.0433899E+004
  4.5542250E+004
  4.1210809E+004
  3.8173179E+004
  3.6950594E+004
  3.7566289E+004
  3.9535862E+004
  4.2181328E+004
  4.4912424E+004
  4.7319528E+004
  4.9161572E+004
  5.0331848E+004
  5.0829452E+004
  5.0734193E+004
  5.0176210E+004
  4.9292991E+004
  4.8173939E+004
  4.6800338E+004
  4.5002697E+004
  4.2491345E+004
  3.8875333E+004
  3.3411099E+004
  2.7608632E+004
  3.3208770E+004
  5.8449827E+004
  1.0570345E+005
  8.3713403E+004
  7.8579028E+004
  7.7093800E+004
  7.5147573E+004
  7.4858441E+004
  7.4769727E+004
  7.5064815E+004
  7.6041477E+004
  7.8122344E+004
  8.2535697E+004
  9.3807674E+004
  1.1323267E+005
  1.4085522E+005
  1.4851604E+005
  2.0073880E+005
  2.2070011E+005
  3.8695421E+005
  2.0775457E+005
  1.8310986E+005
  1.6447580E+005
  1.6773964E+005
  1.4696053E+005
  1.4154184E+005
  1.3314216E+005
  1.3101850E+005
  1.2495796E+005
  1.2681284E+005
  1.2283794E+005
  1.2235471E+005
  1.0913230E+005
  1.6195718E+005
  9.9641184E+004
  1.0276703E+005
  9.4274459E+004
  8.3034730E+004
  8.3781731E+004
  8.4269191E+004
  8.1259038E+004
  7.9643133E+004
  8.0210549E+004
  8.2346305E+004
  8.2438778E+004
  8.0059665E+004
  7.6556884E+004
  7.3295881E+004
  7.2178179E+004
  7.1802784E+004
  7.1624897E+004
  7.0995455E+004
  7.0312153E+004
  6.9679595E+004
  6.9314599E+004
  6.9177690E+004
  6.9171794E+004
  6.9099777E+004
  6.8761761E+004
  6.8021131E+004
  6.6789533E+004
  6.5032773E+004
  6.2757670E+004
  5.9999179E+004
  5.6793668E+004
  5.3148878E+004
  4.9100954E+004
  4.4772372E+004
  4.0470357E+004
  3.6681383E+004
  3.3958552E+004
  3.2705934E+004
  3.2963937E+004
  3.4411459E+004
  3.6569391E+004
  3.8995303E+004
  4.1359727E+004
  4.3446604E+004
  4.5135090E+004
  4.6382740E+004
  4.7208831E+004
  4.7671918E+004
  4.7836056E+004
  4.7726114E+004
  4.7252770E+004
  4.6179695E+004
  4.3983368E+004
  4.0290920E+004
  3.4469947E+004
  2.8972372E+004
  2.3417521E+004
  9.0896666E+004
  9.6021056E+004
  9.1616192E+004
  7.9296634E+004
  7.2211876E+004
  6.5627052E+004
  6.0315187E+004
  5.7020730E+004
  5.5508853E+004
  5.6205569E+004
  6.0459328E+004
  6.9507331E+004
  8.3017588E+004
  9.5967609E+004
  1.1230508E+005
  1.3656215E+005
  1.7623521E+005
  1.7069526E+005
  1.5495424E+005
  1.3690552E+005
  1.2422896E+005
  1.1394740E+005
  1.0323420E+005
  9.1544301E+004
  8.5048503E+004
  8.7142142E+004
  8.6341370E+004
  8.2875350E+004
  8.0319087E+004
  7.9456272E+004
  7.8182605E+004
  7.6893834E+004
  7.6959772E+004
  7.7194725E+004
  7.6649105E+004
  7.4798155E+004
  7.2136022E+004
  6.9734690E+004
  6.7975671E+004
  6.7078153E+004
  6.6487120E+004
  6.6013731E+004
  6.5531710E+004
  6.5137344E+004
  6.4856161E+004
  6.4689442E+004
  6.4535589E+004
  6.4244371E+004
  6.3655658E+004
  6.2633362E+004
  6.1093977E+004
  5.9021730E+004
  5.6479032E+004
  5.3586386E+004
  5.0435573E+004
  4.7072850E+004
  4.3446356E+004
  3.9621564E+004
  3.5814775E+004
  3.2435395E+004
  2.9943987E+004
  2.8670668E+004
  2.8670085E+004
  2.9731548E+004
  3.1520241E+004
  3.3710226E+004
  3.6039305E+004
  3.8314706E+004
  4.0406627E+004
  4.2241806E+004
  4.3794779E+004
  4.5073127E+004
  4.6095708E+004
  4.6861895E+004
  4.7306745E+004
  4.7162731E+004
  4.5904392E+004
  4.2711369E+004
  3.7604075E+004
  3.1249209E+004
  1.5473653E+004
  2.4748634E+003
  1.0010436E+004
  7.7871347E+004
  1.4264952E+005
  1.0843928E+005
  8.9451429E+004
  7.2689982E+004
  5.6545602E+004
  4.6319887E+004
  3.9524496E+004
  3.5972886E+004
  3.6342386E+004
  4.1346771E+004
  5.0577455E+004
  6.2416701E+004
  7.6761485E+004
  9.5040465E+004
  1.1759754E+005
  1.2736487E+005
  1.3437889E+005
  1.2874322E+005
  1.1880640E+005
  1.0808944E+005
  9.8129657E+004
  8.8790294E+004
  8.1828944E+004
  7.7992474E+004
  7.6798272E+004
  7.6489076E+004
  7.5407863E+004
  7.4426512E+004
  7.3627684E+004
  7.3010525E+004
  7.2562063E+004
  7.2231469E+004
  7.1930918E+004
  7.1116710E+004
  6.9596291E+004
  6.7584060E+004
  6.5519570E+004
  6.3879315E+004
  6.2705064E+004
  6.1923544E+004
  6.1343240E+004
  6.0895264E+004
  6.0541437E+004
  6.0275579E+004
  6.0047869E+004
  5.9768982E+004
  5.9311160E+004
  5.8532955E+004
  5.7304351E+004
  5.5532562E+004
  5.3204178E+004
  5.0430153E+004
  4.7423938E+004
  4.4429380E+004
  4.1397465E+004
  3.8277095E+004
  3.4919235E+004
  3.1511266E+004
  2.8415064E+004
  2.6065149E+004
  2.4760265E+004
  2.4565134E+004
  2.5341009E+004
  2.6856444E+004
  2.8873668E+004
  3.1182891E+004
  3.3608751E+004
  3.6013724E+004
  3.8300949E+004
  4.0411631E+004
  4.2314621E+004
  4.3993007E+004
  4.5433642E+004
  4.6626680E+004
  4.7540130E+004
  4.7624539E+004
  4.5666824E+004
  3.9236427E+004
  2.8899525E+004
  1.9510863E+004
  6.0413238E+003
  1.1964907E+005
  1.2490147E+005
  1.0399147E+005
  6.8158011E+004
  4.9009793E+004
  3.5773936E+004
  2.5435316E+004
  1.9146875E+004
  2.0052604E+004
  2.8002058E+004
  3.9489180E+004
  5.2859211E+004
  6.7668250E+004
  8.3196313E+004
  9.6604355E+004
  1.0744338E+005
  1.0918454E+005
  1.0638574E+005
  9.9660744E+004
  9.1555374E+004
  8.3476410E+004
  7.6515483E+004
  7.1155562E+004
  6.8229731E+004
  6.7163750E+004
  6.6876926E+004
  6.6817258E+004
  6.6725170E+004
  6.6715163E+004
  6.6716166E+004
  6.6693558E+004
  6.6617484E+004
  6.6299358E+004
  6.5579988E+004
  6.4375039E+004
  6.2807264E+004
  6.1148703E+004
  5.9636262E+004
  5.8425718E+004
  5.7507325E+004
  5.6827357E+004
  5.6314085E+004
  5.5922548E+004
  5.5605219E+004
  5.5301305E+004
  5.4920240E+004
  5.4347353E+004
  5.3455032E+004
  5.2116713E+004
  5.0222077E+004
  4.7714571E+004
  4.4705964E+004
  4.1575233E+004
  3.8645902E+004
  3.6218291E+004
  3.3596933E+004
  3.0689320E+004
  2.7526839E+004
  2.4568403E+004
  2.2269021E+004
  2.0917066E+004
  2.0572214E+004
  2.1141278E+004
  2.2464119E+004
  2.4369729E+004
  2.6685407E+004
  2.9244083E+004
  3.1898371E+004
  3.4533137E+004
  3.7066719E+004
  3.9439848E+004
  4.1595503E+004
  4.3477526E+004
  4.5048462E+004
  4.6461839E+004
  4.8179017E+004
  4.8555597E+004
  4.4603066E+004
  2.8411679E+004
  1.4674872E+004
  1.1524640E+005
  1.8466114E+005
  1.0395540E+005
  6.5141456E+004
  5.1080703E+004
  3.4791345E+004
  2.1923937E+004
  1.1157737E+004
  1.1920210E+004
  2.2831248E+004
  3.5591812E+004
  4.8785103E+004
  6.1839559E+004
  7.3876289E+004
  8.3682656E+004
  8.9137212E+004
  9.0936148E+004
  8.8372296E+004
  8.3267838E+004
  7.6881958E+004
  7.0504722E+004
  6.4974031E+004
  6.0940444E+004
  5.8431618E+004
  5.7345612E+004
  5.7225247E+004
  5.7622043E+004
  5.8277120E+004
  5.8989590E+004
  5.9657770E+004
  6.0184933E+004
  6.0472314E+004
  6.0433689E+004
  5.9982908E+004
  5.9113667E+004
  5.7918391E+004
  5.6564910E+004
  5.5239158E+004
  5.4062847E+004
  5.3092041E+004
  5.2320140E+004
  5.1718021E+004
  5.1243593E+004
  5.0846849E+004
  5.0460228E+004
  4.9996317E+004
  4.9350441E+004
  4.8410019E+004
  4.7062551E+004
  4.5196128E+004
  4.2688618E+004
  3.9480501E+004
  3.6024971E+004
  3.3511182E+004
  3.1343896E+004
  2.9514490E+004
  2.6846485E+004
  2.3776648E+004
  2.0818888E+004
  1.8507003E+004
  1.7106058E+004
  1.6665238E+004
  1.7093214E+004
  1.8292726E+004
  2.0147656E+004
  2.2508607E+004
  2.5203348E+004
  2.8069061E+004
  3.0977294E+004
  3.3838431E+004
  3.6584415E+004
  3.9139254E+004
  4.1361494E+004
  4.3087912E+004
  4.4087444E+004
  4.5186202E+004
  4.9093947E+004
  4.3395865E+004
  2.8387682E+004
  1.3843141E+004
  2.1962978E+005
  1.2135677E+005
  8.5367919E+004
  6.1159176E+004
  4.4172375E+004
  2.8729924E+004
  1.7492838E+004
  1.5886168E+004
  2.4385176E+004
  3.5667482E+004
  4.7137875E+004
  5.7859191E+004
  6.7016764E+004
  7.3724980E+004
  7.7476755E+004
  7.7724798E+004
  7.5220894E+004
  7.0646721E+004
  6.5108074E+004
  5.9532506E+004
  5.4677891E+004
  5.0970879E+004
  4.8640192E+004
  4.7583359E+004
  4.7594950E+004
  4.8367242E+004
  4.9575818E+004
  5.0948554E+004
  5.2261344E+004
  5.3354736E+004
  5.4115758E+004
  5.4462713E+004
  5.4360482E+004
  5.3828608E+004
  5.2951388E+004
  5.1860795E+004
  5.0697940E+004
  4.9581887E+004
  4.8585036E+004
  4.7738544E+004
  4.7040693E+004
  4.6468395E+004
  4.5978626E+004
  4.5507852E+004
  4.4971985E+004
  4.4273696E+004
  4.3316153E+004
  4.2017126E+004
  4.0308595E+004
  3.8101502E+004
  3.5134140E+004
  3.1180403E+004
  2.7900139E+004
  2.8060715E+004
  2.6337233E+004
  2.3455625E+004
  2.0089737E+004
  1.7037626E+004
  1.4702646E+004
  1.3370858E+004
  1.2896610E+004
  1.3232231E+004
  1.4357175E+004
  1.6219358E+004
  1.8676378E+004
  2.1529669E+004
  2.4590162E+004
  2.7721008E+004
  3.0843414E+004
  3.3918951E+004
  3.6902669E+004
  3.9713953E+004
  4.1939478E+004
  4.3490988E+004
  4.2049717E+004
  4.6399822E+004
  6.7523720E+004
  4.9039242E+004
  1.3799604E+005
  1.2614195E+005
  9.8634679E+004
  7.3945473E+004
  5.3591927E+004
  3.6554556E+004
  2.5019997E+004
  2.2344301E+004
  2.8094802E+004
  3.7133007E+004
  4.6534725E+004
  5.5092638E+004
  6.2062119E+004
  6.6855881E+004
  6.9053688E+004
  6.8691573E+004
  6.5999825E+004
  6.1654026E+004
  5.6397434E+004
  5.1000479E+004
  4.6097865E+004
  4.2172256E+004
  3.9501965E+004
  3.8215951E+004
  3.8224055E+004
  3.9263659E+004
  4.0960623E+004
  4.2931606E+004
  4.4862395E+004
  4.6526197E+004
  4.7777901E+004
  4.8540918E+004
  4.8795503E+004
  4.8576881E+004
  4.7968027E+004
  4.7084552E+004
  4.6052384E+004
  4.4983420E+004
  4.3962261E+004
  4.3040920E+004
  4.2242246E+004
  4.1562667E+004
  4.0972894E+004
  4.0415981E+004
  3.9808301E+004
  3.9049932E+004
  3.8048716E+004
  3.6751798E+004
  3.5170752E+004
  3.3362306E+004
  3.1454226E+004
  2.8310401E+004
  2.6038753E+004
  2.6532879E+004
  2.3797244E+004
  1.9012709E+004
  1.5934624E+004
  1.2793434E+004
  1.0945560E+004
  9.8724386E+003
  9.4504188E+003
  9.6962505E+003
  1.0745124E+004
  1.2653063E+004
  1.5266884E+004
  1.8317559E+004
  2.1570534E+004
  2.4884849E+004
  2.8209258E+004
  3.1569302E+004
  3.5026732E+004
  3.8712581E+004
  4.2603281E+004
  4.6623304E+004
  5.0008474E+004
  5.5316152E+004
  8.5339068E+004
  1.1936660E+005
  1.0939031E+005
  1.0302869E+005
  8.0924721E+004
  5.8623090E+004
  4.0818906E+004
  2.9897907E+004
  2.7293855E+004
  3.1574934E+004
  3.8764302E+004
  4.6361005E+004
  5.3199566E+004
  5.8614049E+004
  6.2153512E+004
  6.3564408E+004
  6.2799222E+004
  6.0105618E+004
  5.5900648E+004
  5.0747014E+004
  4.5228057E+004
  3.9901250E+004
  3.5267420E+004
  3.1786103E+004
  2.9817233E+004
  2.9502866E+004
  3.0631359E+004
  3.2721658E+004
  3.5238612E+004
  3.7745264E+004
  3.9944183E+004
  4.1659959E+004
  4.2810711E+004
  4.3386184E+004
  4.3431093E+004
  4.3031224E+004
  4.2297601E+004
  4.1348859E+004
  4.0295760E+004
  3.9229900E+004
  3.8219070E+004
  3.7305768E+004
  3.6506321E+004
  3.5807567E+004
  3.5160012E+004
  3.4474911E+004
  3.3627494E+004
  3.2508184E+004
  3.1020524E+004
  2.9356683E+004
  2.7232369E+004
  2.6734633E+004
  2.3137129E+004
  3.2153818E+004
  3.4971935E+004
  2.1186571E+004
  1.3066490E+004
  8.1583847E+003
  8.3490380E+003
  7.3879114E+003
  6.9518633E+003
  6.7040240E+003
  6.7536910E+003
  7.5962116E+003
  9.5601218E+003
  1.2399475E+004
  1.5698788E+004
  1.9150835E+004
  2.2613114E+004
  2.6075484E+004
  2.9617878E+004
  3.3441021E+004
  3.7861101E+004
  4.3548561E+004
  5.1310179E+004
  6.1246072E+004
  6.4464314E+004
  4.9382478E+004
  9.1187299E+004
  1.0695179E+005
  1.0496892E+005
  8.0303370E+004
  5.7714170E+004
  4.1410750E+004
  3.2452212E+004
  3.0762310E+004
  3.4327796E+004
  4.0136543E+004
  4.6302672E+004
  5.1854454E+004
  5.6223413E+004
  5.9033529E+004
  6.0063977E+004
  5.9269931E+004
  5.6772395E+004
  5.2854614E+004
  4.7896182E+004
  4.2327000E+004
  3.6587493E+004
  3.1137910E+004
  2.6504100E+004
  2.3311611E+004
  2.2109761E+004
  2.2948730E+004
  2.5240969E+004
  2.8195085E+004
  3.1191129E+004
  3.3843387E+004
  3.5944402E+004
  3.7408109E+004
  3.8231051E+004
  3.8466580E+004
  3.8205092E+004
  3.7557113E+004
  3.6638663E+004
  3.5559697E+004
  3.4416917E+004
  3.3289822E+004
  3.2238327E+004
  3.1298453E+004
  3.0474740E+004
  2.9730161E+004
  2.8964233E+004
  2.8014013E+004
  2.6663070E+004
  2.4826886E+004
  2.2382143E+004
  1.9985690E+004
  1.6651815E+004
  1.4997704E+004
  2.3069134E+004
  6.2839873E+003
  1.8992342E+003
  3.8497414E+003
  3.7933074E+003
  5.1910357E+003
  4.9762776E+003
  4.7502429E+003
  5.1797834E+003
  7.0575507E+003
  1.0211885E+004
  1.3827961E+004
  1.7474838E+004
  2.1064058E+004
  2.4612891E+004
  2.8228291E+004
  3.2110947E+004
  3.6736594E+004
  4.2731523E+004
  5.1607044E+004
  6.6076782E+004
  5.9453699E+004
  2.9534815E+004
  5.0218604E+004
  9.7256023E+004
  9.9491910E+004
  7.1239636E+004
  5.2696992E+004
  4.0272791E+004
  3.3997127E+004
  3.3387575E+004
  3.6431683E+004
  4.1120312E+004
  4.6150423E+004
  5.0762229E+004
  5.4466506E+004
  5.6923324E+004
  5.7915317E+004
  5.7352435E+004
  5.5278742E+004
  5.1853816E+004
  4.7326544E+004
  4.1997343E+004
  3.6195304E+004
  3.0282530E+004
  2.4706956E+004
  2.0107629E+004
  1.7370104E+004
  1.7181826E+004
  1.9182940E+004
  2.2274762E+004
  2.5544845E+004
  2.8474858E+004
  3.0812146E+004
  3.2460689E+004
  3.3420289E+004
  3.3750468E+004
  3.3545422E+004
  3.2915270E+004
  3.1972587E+004
  3.0824451E+004
  2.9568709E+004
  2.8293072E+004
  2.7072815E+004
  2.5964610E+004
  2.4992814E+004
  2.4132001E+004
  2.3299733E+004
  2.2259315E+004
  2.0702360E+004
  1.8171353E+004
  1.5087014E+004
  1.0649802E+004
  6.8443186E+003
  8.5826944E+003
  1.0833007E+003
  1.4699992E+003
  2.9777647E+003
  4.1273054E+003
  4.2726664E+003
  3.5822309E+003
  5.2143698E+003
  8.9158214E+003
  1.2811910E+004
  1.6641679E+004
  2.0365246E+004
  2.4024727E+004
  2.7679060E+004
  3.1521873E+004
  3.5639943E+004
  4.1315299E+004
  4.7350673E+004
  6.0853014E+004
  8.2019295E+004
  4.8929748E+004
  7.7021582E+004
  1.2700638E+005
  8.6098066E+004
  6.0195968E+004
  4.9583293E+004
  3.9503139E+004
  3.5807413E+004
  3.5602133E+004
  3.7986242E+004
  4.1641932E+004
  4.5733091E+004
  4.9658979E+004
  5.2976369E+004
  5.5349586E+004
  5.6541211E+004
  5.6417624E+004
  5.4950826E+004
  5.2211828E+004
  4.8351406E+004
  4.3578033E+004
  3.8140112E+004
  3.2324834E+004
  2.6485447E+004
  2.1115628E+004
  1.6974724E+004
  1.5053985E+004
  1.5767576E+004
  1.8241227E+004
  2.1279557E+004
  2.4135467E+004
  2.6450420E+004
  2.8086099E+004
  2.9028119E+004
  2.9332634E+004
  2.9092182E+004
  2.8412140E+004
  2.7396817E+004
  2.6143917E+004
  2.4746178E+004
  2.3293520E+004
  2.1874172E+004
  2.0566922E+004
  1.9421998E+004
  1.8425020E+004
  1.7474553E+004
  1.6490561E+004
  1.4773753E+004
  1.1973249E+004
  7.1486890E+003
  2.5309179E+003
  2.5249121E+003
  4.5718079E+002
  1.6461651E+003
  4.0940365E+003
  3.9946081E+003
  3.3807863E+003
  4.5199274E+003
  8.5353664E+003
  1.2636225E+004
  1.6627889E+004
  2.0535063E+004
  2.4416397E+004
  2.8290457E+004
  3.2206982E+004
  3.6314271E+004
  4.1006631E+004
  4.7707218E+004
  6.6232812E+004
  1.0810798E+005
  1.5901462E+005
  8.9810334E+004
  6.3483631E+004
  4.7737696E+004
  4.1171238E+004
  3.7807211E+004
  3.7516968E+004
  3.8951003E+004
  4.1611882E+004
  4.4900568E+004
  4.8327659E+004
  5.1459434E+004
  5.3941101E+004
  5.5501953E+004
  5.5962502E+004
  5.5236207E+004
  5.3324151E+004
  5.0303901E+004
  4.6315232E+004
  4.1548770E+004
  3.6243261E+004
  3.0697674E+004
  2.5304979E+004
  2.0611059E+004
  1.7345556E+004
  1.6166188E+004
  1.6993469E+004
  1.8953844E+004
  2.1150638E+004
  2.3042285E+004
  2.4382314E+004
  2.5102882E+004
  2.5235977E+004
  2.4860669E+004
  2.4069055E+004
  2.2947543E+004
  2.1574625E+004
  2.0025930E+004
  1.8386579E+004
  1.6751590E+004
  1.5221845E+004
  1.3884024E+004
  1.2760660E+004
  1.1701688E+004
  1.0418170E+004
  9.5876085E+003
  6.7763066E+003
  5.0472629E+003
  3.5041936E+003
  1.9291218E+003
  4.7307870E+003
  5.9672428E+003
  4.3966048E+003
  8.8652165E+003
  1.3054429E+004
  1.7205033E+004
  2.1416103E+004
  2.5685082E+004
  2.9999798E+004
  3.4425947E+004
  3.8974268E+004
  4.4172496E+004
  5.0194185E+004
  6.5276824E+004
  9.6578120E+004
  1.0363217E+005
  9.2875935E+004
  6.2034089E+004
  4.8711069E+004
  4.2903350E+004
  3.9920947E+004
  3.8815769E+004
  3.9240050E+004
  4.0931780E+004
  4.3535897E+004
  4.6607509E+004
  4.9702184E+004
  5.2428494E+004
  5.4474895E+004
  5.5617453E+004
  5.5719397E+004
  5.4725714E+004
  5.2654624E+004
  4.9588320E+004
  4.5665768E+004
  4.1080473E+004
  3.6085166E+004
  3.1003796E+004
  2.6247084E+004
  2.2311117E+004
  1.9691141E+004
  1.8626697E+004
  1.8851470E+004
  1.9744054E+004
  2.0716434E+004
  2.1403729E+004
  2.1652532E+004
  2.1445096E+004
  2.0831962E+004
  1.9879651E+004
  1.8644799E+004
  1.7169134E+004
  1.5502401E+004
  1.3708884E+004
  1.1885502E+004
  1.0146635E+004
  8.6134625E+003
  7.3931652E+003
  6.5717005E+003
  5.6585856E+003
  5.8094227E+003
  1.1534276E+004
  9.3418222E+003
  4.7933708E+003
  4.4097512E+003
  9.0543603E+003
  1.3512002E+004
  1.8028789E+004
  2.2733307E+004
  2.7505589E+004
  3.2383079E+004
  3.7464680E+004
  4.2887320E+004
  4.8791981E+004
  5.4636437E+004
  5.9297682E+004
  6.4101484E+004
  1.2200452E+005
  7.1465074E+004
  5.5345939E+004
  4.9388294E+004
  4.4477311E+004
  4.1370886E+004
  3.9355256E+004
  3.8746269E+004
  3.9552798E+004
  4.1573835E+004
  4.4403953E+004
  4.7570427E+004
  5.0635924E+004
  5.3243830E+004
  5.5128432E+004
  5.6110454E+004
  5.6088600E+004
  5.5030717E+004
  5.2966286E+004
  4.9981571E+004
  4.6218324E+004
  4.1875829E+004
  3.7214173E+004
  3.2553611E+004
  2.8260065E+004
  2.4697637E+004
  2.2128800E+004
  2.0585700E+004
  1.9824051E+004
  1.9451640E+004
  1.9121697E+004
  1.8624674E+004
  1.7894049E+004
  1.6942165E+004
  1.5801273E+004
  1.4480306E+004
  1.2976725E+004
  1.1285580E+004
  9.4662506E+003
  7.6111056E+003
  5.8411039E+003
  4.3022841E+003
  3.1331559E+003
  2.8788857E+003
  5.1371906E+003
  8.9472118E+003
  1.1701458E+004
  3.2144423E+003
  8.0091367E+003
  1.3679534E+004
  1.8936382E+004
  2.4268158E+004
  2.9532291E+004
  3.4862372E+004
  4.0379398E+004
  4.6316867E+004
  5.2721670E+004
  5.9026739E+004
  6.2541584E+004
  4.2655076E+004
  1.5072357E+004
  3.6644593E+004
  7.6528589E+004
  5.8291765E+004
  5.3155297E+004
  4.9280774E+004
  4.5699813E+004
  4.1835651E+004
  3.9040538E+004
  3.7473806E+004
  3.7496061E+004
  3.9021315E+004
  4.1693510E+004
  4.5006399E+004
  4.8470058E+004
  5.1680972E+004
  5.4335408E+004
  5.6219173E+004
  5.7193573E+004
  5.7183527E+004
  5.6169369E+004
  5.4182670E+004
  5.1305997E+004
  4.7675583E+004
  4.3484134E+004
  3.8978951E+004
  3.4447842E+004
  3.0187745E+004
  2.6449548E+004
  2.3371042E+004
  2.0942063E+004
  1.9015919E+004
  1.7380711E+004
  1.5887709E+004
  1.4455177E+004
  1.3074574E+004
  1.1738932E+004
  1.0408955E+004
  8.9971995E+003
  7.5139437E+003
  6.0232094E+003
  4.7294477E+003
  3.9193635E+003
  3.6521506E+003
  3.9701031E+003
  4.2594948E+003
  6.2056820E+003
  1.3639828E+004
  8.9829945E+003
  4.4297212E+003
  7.8798951E+003
  1.4059337E+004
  2.0193565E+004
  2.5972690E+004
  3.1567724E+004
  3.7049638E+004
  4.2521645E+004
  4.8072065E+004
  5.3860503E+004
  5.9524074E+004
  5.9075149E+004
  4.3396906E+004
  2.0682736E+004
  1.6707698E+004
  4.7926825E+003
  1.9608158E+004
  2.7929626E+004
  4.5298579E+004
  5.7115554E+004
  5.3351424E+004
  4.9662039E+004
  4.5483532E+004
  4.1412206E+004
  3.7870251E+004
  3.5546793E+004
  3.4869031E+004
  3.5961114E+004
  3.8523440E+004
  4.2022564E+004
  4.5909151E+004
  4.9731365E+004
  5.3151912E+004
  5.5929910E+004
  5.7898582E+004
  5.8947965E+004
  5.9013859E+004
  5.8072648E+004
  5.6141416E+004
  5.3282606E+004
  4.9611319E+004
  4.5300926E+004
  4.0580807E+004
  3.5711848E+004
  3.0952502E+004
  2.6518752E+004
  2.2517151E+004
  1.8972294E+004
  1.5898620E+004
  1.3220774E+004
  1.0947109E+004
  9.0699667E+003
  7.5636007E+003
  6.3086468E+003
  5.2533817E+003
  4.4285044E+003
  4.1845318E+003
  4.6640850E+003
  5.3404265E+003
  6.0529966E+003
  6.4132330E+003
  7.4225549E+003
  7.6606780E+003
  1.3616568E+004
  3.8927187E+003
  9.1239868E+003
  1.5874598E+004
  2.1973070E+004
  2.7914321E+004
  3.3559061E+004
  3.8900293E+004
  4.3830524E+004
  4.8261791E+004
  5.1931305E+004
  5.4734050E+004
  5.6456730E+004
  3.9845529E+004
  1.4687864E+004
  2.6384559E+003
  1.1986160E+003
  8.0226010E+003
  2.6078264E+004
  4.1361105E+004
  4.8821648E+004
  5.0495841E+004
  4.7904156E+004
  4.4170422E+004
  3.9993309E+004
  3.6087647E+004
  3.3154305E+004
  3.1862667E+004
  3.2541253E+004
  3.5003315E+004
  3.8691986E+004
  4.2991559E+004
  4.7399030E+004
  5.1548452E+004
  5.5181400E+004
  5.8113544E+004
  6.0209745E+004
  6.1368168E+004
  6.1512181E+004
  6.0589210E+004
  5.8575985E+004
  5.5491435E+004
  5.1415786E+004
  4.6508883E+004
  4.1028954E+004
  3.5277655E+004
  2.9506888E+004
  2.3983322E+004
  1.8890354E+004
  1.4258741E+004
  1.0367158E+004
  7.2103047E+003
  4.8687293E+003
  3.2686720E+003
  2.1051264E+003
  1.5665528E+003
  2.7406992E+003
  4.7132023E+003
  6.1823727E+003
  7.2858079E+003
  7.6611926E+003
  7.6032900E+003
  7.4713438E+003
  6.4112707E+003
  5.6154617E+003
  6.7272653E+003
  1.2615720E+004
  1.8348182E+004
  2.4190942E+004
  3.0002583E+004
  3.5538947E+004
  4.0593059E+004
  4.4906131E+004
  4.7909608E+004
  4.9661791E+004
  4.8188469E+004
  4.9521585E+004
  5.5190006E+004
  3.0943088E+004
  3.3751590E+003
  1.1784982E+004
  2.2936143E+004
  3.3941799E+004
  4.2047365E+004
  4.5140054E+004
  4.4623310E+004
  4.1806222E+004
  3.7961262E+004
  3.3931670E+004
  3.0564092E+004
  2.8708328E+004
  2.8957759E+004
  3.1288940E+004
  3.5135338E+004
  3.9803412E+004
  4.4734588E+004
  4.9539389E+004
  5.3952073E+004
  5.7782853E+004
  6.0883220E+004
  6.3123541E+004
  6.4379964E+004
  6.4529414E+004
  6.3453044E+004
  6.1047535E+004
  5.7260992E+004
  5.2153316E+004
  4.5917718E+004
  3.8970254E+004
  3.1900156E+004
  2.4858555E+004
  1.8009295E+004
  1.2135236E+004
  7.2129305E+003
  3.8767571E+003
  2.8436222E+003
  3.5688466E+003
  3.3553415E+003
  2.5740549E+003
  4.7961570E+003
  6.4906961E+003
  7.9732477E+003
  8.3316319E+003
  7.9227731E+003
  6.9625969E+003
  5.9964943E+003
  4.0834725E+003
  3.4379040E+003
  7.1128058E+003
  8.5762132E+003
  8.1016345E+003
  1.4272293E+004
  2.0478640E+004
  2.6334533E+004
  3.2058992E+004
  3.7494822E+004
  4.2386437E+004
  4.6334748E+004
  4.8779995E+004
  4.9301547E+004
  4.8272347E+004
  5.0551644E+004
  7.4447905E+004
  6.2128546E+003
  1.2087103E+004
  2.1588234E+004
  3.0443557E+004
  3.6932181E+004
  4.0447924E+004
  4.0900793E+004
  3.9021408E+004
  3.5660506E+004
  3.1697476E+004
  2.8028349E+004
  2.5649518E+004
  2.5426230E+004
  2.7563871E+004
  3.1505508E+004
  3.6465702E+004
  4.1824021E+004
  4.7172873E+004
  5.2250341E+004
  5.6875014E+004
  6.0899377E+004
  6.4178190E+004
  6.6550297E+004
  6.7826808E+004
  6.7785909E+004
  6.6184364E+004
  6.2759795E+004
  5.7329774E+004
  5.0121763E+004
  4.1730588E+004
  3.2729484E+004
  2.4290757E+004
  1.6451842E+004
  8.9911222E+003
  5.2829212E+003
  5.3027855E+003
  6.8418864E+003
  8.9745892E+003
  9.7776206E+003
  8.5490269E+003
  1.0185353E+004
  9.8085025E+003
  8.4781768E+003
  8.4213563E+003
  6.5398763E+003
  5.2747376E+003
  4.0526237E+003
  2.4588644E+003
  1.3020983E+003
  9.1343748E+003
  8.7864774E+003
  8.1488694E+003
  9.6429028E+003
  1.5682092E+004
  2.2133060E+004
  2.8181944E+004
  3.3910939E+004
  3.9340854E+004
  4.4292709E+004
  4.8397141E+004
  5.1140496E+004
  5.1945506E+004
  5.1682603E+004
  5.2708480E+004
  5.2037397E+004
  6.7269149E+003
  1.2462755E+004
  2.0371802E+004
  2.7391367E+004
  3.3100512E+004
  3.6589445E+004
  3.7568261E+004
  3.6308090E+004
  3.3414517E+004
  2.9610097E+004
  2.5753194E+004
  2.2899463E+004
  2.2157675E+004
  2.4020322E+004
  2.7972472E+004
  3.3121963E+004
  3.8779338E+004
  4.4524343E+004
  5.0110239E+004
  5.5379158E+004
  6.0202930E+004
  6.4437103E+004
  6.7889591E+004
  7.0317806E+004
  7.1405773E+004
  7.0732077E+004
  6.7869037E+004
  6.2323761E+004
  5.3401664E+004
  4.1617633E+004
  3.0663874E+004
  2.1391028E+004
  1.1461950E+004
  8.4349712E+003
  1.0611182E+004
  1.1088188E+004
  1.1332374E+004
  1.2400392E+004
  1.2562954E+004
  1.7547760E+004
  2.2336031E+004
  1.7272533E+004
  9.9140890E+003
  5.3989522E+003
  4.3003087E+003
  3.1527194E+003
  2.3311423E+003
  1.1065303E+003
  2.9147479E+002
  6.1542054E+003
  4.6137095E+003
  1.1649400E+004
  1.1381655E+004
  1.2649900E+004
  1.7768047E+004
  2.3852645E+004
  2.9775794E+004
  3.5452657E+004
  4.0884244E+004
  4.6021045E+004
  5.0644133E+004
  5.4234402E+004
  5.5860098E+004
  5.4779164E+004
  4.7840010E+004
  4.4743857E+004
  4.1732774E+003
  1.1574146E+004
  1.8923159E+004
  2.4785841E+004
  3.0167609E+004
  3.3576155E+004
  3.4777840E+004
  3.3930985E+004
  3.1419061E+004
  2.7811712E+004
  2.3866257E+004
  2.0615313E+004
  1.9336474E+004
  2.0843675E+004
  2.4710514E+004
  2.9928614E+004
  3.5733042E+004
  4.1695602E+004
  4.7594553E+004
  5.3310788E+004
  5.8757623E+004
  6.3822111E+004
  6.8294951E+004
  7.1837168E+004
  7.4090240E+004
  7.4529710E+004
  7.2066782E+004
  6.5741369E+004
  5.5784755E+004
  4.2315438E+004
  2.2053321E+004
  9.6213849E+003
  1.0649557E+004
  2.1166359E+004
  1.8461067E+004
  1.8191736E+004
  1.6292119E+004
  1.3757400E+004
  8.0267942E+003
  1.1555056E+004
  2.7328489E+003
  1.5881555E+003
  1.7422068E+003
  1.4159921E+003
  9.0540272E+002
  4.2434145E+002
  6.0455968E+001
  2.5840879E+004
  1.5578702E+004
  1.6051570E+004
  1.5796113E+004
  2.0319705E+004
  2.5621547E+004
  3.1156391E+004
  3.6598381E+004
  4.1910136E+004
  4.7084782E+004
  5.2156509E+004
  5.6833112E+004
  5.9371843E+004
  5.6784666E+004
  4.5070405E+004
  3.3168589E+004
  6.8989767E+003
  1.4498984E+004
  1.7092302E+004
  2.2912159E+004
  2.8136438E+004
  3.1214757E+004
  3.2528712E+004
  3.1971315E+004
  2.9768803E+004
  2.6367290E+004
  2.2422723E+004
  1.8883998E+004
  1.7103018E+004
  1.8200485E+004
  2.1889767E+004
  2.7050445E+004
  3.2839314E+004
  3.8822846E+004
  4.4809885E+004
  5.0731871E+004
  5.6567927E+004
  6.2278414E+004
  6.7723257E+004
  7.2449666E+004
  7.5674384E+004
  7.7229268E+004
  7.6796860E+004
  7.1521842E+004
  5.7100373E+004
  2.8384798E+004
  1.2832845E+004
  3.2864583E+003
  9.1185932E+003
  1.0065112E+003
  3.8287175E+002
  1.7949208E+002
  3.4544266E+002
  2.5466176E+002
  3.1124938E+002
  3.0138477E+004
  1.7621730E+004
  1.6663714E+004
  1.8529298E+004
  2.2435329E+004
  2.7163815E+004
  3.2223250E+004
  3.7314624E+004
  4.2363907E+004
  4.7262727E+004
  5.2013777E+004
  5.7284007E+004
  6.1833831E+004
  6.1353141E+004
  4.0942808E+004
  1.5008817E+004
  1.1230994E+004
  1.6528063E+004
  2.3390217E+004
  2.6620220E+004
  2.9415025E+004
  3.0845929E+004
  3.0490167E+004
  2.8499661E+004
  2.5305752E+004
  2.1436515E+004
  1.7727235E+004
  1.5539875E+004
  1.6228700E+004
  1.9672257E+004
  2.4662822E+004
  3.0284114E+004
  3.6096709E+004
  4.1938608E+004
  4.7795241E+004
  5.3728496E+004
  5.9821453E+004
  6.6095829E+004
  7.2439264E+004
  7.7451086E+004
  7.8794034E+004
  7.7478669E+004
  6.8981235E+004
  6.5832209E+004
  2.8420929E+004
  8.6069287E+003
  6.4462567E+002
  1.3796673E+002
  7.6393200E+001
  3.5648383E+002
  2.3765519E+002
  2.4774171E+002
  3.3039460E+002
  3.1229398E+002
  3.2822599E+004
  2.9970895E+004
  2.0331433E+004
  1.2846141E+004
  1.6131379E+004
  1.9726031E+004
  2.3788074E+004
  2.8279849E+004
  3.2941968E+004
  3.7691376E+004
  4.2455750E+004
  4.7118931E+004
  5.0963387E+004
  5.4007168E+004
  5.9786080E+004
  5.6246741E+004
  3.7276148E+004
  1.7780032E+004
  7.9723534E+003
  1.5762528E+004
  2.0339301E+004
  2.4068442E+004
  2.8169501E+004
  2.9904085E+004
  2.9496690E+004
  2.7633024E+004
  2.4700203E+004
  2.0923640E+004
  1.7124286E+004
  1.4668749E+004
  1.5027674E+004
  1.8208879E+004
  2.2957199E+004
  2.8300731E+004
  3.3791349E+004
  3.9286676E+004
  4.4817487E+004
  5.0528206E+004
  5.6642914E+004
  6.3452356E+004
  7.1218962E+004
  8.1196743E+004
  8.7783882E+004
  9.4078760E+004
  1.1727460E+005
  8.2937588E+004
  3.0753872E+001
  1.6210480E+002
  1.7161846E+002
  2.8782909E+002
  3.7558531E+002
  2.7007034E+002
  3.2091150E+004
  3.1261349E+004
  2.5332890E+004
  1.7668828E+004
  1.3374753E+004
  1.5550918E+004
  2.0156557E+004
  2.4638463E+004
  2.9062670E+004
  3.3482273E+004
  3.7926941E+004
  4.2581459E+004
  4.7337409E+004
  5.2566801E+004
  5.3134826E+004
  5.7023253E+004
  8.1657095E+004
  6.0246018E+004
  1.7985758E+004
  2.5464291E+004
  2.6957654E+004
  2.9995842E+004
  3.0024332E+004
  2.8675493E+004
  2.7493930E+004
  2.4718534E+004
  2.0913513E+004
  1.7043233E+004
  1.4469614E+004
  1.4649157E+004
  1.7627998E+004
  2.2135335E+004
  2.7172056E+004
  3.2280162E+004
  3.7323115E+004
  4.2354873E+004
  4.7590632E+004
  5.3352510E+004
  6.0270655E+004
  6.8703172E+004
  8.1177568E+004
  1.0376746E+005
  1.0868641E+005
  9.9261455E+004
  1.6619839E+001
  3.8091826E+001
  1.5461768E+002
  3.4071085E+004
  3.3290550E+004
  2.7475890E+004
  2.0396749E+004
  1.5172693E+004
  1.3221968E+004
  1.6042704E+004
  2.0704091E+004
  2.5418725E+004
  2.9874713E+004
  3.4144546E+004
  3.8373767E+004
  4.2795046E+004
  4.8118132E+004
  5.5367082E+004
  6.6045441E+004
  7.2343923E+004
  9.4560784E+004
  1.4354949E+004
  2.1671577E+004
  3.0720440E+004
  2.6464052E+004
  2.9847739E+004
  2.8649467E+004
  2.5504746E+004
  2.1417888E+004
  1.7497763E+004
  1.4913195E+004
  1.5094882E+004
  1.8008332E+004
  2.2369855E+004
  2.7182494E+004
  3.1986052E+004
  3.6635416E+004
  4.1195306E+004
  4.5882044E+004
  5.1235061E+004
  5.7713421E+004
  6.7608516E+004
  7.8002589E+004
  1.0692073E+005
  1.6242018E+005
  9.6177675E+004
  3.6025328E+004
  3.6532503E+004
  2.9400178E+004
  2.2354317E+004
  1.7108246E+004
  1.3427554E+004
  1.3510601E+004
  1.6980789E+004
  2.1708212E+004
  2.6506792E+004
  3.1042510E+004
  3.5305301E+004
  3.9375126E+004
  4.3540937E+004
  4.8294629E+004
  5.5338381E+004
  7.1282506E+004
  7.2999625E+004
  3.2648297E+004
  8.4315087E+003
  1.9980918E+004
  4.1515120E+004
  3.4248003E+004
  3.4424301E+004
  3.1097341E+004
  2.6707261E+004
  2.2595128E+004
  1.8538192E+004
  1.5986913E+004
  1.6320891E+004
  1.9348457E+004
  2.3731616E+004
  2.8503924E+004
  3.3219041E+004
  3.7726791E+004
  4.2071496E+004
  4.6484535E+004
  5.1509384E+004
  5.8076887E+004
  6.8530735E+004
  8.6458526E+004
  1.2257979E+005
  2.0690970E+005
  4.1046371E+004
  4.4044207E+004
  2.7655871E+004
  2.3739968E+004
  1.7914747E+004
  1.4021631E+004
  1.2360078E+004
  1.4145609E+004
  1.8215022E+004
  2.3085675E+004
  2.8004329E+004
  3.2717975E+004
  3.7148435E+004
  4.1404289E+004
  4.5253764E+004
  5.0057166E+004
  5.2861864E+004
  6.6333312E+004
  9.1700315E+004
  5.6025650E+004
  2.2551872E+004
  2.9019264E+004
  4.0077125E+004
  3.1504042E+004
  2.9479708E+004
  2.4753449E+004
  2.0341551E+004
  1.7638158E+004
  1.8253548E+004
  2.1556489E+004
  2.6132330E+004
  3.1077727E+004
  3.5988354E+004
  4.0706615E+004
  4.5246892E+004
  4.9822912E+004
  5.4856907E+004
  6.1474570E+004
  7.1406905E+004
  9.1692182E+004
  1.3689389E+005
  1.4847335E+005
  1.2939219E+004
  2.7141458E+004
  2.9134469E+004
  3.1668239E+004
  2.8782000E+004
  1.9201142E+004
  1.7385562E+004
  1.3651864E+004
  1.1486214E+004
  1.1878510E+004
  1.5018756E+004
  1.9601228E+004
  2.4670026E+004
  2.9781014E+004
  3.4764073E+004
  3.9592173E+004
  4.4251581E+004
  4.8883723E+004
  5.3234294E+004
  5.9422569E+004
  7.0027470E+004
  1.1252917E+005
  1.1074674E+004
  2.5346840E+004
  4.7210177E+004
  3.7360017E+004
  3.4218698E+004
  2.8088161E+004
  2.2682018E+004
  1.9807521E+004
  2.0801044E+004
  2.4468889E+004
  2.9300817E+004
  3.4594251E+004
  3.9956482E+004
  4.5194587E+004
  5.0299099E+004
  5.5391191E+004
  6.0887377E+004
  6.7016823E+004
  7.5908170E+004
  8.7106021E+004
  1.1492600E+005
  1.9316782E+005
  2.7252699E+004
  3.3430870E+004
  2.4521248E+004
  2.8766319E+004
  2.2760563E+004
  1.7179929E+004
  1.2706251E+004
  1.0237494E+004
  9.6058215E+003
  1.1817329E+004
  1.5967901E+004
  2.0972341E+004
  2.6262038E+004
  3.1587339E+004
  3.6866211E+004
  4.2116725E+004
  4.7401957E+004
  5.2832669E+004
  5.8194841E+004
  6.4493468E+004
  7.1674212E+004
  7.1050933E+004
  4.6700667E+004
  4.6952832E+004
  4.1321167E+004
  3.3798314E+004
  2.5790630E+004
  2.2298721E+004
  2.4035659E+004
  2.7731775E+004
  3.2783338E+004
  3.8565871E+004
  4.4572390E+004
  5.0519292E+004
  5.6344696E+004
  6.2165777E+004
  6.8182712E+004
  7.4682327E+004
  8.1707103E+004
  8.7703205E+004
  9.9210124E+004
  1.3135098E+005
  9.0447178E+003
  1.9060288E+004
  2.1412191E+004
  2.3033355E+004
  2.3314199E+004
  1.9663911E+004
  2.0405330E+004
  1.8884874E+004
  1.4702007E+004
  1.0450651E+004
  7.8191736E+003
  8.4464250E+003
  1.1991956E+004
  1.6856739E+004
  2.2202778E+004
  2.7687247E+004
  3.3177406E+004
  3.8658354E+004
  4.4183469E+004
  4.9836158E+004
  5.5784789E+004
  6.1721682E+004
  6.6257350E+004
  6.2388116E+004
  6.1173664E+004
  4.9110052E+004
  4.9834943E+004
  3.7513617E+004
  2.6550864E+004
  2.6679777E+004
  2.7499899E+004
  3.0659925E+004
  3.5964586E+004
  4.2452018E+004
  4.9262924E+004
  5.5966925E+004
  6.2464203E+004
  6.8868117E+004
  7.5390000E+004
  8.2240748E+004
  8.9428182E+004
  9.7482719E+004
  1.0863693E+005
  9.0384928E+004
  5.4167532E+004
  8.5849469E+004
  1.8094878E+004
  2.1621589E+004
  1.7256231E+004
  2.2011927E+004
  2.0287664E+004
  1.8611869E+004
  1.7439051E+004
  1.5633975E+004
  1.2639582E+004
  8.9305868E+003
  6.4164975E+003
  7.8780971E+003
  1.2282406E+004
  1.7634140E+004
  2.3240222E+004
  2.8849527E+004
  3.4392036E+004
  3.9897136E+004
  4.5444661E+004
  5.1013577E+004
  5.6645191E+004
  6.2279005E+004
  6.6841378E+004
  6.0127995E+004
  4.6278662E+004
  5.4761033E+004
  5.7372708E+004
  3.7681790E+004
  3.1522427E+004
  2.9868274E+004
  3.2233123E+004
  3.8262888E+004
  4.5821192E+004
  5.3589573E+004
  6.0970661E+004
  6.7878116E+004
  7.4474324E+004
  8.1002558E+004
  8.7642273E+004
  9.4525920E+004
  1.0157080E+005
  1.0405134E+005
  9.6675682E+004
  6.5355223E+004
  3.2318905E+004
  3.3758196E+004
  3.0721741E+004
  3.6964636E+004
  3.5033878E+004
  2.0933061E+004
  5.0545515E+004
  3.3170457E+004
  4.6661176E+003
  1.0030382E+004
  1.2491229E+004
  1.4104498E+004
  1.5963139E+004
  1.5131523E+004
  1.7204251E+004
  1.8329278E+004
  1.7630345E+004
  1.6167540E+004
  1.4236623E+004
  1.1455703E+004
  8.0882921E+003
  5.7712269E+003
  7.7293231E+003
  1.2630048E+004
  1.8324057E+004
  2.4111531E+004
  2.9750237E+004
  3.5192098E+004
  4.0521863E+004
  4.5842289E+004
  5.1144098E+004
  5.5799706E+004
  5.9044217E+004
  6.3836013E+004
  5.3581977E+004
  2.4833736E+004
  4.0741906E+004
  3.5367490E+004
  3.4854857E+004
  2.8562365E+004
  3.2045889E+004
  3.9376839E+004
  4.8548883E+004
  5.7337106E+004
  6.5171399E+004
  7.2057155E+004
  7.8296816E+004
  8.4157253E+004
  8.9729657E+004
  9.4752017E+004
  9.7744841E+004
  9.5866193E+004
  8.4815151E+004
  6.6514482E+004
  4.6207385E+004
  3.5310370E+004
  3.6008520E+004
  3.1922518E+004
  3.6924996E+004
  6.7688190E+004
  4.0291142E+004
  4.5538846E+004
  3.6444888E+004
  3.9298389E+004
  3.4765698E+004
  2.9325420E+004
  3.2208114E+004
  1.3898302E+004
  3.0180033E+004
  1.5401708E+004
  7.7764291E+003
  8.3328342E+003
  9.8464760E+003
  1.4440412E+004
  1.5679127E+004
  1.6134632E+004
  1.6820786E+004
  1.7273425E+004
  1.6975656E+004
  1.5835650E+004
  1.3908779E+004
  1.1231935E+004
  8.0189073E+003
  5.7629555E+003
  7.8651184E+003
  1.3047650E+004
  1.8997171E+004
  2.4911062E+004
  3.0470208E+004
  3.5657067E+004
  4.0591412E+004
  4.5559230E+004
  5.0515265E+004
  5.5693642E+004
  5.6140714E+004
  5.6494122E+004
  6.6705324E+004
  3.8446749E+004
  1.5476995E+004
  3.1558009E+004
  2.9509682E+004
  2.6539582E+004
  2.9954503E+004
  3.9773292E+004
  5.0766597E+004
  6.0529429E+004
  6.8357527E+004
  7.4676828E+004
  8.0020538E+004
  8.4703941E+004
  8.8669846E+004
  9.1348867E+004
  9.1578854E+004
  8.7682872E+004
  7.8676178E+004
  6.4850136E+004
  5.0417244E+004
  3.9844960E+004
  3.1456795E+004
  2.4685138E+004
  2.6767363E+004
  3.2380300E+004
  3.6363392E+004
  3.8874293E+004
  4.2843356E+004
  3.9581736E+004
  6.0922466E+004
  4.7818223E+004
  6.6919463E+003
  1.1334467E+004
  8.6693744E+003
  3.0667066E+003
  1.1819515E+004
  1.2989856E+004
  1.4767980E+004
  1.6449959E+004
  1.7074146E+004
  1.7253630E+004
  1.7276695E+004
  1.6881226E+004
  1.5869399E+004
  1.4150711E+004
  1.1677086E+004
  8.6252643E+003
  6.3690563E+003
  8.2009180E+003
  1.3534023E+004
  1.9781435E+004
  2.5761980E+004
  3.1145019E+004
  3.5919090E+004
  4.0326182E+004
  4.4628866E+004
  4.9450716E+004
  5.5221680E+004
  6.2515528E+004
  6.2976565E+004
  7.4837580E+004
  2.8908337E+004
  3.0948696E+004
  2.4930607E+004
  2.7360707E+004
  3.9468796E+004
  5.2975143E+004
  6.3178346E+004
  7.0308834E+004
  7.5468131E+004
  7.9597038E+004
  8.2953113E+004
  8.5348871E+004
  8.6241449E+004
  8.4810721E+004
  8.0262363E+004
  7.2285744E+004
  6.1815600E+004
  5.0462698E+004
  3.9711529E+004
  3.0419631E+004
  2.4008243E+004
  2.3096041E+004
  2.6782341E+004
  3.1401078E+004
  3.4818953E+004
  3.6822930E+004
  3.4782270E+004
  3.2838191E+004
  3.9668217E+004
  7.5180453E+004
  4.0765047E+004
  4.5101557E+004
  3.4093063E+004
  4.0941390E+004
  3.0026485E+004
  3.4329973E+004
  2.5767998E+004
  2.9905738E+004
  2.2116012E+004
  2.5034551E+004
  1.7857485E+004
  2.3163887E+004
  1.6749947E+004
  1.7819983E+004
  1.7002155E+004
  1.6883689E+004
  1.7185796E+004
  1.7544048E+004
  1.7713759E+004
  1.7658142E+004
  1.7407867E+004
  1.6925546E+004
  1.6046889E+004
  1.4598949E+004
  1.2470628E+004
  9.7760542E+003
  7.4096677E+003
  8.9200874E+003
  1.4364034E+004
  2.0788976E+004
  2.6821831E+004
  3.1872233E+004
  3.6150744E+004
  3.9936719E+004
  4.3588283E+004
  4.7419752E+004
  5.2519533E+004
  6.3702827E+004
  6.1486312E+004
  2.7202968E+004
  3.0061286E+004
  2.6167261E+004
  2.2927865E+004
  3.9736235E+004
  5.5270730E+004
  6.5093224E+004
  7.0389979E+004
  7.4154317E+004
  7.7147939E+004
  7.9419153E+004
  8.0673243E+004
  8.0422785E+004
  7.8143674E+004
  7.3466803E+004
  6.6437382E+004
  5.7583884E+004
  4.7880994E+004
  3.8292059E+004
  2.9645387E+004
  2.3216220E+004
  2.0840991E+004
  2.2428145E+004
  2.5342291E+004
  2.7458482E+004
  2.7181590E+004
  2.3400909E+004
  2.0872387E+004
  2.7821833E+004
  3.0486488E+004
  2.9363969E+004
  2.6541686E+004
  2.3944487E+004
  2.1584413E+004
  2.0379877E+004
  2.0689425E+004
  2.0490544E+004
  1.9931902E+004
  1.9133923E+004
  1.8554004E+004
  1.8173141E+004
  1.7833601E+004
  1.7474006E+004
  1.7089811E+004
  1.6634117E+004
  1.5997316E+004
  1.4914484E+004
  1.3287795E+004
  1.1199528E+004
  9.3484922E+003
  9.6462414E+003
  1.5241209E+004
  2.2388964E+004
  2.8112969E+004
  3.2635174E+004
  3.6370496E+004
  3.9803790E+004
  4.2818325E+004
  4.6545165E+004
  4.8348948E+004
  5.8127509E+004
  7.6736608E+004
  4.5853238E+004
  2.2745824E+004
  1.6435913E+004
  3.6538890E+004
  5.8109537E+004
  6.4201911E+004
  6.7783412E+004
  7.0631342E+004
  7.3003309E+004
  7.4707779E+004
  7.5337552E+004
  7.4486008E+004
  7.1816654E+004
  6.7183924E+004
  6.0726165E+004
  5.2903974E+004
  4.4371045E+004
  3.5857847E+004
  2.8131263E+004
  2.2118292E+004
  1.8819060E+004
  1.8340121E+004
  1.9271416E+004
  1.9733341E+004
  1.8552900E+004
  1.6572282E+004
  1.7749673E+004
  2.0648057E+004
  2.4046403E+004
  2.4982897E+004
  2.4371110E+004
  2.3238737E+004
  2.2337183E+004
  2.1946613E+004
  2.1714535E+004
  2.1496523E+004
  2.0700036E+004
  1.9692855E+004
  1.8721438E+004
  1.7874334E+004
  1.7154805E+004
  1.6547156E+004
  1.6045734E+004
  1.5656046E+004
  1.5315901E+004
  1.4881091E+004
  1.3638389E+004
  1.2483291E+004
  1.1823176E+004
  1.3788228E+004
  1.9075002E+004
  2.4775892E+004
  2.9455503E+004
  3.3033270E+004
  3.6558663E+004
  3.9886387E+004
  4.3208527E+004
  4.6485248E+004
  5.1512042E+004
  6.0240606E+004
  9.3492116E+004
  1.7703825E+004
  4.1384247E+004
  5.3748369E+004
  5.9438204E+004
  6.2434991E+004
  6.5369213E+004
  6.7858637E+004
  6.9514333E+004
  6.9945965E+004
  6.8841722E+004
  6.6017436E+004
  6.1460036E+004
  5.5374184E+004
  4.8170724E+004
  4.0414157E+004
  3.2726586E+004
  2.5733986E+004
  2.0052478E+004
  1.6222126E+004
  1.4359852E+004
  1.3731416E+004
  1.3212336E+004
  1.2369069E+004
  1.2325598E+004
  1.4298454E+004
  1.8079881E+004
  2.0974553E+004
  2.2715509E+004
  2.3242870E+004
  2.3130939E+004
  2.2801008E+004
  2.2408887E+004
  2.1947653E+004
  2.1164245E+004
  2.0156418E+004
  1.8969583E+004
  1.7762491E+004
  1.6643063E+004
  1.5658708E+004
  1.4833701E+004
  1.4198596E+004
  1.3779790E+004
  1.3671756E+004
  1.3830774E+004
  1.3956361E+004
  1.3051024E+004
  1.8192615E+004
  1.9346208E+004
  2.2702082E+004
  2.7349919E+004
  2.9442885E+004
  3.3073087E+004
  3.6740025E+004
  4.0273196E+004
  4.3825973E+004
  4.7703019E+004
  5.3396401E+004
  6.1477721E+004
  6.0316246E+004
  6.5328813E+004
  5.2779743E+004
  5.2775558E+004
  5.6115668E+004
  5.9746003E+004
  6.2764731E+004
  6.4621984E+004
  6.5039766E+004
  6.3830276E+004
  6.0926728E+004
  5.6405806E+004
  5.0510957E+004
  4.3645127E+004
  3.6323578E+004
  2.9109596E+004
  2.2543817E+004
  1.7079429E+004
  1.3008193E+004
  1.0370779E+004
  8.8933391E+003
  8.2147071E+003
  8.5118234E+003
  1.0309004E+004
  1.3479694E+004
  1.6789278E+004
  1.9655719E+004
  2.1537227E+004
  2.2546622E+004
  2.2811672E+004
  2.2573666E+004
  2.1985687E+004
  2.1117559E+004
  2.0047916E+004
  1.8784033E+004
  1.7419232E+004
  1.6035515E+004
  1.4715005E+004
  1.3522337E+004
  1.2500654E+004
  1.1664872E+004
  1.1104290E+004
  1.0760113E+004
  1.1454182E+004
  1.1373683E+004
  1.7505306E+004
  2.1817559E+004
  3.7102610E+004
  5.2707980E+004
  3.1888324E+004
  3.0154197E+004
  3.4188668E+004
  3.7502359E+004
  4.0919544E+004
  4.4368944E+004
  4.8070274E+004
  5.2415770E+004
  5.4537224E+004
  5.5712004E+004
  7.9071977E+004
  5.2341051E+004
  4.7915995E+004
  5.1596831E+004
  5.5627489E+004
  5.8848258E+004
  6.0727578E+004
  6.1050667E+004
  5.9709889E+004
  5.6704297E+004
  5.2152795E+004
  4.6312154E+004
  3.9569463E+004
  3.2408476E+004
  2.5353269E+004
  1.8908593E+004
  1.3502501E+004
  9.4102556E+003
  6.7092345E+003
  5.4624916E+003
  5.9755812E+003
  8.0683276E+003
  1.1189672E+004
  1.4387684E+004
  1.7242226E+004
  1.9465048E+004
  2.1120996E+004
  2.2072648E+004
  2.2351070E+004
  2.1916071E+004
  2.0978041E+004
  1.9748813E+004
  1.8370467E+004
  1.6918292E+004
  1.5410817E+004
  1.3885364E+004
  1.2404706E+004
  1.1043859E+004
  9.8459374E+003
  8.8155779E+003
  7.9393396E+003
  7.2134180E+003
  7.2979984E+003
  5.4011500E+003
  7.6424022E+003
  7.2600468E+004
  4.5683672E+004
  3.7640845E+004
  3.7845302E+004
  3.9423081E+004
  4.1971590E+004
  4.4696955E+004
  4.7482125E+004
  4.9811989E+004
  5.0692863E+004
  4.9304303E+004
  5.8248596E+004
  4.9853632E+004
  4.7632235E+004
  5.1166541E+004
  5.4073307E+004
  5.6780879E+004
  5.8203315E+004
  5.8206251E+004
  5.6624466E+004
  5.3463497E+004
  4.8833214E+004
  4.2974418E+004
  3.6249470E+004
  2.9113596E+004
  2.2066785E+004
  1.5616433E+004
  1.0299931E+004
  6.7980144E+003
  5.6281942E+003
  6.2808938E+003
  8.1476072E+003
  1.1396400E+004
  1.4619908E+004
  1.7305840E+004
  1.9050641E+004
  2.0215140E+004
  2.1097938E+004
  2.1876070E+004
  2.1860883E+004
  2.1057221E+004
  1.9627612E+004
  1.7992778E+004
  1.6383617E+004
  1.4818264E+004
  1.3241837E+004
  1.1631615E+004
  1.0029787E+004
  8.5391353E+003
  7.2402485E+003
  6.0712247E+003
  4.9270507E+003
  3.9468342E+003
  2.7151951E+003
  2.0191682E+003
  3.4098078E+003
  5.1181792E+004
  5.4482640E+004
  4.6123736E+004
  4.2489798E+004
  4.2181004E+004
  4.3236680E+004
  4.4928602E+004
  4.6541969E+004
  4.7643723E+004
  4.7279982E+004
  4.5754796E+004
  3.3782709E+004
  1.7161120E+004
  4.1499050E+004
  5.4161929E+004
  5.2429653E+004
  5.3128351E+004
  5.4833910E+004
  5.6312024E+004
  5.7001793E+004
  5.6487678E+004
  5.4592723E+004
  5.1261268E+004
  4.6568856E+004
  4.0721718E+004
  3.4059826E+004
  2.7044688E+004
  2.0228237E+004
  1.4264252E+004
  1.0108524E+004
  8.8543526E+003
  9.7007175E+003
  1.0994654E+004
  1.3513880E+004
  1.6614892E+004
  2.0284079E+004
  2.2272432E+004
  2.2524817E+004
  2.1901266E+004
  2.1721648E+004
  2.1693043E+004
  2.1593325E+004
  2.0201835E+004
  1.8104377E+004
  1.6035946E+004
  1.4284963E+004
  1.2711592E+004
  1.1159941E+004
  9.5497129E+003
  7.8938692E+003
  6.2969436E+003
  4.9748370E+003
  3.8815623E+003
  2.6727460E+003
  1.3907430E+003
  6.7229284E+002
  3.3791677E+002
  5.6708919E+004
  5.4353501E+004
  5.0563556E+004
  4.6014434E+004
  4.4366679E+004
  4.4419044E+004
  4.5116740E+004
  4.5751540E+004
  4.5833182E+004
  4.4811383E+004
  4.2923544E+004
  2.9326412E+004
  4.1937105E+004
  5.1538587E+004
  5.4529343E+004
  5.5383472E+004
  5.6201576E+004
  5.6787570E+004
  5.6722539E+004
  5.5707607E+004
  5.3529603E+004
  5.0099874E+004
  4.5452610E+004
  3.9763288E+004
  3.3369348E+004
  2.6792935E+004
  2.0777115E+004
  1.6318835E+004
  1.4465959E+004
  1.5344139E+004
  1.7390163E+004
  1.7974373E+004
  1.8594607E+004
  2.5095238E+004
  2.9020516E+004
  2.9609003E+004
  2.7993073E+004
  2.5391799E+004
  2.2541493E+004
  2.2282702E+004
  2.1878546E+004
  1.9569897E+004
  1.6413774E+004
  1.4022402E+004
  1.2239075E+004
  1.0735779E+004
  9.2786109E+003
  7.7747155E+003
  6.1931720E+003
  4.6175553E+003
  3.1963818E+003
  2.4492572E+003
  1.1355479E+003
  3.9247583E+002
  1.1065696E+002
  5.7317025E+004
  5.7865077E+004
  5.0617837E+004
  4.6993341E+004
  4.5593717E+004
  4.5264963E+004
  4.5356719E+004
  4.5213383E+004
  4.4493266E+004
  4.2875908E+004
  4.0852131E+004
  3.3439089E+004
  3.9111581E+004
  4.8237077E+004
  5.3878144E+004
  5.6423259E+004
  5.7342139E+004
  5.7483932E+004
  5.6946157E+004
  5.5601858E+004
  5.3293572E+004
  4.9924723E+004
  4.5512105E+004
  4.0218895E+004
  3.4388092E+004
  2.8600770E+004
  2.3734802E+004
  2.0828297E+004
  2.0777197E+004
  2.3476507E+004
  2.7189690E+004
  2.9004935E+004
  3.1055496E+004
  3.8395005E+004
  4.1498475E+004
  3.7319406E+004
  3.5045770E+004
  3.2764639E+004
  2.7150470E+004
  2.3435501E+004
  2.2971291E+004
  1.8254770E+004
  1.4596338E+004
  1.2262711E+004
  1.0627714E+004
  9.1735237E+003
  7.7723286E+003
  6.4030907E+003
  5.0444678E+003
  3.7273995E+003
  2.4125365E+003
  2.3781580E+003
  1.3079237E+003
  2.6274015E+002
  7.9526030E+004
  5.3911643E+004
  4.8106193E+004
  4.6804760E+004
  4.6175889E+004
  4.6001498E+004
  4.5771447E+004
  4.5049158E+004
  4.3584492E+004
  4.1352241E+004
  3.9156711E+004
  3.4494651E+004
  3.9393575E+004
  4.7302708E+004
  5.3623398E+004
  5.6900976E+004
  5.8047355E+004
  5.8052983E+004
  5.7340365E+004
  5.5929388E+004
  5.3715064E+004
  5.0618330E+004
  4.6666715E+004
  4.2028708E+004
  3.7043072E+004
  3.2248331E+004
  2.8292335E+004
  2.5981479E+004
  2.6248898E+004
  2.9360946E+004
  3.8057271E+004
  3.6482790E+004
  5.7008705E+004
  7.0709625E+004
  4.5685509E+004
  4.4450169E+004
  4.1334989E+004
  3.8382961E+004
  4.3683006E+004
  2.7561567E+004
  1.7753079E+004
  1.5757392E+004
  1.2811288E+004
  1.1322513E+004
  9.6527019E+003
  8.0015575E+003
  6.3827584E+003
  4.9012519E+003
  3.6822556E+003
  2.6065841E+003
  2.0511406E+003
  2.0045228E+003
  6.0174405E+004
  5.0856758E+004
  4.6815505E+004
  4.7379737E+004
  4.6913985E+004
  4.6910102E+004
  4.6522888E+004
  4.5382046E+004
  4.3162882E+004
  4.0030607E+004
  3.7527460E+004
  3.2222892E+004
  3.8945229E+004
  4.8671202E+004
  5.4671987E+004
  5.7469844E+004
  5.8365495E+004
  5.8331714E+004
  5.7697657E+004
  5.6495738E+004
  5.4627500E+004
  5.2004909E+004
  4.8685780E+004
  4.4902527E+004
  4.0959416E+004
  3.7151371E+004
  3.4122227E+004
  3.1649850E+004
  2.9254749E+004
  3.3919734E+004
  3.4489801E+004
  3.2453457E+004
  4.4813441E+004
  1.6717263E+004
  7.8810031E+003
  1.2385357E+004
  1.2896822E+004
  1.1992961E+004
  1.0251330E+004
  8.2424083E+003
  6.2387849E+003
  4.3650210E+003
  2.7870459E+003
  1.1722466E+003
  1.0504993E+003
  3.4706647E+004
  1.9660697E+004
  4.4313006E+004
  5.4694817E+004
  5.0027000E+004
  4.8427496E+004
  4.8038294E+004
  4.7918119E+004
  4.7620365E+004
  4.6352594E+004
  4.3419528E+004
  3.8969479E+004
  3.5558906E+004
  2.7259568E+004
  4.1424321E+004
  5.2279913E+004
  5.6406891E+004
  5.7690940E+004
  5.8199339E+004
  5.8229109E+004
  5.7884005E+004
  5.7159120E+004
  5.5903835E+004
  5.3946642E+004
  5.1281917E+004
  4.8281058E+004
  4.5413937E+004
  4.2894975E+004
  3.8797928E+004
  3.7747298E+004
  3.2615792E+004
  4.4534424E+004
  3.0417663E+004
  1.4581875E+004
  3.3775442E+004
  4.7804930E+004
  5.1639839E+004
  5.0253844E+004
  4.9037740E+004
  4.8590585E+004
  4.8629372E+004
  4.8700912E+004
  4.7957575E+004
  4.4836503E+004
  3.7766259E+004
  3.2259397E+004
  1.5267982E+004
  4.0449595E+004
  5.5889354E+004
  5.6245987E+004
  5.6946988E+004
  5.7520243E+004
  5.7734163E+004
  5.7826390E+004
  5.7808938E+004
  5.7488652E+004
  5.6464496E+004
  5.4399440E+004
  5.1496145E+004
  4.9254296E+004
  4.7518626E+004
  4.6574549E+004
  3.6444685E+004
  3.3965732E+004
  3.6542563E+004
  5.4920813E+004
  4.2377681E+004
  4.5342606E+004
  4.7524573E+004
  4.8070543E+004
  4.8237563E+004
  4.8474029E+004
  4.8939962E+004
  4.9464861E+004
  4.7981747E+004
  3.9549624E+004
  2.7184627E+004
  3.1930040E+004
  5.6514401E+004
  5.3961623E+004
  5.4050618E+004
  5.6069012E+004
  5.6673828E+004
  5.7062229E+004
  5.7502522E+004
  5.8301201E+004
  5.9315606E+004
  5.9884021E+004
  5.9083317E+004
  5.6083535E+004
  5.0419140E+004
  5.2073844E+004
  3.9546634E+004
  3.0079617E+004
  2.5934013E+004
  4.4049311E+004
  4.0437364E+004
  4.1806093E+004
  4.5421327E+004
  4.6566626E+004
  4.7149582E+004
  4.7429525E+004
  4.7704925E+004
  4.8468815E+004
  5.0467174E+004
  3.8451243E+004
  1.5412976E+004
  7.9831409E+004
  5.8441102E+004
  5.5569250E+004
  5.6456351E+004
  5.6536147E+004
  5.6676222E+004
  5.7001245E+004
  5.8331599E+004
  6.1098532E+004
  6.4184932E+004
  6.4941666E+004
  6.4454746E+004
  5.7444254E+004
  6.5790129E+004
  3.9348982E+004
  1.2366873E+004
  2.4684871E+004
  1.3393124E+004
  3.3126958E+004
  4.3576369E+004
  4.3480631E+004
  4.4608513E+004
  4.5505346E+004
  4.5924249E+004
  4.5973967E+004
  4.6099660E+004
  4.5077677E+004
  4.7365286E+004
  5.3297674E+004
  3.0589093E+004
  6.3965690E+004
  6.6143788E+004
  6.0573540E+004
  5.8634211E+004
  5.7859048E+004
  5.7276834E+004
  5.6975144E+004
  5.7680220E+004
  6.1496724E+004
  6.9847988E+004
  7.8073528E+004
  7.4065274E+004
  6.7893653E+004
  6.4364683E+004
  2.4391408E+004
  3.5600580E+004
  4.2855782E+004
  4.4103185E+004
  4.4330494E+004
  4.4670598E+004
  4.4973821E+004
  4.5101714E+004
  4.5329195E+004
  4.5618787E+004
  5.0325061E+004
  7.3560709E+004
  6.8826580E+004
  6.7867764E+004
  6.5417089E+004
  6.2203403E+004
  6.0771344E+004
  5.9812376E+004
  5.9055894E+004
  5.8367023E+004
  5.9825707E+004
  6.9539290E+004
  8.1747684E+004
  8.4955540E+004
  7.3224851E+004
  3.0972263E+004
  3.5241473E+004
  4.0832913E+004
  4.2567656E+004
  4.3332892E+004
  4.3863713E+004
  4.4382740E+004
  4.4993635E+004
  4.5935932E+004
  4.8414068E+004
  5.4759082E+004
  5.5917976E+004
  7.0144855E+004
  7.3078032E+004
  6.8194117E+004
  6.6269627E+004
  6.5454709E+004
  6.4978290E+004
  6.4360443E+004
  6.5476117E+004
  6.3448140E+004
  7.8238229E+004
  1.3243901E+005
  1.1478850E+005
  3.4854257E+004
  3.8359961E+004
  3.8935086E+004
  4.0397709E+004
  4.1910577E+004
  4.3034384E+004
  4.4051646E+004
  4.5195201E+004
  4.6887521E+004
  4.9738769E+004
  5.2733133E+004
  5.5550854E+004
  9.5250978E+004
  7.1270432E+004
  7.0560195E+004
  7.1553933E+004
  7.1881730E+004
  7.2004185E+004
  7.3090272E+004
  7.4640961E+004
  8.2415058E+004
  9.1735216E+004
  1.4602432E+005
  5.0732138E+004
  3.6667363E+004
  3.6522787E+004
  3.8749761E+004
  4.0767686E+004
  4.2406757E+004
  4.3832982E+004
  4.5345595E+004
  4.7222210E+004
  4.9454119E+004
  5.1835722E+004
  5.3177057E+004
  7.0204717E+004
  7.4690452E+004
  7.6462566E+004
  7.9765514E+004
  7.9385356E+004
  7.9620865E+004
  8.0836716E+004
  8.3913258E+004
  8.9777825E+004
  8.9291792E+004
  7.1524393E+004
  3.9267108E+004
  3.5477486E+004
  3.5519133E+004
  3.8574028E+004
  4.0385705E+004
  4.2155850E+004
  4.3697924E+004
  4.5293845E+004
  4.7035391E+004
  4.8918982E+004
  5.0707800E+004
  5.2097281E+004
  3.7563943E+004
  1.1064882E+004
  5.6269103E+004
  8.8016683E+004
  9.0370911E+004
  8.8837483E+004
  8.7234667E+004
  8.5738171E+004
  8.5262710E+004
  8.6483734E+004
  8.9763439E+004
  7.6490871E+004
  5.7190164E+004
  2.2194504E+004
  1.1814822E+004
  2.9524171E+004
  3.8762236E+004
  3.8344477E+004
  3.9375891E+004
  4.0790767E+004
  4.2191759E+004
  4.3621335E+004
  4.5092758E+004
  4.6643566E+004
  4.8223579E+004
  4.9775605E+004
  5.1019268E+004
  1.1871275E+004
  6.0216152E+004
  9.8367751E+004
  9.9925918E+004
  9.6694398E+004
  9.3351403E+004
  8.9778182E+004
  8.5781953E+004
  8.1664720E+004
  8.1287061E+004
  6.5105773E+004
  2.7073581E+004
  2.1750099E+004
  3.1704215E+004
  3.8543119E+004
  3.9885820E+004
  4.0388724E+004
  4.1210138E+004
  4.2301697E+004
  4.3512887E+004
  4.4804612E+004
  4.6147681E+004
  4.7509995E+004
  4.8883643E+004
  5.0092606E+004
  4.7762136E+004
  8.7348239E+004
  9.8250886E+004
  1.0205000E+005
  1.0094572E+005
  9.7557680E+004
  9.2039234E+004
  8.5669581E+004
  7.4922524E+004
  6.9662516E+004
  7.7684453E+004
  4.3188381E+004
  2.6896958E+004
  3.1687104E+004
  3.7166850E+004
  3.9445002E+004
  4.0421030E+004
  4.1239950E+004
  4.2221553E+004
  4.3307970E+004
  4.4444119E+004
  4.5606852E+004
  4.6786104E+004
  4.8027726E+004
  4.9188521E+004
  1.4263840E+005
  1.0659261E+005
  1.0449031E+005
  1.0442961E+005
  1.0027640E+005
  9.4192842E+004
  8.5376395E+004
  7.6690898E+004
  6.6436848E+004
  8.3921074E+004
  3.1875043E+004
  3.3700112E+004
  3.6698937E+004
  3.8302106E+004
  3.9643502E+004
  4.0808308E+004
  4.1923723E+004
  4.3006859E+004
  4.4045436E+004
  4.5051848E+004
  4.6061852E+004
  4.7172256E+004
  4.8286186E+004
  1.3164545E+005
  1.2488270E+005
  1.1370498E+005
  1.0865945E+005
  1.0316340E+005
  9.5551798E+004
  8.5765149E+004
  7.5202214E+004
  6.0210772E+004
  4.1463837E+004
  3.4427235E+004
  3.6446688E+004
  3.5786931E+004
  3.6916518E+004
  3.8652361E+004
  4.0205561E+004
  4.1558812E+004
  4.2704607E+004
  4.3675683E+004
  4.4525085E+004
  4.5344274E+004
  4.6296181E+004
  4.7347452E+004
  1.4578106E+005
  1.3445063E+005
  1.2408332E+005
  1.1451664E+005
  1.0573750E+005
  9.5854857E+004
  8.3876803E+004
  6.9612118E+004
  4.6324662E+004
  2.7578398E+004
  4.8863188E+004
  3.4773658E+004
  3.3943943E+004
  3.5891141E+004
  3.7961693E+004
  3.9821562E+004
  4.1343541E+004
  4.2538216E+004
  4.3427453E+004
  4.4083738E+004
  4.4649639E+004
  4.5375559E+004
  4.6334189E+004
  1.5675564E+005
  1.4575297E+005
  1.3285301E+005
  1.1986896E+005
  1.0719500E+005
  9.4171391E+004
  7.9453095E+004
  6.1850785E+004
  3.6012671E+004
  1.2059377E+004
  3.7194832E+004
  3.3480969E+004
  3.3284636E+004
  3.6077028E+004
  3.7964296E+004
  3.9884729E+004
  4.1428875E+004
  4.2618871E+004
  4.3394836E+004
  4.3799799E+004
  4.4006057E+004
  4.4376950E+004
  4.5183970E+004
  1.7135393E+005
  1.5735604E+005
  1.4118456E+005
  1.2313897E+005
  1.0607366E+005
  8.9645362E+004
  7.2723667E+004
  5.3787979E+004
  2.6853020E+004
  8.6262491E+003
  2.1104426E+004
  1.1088888E+004
  2.7640725E+004
  3.6378101E+004
  3.5951938E+004
  3.7026238E+004
  3.8650211E+004
  4.0305641E+004
  4.1819792E+004
  4.2983828E+004
  4.3655397E+004
  4.3766797E+004
  4.3468062E+004
  4.3269989E+004
  4.3798953E+004
  1.8625633E+005
  1.7190675E+005
  1.4783466E+005
  1.2310494E+005
  1.0054271E+005
  8.1174757E+004
  6.3367153E+004
  4.5264756E+004
  2.0455694E+004
  1.6931589E+004
  2.0004379E+004
  2.9344530E+004
  3.5586454E+004
  3.7086905E+004
  3.7933235E+004
  3.9254567E+004
  4.0834585E+004
  4.2359211E+004
  4.3587864E+004
  4.4255179E+004
  4.4112446E+004
  4.3159332E+004
  4.1976041E+004
  4.1980235E+004
  2.1700885E+005
  1.8535711E+005
  1.5342586E+005
  1.1581811E+005
  8.8883884E+004
  6.8179951E+004
  5.0462944E+004
  3.5014084E+004
  1.7096784E+004
  3.6677197E+004
  2.4973167E+004
  2.8664716E+004
  3.3714250E+004
  3.6034488E+004
  3.7722680E+004
  3.9388273E+004
  4.1151997E+004
  4.2853236E+004
  4.4285894E+004
  4.5161043E+004
  4.4996885E+004
  4.3349421E+004
  4.0647896E+004
  3.9455913E+004
  2.3034052E+005
  2.1622464E+005
  1.4403772E+005
  9.8108631E+004
  7.1119620E+004
  5.1662108E+004
  3.5910372E+004
  2.0938714E+004
  7.3986805E+003
  2.9538653E+004
  2.7604103E+004
  3.0629505E+004
  3.1902995E+004
  3.4245869E+004
  3.6741807E+004
  3.9017902E+004
  4.1168597E+004
  4.3139307E+004
  4.4834711E+004
  4.6114014E+004
  4.6438011E+004
  4.4546403E+004
  3.8992775E+004
  3.5317509E+004
  4.5180512E+005
  1.8882039E+005
  1.1642400E+005
  7.1835004E+004
  5.1912182E+004
  3.6351101E+004
  2.4016672E+004
  1.1983066E+004
  7.3683660E+003
  1.9069338E+004
  1.7555537E+004
  2.2431491E+004
  3.8610832E+004
  2.8864145E+004
  2.9731262E+004
  3.2742670E+004
  3.5690094E+004
  3.8463104E+004
  4.0967729E+004
  4.3187302E+004
  4.5019812E+004
  4.6481538E+004
  4.7667856E+004
  4.7289216E+004
  4.0160517E+004
  2.9336979E+004
  4.1691098E+005
  1.7249461E+005
  6.7746722E+004
  5.6834195E+004
  3.9078287E+004
  2.9543627E+004
  2.1868153E+004
  1.4737986E+004
  8.8041557E+003
  1.4393851E+004
  2.4995615E+004
  2.9149045E+004
  2.7628947E+004
  2.8709714E+004
  3.2126531E+004
  3.5026006E+004
  3.7990134E+004
  4.0711836E+004
  4.3109873E+004
  4.4978321E+004
  4.6002909E+004
  4.6557228E+004
  4.8505087E+004
  3.8322261E+004
  1.6446795E+004
  1.6470430E+005
  1.3081931E+005
  7.4498192E+004
  4.9477762E+004
  3.9103248E+004
  3.1889615E+004
  2.6785314E+004
  2.1902097E+004
  1.6562213E+004
  1.1657876E+004
  2.5359123E+004
  1.6205404E+004
  8.3810900E+003
  2.1499502E+004
  2.9261434E+004
  2.9874357E+004
  3.1991359E+004
  3.4741910E+004
  3.7618449E+004
  4.0472773E+004
  4.3132786E+004
  4.5148295E+004
  4.6247861E+004
  4.4237265E+004
  4.4857931E+004
  5.1624356E+004
  2.9580325E+004
  1.1724547E+005
  9.7649065E+004
  7.0242911E+004
  5.0621724E+004
  4.0848798E+004
  3.5382123E+004
  3.1791767E+004
  2.8228296E+004
  2.4983060E+004
  1.7796038E+004
  1.1058801E+004
  1.4618203E+004
  2.3331422E+004
  2.7552590E+004
  2.9588093E+004
  3.1771931E+004
  3.4370180E+004
  3.7230165E+004
  4.0188164E+004
  4.3194581E+004
  4.6062025E+004
  4.8271525E+004
  4.8356559E+004
  4.7633906E+004
  6.5055828E+004
  7.9006211E+004
  6.8618243E+004
  5.5324105E+004
  4.5277042E+004
  3.9200246E+004
  3.5896479E+004
  3.3733605E+004
  3.1755882E+004
  2.8738292E+004
  2.4618675E+004
  1.2136531E+004
  5.0698118E+003
  7.9057537E+003
  2.4380181E+004
  2.0940118E+004
  2.4518985E+004
  2.8026825E+004
  3.0987113E+004
  3.3818806E+004
  3.6702214E+004
  3.9732033E+004
  4.2985244E+004
  4.6759301E+004
  5.1344388E+004
  5.6029769E+004
  5.4449767E+004
  4.0324276E+004
  5.7314370E+004
  5.2354455E+004
  4.2002315E+004
  3.6540396E+004
  3.4369473E+004
  3.3340418E+004
  3.2761362E+004
  3.1816325E+004
  2.9807822E+004
  2.5503704E+004
  1.8881804E+004
  1.4853752E+004
  2.0445556E+004
  1.9821083E+004
  2.2679188E+004
  2.6938452E+004
  3.0219548E+004
  3.3249816E+004
  3.6135615E+004
  3.9092225E+004
  4.2340866E+004
  4.6072630E+004
  5.1285549E+004
  6.0060448E+004
  5.0991954E+004
  2.3737344E+004
  5.0312981E+004
  3.6645877E+004
  3.0634755E+004
  2.8412087E+004
  2.8381174E+004
  2.9105553E+004
  2.9772454E+004
  2.9915136E+004
  2.8994511E+004
  2.6494639E+004
  2.2626239E+004
  1.7677511E+004
  1.4760952E+004
  1.0759745E+004
  1.1339176E+004
  8.6091564E+003
  1.4663917E+004
  2.0682512E+004
  2.3405280E+004
  2.6780796E+004
  3.0016221E+004
  3.2955118E+004
  3.5759093E+004
  3.8614140E+004
  4.1538895E+004
  4.5195191E+004
  4.7915178E+004
  5.5990071E+004
  7.0073127E+004
  4.1168146E+004
  2.1500932E+004
  2.9196494E+004
  2.0942840E+004
  2.1698550E+004
  2.2755206E+004
  2.4252569E+004
  2.5873614E+004
  2.6981961E+004
  2.7260944E+004
  2.6756262E+004
  2.5081456E+004
  2.5901989E+004
  2.0408101E+004
  2.0604218E+004
  6.0368334E+003
  1.0523406E+004
  1.5515269E+004
  2.0588536E+004
  2.4411134E+004
  2.7421968E+004
  3.0347354E+004
  3.3120171E+004
  3.5828012E+004
  3.8629815E+004
  4.1655289E+004
  4.5348486E+004
  4.9819341E+004
  6.0387964E+004
  9.4235477E+004
  2.8751176E+004
  8.7786538E+003
  1.1275264E+004
  1.9353522E+004
  1.6630663E+004
  1.6328856E+004
  1.7526503E+004
  1.9545216E+004
  2.1728042E+004
  2.3565766E+004
  2.4854465E+004
  2.5538225E+004
  2.6071811E+004
  2.6389735E+004
  2.7865194E+004
  3.5849760E+004
  4.1689549E+003
  2.9130856E+003
  1.0027044E+004
  1.6735958E+004
  2.1449060E+004
  2.5298665E+004
  2.8377638E+004
  3.1113320E+004
  3.3744172E+004
  3.6408124E+004
  3.9289566E+004
  4.2713614E+004
  4.7099410E+004
  5.3949335E+004
  6.5810033E+004
  6.9820879E+004
  1.7433335E+004
  1.8214473E+004
  1.5970922E+004
  1.2798672E+004
  1.1783602E+004
  1.2957306E+004
  1.5273122E+004
  1.7802200E+004
  2.0069145E+004
  2.1897013E+004
  2.3264527E+004
  2.4335933E+004
  2.4785684E+004
  2.5633427E+004
  2.6258339E+004
  4.4740090E+004
  3.7839437E+004
  4.4049194E+003
  6.1363131E+003
  7.4083705E+003
  1.3786050E+004
  1.8963831E+004
  2.3166922E+004
  2.6611760E+004
  2.9560815E+004
  3.2197395E+004
  3.4734877E+004
  3.7367451E+004
  4.0336995E+004
  4.3994090E+004
  4.8903760E+004
  5.5737547E+004
  6.2802237E+004
  6.9071466E+004
  1.1247870E+004
  1.3175287E+004
  1.1929953E+004
  9.2382714E+003
  8.0855974E+003
  9.3365062E+003
  1.1777093E+004
  1.4404146E+004
  1.6802177E+004
  1.8815989E+004
  2.0393297E+004
  2.1560563E+004
  2.2174393E+004
  2.3541085E+004
  2.4001930E+004
  3.2095329E+004
  3.2640947E+004
  3.3862873E+004
  4.3375593E+004
  2.1157798E+004
  9.0917429E+003
  1.1988319E+004
  9.5742243E+003
  1.2213840E+004
  1.6648682E+004
  2.1243550E+004
  2.5043270E+004
  2.8224923E+004
  3.0985905E+004
  3.3507982E+004
  3.5955702E+004
  3.8509353E+004
  4.1388435E+004
  4.4914538E+004
  4.9523963E+004
  5.5172774E+004
  6.1544745E+004
  6.5761250E+004
  1.5246630E+004
  1.1720749E+004
  9.6980447E+003
  6.9077075E+003
  5.9128552E+003
  7.0142884E+003
  9.2565051E+003
  1.1713588E+004
  1.3994788E+004
  1.5949054E+004
  1.7515205E+004
  1.8680133E+004
  1.9597996E+004
  2.0424765E+004
  2.2103142E+004
  2.6586826E+004
  3.1446316E+004
  3.5575047E+004
  3.6747372E+004
  3.2143123E+004
  5.2003444E+004
  3.0915355E+004
  1.7617558E+004
  2.4008580E+004
  1.3597915E+004
  1.4654299E+004
  1.6406902E+004
  2.0121370E+004
  2.3755205E+004
  2.7077739E+004
  2.9977765E+004
  3.2560028E+004
  3.4951858E+004
  3.7283745E+004
  3.9684756E+004
  4.2304266E+004
  4.5312792E+004
  4.9020509E+004
  5.4004560E+004
  5.9699376E+004
  6.5190045E+004
  9.1832690E+003
  1.2476745E+004
  7.2434309E+003
  6.0829252E+003
  5.1757068E+003
  5.9110969E+003
  7.6696213E+003
  9.7357052E+003
  1.1734430E+004
  1.3489750E+004
  1.4932033E+004
  1.6074873E+004
  1.7015281E+004
  1.8080024E+004
  1.9924790E+004
  2.2913373E+004
  2.5408549E+004
  2.9697091E+004
  3.3653844E+004
  3.3906706E+004
  3.8649506E+004
  6.1990889E+004
  4.1244793E+004
  3.9905971E+004
  4.1417283E+004
  3.4519293E+004
  4.0390603E+004
  1.9096631E+004
  5.5197097E+004
  3.3141348E+004
  1.9920911E+004
  3.3307813E+004
  2.2302363E+004
  2.1302975E+004
  1.8327997E+004
  1.6351782E+004
  1.8075607E+004
  2.0272434E+004
  2.3202486E+004
  2.6266842E+004
  2.9149598E+004
  3.1773061E+004
  3.4170381E+004
  3.6422122E+004
  3.8617153E+004
  4.0839832E+004
  4.3139049E+004
  4.5563262E+004
  4.8091569E+004
  5.1437835E+004
  5.8728245E+004
  6.2476988E+004
  7.3840693E+003
  9.4753378E+003
  9.2616166E+003
  7.5213898E+003
  6.2309976E+003
  5.5837606E+003
  5.0909703E+003
  5.5085916E+003
  6.7402051E+003
  8.3488673E+003
  9.9909502E+003
  1.1479785E+004
  1.2738887E+004
  1.3773716E+004
  1.4688634E+004
  1.5714451E+004
  1.7109398E+004
  1.8846524E+004
  2.1179802E+004
  2.3458042E+004
  2.4145717E+004
  2.4776873E+004
  3.0466963E+004
  3.6647139E+004
  4.2349689E+004
  4.4748343E+004
  4.1066645E+004
  4.4326561E+004
  7.2768192E+004
  4.6864790E+004
  4.9886919E+004
  4.1870111E+004
  4.4915790E+004
  3.7894824E+004
  3.7336688E+004
  3.3579270E+004
  3.1470272E+004
  2.9845421E+004
  2.6758885E+004
  2.7227270E+004
  2.4031425E+004
  2.6326263E+004
  2.3195263E+004
  2.6326484E+004
  2.4797888E+004
  2.7842210E+004
  2.6265238E+004
  2.5763435E+004
  3.9893594E+004
  2.2150704E+004
  2.1496956E+004
  1.8507880E+004
  1.8399778E+004
  2.0790314E+004
  2.3262674E+004
  2.5913401E+004
  2.8577824E+004
  3.1124458E+004
  3.3496850E+004
  3.5708809E+004
  3.7809175E+004
  3.9861227E+004
  4.1911835E+004
  4.4008414E+004
  4.6009217E+004
  4.7966533E+004
  4.8782640E+004
  5.2235946E+004
  7.3783811E+004
  1.3864473E+004
  9.5912499E+003
  6.1962053E+003
  5.9962465E+003
  5.4301513E+003
  5.1510182E+003
  5.3726116E+003
  6.1995390E+003
  7.3921734E+003
  8.6771987E+003
  9.8809814E+003
  1.0921529E+004
  1.1794445E+004
  1.2567226E+004
  1.3357021E+004
  1.4266661E+004
  1.5380877E+004
  1.6554473E+004
  1.7585012E+004
  1.8672691E+004
  2.0888387E+004
  2.4530352E+004
  2.9788607E+004
  3.4460654E+004
  3.5290990E+004
  3.2987232E+004
  3.5821905E+004
  3.9451479E+004
  4.0048854E+004
  3.8202566E+004
  3.5193300E+004
  3.1536647E+004
  2.8706799E+004
  2.6948389E+004
  2.6171393E+004
  2.4424700E+004
  2.1198931E+004
  1.8369917E+004
  1.8987280E+004
  1.9832503E+004
  2.0900472E+004
  2.3107268E+004
  2.5670479E+004
  2.8175731E+004
  3.0596122E+004
  3.2890511E+004
  3.5045308E+004
  3.7074380E+004
  3.9011773E+004
  4.0901197E+004
  4.2794606E+004
  4.4733038E+004
  4.6737688E+004
  4.8734360E+004
  4.9675816E+004
  4.9985222E+004
  4.8033168E+004
  2.8215630E+003
  3.2739969E+003
  6.6754365E+003
  6.1707166E+003
  5.6947195E+003
  5.3174935E+003
  5.3734922E+003
  5.8932674E+003
  6.7353405E+003
  7.6976070E+003
  8.6279285E+003
  9.4440168E+003
  1.0124417E+004
  1.0694284E+004
  1.1202928E+004
  1.1699557E+004
  1.2189815E+004
  1.2674389E+004
  1.3210276E+004
  1.4056266E+004
  1.5669715E+004
  1.8703884E+004
  2.2698887E+004
  2.6286931E+004
  2.8108724E+004
  2.9089685E+004
  3.0925074E+004
  3.4107836E+004
  3.6084340E+004
  3.6861712E+004
  3.6470687E+004
  3.3210432E+004
  2.8384205E+004
  2.7670441E+004
  2.5789465E+004
  2.2332064E+004
  1.9912059E+004
  1.8809453E+004
  1.9218470E+004
  2.0852462E+004
  2.2917135E+004
  2.5243890E+004
  2.7693068E+004
  3.0064875E+004
  3.2292321E+004
  3.4380212E+004
  3.6340137E+004
  3.8189109E+004
  3.9947966E+004
  4.1643857E+004
  4.3315562E+004
  4.5036693E+004
  4.6929979E+004
  4.9163567E+004
  5.2078270E+004
  5.3349786E+004
  3.4588147E+004
  7.7694825E+003
  2.6819768E+004
  1.6271770E+004
  1.1200337E+004
  8.0177802E+003
  6.9227724E+003
  6.1078005E+003
  5.5963056E+003
  5.4681114E+003
  5.7327215E+003
  6.2829803E+003
  6.9673298E+003
  7.6559384E+003
  8.2675214E+003
  8.7651036E+003
  9.1433831E+003
  9.4121183E+003
  9.5776479E+003
  9.6433679E+003
  9.6313630E+003
  9.6473732E+003
  9.9192009E+003
  1.0832145E+004
  1.2745161E+004
  1.5678140E+004
  1.8878566E+004
  2.1378812E+004
  2.2872850E+004
  2.4459224E+004
  2.7597228E+004
  3.0303935E+004
  3.3372605E+004
  4.0006349E+004
  3.8643374E+004
  3.4300985E+004
  3.2692147E+004
  2.6162887E+004
  2.1542050E+004
  1.9940715E+004
  1.9517589E+004
  2.0434520E+004
  2.2320226E+004
  2.4661161E+004
  2.7086949E+004
  2.9429967E+004
  3.1624738E+004
  3.3658921E+004
  3.5552768E+004
  3.7330230E+004
  3.9005021E+004
  4.0580350E+004
  4.2051342E+004
  4.3422380E+004
  4.4711480E+004
  4.6044029E+004
  4.7516358E+004
  4.9580342E+004
  5.0456690E+004
  3.3567741E+004
  7.5809263E+003
  8.2524435E+003
  9.2623476E+003
  8.5359788E+003
  7.3097391E+003
  6.4478081E+003
  5.8480856E+003
  5.5809626E+003
  5.6408935E+003
  5.9577472E+003
  6.4163800E+003
  6.9094119E+003
  7.3594897E+003
  7.7212313E+003
  7.9720735E+003
  8.0998880E+003
  8.0936227E+003
  7.9425329E+003
  7.6504429E+003
  7.2466590E+003
  6.8106745E+003
  6.5411251E+003
  6.9757402E+003
  8.8709498E+003
  1.1616538E+004
  1.4134167E+004
  1.5016014E+004
  1.3295037E+004
  1.2898089E+004
  2.1192062E+004
  3.8237393E+004
  3.8105135E+004
  6.0036262E+004
  5.0479660E+004
  3.4360914E+004
  2.9311802E+004
  2.1907004E+004
  2.1181221E+004
  2.0410502E+004
  2.1625505E+004
  2.3793760E+004
  2.6290484E+004
  2.8694844E+004
  3.0884481E+004
  3.2863667E+004
  3.4680100E+004
  3.6376977E+004
  3.7982132E+004
  3.9501310E+004
  4.0913685E+004
  4.2178379E+004
  4.3221159E+004
  4.4017295E+004
  4.4369471E+004
  4.4687493E+004
  4.3176985E+004
  4.3472518E+004
  4.3470591E+004
  2.4094757E+004
  8.4997531E+003
  8.0446826E+003
  7.8857329E+003
  7.2928899E+003
  6.5458805E+003
  5.9719328E+003
  5.6302929E+003
  5.5530900E+003
  5.6996312E+003
  5.9918421E+003
  6.3451989E+003
  6.6922608E+003
  6.9882483E+003
  7.2069712E+003
  7.3334055E+003
  7.3572328E+003
  7.2698326E+003
  7.0590408E+003
  6.6980723E+003
  6.1100703E+003
  5.1824000E+003
  3.7930486E+003
  2.5533692E+003
  4.6095274E+003
  6.8107834E+003
  8.4417543E+003
  2.4242098E+003
  1.8020553E+003
  1.0080110E+004
  2.9213164E+004
  3.2627453E+004
  3.9454900E+004
  2.3164891E+004
  2.2405610E+004
  2.0532568E+004
  2.2460494E+004
  2.5109016E+004
  2.7804368E+004
  3.0097864E+004
  3.2039155E+004
  3.3749435E+004
  3.5323215E+004
  3.6819830E+004
  3.8268696E+004
  3.9666623E+004
  4.0974025E+004
  4.2109320E+004
  4.2953807E+004
  4.3350181E+004
  4.3169286E+004
  4.2320330E+004
  4.1059545E+004
  4.2467200E+004
  6.0707885E+004
  7.8192875E+003
  7.7773595E+003
  7.4280244E+003
  7.0079653E+003
  6.4525707E+003
  5.9366692E+003
  5.5829183E+003
  5.4315639E+003
  5.4726611E+003
  5.6593363E+003
  5.9321734E+003
  6.2387513E+003
  6.5429133E+003
  6.8252303E+003
  7.0795237E+003
  7.3086292E+003
  7.5188062E+003
  7.7124133E+003
  7.8661616E+003
  7.9281838E+003
  7.7471157E+003
  7.2425752E+003
  6.0520873E+003
  4.8538115E+003
  1.2518630E+004
  1.2738833E+004
  3.0957049E+004
  2.5135333E+004
  2.0766867E+004
  1.9870364E+004
  2.2748937E+004
  2.6384808E+004
  2.9239683E+004
  3.1234316E+004
  3.2825771E+004
  3.4225066E+004
  3.5544122E+004
  3.6846493E+004
  3.8161439E+004
  3.9483022E+004
  4.0762658E+004
  4.1899597E+004
  4.2738194E+004
  4.3079519E+004
  4.2776826E+004
  4.1855108E+004
  4.1427729E+004
  4.3824770E+004
  4.4674713E+004
  7.6639891E+003
  7.4525686E+003
  7.1305933E+003
  6.7154373E+003
  6.2240636E+003
  5.7721458E+003
  5.4418480E+003
  5.2693116E+003
  5.2622451E+003
  5.3997974E+003
  5.6463326E+003
  5.9667508E+003
  6.3367802E+003
  6.7463630E+003
  7.1984078E+003
  7.7048691E+003
  8.2812402E+003
  8.9358434E+003
  9.6649628E+003
  1.0405878E+004
  1.1127017E+004
  1.1306845E+004
  1.1424266E+004
  8.2835324E+003
  1.3087786E+004
  2.2205017E+004
  1.9911290E+004
  1.8169056E+004
  2.2973204E+004
  2.8106850E+004
  3.0421442E+004
  3.1927048E+004
  3.3131119E+004
  3.4225962E+004
  3.5305916E+004
  3.6431484E+004
  3.7634966E+004
  3.8918233E+004
  4.0240370E+004
  4.1502141E+004
  4.2536353E+004
  4.3111088E+004
  4.3013470E+004
  4.2168188E+004
  4.1174619E+004
  3.9794383E+004
  4.1137107E+004
  7.2358134E+003
  7.2159763E+003
  6.9077005E+003
  6.3868744E+003
  5.8860102E+003
  5.5116774E+003
  5.2293671E+003
  5.0760424E+003
  5.0667515E+003
  5.2012656E+003
  5.4638905E+003
  5.8348955E+003
  6.3000759E+003
  6.8553564E+003
  7.5067687E+003
  8.2673255E+003
  9.1522898E+003
  1.0171612E+004
  1.1323173E+004
  1.2565270E+004
  1.3802488E+004
  1.4631248E+004
  1.4269671E+004
  8.2802287E+003
  3.4325442E+003
  1.6678484E+004
  1.7085388E+004
  2.5516444E+004
  2.9519723E+004
  3.0787761E+004
  3.1936393E+004
  3.2853211E+004
  3.3719624E+004
  3.4606756E+004
  3.5579399E+004
  3.6683037E+004
  3.7940638E+004
  3.9336347E+004
  4.0793490E+004
  4.2152617E+004
  4.3143475E+004
  4.3413676E+004
  4.2477530E+004
  4.0095645E+004
  3.6421333E+004
  3.4967587E+004
  8.1650128E+003
  7.5322932E+003
  6.5841877E+003
  5.7754093E+003
  5.4695122E+003
  5.1787816E+003
  4.9752163E+003
  4.8669608E+003
  4.8880223E+003
  5.0517016E+003
  5.3569088E+003
  5.7945347E+003
  6.3562123E+003
  7.0395250E+003
  7.8489887E+003
  8.7942111E+003
  9.8861414E+003
  1.1132167E+004
  1.2527194E+004
  1.4036687E+004
  1.5556555E+004
  1.6728102E+004
  1.6861116E+004
  1.1655682E+004
  2.4122445E+003
  1.9656137E+004
  2.2633429E+004
  2.9220594E+004
  2.9704232E+004
  3.1217615E+004
  3.1977539E+004
  3.2757540E+004
  3.3504989E+004
  3.4347257E+004
  3.5342169E+004
  3.6548404E+004
  3.7990930E+004
  3.9633028E+004
  4.1342481E+004
  4.2835213E+004
  4.3611981E+004
  4.2778983E+004
  3.9610080E+004
  3.2685694E+004
  2.8425355E+004
  1.0361120E+004
  6.8944483E+003
  4.9111960E+003
  5.1478206E+003
  4.9658660E+003
  4.8380918E+003
  4.7074512E+003
  4.6581343E+003
  4.7263023E+003
  4.9362013E+003
  5.2943643E+003
  5.7968197E+003
  6.4372362E+003
  7.2121130E+003
  8.1225637E+003
  9.1727194E+003
  1.0368062E+004
  1.1705434E+004
  1.3184109E+004
  1.4720742E+004
  1.6375089E+004
  1.7370056E+004
  1.9226664E+004
  1.6117730E+004
  1.9250871E+004
  2.2153404E+004
  2.0676325E+004
  2.5321685E+004
  2.8465446E+004
  2.9744958E+004
  3.0745853E+004
  3.1459326E+004
  3.2135875E+004
  3.2853907E+004
  3.3713098E+004
  3.4802711E+004
  3.6204663E+004
  3.7943676E+004
  3.9918025E+004
  4.1861518E+004
  4.3285101E+004
  4.2859982E+004
  3.9126858E+004
  2.9664669E+004
  2.0903971E+004
  2.1065513E+003
  2.3293439E+003
  4.3906665E+003
  4.5485251E+003
  4.6293996E+003
  4.5323070E+003
  4.4614003E+003
  4.4612543E+003
  4.5791679E+003
  4.8384153E+003
  5.2465602E+003
  5.8002490E+003
  6.4925087E+003
  7.3176162E+003
  8.2725240E+003
  9.3557970E+003
  1.0563880E+004
  1.1888018E+004
  1.3297887E+004
  1.4756527E+004
  1.6096472E+004
  1.7337226E+004
  1.7684454E+004
  1.8382974E+004
  2.5624513E+004
  1.3282078E+004
  9.1168802E+003
  2.1501770E+004
  2.3500217E+004
  2.4541615E+004
  2.6860832E+004
  2.8335337E+004
  2.9312921E+004
  3.0051622E+004
  3.0670647E+004
  3.1277280E+004
  3.1966881E+004
  3.2855069E+004
  3.4077993E+004
  3.5764523E+004
  3.7888808E+004
  4.0060955E+004
  4.1915860E+004
  4.2653113E+004
  4.0136208E+004
  2.5876709E+004
  9.1536270E+003
  1.1608051E+004
  7.6074283E+003
  5.1558842E+003
  4.6921429E+003
  4.4494512E+003
  4.3178615E+003
  4.2487168E+003
  4.2822286E+003
  4.4412070E+003
  4.7427569E+003
  5.1892369E+003
  5.7747796E+003
  6.4903186E+003
  7.3274317E+003
  8.2790538E+003
  9.3378597E+003
  1.0493019E+004
  1.1723980E+004
  1.2994481E+004
  1.4230602E+004
  1.5328476E+004
  1.6056646E+004
  1.6191624E+004
  1.5727877E+004
  1.9270912E+004
  2.3584403E+004
  2.5058258E+004
  3.1726571E+004
  2.5664588E+004
  2.6420803E+004
  2.4745260E+004
  2.5975764E+004
  2.7006679E+004
  2.7973454E+004
  2.8703914E+004
  2.9301932E+004
  2.9817430E+004
  3.0332086E+004
  3.0954034E+004
  3.1852288E+004
  3.3255815E+004
  3.5434304E+004
  3.8017684E+004
  3.9466149E+004
  3.9427712E+004
  3.4606538E+004
  2.3017182E+004
  1.0558982E+004
  5.5081507E+003
  6.0808509E+003
  5.4927598E+003
  4.7306722E+003
  4.3582023E+003
  4.1413465E+003
  4.0643274E+003
  4.1144937E+003
  4.3040711E+003
  4.6356887E+003
  5.1051700E+003
  5.7022932E+003
  6.4153934E+003
  7.2333495E+003
  8.1455262E+003
  9.1398777E+003
  1.0199525E+004
  1.1298092E+004
  1.2392139E+004
  1.3415065E+004
  1.4265618E+004
  1.4834738E+004
  1.5167855E+004
  1.6515966E+004
  1.9383492E+004
  2.2118694E+004
  2.3969062E+004
  2.3865890E+004
  3.5578684E+004
  2.5201803E+004
  2.3952961E+004
  2.4613243E+004
  2.4987150E+004
  2.5930102E+004
  2.6805814E+004
  2.7571007E+004
  2.8178468E+004
  2.8656626E+004
  2.9045436E+004
  2.9420772E+004
  2.9914812E+004
  3.0828366E+004
  3.2574625E+004
  3.6352516E+004
  3.9769128E+004
  4.2044376E+004
  4.9587494E+004
  3.2151820E+004
  5.3636870E+003
  4.9976214E+003
  4.8710474E+003
  4.5371431E+003
  4.1704343E+003
  3.9563056E+003
  3.8780050E+003
  3.9452714E+003
  4.1563895E+003
  4.5064442E+003
  4.9840067E+003
  5.5750207E+003
  6.2652610E+003
  7.0413502E+003
  7.8899947E+003
  8.7960624E+003
  9.7398636E+003
  1.0693778E+004
  1.1619344E+004
  1.2466706E+004
  1.3187727E+004
  1.3793049E+004
  1.4550426E+004
  1.5856047E+004
  1.7966599E+004
  2.0517873E+004
  2.3331587E+004
  2.5660971E+004
  2.5335311E+004
  1.9468504E+004
  3.0911222E+004
  2.8644724E+004
  2.6498664E+004
  2.2825358E+004
  2.3513134E+004
  2.4102419E+004
  2.5014153E+004
  2.5918080E+004
  2.6730483E+004
  2.7394005E+004
  2.7904464E+004
  2.8276333E+004
  2.8540332E+004
  2.8765283E+004
  2.9121025E+004
  3.0114703E+004
  3.2977318E+004
  4.2062928E+004
  4.4951847E+004
  4.1347929E+004
  4.6817736E+003
  4.6204571E+003
  4.3580186E+003
  4.1439518E+003
  3.8986297E+003
  3.7206062E+003
  3.6693793E+003
  3.7582886E+003
  3.9879641E+003
  4.3476799E+003
  4.8218881E+003
  5.3936479E+003
  6.0469630E+003
  6.7669441E+003
  7.5388135E+003
  8.3462858E+003
  9.1698034E+003
  9.9852807E+003
  1.0764746E+004
  1.1482729E+004
  1.2136883E+004
  1.2798309E+004
  1.3637169E+004
  1.4893283E+004
  1.6656673E+004
  1.8876198E+004
  2.1436920E+004
  2.5035559E+004
  2.9354778E+004
  2.7614138E+004
  4.0822849E+004
  2.8557600E+004
  2.4363437E+004
  2.3012321E+004
  2.2708446E+004
  2.3498067E+004
  2.4414437E+004
  2.5366800E+004
  2.6230667E+004
  2.6968593E+004
  2.7568759E+004
  2.8045436E+004
  2.8401110E+004
  2.8717061E+004
  2.8856051E+004
  2.9743546E+004
  2.9857098E+004
  4.0390655E+004
  6.3023137E+004
  3.7311451E+004
  4.3725856E+003
  4.2043816E+003
  3.9606896E+003
  3.7547795E+003
  3.5614235E+003
  3.4370333E+003
  3.4256449E+003
  3.5443851E+003
  3.7925057E+003
  4.1574051E+003
  4.6213095E+003
  5.1660210E+003
  5.7747516E+003
  6.4320678E+003
  7.1229241E+003
  7.8315370E+003
  8.5406317E+003
  9.2318095E+003
  9.8884577E+003
  1.0503849E+004
  1.1097319E+004
  1.1732305E+004
  1.2517377E+004
  1.3569659E+004
  1.4933348E+004
  1.6695956E+004
  1.8640790E+004
  2.2088182E+004
  2.3821405E+004
  3.8087498E+004
  3.6206002E+004
  3.3873600E+004
  3.0918339E+004
  2.4592983E+004
  2.2806590E+004
  2.2423296E+004
  2.2501248E+004
  2.2733269E+004
  2.3388246E+004
  2.4281484E+004
  2.5204777E+004
  2.6077109E+004
  2.6861812E+004
  2.7560822E+004
  2.8197229E+004
  2.8817512E+004
  2.9456046E+004
  3.0251595E+004
  3.1196909E+004
  3.3428271E+004
  4.0007940E+004
  8.1297434E+004
  3.9285102E+003
  3.8539792E+003
  3.6114625E+003
  3.3656899E+003
  3.1820220E+003
  3.1118265E+003
  3.1479377E+003
  3.3023954E+003
  3.5711812E+003
  3.9402678E+003
  4.3914193E+003
  4.9064225E+003
  5.4687628E+003
  6.0634254E+003
  6.6761651E+003
  7.2928744E+003
  7.8995775E+003
  8.4836517E+003
  9.0371332E+003
  9.5629662E+003
  1.0082842E+004
  1.0642380E+004
  1.1301970E+004
  1.2117105E+004
  1.3095331E+004
  1.4236998E+004
  1.5361182E+004
  1.6727647E+004
  1.5849477E+004
  2.0939465E+004
  2.2387767E+004
  3.7890303E+004
  1.9031591E+004
  1.4709617E+004
  1.5736299E+004
  1.0506897E+004
  2.1438168E+004
  1.5436498E+004
  2.8447651E+004
  2.7082578E+004
  2.5468957E+004
  2.3620925E+004
  2.3242539E+004
  2.3431647E+004
  2.3937238E+004
  2.4646790E+004
  2.5439818E+004
  2.6231009E+004
  2.6990803E+004
  2.7729625E+004
  2.8488308E+004
  2.9347488E+004
  3.0380949E+004
  3.1832965E+004
  3.3524726E+004
  3.6957272E+004
  4.0088704E+004
  3.7470621E+004
  4.0990051E+003
  3.7431759E+003
  3.2304596E+003
  2.8633689E+003
  2.7684187E+003
  2.7536781E+003
  2.8455838E+003
  3.0407319E+003
  3.3333095E+003
  3.7083956E+003
  4.1480564E+003
  4.6351461E+003
  5.1542943E+003
  5.6917684E+003
  6.2349553E+003
  6.7721367E+003
  7.2928946E+003
  7.7894978E+003
  8.2595270E+003
  8.7094338E+003
  9.1575571E+003
  9.6331266E+003
  1.0168303E+004
  1.0781594E+004
  1.1465568E+004
  1.2166326E+004
  1.2828936E+004
  1.3253948E+004
  1.4729358E+004
  1.8489406E+004
  2.4370849E+004
  2.5402776E+004
  2.7151142E+004
  3.0938408E+004
  3.1144881E+004
  2.9539758E+004
  2.7530282E+004
  2.6034218E+004
  2.5092856E+004
  2.4837754E+004
  2.5013797E+004
  2.5440229E+004
  2.5998773E+004
  2.6612115E+004
  2.7248502E+004
  2.7919250E+004
  2.8673264E+004
  2.9593783E+004
  3.0800242E+004
  3.2427259E+004
  3.4555929E+004
  3.6941363E+004
  3.6804986E+004
  2.4769812E+004
  7.7594172E+003
  2.1320858E+004
  4.6883049E+003
  3.1592627E+003
  2.2663438E+003
  2.3374950E+003
  2.3153953E+003
  2.3851453E+003
  2.5363422E+003
  2.7760147E+003
  3.0963569E+003
  3.4809712E+003
  3.9133132E+003
  4.3778422E+003
  4.8611095E+003
  5.3513314E+003
  5.8381521E+003
  6.3126696E+003
  6.7680173E+003
  7.2005794E+003
  7.6117578E+003
  8.0097811E+003
  8.4103826E+003
  8.8348636E+003
  9.3046694E+003
  9.8351110E+003
  1.0432590E+004
  1.1114367E+004
  1.1953722E+004
  1.3366683E+004
  1.6038678E+004
  2.0243737E+004
  2.3760773E+004
  2.7379573E+004
  2.9952895E+004
  3.1447087E+004
  3.2331072E+004
  3.1474559E+004
  2.9825294E+004
  2.8250826E+004
  2.7160130E+004
  2.6565300E+004
  2.6387691E+004
  2.6488229E+004
  2.6753483E+004
  2.7110353E+004
  2.7526286E+004
  2.8007341E+004
  2.8592332E+004
  2.9348417E+004
  3.0357050E+004
  3.1697376E+004
  3.3286044E+004
  3.4218049E+004
  3.1379400E+004
  2.2281138E+004
  1.2287030E+004
  9.5178317E+002
  1.1078557E+003
  1.7685547E+003
  1.8087688E+003
  1.9096568E+003
  2.0358163E+003
  2.2451103E+003
  2.5325484E+003
  2.8839798E+003
  3.2829904E+003
  3.7140520E+003
  4.1640455E+003
  4.6218890E+003
  5.0782843E+003
  5.5255675E+003
  5.9579406E+003
  6.3721029E+003
  6.7682650E+003
  7.1513634E+003
  7.5320757E+003
  7.9270699E+003
  8.3581280E+003
  8.8509059E+003
  9.4359815E+003
  1.0158682E+004
  1.1103729E+004
  1.2454849E+004
  1.4495360E+004
  1.7427861E+004
  2.0937190E+004
  2.4780648E+004
  2.7927874E+004
  3.0454728E+004
  3.2171665E+004
  3.2648875E+004
  3.2238962E+004
  3.1205366E+004
  3.0000389E+004
  2.8959776E+004
  2.8228753E+004
  2.7798847E+004
  2.7602450E+004
  2.7560358E+004
  2.7613787E+004
  2.7734536E+004
  2.7923522E+004
  2.8203662E+004
  2.8604925E+004
  2.9155968E+004
  2.9830013E+004
  3.0515528E+004
  3.0635576E+004
  2.8321469E+004
  2.0331311E+004
  1.1841431E+004
  4.9988934E+003
  3.1116614E+003
  1.8374219E+003
  1.5889517E+003
  1.5792293E+003
  1.7404412E+003
  2.0013975E+003
  2.3378930E+003
  2.7239141E+003
  3.1421534E+003
  3.5789922E+003
  4.0239865E+003
  4.4688096E+003
  4.9069371E+003
  5.3336436E+003
  5.7463570E+003
  6.1453115E+003
  6.5344262E+003
  6.9222563E+003
  7.3228014E+003
  7.7560106E+003
  8.2481812E+003
  8.8331657E+003
  9.5563337E+003
  1.0483086E+004
  1.1712678E+004
  1.3378493E+004
  1.5602400E+004
  1.8383864E+004
  2.1577789E+004
  2.4756503E+004
  2.7714023E+004
  3.0079342E+004
  3.1676801E+004
  3.2500782E+004
  3.2528850E+004
  3.2001880E+004
  3.1198852E+004
  3.0363730E+004
  2.9638666E+004
  2.9069007E+004
  2.8637149E+004
  2.8303616E+004
  2.8034447E+004
  2.7814926E+004
  2.7649906E+004
  2.7551612E+004
  2.7523327E+004
  2.7524422E+004
  2.7483460E+004
  2.7194137E+004
  2.6649630E+004
  2.6271001E+004
  1.8989406E+004
  6.9873802E+003
  1.9294106E+003
  2.1227319E+003
  1.7249971E+003
  1.3563525E+003
  1.3292517E+003
  1.5134095E+003
  1.8338429E+003
  2.2199559E+003
  2.6427854E+003
  3.0842256E+003
  3.5336174E+003
  3.9833086E+003
  4.4278178E+003
  4.8634112E+003
  5.2882482E+003
  5.7027959E+003
  6.1104683E+003
  6.5183912E+003
  6.9381892E+003
  7.3866936E+003
  7.8865729E+003
  8.4671065E+003
  9.1655961E+003
  1.0029828E+004
  1.1121121E+004
  1.2513348E+004
  1.4279192E+004
  1.6456122E+004
  1.9009588E+004
  2.1793345E+004
  2.4623213E+004
  2.7225281E+004
  2.9421900E+004
  3.1064249E+004
  3.2062439E+004
  3.2464782E+004
  3.2376590E+004
  3.1962997E+004
  3.1383018E+004
  3.0751304E+004
  3.0124559E+004
  2.9515290E+004
  2.8915943E+004
  2.8321220E+004
  2.7740951E+004
  2.7198464E+004
  2.6719512E+004
  2.6292169E+004
  2.5883666E+004
  2.5262562E+004
  2.4576621E+004
  2.2753144E+004
  2.2807144E+004
  2.5022107E+004
  1.4054562E+004
  1.7459886E+003
  1.4403581E+003
  1.2238332E+003
  1.0775819E+003
  1.1131906E+003
  1.3805809E+003
  1.7646565E+003
  2.2010471E+003
  2.6597240E+003
  3.1267056E+003
  3.5940618E+003
  4.0569243E+003
  4.5123523E+003
  4.9591040E+003
  5.3978097E+003
  5.8313940E+003
  6.2656397E+003
  6.7098099E+003
  7.1772466E+003
  7.6858928E+003
  8.2587475E+003
  8.9243428E+003
  9.7172996E+003
  1.0678701E+004
  1.1854974E+004
  1.3292716E+004
  1.5026600E+004
  1.7061642E+004
  1.9353774E+004
  2.1808814E+004
  2.4278497E+004
  2.6615298E+004
  2.8663354E+004
  3.0307764E+004
  3.1488476E+004
  3.2192548E+004
  3.2470936E+004
  3.2406970E+004
  3.2091283E+004
  3.1596318E+004
  3.0966370E+004
  3.0222635E+004
  2.9378817E+004
  2.8458700E+004
  2.7506615E+004
  2.6585828E+004
  2.5757168E+004
  2.5052226E+004
  2.4412186E+004
  2.3751097E+004
  2.2848279E+004
  2.2060258E+004
  2.2627934E+004
  3.2191633E+004
  1.1873524E+003
  1.0510679E+003
  7.9203855E+002
  7.7823728E+002
  9.8892341E+002
  1.3593414E+003
  1.8088191E+003
  2.2890483E+003
  2.7809278E+003
  3.2740033E+003
  3.7630796E+003
  4.2454810E+003
  4.7203325E+003
  5.1883209E+003
  5.6518728E+003
  6.1155117E+003
  6.5863091E+003
  7.0743405E+003
  7.5930803E+003
  8.1596931E+003
  8.7952071E+003
  9.5245501E+003
  1.0376332E+004
  1.1381967E+004
  1.2573313E+004
  1.3977790E+004
  1.5610607E+004
  1.7465133E+004
  1.9505708E+004
  2.1664017E+004
  2.3849307E+004
  2.5952662E+004
  2.7872058E+004
  2.9519151E+004
  3.0830931E+004
  3.1780260E+004
  3.2368789E+004
  3.2620620E+004
  3.2566947E+004
  3.2233757E+004
  3.1637045E+004
  3.0788961E+004
  2.9712650E+004
  2.8458746E+004
  2.7116357E+004
  2.5807822E+004
  2.4662952E+004
  2.3773268E+004
  2.3139732E+004
  2.2664191E+004
  2.2179089E+004
  2.2042537E+004
  2.2808948E+004
  2.1886517E+004
  8.4320919E+002
  6.5683402E+002
  4.4281377E+002
  6.1224656E+002
  9.9930941E+002
  1.4592488E+003
  1.9588545E+003
  2.4766164E+003
  2.9987372E+003
  3.5179319E+003
  4.0309927E+003
  4.5370512E+003
  5.0367571E+003
  5.5321138E+003
  6.0265911E+003
  6.5254139E+003
  7.0358973E+003
  7.5677535E+003
  8.1333109E+003
  8.7476074E+003
  9.4283285E+003
  1.0195540E+004
  1.1071080E+004
  1.2077351E+004
  1.3235133E+004
  1.4560157E+004
  1.6058566E+004
  1.7722282E+004
  1.9525490E+004
  2.1424617E+004
  2.3360126E+004
  2.5264563E+004
  2.7067006E+004
  2.8701993E+004
  3.0114973E+004
  3.1264094E+004
  3.2120889E+004
  3.2664467E+004
  3.2874783E+004
  3.2727809E+004
  3.2198042E+004
  3.1271322E+004
  2.9965421E+004
  2.8354299E+004
  2.6579474E+004
  2.4844072E+004
  2.3373046E+004
  2.2347196E+004
  2.1822158E+004
  2.1700395E+004
  2.1663887E+004
  2.1486616E+004
  2.0246330E+004
  1.9770807E+004
  4.4759855E+002
  3.6344940E+002
  2.5892112E+002
  6.6669888E+002
  1.1467256E+003
  1.6519029E+003
  2.1942037E+003
  2.7465123E+003
  3.2976508E+003
  3.8426729E+003
  4.3807618E+003
  4.9125452E+003
  5.4398480E+003
  5.9654190E+003
  6.4930934E+003
  7.0280234E+003
  7.5769401E+003
  8.1483523E+003
  8.7526394E+003
  9.4020098E+003
  1.0110301E+004
  1.0892583E+004
  1.1764488E+004
  1.2741154E+004
  1.3835673E+004
  1.5057040E+004
  1.6407854E+004
  1.7882217E+004
  1.9464529E+004
  2.1129384E+004
  2.2843217E+004
  2.4565902E+004
  2.6253910E+004
  2.7861929E+004
  2.9344349E+004
  3.0655815E+004
  3.1749059E+004
  3.2571018E+004
  3.3057706E+004
  3.3132560E+004
  3.2714858E+004
  3.1742166E+004
  3.0208698E+004
  2.8198262E+004
  2.5915420E+004
  2.3669581E+004
  2.1815432E+004
  2.0640683E+004
  2.0244212E+004
  2.0513875E+004
  2.0997883E+004
  2.0753309E+004
  1.8413316E+004
  1.6306907E+004
  8.7156901E+001
  2.0518279E+002
  4.0158842E+002
  9.2603079E+002
  1.3454910E+003
  1.9061819E+003
  2.4945955E+003
  3.0825412E+003
  3.6605901E+003
  4.2304896E+003
  4.7931819E+003
  5.3510686E+003
  5.9067021E+003
  6.4631114E+003
  7.0239021E+003
  7.5935473E+003
  8.1776100E+003
  8.7828847E+003
  9.4174110E+003
  1.0090356E+004
  1.0811760E+004
  1.1592138E+004
  1.2441921E+004
  1.3370724E+004
  1.4386440E+004
  1.5494257E+004
  1.6695753E+004
  1.7988285E+004
  1.9364836E+004
  2.0814364E+004
  2.2322228E+004
  2.3870624E+004
  2.5438003E+004
  2.6997992E+004
  2.8517522E+004
  2.9954449E+004
  3.1254467E+004
  3.2345653E+004
  3.3130580E+004
  3.3480802E+004
  3.3244511E+004
  3.2283451E+004
  3.0527153E+004
  2.8064318E+004
  2.5160829E+004
  2.2271218E+004
  1.9941137E+004
  1.8606016E+004
  1.8341638E+004
  1.8928039E+004
  1.9979946E+004
  2.0705721E+004
  1.7898386E+004
  1.3043685E+004
  8.1605566E+002
  9.2361273E+002
  1.1190419E+003
  1.5387628E+003
  2.2175785E+003
  2.8561403E+003
  3.4711470E+003
  4.0728270E+003
  4.6642317E+003
  5.2498498E+003
  5.8328909E+003
  6.4164046E+003
  7.0031164E+003
  7.5958897E+003
  8.1980319E+003
  8.8135558E+003
  9.4472878E+003
  1.0104835E+004
  1.0792429E+004
  1.1516664E+004
  1.2284168E+004
  1.3101214E+004
  1.3973311E+004
  1.4904829E+004
  1.5898734E+004
  1.6956534E+004
  1.8078508E+004
  1.9264210E+004
  2.0513076E+004
  2.1824789E+004
  2.3198787E+004
  2.4632511E+004
  2.6117933E+004
  2.7636938E+004
  2.9156688E+004
  3.0625767E+004
  3.1968560E+004
  3.3072531E+004
  3.3768206E+004
  3.3822537E+004
  3.2970300E+004
  3.1048519E+004
  2.8059125E+004
  2.4369703E+004
  2.0646497E+004
  1.7730047E+004
  1.6294023E+004
  1.6335713E+004
  1.7141593E+004
  1.8193477E+004
  1.9970588E+004
  1.6386933E+004
  7.1081176E+003
  1.2075852E+003
  1.3097546E+003
  9.1101959E+002
  1.8795231E+003
  2.6264930E+003
  3.2686074E+003
  3.9033909E+003
  4.5189381E+003
  5.1279264E+003
  5.7334924E+003
  6.3403100E+003
  6.9509059E+003
  7.5672136E+003
  8.1907849E+003
  8.8233763E+003
  9.4672197E+003
  1.0125118E+004
  1.0800364E+004
  1.1496547E+004
  1.2217320E+004
  1.2966144E+004
  1.3746073E+004
  1.4559622E+004
  1.5408749E+004
  1.6295044E+004
  1.7220134E+004
  1.8186348E+004
  1.9197583E+004
  2.0260222E+004
  2.1383770E+004
  2.2580660E+004
  2.3864307E+004
  2.5244537E+004
  2.6720299E+004
  2.8271707E+004
  2.9855224E+004
  3.1404519E+004
  3.2820762E+004
  3.3930935E+004
  3.4423948E+004
  3.3879537E+004
  3.1825649E+004
  2.8285136E+004
  2.3614738E+004
  1.8770695E+004
  1.5135467E+004
  1.3845760E+004
  1.4565449E+004
  1.6101895E+004
  1.6434410E+004
  1.7878956E+004
  2.1539335E+004
  1.2359109E+004
  1.8968773E+003
  9.0495683E+002
  1.6123759E+003
  2.5770902E+003
  3.0519146E+003
  3.7336973E+003
  4.3562710E+003
  4.9845458E+003
  5.6042618E+003
  6.2278218E+003
  6.8572928E+003
  7.4949156E+003
  8.1407918E+003
  8.7946660E+003
  9.4564030E+003
  1.0126387E+004
  1.0805517E+004
  1.1495044E+004
  1.2196338E+004
  1.2910661E+004
  1.3639010E+004
  1.4382043E+004
  1.5140154E+004
  1.5913704E+004
  1.6703434E+004
  1.7511076E+004
  1.8340130E+004
  1.9196822E+004
  2.0091186E+004
  2.1038180E+004
  2.2058444E+004
  2.3177685E+004
  2.4422641E+004
  2.5811562E+004
  2.7339958E+004
  2.8970220E+004
  3.0636360E+004
  3.2277258E+004
  3.3804039E+004
  3.4930898E+004
  3.4938014E+004
  3.3230207E+004
  2.8997797E+004
  2.2948408E+004
  1.6603490E+004
  1.2071726E+004
  1.1391932E+004
  1.3546112E+004
  1.6102075E+004
  1.7789265E+004
  1.8654568E+004
  2.6694423E+004
  3.2988955E+003
  2.6961068E+003
  2.9064472E+003
  3.5326174E+003
  4.1803340E+003
  4.8216565E+003
  5.4462774E+003
  6.0767118E+003
  6.7162104E+003
  7.3694165E+003
  8.0356312E+003
  8.7125460E+003
  9.3973438E+003
  1.0087874E+004
  1.0782805E+004
  1.1481451E+004
  1.2183432E+004
  1.2888382E+004
  1.3595741E+004
  1.4304671E+004
  1.5014138E+004
  1.5723141E+004
  1.6431114E+004
  1.7138449E+004
  1.7847122E+004
  1.8561352E+004
  1.9288331E+004
  2.0039139E+004
  2.0830071E+004
  2.1684515E+004
  2.2634891E+004
  2.3722331E+004
  2.4987789E+004
  2.6449579E+004
  2.8071750E+004
  2.9761539E+004
  3.1416028E+004
  3.3119024E+004
  3.4904319E+004
  3.6155573E+004
  3.4357910E+004
  2.9824668E+004
  2.2375842E+004
  1.3828510E+004
  8.4911442E+003
  9.5866025E+003
  1.3350454E+004
  1.7091907E+004
  2.0534431E+004
  2.1072474E+004
  1.6526520E+004
  2.0839229E+003
  2.2625031E+003
  3.0916871E+003
  3.9516110E+003
  4.6413330E+003
  5.2595305E+003
  5.8891638E+003
  6.5248642E+003
  7.1829930E+003
  7.8637424E+003
  8.5632055E+003
  9.2745259E+003
  9.9920347E+003
  1.0711740E+004
  1.1431099E+004
  1.2148373E+004
  1.2862083E+004
  1.3570638E+004
  1.4272161E+004
  1.4964526E+004
  1.5645572E+004
  1.6313503E+004
  1.6967432E+004
  1.7607987E+004
  1.8237872E+004
  1.8862283E+004
  1.9489124E+004
  2.0129276E+004
  2.0797443E+004
  2.1514442E+004
  2.2311551E+004
  2.3236688E+004
  2.4356835E+004
  2.5731855E+004
  2.7353659E+004
  2.9057417E+004
  3.0590628E+004
  3.1763748E+004
  3.3619503E+004
  3.6072096E+004
  3.7983621E+004
  3.2454872E+004
  2.1798270E+004
  1.0403780E+004
  5.0872073E+003
  9.7261539E+003
  1.4096060E+004
  1.7597780E+004
  2.1843101E+004
  1.9713103E+004
  9.8801366E+003
  2.2243229E+003
  2.6151683E+003
  3.6964424E+003
  4.5019285E+003
  5.0249729E+003
  5.6733151E+003
  6.2852319E+003
  6.9302210E+003
  7.6120111E+003
  8.3309464E+003
  9.0718906E+003
  9.8227822E+003
  1.0575267E+004
  1.1324581E+004
  1.2067904E+004
  1.2803211E+004
  1.3528496E+004
  1.4241405E+004
  1.4939157E+004
  1.5618723E+004
  1.6277228E+004
  1.6912526E+004
  1.7523929E+004
  1.8112938E+004
  1.8683811E+004
  1.9243738E+004
  1.9802442E+004
  2.0371379E+004
  2.0963200E+004
  2.1593058E+004
  2.2283506E+004
  2.3074902E+004
  2.4045288E+004
  2.5332097E+004
  2.7020928E+004
  2.9020721E+004
  3.0757222E+004
  3.1716609E+004
  3.0409267E+004
  3.4564146E+004
  2.9737457E+004
  2.5570918E+004
  1.8054439E+004
  3.7712227E+003
  6.6329000E+003
  1.1744000E+004
  1.5992279E+004
  1.8003619E+004
  2.0198031E+004
  2.6281962E+004
  1.5676030E+004
  1.3812717E+003
  3.8474335E+003
  4.6956524E+003
  4.6291213E+003
  5.4344332E+003
  6.0144428E+003
  6.6173829E+003
  7.2636118E+003
  7.9931447E+003
  8.7683607E+003
  9.5626017E+003
  1.0358086E+004
  1.1146726E+004
  1.1924943E+004
  1.2691035E+004
  1.3443508E+004
  1.4180325E+004
  1.4898681E+004
  1.5595119E+004
  1.6265913E+004
  1.6907669E+004
  1.7518135E+004
  1.8097157E+004
  1.8647658E+004
  1.9176391E+004
  1.9694095E+004
  2.0214627E+004
  2.0752956E+004
  2.1322689E+004
  2.1934609E+004
  2.2600125E+004
  2.3341604E+004
  2.4209422E+004
  2.5361330E+004
  2.7184270E+004
  2.9746976E+004
  3.2278787E+004
  3.4951189E+004
  3.4157911E+004
  4.3310103E+004
  2.7988382E+004
  1.8520327E+004
  2.7660832E+004
  8.4831675E+003
  1.0682255E+004
  1.3898083E+004
  1.7997204E+004
  2.2219799E+004
  2.4481389E+004
  3.2141280E+004
  4.0103714E+003
  3.8298439E+003
  4.9387092E+003
  5.8149495E+003
  6.3042034E+003
  6.8016486E+003
  7.5093459E+003
  8.3290032E+003
  9.1879028E+003
  1.0044782E+004
  1.0886001E+004
  1.1708327E+004
  1.2512253E+004
  1.3298481E+004
  1.4066609E+004
  1.4814771E+004
  1.5539758E+004
  1.6237430E+004
  1.6903333E+004
  1.7533528E+004
  1.8125632E+004
  1.8680064E+004
  1.9201398E+004
  1.9699577E+004
  2.0190462E+004
  2.0694973E+004
  2.1236212E+004
  2.1834569E+004
  2.2503795E+004
  2.3248065E+004
  2.4077329E+004
  2.5013882E+004
  2.6097323E+004
  2.7638665E+004
  3.1502477E+004
  3.6869996E+004
  3.9719369E+004
  4.2028572E+004
  4.2492051E+004
  2.8067547E+004
  1.1711951E+004
  1.2920328E+004
  1.4885698E+004
  1.8389149E+004
  2.4224394E+004
  2.5781837E+004
  1.3154135E+004
  3.5140673E+003
  4.2240105E+003
  6.0732285E+003
  6.3564316E+003
  6.2203642E+003
  6.7922676E+003
  7.6825626E+003
  8.6619132E+003
  9.6191465E+003
  1.0535961E+004
  1.1414368E+004
  1.2261968E+004
  1.3085075E+004
  1.3887185E+004
  1.4668860E+004
  1.5428109E+004
  1.6161021E+004
  1.6862499E+004
  1.7527118E+004
  1.8150137E+004
  1.8728746E+004
  1.9263595E+004
  1.9760612E+004
  2.0232931E+004
  2.0702410E+004
  2.1199675E+004
  2.1761009E+004
  2.2421720E+004
  2.3206062E+004
  2.4129388E+004
  2.5181221E+004
  2.6433944E+004
  2.7912531E+004
  2.9478800E+004
  3.0784243E+004
  3.8056601E+004
  4.5406419E+004
  4.3030978E+004
  1.4463527E+004
  9.0166882E+003
  1.2138128E+004
  1.6203911E+004
  1.8441474E+004
  2.2441208E+004
  3.2610550E+004
  2.0308383E+004
  2.8690150E+003
  7.9145535E+003
  8.0931768E+003
  5.6748286E+003
  5.5806712E+003
  6.6653849E+003
  7.9294337E+003
  9.0727212E+003
  1.0103901E+004
  1.1053174E+004
  1.1947562E+004
  1.2805853E+004
  1.3638912E+004
  1.4451817E+004
  1.5244978E+004
  1.6015438E+004
  1.6757945E+004
  1.7465969E+004
  1.8132712E+004
  1.8752226E+004
  1.9320759E+004
  1.9838493E+004
  2.0311772E+004
  2.0755880E+004
  2.1198073E+004
  2.1679667E+004
  2.2254891E+004
  2.2981366E+004
  2.3907740E+004
  2.5047791E+004
  2.6456053E+004
  2.8001251E+004
  3.0431861E+004
  3.3543771E+004
  4.0193941E+004
  5.7000430E+004
  5.0445424E+004
  7.3837095E+003
  7.1725170E+003
  1.2250142E+004
  1.6206671E+004
  2.2805672E+004
  2.6456239E+004
  3.7349409E+004
  8.9554041E+003
  6.3496328E+003
  2.9800738E+003
  5.0643690E+003
  6.9649816E+003
  8.4688333E+003
  9.6412661E+003
  1.0666723E+004
  1.1597493E+004
  1.2478905E+004
  1.3330558E+004
  1.4164404E+004
  1.4984004E+004
  1.5787847E+004
  1.6570761E+004
  1.7325337E+004
  1.8043052E+004
  1.8715311E+004
  1.9334526E+004
  1.9895427E+004
  2.0396818E+004
  2.0844018E+004
  2.1252321E+004
  2.1651602E+004
  2.2091976E+004
  2.2646654E+004
  2.3407862E+004
  2.4451484E+004
  2.5829467E+004
  2.7456058E+004
  2.9706034E+004
  3.1210913E+004
  3.6532222E+004
  3.7512185E+004
  4.1877097E+004
  5.4333403E+003
  2.5177721E+003
  3.6964373E+003
  8.5142351E+003
  1.2208627E+004
  1.5633962E+004
  2.2073890E+004
  2.5706955E+004
  1.3594858E+004
  7.1768154E+003
  1.2389790E+003
  4.2269811E+003
  6.6122119E+003
  8.1407484E+003
  9.3410849E+003
  1.0361322E+004
  1.1274485E+004
  1.2143337E+004
  1.2984811E+004
  1.3817554E+004
  1.4646987E+004
  1.5472660E+004
  1.6289048E+004
  1.7087555E+004
  1.7857849E+004
  1.8588974E+004
  1.9270244E+004
  1.9892141E+004
  2.0447424E+004
  2.0932696E+004
  2.1350729E+004
  2.1714042E+004
  2.2050518E+004
  2.2412180E+004
  2.2886761E+004
  2.3605702E+004
  2.4709721E+004
  2.6278665E+004
  2.8128022E+004
  3.0361803E+004
  3.3086031E+004
  3.6140212E+004
  4.4911771E+004
  2.1868942E+004
  1.9562989E+003
  4.2524969E+003
  9.1422330E+003
  1.3353022E+004
  1.5491147E+004
  1.9744280E+004
  3.0576493E+004
  1.9200339E+004
  9.8020645E+003
  7.4895503E+003
  9.3456574E+003
  9.4471590E+003
  1.0347294E+004
  1.1051362E+004
  1.1857034E+004
  1.2633092E+004
  1.3429503E+004
  1.4241227E+004
  1.5069138E+004
  1.5905711E+004
  1.6740281E+004
  1.7559856E+004
  1.8350765E+004
  1.9099490E+004
  1.9793258E+004
  2.0420600E+004
  2.0972157E+004
  2.1441907E+004
  2.1829083E+004
  2.2141157E+004
  2.2399122E+004
  2.2646572E+004
  2.2969487E+004
  2.3522263E+004
  2.4567363E+004
  2.6248604E+004
  2.8586902E+004
  2.9989963E+004
  3.2882497E+004
  3.1299247E+004
  2.9718340E+004
  3.4994589E+003
  6.8599899E+003
  1.1187732E+004
  1.4450514E+004
  1.8515428E+004
  2.0201685E+004
  3.2487417E+004
  1.1674592E+004
  9.5675765E+003
  1.0041310E+004
  1.0500828E+004
  1.0874504E+004
  1.1639362E+004
  1.2291031E+004
  1.3012042E+004
  1.3772321E+004
  1.4576326E+004
  1.5414441E+004
  1.6273224E+004
  1.7135548E+004
  1.7983741E+004
  1.8800916E+004
  1.9571382E+004
  2.0280668E+004
  2.0915658E+004
  2.1465063E+004
  2.1920361E+004
  2.2277254E+004
  2.2537826E+004
  2.2713835E+004
  2.2833106E+004
  2.2955596E+004
  2.3210830E+004
  2.3926654E+004
  2.5619828E+004
  2.8472923E+004
  3.0543279E+004
  3.1048755E+004
  3.6557948E+004
  1.8387906E+004
  6.9569827E+002
  1.6958557E+003
  4.8668633E+003
  9.5102957E+003
  1.2621360E+004
  1.5323987E+004
  1.8771655E+004
  1.9427249E+004
  1.5244538E+004
  5.5068990E+003
  8.9726019E+003
  9.8734072E+003
  9.9621094E+003
  1.1418083E+004
  1.1898625E+004
  1.2543391E+004
  1.3231800E+004
  1.3986201E+004
  1.4804154E+004
  1.5673227E+004
  1.6571200E+004
  1.7473734E+004
  1.8358861E+004
  1.9207490E+004
  2.0002781E+004
  2.0729354E+004
  2.1372957E+004
  2.1920742E+004
  2.2362146E+004
  2.2690281E+004
  2.2903655E+004
  2.3007959E+004
  2.3018089E+004
  2.2959185E+004
  2.2896845E+004
  2.2964152E+004
  2.4098026E+004
  2.7303348E+004
  3.3003700E+004
  2.8505993E+004
  2.3352406E+004
  4.2777447E+003
  8.6029989E+003
  1.1931904E+004
  1.3618644E+004
  1.4631714E+004
  1.6106111E+004
  1.4670476E+004
  8.3220730E+003
  7.2117237E+003
  8.9041364E+003
  1.1054575E+004
  1.1520794E+004
  1.1892422E+004
  1.2610000E+004
  1.3282144E+004
  1.4058541E+004
  1.4919081E+004
  1.5848006E+004
  1.6805532E+004
  1.7760864E+004
  1.8689446E+004
  1.9572300E+004
  2.0393097E+004
  2.1136555E+004
  2.1787762E+004
  2.2332488E+004
  2.2758384E+004
  2.3056833E+004
  2.3225678E+004
  2.3270520E+004
  2.3209785E+004
  2.3057750E+004
  2.2849255E+004
  2.2501106E+004
  2.2175063E+004
  2.3905977E+004
  2.7975441E+004
  2.5843092E+004
  1.2418318E+004
  1.3471773E+004
  1.1090759E+004
  1.3473155E+004
  1.4033739E+004
  1.3912020E+004
  1.3320652E+004
  1.6545556E+004
  9.4217037E+003
  4.4772842E+003
  1.1468188E+004
  1.2222155E+004
  1.0562016E+004
  1.2000814E+004
  1.2472133E+004
  1.3183169E+004
  1.3980423E+004
  1.4937677E+004
  1.5958594E+004
  1.6995386E+004
  1.8010906E+004
  1.8984005E+004
  1.9899046E+004
  2.0742278E+004
  2.1499369E+004
  2.2154823E+004
  2.2692617E+004
  2.3097892E+004
  2.3360180E+004
  2.3476432E+004
  2.3460295E+004
  2.3333006E+004
  2.3185608E+004
  2.2974022E+004
  2.3167682E+004
  2.2340164E+004
  2.4620726E+004
  3.8596283E+004
  3.0951995E+004
  1.5158486E+004
  1.2434957E+004
  1.3335728E+004
  1.3937752E+004
  1.4258050E+004
  1.2608197E+004
  1.5045762E+004
  1.0482141E+004
  9.4643535E+003
  1.1150324E+004
  1.1942998E+004
  1.2263133E+004
  1.2836533E+004
  1.3792882E+004
  1.4902304E+004
  1.6050528E+004
  1.7172537E+004
  1.8243825E+004
  1.9252749E+004
  2.0191157E+004
  2.1049264E+004
  2.1813882E+004
  2.2468316E+004
  2.2993425E+004
  2.3370122E+004
  2.3582798E+004
  2.3627250E+004
  2.3511700E+004
  2.3295227E+004
  2.3006967E+004
  2.3040947E+004
  2.2989711E+004
  2.5377473E+004
  2.5005459E+004
  3.7068696E+004
  8.5008975E+003
  7.5622260E+003
  1.3566682E+004
  1.5269205E+004
  1.4240939E+004
  1.3460203E+004
  1.2241864E+004
  9.5897139E+003
  3.7340039E+003
  6.9246035E+003
  1.0150295E+004
  1.2920007E+004
  1.1846948E+004
  1.1431833E+004
  1.2316694E+004
  1.3579518E+004
  1.4915990E+004
  1.6188310E+004
  1.7375459E+004
  1.8478503E+004
  1.9502516E+004
  2.0448278E+004
  2.1309751E+004
  2.2073937E+004
  2.2721542E+004
  2.3228396E+004
  2.3568019E+004
  2.3716086E+004
  2.3657643E+004
  2.3397533E+004
  2.2973932E+004
  2.2471203E+004
  2.2059078E+004
  2.2062321E+004
  2.3620069E+004
  2.2246112E+004
  1.4043269E+004
  1.3970572E+004
  1.8331824E+004
  1.8151842E+004
  1.5254583E+004
  1.2845331E+004
  9.8447512E+003
  8.5456588E+003
  4.4000705E+003
  5.9322785E+003
  1.5942803E+004
  1.4471294E+004
  9.2802331E+003
  1.0244403E+004
  1.1853277E+004
  1.3604366E+004
  1.5106277E+004
  1.6437174E+004
  1.7630704E+004
  1.8721629E+004
  1.9729961E+004
  2.0662353E+004
  2.1513897E+004
  2.2269742E+004
  2.2906265E+004
  2.3392196E+004
  2.3690636E+004
  2.3763126E+004
  2.3577438E+004
  2.3119557E+004
  2.2411082E+004
  2.1512138E+004
  2.0521605E+004
  1.9352616E+004
  1.9215464E+004
  1.5600714E+004
  7.8331948E+003
  3.0457121E+004
  1.9406746E+004
  1.8366999E+004
  1.4772225E+004
  1.2003663E+004
  7.1947728E+003
  5.1226244E+003
  1.7238250E+004
  8.5930205E+003
  5.8241093E+003
  9.8840853E+003
  1.2219300E+004
  1.4106022E+004
  1.5553101E+004
  1.6815655E+004
  1.7929267E+004
  1.8956309E+004
  1.9916225E+004
  2.0815176E+004
  2.1644943E+004
  2.2386773E+004
  2.3011408E+004
  2.3479326E+004
  2.3741254E+004
  2.3740140E+004
  2.3419937E+004
  2.2735013E+004
  2.1695592E+004
  2.0321198E+004
  1.8918363E+004
  1.6862052E+004
  1.5107470E+004
  1.7132130E+004
  9.1432877E+003
  2.9134274E+004
  1.9338877E+004
  1.5544331E+004
  1.3705871E+004
  1.0031452E+004
  4.0814519E+003
  7.3646478E+002
  5.4215210E+003
  2.1307346E+003
  9.0997118E+003
  1.1940083E+004
  1.3618327E+004
  1.4972857E+004
  1.6208305E+004
  1.7246728E+004
  1.8215914E+004
  1.9138308E+004
  2.0027648E+004
  2.0879213E+004
  2.1679866E+004
  2.2405472E+004
  2.3021395E+004
  2.3480732E+004
  2.3722007E+004
  2.3669170E+004
  2.3232414E+004
  2.2337116E+004
  2.0919578E+004
  1.9139849E+004
  1.6964879E+004
  1.6028060E+004
  1.3697563E+004
  1.5732163E+004
  1.8204250E+004
  1.2661236E+004
  2.5219297E+004
  2.1401931E+004
  1.4732880E+004
  1.1425823E+004
  7.0672368E+003
  3.6810577E+003
  2.2937624E+003
  3.6065664E+003
  1.3601746E+004
  1.4419853E+004
  1.4359355E+004
  1.4674455E+004
  1.6028048E+004
  1.6787230E+004
  1.7597814E+004
  1.8396997E+004
  1.9211657E+004
  2.0022556E+004
  2.0823138E+004
  2.1592329E+004
  2.2302212E+004
  2.2914633E+004
  2.3378738E+004
  2.3625584E+004
  2.3561809E+004
  2.3068082E+004
  2.2007877E+004
  2.0278918E+004
  1.7919508E+004
  1.5142951E+004
  1.3031853E+004
  1.0579305E+004
  4.3054757E+003
  3.8975321E+004
  2.7315211E+004
  2.1995133E+004
  1.3305277E+004
  8.4745144E+003
  4.4384268E+003
  8.7302577E+003
  2.0856028E+004
  1.1933189E+004
  1.2831524E+004
  1.6079887E+004
  1.6559748E+004
  1.7079573E+004
  1.7707463E+004
  1.8408736E+004
  1.9122724E+004
  1.9866878E+004
  2.0619215E+004
  2.1357961E+004
  2.2051797E+004
  2.2662839E+004
  2.3142426E+004
  2.3422670E+004
  2.3404689E+004
  2.2942118E+004
  2.1849879E+004
  1.9895385E+004
  1.7049086E+004
  1.3538029E+004
  1.0509820E+004
  1.0255135E+004
  5.3927341E+003
  4.0077343E+004
  2.2963094E+004
  1.6009636E+004
  1.1041221E+004
  5.5810240E+003
  5.3565730E+003
  8.8333396E+003
  6.9303460E+003
  7.5586462E+003
  1.5133454E+004
  1.6915728E+004
  1.6224424E+004
  1.6941614E+004
  1.7610506E+004
  1.8202897E+004
  1.8855890E+004
  1.9541236E+004
  2.0252494E+004
  2.0960433E+004
  2.1631847E+004
  2.2232687E+004
  2.2724594E+004
  2.3053715E+004
  2.3131395E+004
  2.2815076E+004
  2.1853433E+004
  1.9985345E+004
  1.6652096E+004
  1.2508056E+004
  7.7631819E+003
  7.0274852E+003
  2.3304449E+004
  3.5208963E+004
  2.9552153E+004
  2.1086054E+004
  1.1622492E+004
  7.4619744E+003
  5.6396406E+003
  7.3915671E+003
  6.1374482E+003
  2.7845763E+003
  7.6761457E+003
  1.6089252E+004
  1.6235395E+004
  1.5201980E+004
  1.7042768E+004
  1.7215939E+004
  1.7852211E+004
  1.8409384E+004
  1.9050575E+004
  1.9726020E+004
  2.0399041E+004
  2.1028832E+004
  2.1590640E+004
  2.2064969E+004
  2.2425039E+004
  2.2615726E+004
  2.2521927E+004
  2.1926761E+004
  2.0363109E+004
  1.7448387E+004
  1.1914172E+004
  6.7216160E+003
  2.4519724E+003
  4.3489847E+004
  2.5840653E+004
  1.5481565E+004
  8.1499883E+003
  2.9812196E+003
  3.6617036E+003
  1.1650069E+004
  8.4928573E+003
  1.1285847E+004
  1.5125480E+004
  1.6935049E+004
  1.6329291E+004
  1.6942341E+004
  1.7342357E+004
  1.7808414E+004
  1.8415494E+004
  1.9071301E+004
  1.9695499E+004
  2.0245656E+004
  2.0711482E+004
  2.1101168E+004
  2.1422558E+004
  2.1676038E+004
  2.1789452E+004
  2.1694129E+004
  2.0779458E+004
  1.8896880E+004
  1.1786512E+004
  7.1435516E+003
  3.8696468E+004
  3.2680178E+004
  2.4858846E+004
  1.5375961E+004
  9.4722373E+003
  3.7780620E+003
  2.7469435E+003
  7.1617073E+003
  1.5416484E+004
  7.0233835E+003
  1.6276720E+004
  1.7031914E+004
  1.5947479E+004
  1.6869554E+004
  1.6588583E+004
  1.7066306E+004
  1.7697469E+004
  1.8356063E+004
  1.8901153E+004
  1.9307629E+004
  1.9590655E+004
  1.9788123E+004
  1.9947959E+004
  2.0111688E+004
  2.0317201E+004
  2.0513236E+004
  2.0613962E+004
  2.0230830E+004
  1.5672777E+004
  1.0092886E+004
  3.1212576E+004
  2.8325479E+004
  2.5812250E+004
  2.1004854E+004
  1.3635725E+004
  6.3954716E+003
  1.5078869E+003
  5.6307158E+003
  8.8816226E+003
  6.0163904E+003
  1.1823995E+004
  1.6558338E+004
  1.7778846E+004
  1.5868168E+004
  1.5594992E+004
  1.6232729E+004
  1.7038879E+004
  1.7692482E+004
  1.8093722E+004
  1.8267330E+004
  1.8258294E+004
  1.8132093E+004
  1.7957721E+004
  1.7832438E+004
  1.7773012E+004
  1.8092494E+004
  1.8062747E+004
  2.0668888E+004
  1.9863615E+004
  3.5043504E+004
  2.8078066E+004
  2.5742544E+004
  2.3453334E+004
  1.9871056E+004
  1.5394654E+004
  1.0040724E+004
  4.7095408E+003
  2.9255780E+003
  7.1146042E+003
  8.8288042E+003
  6.1165743E+003
  8.7072536E+003
  1.9533368E+004
  1.9503085E+004
  1.3190490E+004
  1.4562761E+004
  1.5586319E+004
  1.6688428E+004
  1.7203704E+004
  1.7367736E+004
  1.7207162E+004
  1.6802764E+004
  1.6224329E+004
  1.5556387E+004
  1.4881599E+004
  1.4296912E+004
  1.3862991E+004
  1.3716928E+004
  1.4374411E+004
  1.5332914E+004
  3.7675981E+004
  2.4557364E+004
  2.3751469E+004
  2.0374792E+004
  1.9169247E+004
  1.6093897E+004
  1.1910439E+004
  7.4569850E+003
  4.2455653E+003
  6.1006786E+003
  1.0060991E+004
  1.0317751E+004
  2.0491906E+004
  1.3537738E+004
  1.0986421E+004
  1.3895932E+004
  1.5938422E+004
  1.6746233E+004
  1.7005714E+004
  1.6809028E+004
  1.6255719E+004
  1.5398165E+004
  1.4303757E+004
  1.3045812E+004
  1.1698138E+004
  1.0289164E+004
  8.8746358E+003
  7.2455861E+003
  5.7919252E+003
  4.5882336E+003
  1.5931138E+004
  1.9998870E+004
  3.4752492E+004
  1.7163545E+004
  9.7720706E+003
  1.8905451E+004
  1.3164500E+004
  2.2884817E+004
  1.9141673E+004
  1.7162832E+004
  1.3323473E+004
  8.7908545E+003
  5.4987453E+003
  5.6635013E+003
  9.0659340E+003
  1.0991852E+004
  2.6547478E+004
  6.1439412E+003
  1.2813506E+004
  1.6048103E+004
  1.6991889E+004
  1.7271545E+004
  1.7086087E+004
  1.6522906E+004
  1.5598329E+004
  1.4335204E+004
  1.2793933E+004
  1.1051465E+004
  9.1797501E+003
  7.2146754E+003
  5.1960023E+003
  3.6273360E+003
  4.8122828E+003
  1.0003857E+004
  1.6621236E+004
  2.2649679E+004
  2.4493797E+004
  2.5810242E+004
  2.3472199E+004
  1.9642439E+004
  1.5642926E+004
  1.1550140E+004
  5.3701271E+003
  5.1736969E+003
  6.7321675E+003
  8.7999681E+003
  2.0071436E+004
  1.5988245E+004
  1.9216170E+004
  1.8035686E+004
  1.8012614E+004
  1.7395795E+004
  1.6646612E+004
  1.5473354E+004
  1.3983464E+004
  1.2250662E+004
  1.0412243E+004
  8.6638436E+003
  7.3174926E+003
  6.8029607E+003
  7.7721926E+003
  1.0232816E+004
  1.3125164E+004
  1.6395198E+004
  2.0335813E+004
  2.3202711E+004
  2.3077458E+004
  2.1439532E+004
  1.8058000E+004
  1.2005482E+004
  6.1361138E+003
  4.2719744E+003
  5.6342051E+003
  4.8702068E+003
  2.2473193E+004
  1.9409863E+004
  1.9257418E+004
  1.9151962E+004
  1.8307446E+004
  1.8191496E+004
  1.7287814E+004
  1.6061010E+004
  1.4599707E+004
  1.3014705E+004
  1.1478346E+004
  1.0323967E+004
  9.9060063E+003
  1.0658108E+004
  1.2346730E+004
  1.4502335E+004
  1.6492963E+004
  1.6984502E+004
  1.9193827E+004
  2.4261953E+004
  2.1776210E+004
  1.8223835E+004
  1.2745998E+004
  9.1976698E+003
  2.2211640E+003
  3.4145889E+003
  1.1435623E+004
  1.9916064E+004
  2.0746276E+004
  1.6974642E+004
  1.9799384E+004
  1.9346467E+004
  1.8569285E+004
  1.7366863E+004
  1.6098104E+004
  1.4900929E+004
  1.3753573E+004
  1.2813285E+004
  1.2830807E+004
  1.4014898E+004
  1.6162962E+004
  1.7740070E+004
  1.9485714E+004
  2.1016651E+004
  2.0699565E+004
  2.3994749E+004
  2.0101135E+004
  1.9787178E+004
  1.2658188E+004
  3.8427123E+003
  1.8766732E+004
  1.4193622E+004
  2.0253322E+004
  2.1489169E+004
  2.1932555E+004
  2.0573216E+004
  1.8841698E+004
  1.7836622E+004
  1.7188941E+004
  1.6524793E+004
  1.5353387E+004
  1.4250298E+004
  1.6168202E+004
  1.9598621E+004
  2.0800711E+004
  2.1685803E+004
  2.3615987E+004
  3.3078377E+004
  3.3847168E+004
  1.0605090E+004
  1.1434947E+004
  1.3400429E+004
  1.7931591E+004
  1.9777523E+004
  2.7665738E+004
  2.6014344E+004
  2.2067491E+004
  2.0216027E+004
  1.9402703E+004
  1.8781756E+004
  1.8768084E+004
  1.8395178E+004
  1.6645449E+004
  1.7749330E+004
  2.0353140E+004
  1.8720700E+004
  2.5210206E+004
  2.2237209E+004
  2.0487059E+004
  6.9938700E+003
  1.7460497E+004
  3.8445460E+004
  3.9214729E+004
  3.3138029E+004
  2.3362795E+004
  2.1278074E+004
  2.0256246E+004
  1.7535643E+004
  1.7124905E+004
  1.5799283E+004
  2.1110699E+004
  2.6732200E+004
  1.6811748E+004
  1.0119617E+004
  1.3367061E+004
  1.4466655E+004
  3.6846104E+004
  4.7208395E+004
  2.1167057E+004
  2.5767665E+004
  2.9190653E+004
  1.8925879E+004
  1.6309125E+004
  1.2710048E+004
  7.0927902E+003
  1.2297100E+004
  4.3734458E+004
  7.1558135E+003
  5.7311388E+003
  1.2852295E+004
