# vtk DataFile Version 3.0
ElmerSolver output; started at 2023/07/26 09:49:51
ASCII
DATASET UNSTRUCTURED_GRID
POINTS 9030 double
 -7.5200000E-001  1.6000000E-002 0.0
 -7.4400000E-001  1.6000000E-002 0.0
 -7.4400000E-001  2.4000000E-002 0.0
 -7.5200000E-001  2.4000000E-002 0.0
 -7.4400000E-001  3.2000000E-002 0.0
 -7.5200000E-001  3.2000000E-002 0.0
 -7.4400000E-001  4.0000000E-002 0.0
 -7.5200000E-001  4.0000000E-002 0.0
 -7.4400000E-001  4.8000000E-002 0.0
 -7.5200000E-001  4.8000000E-002 0.0
 -7.4400000E-001  5.6000000E-002 0.0
 -7.5200000E-001  5.6000000E-002 0.0
 -7.4400000E-001 -8.0000000E-002 0.0
 -7.3600000E-001 -8.0000000E-002 0.0
 -7.3600000E-001 -7.2000000E-002 0.0
 -7.4400000E-001 -7.2000000E-002 0.0
 -7.3600000E-001 -6.4000000E-002 0.0
 -7.4400000E-001 -6.4000000E-002 0.0
 -7.3600000E-001 -5.6000000E-002 0.0
 -7.4400000E-001 -5.6000000E-002 0.0
 -7.3600000E-001 -4.8000000E-002 0.0
 -7.4400000E-001 -4.8000000E-002 0.0
 -7.3600000E-001 -4.0000000E-002 0.0
 -7.4400000E-001 -4.0000000E-002 0.0
 -7.3600000E-001 -3.2000000E-002 0.0
 -7.4400000E-001 -3.2000000E-002 0.0
 -7.3600000E-001 -2.4000000E-002 0.0
 -7.4400000E-001 -2.4000000E-002 0.0
 -7.3600000E-001 -1.6000000E-002 0.0
 -7.4400000E-001 -1.6000000E-002 0.0
 -7.3600000E-001 -8.0000000E-003 0.0
 -7.4400000E-001 -8.0000000E-003 0.0
 -7.3600000E-001  0.0000000E+000 0.0
 -7.4400000E-001  0.0000000E+000 0.0
 -7.3600000E-001  8.0000000E-003 0.0
 -7.4400000E-001  8.0000000E-003 0.0
 -7.3600000E-001  1.6000000E-002 0.0
 -7.3600000E-001  2.4000000E-002 0.0
 -7.3600000E-001  3.2000000E-002 0.0
 -7.3600000E-001  4.0000000E-002 0.0
 -7.3600000E-001  4.8000000E-002 0.0
 -7.3600000E-001  5.6000000E-002 0.0
 -7.3600000E-001  6.4000000E-002 0.0
 -7.4400000E-001  6.4000000E-002 0.0
 -7.3600000E-001  7.2000000E-002 0.0
 -7.4400000E-001  7.2000000E-002 0.0
 -7.3600000E-001  8.0000000E-002 0.0
 -7.4400000E-001  8.0000000E-002 0.0
 -7.2800000E-001 -8.0000000E-002 0.0
 -7.2800000E-001 -7.2000000E-002 0.0
 -7.2800000E-001 -6.4000000E-002 0.0
 -7.2800000E-001 -5.6000000E-002 0.0
 -7.2800000E-001 -4.8000000E-002 0.0
 -7.2800000E-001 -4.0000000E-002 0.0
 -7.2800000E-001 -3.2000000E-002 0.0
 -7.2800000E-001 -2.4000000E-002 0.0
 -7.2800000E-001 -1.6000000E-002 0.0
 -7.2800000E-001 -8.0000000E-003 0.0
 -7.2800000E-001  0.0000000E+000 0.0
 -7.2800000E-001  8.0000000E-003 0.0
 -7.2800000E-001  1.6000000E-002 0.0
 -7.2800000E-001  2.4000000E-002 0.0
 -7.2800000E-001  3.2000000E-002 0.0
 -7.2800000E-001  4.0000000E-002 0.0
 -7.2800000E-001  4.8000000E-002 0.0
 -7.2800000E-001  5.6000000E-002 0.0
 -7.2800000E-001  6.4000000E-002 0.0
 -7.2800000E-001  7.2000000E-002 0.0
 -7.2800000E-001  8.0000000E-002 0.0
 -7.2800000E-001  8.8000000E-002 0.0
 -7.3600000E-001  8.8000000E-002 0.0
 -7.2800000E-001  9.6000000E-002 0.0
 -7.3600000E-001  9.6000000E-002 0.0
 -7.2800000E-001 -8.8000000E-002 0.0
 -7.2000000E-001 -8.8000000E-002 0.0
 -7.2000000E-001 -8.0000000E-002 0.0
 -7.2000000E-001 -7.2000000E-002 0.0
 -7.2000000E-001 -6.4000000E-002 0.0
 -7.2000000E-001 -5.6000000E-002 0.0
 -7.2000000E-001 -4.8000000E-002 0.0
 -7.2000000E-001 -4.0000000E-002 0.0
 -7.2000000E-001 -3.2000000E-002 0.0
 -7.2000000E-001 -2.4000000E-002 0.0
 -7.2000000E-001 -1.6000000E-002 0.0
 -7.2000000E-001 -8.0000000E-003 0.0
 -7.2000000E-001  0.0000000E+000 0.0
 -7.2000000E-001  8.0000000E-003 0.0
 -7.2000000E-001  1.6000000E-002 0.0
 -7.2000000E-001  2.4000000E-002 0.0
 -7.2000000E-001  3.2000000E-002 0.0
 -7.2000000E-001  4.0000000E-002 0.0
 -7.2000000E-001  4.8000000E-002 0.0
 -7.2000000E-001  5.6000000E-002 0.0
 -7.2000000E-001  6.4000000E-002 0.0
 -7.2000000E-001  7.2000000E-002 0.0
 -7.2000000E-001  8.0000000E-002 0.0
 -7.2000000E-001  8.8000000E-002 0.0
 -7.2000000E-001  9.6000000E-002 0.0
 -7.2000000E-001  1.0400000E-001 0.0
 -7.2800000E-001  1.0400000E-001 0.0
 -7.1200000E-001 -8.8000000E-002 0.0
 -7.1200000E-001 -8.0000000E-002 0.0
 -7.1200000E-001 -7.2000000E-002 0.0
 -7.1200000E-001 -6.4000000E-002 0.0
 -7.1200000E-001 -5.6000000E-002 0.0
 -7.1200000E-001 -4.8000000E-002 0.0
 -7.1200000E-001 -4.0000000E-002 0.0
 -7.1200000E-001 -3.2000000E-002 0.0
 -7.1200000E-001 -2.4000000E-002 0.0
 -7.1200000E-001 -1.6000000E-002 0.0
 -7.1200000E-001 -8.0000000E-003 0.0
 -7.1200000E-001  0.0000000E+000 0.0
 -7.1200000E-001  8.0000000E-003 0.0
 -7.1200000E-001  1.6000000E-002 0.0
 -7.1200000E-001  2.4000000E-002 0.0
 -7.1200000E-001  3.2000000E-002 0.0
 -7.1200000E-001  4.0000000E-002 0.0
 -7.1200000E-001  4.8000000E-002 0.0
 -7.1200000E-001  5.6000000E-002 0.0
 -7.1200000E-001  6.4000000E-002 0.0
 -7.1200000E-001  7.2000000E-002 0.0
 -7.1200000E-001  8.0000000E-002 0.0
 -7.1200000E-001  8.8000000E-002 0.0
 -7.1200000E-001  9.6000000E-002 0.0
 -7.1200000E-001  1.0400000E-001 0.0
 -7.0400000E-001 -8.8000000E-002 0.0
 -7.0400000E-001 -8.0000000E-002 0.0
 -7.0400000E-001 -7.2000000E-002 0.0
 -7.0400000E-001 -6.4000000E-002 0.0
 -7.0400000E-001 -5.6000000E-002 0.0
 -7.0400000E-001 -4.8000000E-002 0.0
 -7.0400000E-001 -4.0000000E-002 0.0
 -7.0400000E-001 -3.2000000E-002 0.0
 -7.0400000E-001 -2.4000000E-002 0.0
 -7.0400000E-001 -1.6000000E-002 0.0
 -7.0400000E-001 -8.0000000E-003 0.0
 -7.0400000E-001  0.0000000E+000 0.0
 -7.0400000E-001  8.0000000E-003 0.0
 -7.0400000E-001  1.6000000E-002 0.0
 -7.0400000E-001  2.4000000E-002 0.0
 -7.0400000E-001  3.2000000E-002 0.0
 -7.0400000E-001  4.0000000E-002 0.0
 -7.0400000E-001  4.8000000E-002 0.0
 -7.0400000E-001  5.6000000E-002 0.0
 -7.0400000E-001  6.4000000E-002 0.0
 -7.0400000E-001  7.2000000E-002 0.0
 -7.0400000E-001  8.0000000E-002 0.0
 -7.0400000E-001  8.8000000E-002 0.0
 -7.0400000E-001  9.6000000E-002 0.0
 -7.0400000E-001  1.0400000E-001 0.0
 -7.0400000E-001  1.1200000E-001 0.0
 -7.1200000E-001  1.1200000E-001 0.0
 -7.0400000E-001  1.2000000E-001 0.0
 -7.1200000E-001  1.2000000E-001 0.0
 -7.0400000E-001 -9.6000000E-002 0.0
 -6.9600000E-001 -9.6000000E-002 0.0
 -6.9600000E-001 -8.8000000E-002 0.0
 -6.9600000E-001 -8.0000000E-002 0.0
 -6.9600000E-001 -7.2000000E-002 0.0
 -6.9600000E-001 -6.4000000E-002 0.0
 -6.9600000E-001 -5.6000000E-002 0.0
 -6.9600000E-001 -4.8000000E-002 0.0
 -6.9600000E-001 -4.0000000E-002 0.0
 -6.9600000E-001 -3.2000000E-002 0.0
 -6.9600000E-001 -2.4000000E-002 0.0
 -6.9600000E-001 -1.6000000E-002 0.0
 -6.9600000E-001 -8.0000000E-003 0.0
 -6.9600000E-001  0.0000000E+000 0.0
 -6.9600000E-001  8.0000000E-003 0.0
 -6.9600000E-001  1.6000000E-002 0.0
 -6.9600000E-001  2.4000000E-002 0.0
 -6.9600000E-001  3.2000000E-002 0.0
 -6.9600000E-001  4.0000000E-002 0.0
 -6.9600000E-001  4.8000000E-002 0.0
 -6.9600000E-001  5.6000000E-002 0.0
 -6.9600000E-001  6.4000000E-002 0.0
 -6.9600000E-001  7.2000000E-002 0.0
 -6.9600000E-001  8.0000000E-002 0.0
 -6.9600000E-001  8.8000000E-002 0.0
 -6.9600000E-001  9.6000000E-002 0.0
 -6.9600000E-001  1.0400000E-001 0.0
 -6.9600000E-001  1.1200000E-001 0.0
 -6.9600000E-001  1.2000000E-001 0.0
 -6.9600000E-001  1.2800000E-001 0.0
 -7.0400000E-001  1.2800000E-001 0.0
 -6.9600000E-001  1.3600000E-001 0.0
 -7.0400000E-001  1.3600000E-001 0.0
 -6.8800000E-001 -9.6000000E-002 0.0
 -6.8800000E-001 -8.8000000E-002 0.0
 -6.8800000E-001 -8.0000000E-002 0.0
 -6.8800000E-001 -7.2000000E-002 0.0
 -6.8800000E-001 -6.4000000E-002 0.0
 -6.8800000E-001 -5.6000000E-002 0.0
 -6.8800000E-001 -4.8000000E-002 0.0
 -6.8800000E-001 -4.0000000E-002 0.0
 -6.8800000E-001 -3.2000000E-002 0.0
 -6.8800000E-001 -2.4000000E-002 0.0
 -6.8800000E-001 -1.6000000E-002 0.0
 -6.8800000E-001 -8.0000000E-003 0.0
 -6.8800000E-001  0.0000000E+000 0.0
 -6.8800000E-001  8.0000000E-003 0.0
 -6.8800000E-001  1.6000000E-002 0.0
 -6.8800000E-001  2.4000000E-002 0.0
 -6.8800000E-001  3.2000000E-002 0.0
 -6.8800000E-001  4.0000000E-002 0.0
 -6.8800000E-001  4.8000000E-002 0.0
 -6.8800000E-001  5.6000000E-002 0.0
 -6.8800000E-001  6.4000000E-002 0.0
 -6.8800000E-001  7.2000000E-002 0.0
 -6.8800000E-001  8.0000000E-002 0.0
 -6.8800000E-001  8.8000000E-002 0.0
 -6.8800000E-001  9.6000000E-002 0.0
 -6.8800000E-001  1.0400000E-001 0.0
 -6.8800000E-001  1.1200000E-001 0.0
 -6.8800000E-001  1.2000000E-001 0.0
 -6.8800000E-001  1.2800000E-001 0.0
 -6.8800000E-001  1.3600000E-001 0.0
 -6.8800000E-001  1.4400000E-001 0.0
 -6.9600000E-001  1.4400000E-001 0.0
 -6.8800000E-001  1.5200000E-001 0.0
 -6.9600000E-001  1.5200000E-001 0.0
 -6.8800000E-001 -1.0400000E-001 0.0
 -6.8000000E-001 -1.0400000E-001 0.0
 -6.8000000E-001 -9.6000000E-002 0.0
 -6.8000000E-001 -8.8000000E-002 0.0
 -6.8000000E-001 -8.0000000E-002 0.0
 -6.8000000E-001 -7.2000000E-002 0.0
 -6.8000000E-001 -6.4000000E-002 0.0
 -6.8000000E-001 -5.6000000E-002 0.0
 -6.8000000E-001 -4.8000000E-002 0.0
 -6.8000000E-001 -4.0000000E-002 0.0
 -6.8000000E-001 -3.2000000E-002 0.0
 -6.8000000E-001 -2.4000000E-002 0.0
 -6.8000000E-001 -1.6000000E-002 0.0
 -6.8000000E-001 -8.0000000E-003 0.0
 -6.8000000E-001  0.0000000E+000 0.0
 -6.8000000E-001  8.0000000E-003 0.0
 -6.8000000E-001  1.6000000E-002 0.0
 -6.8000000E-001  2.4000000E-002 0.0
 -6.8000000E-001  3.2000000E-002 0.0
 -6.8000000E-001  4.0000000E-002 0.0
 -6.8000000E-001  4.8000000E-002 0.0
 -6.8000000E-001  5.6000000E-002 0.0
 -6.8000000E-001  6.4000000E-002 0.0
 -6.8000000E-001  7.2000000E-002 0.0
 -6.8000000E-001  8.0000000E-002 0.0
 -6.8000000E-001  8.8000000E-002 0.0
 -6.8000000E-001  9.6000000E-002 0.0
 -6.8000000E-001  1.0400000E-001 0.0
 -6.8000000E-001  1.1200000E-001 0.0
 -6.8000000E-001  1.2000000E-001 0.0
 -6.8000000E-001  1.2800000E-001 0.0
 -6.8000000E-001  1.3600000E-001 0.0
 -6.8000000E-001  1.4400000E-001 0.0
 -6.8000000E-001  1.5200000E-001 0.0
 -6.8000000E-001  1.6000000E-001 0.0
 -6.8800000E-001  1.6000000E-001 0.0
 -6.8000000E-001  1.6800000E-001 0.0
 -6.8800000E-001  1.6800000E-001 0.0
 -6.7200000E-001 -1.0400000E-001 0.0
 -6.7200000E-001 -9.6000000E-002 0.0
 -6.7200000E-001 -8.8000000E-002 0.0
 -6.7200000E-001 -8.0000000E-002 0.0
 -6.7200000E-001 -7.2000000E-002 0.0
 -6.7200000E-001 -6.4000000E-002 0.0
 -6.7200000E-001 -5.6000000E-002 0.0
 -6.7200000E-001 -4.8000000E-002 0.0
 -6.7200000E-001 -4.0000000E-002 0.0
 -6.7200000E-001 -3.2000000E-002 0.0
 -6.7200000E-001 -2.4000000E-002 0.0
 -6.7200000E-001 -1.6000000E-002 0.0
 -6.7200000E-001 -8.0000000E-003 0.0
 -6.7200000E-001  0.0000000E+000 0.0
 -6.7200000E-001  8.0000000E-003 0.0
 -6.7200000E-001  1.6000000E-002 0.0
 -6.7200000E-001  2.4000000E-002 0.0
 -6.7200000E-001  3.2000000E-002 0.0
 -6.7200000E-001  4.0000000E-002 0.0
 -6.7200000E-001  4.8000000E-002 0.0
 -6.7200000E-001  5.6000000E-002 0.0
 -6.7200000E-001  6.4000000E-002 0.0
 -6.7200000E-001  7.2000000E-002 0.0
 -6.7200000E-001  8.0000000E-002 0.0
 -6.7200000E-001  8.8000000E-002 0.0
 -6.7200000E-001  9.6000000E-002 0.0
 -6.7200000E-001  1.0400000E-001 0.0
 -6.7200000E-001  1.1200000E-001 0.0
 -6.7200000E-001  1.2000000E-001 0.0
 -6.7200000E-001  1.2800000E-001 0.0
 -6.7200000E-001  1.3600000E-001 0.0
 -6.7200000E-001  1.4400000E-001 0.0
 -6.7200000E-001  1.5200000E-001 0.0
 -6.7200000E-001  1.6000000E-001 0.0
 -6.7200000E-001  1.6800000E-001 0.0
 -6.7200000E-001  1.7600000E-001 0.0
 -6.8000000E-001  1.7600000E-001 0.0
 -6.7200000E-001  1.8400000E-001 0.0
 -6.8000000E-001  1.8400000E-001 0.0
 -6.6400000E-001 -9.6000000E-002 0.0
 -6.6400000E-001 -8.8000000E-002 0.0
 -6.6400000E-001 -8.0000000E-002 0.0
 -6.6400000E-001 -7.2000000E-002 0.0
 -6.6400000E-001 -6.4000000E-002 0.0
 -6.6400000E-001 -5.6000000E-002 0.0
 -6.6400000E-001 -4.8000000E-002 0.0
 -6.6400000E-001 -4.0000000E-002 0.0
 -6.6400000E-001 -3.2000000E-002 0.0
 -6.6400000E-001 -2.4000000E-002 0.0
 -6.6400000E-001 -1.6000000E-002 0.0
 -6.6400000E-001 -8.0000000E-003 0.0
 -6.6400000E-001  0.0000000E+000 0.0
 -6.6400000E-001  8.0000000E-003 0.0
 -6.6400000E-001  1.6000000E-002 0.0
 -6.6400000E-001  2.4000000E-002 0.0
 -6.6400000E-001  3.2000000E-002 0.0
 -6.6400000E-001  4.0000000E-002 0.0
 -6.6400000E-001  4.8000000E-002 0.0
 -6.6400000E-001  5.6000000E-002 0.0
 -6.6400000E-001  6.4000000E-002 0.0
 -6.6400000E-001  7.2000000E-002 0.0
 -6.6400000E-001  8.0000000E-002 0.0
 -6.6400000E-001  8.8000000E-002 0.0
 -6.6400000E-001  9.6000000E-002 0.0
 -6.6400000E-001  1.0400000E-001 0.0
 -6.6400000E-001  1.1200000E-001 0.0
 -6.6400000E-001  1.2000000E-001 0.0
 -6.6400000E-001  1.2800000E-001 0.0
 -6.6400000E-001  1.3600000E-001 0.0
 -6.6400000E-001  1.4400000E-001 0.0
 -6.6400000E-001  1.5200000E-001 0.0
 -6.6400000E-001  1.6000000E-001 0.0
 -6.6400000E-001  1.6800000E-001 0.0
 -6.6400000E-001  1.7600000E-001 0.0
 -6.6400000E-001  1.8400000E-001 0.0
 -6.6400000E-001  1.9200000E-001 0.0
 -6.7200000E-001  1.9200000E-001 0.0
 -6.5600000E-001 -8.8000000E-002 0.0
 -6.5600000E-001 -8.0000000E-002 0.0
 -6.5600000E-001 -7.2000000E-002 0.0
 -6.5600000E-001 -6.4000000E-002 0.0
 -6.5600000E-001 -5.6000000E-002 0.0
 -6.5600000E-001 -4.8000000E-002 0.0
 -6.5600000E-001 -4.0000000E-002 0.0
 -6.5600000E-001 -3.2000000E-002 0.0
 -6.5600000E-001 -2.4000000E-002 0.0
 -6.5600000E-001 -1.6000000E-002 0.0
 -6.5600000E-001 -8.0000000E-003 0.0
 -6.5600000E-001  0.0000000E+000 0.0
 -6.5600000E-001  8.0000000E-003 0.0
 -6.5600000E-001  1.6000000E-002 0.0
 -6.5600000E-001  2.4000000E-002 0.0
 -6.5600000E-001  3.2000000E-002 0.0
 -6.5600000E-001  4.0000000E-002 0.0
 -6.5600000E-001  4.8000000E-002 0.0
 -6.5600000E-001  5.6000000E-002 0.0
 -6.5600000E-001  6.4000000E-002 0.0
 -6.5600000E-001  7.2000000E-002 0.0
 -6.5600000E-001  8.0000000E-002 0.0
 -6.5600000E-001  8.8000000E-002 0.0
 -6.5600000E-001  9.6000000E-002 0.0
 -6.5600000E-001  1.0400000E-001 0.0
 -6.5600000E-001  1.1200000E-001 0.0
 -6.5600000E-001  1.2000000E-001 0.0
 -6.5600000E-001  1.2800000E-001 0.0
 -6.5600000E-001  1.3600000E-001 0.0
 -6.5600000E-001  1.4400000E-001 0.0
 -6.5600000E-001  1.5200000E-001 0.0
 -6.5600000E-001  1.6000000E-001 0.0
 -6.5600000E-001  1.6800000E-001 0.0
 -6.5600000E-001  1.7600000E-001 0.0
 -6.5600000E-001  1.8400000E-001 0.0
 -6.5600000E-001  1.9200000E-001 0.0
 -6.5600000E-001  2.0000000E-001 0.0
 -6.6400000E-001  2.0000000E-001 0.0
 -6.4800000E-001 -8.0000000E-002 0.0
 -6.4800000E-001 -7.2000000E-002 0.0
 -6.4800000E-001 -6.4000000E-002 0.0
 -6.4800000E-001 -5.6000000E-002 0.0
 -6.4800000E-001 -4.8000000E-002 0.0
 -6.4800000E-001 -4.0000000E-002 0.0
 -6.4800000E-001 -3.2000000E-002 0.0
 -6.4800000E-001 -2.4000000E-002 0.0
 -6.4800000E-001 -1.6000000E-002 0.0
 -6.4800000E-001 -8.0000000E-003 0.0
 -6.4800000E-001  0.0000000E+000 0.0
 -6.4800000E-001  8.0000000E-003 0.0
 -6.4800000E-001  1.6000000E-002 0.0
 -6.4800000E-001  2.4000000E-002 0.0
 -6.4800000E-001  3.2000000E-002 0.0
 -6.4800000E-001  4.0000000E-002 0.0
 -6.4800000E-001  4.8000000E-002 0.0
 -6.4800000E-001  5.6000000E-002 0.0
 -6.4800000E-001  6.4000000E-002 0.0
 -6.4800000E-001  7.2000000E-002 0.0
 -6.4800000E-001  8.0000000E-002 0.0
 -6.4800000E-001  8.8000000E-002 0.0
 -6.4800000E-001  9.6000000E-002 0.0
 -6.4800000E-001  1.0400000E-001 0.0
 -6.4800000E-001  1.1200000E-001 0.0
 -6.4800000E-001  1.2000000E-001 0.0
 -6.4800000E-001  1.2800000E-001 0.0
 -6.4800000E-001  1.3600000E-001 0.0
 -6.4800000E-001  1.4400000E-001 0.0
 -6.4800000E-001  1.5200000E-001 0.0
 -6.4800000E-001  1.6000000E-001 0.0
 -6.4800000E-001  1.6800000E-001 0.0
 -6.4800000E-001  1.7600000E-001 0.0
 -6.4800000E-001  1.8400000E-001 0.0
 -6.4800000E-001  1.9200000E-001 0.0
 -6.4800000E-001  2.0000000E-001 0.0
 -6.4800000E-001  2.0800000E-001 0.0
 -6.5600000E-001  2.0800000E-001 0.0
 -6.4000000E-001 -8.0000000E-002 0.0
 -6.4000000E-001 -7.2000000E-002 0.0
 -6.4000000E-001 -6.4000000E-002 0.0
 -6.4000000E-001 -5.6000000E-002 0.0
 -6.4000000E-001 -4.8000000E-002 0.0
 -6.4000000E-001 -4.0000000E-002 0.0
 -6.4000000E-001 -3.2000000E-002 0.0
 -6.4000000E-001 -2.4000000E-002 0.0
 -6.4000000E-001 -1.6000000E-002 0.0
 -6.4000000E-001 -8.0000000E-003 0.0
 -6.4000000E-001  0.0000000E+000 0.0
 -6.4000000E-001  8.0000000E-003 0.0
 -6.4000000E-001  1.6000000E-002 0.0
 -6.4000000E-001  2.4000000E-002 0.0
 -6.4000000E-001  3.2000000E-002 0.0
 -6.4000000E-001  4.0000000E-002 0.0
 -6.4000000E-001  4.8000000E-002 0.0
 -6.4000000E-001  5.6000000E-002 0.0
 -6.4000000E-001  6.4000000E-002 0.0
 -6.4000000E-001  7.2000000E-002 0.0
 -6.4000000E-001  8.0000000E-002 0.0
 -6.4000000E-001  8.8000000E-002 0.0
 -6.4000000E-001  9.6000000E-002 0.0
 -6.4000000E-001  1.0400000E-001 0.0
 -6.4000000E-001  1.1200000E-001 0.0
 -6.4000000E-001  1.2000000E-001 0.0
 -6.4000000E-001  1.2800000E-001 0.0
 -6.4000000E-001  1.3600000E-001 0.0
 -6.4000000E-001  1.4400000E-001 0.0
 -6.4000000E-001  1.5200000E-001 0.0
 -6.4000000E-001  1.6000000E-001 0.0
 -6.4000000E-001  1.6800000E-001 0.0
 -6.4000000E-001  1.7600000E-001 0.0
 -6.4000000E-001  1.8400000E-001 0.0
 -6.4000000E-001  1.9200000E-001 0.0
 -6.4000000E-001  2.0000000E-001 0.0
 -6.4000000E-001  2.0800000E-001 0.0
 -6.3200000E-001 -8.0000000E-002 0.0
 -6.3200000E-001 -7.2000000E-002 0.0
 -6.3200000E-001 -6.4000000E-002 0.0
 -6.3200000E-001 -5.6000000E-002 0.0
 -6.3200000E-001 -4.8000000E-002 0.0
 -6.3200000E-001 -4.0000000E-002 0.0
 -6.3200000E-001 -3.2000000E-002 0.0
 -6.3200000E-001 -2.4000000E-002 0.0
 -6.3200000E-001 -1.6000000E-002 0.0
 -6.3200000E-001 -8.0000000E-003 0.0
 -6.3200000E-001  0.0000000E+000 0.0
 -6.3200000E-001  8.0000000E-003 0.0
 -6.3200000E-001  1.6000000E-002 0.0
 -6.3200000E-001  2.4000000E-002 0.0
 -6.3200000E-001  3.2000000E-002 0.0
 -6.3200000E-001  4.0000000E-002 0.0
 -6.3200000E-001  4.8000000E-002 0.0
 -6.3200000E-001  5.6000000E-002 0.0
 -6.3200000E-001  6.4000000E-002 0.0
 -6.3200000E-001  7.2000000E-002 0.0
 -6.3200000E-001  8.0000000E-002 0.0
 -6.3200000E-001  8.8000000E-002 0.0
 -6.3200000E-001  9.6000000E-002 0.0
 -6.3200000E-001  1.0400000E-001 0.0
 -6.3200000E-001  1.1200000E-001 0.0
 -6.3200000E-001  1.2000000E-001 0.0
 -6.3200000E-001  1.2800000E-001 0.0
 -6.3200000E-001  1.3600000E-001 0.0
 -6.3200000E-001  1.4400000E-001 0.0
 -6.3200000E-001  1.5200000E-001 0.0
 -6.3200000E-001  1.6000000E-001 0.0
 -6.3200000E-001  1.6800000E-001 0.0
 -6.3200000E-001  1.7600000E-001 0.0
 -6.3200000E-001  1.8400000E-001 0.0
 -6.3200000E-001  1.9200000E-001 0.0
 -6.3200000E-001  2.0000000E-001 0.0
 -6.3200000E-001  2.0800000E-001 0.0
 -6.3200000E-001  2.1600000E-001 0.0
 -6.4000000E-001  2.1600000E-001 0.0
 -6.3200000E-001 -3.6000000E-001 0.0
 -6.2400000E-001 -3.6000000E-001 0.0
 -6.2400000E-001 -3.5200000E-001 0.0
 -6.3200000E-001 -3.5200000E-001 0.0
 -6.2400000E-001 -3.4400000E-001 0.0
 -6.3200000E-001 -3.4400000E-001 0.0
 -6.2400000E-001 -3.3600000E-001 0.0
 -6.3200000E-001 -3.3600000E-001 0.0
 -6.2400000E-001 -3.2800000E-001 0.0
 -6.3200000E-001 -3.2800000E-001 0.0
 -6.3200000E-001 -1.0400000E-001 0.0
 -6.2400000E-001 -1.0400000E-001 0.0
 -6.2400000E-001 -9.6000000E-002 0.0
 -6.3200000E-001 -9.6000000E-002 0.0
 -6.2400000E-001 -8.8000000E-002 0.0
 -6.3200000E-001 -8.8000000E-002 0.0
 -6.2400000E-001 -8.0000000E-002 0.0
 -6.2400000E-001 -7.2000000E-002 0.0
 -6.2400000E-001 -6.4000000E-002 0.0
 -6.2400000E-001 -5.6000000E-002 0.0
 -6.2400000E-001 -4.8000000E-002 0.0
 -6.2400000E-001 -4.0000000E-002 0.0
 -6.2400000E-001 -3.2000000E-002 0.0
 -6.2400000E-001 -2.4000000E-002 0.0
 -6.2400000E-001 -1.6000000E-002 0.0
 -6.2400000E-001 -8.0000000E-003 0.0
 -6.2400000E-001  0.0000000E+000 0.0
 -6.2400000E-001  8.0000000E-003 0.0
 -6.2400000E-001  1.6000000E-002 0.0
 -6.2400000E-001  2.4000000E-002 0.0
 -6.2400000E-001  3.2000000E-002 0.0
 -6.2400000E-001  4.0000000E-002 0.0
 -6.2400000E-001  4.8000000E-002 0.0
 -6.2400000E-001  8.0000000E-002 0.0
 -6.2400000E-001  8.8000000E-002 0.0
 -6.2400000E-001  9.6000000E-002 0.0
 -6.2400000E-001  1.0400000E-001 0.0
 -6.2400000E-001  1.1200000E-001 0.0
 -6.2400000E-001  1.2000000E-001 0.0
 -6.2400000E-001  1.2800000E-001 0.0
 -6.2400000E-001  1.3600000E-001 0.0
 -6.2400000E-001  1.4400000E-001 0.0
 -6.2400000E-001  1.5200000E-001 0.0
 -6.2400000E-001  1.6000000E-001 0.0
 -6.2400000E-001  1.6800000E-001 0.0
 -6.2400000E-001  1.7600000E-001 0.0
 -6.2400000E-001  1.8400000E-001 0.0
 -6.2400000E-001  1.9200000E-001 0.0
 -6.2400000E-001  2.0000000E-001 0.0
 -6.2400000E-001  2.0800000E-001 0.0
 -6.2400000E-001  2.1600000E-001 0.0
 -6.2400000E-001 -3.6800000E-001 0.0
 -6.1600000E-001 -3.6800000E-001 0.0
 -6.1600000E-001 -3.6000000E-001 0.0
 -6.1600000E-001 -3.5200000E-001 0.0
 -6.1600000E-001 -3.4400000E-001 0.0
 -6.1600000E-001 -3.3600000E-001 0.0
 -6.1600000E-001 -3.2800000E-001 0.0
 -6.1600000E-001 -3.2000000E-001 0.0
 -6.2400000E-001 -3.2000000E-001 0.0
 -6.1600000E-001 -3.1200000E-001 0.0
 -6.2400000E-001 -3.1200000E-001 0.0
 -6.1600000E-001 -3.0400000E-001 0.0
 -6.2400000E-001 -3.0400000E-001 0.0
 -6.2400000E-001 -1.2000000E-001 0.0
 -6.1600000E-001 -1.2000000E-001 0.0
 -6.1600000E-001 -1.1200000E-001 0.0
 -6.2400000E-001 -1.1200000E-001 0.0
 -6.1600000E-001 -1.0400000E-001 0.0
 -6.1600000E-001 -9.6000000E-002 0.0
 -6.1600000E-001 -8.8000000E-002 0.0
 -6.1600000E-001 -8.0000000E-002 0.0
 -6.1600000E-001 -7.2000000E-002 0.0
 -6.1600000E-001 -6.4000000E-002 0.0
 -6.1600000E-001 -5.6000000E-002 0.0
 -6.1600000E-001 -4.8000000E-002 0.0
 -6.1600000E-001 -4.0000000E-002 0.0
 -6.1600000E-001 -3.2000000E-002 0.0
 -6.1600000E-001 -2.4000000E-002 0.0
 -6.1600000E-001 -1.6000000E-002 0.0
 -6.1600000E-001 -8.0000000E-003 0.0
 -6.1600000E-001  0.0000000E+000 0.0
 -6.1600000E-001  8.0000000E-003 0.0
 -6.1600000E-001  1.6000000E-002 0.0
 -6.1600000E-001  2.4000000E-002 0.0
 -6.1600000E-001  3.2000000E-002 0.0
 -6.1600000E-001  4.0000000E-002 0.0
 -6.1600000E-001  4.8000000E-002 0.0
 -6.1600000E-001  9.6000000E-002 0.0
 -6.1600000E-001  1.0400000E-001 0.0
 -6.1600000E-001  1.1200000E-001 0.0
 -6.1600000E-001  1.2000000E-001 0.0
 -6.1600000E-001  1.2800000E-001 0.0
 -6.1600000E-001  1.3600000E-001 0.0
 -6.1600000E-001  1.4400000E-001 0.0
 -6.1600000E-001  1.5200000E-001 0.0
 -6.1600000E-001  1.6000000E-001 0.0
 -6.1600000E-001  1.6800000E-001 0.0
 -6.1600000E-001  1.7600000E-001 0.0
 -6.1600000E-001  1.8400000E-001 0.0
 -6.1600000E-001  1.9200000E-001 0.0
 -6.1600000E-001  2.0000000E-001 0.0
 -6.1600000E-001  2.0800000E-001 0.0
 -6.1600000E-001  2.1600000E-001 0.0
 -6.1600000E-001  2.2400000E-001 0.0
 -6.2400000E-001  2.2400000E-001 0.0
 -6.0800000E-001 -3.6800000E-001 0.0
 -6.0800000E-001 -3.6000000E-001 0.0
 -6.0800000E-001 -3.5200000E-001 0.0
 -6.0800000E-001 -3.4400000E-001 0.0
 -6.0800000E-001 -3.3600000E-001 0.0
 -6.0800000E-001 -3.2800000E-001 0.0
 -6.0800000E-001 -3.2000000E-001 0.0
 -6.0800000E-001 -3.1200000E-001 0.0
 -6.0800000E-001 -3.0400000E-001 0.0
 -6.0800000E-001 -2.9600000E-001 0.0
 -6.1600000E-001 -2.9600000E-001 0.0
 -6.0800000E-001 -2.8800000E-001 0.0
 -6.1600000E-001 -2.8800000E-001 0.0
 -6.0800000E-001 -2.8000000E-001 0.0
 -6.1600000E-001 -2.8000000E-001 0.0
 -6.0800000E-001 -2.7200000E-001 0.0
 -6.1600000E-001 -2.7200000E-001 0.0
 -6.1600000E-001 -1.3600000E-001 0.0
 -6.0800000E-001 -1.3600000E-001 0.0
 -6.0800000E-001 -1.2800000E-001 0.0
 -6.1600000E-001 -1.2800000E-001 0.0
 -6.0800000E-001 -1.2000000E-001 0.0
 -6.0800000E-001 -1.1200000E-001 0.0
 -6.0800000E-001 -1.0400000E-001 0.0
 -6.0800000E-001 -9.6000000E-002 0.0
 -6.0800000E-001 -8.8000000E-002 0.0
 -6.0800000E-001 -8.0000000E-002 0.0
 -6.0800000E-001 -7.2000000E-002 0.0
 -6.0800000E-001 -6.4000000E-002 0.0
 -6.0800000E-001 -5.6000000E-002 0.0
 -6.0800000E-001 -4.8000000E-002 0.0
 -6.0800000E-001 -4.0000000E-002 0.0
 -6.0800000E-001 -3.2000000E-002 0.0
 -6.0800000E-001 -2.4000000E-002 0.0
 -6.0800000E-001 -1.6000000E-002 0.0
 -6.0800000E-001 -8.0000000E-003 0.0
 -6.0800000E-001  0.0000000E+000 0.0
 -6.0800000E-001  8.0000000E-003 0.0
 -6.0800000E-001  1.6000000E-002 0.0
 -6.0800000E-001  2.4000000E-002 0.0
 -6.0800000E-001  3.2000000E-002 0.0
 -6.0800000E-001  4.0000000E-002 0.0
 -6.0800000E-001  4.8000000E-002 0.0
 -6.0800000E-001  1.2000000E-001 0.0
 -6.0800000E-001  1.2800000E-001 0.0
 -6.0800000E-001  1.3600000E-001 0.0
 -6.0800000E-001  1.4400000E-001 0.0
 -6.0800000E-001  1.5200000E-001 0.0
 -6.0800000E-001  1.6000000E-001 0.0
 -6.0800000E-001  1.6800000E-001 0.0
 -6.0800000E-001  1.7600000E-001 0.0
 -6.0800000E-001  1.8400000E-001 0.0
 -6.0800000E-001  1.9200000E-001 0.0
 -6.0800000E-001  2.0000000E-001 0.0
 -6.0800000E-001  2.0800000E-001 0.0
 -6.0800000E-001  2.1600000E-001 0.0
 -6.0800000E-001  2.2400000E-001 0.0
 -6.0800000E-001  2.3200000E-001 0.0
 -6.1600000E-001  2.3200000E-001 0.0
 -6.0800000E-001 -3.7600000E-001 0.0
 -6.0000000E-001 -3.7600000E-001 0.0
 -6.0000000E-001 -3.6800000E-001 0.0
 -6.0000000E-001 -3.6000000E-001 0.0
 -6.0000000E-001 -3.5200000E-001 0.0
 -6.0000000E-001 -3.4400000E-001 0.0
 -6.0000000E-001 -3.3600000E-001 0.0
 -6.0000000E-001 -3.2800000E-001 0.0
 -6.0000000E-001 -3.2000000E-001 0.0
 -6.0000000E-001 -3.1200000E-001 0.0
 -6.0000000E-001 -3.0400000E-001 0.0
 -6.0000000E-001 -2.9600000E-001 0.0
 -6.0000000E-001 -2.8800000E-001 0.0
 -6.0000000E-001 -2.8000000E-001 0.0
 -6.0000000E-001 -2.7200000E-001 0.0
 -6.0000000E-001 -2.6400000E-001 0.0
 -6.0800000E-001 -2.6400000E-001 0.0
 -6.0000000E-001 -2.5600000E-001 0.0
 -6.0800000E-001 -2.5600000E-001 0.0
 -6.0000000E-001 -2.4800000E-001 0.0
 -6.0800000E-001 -2.4800000E-001 0.0
 -6.0000000E-001 -2.4000000E-001 0.0
 -6.0800000E-001 -2.4000000E-001 0.0
 -6.0000000E-001 -2.3200000E-001 0.0
 -6.0800000E-001 -2.3200000E-001 0.0
 -6.0000000E-001 -2.2400000E-001 0.0
 -6.0800000E-001 -2.2400000E-001 0.0
 -6.0000000E-001 -2.1600000E-001 0.0
 -6.0800000E-001 -2.1600000E-001 0.0
 -6.0000000E-001 -2.0800000E-001 0.0
 -6.0800000E-001 -2.0800000E-001 0.0
 -6.0000000E-001 -2.0000000E-001 0.0
 -6.0800000E-001 -2.0000000E-001 0.0
 -6.0000000E-001 -1.9200000E-001 0.0
 -6.0800000E-001 -1.9200000E-001 0.0
 -6.0000000E-001 -1.8400000E-001 0.0
 -6.0800000E-001 -1.8400000E-001 0.0
 -6.0000000E-001 -1.7600000E-001 0.0
 -6.0800000E-001 -1.7600000E-001 0.0
 -6.0000000E-001 -1.6800000E-001 0.0
 -6.0800000E-001 -1.6800000E-001 0.0
 -6.0000000E-001 -1.6000000E-001 0.0
 -6.0800000E-001 -1.6000000E-001 0.0
 -6.0000000E-001 -1.5200000E-001 0.0
 -6.0800000E-001 -1.5200000E-001 0.0
 -6.0000000E-001 -1.4400000E-001 0.0
 -6.0800000E-001 -1.4400000E-001 0.0
 -6.0000000E-001 -1.3600000E-001 0.0
 -6.0000000E-001 -1.2800000E-001 0.0
 -6.0000000E-001 -1.2000000E-001 0.0
 -6.0000000E-001 -1.1200000E-001 0.0
 -6.0000000E-001 -1.0400000E-001 0.0
 -6.0000000E-001 -9.6000000E-002 0.0
 -6.0000000E-001 -8.8000000E-002 0.0
 -6.0000000E-001 -8.0000000E-002 0.0
 -6.0000000E-001 -7.2000000E-002 0.0
 -6.0000000E-001 -6.4000000E-002 0.0
 -6.0000000E-001 -5.6000000E-002 0.0
 -6.0000000E-001 -4.8000000E-002 0.0
 -6.0000000E-001 -4.0000000E-002 0.0
 -6.0000000E-001 -3.2000000E-002 0.0
 -6.0000000E-001 -2.4000000E-002 0.0
 -6.0000000E-001 -1.6000000E-002 0.0
 -6.0000000E-001 -8.0000000E-003 0.0
 -6.0000000E-001  0.0000000E+000 0.0
 -6.0000000E-001  8.0000000E-003 0.0
 -6.0000000E-001  1.6000000E-002 0.0
 -6.0000000E-001  2.4000000E-002 0.0
 -6.0000000E-001  3.2000000E-002 0.0
 -6.0000000E-001  4.0000000E-002 0.0
 -6.0000000E-001  4.8000000E-002 0.0
 -6.0000000E-001  1.3600000E-001 0.0
 -6.0000000E-001  1.4400000E-001 0.0
 -6.0000000E-001  1.5200000E-001 0.0
 -6.0000000E-001  1.6000000E-001 0.0
 -6.0000000E-001  1.6800000E-001 0.0
 -6.0000000E-001  1.7600000E-001 0.0
 -6.0000000E-001  1.8400000E-001 0.0
 -6.0000000E-001  1.9200000E-001 0.0
 -6.0000000E-001  2.0000000E-001 0.0
 -6.0000000E-001  2.0800000E-001 0.0
 -6.0000000E-001  2.1600000E-001 0.0
 -6.0000000E-001  2.2400000E-001 0.0
 -6.0000000E-001  2.3200000E-001 0.0
 -5.9200000E-001 -3.7600000E-001 0.0
 -5.9200000E-001 -3.6800000E-001 0.0
 -5.9200000E-001 -3.6000000E-001 0.0
 -5.9200000E-001 -3.5200000E-001 0.0
 -5.9200000E-001 -3.4400000E-001 0.0
 -5.9200000E-001 -3.3600000E-001 0.0
 -5.9200000E-001 -3.2800000E-001 0.0
 -5.9200000E-001 -3.2000000E-001 0.0
 -5.9200000E-001 -3.1200000E-001 0.0
 -5.9200000E-001 -3.0400000E-001 0.0
 -5.9200000E-001 -2.9600000E-001 0.0
 -5.9200000E-001 -2.8800000E-001 0.0
 -5.9200000E-001 -2.8000000E-001 0.0
 -5.9200000E-001 -2.7200000E-001 0.0
 -5.9200000E-001 -2.6400000E-001 0.0
 -5.9200000E-001 -2.5600000E-001 0.0
 -5.9200000E-001 -2.4800000E-001 0.0
 -5.9200000E-001 -2.4000000E-001 0.0
 -5.9200000E-001 -2.3200000E-001 0.0
 -5.9200000E-001 -2.2400000E-001 0.0
 -5.9200000E-001 -2.1600000E-001 0.0
 -5.9200000E-001 -2.0800000E-001 0.0
 -5.9200000E-001 -2.0000000E-001 0.0
 -5.9200000E-001 -1.9200000E-001 0.0
 -5.9200000E-001 -1.8400000E-001 0.0
 -5.9200000E-001 -1.7600000E-001 0.0
 -5.9200000E-001 -1.6800000E-001 0.0
 -5.9200000E-001 -1.6000000E-001 0.0
 -5.9200000E-001 -1.5200000E-001 0.0
 -5.9200000E-001 -1.4400000E-001 0.0
 -5.9200000E-001 -1.3600000E-001 0.0
 -5.9200000E-001 -1.2800000E-001 0.0
 -5.9200000E-001 -1.2000000E-001 0.0
 -5.9200000E-001 -1.1200000E-001 0.0
 -5.9200000E-001 -1.0400000E-001 0.0
 -5.9200000E-001 -9.6000000E-002 0.0
 -5.9200000E-001 -8.8000000E-002 0.0
 -5.9200000E-001 -8.0000000E-002 0.0
 -5.9200000E-001 -7.2000000E-002 0.0
 -5.9200000E-001 -6.4000000E-002 0.0
 -5.9200000E-001 -5.6000000E-002 0.0
 -5.9200000E-001 -4.8000000E-002 0.0
 -5.9200000E-001 -4.0000000E-002 0.0
 -5.9200000E-001 -3.2000000E-002 0.0
 -5.9200000E-001 -2.4000000E-002 0.0
 -5.9200000E-001 -1.6000000E-002 0.0
 -5.9200000E-001 -8.0000000E-003 0.0
 -5.9200000E-001  0.0000000E+000 0.0
 -5.9200000E-001  8.0000000E-003 0.0
 -5.9200000E-001  1.6000000E-002 0.0
 -5.9200000E-001  2.4000000E-002 0.0
 -5.9200000E-001  3.2000000E-002 0.0
 -5.9200000E-001  4.0000000E-002 0.0
 -5.9200000E-001  4.8000000E-002 0.0
 -5.9200000E-001  5.6000000E-002 0.0
 -6.0000000E-001  5.6000000E-002 0.0
 -5.9200000E-001  1.4400000E-001 0.0
 -5.9200000E-001  1.5200000E-001 0.0
 -5.9200000E-001  1.6000000E-001 0.0
 -5.9200000E-001  1.6800000E-001 0.0
 -5.9200000E-001  1.7600000E-001 0.0
 -5.9200000E-001  1.8400000E-001 0.0
 -5.9200000E-001  1.9200000E-001 0.0
 -5.9200000E-001  2.0000000E-001 0.0
 -5.9200000E-001  2.0800000E-001 0.0
 -5.9200000E-001  2.1600000E-001 0.0
 -5.9200000E-001  2.2400000E-001 0.0
 -5.9200000E-001  2.3200000E-001 0.0
 -5.9200000E-001  2.4000000E-001 0.0
 -6.0000000E-001  2.4000000E-001 0.0
 -5.9200000E-001  2.4800000E-001 0.0
 -6.0000000E-001  2.4800000E-001 0.0
 -5.9200000E-001  2.5600000E-001 0.0
 -6.0000000E-001  2.5600000E-001 0.0
 -5.9200000E-001  2.6400000E-001 0.0
 -6.0000000E-001  2.6400000E-001 0.0
 -5.9200000E-001  2.7200000E-001 0.0
 -6.0000000E-001  2.7200000E-001 0.0
 -5.9200000E-001  2.8000000E-001 0.0
 -6.0000000E-001  2.8000000E-001 0.0
 -5.9200000E-001  2.8800000E-001 0.0
 -6.0000000E-001  2.8800000E-001 0.0
 -5.9200000E-001  2.9600000E-001 0.0
 -6.0000000E-001  2.9600000E-001 0.0
 -5.9200000E-001  3.0400000E-001 0.0
 -6.0000000E-001  3.0400000E-001 0.0
 -5.9200000E-001  3.1200000E-001 0.0
 -6.0000000E-001  3.1200000E-001 0.0
 -5.9200000E-001  3.2000000E-001 0.0
 -6.0000000E-001  3.2000000E-001 0.0
 -5.8400000E-001 -3.7600000E-001 0.0
 -5.8400000E-001 -3.6800000E-001 0.0
 -5.8400000E-001 -3.6000000E-001 0.0
 -5.8400000E-001 -3.5200000E-001 0.0
 -5.8400000E-001 -3.4400000E-001 0.0
 -5.8400000E-001 -3.3600000E-001 0.0
 -5.8400000E-001 -3.2800000E-001 0.0
 -5.8400000E-001 -3.2000000E-001 0.0
 -5.8400000E-001 -3.1200000E-001 0.0
 -5.8400000E-001 -3.0400000E-001 0.0
 -5.8400000E-001 -2.9600000E-001 0.0
 -5.8400000E-001 -2.8800000E-001 0.0
 -5.8400000E-001 -2.8000000E-001 0.0
 -5.8400000E-001 -2.7200000E-001 0.0
 -5.8400000E-001 -2.6400000E-001 0.0
 -5.8400000E-001 -2.5600000E-001 0.0
 -5.8400000E-001 -2.4800000E-001 0.0
 -5.8400000E-001 -2.4000000E-001 0.0
 -5.8400000E-001 -2.3200000E-001 0.0
 -5.8400000E-001 -2.2400000E-001 0.0
 -5.8400000E-001 -2.1600000E-001 0.0
 -5.8400000E-001 -2.0800000E-001 0.0
 -5.8400000E-001 -2.0000000E-001 0.0
 -5.8400000E-001 -1.9200000E-001 0.0
 -5.8400000E-001 -1.8400000E-001 0.0
 -5.8400000E-001 -1.7600000E-001 0.0
 -5.8400000E-001 -1.6800000E-001 0.0
 -5.8400000E-001 -1.6000000E-001 0.0
 -5.8400000E-001 -1.5200000E-001 0.0
 -5.8400000E-001 -1.4400000E-001 0.0
 -5.8400000E-001 -1.3600000E-001 0.0
 -5.8400000E-001 -1.2800000E-001 0.0
 -5.8400000E-001 -1.2000000E-001 0.0
 -5.8400000E-001 -1.1200000E-001 0.0
 -5.8400000E-001 -1.0400000E-001 0.0
 -5.8400000E-001 -9.6000000E-002 0.0
 -5.8400000E-001 -8.8000000E-002 0.0
 -5.8400000E-001 -8.0000000E-002 0.0
 -5.8400000E-001 -7.2000000E-002 0.0
 -5.8400000E-001 -6.4000000E-002 0.0
 -5.8400000E-001 -5.6000000E-002 0.0
 -5.8400000E-001 -4.8000000E-002 0.0
 -5.8400000E-001 -4.0000000E-002 0.0
 -5.8400000E-001 -3.2000000E-002 0.0
 -5.8400000E-001 -2.4000000E-002 0.0
 -5.8400000E-001 -1.6000000E-002 0.0
 -5.8400000E-001 -8.0000000E-003 0.0
 -5.8400000E-001  0.0000000E+000 0.0
 -5.8400000E-001  8.0000000E-003 0.0
 -5.8400000E-001  1.6000000E-002 0.0
 -5.8400000E-001  2.4000000E-002 0.0
 -5.8400000E-001  3.2000000E-002 0.0
 -5.8400000E-001  4.0000000E-002 0.0
 -5.8400000E-001  4.8000000E-002 0.0
 -5.8400000E-001  5.6000000E-002 0.0
 -5.8400000E-001  6.4000000E-002 0.0
 -5.9200000E-001  6.4000000E-002 0.0
 -5.8400000E-001  1.5200000E-001 0.0
 -5.8400000E-001  1.6000000E-001 0.0
 -5.8400000E-001  1.6800000E-001 0.0
 -5.8400000E-001  1.7600000E-001 0.0
 -5.8400000E-001  1.8400000E-001 0.0
 -5.8400000E-001  1.9200000E-001 0.0
 -5.8400000E-001  2.0000000E-001 0.0
 -5.8400000E-001  2.0800000E-001 0.0
 -5.8400000E-001  2.1600000E-001 0.0
 -5.8400000E-001  2.2400000E-001 0.0
 -5.8400000E-001  2.3200000E-001 0.0
 -5.8400000E-001  2.4000000E-001 0.0
 -5.8400000E-001  2.4800000E-001 0.0
 -5.8400000E-001  2.5600000E-001 0.0
 -5.8400000E-001  2.6400000E-001 0.0
 -5.8400000E-001  2.7200000E-001 0.0
 -5.8400000E-001  2.8000000E-001 0.0
 -5.8400000E-001  2.8800000E-001 0.0
 -5.8400000E-001  2.9600000E-001 0.0
 -5.8400000E-001  3.0400000E-001 0.0
 -5.8400000E-001  3.1200000E-001 0.0
 -5.8400000E-001  3.2000000E-001 0.0
 -5.8400000E-001  3.2800000E-001 0.0
 -5.9200000E-001  3.2800000E-001 0.0
 -5.8400000E-001  3.3600000E-001 0.0
 -5.9200000E-001  3.3600000E-001 0.0
 -5.8400000E-001  3.4400000E-001 0.0
 -5.9200000E-001  3.4400000E-001 0.0
 -5.7600000E-001 -3.7600000E-001 0.0
 -5.7600000E-001 -3.6800000E-001 0.0
 -5.7600000E-001 -3.6000000E-001 0.0
 -5.7600000E-001 -3.5200000E-001 0.0
 -5.7600000E-001 -3.4400000E-001 0.0
 -5.7600000E-001 -3.3600000E-001 0.0
 -5.7600000E-001 -3.2800000E-001 0.0
 -5.7600000E-001 -3.2000000E-001 0.0
 -5.7600000E-001 -3.1200000E-001 0.0
 -5.7600000E-001 -3.0400000E-001 0.0
 -5.7600000E-001 -2.9600000E-001 0.0
 -5.7600000E-001 -2.8800000E-001 0.0
 -5.7600000E-001 -2.8000000E-001 0.0
 -5.7600000E-001 -2.7200000E-001 0.0
 -5.7600000E-001 -2.6400000E-001 0.0
 -5.7600000E-001 -2.5600000E-001 0.0
 -5.7600000E-001 -2.4800000E-001 0.0
 -5.7600000E-001 -2.4000000E-001 0.0
 -5.7600000E-001 -2.3200000E-001 0.0
 -5.7600000E-001 -2.2400000E-001 0.0
 -5.7600000E-001 -2.1600000E-001 0.0
 -5.7600000E-001 -2.0800000E-001 0.0
 -5.7600000E-001 -2.0000000E-001 0.0
 -5.7600000E-001 -1.9200000E-001 0.0
 -5.7600000E-001 -1.8400000E-001 0.0
 -5.7600000E-001 -1.7600000E-001 0.0
 -5.7600000E-001 -1.6800000E-001 0.0
 -5.7600000E-001 -1.6000000E-001 0.0
 -5.7600000E-001 -1.5200000E-001 0.0
 -5.7600000E-001 -1.4400000E-001 0.0
 -5.7600000E-001 -1.3600000E-001 0.0
 -5.7600000E-001 -1.2800000E-001 0.0
 -5.7600000E-001 -1.2000000E-001 0.0
 -5.7600000E-001 -1.1200000E-001 0.0
 -5.7600000E-001 -1.0400000E-001 0.0
 -5.7600000E-001 -9.6000000E-002 0.0
 -5.7600000E-001 -8.8000000E-002 0.0
 -5.7600000E-001 -8.0000000E-002 0.0
 -5.7600000E-001 -7.2000000E-002 0.0
 -5.7600000E-001 -6.4000000E-002 0.0
 -5.7600000E-001 -5.6000000E-002 0.0
 -5.7600000E-001 -4.8000000E-002 0.0
 -5.7600000E-001 -4.0000000E-002 0.0
 -5.7600000E-001 -3.2000000E-002 0.0
 -5.7600000E-001 -2.4000000E-002 0.0
 -5.7600000E-001 -1.6000000E-002 0.0
 -5.7600000E-001 -8.0000000E-003 0.0
 -5.7600000E-001  0.0000000E+000 0.0
 -5.7600000E-001  8.0000000E-003 0.0
 -5.7600000E-001  1.6000000E-002 0.0
 -5.7600000E-001  2.4000000E-002 0.0
 -5.7600000E-001  3.2000000E-002 0.0
 -5.7600000E-001  4.0000000E-002 0.0
 -5.7600000E-001  4.8000000E-002 0.0
 -5.7600000E-001  5.6000000E-002 0.0
 -5.7600000E-001  6.4000000E-002 0.0
 -5.7600000E-001  1.5200000E-001 0.0
 -5.7600000E-001  1.6000000E-001 0.0
 -5.7600000E-001  1.6800000E-001 0.0
 -5.7600000E-001  1.7600000E-001 0.0
 -5.7600000E-001  1.8400000E-001 0.0
 -5.7600000E-001  1.9200000E-001 0.0
 -5.7600000E-001  2.0000000E-001 0.0
 -5.7600000E-001  2.0800000E-001 0.0
 -5.7600000E-001  2.1600000E-001 0.0
 -5.7600000E-001  2.2400000E-001 0.0
 -5.7600000E-001  2.3200000E-001 0.0
 -5.7600000E-001  2.4000000E-001 0.0
 -5.7600000E-001  2.4800000E-001 0.0
 -5.7600000E-001  2.5600000E-001 0.0
 -5.7600000E-001  2.6400000E-001 0.0
 -5.7600000E-001  2.7200000E-001 0.0
 -5.7600000E-001  2.8000000E-001 0.0
 -5.7600000E-001  2.8800000E-001 0.0
 -5.7600000E-001  2.9600000E-001 0.0
 -5.7600000E-001  3.0400000E-001 0.0
 -5.7600000E-001  3.1200000E-001 0.0
 -5.7600000E-001  3.2000000E-001 0.0
 -5.7600000E-001  3.2800000E-001 0.0
 -5.7600000E-001  3.3600000E-001 0.0
 -5.7600000E-001  3.4400000E-001 0.0
 -5.7600000E-001  3.5200000E-001 0.0
 -5.8400000E-001  3.5200000E-001 0.0
 -5.6800000E-001 -3.7600000E-001 0.0
 -5.6800000E-001 -3.6800000E-001 0.0
 -5.6800000E-001 -3.6000000E-001 0.0
 -5.6800000E-001 -3.5200000E-001 0.0
 -5.6800000E-001 -3.4400000E-001 0.0
 -5.6800000E-001 -3.3600000E-001 0.0
 -5.6800000E-001 -3.2800000E-001 0.0
 -5.6800000E-001 -3.2000000E-001 0.0
 -5.6800000E-001 -3.1200000E-001 0.0
 -5.6800000E-001 -3.0400000E-001 0.0
 -5.6800000E-001 -2.9600000E-001 0.0
 -5.6800000E-001 -2.8800000E-001 0.0
 -5.6800000E-001 -2.8000000E-001 0.0
 -5.6800000E-001 -2.7200000E-001 0.0
 -5.6800000E-001 -2.6400000E-001 0.0
 -5.6800000E-001 -2.5600000E-001 0.0
 -5.6800000E-001 -2.4800000E-001 0.0
 -5.6800000E-001 -2.4000000E-001 0.0
 -5.6800000E-001 -2.3200000E-001 0.0
 -5.6800000E-001 -2.2400000E-001 0.0
 -5.6800000E-001 -2.1600000E-001 0.0
 -5.6800000E-001 -2.0800000E-001 0.0
 -5.6800000E-001 -2.0000000E-001 0.0
 -5.6800000E-001 -1.9200000E-001 0.0
 -5.6800000E-001 -1.8400000E-001 0.0
 -5.6800000E-001 -1.7600000E-001 0.0
 -5.6800000E-001 -1.6800000E-001 0.0
 -5.6800000E-001 -1.6000000E-001 0.0
 -5.6800000E-001 -1.5200000E-001 0.0
 -5.6800000E-001 -1.4400000E-001 0.0
 -5.6800000E-001 -1.3600000E-001 0.0
 -5.6800000E-001 -1.2800000E-001 0.0
 -5.6800000E-001 -1.2000000E-001 0.0
 -5.6800000E-001 -1.1200000E-001 0.0
 -5.6800000E-001 -1.0400000E-001 0.0
 -5.6800000E-001 -9.6000000E-002 0.0
 -5.6800000E-001 -8.8000000E-002 0.0
 -5.6800000E-001 -8.0000000E-002 0.0
 -5.6800000E-001 -7.2000000E-002 0.0
 -5.6800000E-001 -6.4000000E-002 0.0
 -5.6800000E-001 -5.6000000E-002 0.0
 -5.6800000E-001 -4.8000000E-002 0.0
 -5.6800000E-001 -4.0000000E-002 0.0
 -5.6800000E-001 -3.2000000E-002 0.0
 -5.6800000E-001 -2.4000000E-002 0.0
 -5.6800000E-001 -1.6000000E-002 0.0
 -5.6800000E-001 -8.0000000E-003 0.0
 -5.6800000E-001  0.0000000E+000 0.0
 -5.6800000E-001  8.0000000E-003 0.0
 -5.6800000E-001  1.6000000E-002 0.0
 -5.6800000E-001  2.4000000E-002 0.0
 -5.6800000E-001  3.2000000E-002 0.0
 -5.6800000E-001  4.0000000E-002 0.0
 -5.6800000E-001  4.8000000E-002 0.0
 -5.6800000E-001  5.6000000E-002 0.0
 -5.6800000E-001  6.4000000E-002 0.0
 -5.6800000E-001  7.2000000E-002 0.0
 -5.7600000E-001  7.2000000E-002 0.0
 -5.6800000E-001  1.6000000E-001 0.0
 -5.6800000E-001  1.6800000E-001 0.0
 -5.6800000E-001  1.7600000E-001 0.0
 -5.6800000E-001  1.8400000E-001 0.0
 -5.6800000E-001  1.9200000E-001 0.0
 -5.6800000E-001  2.0000000E-001 0.0
 -5.6800000E-001  2.0800000E-001 0.0
 -5.6800000E-001  2.1600000E-001 0.0
 -5.6800000E-001  2.2400000E-001 0.0
 -5.6800000E-001  2.3200000E-001 0.0
 -5.6800000E-001  2.4000000E-001 0.0
 -5.6800000E-001  2.4800000E-001 0.0
 -5.6800000E-001  2.5600000E-001 0.0
 -5.6800000E-001  2.6400000E-001 0.0
 -5.6800000E-001  2.7200000E-001 0.0
 -5.6800000E-001  2.8000000E-001 0.0
 -5.6800000E-001  2.8800000E-001 0.0
 -5.6800000E-001  2.9600000E-001 0.0
 -5.6800000E-001  3.0400000E-001 0.0
 -5.6800000E-001  3.1200000E-001 0.0
 -5.6800000E-001  3.2000000E-001 0.0
 -5.6800000E-001  3.2800000E-001 0.0
 -5.6800000E-001  3.3600000E-001 0.0
 -5.6800000E-001  3.4400000E-001 0.0
 -5.6800000E-001  3.5200000E-001 0.0
 -5.6000000E-001 -3.7600000E-001 0.0
 -5.6000000E-001 -3.6800000E-001 0.0
 -5.6000000E-001 -3.6000000E-001 0.0
 -5.6000000E-001 -3.5200000E-001 0.0
 -5.6000000E-001 -3.4400000E-001 0.0
 -5.6000000E-001 -3.3600000E-001 0.0
 -5.6000000E-001 -3.2800000E-001 0.0
 -5.6000000E-001 -3.2000000E-001 0.0
 -5.6000000E-001 -3.1200000E-001 0.0
 -5.6000000E-001 -3.0400000E-001 0.0
 -5.6000000E-001 -2.9600000E-001 0.0
 -5.6000000E-001 -2.8800000E-001 0.0
 -5.6000000E-001 -2.8000000E-001 0.0
 -5.6000000E-001 -2.7200000E-001 0.0
 -5.6000000E-001 -2.6400000E-001 0.0
 -5.6000000E-001 -2.5600000E-001 0.0
 -5.6000000E-001 -2.4800000E-001 0.0
 -5.6000000E-001 -2.4000000E-001 0.0
 -5.6000000E-001 -2.3200000E-001 0.0
 -5.6000000E-001 -2.2400000E-001 0.0
 -5.6000000E-001 -2.1600000E-001 0.0
 -5.6000000E-001 -2.0800000E-001 0.0
 -5.6000000E-001 -2.0000000E-001 0.0
 -5.6000000E-001 -1.9200000E-001 0.0
 -5.6000000E-001 -1.8400000E-001 0.0
 -5.6000000E-001 -1.7600000E-001 0.0
 -5.6000000E-001 -1.6800000E-001 0.0
 -5.6000000E-001 -1.6000000E-001 0.0
 -5.6000000E-001 -1.5200000E-001 0.0
 -5.6000000E-001 -1.4400000E-001 0.0
 -5.6000000E-001 -1.3600000E-001 0.0
 -5.6000000E-001 -1.2800000E-001 0.0
 -5.6000000E-001 -1.2000000E-001 0.0
 -5.6000000E-001 -1.1200000E-001 0.0
 -5.6000000E-001 -1.0400000E-001 0.0
 -5.6000000E-001 -9.6000000E-002 0.0
 -5.6000000E-001 -8.8000000E-002 0.0
 -5.6000000E-001 -8.0000000E-002 0.0
 -5.6000000E-001 -7.2000000E-002 0.0
 -5.6000000E-001 -6.4000000E-002 0.0
 -5.6000000E-001 -5.6000000E-002 0.0
 -5.6000000E-001 -4.8000000E-002 0.0
 -5.6000000E-001 -4.0000000E-002 0.0
 -5.6000000E-001 -3.2000000E-002 0.0
 -5.6000000E-001 -2.4000000E-002 0.0
 -5.6000000E-001 -1.6000000E-002 0.0
 -5.6000000E-001 -8.0000000E-003 0.0
 -5.6000000E-001  0.0000000E+000 0.0
 -5.6000000E-001  8.0000000E-003 0.0
 -5.6000000E-001  1.6000000E-002 0.0
 -5.6000000E-001  2.4000000E-002 0.0
 -5.6000000E-001  3.2000000E-002 0.0
 -5.6000000E-001  4.0000000E-002 0.0
 -5.6000000E-001  4.8000000E-002 0.0
 -5.6000000E-001  5.6000000E-002 0.0
 -5.6000000E-001  6.4000000E-002 0.0
 -5.6000000E-001  7.2000000E-002 0.0
 -5.6000000E-001  1.6000000E-001 0.0
 -5.6000000E-001  1.6800000E-001 0.0
 -5.6000000E-001  1.7600000E-001 0.0
 -5.6000000E-001  1.8400000E-001 0.0
 -5.6000000E-001  1.9200000E-001 0.0
 -5.6000000E-001  2.0000000E-001 0.0
 -5.6000000E-001  2.0800000E-001 0.0
 -5.6000000E-001  2.1600000E-001 0.0
 -5.6000000E-001  2.2400000E-001 0.0
 -5.6000000E-001  2.3200000E-001 0.0
 -5.6000000E-001  2.4000000E-001 0.0
 -5.6000000E-001  2.4800000E-001 0.0
 -5.6000000E-001  2.5600000E-001 0.0
 -5.6000000E-001  2.6400000E-001 0.0
 -5.6000000E-001  2.7200000E-001 0.0
 -5.6000000E-001  2.8000000E-001 0.0
 -5.6000000E-001  2.8800000E-001 0.0
 -5.6000000E-001  2.9600000E-001 0.0
 -5.6000000E-001  3.0400000E-001 0.0
 -5.6000000E-001  3.1200000E-001 0.0
 -5.6000000E-001  3.2000000E-001 0.0
 -5.6000000E-001  3.2800000E-001 0.0
 -5.6000000E-001  3.3600000E-001 0.0
 -5.6000000E-001  3.4400000E-001 0.0
 -5.6000000E-001  3.5200000E-001 0.0
 -5.5200000E-001 -3.6800000E-001 0.0
 -5.5200000E-001 -3.6000000E-001 0.0
 -5.5200000E-001 -3.5200000E-001 0.0
 -5.5200000E-001 -3.4400000E-001 0.0
 -5.5200000E-001 -3.3600000E-001 0.0
 -5.5200000E-001 -3.2800000E-001 0.0
 -5.5200000E-001 -3.2000000E-001 0.0
 -5.5200000E-001 -3.1200000E-001 0.0
 -5.5200000E-001 -3.0400000E-001 0.0
 -5.5200000E-001 -2.9600000E-001 0.0
 -5.5200000E-001 -2.8800000E-001 0.0
 -5.5200000E-001 -2.8000000E-001 0.0
 -5.5200000E-001 -2.7200000E-001 0.0
 -5.5200000E-001 -2.6400000E-001 0.0
 -5.5200000E-001 -2.5600000E-001 0.0
 -5.5200000E-001 -2.4800000E-001 0.0
 -5.5200000E-001 -2.4000000E-001 0.0
 -5.5200000E-001 -2.3200000E-001 0.0
 -5.5200000E-001 -2.2400000E-001 0.0
 -5.5200000E-001 -2.1600000E-001 0.0
 -5.5200000E-001 -2.0800000E-001 0.0
 -5.5200000E-001 -2.0000000E-001 0.0
 -5.5200000E-001 -1.9200000E-001 0.0
 -5.5200000E-001 -1.8400000E-001 0.0
 -5.5200000E-001 -1.7600000E-001 0.0
 -5.5200000E-001 -1.6800000E-001 0.0
 -5.5200000E-001 -1.6000000E-001 0.0
 -5.5200000E-001 -1.5200000E-001 0.0
 -5.5200000E-001 -1.4400000E-001 0.0
 -5.5200000E-001 -1.3600000E-001 0.0
 -5.5200000E-001 -1.2800000E-001 0.0
 -5.5200000E-001 -1.2000000E-001 0.0
 -5.5200000E-001 -1.1200000E-001 0.0
 -5.5200000E-001 -1.0400000E-001 0.0
 -5.5200000E-001 -9.6000000E-002 0.0
 -5.5200000E-001 -8.8000000E-002 0.0
 -5.5200000E-001 -8.0000000E-002 0.0
 -5.5200000E-001 -7.2000000E-002 0.0
 -5.5200000E-001 -6.4000000E-002 0.0
 -5.5200000E-001 -5.6000000E-002 0.0
 -5.5200000E-001 -4.8000000E-002 0.0
 -5.5200000E-001 -4.0000000E-002 0.0
 -5.5200000E-001 -3.2000000E-002 0.0
 -5.5200000E-001 -2.4000000E-002 0.0
 -5.5200000E-001 -1.6000000E-002 0.0
 -5.5200000E-001 -8.0000000E-003 0.0
 -5.5200000E-001  0.0000000E+000 0.0
 -5.5200000E-001  8.0000000E-003 0.0
 -5.5200000E-001  1.6000000E-002 0.0
 -5.5200000E-001  2.4000000E-002 0.0
 -5.5200000E-001  3.2000000E-002 0.0
 -5.5200000E-001  4.0000000E-002 0.0
 -5.5200000E-001  4.8000000E-002 0.0
 -5.5200000E-001  5.6000000E-002 0.0
 -5.5200000E-001  6.4000000E-002 0.0
 -5.5200000E-001  7.2000000E-002 0.0
 -5.5200000E-001  1.6800000E-001 0.0
 -5.5200000E-001  1.7600000E-001 0.0
 -5.5200000E-001  1.8400000E-001 0.0
 -5.5200000E-001  1.9200000E-001 0.0
 -5.5200000E-001  2.0000000E-001 0.0
 -5.5200000E-001  2.0800000E-001 0.0
 -5.5200000E-001  2.1600000E-001 0.0
 -5.5200000E-001  2.2400000E-001 0.0
 -5.5200000E-001  2.3200000E-001 0.0
 -5.5200000E-001  2.4000000E-001 0.0
 -5.5200000E-001  2.4800000E-001 0.0
 -5.5200000E-001  2.5600000E-001 0.0
 -5.5200000E-001  2.6400000E-001 0.0
 -5.5200000E-001  2.7200000E-001 0.0
 -5.5200000E-001  2.8000000E-001 0.0
 -5.5200000E-001  2.8800000E-001 0.0
 -5.5200000E-001  2.9600000E-001 0.0
 -5.5200000E-001  3.0400000E-001 0.0
 -5.5200000E-001  3.1200000E-001 0.0
 -5.5200000E-001  3.2000000E-001 0.0
 -5.5200000E-001  3.2800000E-001 0.0
 -5.5200000E-001  3.3600000E-001 0.0
 -5.5200000E-001  3.4400000E-001 0.0
 -5.5200000E-001  3.5200000E-001 0.0
 -5.4400000E-001 -3.6800000E-001 0.0
 -5.4400000E-001 -3.6000000E-001 0.0
 -5.4400000E-001 -3.5200000E-001 0.0
 -5.4400000E-001 -3.4400000E-001 0.0
 -5.4400000E-001 -3.3600000E-001 0.0
 -5.4400000E-001 -3.2800000E-001 0.0
 -5.4400000E-001 -3.2000000E-001 0.0
 -5.4400000E-001 -3.1200000E-001 0.0
 -5.4400000E-001 -3.0400000E-001 0.0
 -5.4400000E-001 -2.9600000E-001 0.0
 -5.4400000E-001 -2.8800000E-001 0.0
 -5.4400000E-001 -2.8000000E-001 0.0
 -5.4400000E-001 -2.7200000E-001 0.0
 -5.4400000E-001 -2.6400000E-001 0.0
 -5.4400000E-001 -2.5600000E-001 0.0
 -5.4400000E-001 -2.4800000E-001 0.0
 -5.4400000E-001 -2.4000000E-001 0.0
 -5.4400000E-001 -2.3200000E-001 0.0
 -5.4400000E-001 -2.2400000E-001 0.0
 -5.4400000E-001 -2.1600000E-001 0.0
 -5.4400000E-001 -1.6800000E-001 0.0
 -5.4400000E-001 -1.6000000E-001 0.0
 -5.4400000E-001 -1.5200000E-001 0.0
 -5.4400000E-001 -1.4400000E-001 0.0
 -5.4400000E-001 -1.3600000E-001 0.0
 -5.4400000E-001 -1.2800000E-001 0.0
 -5.4400000E-001 -1.2000000E-001 0.0
 -5.4400000E-001 -1.1200000E-001 0.0
 -5.4400000E-001 -1.0400000E-001 0.0
 -5.4400000E-001 -9.6000000E-002 0.0
 -5.4400000E-001 -8.8000000E-002 0.0
 -5.4400000E-001 -8.0000000E-002 0.0
 -5.4400000E-001 -7.2000000E-002 0.0
 -5.4400000E-001 -6.4000000E-002 0.0
 -5.4400000E-001 -5.6000000E-002 0.0
 -5.4400000E-001 -4.8000000E-002 0.0
 -5.4400000E-001 -4.0000000E-002 0.0
 -5.4400000E-001 -3.2000000E-002 0.0
 -5.4400000E-001 -2.4000000E-002 0.0
 -5.4400000E-001 -1.6000000E-002 0.0
 -5.4400000E-001 -8.0000000E-003 0.0
 -5.4400000E-001  0.0000000E+000 0.0
 -5.4400000E-001  8.0000000E-003 0.0
 -5.4400000E-001  1.6000000E-002 0.0
 -5.4400000E-001  2.4000000E-002 0.0
 -5.4400000E-001  3.2000000E-002 0.0
 -5.4400000E-001  4.0000000E-002 0.0
 -5.4400000E-001  4.8000000E-002 0.0
 -5.4400000E-001  5.6000000E-002 0.0
 -5.4400000E-001  6.4000000E-002 0.0
 -5.4400000E-001  7.2000000E-002 0.0
 -5.4400000E-001  1.7600000E-001 0.0
 -5.4400000E-001  1.8400000E-001 0.0
 -5.4400000E-001  1.9200000E-001 0.0
 -5.4400000E-001  2.0000000E-001 0.0
 -5.4400000E-001  2.0800000E-001 0.0
 -5.4400000E-001  2.1600000E-001 0.0
 -5.4400000E-001  2.2400000E-001 0.0
 -5.4400000E-001  2.3200000E-001 0.0
 -5.4400000E-001  2.4000000E-001 0.0
 -5.4400000E-001  2.4800000E-001 0.0
 -5.4400000E-001  2.5600000E-001 0.0
 -5.4400000E-001  2.6400000E-001 0.0
 -5.4400000E-001  2.7200000E-001 0.0
 -5.4400000E-001  2.8000000E-001 0.0
 -5.4400000E-001  2.8800000E-001 0.0
 -5.4400000E-001  2.9600000E-001 0.0
 -5.4400000E-001  3.0400000E-001 0.0
 -5.4400000E-001  3.1200000E-001 0.0
 -5.4400000E-001  3.2000000E-001 0.0
 -5.4400000E-001  3.2800000E-001 0.0
 -5.4400000E-001  3.3600000E-001 0.0
 -5.4400000E-001  3.4400000E-001 0.0
 -5.4400000E-001  3.5200000E-001 0.0
 -5.3600000E-001 -3.6800000E-001 0.0
 -5.3600000E-001 -3.6000000E-001 0.0
 -5.3600000E-001 -3.5200000E-001 0.0
 -5.3600000E-001 -3.4400000E-001 0.0
 -5.3600000E-001 -3.3600000E-001 0.0
 -5.3600000E-001 -3.2800000E-001 0.0
 -5.3600000E-001 -3.2000000E-001 0.0
 -5.3600000E-001 -3.1200000E-001 0.0
 -5.3600000E-001 -3.0400000E-001 0.0
 -5.3600000E-001 -2.9600000E-001 0.0
 -5.3600000E-001 -2.8800000E-001 0.0
 -5.3600000E-001 -2.8000000E-001 0.0
 -5.3600000E-001 -2.7200000E-001 0.0
 -5.3600000E-001 -2.6400000E-001 0.0
 -5.3600000E-001 -2.5600000E-001 0.0
 -5.3600000E-001 -2.4800000E-001 0.0
 -5.3600000E-001 -2.4000000E-001 0.0
 -5.3600000E-001 -2.3200000E-001 0.0
 -5.3600000E-001 -2.2400000E-001 0.0
 -5.3600000E-001 -2.1600000E-001 0.0
 -5.3600000E-001 -1.4400000E-001 0.0
 -5.3600000E-001 -1.3600000E-001 0.0
 -5.3600000E-001 -1.2800000E-001 0.0
 -5.3600000E-001 -1.2000000E-001 0.0
 -5.3600000E-001 -1.1200000E-001 0.0
 -5.3600000E-001 -1.0400000E-001 0.0
 -5.3600000E-001 -9.6000000E-002 0.0
 -5.3600000E-001 -8.8000000E-002 0.0
 -5.3600000E-001 -8.0000000E-002 0.0
 -5.3600000E-001 -7.2000000E-002 0.0
 -5.3600000E-001 -6.4000000E-002 0.0
 -5.3600000E-001 -5.6000000E-002 0.0
 -5.3600000E-001 -4.8000000E-002 0.0
 -5.3600000E-001 -4.0000000E-002 0.0
 -5.3600000E-001 -3.2000000E-002 0.0
 -5.3600000E-001 -2.4000000E-002 0.0
 -5.3600000E-001 -1.6000000E-002 0.0
 -5.3600000E-001 -8.0000000E-003 0.0
 -5.3600000E-001  0.0000000E+000 0.0
 -5.3600000E-001  8.0000000E-003 0.0
 -5.3600000E-001  1.6000000E-002 0.0
 -5.3600000E-001  2.4000000E-002 0.0
 -5.3600000E-001  3.2000000E-002 0.0
 -5.3600000E-001  4.0000000E-002 0.0
 -5.3600000E-001  4.8000000E-002 0.0
 -5.3600000E-001  5.6000000E-002 0.0
 -5.3600000E-001  6.4000000E-002 0.0
 -5.3600000E-001  1.7600000E-001 0.0
 -5.3600000E-001  1.8400000E-001 0.0
 -5.3600000E-001  1.9200000E-001 0.0
 -5.3600000E-001  2.0000000E-001 0.0
 -5.3600000E-001  2.0800000E-001 0.0
 -5.3600000E-001  2.1600000E-001 0.0
 -5.3600000E-001  2.2400000E-001 0.0
 -5.3600000E-001  2.3200000E-001 0.0
 -5.3600000E-001  2.4000000E-001 0.0
 -5.3600000E-001  2.4800000E-001 0.0
 -5.3600000E-001  2.5600000E-001 0.0
 -5.3600000E-001  2.6400000E-001 0.0
 -5.3600000E-001  2.7200000E-001 0.0
 -5.3600000E-001  2.8000000E-001 0.0
 -5.3600000E-001  2.8800000E-001 0.0
 -5.3600000E-001  2.9600000E-001 0.0
 -5.3600000E-001  3.0400000E-001 0.0
 -5.3600000E-001  3.1200000E-001 0.0
 -5.3600000E-001  3.2000000E-001 0.0
 -5.3600000E-001  3.2800000E-001 0.0
 -5.3600000E-001  3.3600000E-001 0.0
 -5.3600000E-001  3.4400000E-001 0.0
 -5.3600000E-001  3.5200000E-001 0.0
 -5.2800000E-001 -3.6000000E-001 0.0
 -5.2800000E-001 -3.5200000E-001 0.0
 -5.2800000E-001 -3.4400000E-001 0.0
 -5.2800000E-001 -3.3600000E-001 0.0
 -5.2800000E-001 -3.2800000E-001 0.0
 -5.2800000E-001 -3.2000000E-001 0.0
 -5.2800000E-001 -3.1200000E-001 0.0
 -5.2800000E-001 -3.0400000E-001 0.0
 -5.2800000E-001 -2.9600000E-001 0.0
 -5.2800000E-001 -2.8800000E-001 0.0
 -5.2800000E-001 -2.8000000E-001 0.0
 -5.2800000E-001 -2.7200000E-001 0.0
 -5.2800000E-001 -2.6400000E-001 0.0
 -5.2800000E-001 -2.5600000E-001 0.0
 -5.2800000E-001 -2.4800000E-001 0.0
 -5.2800000E-001 -2.4000000E-001 0.0
 -5.2800000E-001 -2.3200000E-001 0.0
 -5.2800000E-001 -2.2400000E-001 0.0
 -5.2800000E-001 -2.1600000E-001 0.0
 -5.2800000E-001 -1.2800000E-001 0.0
 -5.2800000E-001 -1.2000000E-001 0.0
 -5.2800000E-001 -1.1200000E-001 0.0
 -5.2800000E-001 -1.0400000E-001 0.0
 -5.2800000E-001 -9.6000000E-002 0.0
 -5.2800000E-001 -8.8000000E-002 0.0
 -5.2800000E-001 -8.0000000E-002 0.0
 -5.2800000E-001 -7.2000000E-002 0.0
 -5.2800000E-001 -6.4000000E-002 0.0
 -5.2800000E-001 -5.6000000E-002 0.0
 -5.2800000E-001 -4.8000000E-002 0.0
 -5.2800000E-001 -4.0000000E-002 0.0
 -5.2800000E-001 -3.2000000E-002 0.0
 -5.2800000E-001 -2.4000000E-002 0.0
 -5.2800000E-001 -1.6000000E-002 0.0
 -5.2800000E-001 -8.0000000E-003 0.0
 -5.2800000E-001  0.0000000E+000 0.0
 -5.2800000E-001  8.0000000E-003 0.0
 -5.2800000E-001  1.6000000E-002 0.0
 -5.2800000E-001  2.4000000E-002 0.0
 -5.2800000E-001  3.2000000E-002 0.0
 -5.2800000E-001  4.0000000E-002 0.0
 -5.2800000E-001  4.8000000E-002 0.0
 -5.2800000E-001  5.6000000E-002 0.0
 -5.2800000E-001  6.4000000E-002 0.0
 -5.2800000E-001  1.8400000E-001 0.0
 -5.2800000E-001  1.9200000E-001 0.0
 -5.2800000E-001  2.0000000E-001 0.0
 -5.2800000E-001  2.0800000E-001 0.0
 -5.2800000E-001  2.1600000E-001 0.0
 -5.2800000E-001  2.2400000E-001 0.0
 -5.2800000E-001  2.3200000E-001 0.0
 -5.2800000E-001  2.4000000E-001 0.0
 -5.2800000E-001  2.4800000E-001 0.0
 -5.2800000E-001  2.5600000E-001 0.0
 -5.2800000E-001  2.6400000E-001 0.0
 -5.2800000E-001  2.7200000E-001 0.0
 -5.2800000E-001  2.8000000E-001 0.0
 -5.2800000E-001  2.8800000E-001 0.0
 -5.2800000E-001  2.9600000E-001 0.0
 -5.2800000E-001  3.0400000E-001 0.0
 -5.2800000E-001  3.1200000E-001 0.0
 -5.2800000E-001  3.2000000E-001 0.0
 -5.2800000E-001  3.2800000E-001 0.0
 -5.2000000E-001 -3.5200000E-001 0.0
 -5.2000000E-001 -3.4400000E-001 0.0
 -5.2000000E-001 -3.3600000E-001 0.0
 -5.2000000E-001 -3.2800000E-001 0.0
 -5.2000000E-001 -3.2000000E-001 0.0
 -5.2000000E-001 -3.1200000E-001 0.0
 -5.2000000E-001 -3.0400000E-001 0.0
 -5.2000000E-001 -2.9600000E-001 0.0
 -5.2000000E-001 -2.8800000E-001 0.0
 -5.2000000E-001 -2.8000000E-001 0.0
 -5.2000000E-001 -2.7200000E-001 0.0
 -5.2000000E-001 -2.6400000E-001 0.0
 -5.2000000E-001 -2.5600000E-001 0.0
 -5.2000000E-001 -2.4800000E-001 0.0
 -5.2000000E-001 -2.4000000E-001 0.0
 -5.2000000E-001 -2.3200000E-001 0.0
 -5.2000000E-001 -2.2400000E-001 0.0
 -5.2000000E-001 -2.1600000E-001 0.0
 -5.2000000E-001 -1.1200000E-001 0.0
 -5.2000000E-001 -1.0400000E-001 0.0
 -5.2000000E-001 -9.6000000E-002 0.0
 -5.2000000E-001 -8.8000000E-002 0.0
 -5.2000000E-001 -8.0000000E-002 0.0
 -5.2000000E-001 -7.2000000E-002 0.0
 -5.2000000E-001 -6.4000000E-002 0.0
 -5.2000000E-001 -5.6000000E-002 0.0
 -5.2000000E-001 -4.8000000E-002 0.0
 -5.2000000E-001 -4.0000000E-002 0.0
 -5.2000000E-001 -3.2000000E-002 0.0
 -5.2000000E-001 -2.4000000E-002 0.0
 -5.2000000E-001 -1.6000000E-002 0.0
 -5.2000000E-001 -8.0000000E-003 0.0
 -5.2000000E-001  0.0000000E+000 0.0
 -5.2000000E-001  8.0000000E-003 0.0
 -5.2000000E-001  1.6000000E-002 0.0
 -5.2000000E-001  2.4000000E-002 0.0
 -5.2000000E-001  3.2000000E-002 0.0
 -5.2000000E-001  4.0000000E-002 0.0
 -5.2000000E-001  4.8000000E-002 0.0
 -5.2000000E-001  5.6000000E-002 0.0
 -5.2000000E-001  6.4000000E-002 0.0
 -5.2000000E-001  1.8400000E-001 0.0
 -5.2000000E-001  1.9200000E-001 0.0
 -5.2000000E-001  2.0000000E-001 0.0
 -5.2000000E-001  2.0800000E-001 0.0
 -5.2000000E-001  2.1600000E-001 0.0
 -5.2000000E-001  2.2400000E-001 0.0
 -5.2000000E-001  2.3200000E-001 0.0
 -5.2000000E-001  2.4000000E-001 0.0
 -5.2000000E-001  2.4800000E-001 0.0
 -5.2000000E-001  2.5600000E-001 0.0
 -5.2000000E-001  2.6400000E-001 0.0
 -5.2000000E-001  2.7200000E-001 0.0
 -5.2000000E-001  2.8000000E-001 0.0
 -5.2000000E-001  2.8800000E-001 0.0
 -5.2000000E-001  2.9600000E-001 0.0
 -5.2000000E-001  3.0400000E-001 0.0
 -5.2000000E-001  3.1200000E-001 0.0
 -5.1200000E-001 -3.3600000E-001 0.0
 -5.1200000E-001 -3.2800000E-001 0.0
 -5.1200000E-001 -3.2000000E-001 0.0
 -5.1200000E-001 -3.1200000E-001 0.0
 -5.1200000E-001 -3.0400000E-001 0.0
 -5.1200000E-001 -2.9600000E-001 0.0
 -5.1200000E-001 -2.8800000E-001 0.0
 -5.1200000E-001 -2.8000000E-001 0.0
 -5.1200000E-001 -2.7200000E-001 0.0
 -5.1200000E-001 -2.6400000E-001 0.0
 -5.1200000E-001 -2.5600000E-001 0.0
 -5.1200000E-001 -2.4800000E-001 0.0
 -5.1200000E-001 -2.4000000E-001 0.0
 -5.1200000E-001 -2.3200000E-001 0.0
 -5.1200000E-001 -2.2400000E-001 0.0
 -5.1200000E-001 -2.1600000E-001 0.0
 -5.1200000E-001 -9.6000000E-002 0.0
 -5.1200000E-001 -8.8000000E-002 0.0
 -5.1200000E-001 -8.0000000E-002 0.0
 -5.1200000E-001 -7.2000000E-002 0.0
 -5.1200000E-001 -6.4000000E-002 0.0
 -5.1200000E-001 -5.6000000E-002 0.0
 -5.1200000E-001 -4.8000000E-002 0.0
 -5.1200000E-001 -4.0000000E-002 0.0
 -5.1200000E-001 -3.2000000E-002 0.0
 -5.1200000E-001 -2.4000000E-002 0.0
 -5.1200000E-001 -1.6000000E-002 0.0
 -5.1200000E-001 -8.0000000E-003 0.0
 -5.1200000E-001  0.0000000E+000 0.0
 -5.1200000E-001  8.0000000E-003 0.0
 -5.1200000E-001  1.6000000E-002 0.0
 -5.1200000E-001  2.4000000E-002 0.0
 -5.1200000E-001  3.2000000E-002 0.0
 -5.1200000E-001  4.0000000E-002 0.0
 -5.1200000E-001  4.8000000E-002 0.0
 -5.1200000E-001  5.6000000E-002 0.0
 -5.1200000E-001  6.4000000E-002 0.0
 -5.1200000E-001  1.9200000E-001 0.0
 -5.1200000E-001  2.0000000E-001 0.0
 -5.1200000E-001  2.0800000E-001 0.0
 -5.1200000E-001  2.1600000E-001 0.0
 -5.1200000E-001  2.2400000E-001 0.0
 -5.1200000E-001  2.3200000E-001 0.0
 -5.1200000E-001  2.4000000E-001 0.0
 -5.1200000E-001  2.4800000E-001 0.0
 -5.1200000E-001  2.5600000E-001 0.0
 -5.1200000E-001  2.6400000E-001 0.0
 -5.1200000E-001  2.7200000E-001 0.0
 -5.1200000E-001  2.8000000E-001 0.0
 -5.1200000E-001  2.8800000E-001 0.0
 -5.1200000E-001  2.9600000E-001 0.0
 -5.1200000E-001  3.0400000E-001 0.0
 -5.0400000E-001 -3.3600000E-001 0.0
 -5.0400000E-001 -3.2800000E-001 0.0
 -5.0400000E-001 -3.2000000E-001 0.0
 -5.0400000E-001 -3.1200000E-001 0.0
 -5.0400000E-001 -3.0400000E-001 0.0
 -5.0400000E-001 -2.9600000E-001 0.0
 -5.0400000E-001 -2.8800000E-001 0.0
 -5.0400000E-001 -2.8000000E-001 0.0
 -5.0400000E-001 -2.7200000E-001 0.0
 -5.0400000E-001 -2.6400000E-001 0.0
 -5.0400000E-001 -2.5600000E-001 0.0
 -5.0400000E-001 -2.4800000E-001 0.0
 -5.0400000E-001 -2.4000000E-001 0.0
 -5.0400000E-001 -2.3200000E-001 0.0
 -5.0400000E-001 -2.2400000E-001 0.0
 -5.0400000E-001 -2.1600000E-001 0.0
 -5.0400000E-001 -8.0000000E-002 0.0
 -5.0400000E-001 -7.2000000E-002 0.0
 -5.0400000E-001 -6.4000000E-002 0.0
 -5.0400000E-001 -5.6000000E-002 0.0
 -5.0400000E-001 -4.8000000E-002 0.0
 -5.0400000E-001 -4.0000000E-002 0.0
 -5.0400000E-001 -3.2000000E-002 0.0
 -5.0400000E-001 -2.4000000E-002 0.0
 -5.0400000E-001 -1.6000000E-002 0.0
 -5.0400000E-001 -8.0000000E-003 0.0
 -5.0400000E-001  0.0000000E+000 0.0
 -5.0400000E-001  8.0000000E-003 0.0
 -5.0400000E-001  1.6000000E-002 0.0
 -5.0400000E-001  2.4000000E-002 0.0
 -5.0400000E-001  3.2000000E-002 0.0
 -5.0400000E-001  4.0000000E-002 0.0
 -5.0400000E-001  4.8000000E-002 0.0
 -5.0400000E-001  5.6000000E-002 0.0
 -5.0400000E-001  6.4000000E-002 0.0
 -5.0400000E-001  2.0000000E-001 0.0
 -5.0400000E-001  2.0800000E-001 0.0
 -5.0400000E-001  2.1600000E-001 0.0
 -5.0400000E-001  2.2400000E-001 0.0
 -5.0400000E-001  2.3200000E-001 0.0
 -5.0400000E-001  2.4000000E-001 0.0
 -5.0400000E-001  2.4800000E-001 0.0
 -5.0400000E-001  2.5600000E-001 0.0
 -5.0400000E-001  2.6400000E-001 0.0
 -5.0400000E-001  2.7200000E-001 0.0
 -5.0400000E-001  2.8000000E-001 0.0
 -5.0400000E-001  2.8800000E-001 0.0
 -5.0400000E-001  2.9600000E-001 0.0
 -5.0400000E-001  3.0400000E-001 0.0
 -4.9600000E-001 -3.3600000E-001 0.0
 -4.9600000E-001 -3.2800000E-001 0.0
 -4.9600000E-001 -3.2000000E-001 0.0
 -4.9600000E-001 -3.1200000E-001 0.0
 -4.9600000E-001 -3.0400000E-001 0.0
 -4.9600000E-001 -2.9600000E-001 0.0
 -4.9600000E-001 -2.8800000E-001 0.0
 -4.9600000E-001 -2.8000000E-001 0.0
 -4.9600000E-001 -2.7200000E-001 0.0
 -4.9600000E-001 -2.6400000E-001 0.0
 -4.9600000E-001 -2.5600000E-001 0.0
 -4.9600000E-001 -2.4800000E-001 0.0
 -4.9600000E-001 -2.4000000E-001 0.0
 -4.9600000E-001 -2.3200000E-001 0.0
 -4.9600000E-001 -2.2400000E-001 0.0
 -4.9600000E-001 -2.1600000E-001 0.0
 -4.9600000E-001 -7.2000000E-002 0.0
 -4.9600000E-001 -6.4000000E-002 0.0
 -4.9600000E-001 -5.6000000E-002 0.0
 -4.9600000E-001 -4.8000000E-002 0.0
 -4.9600000E-001 -4.0000000E-002 0.0
 -4.9600000E-001 -3.2000000E-002 0.0
 -4.9600000E-001 -2.4000000E-002 0.0
 -4.9600000E-001 -1.6000000E-002 0.0
 -4.9600000E-001 -8.0000000E-003 0.0
 -4.9600000E-001  0.0000000E+000 0.0
 -4.9600000E-001  8.0000000E-003 0.0
 -4.9600000E-001  1.6000000E-002 0.0
 -4.9600000E-001  2.4000000E-002 0.0
 -4.9600000E-001  3.2000000E-002 0.0
 -4.9600000E-001  4.0000000E-002 0.0
 -4.9600000E-001  4.8000000E-002 0.0
 -4.9600000E-001  5.6000000E-002 0.0
 -4.9600000E-001  6.4000000E-002 0.0
 -4.9600000E-001  2.0000000E-001 0.0
 -4.9600000E-001  2.0800000E-001 0.0
 -4.9600000E-001  2.1600000E-001 0.0
 -4.9600000E-001  2.2400000E-001 0.0
 -4.9600000E-001  2.3200000E-001 0.0
 -4.9600000E-001  2.4000000E-001 0.0
 -4.9600000E-001  2.4800000E-001 0.0
 -4.9600000E-001  2.5600000E-001 0.0
 -4.9600000E-001  2.6400000E-001 0.0
 -4.9600000E-001  2.7200000E-001 0.0
 -4.9600000E-001  2.8000000E-001 0.0
 -4.9600000E-001  2.8800000E-001 0.0
 -4.9600000E-001  2.9600000E-001 0.0
 -4.8800000E-001 -3.2800000E-001 0.0
 -4.8800000E-001 -3.2000000E-001 0.0
 -4.8800000E-001 -3.1200000E-001 0.0
 -4.8800000E-001 -3.0400000E-001 0.0
 -4.8800000E-001 -2.9600000E-001 0.0
 -4.8800000E-001 -2.8800000E-001 0.0
 -4.8800000E-001 -2.8000000E-001 0.0
 -4.8800000E-001 -2.7200000E-001 0.0
 -4.8800000E-001 -2.6400000E-001 0.0
 -4.8800000E-001 -2.5600000E-001 0.0
 -4.8800000E-001 -2.4800000E-001 0.0
 -4.8800000E-001 -2.4000000E-001 0.0
 -4.8800000E-001 -2.3200000E-001 0.0
 -4.8800000E-001 -2.2400000E-001 0.0
 -4.8800000E-001 -2.1600000E-001 0.0
 -4.8800000E-001 -5.6000000E-002 0.0
 -4.8800000E-001 -4.8000000E-002 0.0
 -4.8800000E-001 -4.0000000E-002 0.0
 -4.8800000E-001 -3.2000000E-002 0.0
 -4.8800000E-001 -2.4000000E-002 0.0
 -4.8800000E-001 -1.6000000E-002 0.0
 -4.8800000E-001 -8.0000000E-003 0.0
 -4.8800000E-001  0.0000000E+000 0.0
 -4.8800000E-001  8.0000000E-003 0.0
 -4.8800000E-001  1.6000000E-002 0.0
 -4.8800000E-001  2.4000000E-002 0.0
 -4.8800000E-001  3.2000000E-002 0.0
 -4.8800000E-001  4.0000000E-002 0.0
 -4.8800000E-001  4.8000000E-002 0.0
 -4.8800000E-001  5.6000000E-002 0.0
 -4.8800000E-001  6.4000000E-002 0.0
 -4.8800000E-001  2.0000000E-001 0.0
 -4.8800000E-001  2.0800000E-001 0.0
 -4.8800000E-001  2.1600000E-001 0.0
 -4.8800000E-001  2.2400000E-001 0.0
 -4.8800000E-001  2.3200000E-001 0.0
 -4.8800000E-001  2.4000000E-001 0.0
 -4.8800000E-001  2.4800000E-001 0.0
 -4.8800000E-001  2.5600000E-001 0.0
 -4.8800000E-001  2.6400000E-001 0.0
 -4.8800000E-001  2.7200000E-001 0.0
 -4.8800000E-001  2.8000000E-001 0.0
 -4.8800000E-001  2.8800000E-001 0.0
 -4.8800000E-001  2.9600000E-001 0.0
 -4.8000000E-001 -3.2800000E-001 0.0
 -4.8000000E-001 -3.2000000E-001 0.0
 -4.8000000E-001 -3.1200000E-001 0.0
 -4.8000000E-001 -3.0400000E-001 0.0
 -4.8000000E-001 -2.9600000E-001 0.0
 -4.8000000E-001 -2.8800000E-001 0.0
 -4.8000000E-001 -2.8000000E-001 0.0
 -4.8000000E-001 -2.7200000E-001 0.0
 -4.8000000E-001 -2.6400000E-001 0.0
 -4.8000000E-001 -2.5600000E-001 0.0
 -4.8000000E-001 -2.4800000E-001 0.0
 -4.8000000E-001 -2.4000000E-001 0.0
 -4.8000000E-001 -2.3200000E-001 0.0
 -4.8000000E-001 -2.2400000E-001 0.0
 -4.8000000E-001 -2.1600000E-001 0.0
 -4.8000000E-001 -4.0000000E-002 0.0
 -4.8000000E-001 -3.2000000E-002 0.0
 -4.8000000E-001 -2.4000000E-002 0.0
 -4.8000000E-001 -1.6000000E-002 0.0
 -4.8000000E-001 -8.0000000E-003 0.0
 -4.8000000E-001  0.0000000E+000 0.0
 -4.8000000E-001  8.0000000E-003 0.0
 -4.8000000E-001  1.6000000E-002 0.0
 -4.8000000E-001  2.4000000E-002 0.0
 -4.8000000E-001  3.2000000E-002 0.0
 -4.8000000E-001  4.0000000E-002 0.0
 -4.8000000E-001  4.8000000E-002 0.0
 -4.8000000E-001  5.6000000E-002 0.0
 -4.8000000E-001  2.0000000E-001 0.0
 -4.8000000E-001  2.0800000E-001 0.0
 -4.8000000E-001  2.1600000E-001 0.0
 -4.8000000E-001  2.2400000E-001 0.0
 -4.8000000E-001  2.3200000E-001 0.0
 -4.8000000E-001  2.4000000E-001 0.0
 -4.8000000E-001  2.4800000E-001 0.0
 -4.8000000E-001  2.5600000E-001 0.0
 -4.8000000E-001  2.6400000E-001 0.0
 -4.8000000E-001  2.7200000E-001 0.0
 -4.8000000E-001  2.8000000E-001 0.0
 -4.8000000E-001  2.8800000E-001 0.0
 -4.8000000E-001  2.9600000E-001 0.0
 -4.8000000E-001  3.0400000E-001 0.0
 -4.8800000E-001  3.0400000E-001 0.0
 -4.7200000E-001 -3.2800000E-001 0.0
 -4.7200000E-001 -3.2000000E-001 0.0
 -4.7200000E-001 -3.1200000E-001 0.0
 -4.7200000E-001 -3.0400000E-001 0.0
 -4.7200000E-001 -2.9600000E-001 0.0
 -4.7200000E-001 -2.8800000E-001 0.0
 -4.7200000E-001 -2.8000000E-001 0.0
 -4.7200000E-001 -2.7200000E-001 0.0
 -4.7200000E-001 -2.6400000E-001 0.0
 -4.7200000E-001 -2.5600000E-001 0.0
 -4.7200000E-001 -2.4800000E-001 0.0
 -4.7200000E-001 -2.4000000E-001 0.0
 -4.7200000E-001 -2.3200000E-001 0.0
 -4.7200000E-001 -2.2400000E-001 0.0
 -4.7200000E-001 -2.1600000E-001 0.0
 -4.7200000E-001 -2.0800000E-001 0.0
 -4.8000000E-001 -2.0800000E-001 0.0
 -4.7200000E-001 -3.2000000E-002 0.0
 -4.7200000E-001 -2.4000000E-002 0.0
 -4.7200000E-001 -1.6000000E-002 0.0
 -4.7200000E-001 -8.0000000E-003 0.0
 -4.7200000E-001  0.0000000E+000 0.0
 -4.7200000E-001  8.0000000E-003 0.0
 -4.7200000E-001  1.6000000E-002 0.0
 -4.7200000E-001  2.4000000E-002 0.0
 -4.7200000E-001  3.2000000E-002 0.0
 -4.7200000E-001  4.0000000E-002 0.0
 -4.7200000E-001  4.8000000E-002 0.0
 -4.7200000E-001  5.6000000E-002 0.0
 -4.8000000E-001  1.9200000E-001 0.0
 -4.7200000E-001  1.9200000E-001 0.0
 -4.7200000E-001  2.0000000E-001 0.0
 -4.7200000E-001  2.0800000E-001 0.0
 -4.7200000E-001  2.1600000E-001 0.0
 -4.7200000E-001  2.2400000E-001 0.0
 -4.7200000E-001  2.3200000E-001 0.0
 -4.7200000E-001  2.4000000E-001 0.0
 -4.7200000E-001  2.4800000E-001 0.0
 -4.7200000E-001  2.5600000E-001 0.0
 -4.7200000E-001  2.6400000E-001 0.0
 -4.7200000E-001  2.7200000E-001 0.0
 -4.7200000E-001  2.8000000E-001 0.0
 -4.7200000E-001  2.8800000E-001 0.0
 -4.7200000E-001  2.9600000E-001 0.0
 -4.7200000E-001  3.0400000E-001 0.0
 -4.6400000E-001 -3.2800000E-001 0.0
 -4.6400000E-001 -3.2000000E-001 0.0
 -4.6400000E-001 -3.1200000E-001 0.0
 -4.6400000E-001 -3.0400000E-001 0.0
 -4.6400000E-001 -2.9600000E-001 0.0
 -4.6400000E-001 -2.8800000E-001 0.0
 -4.6400000E-001 -2.8000000E-001 0.0
 -4.6400000E-001 -2.7200000E-001 0.0
 -4.6400000E-001 -2.6400000E-001 0.0
 -4.6400000E-001 -2.5600000E-001 0.0
 -4.6400000E-001 -2.4800000E-001 0.0
 -4.6400000E-001 -2.4000000E-001 0.0
 -4.6400000E-001 -2.3200000E-001 0.0
 -4.6400000E-001 -2.2400000E-001 0.0
 -4.6400000E-001 -2.1600000E-001 0.0
 -4.6400000E-001 -2.0800000E-001 0.0
 -4.6400000E-001 -1.6000000E-002 0.0
 -4.6400000E-001 -8.0000000E-003 0.0
 -4.6400000E-001  0.0000000E+000 0.0
 -4.6400000E-001  8.0000000E-003 0.0
 -4.6400000E-001  1.6000000E-002 0.0
 -4.6400000E-001  2.4000000E-002 0.0
 -4.6400000E-001  3.2000000E-002 0.0
 -4.6400000E-001  4.0000000E-002 0.0
 -4.6400000E-001  4.8000000E-002 0.0
 -4.6400000E-001  5.6000000E-002 0.0
 -4.7200000E-001  1.7600000E-001 0.0
 -4.6400000E-001  1.7600000E-001 0.0
 -4.6400000E-001  1.8400000E-001 0.0
 -4.7200000E-001  1.8400000E-001 0.0
 -4.6400000E-001  1.9200000E-001 0.0
 -4.6400000E-001  2.0000000E-001 0.0
 -4.6400000E-001  2.0800000E-001 0.0
 -4.6400000E-001  2.1600000E-001 0.0
 -4.6400000E-001  2.2400000E-001 0.0
 -4.6400000E-001  2.3200000E-001 0.0
 -4.6400000E-001  2.4000000E-001 0.0
 -4.6400000E-001  2.4800000E-001 0.0
 -4.6400000E-001  2.5600000E-001 0.0
 -4.6400000E-001  2.6400000E-001 0.0
 -4.6400000E-001  2.7200000E-001 0.0
 -4.6400000E-001  2.8000000E-001 0.0
 -4.6400000E-001  2.8800000E-001 0.0
 -4.6400000E-001  2.9600000E-001 0.0
 -4.6400000E-001  3.0400000E-001 0.0
 -4.6400000E-001  3.1200000E-001 0.0
 -4.7200000E-001  3.1200000E-001 0.0
 -4.5600000E-001 -3.2800000E-001 0.0
 -4.5600000E-001 -3.2000000E-001 0.0
 -4.5600000E-001 -3.1200000E-001 0.0
 -4.5600000E-001 -3.0400000E-001 0.0
 -4.5600000E-001 -2.9600000E-001 0.0
 -4.5600000E-001 -2.8800000E-001 0.0
 -4.5600000E-001 -2.8000000E-001 0.0
 -4.5600000E-001 -2.7200000E-001 0.0
 -4.5600000E-001 -2.6400000E-001 0.0
 -4.5600000E-001 -2.5600000E-001 0.0
 -4.5600000E-001 -2.4800000E-001 0.0
 -4.5600000E-001 -2.4000000E-001 0.0
 -4.5600000E-001 -2.3200000E-001 0.0
 -4.5600000E-001 -2.2400000E-001 0.0
 -4.5600000E-001 -2.1600000E-001 0.0
 -4.5600000E-001 -2.0800000E-001 0.0
 -4.5600000E-001  8.0000000E-003 0.0
 -4.5600000E-001  1.6000000E-002 0.0
 -4.5600000E-001  2.4000000E-002 0.0
 -4.5600000E-001  3.2000000E-002 0.0
 -4.5600000E-001  4.0000000E-002 0.0
 -4.5600000E-001  4.8000000E-002 0.0
 -4.6400000E-001  8.8000000E-002 0.0
 -4.5600000E-001  8.8000000E-002 0.0
 -4.5600000E-001  9.6000000E-002 0.0
 -4.6400000E-001  9.6000000E-002 0.0
 -4.5600000E-001  1.0400000E-001 0.0
 -4.6400000E-001  1.0400000E-001 0.0
 -4.5600000E-001  1.1200000E-001 0.0
 -4.6400000E-001  1.1200000E-001 0.0
 -4.5600000E-001  1.2000000E-001 0.0
 -4.6400000E-001  1.2000000E-001 0.0
 -4.5600000E-001  1.2800000E-001 0.0
 -4.6400000E-001  1.2800000E-001 0.0
 -4.5600000E-001  1.3600000E-001 0.0
 -4.6400000E-001  1.3600000E-001 0.0
 -4.5600000E-001  1.4400000E-001 0.0
 -4.6400000E-001  1.4400000E-001 0.0
 -4.5600000E-001  1.5200000E-001 0.0
 -4.6400000E-001  1.5200000E-001 0.0
 -4.5600000E-001  1.6000000E-001 0.0
 -4.6400000E-001  1.6000000E-001 0.0
 -4.5600000E-001  1.6800000E-001 0.0
 -4.6400000E-001  1.6800000E-001 0.0
 -4.5600000E-001  1.7600000E-001 0.0
 -4.5600000E-001  1.8400000E-001 0.0
 -4.5600000E-001  1.9200000E-001 0.0
 -4.5600000E-001  2.0000000E-001 0.0
 -4.5600000E-001  2.0800000E-001 0.0
 -4.5600000E-001  2.1600000E-001 0.0
 -4.5600000E-001  2.2400000E-001 0.0
 -4.5600000E-001  2.3200000E-001 0.0
 -4.5600000E-001  2.4000000E-001 0.0
 -4.5600000E-001  2.4800000E-001 0.0
 -4.5600000E-001  2.5600000E-001 0.0
 -4.5600000E-001  2.6400000E-001 0.0
 -4.5600000E-001  2.7200000E-001 0.0
 -4.5600000E-001  2.8000000E-001 0.0
 -4.5600000E-001  2.8800000E-001 0.0
 -4.5600000E-001  2.9600000E-001 0.0
 -4.5600000E-001  3.0400000E-001 0.0
 -4.5600000E-001  3.1200000E-001 0.0
 -4.5600000E-001  3.2000000E-001 0.0
 -4.6400000E-001  3.2000000E-001 0.0
 -4.4800000E-001 -3.2000000E-001 0.0
 -4.4800000E-001 -3.1200000E-001 0.0
 -4.4800000E-001 -3.0400000E-001 0.0
 -4.4800000E-001 -2.9600000E-001 0.0
 -4.4800000E-001 -2.8800000E-001 0.0
 -4.4800000E-001 -2.8000000E-001 0.0
 -4.4800000E-001 -2.7200000E-001 0.0
 -4.4800000E-001 -2.6400000E-001 0.0
 -4.4800000E-001 -2.5600000E-001 0.0
 -4.4800000E-001 -2.4800000E-001 0.0
 -4.4800000E-001 -2.4000000E-001 0.0
 -4.4800000E-001 -2.3200000E-001 0.0
 -4.4800000E-001 -2.2400000E-001 0.0
 -4.4800000E-001 -2.1600000E-001 0.0
 -4.4800000E-001 -2.0800000E-001 0.0
 -4.4800000E-001 -2.0000000E-001 0.0
 -4.5600000E-001 -2.0000000E-001 0.0
 -4.5600000E-001  6.4000000E-002 0.0
 -4.4800000E-001  6.4000000E-002 0.0
 -4.4800000E-001  7.2000000E-002 0.0
 -4.5600000E-001  7.2000000E-002 0.0
 -4.4800000E-001  8.0000000E-002 0.0
 -4.5600000E-001  8.0000000E-002 0.0
 -4.4800000E-001  8.8000000E-002 0.0
 -4.4800000E-001  9.6000000E-002 0.0
 -4.4800000E-001  1.0400000E-001 0.0
 -4.4800000E-001  1.1200000E-001 0.0
 -4.4800000E-001  1.2000000E-001 0.0
 -4.4800000E-001  1.2800000E-001 0.0
 -4.4800000E-001  1.3600000E-001 0.0
 -4.4800000E-001  1.4400000E-001 0.0
 -4.4800000E-001  1.5200000E-001 0.0
 -4.4800000E-001  1.6000000E-001 0.0
 -4.4800000E-001  1.6800000E-001 0.0
 -4.4800000E-001  1.7600000E-001 0.0
 -4.4800000E-001  1.8400000E-001 0.0
 -4.4800000E-001  1.9200000E-001 0.0
 -4.4800000E-001  2.0000000E-001 0.0
 -4.4800000E-001  2.0800000E-001 0.0
 -4.4800000E-001  2.1600000E-001 0.0
 -4.4800000E-001  2.2400000E-001 0.0
 -4.4800000E-001  2.3200000E-001 0.0
 -4.4800000E-001  2.4000000E-001 0.0
 -4.4800000E-001  2.4800000E-001 0.0
 -4.4800000E-001  2.5600000E-001 0.0
 -4.4800000E-001  2.6400000E-001 0.0
 -4.4800000E-001  2.7200000E-001 0.0
 -4.4800000E-001  2.8000000E-001 0.0
 -4.4800000E-001  2.8800000E-001 0.0
 -4.4800000E-001  2.9600000E-001 0.0
 -4.4800000E-001  3.0400000E-001 0.0
 -4.4800000E-001  3.1200000E-001 0.0
 -4.4800000E-001  3.2000000E-001 0.0
 -4.4800000E-001  3.2800000E-001 0.0
 -4.5600000E-001  3.2800000E-001 0.0
 -4.4000000E-001 -3.2000000E-001 0.0
 -4.4000000E-001 -3.1200000E-001 0.0
 -4.4000000E-001 -3.0400000E-001 0.0
 -4.4000000E-001 -2.9600000E-001 0.0
 -4.4000000E-001 -2.8800000E-001 0.0
 -4.4000000E-001 -2.8000000E-001 0.0
 -4.4000000E-001 -2.7200000E-001 0.0
 -4.4000000E-001 -2.6400000E-001 0.0
 -4.4000000E-001 -2.5600000E-001 0.0
 -4.4000000E-001 -2.4800000E-001 0.0
 -4.4000000E-001 -2.4000000E-001 0.0
 -4.4000000E-001 -2.3200000E-001 0.0
 -4.4000000E-001 -2.2400000E-001 0.0
 -4.4000000E-001 -2.1600000E-001 0.0
 -4.4000000E-001 -2.0800000E-001 0.0
 -4.4000000E-001 -2.0000000E-001 0.0
 -4.4800000E-001  4.8000000E-002 0.0
 -4.4000000E-001  4.8000000E-002 0.0
 -4.4000000E-001  5.6000000E-002 0.0
 -4.4800000E-001  5.6000000E-002 0.0
 -4.4000000E-001  6.4000000E-002 0.0
 -4.4000000E-001  7.2000000E-002 0.0
 -4.4000000E-001  8.0000000E-002 0.0
 -4.4000000E-001  8.8000000E-002 0.0
 -4.4000000E-001  9.6000000E-002 0.0
 -4.4000000E-001  1.0400000E-001 0.0
 -4.4000000E-001  1.1200000E-001 0.0
 -4.4000000E-001  1.2000000E-001 0.0
 -4.4000000E-001  1.2800000E-001 0.0
 -4.4000000E-001  1.3600000E-001 0.0
 -4.4000000E-001  1.4400000E-001 0.0
 -4.4000000E-001  1.5200000E-001 0.0
 -4.4000000E-001  1.6000000E-001 0.0
 -4.4000000E-001  1.6800000E-001 0.0
 -4.4000000E-001  1.7600000E-001 0.0
 -4.4000000E-001  1.8400000E-001 0.0
 -4.4000000E-001  1.9200000E-001 0.0
 -4.4000000E-001  2.0000000E-001 0.0
 -4.4000000E-001  2.0800000E-001 0.0
 -4.4000000E-001  2.1600000E-001 0.0
 -4.4000000E-001  2.2400000E-001 0.0
 -4.4000000E-001  2.3200000E-001 0.0
 -4.4000000E-001  2.4000000E-001 0.0
 -4.4000000E-001  2.4800000E-001 0.0
 -4.4000000E-001  2.5600000E-001 0.0
 -4.4000000E-001  2.6400000E-001 0.0
 -4.4000000E-001  2.7200000E-001 0.0
 -4.4000000E-001  2.8000000E-001 0.0
 -4.4000000E-001  2.8800000E-001 0.0
 -4.4000000E-001  2.9600000E-001 0.0
 -4.4000000E-001  3.0400000E-001 0.0
 -4.4000000E-001  3.1200000E-001 0.0
 -4.4000000E-001  3.2000000E-001 0.0
 -4.4000000E-001  3.2800000E-001 0.0
 -4.3200000E-001 -3.2000000E-001 0.0
 -4.3200000E-001 -3.1200000E-001 0.0
 -4.3200000E-001 -3.0400000E-001 0.0
 -4.3200000E-001 -2.9600000E-001 0.0
 -4.3200000E-001 -2.8800000E-001 0.0
 -4.3200000E-001 -2.8000000E-001 0.0
 -4.3200000E-001 -2.7200000E-001 0.0
 -4.3200000E-001 -2.6400000E-001 0.0
 -4.3200000E-001 -2.5600000E-001 0.0
 -4.3200000E-001 -2.4800000E-001 0.0
 -4.3200000E-001 -2.4000000E-001 0.0
 -4.3200000E-001 -2.3200000E-001 0.0
 -4.3200000E-001 -2.2400000E-001 0.0
 -4.3200000E-001 -2.1600000E-001 0.0
 -4.3200000E-001 -2.0800000E-001 0.0
 -4.3200000E-001 -2.0000000E-001 0.0
 -4.3200000E-001 -1.9200000E-001 0.0
 -4.4000000E-001 -1.9200000E-001 0.0
 -4.4000000E-001  2.4000000E-002 0.0
 -4.3200000E-001  2.4000000E-002 0.0
 -4.3200000E-001  3.2000000E-002 0.0
 -4.4000000E-001  3.2000000E-002 0.0
 -4.3200000E-001  4.0000000E-002 0.0
 -4.4000000E-001  4.0000000E-002 0.0
 -4.3200000E-001  4.8000000E-002 0.0
 -4.3200000E-001  5.6000000E-002 0.0
 -4.3200000E-001  6.4000000E-002 0.0
 -4.3200000E-001  7.2000000E-002 0.0
 -4.3200000E-001  8.0000000E-002 0.0
 -4.3200000E-001  8.8000000E-002 0.0
 -4.3200000E-001  9.6000000E-002 0.0
 -4.3200000E-001  1.0400000E-001 0.0
 -4.3200000E-001  1.1200000E-001 0.0
 -4.3200000E-001  1.2000000E-001 0.0
 -4.3200000E-001  1.2800000E-001 0.0
 -4.3200000E-001  1.3600000E-001 0.0
 -4.3200000E-001  1.4400000E-001 0.0
 -4.3200000E-001  1.5200000E-001 0.0
 -4.3200000E-001  1.6000000E-001 0.0
 -4.3200000E-001  1.6800000E-001 0.0
 -4.3200000E-001  1.7600000E-001 0.0
 -4.3200000E-001  1.8400000E-001 0.0
 -4.3200000E-001  1.9200000E-001 0.0
 -4.3200000E-001  2.0000000E-001 0.0
 -4.3200000E-001  2.0800000E-001 0.0
 -4.3200000E-001  2.1600000E-001 0.0
 -4.3200000E-001  2.2400000E-001 0.0
 -4.3200000E-001  2.3200000E-001 0.0
 -4.3200000E-001  2.4000000E-001 0.0
 -4.3200000E-001  2.4800000E-001 0.0
 -4.3200000E-001  2.5600000E-001 0.0
 -4.3200000E-001  2.6400000E-001 0.0
 -4.3200000E-001  2.7200000E-001 0.0
 -4.3200000E-001  2.8000000E-001 0.0
 -4.3200000E-001  2.8800000E-001 0.0
 -4.3200000E-001  2.9600000E-001 0.0
 -4.3200000E-001  3.0400000E-001 0.0
 -4.3200000E-001  3.1200000E-001 0.0
 -4.3200000E-001  3.2000000E-001 0.0
 -4.3200000E-001  3.2800000E-001 0.0
 -4.3200000E-001  3.3600000E-001 0.0
 -4.4000000E-001  3.3600000E-001 0.0
 -4.2400000E-001 -3.2000000E-001 0.0
 -4.2400000E-001 -3.1200000E-001 0.0
 -4.2400000E-001 -3.0400000E-001 0.0
 -4.2400000E-001 -2.9600000E-001 0.0
 -4.2400000E-001 -2.8800000E-001 0.0
 -4.2400000E-001 -2.8000000E-001 0.0
 -4.2400000E-001 -2.7200000E-001 0.0
 -4.2400000E-001 -2.6400000E-001 0.0
 -4.2400000E-001 -2.5600000E-001 0.0
 -4.2400000E-001 -2.4800000E-001 0.0
 -4.2400000E-001 -2.4000000E-001 0.0
 -4.2400000E-001 -2.3200000E-001 0.0
 -4.2400000E-001 -2.2400000E-001 0.0
 -4.2400000E-001 -2.1600000E-001 0.0
 -4.2400000E-001 -2.0800000E-001 0.0
 -4.2400000E-001 -2.0000000E-001 0.0
 -4.2400000E-001 -1.9200000E-001 0.0
 -4.3200000E-001  0.0000000E+000 0.0
 -4.2400000E-001  0.0000000E+000 0.0
 -4.2400000E-001  8.0000000E-003 0.0
 -4.3200000E-001  8.0000000E-003 0.0
 -4.2400000E-001  1.6000000E-002 0.0
 -4.3200000E-001  1.6000000E-002 0.0
 -4.2400000E-001  2.4000000E-002 0.0
 -4.2400000E-001  3.2000000E-002 0.0
 -4.2400000E-001  4.0000000E-002 0.0
 -4.2400000E-001  4.8000000E-002 0.0
 -4.2400000E-001  5.6000000E-002 0.0
 -4.2400000E-001  6.4000000E-002 0.0
 -4.2400000E-001  7.2000000E-002 0.0
 -4.2400000E-001  8.0000000E-002 0.0
 -4.2400000E-001  8.8000000E-002 0.0
 -4.2400000E-001  9.6000000E-002 0.0
 -4.2400000E-001  1.0400000E-001 0.0
 -4.2400000E-001  1.1200000E-001 0.0
 -4.2400000E-001  1.2000000E-001 0.0
 -4.2400000E-001  1.2800000E-001 0.0
 -4.2400000E-001  1.3600000E-001 0.0
 -4.2400000E-001  1.4400000E-001 0.0
 -4.2400000E-001  1.5200000E-001 0.0
 -4.2400000E-001  1.6000000E-001 0.0
 -4.2400000E-001  1.6800000E-001 0.0
 -4.2400000E-001  1.7600000E-001 0.0
 -4.2400000E-001  1.8400000E-001 0.0
 -4.2400000E-001  1.9200000E-001 0.0
 -4.2400000E-001  2.0000000E-001 0.0
 -4.2400000E-001  2.0800000E-001 0.0
 -4.2400000E-001  2.1600000E-001 0.0
 -4.2400000E-001  2.2400000E-001 0.0
 -4.2400000E-001  2.3200000E-001 0.0
 -4.2400000E-001  2.4000000E-001 0.0
 -4.2400000E-001  2.4800000E-001 0.0
 -4.2400000E-001  2.5600000E-001 0.0
 -4.2400000E-001  2.6400000E-001 0.0
 -4.2400000E-001  2.7200000E-001 0.0
 -4.2400000E-001  2.8000000E-001 0.0
 -4.2400000E-001  2.8800000E-001 0.0
 -4.2400000E-001  2.9600000E-001 0.0
 -4.2400000E-001  3.0400000E-001 0.0
 -4.2400000E-001  3.1200000E-001 0.0
 -4.2400000E-001  3.2000000E-001 0.0
 -4.2400000E-001  3.2800000E-001 0.0
 -4.2400000E-001  3.3600000E-001 0.0
 -4.1600000E-001 -3.1200000E-001 0.0
 -4.1600000E-001 -3.0400000E-001 0.0
 -4.1600000E-001 -2.9600000E-001 0.0
 -4.1600000E-001 -2.8800000E-001 0.0
 -4.1600000E-001 -2.8000000E-001 0.0
 -4.1600000E-001 -2.7200000E-001 0.0
 -4.1600000E-001 -2.6400000E-001 0.0
 -4.1600000E-001 -2.5600000E-001 0.0
 -4.1600000E-001 -2.4800000E-001 0.0
 -4.1600000E-001 -2.4000000E-001 0.0
 -4.1600000E-001 -2.3200000E-001 0.0
 -4.1600000E-001 -2.2400000E-001 0.0
 -4.1600000E-001 -2.1600000E-001 0.0
 -4.1600000E-001 -2.0800000E-001 0.0
 -4.1600000E-001 -2.0000000E-001 0.0
 -4.1600000E-001 -1.9200000E-001 0.0
 -4.2400000E-001 -4.8000000E-002 0.0
 -4.1600000E-001 -4.8000000E-002 0.0
 -4.1600000E-001 -4.0000000E-002 0.0
 -4.2400000E-001 -4.0000000E-002 0.0
 -4.1600000E-001 -3.2000000E-002 0.0
 -4.2400000E-001 -3.2000000E-002 0.0
 -4.1600000E-001 -2.4000000E-002 0.0
 -4.2400000E-001 -2.4000000E-002 0.0
 -4.1600000E-001 -1.6000000E-002 0.0
 -4.2400000E-001 -1.6000000E-002 0.0
 -4.1600000E-001 -8.0000000E-003 0.0
 -4.2400000E-001 -8.0000000E-003 0.0
 -4.1600000E-001  0.0000000E+000 0.0
 -4.1600000E-001  8.0000000E-003 0.0
 -4.1600000E-001  1.6000000E-002 0.0
 -4.1600000E-001  2.4000000E-002 0.0
 -4.1600000E-001  3.2000000E-002 0.0
 -4.1600000E-001  4.0000000E-002 0.0
 -4.1600000E-001  4.8000000E-002 0.0
 -4.1600000E-001  5.6000000E-002 0.0
 -4.1600000E-001  6.4000000E-002 0.0
 -4.1600000E-001  7.2000000E-002 0.0
 -4.1600000E-001  8.0000000E-002 0.0
 -4.1600000E-001  8.8000000E-002 0.0
 -4.1600000E-001  9.6000000E-002 0.0
 -4.1600000E-001  1.0400000E-001 0.0
 -4.1600000E-001  1.1200000E-001 0.0
 -4.1600000E-001  1.2000000E-001 0.0
 -4.1600000E-001  1.2800000E-001 0.0
 -4.1600000E-001  1.3600000E-001 0.0
 -4.1600000E-001  1.4400000E-001 0.0
 -4.1600000E-001  1.5200000E-001 0.0
 -4.1600000E-001  1.6000000E-001 0.0
 -4.1600000E-001  1.6800000E-001 0.0
 -4.1600000E-001  1.7600000E-001 0.0
 -4.1600000E-001  1.8400000E-001 0.0
 -4.1600000E-001  1.9200000E-001 0.0
 -4.1600000E-001  2.0000000E-001 0.0
 -4.1600000E-001  2.0800000E-001 0.0
 -4.1600000E-001  2.1600000E-001 0.0
 -4.1600000E-001  2.2400000E-001 0.0
 -4.1600000E-001  2.3200000E-001 0.0
 -4.1600000E-001  2.4000000E-001 0.0
 -4.1600000E-001  2.4800000E-001 0.0
 -4.1600000E-001  2.5600000E-001 0.0
 -4.1600000E-001  2.6400000E-001 0.0
 -4.1600000E-001  2.7200000E-001 0.0
 -4.1600000E-001  2.8000000E-001 0.0
 -4.1600000E-001  2.8800000E-001 0.0
 -4.1600000E-001  2.9600000E-001 0.0
 -4.1600000E-001  3.0400000E-001 0.0
 -4.1600000E-001  3.1200000E-001 0.0
 -4.1600000E-001  3.2000000E-001 0.0
 -4.1600000E-001  3.2800000E-001 0.0
 -4.1600000E-001  3.3600000E-001 0.0
 -4.1600000E-001  3.4400000E-001 0.0
 -4.2400000E-001  3.4400000E-001 0.0
 -4.0800000E-001 -3.1200000E-001 0.0
 -4.0800000E-001 -3.0400000E-001 0.0
 -4.0800000E-001 -2.9600000E-001 0.0
 -4.0800000E-001 -2.8800000E-001 0.0
 -4.0800000E-001 -2.8000000E-001 0.0
 -4.0800000E-001 -2.7200000E-001 0.0
 -4.0800000E-001 -2.6400000E-001 0.0
 -4.0800000E-001 -2.5600000E-001 0.0
 -4.0800000E-001 -2.4800000E-001 0.0
 -4.0800000E-001 -2.4000000E-001 0.0
 -4.0800000E-001 -2.3200000E-001 0.0
 -4.0800000E-001 -2.2400000E-001 0.0
 -4.0800000E-001 -2.1600000E-001 0.0
 -4.0800000E-001 -2.0800000E-001 0.0
 -4.0800000E-001 -2.0000000E-001 0.0
 -4.0800000E-001 -1.9200000E-001 0.0
 -4.0800000E-001 -1.8400000E-001 0.0
 -4.1600000E-001 -1.8400000E-001 0.0
 -4.1600000E-001 -8.0000000E-002 0.0
 -4.0800000E-001 -8.0000000E-002 0.0
 -4.0800000E-001 -7.2000000E-002 0.0
 -4.1600000E-001 -7.2000000E-002 0.0
 -4.0800000E-001 -6.4000000E-002 0.0
 -4.1600000E-001 -6.4000000E-002 0.0
 -4.0800000E-001 -5.6000000E-002 0.0
 -4.1600000E-001 -5.6000000E-002 0.0
 -4.0800000E-001 -4.8000000E-002 0.0
 -4.0800000E-001 -4.0000000E-002 0.0
 -4.0800000E-001 -3.2000000E-002 0.0
 -4.0800000E-001 -2.4000000E-002 0.0
 -4.0800000E-001 -1.6000000E-002 0.0
 -4.0800000E-001 -8.0000000E-003 0.0
 -4.0800000E-001  0.0000000E+000 0.0
 -4.0800000E-001  8.0000000E-003 0.0
 -4.0800000E-001  1.6000000E-002 0.0
 -4.0800000E-001  2.4000000E-002 0.0
 -4.0800000E-001  3.2000000E-002 0.0
 -4.0800000E-001  4.0000000E-002 0.0
 -4.0800000E-001  4.8000000E-002 0.0
 -4.0800000E-001  5.6000000E-002 0.0
 -4.0800000E-001  6.4000000E-002 0.0
 -4.0800000E-001  7.2000000E-002 0.0
 -4.0800000E-001  8.0000000E-002 0.0
 -4.0800000E-001  8.8000000E-002 0.0
 -4.0800000E-001  9.6000000E-002 0.0
 -4.0800000E-001  1.0400000E-001 0.0
 -4.0800000E-001  1.1200000E-001 0.0
 -4.0800000E-001  1.2000000E-001 0.0
 -4.0800000E-001  1.2800000E-001 0.0
 -4.0800000E-001  1.3600000E-001 0.0
 -4.0800000E-001  1.4400000E-001 0.0
 -4.0800000E-001  1.5200000E-001 0.0
 -4.0800000E-001  1.6000000E-001 0.0
 -4.0800000E-001  1.6800000E-001 0.0
 -4.0800000E-001  1.7600000E-001 0.0
 -4.0800000E-001  1.8400000E-001 0.0
 -4.0800000E-001  1.9200000E-001 0.0
 -4.0800000E-001  2.0000000E-001 0.0
 -4.0800000E-001  2.0800000E-001 0.0
 -4.0800000E-001  2.1600000E-001 0.0
 -4.0800000E-001  2.2400000E-001 0.0
 -4.0800000E-001  2.3200000E-001 0.0
 -4.0800000E-001  2.4000000E-001 0.0
 -4.0800000E-001  2.4800000E-001 0.0
 -4.0800000E-001  2.5600000E-001 0.0
 -4.0800000E-001  2.6400000E-001 0.0
 -4.0800000E-001  2.7200000E-001 0.0
 -4.0800000E-001  2.8000000E-001 0.0
 -4.0800000E-001  2.8800000E-001 0.0
 -4.0800000E-001  2.9600000E-001 0.0
 -4.0800000E-001  3.0400000E-001 0.0
 -4.0800000E-001  3.1200000E-001 0.0
 -4.0800000E-001  3.2000000E-001 0.0
 -4.0800000E-001  3.2800000E-001 0.0
 -4.0800000E-001  3.3600000E-001 0.0
 -4.0800000E-001  3.4400000E-001 0.0
 -4.0000000E-001 -3.0400000E-001 0.0
 -4.0000000E-001 -2.9600000E-001 0.0
 -4.0000000E-001 -2.8800000E-001 0.0
 -4.0000000E-001 -2.8000000E-001 0.0
 -4.0000000E-001 -2.7200000E-001 0.0
 -4.0000000E-001 -2.6400000E-001 0.0
 -4.0000000E-001 -2.5600000E-001 0.0
 -4.0000000E-001 -2.4800000E-001 0.0
 -4.0000000E-001 -2.4000000E-001 0.0
 -4.0000000E-001 -2.3200000E-001 0.0
 -4.0000000E-001 -2.2400000E-001 0.0
 -4.0000000E-001 -2.1600000E-001 0.0
 -4.0000000E-001 -2.0800000E-001 0.0
 -4.0000000E-001 -2.0000000E-001 0.0
 -4.0000000E-001 -1.9200000E-001 0.0
 -4.0000000E-001 -1.8400000E-001 0.0
 -4.0000000E-001 -1.7600000E-001 0.0
 -4.0800000E-001 -1.7600000E-001 0.0
 -4.0800000E-001 -1.0400000E-001 0.0
 -4.0000000E-001 -1.0400000E-001 0.0
 -4.0000000E-001 -9.6000000E-002 0.0
 -4.0800000E-001 -9.6000000E-002 0.0
 -4.0000000E-001 -8.8000000E-002 0.0
 -4.0800000E-001 -8.8000000E-002 0.0
 -4.0000000E-001 -8.0000000E-002 0.0
 -4.0000000E-001 -7.2000000E-002 0.0
 -4.0000000E-001 -6.4000000E-002 0.0
 -4.0000000E-001 -5.6000000E-002 0.0
 -4.0000000E-001 -4.8000000E-002 0.0
 -4.0000000E-001 -4.0000000E-002 0.0
 -4.0000000E-001 -3.2000000E-002 0.0
 -4.0000000E-001 -2.4000000E-002 0.0
 -4.0000000E-001 -1.6000000E-002 0.0
 -4.0000000E-001 -8.0000000E-003 0.0
 -4.0000000E-001  0.0000000E+000 0.0
 -4.0000000E-001  8.0000000E-003 0.0
 -4.0000000E-001  1.6000000E-002 0.0
 -4.0000000E-001  2.4000000E-002 0.0
 -4.0000000E-001  3.2000000E-002 0.0
 -4.0000000E-001  4.0000000E-002 0.0
 -4.0000000E-001  4.8000000E-002 0.0
 -4.0000000E-001  5.6000000E-002 0.0
 -4.0000000E-001  6.4000000E-002 0.0
 -4.0000000E-001  7.2000000E-002 0.0
 -4.0000000E-001  8.0000000E-002 0.0
 -4.0000000E-001  8.8000000E-002 0.0
 -4.0000000E-001  9.6000000E-002 0.0
 -4.0000000E-001  1.0400000E-001 0.0
 -4.0000000E-001  1.1200000E-001 0.0
 -4.0000000E-001  1.2000000E-001 0.0
 -4.0000000E-001  1.2800000E-001 0.0
 -4.0000000E-001  1.3600000E-001 0.0
 -4.0000000E-001  1.4400000E-001 0.0
 -4.0000000E-001  1.5200000E-001 0.0
 -4.0000000E-001  1.6000000E-001 0.0
 -4.0000000E-001  1.6800000E-001 0.0
 -4.0000000E-001  1.7600000E-001 0.0
 -4.0000000E-001  1.8400000E-001 0.0
 -4.0000000E-001  1.9200000E-001 0.0
 -4.0000000E-001  2.0000000E-001 0.0
 -4.0000000E-001  2.0800000E-001 0.0
 -4.0000000E-001  2.1600000E-001 0.0
 -4.0000000E-001  2.2400000E-001 0.0
 -4.0000000E-001  2.3200000E-001 0.0
 -4.0000000E-001  2.4000000E-001 0.0
 -4.0000000E-001  2.4800000E-001 0.0
 -4.0000000E-001  2.5600000E-001 0.0
 -4.0000000E-001  2.6400000E-001 0.0
 -4.0000000E-001  2.7200000E-001 0.0
 -4.0000000E-001  2.8000000E-001 0.0
 -4.0000000E-001  2.8800000E-001 0.0
 -4.0000000E-001  2.9600000E-001 0.0
 -4.0000000E-001  3.0400000E-001 0.0
 -4.0000000E-001  3.1200000E-001 0.0
 -4.0000000E-001  3.2000000E-001 0.0
 -4.0000000E-001  3.2800000E-001 0.0
 -4.0000000E-001  3.3600000E-001 0.0
 -4.0000000E-001  3.4400000E-001 0.0
 -3.9200000E-001 -3.0400000E-001 0.0
 -3.9200000E-001 -2.9600000E-001 0.0
 -3.9200000E-001 -2.8800000E-001 0.0
 -3.9200000E-001 -2.8000000E-001 0.0
 -3.9200000E-001 -2.7200000E-001 0.0
 -3.9200000E-001 -2.6400000E-001 0.0
 -3.9200000E-001 -2.5600000E-001 0.0
 -3.9200000E-001 -2.4800000E-001 0.0
 -3.9200000E-001 -2.4000000E-001 0.0
 -3.9200000E-001 -2.3200000E-001 0.0
 -3.9200000E-001 -2.2400000E-001 0.0
 -3.9200000E-001 -2.1600000E-001 0.0
 -3.9200000E-001 -2.0800000E-001 0.0
 -3.9200000E-001 -2.0000000E-001 0.0
 -3.9200000E-001 -1.9200000E-001 0.0
 -3.9200000E-001 -1.8400000E-001 0.0
 -3.9200000E-001 -1.7600000E-001 0.0
 -3.9200000E-001 -1.6800000E-001 0.0
 -4.0000000E-001 -1.6800000E-001 0.0
 -3.9200000E-001 -1.6000000E-001 0.0
 -4.0000000E-001 -1.6000000E-001 0.0
 -3.9200000E-001 -1.5200000E-001 0.0
 -4.0000000E-001 -1.5200000E-001 0.0
 -3.9200000E-001 -1.4400000E-001 0.0
 -4.0000000E-001 -1.4400000E-001 0.0
 -3.9200000E-001 -1.3600000E-001 0.0
 -4.0000000E-001 -1.3600000E-001 0.0
 -3.9200000E-001 -1.2800000E-001 0.0
 -4.0000000E-001 -1.2800000E-001 0.0
 -3.9200000E-001 -1.2000000E-001 0.0
 -4.0000000E-001 -1.2000000E-001 0.0
 -3.9200000E-001 -1.1200000E-001 0.0
 -4.0000000E-001 -1.1200000E-001 0.0
 -3.9200000E-001 -1.0400000E-001 0.0
 -3.9200000E-001 -9.6000000E-002 0.0
 -3.9200000E-001 -8.8000000E-002 0.0
 -3.9200000E-001 -8.0000000E-002 0.0
 -3.9200000E-001 -7.2000000E-002 0.0
 -3.9200000E-001 -6.4000000E-002 0.0
 -3.9200000E-001 -5.6000000E-002 0.0
 -3.9200000E-001 -4.8000000E-002 0.0
 -3.9200000E-001 -4.0000000E-002 0.0
 -3.9200000E-001 -3.2000000E-002 0.0
 -3.9200000E-001 -2.4000000E-002 0.0
 -3.9200000E-001 -1.6000000E-002 0.0
 -3.9200000E-001 -8.0000000E-003 0.0
 -3.9200000E-001  0.0000000E+000 0.0
 -3.9200000E-001  8.0000000E-003 0.0
 -3.9200000E-001  1.6000000E-002 0.0
 -3.9200000E-001  2.4000000E-002 0.0
 -3.9200000E-001  3.2000000E-002 0.0
 -3.9200000E-001  4.0000000E-002 0.0
 -3.9200000E-001  4.8000000E-002 0.0
 -3.9200000E-001  5.6000000E-002 0.0
 -3.9200000E-001  6.4000000E-002 0.0
 -3.9200000E-001  7.2000000E-002 0.0
 -3.9200000E-001  8.0000000E-002 0.0
 -3.9200000E-001  8.8000000E-002 0.0
 -3.9200000E-001  9.6000000E-002 0.0
 -3.9200000E-001  1.0400000E-001 0.0
 -3.9200000E-001  1.1200000E-001 0.0
 -3.9200000E-001  1.2000000E-001 0.0
 -3.9200000E-001  1.2800000E-001 0.0
 -3.9200000E-001  1.3600000E-001 0.0
 -3.9200000E-001  1.4400000E-001 0.0
 -3.9200000E-001  1.5200000E-001 0.0
 -3.9200000E-001  1.6000000E-001 0.0
 -3.9200000E-001  1.6800000E-001 0.0
 -3.9200000E-001  1.7600000E-001 0.0
 -3.9200000E-001  1.8400000E-001 0.0
 -3.9200000E-001  1.9200000E-001 0.0
 -3.9200000E-001  2.0000000E-001 0.0
 -3.9200000E-001  2.0800000E-001 0.0
 -3.9200000E-001  2.1600000E-001 0.0
 -3.9200000E-001  2.2400000E-001 0.0
 -3.9200000E-001  2.3200000E-001 0.0
 -3.9200000E-001  2.4000000E-001 0.0
 -3.9200000E-001  2.4800000E-001 0.0
 -3.9200000E-001  2.5600000E-001 0.0
 -3.9200000E-001  2.6400000E-001 0.0
 -3.9200000E-001  2.7200000E-001 0.0
 -3.9200000E-001  2.8000000E-001 0.0
 -3.9200000E-001  2.8800000E-001 0.0
 -3.9200000E-001  2.9600000E-001 0.0
 -3.9200000E-001  3.0400000E-001 0.0
 -3.9200000E-001  3.1200000E-001 0.0
 -3.9200000E-001  3.2000000E-001 0.0
 -3.9200000E-001  3.2800000E-001 0.0
 -3.9200000E-001  3.3600000E-001 0.0
 -3.9200000E-001  3.4400000E-001 0.0
 -3.8400000E-001 -2.9600000E-001 0.0
 -3.8400000E-001 -2.8800000E-001 0.0
 -3.8400000E-001 -2.8000000E-001 0.0
 -3.8400000E-001 -2.7200000E-001 0.0
 -3.8400000E-001 -2.6400000E-001 0.0
 -3.8400000E-001 -2.5600000E-001 0.0
 -3.8400000E-001 -2.4800000E-001 0.0
 -3.8400000E-001 -2.4000000E-001 0.0
 -3.8400000E-001 -2.3200000E-001 0.0
 -3.8400000E-001 -2.2400000E-001 0.0
 -3.8400000E-001 -2.1600000E-001 0.0
 -3.8400000E-001 -2.0800000E-001 0.0
 -3.8400000E-001 -2.0000000E-001 0.0
 -3.8400000E-001 -1.9200000E-001 0.0
 -3.8400000E-001 -1.8400000E-001 0.0
 -3.8400000E-001 -1.7600000E-001 0.0
 -3.8400000E-001 -1.6800000E-001 0.0
 -3.8400000E-001 -1.6000000E-001 0.0
 -3.8400000E-001 -1.5200000E-001 0.0
 -3.8400000E-001 -1.4400000E-001 0.0
 -3.8400000E-001 -1.3600000E-001 0.0
 -3.8400000E-001 -1.2800000E-001 0.0
 -3.8400000E-001 -1.2000000E-001 0.0
 -3.8400000E-001 -1.1200000E-001 0.0
 -3.8400000E-001 -1.0400000E-001 0.0
 -3.8400000E-001 -9.6000000E-002 0.0
 -3.8400000E-001 -8.8000000E-002 0.0
 -3.8400000E-001 -8.0000000E-002 0.0
 -3.8400000E-001 -7.2000000E-002 0.0
 -3.8400000E-001 -6.4000000E-002 0.0
 -3.8400000E-001 -5.6000000E-002 0.0
 -3.8400000E-001 -4.8000000E-002 0.0
 -3.8400000E-001 -4.0000000E-002 0.0
 -3.8400000E-001 -3.2000000E-002 0.0
 -3.8400000E-001 -2.4000000E-002 0.0
 -3.8400000E-001 -1.6000000E-002 0.0
 -3.8400000E-001 -8.0000000E-003 0.0
 -3.8400000E-001  0.0000000E+000 0.0
 -3.8400000E-001  8.0000000E-003 0.0
 -3.8400000E-001  1.6000000E-002 0.0
 -3.8400000E-001  2.4000000E-002 0.0
 -3.8400000E-001  3.2000000E-002 0.0
 -3.8400000E-001  4.0000000E-002 0.0
 -3.8400000E-001  4.8000000E-002 0.0
 -3.8400000E-001  5.6000000E-002 0.0
 -3.8400000E-001  6.4000000E-002 0.0
 -3.8400000E-001  7.2000000E-002 0.0
 -3.8400000E-001  8.0000000E-002 0.0
 -3.8400000E-001  8.8000000E-002 0.0
 -3.8400000E-001  9.6000000E-002 0.0
 -3.8400000E-001  1.0400000E-001 0.0
 -3.8400000E-001  1.1200000E-001 0.0
 -3.8400000E-001  1.2000000E-001 0.0
 -3.8400000E-001  1.2800000E-001 0.0
 -3.8400000E-001  1.3600000E-001 0.0
 -3.8400000E-001  1.4400000E-001 0.0
 -3.8400000E-001  1.5200000E-001 0.0
 -3.8400000E-001  1.6000000E-001 0.0
 -3.8400000E-001  1.6800000E-001 0.0
 -3.8400000E-001  1.7600000E-001 0.0
 -3.8400000E-001  1.8400000E-001 0.0
 -3.8400000E-001  1.9200000E-001 0.0
 -3.8400000E-001  2.0000000E-001 0.0
 -3.8400000E-001  2.0800000E-001 0.0
 -3.8400000E-001  2.1600000E-001 0.0
 -3.8400000E-001  2.2400000E-001 0.0
 -3.8400000E-001  2.3200000E-001 0.0
 -3.8400000E-001  2.4000000E-001 0.0
 -3.8400000E-001  2.4800000E-001 0.0
 -3.8400000E-001  2.5600000E-001 0.0
 -3.8400000E-001  2.6400000E-001 0.0
 -3.8400000E-001  2.7200000E-001 0.0
 -3.8400000E-001  2.8000000E-001 0.0
 -3.8400000E-001  2.8800000E-001 0.0
 -3.8400000E-001  2.9600000E-001 0.0
 -3.8400000E-001  3.0400000E-001 0.0
 -3.8400000E-001  3.1200000E-001 0.0
 -3.8400000E-001  3.2000000E-001 0.0
 -3.8400000E-001  3.2800000E-001 0.0
 -3.8400000E-001  3.3600000E-001 0.0
 -3.8400000E-001  3.4400000E-001 0.0
 -3.8400000E-001  3.5200000E-001 0.0
 -3.9200000E-001  3.5200000E-001 0.0
 -3.7600000E-001 -2.9600000E-001 0.0
 -3.7600000E-001 -2.8800000E-001 0.0
 -3.7600000E-001 -2.8000000E-001 0.0
 -3.7600000E-001 -2.7200000E-001 0.0
 -3.7600000E-001 -2.6400000E-001 0.0
 -3.7600000E-001 -2.5600000E-001 0.0
 -3.7600000E-001 -2.4800000E-001 0.0
 -3.7600000E-001 -2.4000000E-001 0.0
 -3.7600000E-001 -2.3200000E-001 0.0
 -3.7600000E-001 -2.2400000E-001 0.0
 -3.7600000E-001 -2.1600000E-001 0.0
 -3.7600000E-001 -2.0800000E-001 0.0
 -3.7600000E-001 -2.0000000E-001 0.0
 -3.7600000E-001 -1.9200000E-001 0.0
 -3.7600000E-001 -1.8400000E-001 0.0
 -3.7600000E-001 -1.7600000E-001 0.0
 -3.7600000E-001 -1.6800000E-001 0.0
 -3.7600000E-001 -1.6000000E-001 0.0
 -3.7600000E-001 -1.5200000E-001 0.0
 -3.7600000E-001 -1.4400000E-001 0.0
 -3.7600000E-001 -1.3600000E-001 0.0
 -3.7600000E-001 -1.2800000E-001 0.0
 -3.7600000E-001 -1.2000000E-001 0.0
 -3.7600000E-001 -1.1200000E-001 0.0
 -3.7600000E-001 -1.0400000E-001 0.0
 -3.7600000E-001 -9.6000000E-002 0.0
 -3.7600000E-001 -8.8000000E-002 0.0
 -3.7600000E-001 -8.0000000E-002 0.0
 -3.7600000E-001 -7.2000000E-002 0.0
 -3.7600000E-001 -6.4000000E-002 0.0
 -3.7600000E-001 -5.6000000E-002 0.0
 -3.7600000E-001 -4.8000000E-002 0.0
 -3.7600000E-001 -4.0000000E-002 0.0
 -3.7600000E-001 -3.2000000E-002 0.0
 -3.7600000E-001 -2.4000000E-002 0.0
 -3.7600000E-001 -1.6000000E-002 0.0
 -3.7600000E-001 -8.0000000E-003 0.0
 -3.7600000E-001  0.0000000E+000 0.0
 -3.7600000E-001  8.0000000E-003 0.0
 -3.7600000E-001  1.6000000E-002 0.0
 -3.7600000E-001  2.4000000E-002 0.0
 -3.7600000E-001  3.2000000E-002 0.0
 -3.7600000E-001  4.0000000E-002 0.0
 -3.7600000E-001  4.8000000E-002 0.0
 -3.7600000E-001  5.6000000E-002 0.0
 -3.7600000E-001  6.4000000E-002 0.0
 -3.7600000E-001  7.2000000E-002 0.0
 -3.7600000E-001  8.0000000E-002 0.0
 -3.7600000E-001  8.8000000E-002 0.0
 -3.7600000E-001  9.6000000E-002 0.0
 -3.7600000E-001  1.0400000E-001 0.0
 -3.7600000E-001  1.1200000E-001 0.0
 -3.7600000E-001  1.2000000E-001 0.0
 -3.7600000E-001  1.2800000E-001 0.0
 -3.7600000E-001  1.3600000E-001 0.0
 -3.7600000E-001  1.4400000E-001 0.0
 -3.7600000E-001  1.5200000E-001 0.0
 -3.7600000E-001  1.6000000E-001 0.0
 -3.7600000E-001  1.6800000E-001 0.0
 -3.7600000E-001  1.7600000E-001 0.0
 -3.7600000E-001  1.8400000E-001 0.0
 -3.7600000E-001  1.9200000E-001 0.0
 -3.7600000E-001  2.0000000E-001 0.0
 -3.7600000E-001  2.0800000E-001 0.0
 -3.7600000E-001  2.1600000E-001 0.0
 -3.7600000E-001  2.2400000E-001 0.0
 -3.7600000E-001  2.3200000E-001 0.0
 -3.7600000E-001  2.4000000E-001 0.0
 -3.7600000E-001  2.4800000E-001 0.0
 -3.7600000E-001  2.5600000E-001 0.0
 -3.7600000E-001  2.6400000E-001 0.0
 -3.7600000E-001  2.7200000E-001 0.0
 -3.7600000E-001  2.8000000E-001 0.0
 -3.7600000E-001  2.8800000E-001 0.0
 -3.7600000E-001  2.9600000E-001 0.0
 -3.7600000E-001  3.0400000E-001 0.0
 -3.7600000E-001  3.1200000E-001 0.0
 -3.7600000E-001  3.2000000E-001 0.0
 -3.7600000E-001  3.2800000E-001 0.0
 -3.7600000E-001  3.3600000E-001 0.0
 -3.7600000E-001  3.4400000E-001 0.0
 -3.7600000E-001  3.5200000E-001 0.0
 -3.6800000E-001 -2.8800000E-001 0.0
 -3.6800000E-001 -2.8000000E-001 0.0
 -3.6800000E-001 -2.7200000E-001 0.0
 -3.6800000E-001 -2.6400000E-001 0.0
 -3.6800000E-001 -2.5600000E-001 0.0
 -3.6800000E-001 -2.4800000E-001 0.0
 -3.6800000E-001 -2.4000000E-001 0.0
 -3.6800000E-001 -2.3200000E-001 0.0
 -3.6800000E-001 -2.2400000E-001 0.0
 -3.6800000E-001 -2.1600000E-001 0.0
 -3.6800000E-001 -2.0800000E-001 0.0
 -3.6800000E-001 -2.0000000E-001 0.0
 -3.6800000E-001 -1.9200000E-001 0.0
 -3.6800000E-001 -1.8400000E-001 0.0
 -3.6800000E-001 -1.7600000E-001 0.0
 -3.6800000E-001 -1.6800000E-001 0.0
 -3.6800000E-001 -1.6000000E-001 0.0
 -3.6800000E-001 -1.5200000E-001 0.0
 -3.6800000E-001 -1.4400000E-001 0.0
 -3.6800000E-001 -1.3600000E-001 0.0
 -3.6800000E-001 -1.2800000E-001 0.0
 -3.6800000E-001 -1.2000000E-001 0.0
 -3.6800000E-001 -1.1200000E-001 0.0
 -3.6800000E-001 -1.0400000E-001 0.0
 -3.6800000E-001 -9.6000000E-002 0.0
 -3.6800000E-001 -8.8000000E-002 0.0
 -3.6800000E-001 -8.0000000E-002 0.0
 -3.6800000E-001 -7.2000000E-002 0.0
 -3.6800000E-001 -6.4000000E-002 0.0
 -3.6800000E-001 -5.6000000E-002 0.0
 -3.6800000E-001 -4.8000000E-002 0.0
 -3.6800000E-001 -4.0000000E-002 0.0
 -3.6800000E-001 -3.2000000E-002 0.0
 -3.6800000E-001 -2.4000000E-002 0.0
 -3.6800000E-001 -1.6000000E-002 0.0
 -3.6800000E-001 -8.0000000E-003 0.0
 -3.6800000E-001  0.0000000E+000 0.0
 -3.6800000E-001  8.0000000E-003 0.0
 -3.6800000E-001  1.6000000E-002 0.0
 -3.6800000E-001  2.4000000E-002 0.0
 -3.6800000E-001  3.2000000E-002 0.0
 -3.6800000E-001  4.0000000E-002 0.0
 -3.6800000E-001  4.8000000E-002 0.0
 -3.6800000E-001  5.6000000E-002 0.0
 -3.6800000E-001  6.4000000E-002 0.0
 -3.6800000E-001  7.2000000E-002 0.0
 -3.6800000E-001  8.0000000E-002 0.0
 -3.6800000E-001  8.8000000E-002 0.0
 -3.6800000E-001  9.6000000E-002 0.0
 -3.6800000E-001  1.0400000E-001 0.0
 -3.6800000E-001  1.1200000E-001 0.0
 -3.6800000E-001  1.2000000E-001 0.0
 -3.6800000E-001  1.2800000E-001 0.0
 -3.6800000E-001  1.3600000E-001 0.0
 -3.6800000E-001  1.4400000E-001 0.0
 -3.6800000E-001  1.5200000E-001 0.0
 -3.6800000E-001  1.6000000E-001 0.0
 -3.6800000E-001  1.6800000E-001 0.0
 -3.6800000E-001  1.7600000E-001 0.0
 -3.6800000E-001  1.8400000E-001 0.0
 -3.6800000E-001  1.9200000E-001 0.0
 -3.6800000E-001  2.0000000E-001 0.0
 -3.6800000E-001  2.0800000E-001 0.0
 -3.6800000E-001  2.1600000E-001 0.0
 -3.6800000E-001  2.2400000E-001 0.0
 -3.6800000E-001  2.3200000E-001 0.0
 -3.6800000E-001  2.4000000E-001 0.0
 -3.6800000E-001  2.4800000E-001 0.0
 -3.6800000E-001  2.5600000E-001 0.0
 -3.6800000E-001  2.6400000E-001 0.0
 -3.6800000E-001  2.7200000E-001 0.0
 -3.6800000E-001  2.8000000E-001 0.0
 -3.6800000E-001  2.8800000E-001 0.0
 -3.6800000E-001  2.9600000E-001 0.0
 -3.6800000E-001  3.0400000E-001 0.0
 -3.6800000E-001  3.1200000E-001 0.0
 -3.6800000E-001  3.2000000E-001 0.0
 -3.6800000E-001  3.2800000E-001 0.0
 -3.6800000E-001  3.3600000E-001 0.0
 -3.6800000E-001  3.4400000E-001 0.0
 -3.6000000E-001 -2.8800000E-001 0.0
 -3.6000000E-001 -2.8000000E-001 0.0
 -3.6000000E-001 -2.7200000E-001 0.0
 -3.6000000E-001 -2.6400000E-001 0.0
 -3.6000000E-001 -2.5600000E-001 0.0
 -3.6000000E-001 -2.4800000E-001 0.0
 -3.6000000E-001 -2.4000000E-001 0.0
 -3.6000000E-001 -2.3200000E-001 0.0
 -3.6000000E-001 -2.2400000E-001 0.0
 -3.6000000E-001 -2.1600000E-001 0.0
 -3.6000000E-001 -2.0800000E-001 0.0
 -3.6000000E-001 -2.0000000E-001 0.0
 -3.6000000E-001 -1.9200000E-001 0.0
 -3.6000000E-001 -1.8400000E-001 0.0
 -3.6000000E-001 -1.7600000E-001 0.0
 -3.6000000E-001 -1.6800000E-001 0.0
 -3.6000000E-001 -1.6000000E-001 0.0
 -3.6000000E-001 -1.5200000E-001 0.0
 -3.6000000E-001 -1.4400000E-001 0.0
 -3.6000000E-001 -1.3600000E-001 0.0
 -3.6000000E-001 -1.2800000E-001 0.0
 -3.6000000E-001 -1.2000000E-001 0.0
 -3.6000000E-001 -1.1200000E-001 0.0
 -3.6000000E-001 -1.0400000E-001 0.0
 -3.6000000E-001 -9.6000000E-002 0.0
 -3.6000000E-001 -8.8000000E-002 0.0
 -3.6000000E-001 -8.0000000E-002 0.0
 -3.6000000E-001 -7.2000000E-002 0.0
 -3.6000000E-001 -6.4000000E-002 0.0
 -3.6000000E-001 -5.6000000E-002 0.0
 -3.6000000E-001 -4.8000000E-002 0.0
 -3.6000000E-001 -4.0000000E-002 0.0
 -3.6000000E-001 -3.2000000E-002 0.0
 -3.6000000E-001 -2.4000000E-002 0.0
 -3.6000000E-001 -1.6000000E-002 0.0
 -3.6000000E-001 -8.0000000E-003 0.0
 -3.6000000E-001  0.0000000E+000 0.0
 -3.6000000E-001  8.0000000E-003 0.0
 -3.6000000E-001  1.6000000E-002 0.0
 -3.6000000E-001  2.4000000E-002 0.0
 -3.6000000E-001  3.2000000E-002 0.0
 -3.6000000E-001  4.0000000E-002 0.0
 -3.6000000E-001  4.8000000E-002 0.0
 -3.6000000E-001  5.6000000E-002 0.0
 -3.6000000E-001  6.4000000E-002 0.0
 -3.6000000E-001  7.2000000E-002 0.0
 -3.6000000E-001  8.0000000E-002 0.0
 -3.6000000E-001  8.8000000E-002 0.0
 -3.6000000E-001  9.6000000E-002 0.0
 -3.6000000E-001  1.0400000E-001 0.0
 -3.6000000E-001  1.1200000E-001 0.0
 -3.6000000E-001  1.2000000E-001 0.0
 -3.6000000E-001  1.2800000E-001 0.0
 -3.6000000E-001  1.3600000E-001 0.0
 -3.6000000E-001  1.4400000E-001 0.0
 -3.6000000E-001  1.5200000E-001 0.0
 -3.6000000E-001  1.6000000E-001 0.0
 -3.6000000E-001  1.6800000E-001 0.0
 -3.6000000E-001  1.7600000E-001 0.0
 -3.6000000E-001  1.8400000E-001 0.0
 -3.6000000E-001  1.9200000E-001 0.0
 -3.6000000E-001  2.0000000E-001 0.0
 -3.6000000E-001  2.0800000E-001 0.0
 -3.6000000E-001  2.1600000E-001 0.0
 -3.6000000E-001  2.2400000E-001 0.0
 -3.6000000E-001  2.3200000E-001 0.0
 -3.6000000E-001  2.4000000E-001 0.0
 -3.6000000E-001  2.4800000E-001 0.0
 -3.6000000E-001  2.5600000E-001 0.0
 -3.6000000E-001  2.6400000E-001 0.0
 -3.6000000E-001  2.7200000E-001 0.0
 -3.6000000E-001  2.8000000E-001 0.0
 -3.6000000E-001  2.8800000E-001 0.0
 -3.6000000E-001  2.9600000E-001 0.0
 -3.6000000E-001  3.0400000E-001 0.0
 -3.6000000E-001  3.1200000E-001 0.0
 -3.6000000E-001  3.2000000E-001 0.0
 -3.6000000E-001  3.2800000E-001 0.0
 -3.6000000E-001  3.3600000E-001 0.0
 -3.6000000E-001  3.4400000E-001 0.0
 -3.5200000E-001 -2.8000000E-001 0.0
 -3.5200000E-001 -2.7200000E-001 0.0
 -3.5200000E-001 -2.6400000E-001 0.0
 -3.5200000E-001 -2.5600000E-001 0.0
 -3.5200000E-001 -2.4800000E-001 0.0
 -3.5200000E-001 -2.4000000E-001 0.0
 -3.5200000E-001 -2.3200000E-001 0.0
 -3.5200000E-001 -2.2400000E-001 0.0
 -3.5200000E-001 -2.1600000E-001 0.0
 -3.5200000E-001 -2.0800000E-001 0.0
 -3.5200000E-001 -2.0000000E-001 0.0
 -3.5200000E-001 -1.9200000E-001 0.0
 -3.5200000E-001 -1.8400000E-001 0.0
 -3.5200000E-001 -1.7600000E-001 0.0
 -3.5200000E-001 -1.6800000E-001 0.0
 -3.5200000E-001 -1.6000000E-001 0.0
 -3.5200000E-001 -1.5200000E-001 0.0
 -3.5200000E-001 -1.4400000E-001 0.0
 -3.5200000E-001 -1.3600000E-001 0.0
 -3.5200000E-001 -1.2800000E-001 0.0
 -3.5200000E-001 -1.2000000E-001 0.0
 -3.5200000E-001 -1.1200000E-001 0.0
 -3.5200000E-001 -1.0400000E-001 0.0
 -3.5200000E-001 -9.6000000E-002 0.0
 -3.5200000E-001 -8.8000000E-002 0.0
 -3.5200000E-001 -8.0000000E-002 0.0
 -3.5200000E-001 -7.2000000E-002 0.0
 -3.5200000E-001 -6.4000000E-002 0.0
 -3.5200000E-001 -5.6000000E-002 0.0
 -3.5200000E-001 -4.8000000E-002 0.0
 -3.5200000E-001 -4.0000000E-002 0.0
 -3.5200000E-001 -3.2000000E-002 0.0
 -3.5200000E-001 -2.4000000E-002 0.0
 -3.5200000E-001 -1.6000000E-002 0.0
 -3.5200000E-001 -8.0000000E-003 0.0
 -3.5200000E-001  0.0000000E+000 0.0
 -3.5200000E-001  8.0000000E-003 0.0
 -3.5200000E-001  1.6000000E-002 0.0
 -3.5200000E-001  2.4000000E-002 0.0
 -3.5200000E-001  3.2000000E-002 0.0
 -3.5200000E-001  4.0000000E-002 0.0
 -3.5200000E-001  4.8000000E-002 0.0
 -3.5200000E-001  5.6000000E-002 0.0
 -3.5200000E-001  6.4000000E-002 0.0
 -3.5200000E-001  7.2000000E-002 0.0
 -3.5200000E-001  8.0000000E-002 0.0
 -3.5200000E-001  8.8000000E-002 0.0
 -3.5200000E-001  9.6000000E-002 0.0
 -3.5200000E-001  1.0400000E-001 0.0
 -3.5200000E-001  1.1200000E-001 0.0
 -3.5200000E-001  1.2000000E-001 0.0
 -3.5200000E-001  1.2800000E-001 0.0
 -3.5200000E-001  1.3600000E-001 0.0
 -3.5200000E-001  1.4400000E-001 0.0
 -3.5200000E-001  1.5200000E-001 0.0
 -3.5200000E-001  1.6000000E-001 0.0
 -3.5200000E-001  1.6800000E-001 0.0
 -3.5200000E-001  1.7600000E-001 0.0
 -3.5200000E-001  1.8400000E-001 0.0
 -3.5200000E-001  1.9200000E-001 0.0
 -3.5200000E-001  2.0000000E-001 0.0
 -3.5200000E-001  2.0800000E-001 0.0
 -3.5200000E-001  2.1600000E-001 0.0
 -3.5200000E-001  2.2400000E-001 0.0
 -3.5200000E-001  2.3200000E-001 0.0
 -3.5200000E-001  2.4000000E-001 0.0
 -3.5200000E-001  2.4800000E-001 0.0
 -3.5200000E-001  2.5600000E-001 0.0
 -3.5200000E-001  2.6400000E-001 0.0
 -3.5200000E-001  2.7200000E-001 0.0
 -3.5200000E-001  2.8000000E-001 0.0
 -3.5200000E-001  2.8800000E-001 0.0
 -3.5200000E-001  2.9600000E-001 0.0
 -3.5200000E-001  3.0400000E-001 0.0
 -3.5200000E-001  3.1200000E-001 0.0
 -3.5200000E-001  3.2000000E-001 0.0
 -3.5200000E-001  3.2800000E-001 0.0
 -3.5200000E-001  3.3600000E-001 0.0
 -3.4400000E-001 -2.8000000E-001 0.0
 -3.4400000E-001 -2.7200000E-001 0.0
 -3.4400000E-001 -2.6400000E-001 0.0
 -3.4400000E-001 -2.5600000E-001 0.0
 -3.4400000E-001 -2.4800000E-001 0.0
 -3.4400000E-001 -2.4000000E-001 0.0
 -3.4400000E-001 -2.3200000E-001 0.0
 -3.4400000E-001 -2.2400000E-001 0.0
 -3.4400000E-001 -2.1600000E-001 0.0
 -3.4400000E-001 -2.0800000E-001 0.0
 -3.4400000E-001 -2.0000000E-001 0.0
 -3.4400000E-001 -1.9200000E-001 0.0
 -3.4400000E-001 -1.8400000E-001 0.0
 -3.4400000E-001 -1.7600000E-001 0.0
 -3.4400000E-001 -1.6800000E-001 0.0
 -3.4400000E-001 -1.6000000E-001 0.0
 -3.4400000E-001 -1.5200000E-001 0.0
 -3.4400000E-001 -1.4400000E-001 0.0
 -3.4400000E-001 -1.3600000E-001 0.0
 -3.4400000E-001 -1.2800000E-001 0.0
 -3.4400000E-001 -1.2000000E-001 0.0
 -3.4400000E-001 -1.1200000E-001 0.0
 -3.4400000E-001 -1.0400000E-001 0.0
 -3.4400000E-001 -9.6000000E-002 0.0
 -3.4400000E-001 -8.8000000E-002 0.0
 -3.4400000E-001 -8.0000000E-002 0.0
 -3.4400000E-001 -7.2000000E-002 0.0
 -3.4400000E-001 -6.4000000E-002 0.0
 -3.4400000E-001 -5.6000000E-002 0.0
 -3.4400000E-001 -4.8000000E-002 0.0
 -3.4400000E-001 -4.0000000E-002 0.0
 -3.4400000E-001 -3.2000000E-002 0.0
 -3.4400000E-001 -2.4000000E-002 0.0
 -3.4400000E-001 -1.6000000E-002 0.0
 -3.4400000E-001 -8.0000000E-003 0.0
 -3.4400000E-001  0.0000000E+000 0.0
 -3.4400000E-001  8.0000000E-003 0.0
 -3.4400000E-001  1.6000000E-002 0.0
 -3.4400000E-001  2.4000000E-002 0.0
 -3.4400000E-001  3.2000000E-002 0.0
 -3.4400000E-001  4.0000000E-002 0.0
 -3.4400000E-001  4.8000000E-002 0.0
 -3.4400000E-001  5.6000000E-002 0.0
 -3.4400000E-001  6.4000000E-002 0.0
 -3.4400000E-001  7.2000000E-002 0.0
 -3.4400000E-001  8.0000000E-002 0.0
 -3.4400000E-001  8.8000000E-002 0.0
 -3.4400000E-001  9.6000000E-002 0.0
 -3.4400000E-001  1.0400000E-001 0.0
 -3.4400000E-001  1.1200000E-001 0.0
 -3.4400000E-001  1.2000000E-001 0.0
 -3.4400000E-001  1.2800000E-001 0.0
 -3.4400000E-001  1.3600000E-001 0.0
 -3.4400000E-001  1.4400000E-001 0.0
 -3.4400000E-001  1.5200000E-001 0.0
 -3.4400000E-001  1.6000000E-001 0.0
 -3.4400000E-001  1.6800000E-001 0.0
 -3.4400000E-001  1.7600000E-001 0.0
 -3.4400000E-001  1.8400000E-001 0.0
 -3.4400000E-001  1.9200000E-001 0.0
 -3.4400000E-001  2.0000000E-001 0.0
 -3.4400000E-001  2.0800000E-001 0.0
 -3.4400000E-001  2.1600000E-001 0.0
 -3.4400000E-001  2.2400000E-001 0.0
 -3.4400000E-001  2.3200000E-001 0.0
 -3.4400000E-001  2.4000000E-001 0.0
 -3.4400000E-001  2.4800000E-001 0.0
 -3.4400000E-001  2.5600000E-001 0.0
 -3.4400000E-001  2.6400000E-001 0.0
 -3.4400000E-001  2.7200000E-001 0.0
 -3.4400000E-001  2.8000000E-001 0.0
 -3.4400000E-001  2.8800000E-001 0.0
 -3.4400000E-001  2.9600000E-001 0.0
 -3.4400000E-001  3.0400000E-001 0.0
 -3.4400000E-001  3.1200000E-001 0.0
 -3.4400000E-001  3.2000000E-001 0.0
 -3.4400000E-001  3.2800000E-001 0.0
 -3.3600000E-001 -2.8000000E-001 0.0
 -3.3600000E-001 -2.7200000E-001 0.0
 -3.3600000E-001 -2.6400000E-001 0.0
 -3.3600000E-001 -2.5600000E-001 0.0
 -3.3600000E-001 -2.4800000E-001 0.0
 -3.3600000E-001 -2.4000000E-001 0.0
 -3.3600000E-001 -2.3200000E-001 0.0
 -3.3600000E-001 -2.2400000E-001 0.0
 -3.3600000E-001 -2.1600000E-001 0.0
 -3.3600000E-001 -2.0800000E-001 0.0
 -3.3600000E-001 -2.0000000E-001 0.0
 -3.3600000E-001 -1.9200000E-001 0.0
 -3.3600000E-001 -1.8400000E-001 0.0
 -3.3600000E-001 -1.7600000E-001 0.0
 -3.3600000E-001 -1.6800000E-001 0.0
 -3.3600000E-001 -1.6000000E-001 0.0
 -3.3600000E-001 -1.5200000E-001 0.0
 -3.3600000E-001 -1.4400000E-001 0.0
 -3.3600000E-001 -1.3600000E-001 0.0
 -3.3600000E-001 -1.2800000E-001 0.0
 -3.3600000E-001 -1.2000000E-001 0.0
 -3.3600000E-001 -1.1200000E-001 0.0
 -3.3600000E-001 -1.0400000E-001 0.0
 -3.3600000E-001 -9.6000000E-002 0.0
 -3.3600000E-001 -8.8000000E-002 0.0
 -3.3600000E-001 -8.0000000E-002 0.0
 -3.3600000E-001 -7.2000000E-002 0.0
 -3.3600000E-001 -6.4000000E-002 0.0
 -3.3600000E-001 -5.6000000E-002 0.0
 -3.3600000E-001 -4.8000000E-002 0.0
 -3.3600000E-001 -4.0000000E-002 0.0
 -3.3600000E-001 -3.2000000E-002 0.0
 -3.3600000E-001 -2.4000000E-002 0.0
 -3.3600000E-001 -1.6000000E-002 0.0
 -3.3600000E-001 -8.0000000E-003 0.0
 -3.3600000E-001  0.0000000E+000 0.0
 -3.3600000E-001  8.0000000E-003 0.0
 -3.3600000E-001  1.6000000E-002 0.0
 -3.3600000E-001  2.4000000E-002 0.0
 -3.3600000E-001  3.2000000E-002 0.0
 -3.3600000E-001  4.0000000E-002 0.0
 -3.3600000E-001  4.8000000E-002 0.0
 -3.3600000E-001  5.6000000E-002 0.0
 -3.3600000E-001  6.4000000E-002 0.0
 -3.3600000E-001  7.2000000E-002 0.0
 -3.3600000E-001  8.0000000E-002 0.0
 -3.3600000E-001  8.8000000E-002 0.0
 -3.3600000E-001  9.6000000E-002 0.0
 -3.3600000E-001  1.0400000E-001 0.0
 -3.3600000E-001  1.1200000E-001 0.0
 -3.3600000E-001  1.2000000E-001 0.0
 -3.3600000E-001  1.2800000E-001 0.0
 -3.3600000E-001  1.3600000E-001 0.0
 -3.3600000E-001  1.4400000E-001 0.0
 -3.3600000E-001  1.5200000E-001 0.0
 -3.3600000E-001  1.6000000E-001 0.0
 -3.3600000E-001  1.6800000E-001 0.0
 -3.3600000E-001  1.7600000E-001 0.0
 -3.3600000E-001  1.8400000E-001 0.0
 -3.3600000E-001  1.9200000E-001 0.0
 -3.3600000E-001  2.0000000E-001 0.0
 -3.3600000E-001  2.0800000E-001 0.0
 -3.3600000E-001  2.1600000E-001 0.0
 -3.3600000E-001  2.2400000E-001 0.0
 -3.3600000E-001  2.3200000E-001 0.0
 -3.3600000E-001  2.4000000E-001 0.0
 -3.3600000E-001  2.4800000E-001 0.0
 -3.3600000E-001  2.5600000E-001 0.0
 -3.3600000E-001  2.6400000E-001 0.0
 -3.3600000E-001  2.7200000E-001 0.0
 -3.3600000E-001  2.8000000E-001 0.0
 -3.3600000E-001  2.8800000E-001 0.0
 -3.3600000E-001  2.9600000E-001 0.0
 -3.3600000E-001  3.0400000E-001 0.0
 -3.3600000E-001  3.1200000E-001 0.0
 -3.3600000E-001  3.2000000E-001 0.0
 -3.3600000E-001  3.2800000E-001 0.0
 -3.2800000E-001 -2.8000000E-001 0.0
 -3.2800000E-001 -2.7200000E-001 0.0
 -3.2800000E-001 -2.6400000E-001 0.0
 -3.2800000E-001 -2.5600000E-001 0.0
 -3.2800000E-001 -2.4800000E-001 0.0
 -3.2800000E-001 -2.4000000E-001 0.0
 -3.2800000E-001 -2.3200000E-001 0.0
 -3.2800000E-001 -2.2400000E-001 0.0
 -3.2800000E-001 -2.1600000E-001 0.0
 -3.2800000E-001 -2.0800000E-001 0.0
 -3.2800000E-001 -2.0000000E-001 0.0
 -3.2800000E-001 -1.9200000E-001 0.0
 -3.2800000E-001 -1.8400000E-001 0.0
 -3.2800000E-001 -1.7600000E-001 0.0
 -3.2800000E-001 -1.6800000E-001 0.0
 -3.2800000E-001 -1.6000000E-001 0.0
 -3.2800000E-001 -1.5200000E-001 0.0
 -3.2800000E-001 -1.4400000E-001 0.0
 -3.2800000E-001 -1.3600000E-001 0.0
 -3.2800000E-001 -1.2800000E-001 0.0
 -3.2800000E-001 -1.2000000E-001 0.0
 -3.2800000E-001 -1.1200000E-001 0.0
 -3.2800000E-001 -1.0400000E-001 0.0
 -3.2800000E-001 -9.6000000E-002 0.0
 -3.2800000E-001 -8.8000000E-002 0.0
 -3.2800000E-001 -8.0000000E-002 0.0
 -3.2800000E-001 -7.2000000E-002 0.0
 -3.2800000E-001 -6.4000000E-002 0.0
 -3.2800000E-001 -5.6000000E-002 0.0
 -3.2800000E-001 -4.8000000E-002 0.0
 -3.2800000E-001 -4.0000000E-002 0.0
 -3.2800000E-001 -3.2000000E-002 0.0
 -3.2800000E-001 -2.4000000E-002 0.0
 -3.2800000E-001 -1.6000000E-002 0.0
 -3.2800000E-001 -8.0000000E-003 0.0
 -3.2800000E-001  0.0000000E+000 0.0
 -3.2800000E-001  8.0000000E-003 0.0
 -3.2800000E-001  1.6000000E-002 0.0
 -3.2800000E-001  2.4000000E-002 0.0
 -3.2800000E-001  3.2000000E-002 0.0
 -3.2800000E-001  4.0000000E-002 0.0
 -3.2800000E-001  4.8000000E-002 0.0
 -3.2800000E-001  5.6000000E-002 0.0
 -3.2800000E-001  6.4000000E-002 0.0
 -3.2800000E-001  7.2000000E-002 0.0
 -3.2800000E-001  8.0000000E-002 0.0
 -3.2800000E-001  8.8000000E-002 0.0
 -3.2800000E-001  9.6000000E-002 0.0
 -3.2800000E-001  1.0400000E-001 0.0
 -3.2800000E-001  1.1200000E-001 0.0
 -3.2800000E-001  1.2000000E-001 0.0
 -3.2800000E-001  1.2800000E-001 0.0
 -3.2800000E-001  1.3600000E-001 0.0
 -3.2800000E-001  1.6000000E-001 0.0
 -3.2800000E-001  1.6800000E-001 0.0
 -3.2800000E-001  1.7600000E-001 0.0
 -3.2800000E-001  1.8400000E-001 0.0
 -3.2800000E-001  1.9200000E-001 0.0
 -3.2800000E-001  2.0000000E-001 0.0
 -3.2800000E-001  2.0800000E-001 0.0
 -3.2800000E-001  2.1600000E-001 0.0
 -3.2800000E-001  2.2400000E-001 0.0
 -3.2800000E-001  2.3200000E-001 0.0
 -3.2800000E-001  2.4000000E-001 0.0
 -3.2800000E-001  2.4800000E-001 0.0
 -3.2800000E-001  2.5600000E-001 0.0
 -3.2800000E-001  2.6400000E-001 0.0
 -3.2800000E-001  2.7200000E-001 0.0
 -3.2800000E-001  2.8000000E-001 0.0
 -3.2800000E-001  2.8800000E-001 0.0
 -3.2800000E-001  2.9600000E-001 0.0
 -3.2800000E-001  3.0400000E-001 0.0
 -3.2800000E-001  3.1200000E-001 0.0
 -3.2800000E-001  3.2000000E-001 0.0
 -3.2800000E-001  3.2800000E-001 0.0
 -3.2000000E-001 -2.8000000E-001 0.0
 -3.2000000E-001 -2.7200000E-001 0.0
 -3.2000000E-001 -2.6400000E-001 0.0
 -3.2000000E-001 -2.5600000E-001 0.0
 -3.2000000E-001 -2.4800000E-001 0.0
 -3.2000000E-001 -2.4000000E-001 0.0
 -3.2000000E-001 -2.3200000E-001 0.0
 -3.2000000E-001 -2.2400000E-001 0.0
 -3.2000000E-001 -2.1600000E-001 0.0
 -3.2000000E-001 -2.0800000E-001 0.0
 -3.2000000E-001 -2.0000000E-001 0.0
 -3.2000000E-001 -1.9200000E-001 0.0
 -3.2000000E-001 -1.8400000E-001 0.0
 -3.2000000E-001 -1.7600000E-001 0.0
 -3.2000000E-001 -1.6800000E-001 0.0
 -3.2000000E-001 -1.6000000E-001 0.0
 -3.2000000E-001 -1.5200000E-001 0.0
 -3.2000000E-001 -1.4400000E-001 0.0
 -3.2000000E-001 -1.3600000E-001 0.0
 -3.2000000E-001 -1.2800000E-001 0.0
 -3.2000000E-001 -1.2000000E-001 0.0
 -3.2000000E-001 -1.1200000E-001 0.0
 -3.2000000E-001 -1.0400000E-001 0.0
 -3.2000000E-001 -9.6000000E-002 0.0
 -3.2000000E-001 -8.8000000E-002 0.0
 -3.2000000E-001 -8.0000000E-002 0.0
 -3.2000000E-001 -7.2000000E-002 0.0
 -3.2000000E-001 -6.4000000E-002 0.0
 -3.2000000E-001 -5.6000000E-002 0.0
 -3.2000000E-001 -4.8000000E-002 0.0
 -3.2000000E-001 -4.0000000E-002 0.0
 -3.2000000E-001 -3.2000000E-002 0.0
 -3.2000000E-001 -2.4000000E-002 0.0
 -3.2000000E-001 -1.6000000E-002 0.0
 -3.2000000E-001 -8.0000000E-003 0.0
 -3.2000000E-001  0.0000000E+000 0.0
 -3.2000000E-001  8.0000000E-003 0.0
 -3.2000000E-001  1.6000000E-002 0.0
 -3.2000000E-001  2.4000000E-002 0.0
 -3.2000000E-001  3.2000000E-002 0.0
 -3.2000000E-001  4.0000000E-002 0.0
 -3.2000000E-001  4.8000000E-002 0.0
 -3.2000000E-001  5.6000000E-002 0.0
 -3.2000000E-001  6.4000000E-002 0.0
 -3.2000000E-001  7.2000000E-002 0.0
 -3.2000000E-001  8.0000000E-002 0.0
 -3.2000000E-001  8.8000000E-002 0.0
 -3.2000000E-001  9.6000000E-002 0.0
 -3.2000000E-001  1.0400000E-001 0.0
 -3.2000000E-001  1.1200000E-001 0.0
 -3.2000000E-001  1.2000000E-001 0.0
 -3.2000000E-001  1.2800000E-001 0.0
 -3.2000000E-001  1.7600000E-001 0.0
 -3.2000000E-001  1.8400000E-001 0.0
 -3.2000000E-001  1.9200000E-001 0.0
 -3.2000000E-001  2.0000000E-001 0.0
 -3.2000000E-001  2.0800000E-001 0.0
 -3.2000000E-001  2.1600000E-001 0.0
 -3.2000000E-001  2.2400000E-001 0.0
 -3.2000000E-001  2.3200000E-001 0.0
 -3.2000000E-001  2.4000000E-001 0.0
 -3.2000000E-001  2.4800000E-001 0.0
 -3.2000000E-001  2.5600000E-001 0.0
 -3.2000000E-001  2.6400000E-001 0.0
 -3.2000000E-001  2.7200000E-001 0.0
 -3.2000000E-001  2.8000000E-001 0.0
 -3.2000000E-001  2.8800000E-001 0.0
 -3.2000000E-001  2.9600000E-001 0.0
 -3.2000000E-001  3.0400000E-001 0.0
 -3.2000000E-001  3.1200000E-001 0.0
 -3.2000000E-001  3.2000000E-001 0.0
 -3.2000000E-001  3.2800000E-001 0.0
 -3.1200000E-001 -2.8000000E-001 0.0
 -3.1200000E-001 -2.7200000E-001 0.0
 -3.1200000E-001 -2.6400000E-001 0.0
 -3.1200000E-001 -2.5600000E-001 0.0
 -3.1200000E-001 -2.4800000E-001 0.0
 -3.1200000E-001 -2.4000000E-001 0.0
 -3.1200000E-001 -2.3200000E-001 0.0
 -3.1200000E-001 -2.2400000E-001 0.0
 -3.1200000E-001 -2.1600000E-001 0.0
 -3.1200000E-001 -2.0800000E-001 0.0
 -3.1200000E-001 -2.0000000E-001 0.0
 -3.1200000E-001 -1.9200000E-001 0.0
 -3.1200000E-001 -1.8400000E-001 0.0
 -3.1200000E-001 -1.7600000E-001 0.0
 -3.1200000E-001 -1.6800000E-001 0.0
 -3.1200000E-001 -1.6000000E-001 0.0
 -3.1200000E-001 -1.5200000E-001 0.0
 -3.1200000E-001 -1.4400000E-001 0.0
 -3.1200000E-001 -1.3600000E-001 0.0
 -3.1200000E-001 -1.2800000E-001 0.0
 -3.1200000E-001 -1.2000000E-001 0.0
 -3.1200000E-001 -1.1200000E-001 0.0
 -3.1200000E-001 -1.0400000E-001 0.0
 -3.1200000E-001 -9.6000000E-002 0.0
 -3.1200000E-001 -8.8000000E-002 0.0
 -3.1200000E-001 -8.0000000E-002 0.0
 -3.1200000E-001 -7.2000000E-002 0.0
 -3.1200000E-001 -6.4000000E-002 0.0
 -3.1200000E-001 -5.6000000E-002 0.0
 -3.1200000E-001 -4.8000000E-002 0.0
 -3.1200000E-001 -4.0000000E-002 0.0
 -3.1200000E-001 -3.2000000E-002 0.0
 -3.1200000E-001 -2.4000000E-002 0.0
 -3.1200000E-001 -1.6000000E-002 0.0
 -3.1200000E-001 -8.0000000E-003 0.0
 -3.1200000E-001  0.0000000E+000 0.0
 -3.1200000E-001  8.0000000E-003 0.0
 -3.1200000E-001  1.6000000E-002 0.0
 -3.1200000E-001  2.4000000E-002 0.0
 -3.1200000E-001  3.2000000E-002 0.0
 -3.1200000E-001  4.0000000E-002 0.0
 -3.1200000E-001  4.8000000E-002 0.0
 -3.1200000E-001  5.6000000E-002 0.0
 -3.1200000E-001  6.4000000E-002 0.0
 -3.1200000E-001  7.2000000E-002 0.0
 -3.1200000E-001  8.0000000E-002 0.0
 -3.1200000E-001  8.8000000E-002 0.0
 -3.1200000E-001  9.6000000E-002 0.0
 -3.1200000E-001  1.0400000E-001 0.0
 -3.1200000E-001  1.1200000E-001 0.0
 -3.1200000E-001  1.2000000E-001 0.0
 -3.1200000E-001  1.8400000E-001 0.0
 -3.1200000E-001  1.9200000E-001 0.0
 -3.1200000E-001  2.0000000E-001 0.0
 -3.1200000E-001  2.0800000E-001 0.0
 -3.1200000E-001  2.1600000E-001 0.0
 -3.1200000E-001  2.2400000E-001 0.0
 -3.1200000E-001  2.3200000E-001 0.0
 -3.1200000E-001  2.4000000E-001 0.0
 -3.1200000E-001  2.4800000E-001 0.0
 -3.1200000E-001  2.5600000E-001 0.0
 -3.1200000E-001  2.6400000E-001 0.0
 -3.1200000E-001  2.7200000E-001 0.0
 -3.1200000E-001  2.8000000E-001 0.0
 -3.1200000E-001  2.8800000E-001 0.0
 -3.1200000E-001  2.9600000E-001 0.0
 -3.1200000E-001  3.0400000E-001 0.0
 -3.1200000E-001  3.1200000E-001 0.0
 -3.1200000E-001  3.2000000E-001 0.0
 -3.0400000E-001 -2.7200000E-001 0.0
 -3.0400000E-001 -2.6400000E-001 0.0
 -3.0400000E-001 -2.5600000E-001 0.0
 -3.0400000E-001 -2.4800000E-001 0.0
 -3.0400000E-001 -2.4000000E-001 0.0
 -3.0400000E-001 -2.3200000E-001 0.0
 -3.0400000E-001 -2.2400000E-001 0.0
 -3.0400000E-001 -2.1600000E-001 0.0
 -3.0400000E-001 -2.0800000E-001 0.0
 -3.0400000E-001 -2.0000000E-001 0.0
 -3.0400000E-001 -1.9200000E-001 0.0
 -3.0400000E-001 -1.8400000E-001 0.0
 -3.0400000E-001 -1.7600000E-001 0.0
 -3.0400000E-001 -1.6800000E-001 0.0
 -3.0400000E-001 -1.6000000E-001 0.0
 -3.0400000E-001 -1.5200000E-001 0.0
 -3.0400000E-001 -1.4400000E-001 0.0
 -3.0400000E-001 -1.3600000E-001 0.0
 -3.0400000E-001 -1.2800000E-001 0.0
 -3.0400000E-001 -1.2000000E-001 0.0
 -3.0400000E-001 -1.1200000E-001 0.0
 -3.0400000E-001 -1.0400000E-001 0.0
 -3.0400000E-001 -9.6000000E-002 0.0
 -3.0400000E-001 -8.8000000E-002 0.0
 -3.0400000E-001 -8.0000000E-002 0.0
 -3.0400000E-001 -7.2000000E-002 0.0
 -3.0400000E-001 -6.4000000E-002 0.0
 -3.0400000E-001 -5.6000000E-002 0.0
 -3.0400000E-001 -4.8000000E-002 0.0
 -3.0400000E-001 -4.0000000E-002 0.0
 -3.0400000E-001 -3.2000000E-002 0.0
 -3.0400000E-001 -2.4000000E-002 0.0
 -3.0400000E-001 -1.6000000E-002 0.0
 -3.0400000E-001 -8.0000000E-003 0.0
 -3.0400000E-001  0.0000000E+000 0.0
 -3.0400000E-001  8.0000000E-003 0.0
 -3.0400000E-001  1.6000000E-002 0.0
 -3.0400000E-001  2.4000000E-002 0.0
 -3.0400000E-001  3.2000000E-002 0.0
 -3.0400000E-001  4.0000000E-002 0.0
 -3.0400000E-001  4.8000000E-002 0.0
 -3.0400000E-001  5.6000000E-002 0.0
 -3.0400000E-001  6.4000000E-002 0.0
 -3.0400000E-001  7.2000000E-002 0.0
 -3.0400000E-001  8.0000000E-002 0.0
 -3.0400000E-001  8.8000000E-002 0.0
 -3.0400000E-001  9.6000000E-002 0.0
 -3.0400000E-001  1.0400000E-001 0.0
 -3.0400000E-001  1.1200000E-001 0.0
 -3.0400000E-001  2.0000000E-001 0.0
 -3.0400000E-001  2.0800000E-001 0.0
 -3.0400000E-001  2.1600000E-001 0.0
 -3.0400000E-001  2.2400000E-001 0.0
 -3.0400000E-001  2.3200000E-001 0.0
 -3.0400000E-001  2.4000000E-001 0.0
 -3.0400000E-001  2.4800000E-001 0.0
 -3.0400000E-001  2.5600000E-001 0.0
 -3.0400000E-001  2.6400000E-001 0.0
 -3.0400000E-001  2.7200000E-001 0.0
 -3.0400000E-001  2.8000000E-001 0.0
 -3.0400000E-001  2.8800000E-001 0.0
 -3.0400000E-001  2.9600000E-001 0.0
 -3.0400000E-001  3.0400000E-001 0.0
 -3.0400000E-001  3.1200000E-001 0.0
 -3.0400000E-001  3.2000000E-001 0.0
 -2.9600000E-001 -2.7200000E-001 0.0
 -2.9600000E-001 -2.6400000E-001 0.0
 -2.9600000E-001 -2.5600000E-001 0.0
 -2.9600000E-001 -2.4800000E-001 0.0
 -2.9600000E-001 -2.4000000E-001 0.0
 -2.9600000E-001 -2.3200000E-001 0.0
 -2.9600000E-001 -2.2400000E-001 0.0
 -2.9600000E-001 -2.1600000E-001 0.0
 -2.9600000E-001 -2.0800000E-001 0.0
 -2.9600000E-001 -2.0000000E-001 0.0
 -2.9600000E-001 -1.9200000E-001 0.0
 -2.9600000E-001 -1.8400000E-001 0.0
 -2.9600000E-001 -1.7600000E-001 0.0
 -2.9600000E-001 -1.6800000E-001 0.0
 -2.9600000E-001 -1.6000000E-001 0.0
 -2.9600000E-001 -1.5200000E-001 0.0
 -2.9600000E-001 -1.4400000E-001 0.0
 -2.9600000E-001 -1.3600000E-001 0.0
 -2.9600000E-001 -1.2800000E-001 0.0
 -2.9600000E-001 -1.2000000E-001 0.0
 -2.9600000E-001 -1.1200000E-001 0.0
 -2.9600000E-001 -1.0400000E-001 0.0
 -2.9600000E-001 -9.6000000E-002 0.0
 -2.9600000E-001 -8.8000000E-002 0.0
 -2.9600000E-001 -8.0000000E-002 0.0
 -2.9600000E-001 -7.2000000E-002 0.0
 -2.9600000E-001 -6.4000000E-002 0.0
 -2.9600000E-001 -5.6000000E-002 0.0
 -2.9600000E-001 -4.8000000E-002 0.0
 -2.9600000E-001 -4.0000000E-002 0.0
 -2.9600000E-001 -3.2000000E-002 0.0
 -2.9600000E-001 -2.4000000E-002 0.0
 -2.9600000E-001 -1.6000000E-002 0.0
 -2.9600000E-001 -8.0000000E-003 0.0
 -2.9600000E-001  0.0000000E+000 0.0
 -2.9600000E-001  8.0000000E-003 0.0
 -2.9600000E-001  1.6000000E-002 0.0
 -2.9600000E-001  2.4000000E-002 0.0
 -2.9600000E-001  3.2000000E-002 0.0
 -2.9600000E-001  4.0000000E-002 0.0
 -2.9600000E-001  4.8000000E-002 0.0
 -2.9600000E-001  5.6000000E-002 0.0
 -2.9600000E-001  6.4000000E-002 0.0
 -2.9600000E-001  7.2000000E-002 0.0
 -2.9600000E-001  8.0000000E-002 0.0
 -2.9600000E-001  8.8000000E-002 0.0
 -2.9600000E-001  9.6000000E-002 0.0
 -2.9600000E-001  1.0400000E-001 0.0
 -2.9600000E-001  2.1600000E-001 0.0
 -2.9600000E-001  2.2400000E-001 0.0
 -2.9600000E-001  2.3200000E-001 0.0
 -2.9600000E-001  2.4000000E-001 0.0
 -2.9600000E-001  2.4800000E-001 0.0
 -2.9600000E-001  2.5600000E-001 0.0
 -2.9600000E-001  2.6400000E-001 0.0
 -2.9600000E-001  2.7200000E-001 0.0
 -2.9600000E-001  2.8000000E-001 0.0
 -2.9600000E-001  2.8800000E-001 0.0
 -2.9600000E-001  2.9600000E-001 0.0
 -2.9600000E-001  3.0400000E-001 0.0
 -2.9600000E-001  3.1200000E-001 0.0
 -2.9600000E-001  3.2000000E-001 0.0
 -2.8800000E-001 -2.7200000E-001 0.0
 -2.8800000E-001 -2.6400000E-001 0.0
 -2.8800000E-001 -2.5600000E-001 0.0
 -2.8800000E-001 -2.4800000E-001 0.0
 -2.8800000E-001 -2.4000000E-001 0.0
 -2.8800000E-001 -2.3200000E-001 0.0
 -2.8800000E-001 -2.2400000E-001 0.0
 -2.8800000E-001 -2.1600000E-001 0.0
 -2.8800000E-001 -2.0800000E-001 0.0
 -2.8800000E-001 -2.0000000E-001 0.0
 -2.8800000E-001 -1.9200000E-001 0.0
 -2.8800000E-001 -1.8400000E-001 0.0
 -2.8800000E-001 -1.7600000E-001 0.0
 -2.8800000E-001 -1.6800000E-001 0.0
 -2.8800000E-001 -1.6000000E-001 0.0
 -2.8800000E-001 -1.5200000E-001 0.0
 -2.8800000E-001 -1.4400000E-001 0.0
 -2.8800000E-001 -1.3600000E-001 0.0
 -2.8800000E-001 -1.2800000E-001 0.0
 -2.8800000E-001 -1.2000000E-001 0.0
 -2.8800000E-001 -1.1200000E-001 0.0
 -2.8800000E-001 -1.0400000E-001 0.0
 -2.8800000E-001 -9.6000000E-002 0.0
 -2.8800000E-001 -8.8000000E-002 0.0
 -2.8800000E-001 -8.0000000E-002 0.0
 -2.8800000E-001 -7.2000000E-002 0.0
 -2.8800000E-001 -6.4000000E-002 0.0
 -2.8800000E-001 -5.6000000E-002 0.0
 -2.8800000E-001 -4.8000000E-002 0.0
 -2.8800000E-001 -4.0000000E-002 0.0
 -2.8800000E-001 -3.2000000E-002 0.0
 -2.8800000E-001 -2.4000000E-002 0.0
 -2.8800000E-001 -1.6000000E-002 0.0
 -2.8800000E-001 -8.0000000E-003 0.0
 -2.8800000E-001  0.0000000E+000 0.0
 -2.8800000E-001  8.0000000E-003 0.0
 -2.8800000E-001  1.6000000E-002 0.0
 -2.8800000E-001  2.4000000E-002 0.0
 -2.8800000E-001  3.2000000E-002 0.0
 -2.8800000E-001  4.0000000E-002 0.0
 -2.8800000E-001  4.8000000E-002 0.0
 -2.8800000E-001  5.6000000E-002 0.0
 -2.8800000E-001  6.4000000E-002 0.0
 -2.8800000E-001  7.2000000E-002 0.0
 -2.8800000E-001  8.0000000E-002 0.0
 -2.8800000E-001  8.8000000E-002 0.0
 -2.8800000E-001  9.6000000E-002 0.0
 -2.8800000E-001  2.2400000E-001 0.0
 -2.8800000E-001  2.3200000E-001 0.0
 -2.8800000E-001  2.4000000E-001 0.0
 -2.8800000E-001  2.4800000E-001 0.0
 -2.8800000E-001  2.5600000E-001 0.0
 -2.8800000E-001  2.6400000E-001 0.0
 -2.8800000E-001  2.7200000E-001 0.0
 -2.8800000E-001  2.8000000E-001 0.0
 -2.8800000E-001  2.8800000E-001 0.0
 -2.8800000E-001  2.9600000E-001 0.0
 -2.8800000E-001  3.0400000E-001 0.0
 -2.8800000E-001  3.1200000E-001 0.0
 -2.8800000E-001  3.2000000E-001 0.0
 -2.8800000E-001  3.2800000E-001 0.0
 -2.9600000E-001  3.2800000E-001 0.0
 -2.8000000E-001 -2.7200000E-001 0.0
 -2.8000000E-001 -2.6400000E-001 0.0
 -2.8000000E-001 -2.5600000E-001 0.0
 -2.8000000E-001 -2.4800000E-001 0.0
 -2.8000000E-001 -2.4000000E-001 0.0
 -2.8000000E-001 -2.3200000E-001 0.0
 -2.8000000E-001 -2.2400000E-001 0.0
 -2.8000000E-001 -2.1600000E-001 0.0
 -2.8000000E-001 -2.0800000E-001 0.0
 -2.8000000E-001 -2.0000000E-001 0.0
 -2.8000000E-001 -1.9200000E-001 0.0
 -2.8000000E-001 -1.8400000E-001 0.0
 -2.8000000E-001 -1.7600000E-001 0.0
 -2.8000000E-001 -1.6800000E-001 0.0
 -2.8000000E-001 -1.6000000E-001 0.0
 -2.8000000E-001 -1.5200000E-001 0.0
 -2.8000000E-001 -1.4400000E-001 0.0
 -2.8000000E-001 -1.3600000E-001 0.0
 -2.8000000E-001 -1.2800000E-001 0.0
 -2.8000000E-001 -1.2000000E-001 0.0
 -2.8000000E-001 -1.1200000E-001 0.0
 -2.8000000E-001 -1.0400000E-001 0.0
 -2.8000000E-001 -9.6000000E-002 0.0
 -2.8000000E-001 -8.8000000E-002 0.0
 -2.8000000E-001 -8.0000000E-002 0.0
 -2.8000000E-001 -7.2000000E-002 0.0
 -2.8000000E-001 -6.4000000E-002 0.0
 -2.8000000E-001 -5.6000000E-002 0.0
 -2.8000000E-001 -4.8000000E-002 0.0
 -2.8000000E-001 -4.0000000E-002 0.0
 -2.8000000E-001 -3.2000000E-002 0.0
 -2.8000000E-001 -2.4000000E-002 0.0
 -2.8000000E-001 -1.6000000E-002 0.0
 -2.8000000E-001 -8.0000000E-003 0.0
 -2.8000000E-001  0.0000000E+000 0.0
 -2.8000000E-001  8.0000000E-003 0.0
 -2.8000000E-001  1.6000000E-002 0.0
 -2.8000000E-001  2.4000000E-002 0.0
 -2.8000000E-001  3.2000000E-002 0.0
 -2.8000000E-001  4.0000000E-002 0.0
 -2.8000000E-001  4.8000000E-002 0.0
 -2.8000000E-001  5.6000000E-002 0.0
 -2.8000000E-001  6.4000000E-002 0.0
 -2.8000000E-001  7.2000000E-002 0.0
 -2.8000000E-001  8.0000000E-002 0.0
 -2.8000000E-001  8.8000000E-002 0.0
 -2.8000000E-001  9.6000000E-002 0.0
 -2.8000000E-001  2.2400000E-001 0.0
 -2.8000000E-001  2.3200000E-001 0.0
 -2.8000000E-001  2.4000000E-001 0.0
 -2.8000000E-001  2.4800000E-001 0.0
 -2.8000000E-001  2.5600000E-001 0.0
 -2.8000000E-001  2.6400000E-001 0.0
 -2.8000000E-001  2.7200000E-001 0.0
 -2.8000000E-001  2.8000000E-001 0.0
 -2.8000000E-001  2.8800000E-001 0.0
 -2.8000000E-001  2.9600000E-001 0.0
 -2.8000000E-001  3.0400000E-001 0.0
 -2.8000000E-001  3.1200000E-001 0.0
 -2.8000000E-001  3.2000000E-001 0.0
 -2.8000000E-001  3.2800000E-001 0.0
 -2.8000000E-001 -2.8800000E-001 0.0
 -2.7200000E-001 -2.8800000E-001 0.0
 -2.7200000E-001 -2.8000000E-001 0.0
 -2.8000000E-001 -2.8000000E-001 0.0
 -2.7200000E-001 -2.7200000E-001 0.0
 -2.7200000E-001 -2.6400000E-001 0.0
 -2.7200000E-001 -2.5600000E-001 0.0
 -2.7200000E-001 -2.4800000E-001 0.0
 -2.7200000E-001 -2.4000000E-001 0.0
 -2.7200000E-001 -2.3200000E-001 0.0
 -2.7200000E-001 -2.2400000E-001 0.0
 -2.7200000E-001 -2.1600000E-001 0.0
 -2.7200000E-001 -2.0800000E-001 0.0
 -2.7200000E-001 -2.0000000E-001 0.0
 -2.7200000E-001 -1.9200000E-001 0.0
 -2.7200000E-001 -1.8400000E-001 0.0
 -2.7200000E-001 -1.7600000E-001 0.0
 -2.7200000E-001 -1.6800000E-001 0.0
 -2.7200000E-001 -1.6000000E-001 0.0
 -2.7200000E-001 -1.5200000E-001 0.0
 -2.7200000E-001 -1.4400000E-001 0.0
 -2.7200000E-001 -1.3600000E-001 0.0
 -2.7200000E-001 -1.2800000E-001 0.0
 -2.7200000E-001 -1.2000000E-001 0.0
 -2.7200000E-001 -1.1200000E-001 0.0
 -2.7200000E-001 -1.0400000E-001 0.0
 -2.7200000E-001 -9.6000000E-002 0.0
 -2.7200000E-001 -8.8000000E-002 0.0
 -2.7200000E-001 -8.0000000E-002 0.0
 -2.7200000E-001 -7.2000000E-002 0.0
 -2.7200000E-001 -6.4000000E-002 0.0
 -2.7200000E-001 -5.6000000E-002 0.0
 -2.7200000E-001 -4.8000000E-002 0.0
 -2.7200000E-001 -4.0000000E-002 0.0
 -2.7200000E-001 -3.2000000E-002 0.0
 -2.7200000E-001 -2.4000000E-002 0.0
 -2.7200000E-001 -1.6000000E-002 0.0
 -2.7200000E-001 -8.0000000E-003 0.0
 -2.7200000E-001  0.0000000E+000 0.0
 -2.7200000E-001  8.0000000E-003 0.0
 -2.7200000E-001  1.6000000E-002 0.0
 -2.7200000E-001  2.4000000E-002 0.0
 -2.7200000E-001  3.2000000E-002 0.0
 -2.7200000E-001  4.0000000E-002 0.0
 -2.7200000E-001  4.8000000E-002 0.0
 -2.7200000E-001  5.6000000E-002 0.0
 -2.7200000E-001  6.4000000E-002 0.0
 -2.7200000E-001  7.2000000E-002 0.0
 -2.7200000E-001  8.0000000E-002 0.0
 -2.7200000E-001  8.8000000E-002 0.0
 -2.7200000E-001  2.2400000E-001 0.0
 -2.7200000E-001  2.3200000E-001 0.0
 -2.7200000E-001  2.4000000E-001 0.0
 -2.7200000E-001  2.4800000E-001 0.0
 -2.7200000E-001  2.5600000E-001 0.0
 -2.7200000E-001  2.6400000E-001 0.0
 -2.7200000E-001  2.7200000E-001 0.0
 -2.7200000E-001  2.8000000E-001 0.0
 -2.7200000E-001  2.8800000E-001 0.0
 -2.7200000E-001  2.9600000E-001 0.0
 -2.7200000E-001  3.0400000E-001 0.0
 -2.7200000E-001  3.1200000E-001 0.0
 -2.7200000E-001  3.2000000E-001 0.0
 -2.7200000E-001  3.2800000E-001 0.0
 -2.7200000E-001 -2.9600000E-001 0.0
 -2.6400000E-001 -2.9600000E-001 0.0
 -2.6400000E-001 -2.8800000E-001 0.0
 -2.6400000E-001 -2.8000000E-001 0.0
 -2.6400000E-001 -2.7200000E-001 0.0
 -2.6400000E-001 -2.6400000E-001 0.0
 -2.6400000E-001 -2.5600000E-001 0.0
 -2.6400000E-001 -2.4800000E-001 0.0
 -2.6400000E-001 -2.4000000E-001 0.0
 -2.6400000E-001 -2.3200000E-001 0.0
 -2.6400000E-001 -2.2400000E-001 0.0
 -2.6400000E-001 -2.1600000E-001 0.0
 -2.6400000E-001 -2.0800000E-001 0.0
 -2.6400000E-001 -2.0000000E-001 0.0
 -2.6400000E-001 -1.9200000E-001 0.0
 -2.6400000E-001 -1.8400000E-001 0.0
 -2.6400000E-001 -1.7600000E-001 0.0
 -2.6400000E-001 -1.6800000E-001 0.0
 -2.6400000E-001 -1.6000000E-001 0.0
 -2.6400000E-001 -1.5200000E-001 0.0
 -2.6400000E-001 -1.4400000E-001 0.0
 -2.6400000E-001 -1.3600000E-001 0.0
 -2.6400000E-001 -1.2800000E-001 0.0
 -2.6400000E-001 -1.2000000E-001 0.0
 -2.6400000E-001 -1.1200000E-001 0.0
 -2.6400000E-001 -1.0400000E-001 0.0
 -2.6400000E-001 -9.6000000E-002 0.0
 -2.6400000E-001 -8.8000000E-002 0.0
 -2.6400000E-001 -8.0000000E-002 0.0
 -2.6400000E-001 -7.2000000E-002 0.0
 -2.6400000E-001 -6.4000000E-002 0.0
 -2.6400000E-001 -5.6000000E-002 0.0
 -2.6400000E-001 -4.8000000E-002 0.0
 -2.6400000E-001 -4.0000000E-002 0.0
 -2.6400000E-001 -3.2000000E-002 0.0
 -2.6400000E-001 -2.4000000E-002 0.0
 -2.6400000E-001 -1.6000000E-002 0.0
 -2.6400000E-001 -8.0000000E-003 0.0
 -2.6400000E-001  0.0000000E+000 0.0
 -2.6400000E-001  8.0000000E-003 0.0
 -2.6400000E-001  1.6000000E-002 0.0
 -2.6400000E-001  2.4000000E-002 0.0
 -2.6400000E-001  3.2000000E-002 0.0
 -2.6400000E-001  4.0000000E-002 0.0
 -2.6400000E-001  4.8000000E-002 0.0
 -2.6400000E-001  5.6000000E-002 0.0
 -2.6400000E-001  6.4000000E-002 0.0
 -2.6400000E-001  7.2000000E-002 0.0
 -2.6400000E-001  8.0000000E-002 0.0
 -2.6400000E-001  8.8000000E-002 0.0
 -2.6400000E-001  2.2400000E-001 0.0
 -2.6400000E-001  2.3200000E-001 0.0
 -2.6400000E-001  2.4000000E-001 0.0
 -2.6400000E-001  2.4800000E-001 0.0
 -2.6400000E-001  2.5600000E-001 0.0
 -2.6400000E-001  2.6400000E-001 0.0
 -2.6400000E-001  2.7200000E-001 0.0
 -2.6400000E-001  2.8000000E-001 0.0
 -2.6400000E-001  2.8800000E-001 0.0
 -2.6400000E-001  2.9600000E-001 0.0
 -2.6400000E-001  3.0400000E-001 0.0
 -2.6400000E-001  3.1200000E-001 0.0
 -2.6400000E-001  3.2000000E-001 0.0
 -2.6400000E-001  3.2800000E-001 0.0
 -2.5600000E-001 -2.9600000E-001 0.0
 -2.5600000E-001 -2.8800000E-001 0.0
 -2.5600000E-001 -2.8000000E-001 0.0
 -2.5600000E-001 -2.7200000E-001 0.0
 -2.5600000E-001 -2.6400000E-001 0.0
 -2.5600000E-001 -2.5600000E-001 0.0
 -2.5600000E-001 -2.4800000E-001 0.0
 -2.5600000E-001 -2.4000000E-001 0.0
 -2.5600000E-001 -2.3200000E-001 0.0
 -2.5600000E-001 -2.2400000E-001 0.0
 -2.5600000E-001 -2.1600000E-001 0.0
 -2.5600000E-001 -2.0800000E-001 0.0
 -2.5600000E-001 -2.0000000E-001 0.0
 -2.5600000E-001 -1.9200000E-001 0.0
 -2.5600000E-001 -1.8400000E-001 0.0
 -2.5600000E-001 -1.7600000E-001 0.0
 -2.5600000E-001 -1.6800000E-001 0.0
 -2.5600000E-001 -1.6000000E-001 0.0
 -2.5600000E-001 -1.5200000E-001 0.0
 -2.5600000E-001 -1.4400000E-001 0.0
 -2.5600000E-001 -1.3600000E-001 0.0
 -2.5600000E-001 -1.2800000E-001 0.0
 -2.5600000E-001 -1.2000000E-001 0.0
 -2.5600000E-001 -1.1200000E-001 0.0
 -2.5600000E-001 -1.0400000E-001 0.0
 -2.5600000E-001 -9.6000000E-002 0.0
 -2.5600000E-001 -8.8000000E-002 0.0
 -2.5600000E-001 -8.0000000E-002 0.0
 -2.5600000E-001 -7.2000000E-002 0.0
 -2.5600000E-001 -6.4000000E-002 0.0
 -2.5600000E-001 -5.6000000E-002 0.0
 -2.5600000E-001 -4.8000000E-002 0.0
 -2.5600000E-001 -4.0000000E-002 0.0
 -2.5600000E-001 -3.2000000E-002 0.0
 -2.5600000E-001 -2.4000000E-002 0.0
 -2.5600000E-001 -1.6000000E-002 0.0
 -2.5600000E-001 -8.0000000E-003 0.0
 -2.5600000E-001  0.0000000E+000 0.0
 -2.5600000E-001  8.0000000E-003 0.0
 -2.5600000E-001  1.6000000E-002 0.0
 -2.5600000E-001  2.4000000E-002 0.0
 -2.5600000E-001  3.2000000E-002 0.0
 -2.5600000E-001  4.0000000E-002 0.0
 -2.5600000E-001  4.8000000E-002 0.0
 -2.5600000E-001  5.6000000E-002 0.0
 -2.5600000E-001  6.4000000E-002 0.0
 -2.5600000E-001  7.2000000E-002 0.0
 -2.5600000E-001  8.0000000E-002 0.0
 -2.5600000E-001  8.8000000E-002 0.0
 -2.6400000E-001  2.1600000E-001 0.0
 -2.5600000E-001  2.1600000E-001 0.0
 -2.5600000E-001  2.2400000E-001 0.0
 -2.5600000E-001  2.3200000E-001 0.0
 -2.5600000E-001  2.4000000E-001 0.0
 -2.5600000E-001  2.4800000E-001 0.0
 -2.5600000E-001  2.5600000E-001 0.0
 -2.5600000E-001  2.6400000E-001 0.0
 -2.5600000E-001  2.7200000E-001 0.0
 -2.5600000E-001  2.8000000E-001 0.0
 -2.5600000E-001  2.8800000E-001 0.0
 -2.5600000E-001  2.9600000E-001 0.0
 -2.5600000E-001  3.0400000E-001 0.0
 -2.5600000E-001  3.1200000E-001 0.0
 -2.5600000E-001  3.2000000E-001 0.0
 -2.4800000E-001 -2.9600000E-001 0.0
 -2.4800000E-001 -2.8800000E-001 0.0
 -2.4800000E-001 -2.8000000E-001 0.0
 -2.4800000E-001 -2.7200000E-001 0.0
 -2.4800000E-001 -2.6400000E-001 0.0
 -2.4800000E-001 -2.5600000E-001 0.0
 -2.4800000E-001 -2.4800000E-001 0.0
 -2.4800000E-001 -2.4000000E-001 0.0
 -2.4800000E-001 -2.3200000E-001 0.0
 -2.4800000E-001 -2.2400000E-001 0.0
 -2.4800000E-001 -2.1600000E-001 0.0
 -2.4800000E-001 -2.0800000E-001 0.0
 -2.4800000E-001 -2.0000000E-001 0.0
 -2.4800000E-001 -1.9200000E-001 0.0
 -2.4800000E-001 -1.8400000E-001 0.0
 -2.4800000E-001 -1.7600000E-001 0.0
 -2.4800000E-001 -1.6800000E-001 0.0
 -2.4800000E-001 -1.6000000E-001 0.0
 -2.4800000E-001 -1.5200000E-001 0.0
 -2.4800000E-001 -1.4400000E-001 0.0
 -2.4800000E-001 -1.3600000E-001 0.0
 -2.4800000E-001 -1.2800000E-001 0.0
 -2.4800000E-001 -1.2000000E-001 0.0
 -2.4800000E-001 -1.1200000E-001 0.0
 -2.4800000E-001 -1.0400000E-001 0.0
 -2.4800000E-001 -9.6000000E-002 0.0
 -2.4800000E-001 -8.8000000E-002 0.0
 -2.4800000E-001 -8.0000000E-002 0.0
 -2.4800000E-001 -7.2000000E-002 0.0
 -2.4800000E-001 -6.4000000E-002 0.0
 -2.4800000E-001 -5.6000000E-002 0.0
 -2.4800000E-001 -4.8000000E-002 0.0
 -2.4800000E-001 -4.0000000E-002 0.0
 -2.4800000E-001 -3.2000000E-002 0.0
 -2.4800000E-001 -2.4000000E-002 0.0
 -2.4800000E-001 -1.6000000E-002 0.0
 -2.4800000E-001 -8.0000000E-003 0.0
 -2.4800000E-001  0.0000000E+000 0.0
 -2.4800000E-001  8.0000000E-003 0.0
 -2.4800000E-001  1.6000000E-002 0.0
 -2.4800000E-001  2.4000000E-002 0.0
 -2.4800000E-001  3.2000000E-002 0.0
 -2.4800000E-001  4.0000000E-002 0.0
 -2.4800000E-001  4.8000000E-002 0.0
 -2.4800000E-001  5.6000000E-002 0.0
 -2.4800000E-001  6.4000000E-002 0.0
 -2.4800000E-001  7.2000000E-002 0.0
 -2.4800000E-001  8.0000000E-002 0.0
 -2.4800000E-001  8.8000000E-002 0.0
 -2.5600000E-001  2.0800000E-001 0.0
 -2.4800000E-001  2.0800000E-001 0.0
 -2.4800000E-001  2.1600000E-001 0.0
 -2.4800000E-001  2.2400000E-001 0.0
 -2.4800000E-001  2.3200000E-001 0.0
 -2.4800000E-001  2.4000000E-001 0.0
 -2.4800000E-001  2.4800000E-001 0.0
 -2.4800000E-001  2.5600000E-001 0.0
 -2.4800000E-001  2.6400000E-001 0.0
 -2.4800000E-001  2.7200000E-001 0.0
 -2.4800000E-001  2.8000000E-001 0.0
 -2.4800000E-001  2.8800000E-001 0.0
 -2.4800000E-001  2.9600000E-001 0.0
 -2.4800000E-001  3.0400000E-001 0.0
 -2.4800000E-001  3.1200000E-001 0.0
 -2.4800000E-001  3.2000000E-001 0.0
 -2.4000000E-001 -2.9600000E-001 0.0
 -2.4000000E-001 -2.8800000E-001 0.0
 -2.4000000E-001 -2.8000000E-001 0.0
 -2.4000000E-001 -2.7200000E-001 0.0
 -2.4000000E-001 -2.6400000E-001 0.0
 -2.4000000E-001 -2.5600000E-001 0.0
 -2.4000000E-001 -2.4800000E-001 0.0
 -2.4000000E-001 -2.4000000E-001 0.0
 -2.4000000E-001 -2.3200000E-001 0.0
 -2.4000000E-001 -2.2400000E-001 0.0
 -2.4000000E-001 -2.1600000E-001 0.0
 -2.4000000E-001 -2.0800000E-001 0.0
 -2.4000000E-001 -2.0000000E-001 0.0
 -2.4000000E-001 -1.9200000E-001 0.0
 -2.4000000E-001 -1.8400000E-001 0.0
 -2.4000000E-001 -1.7600000E-001 0.0
 -2.4000000E-001 -1.6800000E-001 0.0
 -2.4000000E-001 -1.6000000E-001 0.0
 -2.4000000E-001 -1.5200000E-001 0.0
 -2.4000000E-001 -1.4400000E-001 0.0
 -2.4000000E-001 -1.3600000E-001 0.0
 -2.4000000E-001 -1.2800000E-001 0.0
 -2.4000000E-001 -1.2000000E-001 0.0
 -2.4000000E-001 -1.1200000E-001 0.0
 -2.4000000E-001 -1.0400000E-001 0.0
 -2.4000000E-001 -9.6000000E-002 0.0
 -2.4000000E-001 -8.8000000E-002 0.0
 -2.4000000E-001 -8.0000000E-002 0.0
 -2.4000000E-001 -7.2000000E-002 0.0
 -2.4000000E-001 -6.4000000E-002 0.0
 -2.4000000E-001 -5.6000000E-002 0.0
 -2.4000000E-001 -4.8000000E-002 0.0
 -2.4000000E-001 -4.0000000E-002 0.0
 -2.4000000E-001 -3.2000000E-002 0.0
 -2.4000000E-001 -2.4000000E-002 0.0
 -2.4000000E-001 -1.6000000E-002 0.0
 -2.4000000E-001 -8.0000000E-003 0.0
 -2.4000000E-001  0.0000000E+000 0.0
 -2.4000000E-001  8.0000000E-003 0.0
 -2.4000000E-001  1.6000000E-002 0.0
 -2.4000000E-001  2.4000000E-002 0.0
 -2.4000000E-001  3.2000000E-002 0.0
 -2.4000000E-001  4.0000000E-002 0.0
 -2.4000000E-001  4.8000000E-002 0.0
 -2.4000000E-001  5.6000000E-002 0.0
 -2.4000000E-001  6.4000000E-002 0.0
 -2.4000000E-001  7.2000000E-002 0.0
 -2.4000000E-001  8.0000000E-002 0.0
 -2.4000000E-001  8.8000000E-002 0.0
 -2.4800000E-001  2.0000000E-001 0.0
 -2.4000000E-001  2.0000000E-001 0.0
 -2.4000000E-001  2.0800000E-001 0.0
 -2.4000000E-001  2.1600000E-001 0.0
 -2.4000000E-001  2.2400000E-001 0.0
 -2.4000000E-001  2.3200000E-001 0.0
 -2.4000000E-001  2.4000000E-001 0.0
 -2.4000000E-001  2.4800000E-001 0.0
 -2.4000000E-001  2.5600000E-001 0.0
 -2.4000000E-001  2.6400000E-001 0.0
 -2.4000000E-001  2.7200000E-001 0.0
 -2.4000000E-001  2.8000000E-001 0.0
 -2.4000000E-001  2.8800000E-001 0.0
 -2.4000000E-001  2.9600000E-001 0.0
 -2.4000000E-001  3.0400000E-001 0.0
 -2.4000000E-001  3.1200000E-001 0.0
 -2.4000000E-001  3.2000000E-001 0.0
 -2.3200000E-001 -2.9600000E-001 0.0
 -2.3200000E-001 -2.8800000E-001 0.0
 -2.3200000E-001 -2.8000000E-001 0.0
 -2.3200000E-001 -2.7200000E-001 0.0
 -2.3200000E-001 -2.6400000E-001 0.0
 -2.3200000E-001 -2.5600000E-001 0.0
 -2.3200000E-001 -2.4800000E-001 0.0
 -2.3200000E-001 -2.4000000E-001 0.0
 -2.3200000E-001 -2.3200000E-001 0.0
 -2.3200000E-001 -2.2400000E-001 0.0
 -2.3200000E-001 -2.1600000E-001 0.0
 -2.3200000E-001 -2.0800000E-001 0.0
 -2.3200000E-001 -2.0000000E-001 0.0
 -2.3200000E-001 -1.9200000E-001 0.0
 -2.3200000E-001 -1.8400000E-001 0.0
 -2.3200000E-001 -1.7600000E-001 0.0
 -2.3200000E-001 -1.6800000E-001 0.0
 -2.3200000E-001 -1.6000000E-001 0.0
 -2.3200000E-001 -1.5200000E-001 0.0
 -2.3200000E-001 -1.4400000E-001 0.0
 -2.3200000E-001 -1.3600000E-001 0.0
 -2.3200000E-001 -1.2800000E-001 0.0
 -2.3200000E-001 -1.2000000E-001 0.0
 -2.3200000E-001 -1.1200000E-001 0.0
 -2.3200000E-001 -1.0400000E-001 0.0
 -2.3200000E-001 -9.6000000E-002 0.0
 -2.3200000E-001 -8.8000000E-002 0.0
 -2.3200000E-001 -8.0000000E-002 0.0
 -2.3200000E-001 -7.2000000E-002 0.0
 -2.3200000E-001 -6.4000000E-002 0.0
 -2.3200000E-001 -5.6000000E-002 0.0
 -2.3200000E-001 -4.8000000E-002 0.0
 -2.3200000E-001 -4.0000000E-002 0.0
 -2.3200000E-001 -3.2000000E-002 0.0
 -2.3200000E-001 -2.4000000E-002 0.0
 -2.3200000E-001 -1.6000000E-002 0.0
 -2.3200000E-001 -8.0000000E-003 0.0
 -2.3200000E-001  0.0000000E+000 0.0
 -2.3200000E-001  8.0000000E-003 0.0
 -2.3200000E-001  1.6000000E-002 0.0
 -2.3200000E-001  4.0000000E-002 0.0
 -2.3200000E-001  4.8000000E-002 0.0
 -2.3200000E-001  5.6000000E-002 0.0
 -2.3200000E-001  6.4000000E-002 0.0
 -2.3200000E-001  7.2000000E-002 0.0
 -2.3200000E-001  8.0000000E-002 0.0
 -2.3200000E-001  8.8000000E-002 0.0
 -2.3200000E-001  2.0000000E-001 0.0
 -2.3200000E-001  2.0800000E-001 0.0
 -2.3200000E-001  2.1600000E-001 0.0
 -2.3200000E-001  2.2400000E-001 0.0
 -2.3200000E-001  2.3200000E-001 0.0
 -2.3200000E-001  2.4000000E-001 0.0
 -2.3200000E-001  2.4800000E-001 0.0
 -2.3200000E-001  2.5600000E-001 0.0
 -2.3200000E-001  2.6400000E-001 0.0
 -2.3200000E-001  2.7200000E-001 0.0
 -2.3200000E-001  2.8000000E-001 0.0
 -2.3200000E-001  2.8800000E-001 0.0
 -2.3200000E-001  2.9600000E-001 0.0
 -2.3200000E-001  3.0400000E-001 0.0
 -2.3200000E-001  3.1200000E-001 0.0
 -2.3200000E-001  3.2000000E-001 0.0
 -2.2400000E-001 -2.9600000E-001 0.0
 -2.2400000E-001 -2.8800000E-001 0.0
 -2.2400000E-001 -2.8000000E-001 0.0
 -2.2400000E-001 -2.7200000E-001 0.0
 -2.2400000E-001 -2.6400000E-001 0.0
 -2.2400000E-001 -2.5600000E-001 0.0
 -2.2400000E-001 -2.4800000E-001 0.0
 -2.2400000E-001 -2.4000000E-001 0.0
 -2.2400000E-001 -2.3200000E-001 0.0
 -2.2400000E-001 -2.2400000E-001 0.0
 -2.2400000E-001 -2.1600000E-001 0.0
 -2.2400000E-001 -2.0800000E-001 0.0
 -2.2400000E-001 -2.0000000E-001 0.0
 -2.2400000E-001 -1.9200000E-001 0.0
 -2.2400000E-001 -1.8400000E-001 0.0
 -2.2400000E-001 -1.7600000E-001 0.0
 -2.2400000E-001 -1.6800000E-001 0.0
 -2.2400000E-001 -1.6000000E-001 0.0
 -2.2400000E-001 -1.5200000E-001 0.0
 -2.2400000E-001 -1.4400000E-001 0.0
 -2.2400000E-001 -1.3600000E-001 0.0
 -2.2400000E-001 -1.2800000E-001 0.0
 -2.2400000E-001 -1.2000000E-001 0.0
 -2.2400000E-001 -1.1200000E-001 0.0
 -2.2400000E-001 -1.0400000E-001 0.0
 -2.2400000E-001 -9.6000000E-002 0.0
 -2.2400000E-001 -8.8000000E-002 0.0
 -2.2400000E-001 -8.0000000E-002 0.0
 -2.2400000E-001 -7.2000000E-002 0.0
 -2.2400000E-001 -6.4000000E-002 0.0
 -2.2400000E-001 -5.6000000E-002 0.0
 -2.2400000E-001 -4.8000000E-002 0.0
 -2.2400000E-001 -4.0000000E-002 0.0
 -2.2400000E-001  4.0000000E-002 0.0
 -2.2400000E-001  4.8000000E-002 0.0
 -2.2400000E-001  5.6000000E-002 0.0
 -2.2400000E-001  6.4000000E-002 0.0
 -2.2400000E-001  7.2000000E-002 0.0
 -2.2400000E-001  8.0000000E-002 0.0
 -2.2400000E-001  2.0000000E-001 0.0
 -2.2400000E-001  2.0800000E-001 0.0
 -2.2400000E-001  2.1600000E-001 0.0
 -2.2400000E-001  2.2400000E-001 0.0
 -2.2400000E-001  2.3200000E-001 0.0
 -2.2400000E-001  2.4000000E-001 0.0
 -2.2400000E-001  2.4800000E-001 0.0
 -2.2400000E-001  2.5600000E-001 0.0
 -2.2400000E-001  2.6400000E-001 0.0
 -2.2400000E-001  2.7200000E-001 0.0
 -2.2400000E-001  2.8000000E-001 0.0
 -2.2400000E-001  2.8800000E-001 0.0
 -2.2400000E-001  2.9600000E-001 0.0
 -2.2400000E-001  3.0400000E-001 0.0
 -2.2400000E-001  3.1200000E-001 0.0
 -2.2400000E-001  3.2000000E-001 0.0
 -2.1600000E-001 -2.8800000E-001 0.0
 -2.1600000E-001 -2.8000000E-001 0.0
 -2.1600000E-001 -2.7200000E-001 0.0
 -2.1600000E-001 -2.6400000E-001 0.0
 -2.1600000E-001 -2.5600000E-001 0.0
 -2.1600000E-001 -2.4800000E-001 0.0
 -2.1600000E-001 -2.4000000E-001 0.0
 -2.1600000E-001 -2.3200000E-001 0.0
 -2.1600000E-001 -2.2400000E-001 0.0
 -2.1600000E-001 -2.1600000E-001 0.0
 -2.1600000E-001 -2.0800000E-001 0.0
 -2.1600000E-001 -2.0000000E-001 0.0
 -2.1600000E-001 -1.9200000E-001 0.0
 -2.1600000E-001 -1.8400000E-001 0.0
 -2.1600000E-001 -1.7600000E-001 0.0
 -2.1600000E-001 -1.6800000E-001 0.0
 -2.1600000E-001 -1.6000000E-001 0.0
 -2.1600000E-001 -1.5200000E-001 0.0
 -2.1600000E-001 -1.4400000E-001 0.0
 -2.1600000E-001 -1.3600000E-001 0.0
 -2.1600000E-001 -1.2800000E-001 0.0
 -2.1600000E-001 -1.2000000E-001 0.0
 -2.1600000E-001 -1.1200000E-001 0.0
 -2.1600000E-001 -1.0400000E-001 0.0
 -2.1600000E-001 -9.6000000E-002 0.0
 -2.1600000E-001 -8.8000000E-002 0.0
 -2.1600000E-001 -8.0000000E-002 0.0
 -2.1600000E-001 -7.2000000E-002 0.0
 -2.1600000E-001 -6.4000000E-002 0.0
 -2.1600000E-001 -5.6000000E-002 0.0
 -2.2400000E-001  3.2000000E-002 0.0
 -2.1600000E-001  3.2000000E-002 0.0
 -2.1600000E-001  4.0000000E-002 0.0
 -2.1600000E-001  4.8000000E-002 0.0
 -2.1600000E-001  5.6000000E-002 0.0
 -2.1600000E-001  6.4000000E-002 0.0
 -2.1600000E-001  7.2000000E-002 0.0
 -2.1600000E-001  8.0000000E-002 0.0
 -2.2400000E-001  1.9200000E-001 0.0
 -2.1600000E-001  1.9200000E-001 0.0
 -2.1600000E-001  2.0000000E-001 0.0
 -2.1600000E-001  2.0800000E-001 0.0
 -2.1600000E-001  2.1600000E-001 0.0
 -2.1600000E-001  2.2400000E-001 0.0
 -2.1600000E-001  2.3200000E-001 0.0
 -2.1600000E-001  2.4000000E-001 0.0
 -2.1600000E-001  2.4800000E-001 0.0
 -2.1600000E-001  2.5600000E-001 0.0
 -2.1600000E-001  2.6400000E-001 0.0
 -2.1600000E-001  2.7200000E-001 0.0
 -2.1600000E-001  2.8000000E-001 0.0
 -2.1600000E-001  2.8800000E-001 0.0
 -2.1600000E-001  2.9600000E-001 0.0
 -2.1600000E-001  3.0400000E-001 0.0
 -2.1600000E-001  3.1200000E-001 0.0
 -2.1600000E-001  3.2000000E-001 0.0
 -2.0800000E-001 -2.8800000E-001 0.0
 -2.0800000E-001 -2.8000000E-001 0.0
 -2.0800000E-001 -2.7200000E-001 0.0
 -2.0800000E-001 -2.6400000E-001 0.0
 -2.0800000E-001 -2.5600000E-001 0.0
 -2.0800000E-001 -2.4800000E-001 0.0
 -2.0800000E-001 -2.4000000E-001 0.0
 -2.0800000E-001 -2.3200000E-001 0.0
 -2.0800000E-001 -2.2400000E-001 0.0
 -2.0800000E-001 -2.1600000E-001 0.0
 -2.0800000E-001 -2.0800000E-001 0.0
 -2.0800000E-001 -2.0000000E-001 0.0
 -2.0800000E-001 -1.9200000E-001 0.0
 -2.0800000E-001 -1.8400000E-001 0.0
 -2.0800000E-001 -1.7600000E-001 0.0
 -2.0800000E-001 -1.6800000E-001 0.0
 -2.0800000E-001 -1.6000000E-001 0.0
 -2.0800000E-001 -1.5200000E-001 0.0
 -2.0800000E-001 -1.4400000E-001 0.0
 -2.0800000E-001 -1.3600000E-001 0.0
 -2.0800000E-001 -1.2800000E-001 0.0
 -2.0800000E-001 -1.2000000E-001 0.0
 -2.0800000E-001 -1.1200000E-001 0.0
 -2.0800000E-001 -1.0400000E-001 0.0
 -2.0800000E-001 -9.6000000E-002 0.0
 -2.0800000E-001 -8.8000000E-002 0.0
 -2.0800000E-001 -8.0000000E-002 0.0
 -2.0800000E-001 -7.2000000E-002 0.0
 -2.0800000E-001  3.2000000E-002 0.0
 -2.0800000E-001  4.0000000E-002 0.0
 -2.0800000E-001  4.8000000E-002 0.0
 -2.0800000E-001  5.6000000E-002 0.0
 -2.0800000E-001  6.4000000E-002 0.0
 -2.0800000E-001  7.2000000E-002 0.0
 -2.1600000E-001  1.8400000E-001 0.0
 -2.0800000E-001  1.8400000E-001 0.0
 -2.0800000E-001  1.9200000E-001 0.0
 -2.0800000E-001  2.0000000E-001 0.0
 -2.0800000E-001  2.0800000E-001 0.0
 -2.0800000E-001  2.1600000E-001 0.0
 -2.0800000E-001  2.2400000E-001 0.0
 -2.0800000E-001  2.3200000E-001 0.0
 -2.0800000E-001  2.4000000E-001 0.0
 -2.0800000E-001  2.4800000E-001 0.0
 -2.0800000E-001  2.5600000E-001 0.0
 -2.0800000E-001  2.6400000E-001 0.0
 -2.0800000E-001  2.7200000E-001 0.0
 -2.0800000E-001  2.8000000E-001 0.0
 -2.0800000E-001  2.8800000E-001 0.0
 -2.0800000E-001  2.9600000E-001 0.0
 -2.0800000E-001  3.0400000E-001 0.0
 -2.0800000E-001  3.1200000E-001 0.0
 -2.0000000E-001 -2.8000000E-001 0.0
 -2.0000000E-001 -2.7200000E-001 0.0
 -2.0000000E-001 -2.6400000E-001 0.0
 -2.0000000E-001 -2.5600000E-001 0.0
 -2.0000000E-001 -2.4800000E-001 0.0
 -2.0000000E-001 -2.4000000E-001 0.0
 -2.0000000E-001 -2.3200000E-001 0.0
 -2.0000000E-001 -2.2400000E-001 0.0
 -2.0000000E-001 -2.1600000E-001 0.0
 -2.0000000E-001 -2.0800000E-001 0.0
 -2.0000000E-001 -2.0000000E-001 0.0
 -2.0000000E-001 -1.9200000E-001 0.0
 -2.0000000E-001 -1.8400000E-001 0.0
 -2.0000000E-001 -1.7600000E-001 0.0
 -2.0000000E-001 -1.6800000E-001 0.0
 -2.0000000E-001 -1.6000000E-001 0.0
 -2.0000000E-001 -1.5200000E-001 0.0
 -2.0000000E-001 -1.4400000E-001 0.0
 -2.0000000E-001 -1.3600000E-001 0.0
 -2.0000000E-001 -1.2800000E-001 0.0
 -2.0000000E-001 -1.2000000E-001 0.0
 -2.0000000E-001 -1.1200000E-001 0.0
 -2.0000000E-001 -1.0400000E-001 0.0
 -2.0000000E-001 -9.6000000E-002 0.0
 -2.0000000E-001 -8.8000000E-002 0.0
 -2.0000000E-001 -8.0000000E-002 0.0
 -2.0000000E-001  4.0000000E-002 0.0
 -2.0000000E-001  4.8000000E-002 0.0
 -2.0000000E-001  5.6000000E-002 0.0
 -2.0800000E-001  1.7600000E-001 0.0
 -2.0000000E-001  1.7600000E-001 0.0
 -2.0000000E-001  1.8400000E-001 0.0
 -2.0000000E-001  1.9200000E-001 0.0
 -2.0000000E-001  2.0000000E-001 0.0
 -2.0000000E-001  2.0800000E-001 0.0
 -2.0000000E-001  2.1600000E-001 0.0
 -2.0000000E-001  2.2400000E-001 0.0
 -2.0000000E-001  2.3200000E-001 0.0
 -2.0000000E-001  2.4000000E-001 0.0
 -2.0000000E-001  2.4800000E-001 0.0
 -2.0000000E-001  2.5600000E-001 0.0
 -2.0000000E-001  2.6400000E-001 0.0
 -2.0000000E-001  2.7200000E-001 0.0
 -2.0000000E-001  2.8000000E-001 0.0
 -2.0000000E-001  2.8800000E-001 0.0
 -2.0000000E-001  2.9600000E-001 0.0
 -2.0000000E-001  3.0400000E-001 0.0
 -1.9200000E-001 -2.7200000E-001 0.0
 -1.9200000E-001 -2.6400000E-001 0.0
 -1.9200000E-001 -2.5600000E-001 0.0
 -1.9200000E-001 -2.4800000E-001 0.0
 -1.9200000E-001 -2.4000000E-001 0.0
 -1.9200000E-001 -2.3200000E-001 0.0
 -1.9200000E-001 -2.2400000E-001 0.0
 -1.9200000E-001 -2.1600000E-001 0.0
 -1.9200000E-001 -2.0800000E-001 0.0
 -1.9200000E-001 -2.0000000E-001 0.0
 -1.9200000E-001 -1.9200000E-001 0.0
 -1.9200000E-001 -1.8400000E-001 0.0
 -1.9200000E-001 -1.7600000E-001 0.0
 -1.9200000E-001 -1.6800000E-001 0.0
 -1.9200000E-001 -1.6000000E-001 0.0
 -1.9200000E-001 -1.5200000E-001 0.0
 -1.9200000E-001 -1.4400000E-001 0.0
 -1.9200000E-001 -1.3600000E-001 0.0
 -1.9200000E-001 -1.2800000E-001 0.0
 -1.9200000E-001 -1.2000000E-001 0.0
 -1.9200000E-001 -1.1200000E-001 0.0
 -1.9200000E-001 -1.0400000E-001 0.0
 -1.9200000E-001 -9.6000000E-002 0.0
 -1.9200000E-001 -8.8000000E-002 0.0
 -1.9200000E-001 -8.0000000E-002 0.0
 -2.0000000E-001  1.6800000E-001 0.0
 -1.9200000E-001  1.6800000E-001 0.0
 -1.9200000E-001  1.7600000E-001 0.0
 -1.9200000E-001  1.8400000E-001 0.0
 -1.9200000E-001  1.9200000E-001 0.0
 -1.9200000E-001  2.0000000E-001 0.0
 -1.9200000E-001  2.0800000E-001 0.0
 -1.9200000E-001  2.1600000E-001 0.0
 -1.9200000E-001  2.2400000E-001 0.0
 -1.9200000E-001  2.3200000E-001 0.0
 -1.9200000E-001  2.4000000E-001 0.0
 -1.9200000E-001  2.4800000E-001 0.0
 -1.9200000E-001  2.5600000E-001 0.0
 -1.9200000E-001  2.6400000E-001 0.0
 -1.9200000E-001  2.7200000E-001 0.0
 -1.9200000E-001  2.8000000E-001 0.0
 -1.9200000E-001  2.8800000E-001 0.0
 -1.9200000E-001  2.9600000E-001 0.0
 -1.9200000E-001  3.0400000E-001 0.0
 -1.8400000E-001 -2.7200000E-001 0.0
 -1.8400000E-001 -2.6400000E-001 0.0
 -1.8400000E-001 -2.5600000E-001 0.0
 -1.8400000E-001 -2.4800000E-001 0.0
 -1.8400000E-001 -2.4000000E-001 0.0
 -1.8400000E-001 -2.3200000E-001 0.0
 -1.8400000E-001 -2.2400000E-001 0.0
 -1.8400000E-001 -2.1600000E-001 0.0
 -1.8400000E-001 -2.0800000E-001 0.0
 -1.8400000E-001 -2.0000000E-001 0.0
 -1.8400000E-001 -1.9200000E-001 0.0
 -1.8400000E-001 -1.8400000E-001 0.0
 -1.8400000E-001 -1.7600000E-001 0.0
 -1.8400000E-001 -1.6800000E-001 0.0
 -1.8400000E-001 -1.6000000E-001 0.0
 -1.8400000E-001 -1.5200000E-001 0.0
 -1.8400000E-001 -1.4400000E-001 0.0
 -1.8400000E-001 -1.3600000E-001 0.0
 -1.8400000E-001 -1.2800000E-001 0.0
 -1.8400000E-001 -1.2000000E-001 0.0
 -1.8400000E-001 -1.1200000E-001 0.0
 -1.8400000E-001 -1.0400000E-001 0.0
 -1.8400000E-001 -9.6000000E-002 0.0
 -1.8400000E-001 -8.8000000E-002 0.0
 -1.9200000E-001  1.6000000E-001 0.0
 -1.8400000E-001  1.6000000E-001 0.0
 -1.8400000E-001  1.6800000E-001 0.0
 -1.8400000E-001  1.7600000E-001 0.0
 -1.8400000E-001  1.8400000E-001 0.0
 -1.8400000E-001  1.9200000E-001 0.0
 -1.8400000E-001  2.0000000E-001 0.0
 -1.8400000E-001  2.0800000E-001 0.0
 -1.8400000E-001  2.1600000E-001 0.0
 -1.8400000E-001  2.2400000E-001 0.0
 -1.8400000E-001  2.3200000E-001 0.0
 -1.8400000E-001  2.4000000E-001 0.0
 -1.8400000E-001  2.4800000E-001 0.0
 -1.8400000E-001  2.5600000E-001 0.0
 -1.8400000E-001  2.6400000E-001 0.0
 -1.8400000E-001  2.7200000E-001 0.0
 -1.8400000E-001  2.8000000E-001 0.0
 -1.8400000E-001  2.8800000E-001 0.0
 -1.8400000E-001  2.9600000E-001 0.0
 -1.8400000E-001  3.0400000E-001 0.0
 -1.7600000E-001 -2.5600000E-001 0.0
 -1.7600000E-001 -2.4800000E-001 0.0
 -1.7600000E-001 -2.4000000E-001 0.0
 -1.7600000E-001 -2.3200000E-001 0.0
 -1.7600000E-001 -2.2400000E-001 0.0
 -1.7600000E-001 -2.1600000E-001 0.0
 -1.7600000E-001 -2.0800000E-001 0.0
 -1.7600000E-001 -2.0000000E-001 0.0
 -1.7600000E-001 -1.9200000E-001 0.0
 -1.7600000E-001 -1.8400000E-001 0.0
 -1.7600000E-001 -1.7600000E-001 0.0
 -1.7600000E-001 -1.6800000E-001 0.0
 -1.7600000E-001 -1.6000000E-001 0.0
 -1.7600000E-001 -1.5200000E-001 0.0
 -1.7600000E-001 -1.4400000E-001 0.0
 -1.7600000E-001 -1.3600000E-001 0.0
 -1.7600000E-001 -1.2800000E-001 0.0
 -1.7600000E-001 -1.2000000E-001 0.0
 -1.7600000E-001 -1.1200000E-001 0.0
 -1.7600000E-001 -1.0400000E-001 0.0
 -1.7600000E-001 -9.6000000E-002 0.0
 -1.7600000E-001 -8.8000000E-002 0.0
 -1.8400000E-001  1.4400000E-001 0.0
 -1.7600000E-001  1.4400000E-001 0.0
 -1.7600000E-001  1.5200000E-001 0.0
 -1.8400000E-001  1.5200000E-001 0.0
 -1.7600000E-001  1.6000000E-001 0.0
 -1.7600000E-001  1.6800000E-001 0.0
 -1.7600000E-001  1.7600000E-001 0.0
 -1.7600000E-001  1.8400000E-001 0.0
 -1.7600000E-001  1.9200000E-001 0.0
 -1.7600000E-001  2.0000000E-001 0.0
 -1.7600000E-001  2.0800000E-001 0.0
 -1.7600000E-001  2.1600000E-001 0.0
 -1.7600000E-001  2.2400000E-001 0.0
 -1.7600000E-001  2.3200000E-001 0.0
 -1.7600000E-001  2.4000000E-001 0.0
 -1.7600000E-001  2.4800000E-001 0.0
 -1.7600000E-001  2.5600000E-001 0.0
 -1.7600000E-001  2.6400000E-001 0.0
 -1.7600000E-001  2.7200000E-001 0.0
 -1.7600000E-001  2.8000000E-001 0.0
 -1.7600000E-001  2.8800000E-001 0.0
 -1.7600000E-001  2.9600000E-001 0.0
 -1.6800000E-001 -2.5600000E-001 0.0
 -1.6800000E-001 -2.4800000E-001 0.0
 -1.6800000E-001 -2.4000000E-001 0.0
 -1.6800000E-001 -2.3200000E-001 0.0
 -1.6800000E-001 -2.2400000E-001 0.0
 -1.6800000E-001 -2.1600000E-001 0.0
 -1.6800000E-001 -2.0800000E-001 0.0
 -1.6800000E-001 -2.0000000E-001 0.0
 -1.6800000E-001 -1.9200000E-001 0.0
 -1.6800000E-001 -1.8400000E-001 0.0
 -1.6800000E-001 -1.7600000E-001 0.0
 -1.6800000E-001 -1.6800000E-001 0.0
 -1.6800000E-001 -1.6000000E-001 0.0
 -1.6800000E-001 -1.5200000E-001 0.0
 -1.6800000E-001 -1.4400000E-001 0.0
 -1.6800000E-001 -1.3600000E-001 0.0
 -1.6800000E-001 -1.2800000E-001 0.0
 -1.6800000E-001 -1.2000000E-001 0.0
 -1.6800000E-001 -1.1200000E-001 0.0
 -1.6800000E-001 -1.0400000E-001 0.0
 -1.6800000E-001 -9.6000000E-002 0.0
 -1.6800000E-001 -8.8000000E-002 0.0
 -1.7600000E-001  1.3600000E-001 0.0
 -1.6800000E-001  1.3600000E-001 0.0
 -1.6800000E-001  1.4400000E-001 0.0
 -1.6800000E-001  1.5200000E-001 0.0
 -1.6800000E-001  1.6000000E-001 0.0
 -1.6800000E-001  1.6800000E-001 0.0
 -1.6800000E-001  1.7600000E-001 0.0
 -1.6800000E-001  1.8400000E-001 0.0
 -1.6800000E-001  1.9200000E-001 0.0
 -1.6800000E-001  2.0000000E-001 0.0
 -1.6800000E-001  2.0800000E-001 0.0
 -1.6800000E-001  2.1600000E-001 0.0
 -1.6800000E-001  2.2400000E-001 0.0
 -1.6800000E-001  2.3200000E-001 0.0
 -1.6800000E-001  2.4000000E-001 0.0
 -1.6800000E-001  2.4800000E-001 0.0
 -1.6800000E-001  2.5600000E-001 0.0
 -1.6800000E-001  2.6400000E-001 0.0
 -1.6800000E-001  2.7200000E-001 0.0
 -1.6800000E-001  2.8000000E-001 0.0
 -1.6800000E-001  2.8800000E-001 0.0
 -1.6800000E-001  2.9600000E-001 0.0
 -1.6000000E-001 -2.4000000E-001 0.0
 -1.6000000E-001 -2.3200000E-001 0.0
 -1.6000000E-001 -2.2400000E-001 0.0
 -1.6000000E-001 -2.1600000E-001 0.0
 -1.6000000E-001 -2.0800000E-001 0.0
 -1.6000000E-001 -2.0000000E-001 0.0
 -1.6000000E-001 -1.9200000E-001 0.0
 -1.6000000E-001 -1.8400000E-001 0.0
 -1.6000000E-001 -1.7600000E-001 0.0
 -1.6000000E-001 -1.6800000E-001 0.0
 -1.6000000E-001 -1.6000000E-001 0.0
 -1.6000000E-001 -1.5200000E-001 0.0
 -1.6000000E-001 -1.4400000E-001 0.0
 -1.6000000E-001 -1.3600000E-001 0.0
 -1.6000000E-001 -1.2800000E-001 0.0
 -1.6000000E-001 -1.2000000E-001 0.0
 -1.6000000E-001 -1.1200000E-001 0.0
 -1.6000000E-001 -1.0400000E-001 0.0
 -1.6000000E-001 -9.6000000E-002 0.0
 -1.6000000E-001 -8.8000000E-002 0.0
 -1.6800000E-001  1.2000000E-001 0.0
 -1.6000000E-001  1.2000000E-001 0.0
 -1.6000000E-001  1.2800000E-001 0.0
 -1.6800000E-001  1.2800000E-001 0.0
 -1.6000000E-001  1.3600000E-001 0.0
 -1.6000000E-001  1.4400000E-001 0.0
 -1.6000000E-001  1.5200000E-001 0.0
 -1.6000000E-001  1.6000000E-001 0.0
 -1.6000000E-001  1.6800000E-001 0.0
 -1.6000000E-001  1.7600000E-001 0.0
 -1.6000000E-001  1.8400000E-001 0.0
 -1.6000000E-001  1.9200000E-001 0.0
 -1.6000000E-001  2.0000000E-001 0.0
 -1.6000000E-001  2.0800000E-001 0.0
 -1.6000000E-001  2.1600000E-001 0.0
 -1.6000000E-001  2.2400000E-001 0.0
 -1.6000000E-001  2.3200000E-001 0.0
 -1.6000000E-001  2.4000000E-001 0.0
 -1.6000000E-001  2.4800000E-001 0.0
 -1.6000000E-001  2.5600000E-001 0.0
 -1.6000000E-001  2.6400000E-001 0.0
 -1.6000000E-001  2.7200000E-001 0.0
 -1.6000000E-001  2.8000000E-001 0.0
 -1.6000000E-001  2.8800000E-001 0.0
 -1.6000000E-001  2.9600000E-001 0.0
 -1.5200000E-001 -2.3200000E-001 0.0
 -1.5200000E-001 -2.2400000E-001 0.0
 -1.5200000E-001 -2.1600000E-001 0.0
 -1.5200000E-001 -2.0800000E-001 0.0
 -1.5200000E-001 -2.0000000E-001 0.0
 -1.5200000E-001 -1.9200000E-001 0.0
 -1.5200000E-001 -1.8400000E-001 0.0
 -1.5200000E-001 -1.7600000E-001 0.0
 -1.5200000E-001 -1.6800000E-001 0.0
 -1.5200000E-001 -1.6000000E-001 0.0
 -1.5200000E-001 -1.5200000E-001 0.0
 -1.5200000E-001 -1.4400000E-001 0.0
 -1.5200000E-001 -1.3600000E-001 0.0
 -1.5200000E-001 -1.2800000E-001 0.0
 -1.5200000E-001 -1.2000000E-001 0.0
 -1.5200000E-001 -1.1200000E-001 0.0
 -1.5200000E-001 -1.0400000E-001 0.0
 -1.5200000E-001 -9.6000000E-002 0.0
 -1.5200000E-001 -8.8000000E-002 0.0
 -1.5200000E-001 -8.0000000E-002 0.0
 -1.6000000E-001 -8.0000000E-002 0.0
 -1.6000000E-001  1.1200000E-001 0.0
 -1.5200000E-001  1.1200000E-001 0.0
 -1.5200000E-001  1.2000000E-001 0.0
 -1.5200000E-001  1.2800000E-001 0.0
 -1.5200000E-001  1.3600000E-001 0.0
 -1.5200000E-001  1.4400000E-001 0.0
 -1.5200000E-001  1.5200000E-001 0.0
 -1.5200000E-001  1.6000000E-001 0.0
 -1.5200000E-001  1.6800000E-001 0.0
 -1.5200000E-001  1.7600000E-001 0.0
 -1.5200000E-001  1.8400000E-001 0.0
 -1.5200000E-001  1.9200000E-001 0.0
 -1.5200000E-001  2.0000000E-001 0.0
 -1.5200000E-001  2.0800000E-001 0.0
 -1.5200000E-001  2.1600000E-001 0.0
 -1.5200000E-001  2.2400000E-001 0.0
 -1.5200000E-001  2.3200000E-001 0.0
 -1.5200000E-001  2.4000000E-001 0.0
 -1.5200000E-001  2.4800000E-001 0.0
 -1.5200000E-001  2.5600000E-001 0.0
 -1.5200000E-001  2.6400000E-001 0.0
 -1.5200000E-001  2.7200000E-001 0.0
 -1.5200000E-001  2.8000000E-001 0.0
 -1.5200000E-001  2.8800000E-001 0.0
 -1.5200000E-001  2.9600000E-001 0.0
 -1.4400000E-001 -2.2400000E-001 0.0
 -1.4400000E-001 -2.1600000E-001 0.0
 -1.4400000E-001 -2.0800000E-001 0.0
 -1.4400000E-001 -2.0000000E-001 0.0
 -1.4400000E-001 -1.9200000E-001 0.0
 -1.4400000E-001 -1.8400000E-001 0.0
 -1.4400000E-001 -1.7600000E-001 0.0
 -1.4400000E-001 -1.6800000E-001 0.0
 -1.4400000E-001 -1.6000000E-001 0.0
 -1.4400000E-001 -1.5200000E-001 0.0
 -1.4400000E-001 -1.4400000E-001 0.0
 -1.4400000E-001 -1.3600000E-001 0.0
 -1.4400000E-001 -1.2800000E-001 0.0
 -1.4400000E-001 -1.2000000E-001 0.0
 -1.4400000E-001 -1.1200000E-001 0.0
 -1.4400000E-001 -1.0400000E-001 0.0
 -1.4400000E-001 -9.6000000E-002 0.0
 -1.4400000E-001 -8.8000000E-002 0.0
 -1.4400000E-001 -8.0000000E-002 0.0
 -1.4400000E-001 -7.2000000E-002 0.0
 -1.5200000E-001 -7.2000000E-002 0.0
 -1.4400000E-001 -6.4000000E-002 0.0
 -1.5200000E-001 -6.4000000E-002 0.0
 -1.4400000E-001 -5.6000000E-002 0.0
 -1.5200000E-001 -5.6000000E-002 0.0
 -1.4400000E-001 -4.8000000E-002 0.0
 -1.5200000E-001 -4.8000000E-002 0.0
 -1.5200000E-001  9.6000000E-002 0.0
 -1.4400000E-001  9.6000000E-002 0.0
 -1.4400000E-001  1.0400000E-001 0.0
 -1.5200000E-001  1.0400000E-001 0.0
 -1.4400000E-001  1.1200000E-001 0.0
 -1.4400000E-001  1.2000000E-001 0.0
 -1.4400000E-001  1.2800000E-001 0.0
 -1.4400000E-001  1.3600000E-001 0.0
 -1.4400000E-001  1.4400000E-001 0.0
 -1.4400000E-001  1.5200000E-001 0.0
 -1.4400000E-001  1.6000000E-001 0.0
 -1.4400000E-001  1.6800000E-001 0.0
 -1.4400000E-001  1.7600000E-001 0.0
 -1.4400000E-001  1.8400000E-001 0.0
 -1.4400000E-001  1.9200000E-001 0.0
 -1.4400000E-001  2.0000000E-001 0.0
 -1.4400000E-001  2.0800000E-001 0.0
 -1.4400000E-001  2.1600000E-001 0.0
 -1.4400000E-001  2.2400000E-001 0.0
 -1.4400000E-001  2.3200000E-001 0.0
 -1.4400000E-001  2.4000000E-001 0.0
 -1.4400000E-001  2.4800000E-001 0.0
 -1.4400000E-001  2.5600000E-001 0.0
 -1.4400000E-001  2.6400000E-001 0.0
 -1.4400000E-001  2.7200000E-001 0.0
 -1.4400000E-001  2.8000000E-001 0.0
 -1.4400000E-001  2.8800000E-001 0.0
 -1.4400000E-001  2.9600000E-001 0.0
 -1.3600000E-001 -2.1600000E-001 0.0
 -1.3600000E-001 -2.0800000E-001 0.0
 -1.3600000E-001 -2.0000000E-001 0.0
 -1.3600000E-001 -1.9200000E-001 0.0
 -1.3600000E-001 -1.8400000E-001 0.0
 -1.3600000E-001 -1.7600000E-001 0.0
 -1.3600000E-001 -1.6800000E-001 0.0
 -1.3600000E-001 -1.6000000E-001 0.0
 -1.3600000E-001 -1.5200000E-001 0.0
 -1.3600000E-001 -1.4400000E-001 0.0
 -1.3600000E-001 -1.3600000E-001 0.0
 -1.3600000E-001 -1.2800000E-001 0.0
 -1.3600000E-001 -1.2000000E-001 0.0
 -1.3600000E-001 -1.1200000E-001 0.0
 -1.3600000E-001 -1.0400000E-001 0.0
 -1.3600000E-001 -9.6000000E-002 0.0
 -1.3600000E-001 -8.8000000E-002 0.0
 -1.3600000E-001 -8.0000000E-002 0.0
 -1.3600000E-001 -7.2000000E-002 0.0
 -1.3600000E-001 -6.4000000E-002 0.0
 -1.3600000E-001 -5.6000000E-002 0.0
 -1.3600000E-001 -4.8000000E-002 0.0
 -1.3600000E-001 -4.0000000E-002 0.0
 -1.4400000E-001 -4.0000000E-002 0.0
 -1.3600000E-001 -3.2000000E-002 0.0
 -1.4400000E-001 -3.2000000E-002 0.0
 -1.3600000E-001 -2.4000000E-002 0.0
 -1.4400000E-001 -2.4000000E-002 0.0
 -1.3600000E-001 -1.6000000E-002 0.0
 -1.4400000E-001 -1.6000000E-002 0.0
 -1.3600000E-001 -8.0000000E-003 0.0
 -1.4400000E-001 -8.0000000E-003 0.0
 -1.3600000E-001  0.0000000E+000 0.0
 -1.4400000E-001  0.0000000E+000 0.0
 -1.4400000E-001  8.8000000E-002 0.0
 -1.3600000E-001  8.8000000E-002 0.0
 -1.3600000E-001  9.6000000E-002 0.0
 -1.3600000E-001  1.0400000E-001 0.0
 -1.3600000E-001  1.1200000E-001 0.0
 -1.3600000E-001  1.2000000E-001 0.0
 -1.3600000E-001  1.2800000E-001 0.0
 -1.3600000E-001  1.3600000E-001 0.0
 -1.3600000E-001  1.4400000E-001 0.0
 -1.3600000E-001  1.5200000E-001 0.0
 -1.3600000E-001  1.6000000E-001 0.0
 -1.3600000E-001  1.6800000E-001 0.0
 -1.3600000E-001  1.7600000E-001 0.0
 -1.3600000E-001  1.8400000E-001 0.0
 -1.3600000E-001  1.9200000E-001 0.0
 -1.3600000E-001  2.0000000E-001 0.0
 -1.3600000E-001  2.0800000E-001 0.0
 -1.3600000E-001  2.1600000E-001 0.0
 -1.3600000E-001  2.2400000E-001 0.0
 -1.3600000E-001  2.3200000E-001 0.0
 -1.3600000E-001  2.4000000E-001 0.0
 -1.3600000E-001  2.4800000E-001 0.0
 -1.3600000E-001  2.5600000E-001 0.0
 -1.3600000E-001  2.6400000E-001 0.0
 -1.3600000E-001  2.7200000E-001 0.0
 -1.3600000E-001  2.8000000E-001 0.0
 -1.3600000E-001  2.8800000E-001 0.0
 -1.3600000E-001  2.9600000E-001 0.0
 -1.2800000E-001 -2.1600000E-001 0.0
 -1.2800000E-001 -2.0800000E-001 0.0
 -1.2800000E-001 -2.0000000E-001 0.0
 -1.2800000E-001 -1.9200000E-001 0.0
 -1.2800000E-001 -1.8400000E-001 0.0
 -1.2800000E-001 -1.7600000E-001 0.0
 -1.2800000E-001 -1.6800000E-001 0.0
 -1.2800000E-001 -1.6000000E-001 0.0
 -1.2800000E-001 -1.5200000E-001 0.0
 -1.2800000E-001 -1.4400000E-001 0.0
 -1.2800000E-001 -1.3600000E-001 0.0
 -1.2800000E-001 -1.2800000E-001 0.0
 -1.2800000E-001 -1.2000000E-001 0.0
 -1.2800000E-001 -1.1200000E-001 0.0
 -1.2800000E-001 -1.0400000E-001 0.0
 -1.2800000E-001 -9.6000000E-002 0.0
 -1.2800000E-001 -8.8000000E-002 0.0
 -1.2800000E-001 -8.0000000E-002 0.0
 -1.2800000E-001 -7.2000000E-002 0.0
 -1.2800000E-001 -6.4000000E-002 0.0
 -1.2800000E-001 -5.6000000E-002 0.0
 -1.2800000E-001 -4.8000000E-002 0.0
 -1.2800000E-001 -4.0000000E-002 0.0
 -1.2800000E-001 -3.2000000E-002 0.0
 -1.2800000E-001 -2.4000000E-002 0.0
 -1.2800000E-001 -1.6000000E-002 0.0
 -1.2800000E-001 -8.0000000E-003 0.0
 -1.2800000E-001  0.0000000E+000 0.0
 -1.2800000E-001  8.0000000E-003 0.0
 -1.3600000E-001  8.0000000E-003 0.0
 -1.3600000E-001  7.2000000E-002 0.0
 -1.2800000E-001  7.2000000E-002 0.0
 -1.2800000E-001  8.0000000E-002 0.0
 -1.3600000E-001  8.0000000E-002 0.0
 -1.2800000E-001  8.8000000E-002 0.0
 -1.2800000E-001  9.6000000E-002 0.0
 -1.2800000E-001  1.0400000E-001 0.0
 -1.2800000E-001  1.1200000E-001 0.0
 -1.2800000E-001  1.2000000E-001 0.0
 -1.2800000E-001  1.2800000E-001 0.0
 -1.2800000E-001  1.3600000E-001 0.0
 -1.2800000E-001  1.4400000E-001 0.0
 -1.2800000E-001  1.5200000E-001 0.0
 -1.2800000E-001  1.6000000E-001 0.0
 -1.2800000E-001  1.6800000E-001 0.0
 -1.2800000E-001  1.7600000E-001 0.0
 -1.2800000E-001  1.8400000E-001 0.0
 -1.2800000E-001  1.9200000E-001 0.0
 -1.2800000E-001  2.0000000E-001 0.0
 -1.2800000E-001  2.0800000E-001 0.0
 -1.2800000E-001  2.1600000E-001 0.0
 -1.2800000E-001  2.2400000E-001 0.0
 -1.2800000E-001  2.3200000E-001 0.0
 -1.2800000E-001  2.4000000E-001 0.0
 -1.2800000E-001  2.4800000E-001 0.0
 -1.2800000E-001  2.5600000E-001 0.0
 -1.2800000E-001  2.6400000E-001 0.0
 -1.2800000E-001  2.7200000E-001 0.0
 -1.2800000E-001  2.8000000E-001 0.0
 -1.2800000E-001  2.8800000E-001 0.0
 -1.2000000E-001 -2.0800000E-001 0.0
 -1.2000000E-001 -2.0000000E-001 0.0
 -1.2000000E-001 -1.9200000E-001 0.0
 -1.2000000E-001 -1.8400000E-001 0.0
 -1.2000000E-001 -1.7600000E-001 0.0
 -1.2000000E-001 -1.6800000E-001 0.0
 -1.2000000E-001 -1.6000000E-001 0.0
 -1.2000000E-001 -1.5200000E-001 0.0
 -1.2000000E-001 -1.4400000E-001 0.0
 -1.2000000E-001 -1.3600000E-001 0.0
 -1.2000000E-001 -1.2800000E-001 0.0
 -1.2000000E-001 -1.2000000E-001 0.0
 -1.2000000E-001 -1.1200000E-001 0.0
 -1.2000000E-001 -1.0400000E-001 0.0
 -1.2000000E-001 -9.6000000E-002 0.0
 -1.2000000E-001 -8.8000000E-002 0.0
 -1.2000000E-001 -8.0000000E-002 0.0
 -1.2000000E-001 -7.2000000E-002 0.0
 -1.2000000E-001 -6.4000000E-002 0.0
 -1.2000000E-001 -5.6000000E-002 0.0
 -1.2000000E-001 -4.8000000E-002 0.0
 -1.2000000E-001 -4.0000000E-002 0.0
 -1.2000000E-001 -3.2000000E-002 0.0
 -1.2000000E-001 -2.4000000E-002 0.0
 -1.2000000E-001 -1.6000000E-002 0.0
 -1.2000000E-001 -8.0000000E-003 0.0
 -1.2000000E-001  0.0000000E+000 0.0
 -1.2000000E-001  8.0000000E-003 0.0
 -1.2000000E-001  1.6000000E-002 0.0
 -1.2800000E-001  1.6000000E-002 0.0
 -1.2000000E-001  2.4000000E-002 0.0
 -1.2800000E-001  2.4000000E-002 0.0
 -1.2000000E-001  3.2000000E-002 0.0
 -1.2800000E-001  3.2000000E-002 0.0
 -1.2000000E-001  4.0000000E-002 0.0
 -1.2800000E-001  4.0000000E-002 0.0
 -1.2000000E-001  4.8000000E-002 0.0
 -1.2800000E-001  4.8000000E-002 0.0
 -1.2000000E-001  5.6000000E-002 0.0
 -1.2800000E-001  5.6000000E-002 0.0
 -1.2000000E-001  6.4000000E-002 0.0
 -1.2800000E-001  6.4000000E-002 0.0
 -1.2000000E-001  7.2000000E-002 0.0
 -1.2000000E-001  8.0000000E-002 0.0
 -1.2000000E-001  8.8000000E-002 0.0
 -1.2000000E-001  9.6000000E-002 0.0
 -1.2000000E-001  1.0400000E-001 0.0
 -1.2000000E-001  1.1200000E-001 0.0
 -1.2000000E-001  1.2000000E-001 0.0
 -1.2000000E-001  1.2800000E-001 0.0
 -1.2000000E-001  1.3600000E-001 0.0
 -1.2000000E-001  1.4400000E-001 0.0
 -1.2000000E-001  1.5200000E-001 0.0
 -1.2000000E-001  1.6000000E-001 0.0
 -1.2000000E-001  1.6800000E-001 0.0
 -1.2000000E-001  1.7600000E-001 0.0
 -1.2000000E-001  1.8400000E-001 0.0
 -1.2000000E-001  1.9200000E-001 0.0
 -1.2000000E-001  2.0000000E-001 0.0
 -1.2000000E-001  2.0800000E-001 0.0
 -1.2000000E-001  2.1600000E-001 0.0
 -1.2000000E-001  2.2400000E-001 0.0
 -1.2000000E-001  2.3200000E-001 0.0
 -1.2000000E-001  2.4000000E-001 0.0
 -1.2000000E-001  2.4800000E-001 0.0
 -1.2000000E-001  2.5600000E-001 0.0
 -1.2000000E-001  2.6400000E-001 0.0
 -1.2000000E-001  2.7200000E-001 0.0
 -1.2000000E-001  2.8000000E-001 0.0
 -1.2000000E-001  2.8800000E-001 0.0
 -1.1200000E-001 -2.0000000E-001 0.0
 -1.1200000E-001 -1.9200000E-001 0.0
 -1.1200000E-001 -1.8400000E-001 0.0
 -1.1200000E-001 -1.7600000E-001 0.0
 -1.1200000E-001 -1.6800000E-001 0.0
 -1.1200000E-001 -1.6000000E-001 0.0
 -1.1200000E-001 -1.5200000E-001 0.0
 -1.1200000E-001 -1.4400000E-001 0.0
 -1.1200000E-001 -1.3600000E-001 0.0
 -1.1200000E-001 -1.2800000E-001 0.0
 -1.1200000E-001 -1.2000000E-001 0.0
 -1.1200000E-001 -1.1200000E-001 0.0
 -1.1200000E-001 -1.0400000E-001 0.0
 -1.1200000E-001 -9.6000000E-002 0.0
 -1.1200000E-001 -8.8000000E-002 0.0
 -1.1200000E-001 -8.0000000E-002 0.0
 -1.1200000E-001 -7.2000000E-002 0.0
 -1.1200000E-001 -6.4000000E-002 0.0
 -1.1200000E-001 -5.6000000E-002 0.0
 -1.1200000E-001 -4.8000000E-002 0.0
 -1.1200000E-001 -4.0000000E-002 0.0
 -1.1200000E-001 -3.2000000E-002 0.0
 -1.1200000E-001 -2.4000000E-002 0.0
 -1.1200000E-001 -1.6000000E-002 0.0
 -1.1200000E-001 -8.0000000E-003 0.0
 -1.1200000E-001  0.0000000E+000 0.0
 -1.1200000E-001  8.0000000E-003 0.0
 -1.1200000E-001  1.6000000E-002 0.0
 -1.1200000E-001  2.4000000E-002 0.0
 -1.1200000E-001  3.2000000E-002 0.0
 -1.1200000E-001  4.0000000E-002 0.0
 -1.1200000E-001  4.8000000E-002 0.0
 -1.1200000E-001  5.6000000E-002 0.0
 -1.1200000E-001  6.4000000E-002 0.0
 -1.1200000E-001  7.2000000E-002 0.0
 -1.1200000E-001  8.0000000E-002 0.0
 -1.1200000E-001  8.8000000E-002 0.0
 -1.1200000E-001  9.6000000E-002 0.0
 -1.1200000E-001  1.0400000E-001 0.0
 -1.1200000E-001  1.1200000E-001 0.0
 -1.1200000E-001  1.2000000E-001 0.0
 -1.1200000E-001  1.2800000E-001 0.0
 -1.1200000E-001  1.3600000E-001 0.0
 -1.1200000E-001  1.4400000E-001 0.0
 -1.1200000E-001  1.5200000E-001 0.0
 -1.1200000E-001  1.6000000E-001 0.0
 -1.1200000E-001  1.6800000E-001 0.0
 -1.1200000E-001  1.7600000E-001 0.0
 -1.1200000E-001  1.8400000E-001 0.0
 -1.1200000E-001  1.9200000E-001 0.0
 -1.1200000E-001  2.0000000E-001 0.0
 -1.1200000E-001  2.0800000E-001 0.0
 -1.1200000E-001  2.1600000E-001 0.0
 -1.1200000E-001  2.2400000E-001 0.0
 -1.1200000E-001  2.3200000E-001 0.0
 -1.1200000E-001  2.4000000E-001 0.0
 -1.1200000E-001  2.4800000E-001 0.0
 -1.1200000E-001  2.5600000E-001 0.0
 -1.1200000E-001  2.6400000E-001 0.0
 -1.1200000E-001  2.7200000E-001 0.0
 -1.1200000E-001  2.8000000E-001 0.0
 -1.1200000E-001  2.8800000E-001 0.0
 -1.0400000E-001 -1.9200000E-001 0.0
 -1.0400000E-001 -1.8400000E-001 0.0
 -1.0400000E-001 -1.7600000E-001 0.0
 -1.0400000E-001 -1.6800000E-001 0.0
 -1.0400000E-001 -1.6000000E-001 0.0
 -1.0400000E-001 -1.5200000E-001 0.0
 -1.0400000E-001 -1.4400000E-001 0.0
 -1.0400000E-001 -1.3600000E-001 0.0
 -1.0400000E-001 -1.2800000E-001 0.0
 -1.0400000E-001 -1.2000000E-001 0.0
 -1.0400000E-001 -1.1200000E-001 0.0
 -1.0400000E-001 -1.0400000E-001 0.0
 -1.0400000E-001 -9.6000000E-002 0.0
 -1.0400000E-001 -8.8000000E-002 0.0
 -1.0400000E-001 -8.0000000E-002 0.0
 -1.0400000E-001 -7.2000000E-002 0.0
 -1.0400000E-001 -6.4000000E-002 0.0
 -1.0400000E-001 -5.6000000E-002 0.0
 -1.0400000E-001 -4.8000000E-002 0.0
 -1.0400000E-001 -4.0000000E-002 0.0
 -1.0400000E-001 -3.2000000E-002 0.0
 -1.0400000E-001 -2.4000000E-002 0.0
 -1.0400000E-001 -1.6000000E-002 0.0
 -1.0400000E-001 -8.0000000E-003 0.0
 -1.0400000E-001  0.0000000E+000 0.0
 -1.0400000E-001  8.0000000E-003 0.0
 -1.0400000E-001  1.6000000E-002 0.0
 -1.0400000E-001  2.4000000E-002 0.0
 -1.0400000E-001  3.2000000E-002 0.0
 -1.0400000E-001  4.0000000E-002 0.0
 -1.0400000E-001  4.8000000E-002 0.0
 -1.0400000E-001  5.6000000E-002 0.0
 -1.0400000E-001  6.4000000E-002 0.0
 -1.0400000E-001  7.2000000E-002 0.0
 -1.0400000E-001  8.0000000E-002 0.0
 -1.0400000E-001  8.8000000E-002 0.0
 -1.0400000E-001  9.6000000E-002 0.0
 -1.0400000E-001  1.0400000E-001 0.0
 -1.0400000E-001  1.1200000E-001 0.0
 -1.0400000E-001  1.2000000E-001 0.0
 -1.0400000E-001  1.2800000E-001 0.0
 -1.0400000E-001  1.3600000E-001 0.0
 -1.0400000E-001  1.4400000E-001 0.0
 -1.0400000E-001  1.5200000E-001 0.0
 -1.0400000E-001  1.6000000E-001 0.0
 -1.0400000E-001  1.6800000E-001 0.0
 -1.0400000E-001  1.7600000E-001 0.0
 -1.0400000E-001  1.8400000E-001 0.0
 -1.0400000E-001  1.9200000E-001 0.0
 -1.0400000E-001  2.0000000E-001 0.0
 -1.0400000E-001  2.0800000E-001 0.0
 -1.0400000E-001  2.1600000E-001 0.0
 -1.0400000E-001  2.2400000E-001 0.0
 -1.0400000E-001  2.3200000E-001 0.0
 -1.0400000E-001  2.4000000E-001 0.0
 -1.0400000E-001  2.4800000E-001 0.0
 -1.0400000E-001  2.5600000E-001 0.0
 -1.0400000E-001  2.6400000E-001 0.0
 -1.0400000E-001  2.7200000E-001 0.0
 -1.0400000E-001  2.8000000E-001 0.0
 -9.6000000E-002 -1.8400000E-001 0.0
 -9.6000000E-002 -1.7600000E-001 0.0
 -9.6000000E-002 -1.6800000E-001 0.0
 -9.6000000E-002 -1.6000000E-001 0.0
 -9.6000000E-002 -1.5200000E-001 0.0
 -9.6000000E-002 -1.4400000E-001 0.0
 -9.6000000E-002 -1.3600000E-001 0.0
 -9.6000000E-002 -1.2800000E-001 0.0
 -9.6000000E-002 -1.2000000E-001 0.0
 -9.6000000E-002 -1.1200000E-001 0.0
 -9.6000000E-002 -1.0400000E-001 0.0
 -9.6000000E-002 -9.6000000E-002 0.0
 -9.6000000E-002 -8.8000000E-002 0.0
 -9.6000000E-002 -8.0000000E-002 0.0
 -9.6000000E-002 -7.2000000E-002 0.0
 -9.6000000E-002 -6.4000000E-002 0.0
 -9.6000000E-002 -5.6000000E-002 0.0
 -9.6000000E-002 -4.8000000E-002 0.0
 -9.6000000E-002 -4.0000000E-002 0.0
 -9.6000000E-002 -3.2000000E-002 0.0
 -9.6000000E-002 -2.4000000E-002 0.0
 -9.6000000E-002 -1.6000000E-002 0.0
 -9.6000000E-002 -8.0000000E-003 0.0
 -9.6000000E-002  0.0000000E+000 0.0
 -9.6000000E-002  8.0000000E-003 0.0
 -9.6000000E-002  1.6000000E-002 0.0
 -9.6000000E-002  2.4000000E-002 0.0
 -9.6000000E-002  3.2000000E-002 0.0
 -9.6000000E-002  4.0000000E-002 0.0
 -9.6000000E-002  4.8000000E-002 0.0
 -9.6000000E-002  5.6000000E-002 0.0
 -9.6000000E-002  6.4000000E-002 0.0
 -9.6000000E-002  7.2000000E-002 0.0
 -9.6000000E-002  8.0000000E-002 0.0
 -9.6000000E-002  8.8000000E-002 0.0
 -9.6000000E-002  9.6000000E-002 0.0
 -9.6000000E-002  1.0400000E-001 0.0
 -9.6000000E-002  1.1200000E-001 0.0
 -9.6000000E-002  1.2000000E-001 0.0
 -9.6000000E-002  1.2800000E-001 0.0
 -9.6000000E-002  1.3600000E-001 0.0
 -9.6000000E-002  1.4400000E-001 0.0
 -9.6000000E-002  1.5200000E-001 0.0
 -9.6000000E-002  1.6000000E-001 0.0
 -9.6000000E-002  1.6800000E-001 0.0
 -9.6000000E-002  1.7600000E-001 0.0
 -9.6000000E-002  1.8400000E-001 0.0
 -9.6000000E-002  1.9200000E-001 0.0
 -9.6000000E-002  2.0000000E-001 0.0
 -9.6000000E-002  2.0800000E-001 0.0
 -9.6000000E-002  2.1600000E-001 0.0
 -9.6000000E-002  2.2400000E-001 0.0
 -9.6000000E-002  2.3200000E-001 0.0
 -9.6000000E-002  2.4000000E-001 0.0
 -9.6000000E-002  2.4800000E-001 0.0
 -9.6000000E-002  2.5600000E-001 0.0
 -9.6000000E-002  2.6400000E-001 0.0
 -9.6000000E-002  2.7200000E-001 0.0
 -9.6000000E-002  2.8000000E-001 0.0
 -8.8000000E-002 -1.7600000E-001 0.0
 -8.8000000E-002 -1.6800000E-001 0.0
 -8.8000000E-002 -1.6000000E-001 0.0
 -8.8000000E-002 -1.5200000E-001 0.0
 -8.8000000E-002 -1.4400000E-001 0.0
 -8.8000000E-002 -1.3600000E-001 0.0
 -8.8000000E-002 -1.2800000E-001 0.0
 -8.8000000E-002 -1.2000000E-001 0.0
 -8.8000000E-002 -1.1200000E-001 0.0
 -8.8000000E-002 -1.0400000E-001 0.0
 -8.8000000E-002 -9.6000000E-002 0.0
 -8.8000000E-002 -8.8000000E-002 0.0
 -8.8000000E-002 -8.0000000E-002 0.0
 -8.8000000E-002 -7.2000000E-002 0.0
 -8.8000000E-002 -6.4000000E-002 0.0
 -8.8000000E-002 -5.6000000E-002 0.0
 -8.8000000E-002 -4.8000000E-002 0.0
 -8.8000000E-002 -4.0000000E-002 0.0
 -8.8000000E-002 -3.2000000E-002 0.0
 -8.8000000E-002 -2.4000000E-002 0.0
 -8.8000000E-002 -1.6000000E-002 0.0
 -8.8000000E-002 -8.0000000E-003 0.0
 -8.8000000E-002  0.0000000E+000 0.0
 -8.8000000E-002  8.0000000E-003 0.0
 -8.8000000E-002  1.6000000E-002 0.0
 -8.8000000E-002  2.4000000E-002 0.0
 -8.8000000E-002  3.2000000E-002 0.0
 -8.8000000E-002  4.0000000E-002 0.0
 -8.8000000E-002  4.8000000E-002 0.0
 -8.8000000E-002  5.6000000E-002 0.0
 -8.8000000E-002  6.4000000E-002 0.0
 -8.8000000E-002  7.2000000E-002 0.0
 -8.8000000E-002  8.0000000E-002 0.0
 -8.8000000E-002  8.8000000E-002 0.0
 -8.8000000E-002  9.6000000E-002 0.0
 -8.8000000E-002  1.0400000E-001 0.0
 -8.8000000E-002  1.1200000E-001 0.0
 -8.8000000E-002  1.2000000E-001 0.0
 -8.8000000E-002  1.2800000E-001 0.0
 -8.8000000E-002  1.3600000E-001 0.0
 -8.8000000E-002  1.4400000E-001 0.0
 -8.8000000E-002  1.5200000E-001 0.0
 -8.8000000E-002  1.6000000E-001 0.0
 -8.8000000E-002  1.6800000E-001 0.0
 -8.8000000E-002  1.7600000E-001 0.0
 -8.8000000E-002  1.8400000E-001 0.0
 -8.8000000E-002  1.9200000E-001 0.0
 -8.8000000E-002  2.0000000E-001 0.0
 -8.8000000E-002  2.0800000E-001 0.0
 -8.8000000E-002  2.1600000E-001 0.0
 -8.8000000E-002  2.2400000E-001 0.0
 -8.8000000E-002  2.3200000E-001 0.0
 -8.8000000E-002  2.4000000E-001 0.0
 -8.8000000E-002  2.4800000E-001 0.0
 -8.8000000E-002  2.5600000E-001 0.0
 -8.8000000E-002  2.6400000E-001 0.0
 -8.8000000E-002  2.7200000E-001 0.0
 -8.8000000E-002  2.8000000E-001 0.0
 -8.0000000E-002 -1.7600000E-001 0.0
 -8.0000000E-002 -1.6800000E-001 0.0
 -8.0000000E-002 -1.6000000E-001 0.0
 -8.0000000E-002 -1.5200000E-001 0.0
 -8.0000000E-002 -1.4400000E-001 0.0
 -8.0000000E-002 -1.3600000E-001 0.0
 -8.0000000E-002 -1.2800000E-001 0.0
 -8.0000000E-002 -1.2000000E-001 0.0
 -8.0000000E-002 -1.1200000E-001 0.0
 -8.0000000E-002 -1.0400000E-001 0.0
 -8.0000000E-002 -9.6000000E-002 0.0
 -8.0000000E-002 -8.8000000E-002 0.0
 -8.0000000E-002 -8.0000000E-002 0.0
 -8.0000000E-002 -7.2000000E-002 0.0
 -8.0000000E-002 -6.4000000E-002 0.0
 -8.0000000E-002 -5.6000000E-002 0.0
 -8.0000000E-002 -4.8000000E-002 0.0
 -8.0000000E-002 -4.0000000E-002 0.0
 -8.0000000E-002 -3.2000000E-002 0.0
 -8.0000000E-002 -2.4000000E-002 0.0
 -8.0000000E-002 -1.6000000E-002 0.0
 -8.0000000E-002 -8.0000000E-003 0.0
 -8.0000000E-002  0.0000000E+000 0.0
 -8.0000000E-002  8.0000000E-003 0.0
 -8.0000000E-002  1.6000000E-002 0.0
 -8.0000000E-002  2.4000000E-002 0.0
 -8.0000000E-002  3.2000000E-002 0.0
 -8.0000000E-002  4.0000000E-002 0.0
 -8.0000000E-002  4.8000000E-002 0.0
 -8.0000000E-002  5.6000000E-002 0.0
 -8.0000000E-002  6.4000000E-002 0.0
 -8.0000000E-002  7.2000000E-002 0.0
 -8.0000000E-002  8.0000000E-002 0.0
 -8.0000000E-002  8.8000000E-002 0.0
 -8.0000000E-002  9.6000000E-002 0.0
 -8.0000000E-002  1.0400000E-001 0.0
 -8.0000000E-002  1.1200000E-001 0.0
 -8.0000000E-002  1.2000000E-001 0.0
 -8.0000000E-002  1.2800000E-001 0.0
 -8.0000000E-002  1.3600000E-001 0.0
 -8.0000000E-002  1.4400000E-001 0.0
 -8.0000000E-002  1.5200000E-001 0.0
 -8.0000000E-002  1.6000000E-001 0.0
 -8.0000000E-002  1.6800000E-001 0.0
 -8.0000000E-002  1.7600000E-001 0.0
 -8.0000000E-002  2.0000000E-001 0.0
 -8.0000000E-002  2.0800000E-001 0.0
 -8.0000000E-002  2.1600000E-001 0.0
 -8.0000000E-002  2.2400000E-001 0.0
 -8.0000000E-002  2.3200000E-001 0.0
 -8.0000000E-002  2.4000000E-001 0.0
 -8.0000000E-002  2.4800000E-001 0.0
 -8.0000000E-002  2.5600000E-001 0.0
 -8.0000000E-002  2.6400000E-001 0.0
 -8.0000000E-002  2.7200000E-001 0.0
 -8.0000000E-002  2.8000000E-001 0.0
 -7.2000000E-002 -1.7600000E-001 0.0
 -7.2000000E-002 -1.6800000E-001 0.0
 -7.2000000E-002 -1.6000000E-001 0.0
 -7.2000000E-002 -1.5200000E-001 0.0
 -7.2000000E-002 -1.4400000E-001 0.0
 -7.2000000E-002 -1.3600000E-001 0.0
 -7.2000000E-002 -1.2800000E-001 0.0
 -7.2000000E-002 -1.2000000E-001 0.0
 -7.2000000E-002 -1.1200000E-001 0.0
 -7.2000000E-002 -1.0400000E-001 0.0
 -7.2000000E-002 -9.6000000E-002 0.0
 -7.2000000E-002 -8.8000000E-002 0.0
 -7.2000000E-002 -8.0000000E-002 0.0
 -7.2000000E-002 -7.2000000E-002 0.0
 -7.2000000E-002 -6.4000000E-002 0.0
 -7.2000000E-002 -5.6000000E-002 0.0
 -7.2000000E-002 -4.8000000E-002 0.0
 -7.2000000E-002 -4.0000000E-002 0.0
 -7.2000000E-002 -3.2000000E-002 0.0
 -7.2000000E-002 -2.4000000E-002 0.0
 -7.2000000E-002 -1.6000000E-002 0.0
 -7.2000000E-002 -8.0000000E-003 0.0
 -7.2000000E-002  0.0000000E+000 0.0
 -7.2000000E-002  8.0000000E-003 0.0
 -7.2000000E-002  1.6000000E-002 0.0
 -7.2000000E-002  2.4000000E-002 0.0
 -7.2000000E-002  3.2000000E-002 0.0
 -7.2000000E-002  4.0000000E-002 0.0
 -7.2000000E-002  4.8000000E-002 0.0
 -7.2000000E-002  5.6000000E-002 0.0
 -7.2000000E-002  6.4000000E-002 0.0
 -7.2000000E-002  7.2000000E-002 0.0
 -7.2000000E-002  8.0000000E-002 0.0
 -7.2000000E-002  8.8000000E-002 0.0
 -7.2000000E-002  9.6000000E-002 0.0
 -7.2000000E-002  1.0400000E-001 0.0
 -7.2000000E-002  1.1200000E-001 0.0
 -7.2000000E-002  1.2000000E-001 0.0
 -7.2000000E-002  1.2800000E-001 0.0
 -7.2000000E-002  1.3600000E-001 0.0
 -7.2000000E-002  1.4400000E-001 0.0
 -7.2000000E-002  1.5200000E-001 0.0
 -7.2000000E-002  1.6000000E-001 0.0
 -7.2000000E-002  1.6800000E-001 0.0
 -7.2000000E-002  1.7600000E-001 0.0
 -7.2000000E-002  2.0000000E-001 0.0
 -7.2000000E-002  2.0800000E-001 0.0
 -7.2000000E-002  2.1600000E-001 0.0
 -7.2000000E-002  2.2400000E-001 0.0
 -7.2000000E-002  2.3200000E-001 0.0
 -7.2000000E-002  2.4000000E-001 0.0
 -7.2000000E-002  2.4800000E-001 0.0
 -7.2000000E-002  2.5600000E-001 0.0
 -7.2000000E-002  2.6400000E-001 0.0
 -7.2000000E-002  2.7200000E-001 0.0
 -7.2000000E-002  2.8000000E-001 0.0
 -7.2000000E-002 -1.8400000E-001 0.0
 -6.4000000E-002 -1.8400000E-001 0.0
 -6.4000000E-002 -1.7600000E-001 0.0
 -6.4000000E-002 -1.6800000E-001 0.0
 -6.4000000E-002 -1.6000000E-001 0.0
 -6.4000000E-002 -1.5200000E-001 0.0
 -6.4000000E-002 -1.4400000E-001 0.0
 -6.4000000E-002 -1.3600000E-001 0.0
 -6.4000000E-002 -1.2800000E-001 0.0
 -6.4000000E-002 -1.2000000E-001 0.0
 -6.4000000E-002 -1.1200000E-001 0.0
 -6.4000000E-002 -1.0400000E-001 0.0
 -6.4000000E-002 -9.6000000E-002 0.0
 -6.4000000E-002 -8.8000000E-002 0.0
 -6.4000000E-002 -8.0000000E-002 0.0
 -6.4000000E-002 -7.2000000E-002 0.0
 -6.4000000E-002 -6.4000000E-002 0.0
 -6.4000000E-002 -5.6000000E-002 0.0
 -6.4000000E-002 -4.8000000E-002 0.0
 -6.4000000E-002 -4.0000000E-002 0.0
 -6.4000000E-002 -3.2000000E-002 0.0
 -6.4000000E-002 -2.4000000E-002 0.0
 -6.4000000E-002 -1.6000000E-002 0.0
 -6.4000000E-002 -8.0000000E-003 0.0
 -6.4000000E-002  0.0000000E+000 0.0
 -6.4000000E-002  8.0000000E-003 0.0
 -6.4000000E-002  1.6000000E-002 0.0
 -6.4000000E-002  2.4000000E-002 0.0
 -6.4000000E-002  3.2000000E-002 0.0
 -6.4000000E-002  4.0000000E-002 0.0
 -6.4000000E-002  4.8000000E-002 0.0
 -6.4000000E-002  5.6000000E-002 0.0
 -6.4000000E-002  6.4000000E-002 0.0
 -6.4000000E-002  7.2000000E-002 0.0
 -6.4000000E-002  8.0000000E-002 0.0
 -6.4000000E-002  8.8000000E-002 0.0
 -6.4000000E-002  9.6000000E-002 0.0
 -6.4000000E-002  1.0400000E-001 0.0
 -6.4000000E-002  1.1200000E-001 0.0
 -6.4000000E-002  1.2000000E-001 0.0
 -6.4000000E-002  1.2800000E-001 0.0
 -6.4000000E-002  1.3600000E-001 0.0
 -6.4000000E-002  1.4400000E-001 0.0
 -6.4000000E-002  1.5200000E-001 0.0
 -6.4000000E-002  1.6000000E-001 0.0
 -6.4000000E-002  1.6800000E-001 0.0
 -6.4000000E-002  2.0000000E-001 0.0
 -6.4000000E-002  2.0800000E-001 0.0
 -6.4000000E-002  2.1600000E-001 0.0
 -6.4000000E-002  2.2400000E-001 0.0
 -6.4000000E-002  2.3200000E-001 0.0
 -6.4000000E-002  2.4000000E-001 0.0
 -6.4000000E-002  2.4800000E-001 0.0
 -6.4000000E-002  2.5600000E-001 0.0
 -6.4000000E-002  2.6400000E-001 0.0
 -6.4000000E-002  2.7200000E-001 0.0
 -6.4000000E-002  2.8000000E-001 0.0
 -5.6000000E-002 -1.8400000E-001 0.0
 -5.6000000E-002 -1.7600000E-001 0.0
 -5.6000000E-002 -1.6800000E-001 0.0
 -5.6000000E-002 -1.6000000E-001 0.0
 -5.6000000E-002 -1.5200000E-001 0.0
 -5.6000000E-002 -1.4400000E-001 0.0
 -5.6000000E-002 -1.3600000E-001 0.0
 -5.6000000E-002 -1.2800000E-001 0.0
 -5.6000000E-002 -1.2000000E-001 0.0
 -5.6000000E-002 -1.1200000E-001 0.0
 -5.6000000E-002 -1.0400000E-001 0.0
 -5.6000000E-002 -9.6000000E-002 0.0
 -5.6000000E-002 -8.8000000E-002 0.0
 -5.6000000E-002 -8.0000000E-002 0.0
 -5.6000000E-002 -7.2000000E-002 0.0
 -5.6000000E-002 -6.4000000E-002 0.0
 -5.6000000E-002 -5.6000000E-002 0.0
 -5.6000000E-002 -4.8000000E-002 0.0
 -5.6000000E-002 -4.0000000E-002 0.0
 -5.6000000E-002 -3.2000000E-002 0.0
 -5.6000000E-002 -2.4000000E-002 0.0
 -5.6000000E-002 -1.6000000E-002 0.0
 -5.6000000E-002 -8.0000000E-003 0.0
 -5.6000000E-002  0.0000000E+000 0.0
 -5.6000000E-002  8.0000000E-003 0.0
 -5.6000000E-002  1.6000000E-002 0.0
 -5.6000000E-002  2.4000000E-002 0.0
 -5.6000000E-002  3.2000000E-002 0.0
 -5.6000000E-002  4.0000000E-002 0.0
 -5.6000000E-002  4.8000000E-002 0.0
 -5.6000000E-002  5.6000000E-002 0.0
 -5.6000000E-002  6.4000000E-002 0.0
 -5.6000000E-002  7.2000000E-002 0.0
 -5.6000000E-002  8.0000000E-002 0.0
 -5.6000000E-002  8.8000000E-002 0.0
 -5.6000000E-002  9.6000000E-002 0.0
 -5.6000000E-002  1.0400000E-001 0.0
 -5.6000000E-002  1.1200000E-001 0.0
 -5.6000000E-002  1.2000000E-001 0.0
 -5.6000000E-002  1.2800000E-001 0.0
 -5.6000000E-002  1.3600000E-001 0.0
 -5.6000000E-002  1.4400000E-001 0.0
 -5.6000000E-002  1.5200000E-001 0.0
 -5.6000000E-002  1.6000000E-001 0.0
 -5.6000000E-002  2.0000000E-001 0.0
 -5.6000000E-002  2.0800000E-001 0.0
 -5.6000000E-002  2.1600000E-001 0.0
 -5.6000000E-002  2.2400000E-001 0.0
 -5.6000000E-002  2.3200000E-001 0.0
 -5.6000000E-002  2.4000000E-001 0.0
 -5.6000000E-002  2.4800000E-001 0.0
 -5.6000000E-002  2.5600000E-001 0.0
 -5.6000000E-002  2.6400000E-001 0.0
 -5.6000000E-002  2.7200000E-001 0.0
 -5.6000000E-002  2.8000000E-001 0.0
 -4.8000000E-002 -1.8400000E-001 0.0
 -4.8000000E-002 -1.7600000E-001 0.0
 -4.8000000E-002 -1.6800000E-001 0.0
 -4.8000000E-002 -1.6000000E-001 0.0
 -4.8000000E-002 -1.5200000E-001 0.0
 -4.8000000E-002 -1.4400000E-001 0.0
 -4.8000000E-002 -1.3600000E-001 0.0
 -4.8000000E-002 -1.2800000E-001 0.0
 -4.8000000E-002 -1.2000000E-001 0.0
 -4.8000000E-002 -1.1200000E-001 0.0
 -4.8000000E-002 -1.0400000E-001 0.0
 -4.8000000E-002 -9.6000000E-002 0.0
 -4.8000000E-002 -8.8000000E-002 0.0
 -4.8000000E-002 -8.0000000E-002 0.0
 -4.8000000E-002 -7.2000000E-002 0.0
 -4.8000000E-002 -6.4000000E-002 0.0
 -4.8000000E-002 -5.6000000E-002 0.0
 -4.8000000E-002 -4.8000000E-002 0.0
 -4.8000000E-002 -4.0000000E-002 0.0
 -4.8000000E-002 -3.2000000E-002 0.0
 -4.8000000E-002 -2.4000000E-002 0.0
 -4.8000000E-002 -1.6000000E-002 0.0
 -4.8000000E-002 -8.0000000E-003 0.0
 -4.8000000E-002  0.0000000E+000 0.0
 -4.8000000E-002  8.0000000E-003 0.0
 -4.8000000E-002  1.6000000E-002 0.0
 -4.8000000E-002  2.4000000E-002 0.0
 -4.8000000E-002  3.2000000E-002 0.0
 -4.8000000E-002  4.0000000E-002 0.0
 -4.8000000E-002  4.8000000E-002 0.0
 -4.8000000E-002  5.6000000E-002 0.0
 -4.8000000E-002  6.4000000E-002 0.0
 -4.8000000E-002  7.2000000E-002 0.0
 -4.8000000E-002  8.0000000E-002 0.0
 -4.8000000E-002  8.8000000E-002 0.0
 -4.8000000E-002  9.6000000E-002 0.0
 -4.8000000E-002  1.0400000E-001 0.0
 -4.8000000E-002  1.1200000E-001 0.0
 -4.8000000E-002  1.2000000E-001 0.0
 -4.8000000E-002  1.2800000E-001 0.0
 -4.8000000E-002  1.3600000E-001 0.0
 -4.8000000E-002  1.4400000E-001 0.0
 -4.8000000E-002  1.5200000E-001 0.0
 -4.8000000E-002  2.0000000E-001 0.0
 -4.8000000E-002  2.0800000E-001 0.0
 -4.8000000E-002  2.1600000E-001 0.0
 -4.8000000E-002  2.2400000E-001 0.0
 -4.8000000E-002  2.3200000E-001 0.0
 -4.8000000E-002  2.4000000E-001 0.0
 -4.8000000E-002  2.4800000E-001 0.0
 -4.8000000E-002  2.5600000E-001 0.0
 -4.8000000E-002  2.6400000E-001 0.0
 -4.8000000E-002  2.7200000E-001 0.0
 -4.8000000E-002  2.8000000E-001 0.0
 -4.0000000E-002 -1.8400000E-001 0.0
 -4.0000000E-002 -1.7600000E-001 0.0
 -4.0000000E-002 -1.6800000E-001 0.0
 -4.0000000E-002 -1.6000000E-001 0.0
 -4.0000000E-002 -1.5200000E-001 0.0
 -4.0000000E-002 -1.4400000E-001 0.0
 -4.0000000E-002 -1.3600000E-001 0.0
 -4.0000000E-002 -1.2800000E-001 0.0
 -4.0000000E-002 -1.2000000E-001 0.0
 -4.0000000E-002 -1.1200000E-001 0.0
 -4.0000000E-002 -1.0400000E-001 0.0
 -4.0000000E-002 -9.6000000E-002 0.0
 -4.0000000E-002 -8.8000000E-002 0.0
 -4.0000000E-002 -8.0000000E-002 0.0
 -4.0000000E-002 -7.2000000E-002 0.0
 -4.0000000E-002 -6.4000000E-002 0.0
 -4.0000000E-002 -5.6000000E-002 0.0
 -4.0000000E-002 -4.8000000E-002 0.0
 -4.0000000E-002 -4.0000000E-002 0.0
 -4.0000000E-002 -3.2000000E-002 0.0
 -4.0000000E-002 -2.4000000E-002 0.0
 -4.0000000E-002 -1.6000000E-002 0.0
 -4.0000000E-002 -8.0000000E-003 0.0
 -4.0000000E-002  0.0000000E+000 0.0
 -4.0000000E-002  8.0000000E-003 0.0
 -4.0000000E-002  1.6000000E-002 0.0
 -4.0000000E-002  2.4000000E-002 0.0
 -4.0000000E-002  3.2000000E-002 0.0
 -4.0000000E-002  4.0000000E-002 0.0
 -4.0000000E-002  4.8000000E-002 0.0
 -4.0000000E-002  5.6000000E-002 0.0
 -4.0000000E-002  6.4000000E-002 0.0
 -4.0000000E-002  7.2000000E-002 0.0
 -4.0000000E-002  8.0000000E-002 0.0
 -4.0000000E-002  8.8000000E-002 0.0
 -4.0000000E-002  9.6000000E-002 0.0
 -4.0000000E-002  1.0400000E-001 0.0
 -4.0000000E-002  1.1200000E-001 0.0
 -4.0000000E-002  1.2000000E-001 0.0
 -4.0000000E-002  1.2800000E-001 0.0
 -4.0000000E-002  1.3600000E-001 0.0
 -4.0000000E-002  2.0000000E-001 0.0
 -4.0000000E-002  2.0800000E-001 0.0
 -4.0000000E-002  2.1600000E-001 0.0
 -4.0000000E-002  2.2400000E-001 0.0
 -4.0000000E-002  2.3200000E-001 0.0
 -4.0000000E-002  2.4000000E-001 0.0
 -4.0000000E-002  2.4800000E-001 0.0
 -4.0000000E-002  2.5600000E-001 0.0
 -4.0000000E-002  2.6400000E-001 0.0
 -4.0000000E-002  2.7200000E-001 0.0
 -4.0000000E-002  2.8000000E-001 0.0
 -3.2000000E-002 -1.8400000E-001 0.0
 -3.2000000E-002 -1.7600000E-001 0.0
 -3.2000000E-002 -1.6800000E-001 0.0
 -3.2000000E-002 -1.6000000E-001 0.0
 -3.2000000E-002 -1.5200000E-001 0.0
 -3.2000000E-002 -1.4400000E-001 0.0
 -3.2000000E-002 -1.3600000E-001 0.0
 -3.2000000E-002 -1.2800000E-001 0.0
 -3.2000000E-002 -1.2000000E-001 0.0
 -3.2000000E-002 -1.1200000E-001 0.0
 -3.2000000E-002 -1.0400000E-001 0.0
 -3.2000000E-002 -9.6000000E-002 0.0
 -3.2000000E-002 -8.8000000E-002 0.0
 -3.2000000E-002 -8.0000000E-002 0.0
 -3.2000000E-002 -7.2000000E-002 0.0
 -3.2000000E-002 -6.4000000E-002 0.0
 -3.2000000E-002 -5.6000000E-002 0.0
 -3.2000000E-002 -4.8000000E-002 0.0
 -3.2000000E-002 -4.0000000E-002 0.0
 -3.2000000E-002 -3.2000000E-002 0.0
 -3.2000000E-002 -2.4000000E-002 0.0
 -3.2000000E-002 -1.6000000E-002 0.0
 -3.2000000E-002  4.0000000E-002 0.0
 -3.2000000E-002  4.8000000E-002 0.0
 -3.2000000E-002  5.6000000E-002 0.0
 -3.2000000E-002  6.4000000E-002 0.0
 -3.2000000E-002  7.2000000E-002 0.0
 -3.2000000E-002  8.0000000E-002 0.0
 -3.2000000E-002  8.8000000E-002 0.0
 -3.2000000E-002  9.6000000E-002 0.0
 -3.2000000E-002  1.0400000E-001 0.0
 -3.2000000E-002  1.1200000E-001 0.0
 -3.2000000E-002  1.2000000E-001 0.0
 -3.2000000E-002  1.2800000E-001 0.0
 -4.0000000E-002  1.9200000E-001 0.0
 -3.2000000E-002  1.9200000E-001 0.0
 -3.2000000E-002  2.0000000E-001 0.0
 -3.2000000E-002  2.0800000E-001 0.0
 -3.2000000E-002  2.1600000E-001 0.0
 -3.2000000E-002  2.2400000E-001 0.0
 -3.2000000E-002  2.3200000E-001 0.0
 -3.2000000E-002  2.4000000E-001 0.0
 -3.2000000E-002  2.4800000E-001 0.0
 -3.2000000E-002  2.5600000E-001 0.0
 -3.2000000E-002  2.6400000E-001 0.0
 -3.2000000E-002  2.7200000E-001 0.0
 -3.2000000E-002  2.8000000E-001 0.0
 -2.4000000E-002 -1.8400000E-001 0.0
 -2.4000000E-002 -1.7600000E-001 0.0
 -2.4000000E-002 -1.6800000E-001 0.0
 -2.4000000E-002 -1.6000000E-001 0.0
 -2.4000000E-002 -1.5200000E-001 0.0
 -2.4000000E-002 -1.4400000E-001 0.0
 -2.4000000E-002 -1.3600000E-001 0.0
 -2.4000000E-002 -1.2800000E-001 0.0
 -2.4000000E-002 -1.2000000E-001 0.0
 -2.4000000E-002 -1.1200000E-001 0.0
 -2.4000000E-002 -1.0400000E-001 0.0
 -2.4000000E-002 -9.6000000E-002 0.0
 -2.4000000E-002 -8.8000000E-002 0.0
 -2.4000000E-002 -8.0000000E-002 0.0
 -2.4000000E-002 -7.2000000E-002 0.0
 -2.4000000E-002 -6.4000000E-002 0.0
 -2.4000000E-002 -5.6000000E-002 0.0
 -2.4000000E-002 -4.8000000E-002 0.0
 -2.4000000E-002 -4.0000000E-002 0.0
 -2.4000000E-002 -3.2000000E-002 0.0
 -2.4000000E-002 -2.4000000E-002 0.0
 -2.4000000E-002  1.9200000E-001 0.0
 -2.4000000E-002  2.0000000E-001 0.0
 -2.4000000E-002  2.0800000E-001 0.0
 -2.4000000E-002  2.1600000E-001 0.0
 -2.4000000E-002  2.2400000E-001 0.0
 -2.4000000E-002  2.3200000E-001 0.0
 -2.4000000E-002  2.4000000E-001 0.0
 -2.4000000E-002  2.4800000E-001 0.0
 -2.4000000E-002  2.5600000E-001 0.0
 -2.4000000E-002  2.6400000E-001 0.0
 -2.4000000E-002  2.7200000E-001 0.0
 -2.4000000E-002  2.8000000E-001 0.0
 -1.6000000E-002 -1.8400000E-001 0.0
 -1.6000000E-002 -1.7600000E-001 0.0
 -1.6000000E-002 -1.6800000E-001 0.0
 -1.6000000E-002 -1.6000000E-001 0.0
 -1.6000000E-002 -1.5200000E-001 0.0
 -1.6000000E-002 -1.4400000E-001 0.0
 -1.6000000E-002 -1.3600000E-001 0.0
 -1.6000000E-002 -1.2800000E-001 0.0
 -1.6000000E-002 -1.2000000E-001 0.0
 -1.6000000E-002 -1.1200000E-001 0.0
 -1.6000000E-002 -1.0400000E-001 0.0
 -1.6000000E-002 -9.6000000E-002 0.0
 -1.6000000E-002 -8.8000000E-002 0.0
 -1.6000000E-002 -8.0000000E-002 0.0
 -1.6000000E-002 -7.2000000E-002 0.0
 -1.6000000E-002 -6.4000000E-002 0.0
 -1.6000000E-002 -5.6000000E-002 0.0
 -1.6000000E-002 -4.8000000E-002 0.0
 -1.6000000E-002 -4.0000000E-002 0.0
 -1.6000000E-002  1.9200000E-001 0.0
 -1.6000000E-002  2.0000000E-001 0.0
 -1.6000000E-002  2.0800000E-001 0.0
 -1.6000000E-002  2.1600000E-001 0.0
 -1.6000000E-002  2.2400000E-001 0.0
 -1.6000000E-002  2.3200000E-001 0.0
 -1.6000000E-002  2.4000000E-001 0.0
 -1.6000000E-002  2.4800000E-001 0.0
 -1.6000000E-002  2.5600000E-001 0.0
 -1.6000000E-002  2.6400000E-001 0.0
 -1.6000000E-002  2.7200000E-001 0.0
 -1.6000000E-002  2.8000000E-001 0.0
 -8.0000000E-003 -1.8400000E-001 0.0
 -8.0000000E-003 -1.7600000E-001 0.0
 -8.0000000E-003 -1.6800000E-001 0.0
 -8.0000000E-003 -1.6000000E-001 0.0
 -8.0000000E-003 -1.5200000E-001 0.0
 -8.0000000E-003 -1.4400000E-001 0.0
 -8.0000000E-003 -1.3600000E-001 0.0
 -8.0000000E-003 -1.2800000E-001 0.0
 -8.0000000E-003 -1.2000000E-001 0.0
 -8.0000000E-003 -1.1200000E-001 0.0
 -8.0000000E-003 -1.0400000E-001 0.0
 -8.0000000E-003 -9.6000000E-002 0.0
 -8.0000000E-003 -8.8000000E-002 0.0
 -8.0000000E-003 -8.0000000E-002 0.0
 -8.0000000E-003 -7.2000000E-002 0.0
 -8.0000000E-003 -6.4000000E-002 0.0
 -8.0000000E-003 -5.6000000E-002 0.0
 -8.0000000E-003 -4.8000000E-002 0.0
 -8.0000000E-003  1.9200000E-001 0.0
 -8.0000000E-003  2.0000000E-001 0.0
 -8.0000000E-003  2.0800000E-001 0.0
 -8.0000000E-003  2.1600000E-001 0.0
 -8.0000000E-003  2.2400000E-001 0.0
 -8.0000000E-003  2.3200000E-001 0.0
 -8.0000000E-003  2.4000000E-001 0.0
 -8.0000000E-003  2.4800000E-001 0.0
 -8.0000000E-003  2.5600000E-001 0.0
 -8.0000000E-003  2.6400000E-001 0.0
 -8.0000000E-003  2.7200000E-001 0.0
 -8.0000000E-003  2.8000000E-001 0.0
  0.0000000E+000 -1.7600000E-001 0.0
  0.0000000E+000 -1.6800000E-001 0.0
  0.0000000E+000 -1.6000000E-001 0.0
  0.0000000E+000 -1.5200000E-001 0.0
  0.0000000E+000 -1.4400000E-001 0.0
  0.0000000E+000 -1.3600000E-001 0.0
  0.0000000E+000 -1.2800000E-001 0.0
  0.0000000E+000 -1.2000000E-001 0.0
  0.0000000E+000 -1.1200000E-001 0.0
  0.0000000E+000 -1.0400000E-001 0.0
  0.0000000E+000 -9.6000000E-002 0.0
  0.0000000E+000 -8.8000000E-002 0.0
  0.0000000E+000 -8.0000000E-002 0.0
  0.0000000E+000 -7.2000000E-002 0.0
  0.0000000E+000 -6.4000000E-002 0.0
  0.0000000E+000 -5.6000000E-002 0.0
 -8.0000000E-003  1.8400000E-001 0.0
  0.0000000E+000  1.8400000E-001 0.0
  0.0000000E+000  1.9200000E-001 0.0
  0.0000000E+000  2.0000000E-001 0.0
  0.0000000E+000  2.0800000E-001 0.0
  0.0000000E+000  2.1600000E-001 0.0
  0.0000000E+000  2.2400000E-001 0.0
  0.0000000E+000  2.3200000E-001 0.0
  0.0000000E+000  2.4000000E-001 0.0
  0.0000000E+000  2.4800000E-001 0.0
  0.0000000E+000  2.5600000E-001 0.0
  0.0000000E+000  2.6400000E-001 0.0
  0.0000000E+000  2.7200000E-001 0.0
  0.0000000E+000  2.8000000E-001 0.0
  8.0000000E-003 -1.7600000E-001 0.0
  8.0000000E-003 -1.6800000E-001 0.0
  8.0000000E-003 -1.6000000E-001 0.0
  8.0000000E-003 -1.5200000E-001 0.0
  8.0000000E-003 -1.4400000E-001 0.0
  8.0000000E-003 -1.3600000E-001 0.0
  8.0000000E-003 -1.2800000E-001 0.0
  8.0000000E-003 -1.2000000E-001 0.0
  8.0000000E-003 -1.1200000E-001 0.0
  8.0000000E-003 -1.0400000E-001 0.0
  8.0000000E-003 -9.6000000E-002 0.0
  8.0000000E-003 -8.8000000E-002 0.0
  8.0000000E-003 -8.0000000E-002 0.0
  8.0000000E-003 -7.2000000E-002 0.0
  8.0000000E-003  1.8400000E-001 0.0
  8.0000000E-003  1.9200000E-001 0.0
  8.0000000E-003  2.0000000E-001 0.0
  8.0000000E-003  2.0800000E-001 0.0
  8.0000000E-003  2.1600000E-001 0.0
  8.0000000E-003  2.2400000E-001 0.0
  8.0000000E-003  2.3200000E-001 0.0
  8.0000000E-003  2.4000000E-001 0.0
  8.0000000E-003  2.4800000E-001 0.0
  8.0000000E-003  2.5600000E-001 0.0
  8.0000000E-003  2.6400000E-001 0.0
  8.0000000E-003  2.7200000E-001 0.0
  1.6000000E-002 -1.7600000E-001 0.0
  1.6000000E-002 -1.6800000E-001 0.0
  1.6000000E-002 -1.6000000E-001 0.0
  1.6000000E-002 -1.5200000E-001 0.0
  1.6000000E-002 -1.4400000E-001 0.0
  1.6000000E-002 -1.3600000E-001 0.0
  1.6000000E-002 -1.2800000E-001 0.0
  1.6000000E-002 -1.2000000E-001 0.0
  1.6000000E-002 -1.1200000E-001 0.0
  1.6000000E-002 -1.0400000E-001 0.0
  1.6000000E-002 -9.6000000E-002 0.0
  1.6000000E-002 -8.8000000E-002 0.0
  1.6000000E-002 -8.0000000E-002 0.0
  1.6000000E-002  1.8400000E-001 0.0
  1.6000000E-002  1.9200000E-001 0.0
  1.6000000E-002  2.0000000E-001 0.0
  1.6000000E-002  2.0800000E-001 0.0
  1.6000000E-002  2.1600000E-001 0.0
  1.6000000E-002  2.2400000E-001 0.0
  1.6000000E-002  2.3200000E-001 0.0
  1.6000000E-002  2.4000000E-001 0.0
  1.6000000E-002  2.4800000E-001 0.0
  1.6000000E-002  2.5600000E-001 0.0
  1.6000000E-002  2.6400000E-001 0.0
  1.6000000E-002  2.7200000E-001 0.0
  2.4000000E-002 -1.7600000E-001 0.0
  2.4000000E-002 -1.6800000E-001 0.0
  2.4000000E-002 -1.6000000E-001 0.0
  2.4000000E-002 -1.5200000E-001 0.0
  2.4000000E-002 -1.4400000E-001 0.0
  2.4000000E-002 -1.3600000E-001 0.0
  2.4000000E-002 -1.2800000E-001 0.0
  2.4000000E-002 -1.2000000E-001 0.0
  2.4000000E-002 -1.1200000E-001 0.0
  2.4000000E-002 -1.0400000E-001 0.0
  2.4000000E-002 -9.6000000E-002 0.0
  2.4000000E-002 -8.8000000E-002 0.0
  2.4000000E-002  1.8400000E-001 0.0
  2.4000000E-002  1.9200000E-001 0.0
  2.4000000E-002  2.0000000E-001 0.0
  2.4000000E-002  2.0800000E-001 0.0
  2.4000000E-002  2.1600000E-001 0.0
  2.4000000E-002  2.2400000E-001 0.0
  2.4000000E-002  2.3200000E-001 0.0
  2.4000000E-002  2.4000000E-001 0.0
  2.4000000E-002  2.4800000E-001 0.0
  2.4000000E-002  2.5600000E-001 0.0
  2.4000000E-002  2.6400000E-001 0.0
  2.4000000E-002  2.7200000E-001 0.0
  3.2000000E-002 -1.7600000E-001 0.0
  3.2000000E-002 -1.6800000E-001 0.0
  3.2000000E-002 -1.6000000E-001 0.0
  3.2000000E-002 -1.5200000E-001 0.0
  3.2000000E-002 -1.4400000E-001 0.0
  3.2000000E-002 -1.3600000E-001 0.0
  3.2000000E-002 -1.2800000E-001 0.0
  3.2000000E-002 -1.2000000E-001 0.0
  3.2000000E-002 -1.1200000E-001 0.0
  3.2000000E-002 -1.0400000E-001 0.0
  3.2000000E-002 -9.6000000E-002 0.0
  3.2000000E-002  1.8400000E-001 0.0
  3.2000000E-002  1.9200000E-001 0.0
  3.2000000E-002  2.0000000E-001 0.0
  3.2000000E-002  2.0800000E-001 0.0
  3.2000000E-002  2.1600000E-001 0.0
  3.2000000E-002  2.2400000E-001 0.0
  3.2000000E-002  2.3200000E-001 0.0
  3.2000000E-002  2.4000000E-001 0.0
  3.2000000E-002  2.4800000E-001 0.0
  3.2000000E-002  2.5600000E-001 0.0
  3.2000000E-002  2.6400000E-001 0.0
  3.2000000E-002  2.7200000E-001 0.0
  4.0000000E-002 -1.7600000E-001 0.0
  4.0000000E-002 -1.6800000E-001 0.0
  4.0000000E-002 -1.6000000E-001 0.0
  4.0000000E-002 -1.5200000E-001 0.0
  4.0000000E-002 -1.4400000E-001 0.0
  4.0000000E-002 -1.3600000E-001 0.0
  4.0000000E-002 -1.2800000E-001 0.0
  4.0000000E-002 -1.2000000E-001 0.0
  4.0000000E-002 -1.1200000E-001 0.0
  4.0000000E-002 -1.0400000E-001 0.0
  4.0000000E-002 -9.6000000E-002 0.0
  4.0000000E-002  1.8400000E-001 0.0
  4.0000000E-002  1.9200000E-001 0.0
  4.0000000E-002  2.0000000E-001 0.0
  4.0000000E-002  2.0800000E-001 0.0
  4.0000000E-002  2.1600000E-001 0.0
  4.0000000E-002  2.2400000E-001 0.0
  4.0000000E-002  2.3200000E-001 0.0
  4.0000000E-002  2.4000000E-001 0.0
  4.0000000E-002  2.4800000E-001 0.0
  4.0000000E-002  2.5600000E-001 0.0
  4.0000000E-002  2.6400000E-001 0.0
  4.0000000E-002  2.7200000E-001 0.0
  4.0000000E-002 -1.8400000E-001 0.0
  4.8000000E-002 -1.8400000E-001 0.0
  4.8000000E-002 -1.7600000E-001 0.0
  4.8000000E-002 -1.6800000E-001 0.0
  4.8000000E-002 -1.6000000E-001 0.0
  4.8000000E-002 -1.5200000E-001 0.0
  4.8000000E-002 -1.4400000E-001 0.0
  4.8000000E-002 -1.3600000E-001 0.0
  4.8000000E-002 -1.2800000E-001 0.0
  4.8000000E-002 -1.2000000E-001 0.0
  4.8000000E-002 -1.1200000E-001 0.0
  4.8000000E-002 -1.0400000E-001 0.0
  4.8000000E-002 -9.6000000E-002 0.0
  4.0000000E-002  1.7600000E-001 0.0
  4.8000000E-002  1.7600000E-001 0.0
  4.8000000E-002  1.8400000E-001 0.0
  4.8000000E-002  1.9200000E-001 0.0
  4.8000000E-002  2.0000000E-001 0.0
  4.8000000E-002  2.0800000E-001 0.0
  4.8000000E-002  2.1600000E-001 0.0
  4.8000000E-002  2.2400000E-001 0.0
  4.8000000E-002  2.3200000E-001 0.0
  4.8000000E-002  2.4000000E-001 0.0
  4.8000000E-002  2.4800000E-001 0.0
  4.8000000E-002  2.5600000E-001 0.0
  4.8000000E-002  2.6400000E-001 0.0
  4.8000000E-002  2.7200000E-001 0.0
  5.6000000E-002 -1.8400000E-001 0.0
  5.6000000E-002 -1.7600000E-001 0.0
  5.6000000E-002 -1.6800000E-001 0.0
  5.6000000E-002 -1.6000000E-001 0.0
  5.6000000E-002 -1.5200000E-001 0.0
  5.6000000E-002 -1.4400000E-001 0.0
  5.6000000E-002 -1.3600000E-001 0.0
  5.6000000E-002 -1.2800000E-001 0.0
  5.6000000E-002 -1.2000000E-001 0.0
  5.6000000E-002 -1.1200000E-001 0.0
  5.6000000E-002 -1.0400000E-001 0.0
  5.6000000E-002 -9.6000000E-002 0.0
  5.6000000E-002  1.7600000E-001 0.0
  5.6000000E-002  1.8400000E-001 0.0
  5.6000000E-002  1.9200000E-001 0.0
  5.6000000E-002  2.0000000E-001 0.0
  5.6000000E-002  2.0800000E-001 0.0
  5.6000000E-002  2.1600000E-001 0.0
  5.6000000E-002  2.2400000E-001 0.0
  5.6000000E-002  2.3200000E-001 0.0
  5.6000000E-002  2.4000000E-001 0.0
  5.6000000E-002  2.4800000E-001 0.0
  5.6000000E-002  2.5600000E-001 0.0
  5.6000000E-002  2.6400000E-001 0.0
  5.6000000E-002  2.7200000E-001 0.0
  6.4000000E-002 -1.8400000E-001 0.0
  6.4000000E-002 -1.7600000E-001 0.0
  6.4000000E-002 -1.6800000E-001 0.0
  6.4000000E-002 -1.6000000E-001 0.0
  6.4000000E-002 -1.5200000E-001 0.0
  6.4000000E-002 -1.4400000E-001 0.0
  6.4000000E-002 -1.3600000E-001 0.0
  6.4000000E-002 -1.2800000E-001 0.0
  6.4000000E-002 -1.2000000E-001 0.0
  6.4000000E-002 -1.1200000E-001 0.0
  6.4000000E-002 -1.0400000E-001 0.0
  6.4000000E-002 -9.6000000E-002 0.0
  6.4000000E-002  1.7600000E-001 0.0
  6.4000000E-002  1.8400000E-001 0.0
  6.4000000E-002  1.9200000E-001 0.0
  6.4000000E-002  2.0000000E-001 0.0
  6.4000000E-002  2.0800000E-001 0.0
  6.4000000E-002  2.1600000E-001 0.0
  6.4000000E-002  2.2400000E-001 0.0
  6.4000000E-002  2.3200000E-001 0.0
  6.4000000E-002  2.4000000E-001 0.0
  6.4000000E-002  2.4800000E-001 0.0
  6.4000000E-002  2.5600000E-001 0.0
  6.4000000E-002  2.6400000E-001 0.0
  6.4000000E-002  2.7200000E-001 0.0
  7.2000000E-002 -1.7600000E-001 0.0
  7.2000000E-002 -1.6800000E-001 0.0
  7.2000000E-002 -1.6000000E-001 0.0
  7.2000000E-002 -1.5200000E-001 0.0
  7.2000000E-002 -1.4400000E-001 0.0
  7.2000000E-002 -1.3600000E-001 0.0
  7.2000000E-002 -1.2800000E-001 0.0
  7.2000000E-002 -1.2000000E-001 0.0
  7.2000000E-002 -1.1200000E-001 0.0
  7.2000000E-002 -1.0400000E-001 0.0
  7.2000000E-002  1.7600000E-001 0.0
  7.2000000E-002  1.8400000E-001 0.0
  7.2000000E-002  1.9200000E-001 0.0
  7.2000000E-002  2.0000000E-001 0.0
  7.2000000E-002  2.0800000E-001 0.0
  7.2000000E-002  2.1600000E-001 0.0
  7.2000000E-002  2.2400000E-001 0.0
  7.2000000E-002  2.3200000E-001 0.0
  7.2000000E-002  2.4000000E-001 0.0
  7.2000000E-002  2.4800000E-001 0.0
  7.2000000E-002  2.5600000E-001 0.0
  7.2000000E-002  2.6400000E-001 0.0
  7.2000000E-002  2.7200000E-001 0.0
  8.0000000E-002 -1.7600000E-001 0.0
  8.0000000E-002 -1.6800000E-001 0.0
  8.0000000E-002 -1.6000000E-001 0.0
  8.0000000E-002 -1.5200000E-001 0.0
  8.0000000E-002 -1.4400000E-001 0.0
  8.0000000E-002 -1.3600000E-001 0.0
  8.0000000E-002 -1.2800000E-001 0.0
  8.0000000E-002 -1.2000000E-001 0.0
  8.0000000E-002 -1.1200000E-001 0.0
  8.0000000E-002 -1.0400000E-001 0.0
  8.0000000E-002  1.7600000E-001 0.0
  8.0000000E-002  1.8400000E-001 0.0
  8.0000000E-002  1.9200000E-001 0.0
  8.0000000E-002  2.0000000E-001 0.0
  8.0000000E-002  2.0800000E-001 0.0
  8.0000000E-002  2.1600000E-001 0.0
  8.0000000E-002  2.2400000E-001 0.0
  8.0000000E-002  2.3200000E-001 0.0
  8.0000000E-002  2.4000000E-001 0.0
  8.0000000E-002  2.4800000E-001 0.0
  8.0000000E-002  2.5600000E-001 0.0
  8.0000000E-002  2.6400000E-001 0.0
  8.0000000E-002  2.7200000E-001 0.0
  8.8000000E-002 -1.7600000E-001 0.0
  8.8000000E-002 -1.6800000E-001 0.0
  8.8000000E-002 -1.6000000E-001 0.0
  8.8000000E-002 -1.5200000E-001 0.0
  8.8000000E-002 -1.4400000E-001 0.0
  8.8000000E-002 -1.3600000E-001 0.0
  8.8000000E-002 -1.2800000E-001 0.0
  8.8000000E-002 -1.2000000E-001 0.0
  8.8000000E-002 -1.1200000E-001 0.0
  8.8000000E-002 -1.0400000E-001 0.0
  8.8000000E-002  1.7600000E-001 0.0
  8.8000000E-002  1.8400000E-001 0.0
  8.8000000E-002  1.9200000E-001 0.0
  8.8000000E-002  2.0000000E-001 0.0
  8.8000000E-002  2.0800000E-001 0.0
  8.8000000E-002  2.1600000E-001 0.0
  8.8000000E-002  2.2400000E-001 0.0
  8.8000000E-002  2.3200000E-001 0.0
  8.8000000E-002  2.4000000E-001 0.0
  8.8000000E-002  2.4800000E-001 0.0
  8.8000000E-002  2.5600000E-001 0.0
  8.8000000E-002  2.6400000E-001 0.0
  8.8000000E-002  2.7200000E-001 0.0
  9.6000000E-002 -1.7600000E-001 0.0
  9.6000000E-002 -1.6800000E-001 0.0
  9.6000000E-002 -1.6000000E-001 0.0
  9.6000000E-002 -1.5200000E-001 0.0
  9.6000000E-002 -1.4400000E-001 0.0
  9.6000000E-002 -1.3600000E-001 0.0
  9.6000000E-002 -1.2800000E-001 0.0
  9.6000000E-002 -1.2000000E-001 0.0
  9.6000000E-002 -1.1200000E-001 0.0
  9.6000000E-002 -1.0400000E-001 0.0
  9.6000000E-002  1.7600000E-001 0.0
  9.6000000E-002  1.8400000E-001 0.0
  9.6000000E-002  1.9200000E-001 0.0
  9.6000000E-002  2.0000000E-001 0.0
  9.6000000E-002  2.0800000E-001 0.0
  9.6000000E-002  2.1600000E-001 0.0
  9.6000000E-002  2.2400000E-001 0.0
  9.6000000E-002  2.3200000E-001 0.0
  9.6000000E-002  2.4000000E-001 0.0
  9.6000000E-002  2.4800000E-001 0.0
  9.6000000E-002  2.5600000E-001 0.0
  9.6000000E-002  2.6400000E-001 0.0
  9.6000000E-002  2.7200000E-001 0.0
  1.0400000E-001 -1.7600000E-001 0.0
  1.0400000E-001 -1.6800000E-001 0.0
  1.0400000E-001 -1.6000000E-001 0.0
  1.0400000E-001 -1.5200000E-001 0.0
  1.0400000E-001 -1.4400000E-001 0.0
  1.0400000E-001 -1.3600000E-001 0.0
  1.0400000E-001 -1.2800000E-001 0.0
  1.0400000E-001 -1.2000000E-001 0.0
  1.0400000E-001 -1.1200000E-001 0.0
  1.0400000E-001 -1.0400000E-001 0.0
  9.6000000E-002  1.6800000E-001 0.0
  1.0400000E-001  1.6800000E-001 0.0
  1.0400000E-001  1.7600000E-001 0.0
  1.0400000E-001  1.8400000E-001 0.0
  1.0400000E-001  1.9200000E-001 0.0
  1.0400000E-001  2.0000000E-001 0.0
  1.0400000E-001  2.0800000E-001 0.0
  1.0400000E-001  2.1600000E-001 0.0
  1.0400000E-001  2.2400000E-001 0.0
  1.0400000E-001  2.3200000E-001 0.0
  1.0400000E-001  2.4000000E-001 0.0
  1.0400000E-001  2.4800000E-001 0.0
  1.0400000E-001  2.5600000E-001 0.0
  1.0400000E-001  2.6400000E-001 0.0
  1.0400000E-001  2.7200000E-001 0.0
  1.1200000E-001 -1.7600000E-001 0.0
  1.1200000E-001 -1.6800000E-001 0.0
  1.1200000E-001 -1.6000000E-001 0.0
  1.1200000E-001 -1.5200000E-001 0.0
  1.1200000E-001 -1.4400000E-001 0.0
  1.1200000E-001 -1.3600000E-001 0.0
  1.1200000E-001 -1.2800000E-001 0.0
  1.1200000E-001 -1.2000000E-001 0.0
  1.1200000E-001 -1.1200000E-001 0.0
  1.1200000E-001 -1.0400000E-001 0.0
  1.1200000E-001  1.6800000E-001 0.0
  1.1200000E-001  1.7600000E-001 0.0
  1.1200000E-001  1.8400000E-001 0.0
  1.1200000E-001  1.9200000E-001 0.0
  1.1200000E-001  2.0000000E-001 0.0
  1.1200000E-001  2.0800000E-001 0.0
  1.1200000E-001  2.1600000E-001 0.0
  1.1200000E-001  2.2400000E-001 0.0
  1.1200000E-001  2.3200000E-001 0.0
  1.1200000E-001  2.4000000E-001 0.0
  1.1200000E-001  2.4800000E-001 0.0
  1.1200000E-001  2.5600000E-001 0.0
  1.1200000E-001  2.6400000E-001 0.0
  1.1200000E-001  2.7200000E-001 0.0
  1.2000000E-001 -1.7600000E-001 0.0
  1.2000000E-001 -1.6800000E-001 0.0
  1.2000000E-001 -1.6000000E-001 0.0
  1.2000000E-001 -1.5200000E-001 0.0
  1.2000000E-001 -1.4400000E-001 0.0
  1.2000000E-001 -1.3600000E-001 0.0
  1.2000000E-001 -1.2800000E-001 0.0
  1.2000000E-001 -1.2000000E-001 0.0
  1.2000000E-001 -1.1200000E-001 0.0
  1.2000000E-001 -1.0400000E-001 0.0
  1.2000000E-001  1.6800000E-001 0.0
  1.2000000E-001  1.7600000E-001 0.0
  1.2000000E-001  1.8400000E-001 0.0
  1.2000000E-001  1.9200000E-001 0.0
  1.2000000E-001  2.0000000E-001 0.0
  1.2000000E-001  2.0800000E-001 0.0
  1.2000000E-001  2.1600000E-001 0.0
  1.2000000E-001  2.2400000E-001 0.0
  1.2000000E-001  2.3200000E-001 0.0
  1.2000000E-001  2.4000000E-001 0.0
  1.2000000E-001  2.4800000E-001 0.0
  1.2000000E-001  2.5600000E-001 0.0
  1.2000000E-001  2.6400000E-001 0.0
  1.2000000E-001  2.7200000E-001 0.0
  1.2800000E-001 -1.7600000E-001 0.0
  1.2800000E-001 -1.6800000E-001 0.0
  1.2800000E-001 -1.6000000E-001 0.0
  1.2800000E-001 -1.5200000E-001 0.0
  1.2800000E-001 -1.4400000E-001 0.0
  1.2800000E-001 -1.3600000E-001 0.0
  1.2800000E-001 -1.2800000E-001 0.0
  1.2800000E-001 -1.2000000E-001 0.0
  1.2800000E-001 -1.1200000E-001 0.0
  1.2800000E-001 -1.0400000E-001 0.0
  1.2800000E-001  1.6800000E-001 0.0
  1.2800000E-001  1.7600000E-001 0.0
  1.2800000E-001  1.8400000E-001 0.0
  1.2800000E-001  1.9200000E-001 0.0
  1.2800000E-001  2.0000000E-001 0.0
  1.2800000E-001  2.0800000E-001 0.0
  1.2800000E-001  2.1600000E-001 0.0
  1.2800000E-001  2.2400000E-001 0.0
  1.2800000E-001  2.3200000E-001 0.0
  1.2800000E-001  2.4000000E-001 0.0
  1.2800000E-001  2.4800000E-001 0.0
  1.2800000E-001  2.5600000E-001 0.0
  1.2800000E-001  2.6400000E-001 0.0
  1.2800000E-001  2.7200000E-001 0.0
  1.3600000E-001 -1.7600000E-001 0.0
  1.3600000E-001 -1.6800000E-001 0.0
  1.3600000E-001 -1.6000000E-001 0.0
  1.3600000E-001 -1.5200000E-001 0.0
  1.3600000E-001 -1.4400000E-001 0.0
  1.3600000E-001 -1.3600000E-001 0.0
  1.3600000E-001 -1.2800000E-001 0.0
  1.3600000E-001 -1.2000000E-001 0.0
  1.3600000E-001 -1.1200000E-001 0.0
  1.3600000E-001 -1.0400000E-001 0.0
  1.3600000E-001 -9.6000000E-002 0.0
  1.2800000E-001 -9.6000000E-002 0.0
  1.3600000E-001  1.6800000E-001 0.0
  1.3600000E-001  1.7600000E-001 0.0
  1.3600000E-001  1.8400000E-001 0.0
  1.3600000E-001  1.9200000E-001 0.0
  1.3600000E-001  2.0000000E-001 0.0
  1.3600000E-001  2.0800000E-001 0.0
  1.3600000E-001  2.1600000E-001 0.0
  1.3600000E-001  2.2400000E-001 0.0
  1.3600000E-001  2.3200000E-001 0.0
  1.3600000E-001  2.4000000E-001 0.0
  1.3600000E-001  2.4800000E-001 0.0
  1.3600000E-001  2.5600000E-001 0.0
  1.3600000E-001  2.6400000E-001 0.0
  1.3600000E-001  2.7200000E-001 0.0
  1.4400000E-001 -1.7600000E-001 0.0
  1.4400000E-001 -1.6800000E-001 0.0
  1.4400000E-001 -1.6000000E-001 0.0
  1.4400000E-001 -1.5200000E-001 0.0
  1.4400000E-001 -1.4400000E-001 0.0
  1.4400000E-001 -1.3600000E-001 0.0
  1.4400000E-001 -1.2800000E-001 0.0
  1.4400000E-001 -1.2000000E-001 0.0
  1.4400000E-001 -1.1200000E-001 0.0
  1.4400000E-001 -1.0400000E-001 0.0
  1.4400000E-001 -9.6000000E-002 0.0
  1.4400000E-001  1.6800000E-001 0.0
  1.4400000E-001  1.7600000E-001 0.0
  1.4400000E-001  1.8400000E-001 0.0
  1.4400000E-001  1.9200000E-001 0.0
  1.4400000E-001  2.0000000E-001 0.0
  1.4400000E-001  2.0800000E-001 0.0
  1.4400000E-001  2.1600000E-001 0.0
  1.4400000E-001  2.2400000E-001 0.0
  1.4400000E-001  2.3200000E-001 0.0
  1.4400000E-001  2.4000000E-001 0.0
  1.4400000E-001  2.4800000E-001 0.0
  1.4400000E-001  2.5600000E-001 0.0
  1.4400000E-001  2.6400000E-001 0.0
  1.4400000E-001  2.7200000E-001 0.0
  1.5200000E-001 -1.7600000E-001 0.0
  1.5200000E-001 -1.6800000E-001 0.0
  1.5200000E-001 -1.6000000E-001 0.0
  1.5200000E-001 -1.5200000E-001 0.0
  1.5200000E-001 -1.4400000E-001 0.0
  1.5200000E-001 -1.3600000E-001 0.0
  1.5200000E-001 -1.2800000E-001 0.0
  1.5200000E-001 -1.2000000E-001 0.0
  1.5200000E-001 -1.1200000E-001 0.0
  1.5200000E-001 -1.0400000E-001 0.0
  1.5200000E-001 -9.6000000E-002 0.0
  1.4400000E-001  1.6000000E-001 0.0
  1.5200000E-001  1.6000000E-001 0.0
  1.5200000E-001  1.6800000E-001 0.0
  1.5200000E-001  1.7600000E-001 0.0
  1.5200000E-001  1.8400000E-001 0.0
  1.5200000E-001  1.9200000E-001 0.0
  1.5200000E-001  2.0000000E-001 0.0
  1.5200000E-001  2.0800000E-001 0.0
  1.5200000E-001  2.1600000E-001 0.0
  1.5200000E-001  2.2400000E-001 0.0
  1.5200000E-001  2.3200000E-001 0.0
  1.5200000E-001  2.4000000E-001 0.0
  1.5200000E-001  2.4800000E-001 0.0
  1.5200000E-001  2.5600000E-001 0.0
  1.5200000E-001  2.6400000E-001 0.0
  1.5200000E-001  2.7200000E-001 0.0
  1.6000000E-001 -1.7600000E-001 0.0
  1.6000000E-001 -1.6800000E-001 0.0
  1.6000000E-001 -1.6000000E-001 0.0
  1.6000000E-001 -1.5200000E-001 0.0
  1.6000000E-001 -1.4400000E-001 0.0
  1.6000000E-001 -1.3600000E-001 0.0
  1.6000000E-001 -1.2800000E-001 0.0
  1.6000000E-001 -1.2000000E-001 0.0
  1.6000000E-001 -1.1200000E-001 0.0
  1.6000000E-001 -1.0400000E-001 0.0
  1.6000000E-001 -9.6000000E-002 0.0
  1.6000000E-001  1.6000000E-001 0.0
  1.6000000E-001  1.6800000E-001 0.0
  1.6000000E-001  1.7600000E-001 0.0
  1.6000000E-001  1.8400000E-001 0.0
  1.6000000E-001  1.9200000E-001 0.0
  1.6000000E-001  2.0000000E-001 0.0
  1.6000000E-001  2.0800000E-001 0.0
  1.6000000E-001  2.1600000E-001 0.0
  1.6000000E-001  2.2400000E-001 0.0
  1.6000000E-001  2.3200000E-001 0.0
  1.6000000E-001  2.4000000E-001 0.0
  1.6000000E-001  2.4800000E-001 0.0
  1.6000000E-001  2.5600000E-001 0.0
  1.6000000E-001  2.6400000E-001 0.0
  1.6800000E-001 -1.7600000E-001 0.0
  1.6800000E-001 -1.6800000E-001 0.0
  1.6800000E-001 -1.6000000E-001 0.0
  1.6800000E-001 -1.5200000E-001 0.0
  1.6800000E-001 -1.4400000E-001 0.0
  1.6800000E-001 -1.3600000E-001 0.0
  1.6800000E-001 -1.2800000E-001 0.0
  1.6800000E-001 -1.2000000E-001 0.0
  1.6800000E-001 -1.1200000E-001 0.0
  1.6800000E-001 -1.0400000E-001 0.0
  1.6800000E-001 -9.6000000E-002 0.0
  1.6800000E-001 -8.8000000E-002 0.0
  1.6000000E-001 -8.8000000E-002 0.0
  1.6800000E-001  1.6000000E-001 0.0
  1.6800000E-001  1.6800000E-001 0.0
  1.6800000E-001  1.7600000E-001 0.0
  1.6800000E-001  1.8400000E-001 0.0
  1.6800000E-001  1.9200000E-001 0.0
  1.6800000E-001  2.0000000E-001 0.0
  1.6800000E-001  2.0800000E-001 0.0
  1.6800000E-001  2.1600000E-001 0.0
  1.6800000E-001  2.2400000E-001 0.0
  1.6800000E-001  2.3200000E-001 0.0
  1.6800000E-001  2.4000000E-001 0.0
  1.6800000E-001  2.4800000E-001 0.0
  1.6800000E-001  2.5600000E-001 0.0
  1.6800000E-001  2.6400000E-001 0.0
  1.7600000E-001 -1.7600000E-001 0.0
  1.7600000E-001 -1.6800000E-001 0.0
  1.7600000E-001 -1.6000000E-001 0.0
  1.7600000E-001 -1.5200000E-001 0.0
  1.7600000E-001 -1.4400000E-001 0.0
  1.7600000E-001 -1.3600000E-001 0.0
  1.7600000E-001 -1.2800000E-001 0.0
  1.7600000E-001 -1.2000000E-001 0.0
  1.7600000E-001 -1.1200000E-001 0.0
  1.7600000E-001 -1.0400000E-001 0.0
  1.7600000E-001 -9.6000000E-002 0.0
  1.7600000E-001 -8.8000000E-002 0.0
  1.7600000E-001  1.6000000E-001 0.0
  1.7600000E-001  1.6800000E-001 0.0
  1.7600000E-001  1.7600000E-001 0.0
  1.7600000E-001  1.8400000E-001 0.0
  1.7600000E-001  1.9200000E-001 0.0
  1.7600000E-001  2.0000000E-001 0.0
  1.7600000E-001  2.0800000E-001 0.0
  1.7600000E-001  2.1600000E-001 0.0
  1.7600000E-001  2.2400000E-001 0.0
  1.7600000E-001  2.3200000E-001 0.0
  1.7600000E-001  2.4000000E-001 0.0
  1.7600000E-001  2.4800000E-001 0.0
  1.7600000E-001  2.5600000E-001 0.0
  1.7600000E-001  2.6400000E-001 0.0
  1.8400000E-001 -1.7600000E-001 0.0
  1.8400000E-001 -1.6800000E-001 0.0
  1.8400000E-001 -1.6000000E-001 0.0
  1.8400000E-001 -1.5200000E-001 0.0
  1.8400000E-001 -1.4400000E-001 0.0
  1.8400000E-001 -1.3600000E-001 0.0
  1.8400000E-001 -1.2800000E-001 0.0
  1.8400000E-001 -1.2000000E-001 0.0
  1.8400000E-001 -1.1200000E-001 0.0
  1.8400000E-001 -1.0400000E-001 0.0
  1.8400000E-001 -9.6000000E-002 0.0
  1.8400000E-001 -8.8000000E-002 0.0
  1.8400000E-001 -8.0000000E-002 0.0
  1.7600000E-001 -8.0000000E-002 0.0
  1.7600000E-001  1.5200000E-001 0.0
  1.8400000E-001  1.5200000E-001 0.0
  1.8400000E-001  1.6000000E-001 0.0
  1.8400000E-001  1.6800000E-001 0.0
  1.8400000E-001  1.7600000E-001 0.0
  1.8400000E-001  1.8400000E-001 0.0
  1.8400000E-001  1.9200000E-001 0.0
  1.8400000E-001  2.0000000E-001 0.0
  1.8400000E-001  2.0800000E-001 0.0
  1.8400000E-001  2.1600000E-001 0.0
  1.8400000E-001  2.2400000E-001 0.0
  1.8400000E-001  2.3200000E-001 0.0
  1.8400000E-001  2.4000000E-001 0.0
  1.8400000E-001  2.4800000E-001 0.0
  1.8400000E-001  2.5600000E-001 0.0
  1.8400000E-001  2.6400000E-001 0.0
  1.9200000E-001 -1.7600000E-001 0.0
  1.9200000E-001 -1.6800000E-001 0.0
  1.9200000E-001 -1.6000000E-001 0.0
  1.9200000E-001 -1.5200000E-001 0.0
  1.9200000E-001 -1.4400000E-001 0.0
  1.9200000E-001 -1.3600000E-001 0.0
  1.9200000E-001 -1.2800000E-001 0.0
  1.9200000E-001 -1.2000000E-001 0.0
  1.9200000E-001 -1.1200000E-001 0.0
  1.9200000E-001 -1.0400000E-001 0.0
  1.9200000E-001 -9.6000000E-002 0.0
  1.9200000E-001 -8.8000000E-002 0.0
  1.9200000E-001 -8.0000000E-002 0.0
  1.9200000E-001 -7.2000000E-002 0.0
  1.8400000E-001 -7.2000000E-002 0.0
  1.9200000E-001  1.5200000E-001 0.0
  1.9200000E-001  1.6000000E-001 0.0
  1.9200000E-001  1.6800000E-001 0.0
  1.9200000E-001  1.7600000E-001 0.0
  1.9200000E-001  1.8400000E-001 0.0
  1.9200000E-001  1.9200000E-001 0.0
  1.9200000E-001  2.0000000E-001 0.0
  1.9200000E-001  2.0800000E-001 0.0
  1.9200000E-001  2.1600000E-001 0.0
  1.9200000E-001  2.2400000E-001 0.0
  1.9200000E-001  2.3200000E-001 0.0
  1.9200000E-001  2.4000000E-001 0.0
  1.9200000E-001  2.4800000E-001 0.0
  1.9200000E-001  2.5600000E-001 0.0
  1.9200000E-001 -1.8400000E-001 0.0
  2.0000000E-001 -1.8400000E-001 0.0
  2.0000000E-001 -1.7600000E-001 0.0
  2.0000000E-001 -1.6800000E-001 0.0
  2.0000000E-001 -1.6000000E-001 0.0
  2.0000000E-001 -1.5200000E-001 0.0
  2.0000000E-001 -1.4400000E-001 0.0
  2.0000000E-001 -1.3600000E-001 0.0
  2.0000000E-001 -1.2800000E-001 0.0
  2.0000000E-001 -1.2000000E-001 0.0
  2.0000000E-001 -1.1200000E-001 0.0
  2.0000000E-001 -1.0400000E-001 0.0
  2.0000000E-001 -9.6000000E-002 0.0
  2.0000000E-001 -8.8000000E-002 0.0
  2.0000000E-001 -8.0000000E-002 0.0
  2.0000000E-001 -7.2000000E-002 0.0
  1.9200000E-001  1.4400000E-001 0.0
  2.0000000E-001  1.4400000E-001 0.0
  2.0000000E-001  1.5200000E-001 0.0
  2.0000000E-001  1.6000000E-001 0.0
  2.0000000E-001  1.6800000E-001 0.0
  2.0000000E-001  1.7600000E-001 0.0
  2.0000000E-001  1.8400000E-001 0.0
  2.0000000E-001  1.9200000E-001 0.0
  2.0000000E-001  2.0000000E-001 0.0
  2.0000000E-001  2.0800000E-001 0.0
  2.0000000E-001  2.1600000E-001 0.0
  2.0000000E-001  2.2400000E-001 0.0
  2.0000000E-001  2.3200000E-001 0.0
  2.0000000E-001  2.4000000E-001 0.0
  2.0000000E-001  2.4800000E-001 0.0
  2.0000000E-001  2.5600000E-001 0.0
  2.0800000E-001 -1.8400000E-001 0.0
  2.0800000E-001 -1.7600000E-001 0.0
  2.0800000E-001 -1.6800000E-001 0.0
  2.0800000E-001 -1.6000000E-001 0.0
  2.0800000E-001 -1.5200000E-001 0.0
  2.0800000E-001 -1.4400000E-001 0.0
  2.0800000E-001 -1.3600000E-001 0.0
  2.0800000E-001 -1.2800000E-001 0.0
  2.0800000E-001 -1.2000000E-001 0.0
  2.0800000E-001 -1.1200000E-001 0.0
  2.0800000E-001 -1.0400000E-001 0.0
  2.0800000E-001 -9.6000000E-002 0.0
  2.0800000E-001 -8.8000000E-002 0.0
  2.0800000E-001 -8.0000000E-002 0.0
  2.0800000E-001 -7.2000000E-002 0.0
  2.0800000E-001 -6.4000000E-002 0.0
  2.0000000E-001 -6.4000000E-002 0.0
  2.0000000E-001  1.3600000E-001 0.0
  2.0800000E-001  1.3600000E-001 0.0
  2.0800000E-001  1.4400000E-001 0.0
  2.0800000E-001  1.5200000E-001 0.0
  2.0800000E-001  1.6000000E-001 0.0
  2.0800000E-001  1.6800000E-001 0.0
  2.0800000E-001  1.7600000E-001 0.0
  2.0800000E-001  1.8400000E-001 0.0
  2.0800000E-001  1.9200000E-001 0.0
  2.0800000E-001  2.0000000E-001 0.0
  2.0800000E-001  2.0800000E-001 0.0
  2.0800000E-001  2.1600000E-001 0.0
  2.0800000E-001  2.2400000E-001 0.0
  2.0800000E-001  2.3200000E-001 0.0
  2.0800000E-001  2.4000000E-001 0.0
  2.0800000E-001  2.4800000E-001 0.0
  2.0800000E-001  2.5600000E-001 0.0
  2.1600000E-001 -1.8400000E-001 0.0
  2.1600000E-001 -1.7600000E-001 0.0
  2.1600000E-001 -1.6800000E-001 0.0
  2.1600000E-001 -1.6000000E-001 0.0
  2.1600000E-001 -1.5200000E-001 0.0
  2.1600000E-001 -1.4400000E-001 0.0
  2.1600000E-001 -1.3600000E-001 0.0
  2.1600000E-001 -1.2800000E-001 0.0
  2.1600000E-001 -1.2000000E-001 0.0
  2.1600000E-001 -1.1200000E-001 0.0
  2.1600000E-001 -1.0400000E-001 0.0
  2.1600000E-001 -9.6000000E-002 0.0
  2.1600000E-001 -8.8000000E-002 0.0
  2.1600000E-001 -8.0000000E-002 0.0
  2.1600000E-001 -7.2000000E-002 0.0
  2.1600000E-001 -6.4000000E-002 0.0
  2.1600000E-001 -5.6000000E-002 0.0
  2.0800000E-001 -5.6000000E-002 0.0
  2.1600000E-001 -4.8000000E-002 0.0
  2.0800000E-001 -4.8000000E-002 0.0
  2.0800000E-001  1.2800000E-001 0.0
  2.1600000E-001  1.2800000E-001 0.0
  2.1600000E-001  1.3600000E-001 0.0
  2.1600000E-001  1.4400000E-001 0.0
  2.1600000E-001  1.5200000E-001 0.0
  2.1600000E-001  1.6000000E-001 0.0
  2.1600000E-001  1.6800000E-001 0.0
  2.1600000E-001  1.7600000E-001 0.0
  2.1600000E-001  1.8400000E-001 0.0
  2.1600000E-001  1.9200000E-001 0.0
  2.1600000E-001  2.0000000E-001 0.0
  2.1600000E-001  2.0800000E-001 0.0
  2.1600000E-001  2.1600000E-001 0.0
  2.1600000E-001  2.2400000E-001 0.0
  2.1600000E-001  2.3200000E-001 0.0
  2.1600000E-001  2.4000000E-001 0.0
  2.1600000E-001  2.4800000E-001 0.0
  2.1600000E-001  2.5600000E-001 0.0
  2.2400000E-001 -1.8400000E-001 0.0
  2.2400000E-001 -1.7600000E-001 0.0
  2.2400000E-001 -1.6800000E-001 0.0
  2.2400000E-001 -1.6000000E-001 0.0
  2.2400000E-001 -1.5200000E-001 0.0
  2.2400000E-001 -1.4400000E-001 0.0
  2.2400000E-001 -1.3600000E-001 0.0
  2.2400000E-001 -1.2800000E-001 0.0
  2.2400000E-001 -1.2000000E-001 0.0
  2.2400000E-001 -1.1200000E-001 0.0
  2.2400000E-001 -1.0400000E-001 0.0
  2.2400000E-001 -9.6000000E-002 0.0
  2.2400000E-001 -8.8000000E-002 0.0
  2.2400000E-001 -8.0000000E-002 0.0
  2.2400000E-001 -7.2000000E-002 0.0
  2.2400000E-001 -6.4000000E-002 0.0
  2.2400000E-001 -5.6000000E-002 0.0
  2.2400000E-001 -4.8000000E-002 0.0
  2.2400000E-001 -4.0000000E-002 0.0
  2.1600000E-001 -4.0000000E-002 0.0
  2.2400000E-001 -3.2000000E-002 0.0
  2.1600000E-001 -3.2000000E-002 0.0
  2.1600000E-001  1.2000000E-001 0.0
  2.2400000E-001  1.2000000E-001 0.0
  2.2400000E-001  1.2800000E-001 0.0
  2.2400000E-001  1.3600000E-001 0.0
  2.2400000E-001  1.4400000E-001 0.0
  2.2400000E-001  1.5200000E-001 0.0
  2.2400000E-001  1.6000000E-001 0.0
  2.2400000E-001  1.6800000E-001 0.0
  2.2400000E-001  1.7600000E-001 0.0
  2.2400000E-001  1.8400000E-001 0.0
  2.2400000E-001  1.9200000E-001 0.0
  2.2400000E-001  2.0000000E-001 0.0
  2.2400000E-001  2.0800000E-001 0.0
  2.2400000E-001  2.1600000E-001 0.0
  2.2400000E-001  2.2400000E-001 0.0
  2.2400000E-001  2.3200000E-001 0.0
  2.2400000E-001  2.4000000E-001 0.0
  2.2400000E-001  2.4800000E-001 0.0
  2.2400000E-001  2.5600000E-001 0.0
  2.3200000E-001 -1.8400000E-001 0.0
  2.3200000E-001 -1.7600000E-001 0.0
  2.3200000E-001 -1.6800000E-001 0.0
  2.3200000E-001 -1.6000000E-001 0.0
  2.3200000E-001 -1.5200000E-001 0.0
  2.3200000E-001 -1.4400000E-001 0.0
  2.3200000E-001 -1.3600000E-001 0.0
  2.3200000E-001 -1.2800000E-001 0.0
  2.3200000E-001 -1.2000000E-001 0.0
  2.3200000E-001 -1.1200000E-001 0.0
  2.3200000E-001 -1.0400000E-001 0.0
  2.3200000E-001 -9.6000000E-002 0.0
  2.3200000E-001 -8.8000000E-002 0.0
  2.3200000E-001 -8.0000000E-002 0.0
  2.3200000E-001 -7.2000000E-002 0.0
  2.3200000E-001 -6.4000000E-002 0.0
  2.3200000E-001 -5.6000000E-002 0.0
  2.3200000E-001 -4.8000000E-002 0.0
  2.3200000E-001 -4.0000000E-002 0.0
  2.3200000E-001 -3.2000000E-002 0.0
  2.3200000E-001 -2.4000000E-002 0.0
  2.2400000E-001 -2.4000000E-002 0.0
  2.3200000E-001 -1.6000000E-002 0.0
  2.2400000E-001 -1.6000000E-002 0.0
  2.3200000E-001 -8.0000000E-003 0.0
  2.2400000E-001 -8.0000000E-003 0.0
  2.3200000E-001  0.0000000E+000 0.0
  2.2400000E-001  0.0000000E+000 0.0
  2.3200000E-001  8.0000000E-003 0.0
  2.2400000E-001  8.0000000E-003 0.0
  2.2400000E-001  1.0400000E-001 0.0
  2.3200000E-001  1.0400000E-001 0.0
  2.3200000E-001  1.1200000E-001 0.0
  2.2400000E-001  1.1200000E-001 0.0
  2.3200000E-001  1.2000000E-001 0.0
  2.3200000E-001  1.2800000E-001 0.0
  2.3200000E-001  1.3600000E-001 0.0
  2.3200000E-001  1.4400000E-001 0.0
  2.3200000E-001  1.5200000E-001 0.0
  2.3200000E-001  1.6000000E-001 0.0
  2.3200000E-001  1.6800000E-001 0.0
  2.3200000E-001  1.7600000E-001 0.0
  2.3200000E-001  1.8400000E-001 0.0
  2.3200000E-001  1.9200000E-001 0.0
  2.3200000E-001  2.0000000E-001 0.0
  2.3200000E-001  2.0800000E-001 0.0
  2.3200000E-001  2.1600000E-001 0.0
  2.3200000E-001  2.2400000E-001 0.0
  2.3200000E-001  2.3200000E-001 0.0
  2.3200000E-001  2.4000000E-001 0.0
  2.3200000E-001  2.4800000E-001 0.0
  2.3200000E-001  2.5600000E-001 0.0
  2.3200000E-001 -1.9200000E-001 0.0
  2.4000000E-001 -1.9200000E-001 0.0
  2.4000000E-001 -1.8400000E-001 0.0
  2.4000000E-001 -1.7600000E-001 0.0
  2.4000000E-001 -1.6800000E-001 0.0
  2.4000000E-001 -1.6000000E-001 0.0
  2.4000000E-001 -1.5200000E-001 0.0
  2.4000000E-001 -1.4400000E-001 0.0
  2.4000000E-001 -1.3600000E-001 0.0
  2.4000000E-001 -1.2800000E-001 0.0
  2.4000000E-001 -1.2000000E-001 0.0
  2.4000000E-001 -1.1200000E-001 0.0
  2.4000000E-001 -1.0400000E-001 0.0
  2.4000000E-001 -9.6000000E-002 0.0
  2.4000000E-001 -8.8000000E-002 0.0
  2.4000000E-001 -8.0000000E-002 0.0
  2.4000000E-001 -7.2000000E-002 0.0
  2.4000000E-001 -6.4000000E-002 0.0
  2.4000000E-001 -5.6000000E-002 0.0
  2.4000000E-001 -4.8000000E-002 0.0
  2.4000000E-001 -4.0000000E-002 0.0
  2.4000000E-001 -3.2000000E-002 0.0
  2.4000000E-001 -2.4000000E-002 0.0
  2.4000000E-001 -1.6000000E-002 0.0
  2.4000000E-001 -8.0000000E-003 0.0
  2.4000000E-001  0.0000000E+000 0.0
  2.4000000E-001  8.0000000E-003 0.0
  2.4000000E-001  1.6000000E-002 0.0
  2.3200000E-001  1.6000000E-002 0.0
  2.4000000E-001  2.4000000E-002 0.0
  2.3200000E-001  2.4000000E-002 0.0
  2.4000000E-001  3.2000000E-002 0.0
  2.3200000E-001  3.2000000E-002 0.0
  2.4000000E-001  4.0000000E-002 0.0
  2.3200000E-001  4.0000000E-002 0.0
  2.4000000E-001  4.8000000E-002 0.0
  2.3200000E-001  4.8000000E-002 0.0
  2.4000000E-001  5.6000000E-002 0.0
  2.3200000E-001  5.6000000E-002 0.0
  2.4000000E-001  6.4000000E-002 0.0
  2.3200000E-001  6.4000000E-002 0.0
  2.4000000E-001  7.2000000E-002 0.0
  2.3200000E-001  7.2000000E-002 0.0
  2.4000000E-001  8.0000000E-002 0.0
  2.3200000E-001  8.0000000E-002 0.0
  2.4000000E-001  8.8000000E-002 0.0
  2.3200000E-001  8.8000000E-002 0.0
  2.4000000E-001  9.6000000E-002 0.0
  2.3200000E-001  9.6000000E-002 0.0
  2.4000000E-001  1.0400000E-001 0.0
  2.4000000E-001  1.1200000E-001 0.0
  2.4000000E-001  1.2000000E-001 0.0
  2.4000000E-001  1.2800000E-001 0.0
  2.4000000E-001  1.3600000E-001 0.0
  2.4000000E-001  1.4400000E-001 0.0
  2.4000000E-001  1.5200000E-001 0.0
  2.4000000E-001  1.6000000E-001 0.0
  2.4000000E-001  1.6800000E-001 0.0
  2.4000000E-001  1.7600000E-001 0.0
  2.4000000E-001  1.8400000E-001 0.0
  2.4000000E-001  1.9200000E-001 0.0
  2.4000000E-001  2.0000000E-001 0.0
  2.4000000E-001  2.0800000E-001 0.0
  2.4000000E-001  2.1600000E-001 0.0
  2.4000000E-001  2.2400000E-001 0.0
  2.4000000E-001  2.3200000E-001 0.0
  2.4000000E-001  2.4000000E-001 0.0
  2.4000000E-001  2.4800000E-001 0.0
  2.4000000E-001  2.5600000E-001 0.0
  2.4800000E-001 -1.9200000E-001 0.0
  2.4800000E-001 -1.8400000E-001 0.0
  2.4800000E-001 -1.7600000E-001 0.0
  2.4800000E-001 -1.6800000E-001 0.0
  2.4800000E-001 -1.6000000E-001 0.0
  2.4800000E-001 -1.5200000E-001 0.0
  2.4800000E-001 -1.4400000E-001 0.0
  2.4800000E-001 -1.3600000E-001 0.0
  2.4800000E-001 -1.2800000E-001 0.0
  2.4800000E-001 -1.2000000E-001 0.0
  2.4800000E-001 -1.1200000E-001 0.0
  2.4800000E-001 -1.0400000E-001 0.0
  2.4800000E-001 -9.6000000E-002 0.0
  2.4800000E-001 -8.8000000E-002 0.0
  2.4800000E-001 -8.0000000E-002 0.0
  2.4800000E-001 -7.2000000E-002 0.0
  2.4800000E-001 -6.4000000E-002 0.0
  2.4800000E-001 -5.6000000E-002 0.0
  2.4800000E-001 -4.8000000E-002 0.0
  2.4800000E-001 -4.0000000E-002 0.0
  2.4800000E-001 -3.2000000E-002 0.0
  2.4800000E-001 -2.4000000E-002 0.0
  2.4800000E-001 -1.6000000E-002 0.0
  2.4800000E-001 -8.0000000E-003 0.0
  2.4800000E-001  0.0000000E+000 0.0
  2.4800000E-001  8.0000000E-003 0.0
  2.4800000E-001  1.6000000E-002 0.0
  2.4800000E-001  2.4000000E-002 0.0
  2.4800000E-001  3.2000000E-002 0.0
  2.4800000E-001  4.0000000E-002 0.0
  2.4800000E-001  4.8000000E-002 0.0
  2.4800000E-001  5.6000000E-002 0.0
  2.4800000E-001  6.4000000E-002 0.0
  2.4800000E-001  7.2000000E-002 0.0
  2.4800000E-001  8.0000000E-002 0.0
  2.4800000E-001  8.8000000E-002 0.0
  2.4800000E-001  9.6000000E-002 0.0
  2.4800000E-001  1.0400000E-001 0.0
  2.4800000E-001  1.1200000E-001 0.0
  2.4800000E-001  1.2000000E-001 0.0
  2.4800000E-001  1.2800000E-001 0.0
  2.4800000E-001  1.3600000E-001 0.0
  2.4800000E-001  1.4400000E-001 0.0
  2.4800000E-001  1.5200000E-001 0.0
  2.4800000E-001  1.6000000E-001 0.0
  2.4800000E-001  1.6800000E-001 0.0
  2.4800000E-001  1.7600000E-001 0.0
  2.4800000E-001  1.8400000E-001 0.0
  2.4800000E-001  1.9200000E-001 0.0
  2.4800000E-001  2.0000000E-001 0.0
  2.4800000E-001  2.0800000E-001 0.0
  2.4800000E-001  2.1600000E-001 0.0
  2.4800000E-001  2.2400000E-001 0.0
  2.4800000E-001  2.3200000E-001 0.0
  2.4800000E-001  2.4000000E-001 0.0
  2.4800000E-001  2.4800000E-001 0.0
  2.4800000E-001  2.5600000E-001 0.0
  2.5600000E-001 -1.9200000E-001 0.0
  2.5600000E-001 -1.8400000E-001 0.0
  2.5600000E-001 -1.7600000E-001 0.0
  2.5600000E-001 -1.6800000E-001 0.0
  2.5600000E-001 -1.6000000E-001 0.0
  2.5600000E-001 -1.5200000E-001 0.0
  2.5600000E-001 -1.4400000E-001 0.0
  2.5600000E-001 -1.3600000E-001 0.0
  2.5600000E-001 -1.2800000E-001 0.0
  2.5600000E-001 -1.2000000E-001 0.0
  2.5600000E-001 -1.1200000E-001 0.0
  2.5600000E-001 -1.0400000E-001 0.0
  2.5600000E-001 -9.6000000E-002 0.0
  2.5600000E-001 -8.8000000E-002 0.0
  2.5600000E-001 -8.0000000E-002 0.0
  2.5600000E-001 -7.2000000E-002 0.0
  2.5600000E-001 -6.4000000E-002 0.0
  2.5600000E-001 -5.6000000E-002 0.0
  2.5600000E-001 -4.8000000E-002 0.0
  2.5600000E-001 -4.0000000E-002 0.0
  2.5600000E-001 -3.2000000E-002 0.0
  2.5600000E-001 -2.4000000E-002 0.0
  2.5600000E-001 -1.6000000E-002 0.0
  2.5600000E-001 -8.0000000E-003 0.0
  2.5600000E-001  0.0000000E+000 0.0
  2.5600000E-001  8.0000000E-003 0.0
  2.5600000E-001  1.6000000E-002 0.0
  2.5600000E-001  2.4000000E-002 0.0
  2.5600000E-001  3.2000000E-002 0.0
  2.5600000E-001  4.0000000E-002 0.0
  2.5600000E-001  4.8000000E-002 0.0
  2.5600000E-001  5.6000000E-002 0.0
  2.5600000E-001  6.4000000E-002 0.0
  2.5600000E-001  7.2000000E-002 0.0
  2.5600000E-001  8.0000000E-002 0.0
  2.5600000E-001  8.8000000E-002 0.0
  2.5600000E-001  9.6000000E-002 0.0
  2.5600000E-001  1.0400000E-001 0.0
  2.5600000E-001  1.1200000E-001 0.0
  2.5600000E-001  1.2000000E-001 0.0
  2.5600000E-001  1.2800000E-001 0.0
  2.5600000E-001  1.3600000E-001 0.0
  2.5600000E-001  1.4400000E-001 0.0
  2.5600000E-001  1.5200000E-001 0.0
  2.5600000E-001  1.6000000E-001 0.0
  2.5600000E-001  1.6800000E-001 0.0
  2.5600000E-001  1.7600000E-001 0.0
  2.5600000E-001  1.8400000E-001 0.0
  2.5600000E-001  1.9200000E-001 0.0
  2.5600000E-001  2.0000000E-001 0.0
  2.5600000E-001  2.0800000E-001 0.0
  2.5600000E-001  2.1600000E-001 0.0
  2.5600000E-001  2.2400000E-001 0.0
  2.5600000E-001  2.3200000E-001 0.0
  2.5600000E-001  2.4000000E-001 0.0
  2.5600000E-001  2.4800000E-001 0.0
  2.5600000E-001  2.5600000E-001 0.0
  2.5600000E-001  2.6400000E-001 0.0
  2.4800000E-001  2.6400000E-001 0.0
  2.6400000E-001 -1.9200000E-001 0.0
  2.6400000E-001 -1.8400000E-001 0.0
  2.6400000E-001 -1.7600000E-001 0.0
  2.6400000E-001 -1.6800000E-001 0.0
  2.6400000E-001 -1.6000000E-001 0.0
  2.6400000E-001 -1.5200000E-001 0.0
  2.6400000E-001 -1.4400000E-001 0.0
  2.6400000E-001 -1.3600000E-001 0.0
  2.6400000E-001 -1.2800000E-001 0.0
  2.6400000E-001 -1.2000000E-001 0.0
  2.6400000E-001 -1.1200000E-001 0.0
  2.6400000E-001 -1.0400000E-001 0.0
  2.6400000E-001 -9.6000000E-002 0.0
  2.6400000E-001 -8.8000000E-002 0.0
  2.6400000E-001 -8.0000000E-002 0.0
  2.6400000E-001 -7.2000000E-002 0.0
  2.6400000E-001 -6.4000000E-002 0.0
  2.6400000E-001 -5.6000000E-002 0.0
  2.6400000E-001 -4.8000000E-002 0.0
  2.6400000E-001 -4.0000000E-002 0.0
  2.6400000E-001 -3.2000000E-002 0.0
  2.6400000E-001 -2.4000000E-002 0.0
  2.6400000E-001 -1.6000000E-002 0.0
  2.6400000E-001 -8.0000000E-003 0.0
  2.6400000E-001  0.0000000E+000 0.0
  2.6400000E-001  8.0000000E-003 0.0
  2.6400000E-001  1.6000000E-002 0.0
  2.6400000E-001  2.4000000E-002 0.0
  2.6400000E-001  3.2000000E-002 0.0
  2.6400000E-001  4.0000000E-002 0.0
  2.6400000E-001  4.8000000E-002 0.0
  2.6400000E-001  5.6000000E-002 0.0
  2.6400000E-001  6.4000000E-002 0.0
  2.6400000E-001  7.2000000E-002 0.0
  2.6400000E-001  8.0000000E-002 0.0
  2.6400000E-001  8.8000000E-002 0.0
  2.6400000E-001  9.6000000E-002 0.0
  2.6400000E-001  1.0400000E-001 0.0
  2.6400000E-001  1.1200000E-001 0.0
  2.6400000E-001  1.2000000E-001 0.0
  2.6400000E-001  1.2800000E-001 0.0
  2.6400000E-001  1.3600000E-001 0.0
  2.6400000E-001  1.4400000E-001 0.0
  2.6400000E-001  1.5200000E-001 0.0
  2.6400000E-001  1.6000000E-001 0.0
  2.6400000E-001  1.6800000E-001 0.0
  2.6400000E-001  1.7600000E-001 0.0
  2.6400000E-001  1.8400000E-001 0.0
  2.6400000E-001  1.9200000E-001 0.0
  2.6400000E-001  2.0000000E-001 0.0
  2.6400000E-001  2.0800000E-001 0.0
  2.6400000E-001  2.1600000E-001 0.0
  2.6400000E-001  2.2400000E-001 0.0
  2.6400000E-001  2.3200000E-001 0.0
  2.6400000E-001  2.4000000E-001 0.0
  2.6400000E-001  2.4800000E-001 0.0
  2.6400000E-001  2.5600000E-001 0.0
  2.6400000E-001  2.6400000E-001 0.0
  2.7200000E-001 -1.9200000E-001 0.0
  2.7200000E-001 -1.8400000E-001 0.0
  2.7200000E-001 -1.7600000E-001 0.0
  2.7200000E-001 -1.6800000E-001 0.0
  2.7200000E-001 -1.6000000E-001 0.0
  2.7200000E-001 -1.5200000E-001 0.0
  2.7200000E-001 -1.4400000E-001 0.0
  2.7200000E-001 -1.3600000E-001 0.0
  2.7200000E-001 -1.2800000E-001 0.0
  2.7200000E-001 -1.2000000E-001 0.0
  2.7200000E-001 -1.1200000E-001 0.0
  2.7200000E-001 -1.0400000E-001 0.0
  2.7200000E-001 -9.6000000E-002 0.0
  2.7200000E-001 -8.8000000E-002 0.0
  2.7200000E-001 -8.0000000E-002 0.0
  2.7200000E-001 -7.2000000E-002 0.0
  2.7200000E-001 -6.4000000E-002 0.0
  2.7200000E-001 -5.6000000E-002 0.0
  2.7200000E-001 -4.8000000E-002 0.0
  2.7200000E-001 -4.0000000E-002 0.0
  2.7200000E-001 -3.2000000E-002 0.0
  2.7200000E-001 -2.4000000E-002 0.0
  2.7200000E-001 -1.6000000E-002 0.0
  2.7200000E-001 -8.0000000E-003 0.0
  2.7200000E-001  0.0000000E+000 0.0
  2.7200000E-001  8.0000000E-003 0.0
  2.7200000E-001  1.6000000E-002 0.0
  2.7200000E-001  2.4000000E-002 0.0
  2.7200000E-001  3.2000000E-002 0.0
  2.7200000E-001  4.0000000E-002 0.0
  2.7200000E-001  4.8000000E-002 0.0
  2.7200000E-001  5.6000000E-002 0.0
  2.7200000E-001  6.4000000E-002 0.0
  2.7200000E-001  7.2000000E-002 0.0
  2.7200000E-001  8.0000000E-002 0.0
  2.7200000E-001  8.8000000E-002 0.0
  2.7200000E-001  9.6000000E-002 0.0
  2.7200000E-001  1.0400000E-001 0.0
  2.7200000E-001  1.1200000E-001 0.0
  2.7200000E-001  1.2000000E-001 0.0
  2.7200000E-001  1.2800000E-001 0.0
  2.7200000E-001  1.3600000E-001 0.0
  2.7200000E-001  1.4400000E-001 0.0
  2.7200000E-001  1.5200000E-001 0.0
  2.7200000E-001  1.6000000E-001 0.0
  2.7200000E-001  1.6800000E-001 0.0
  2.7200000E-001  1.7600000E-001 0.0
  2.7200000E-001  1.8400000E-001 0.0
  2.7200000E-001  1.9200000E-001 0.0
  2.7200000E-001  2.0000000E-001 0.0
  2.7200000E-001  2.0800000E-001 0.0
  2.7200000E-001  2.1600000E-001 0.0
  2.7200000E-001  2.2400000E-001 0.0
  2.7200000E-001  2.3200000E-001 0.0
  2.7200000E-001  2.4000000E-001 0.0
  2.7200000E-001  2.4800000E-001 0.0
  2.7200000E-001  2.5600000E-001 0.0
  2.7200000E-001  2.6400000E-001 0.0
  2.8000000E-001 -1.9200000E-001 0.0
  2.8000000E-001 -1.8400000E-001 0.0
  2.8000000E-001 -1.7600000E-001 0.0
  2.8000000E-001 -1.6800000E-001 0.0
  2.8000000E-001 -1.6000000E-001 0.0
  2.8000000E-001 -1.5200000E-001 0.0
  2.8000000E-001 -1.4400000E-001 0.0
  2.8000000E-001 -1.3600000E-001 0.0
  2.8000000E-001 -1.2800000E-001 0.0
  2.8000000E-001 -1.2000000E-001 0.0
  2.8000000E-001 -1.1200000E-001 0.0
  2.8000000E-001 -1.0400000E-001 0.0
  2.8000000E-001 -9.6000000E-002 0.0
  2.8000000E-001 -8.8000000E-002 0.0
  2.8000000E-001 -8.0000000E-002 0.0
  2.8000000E-001 -7.2000000E-002 0.0
  2.8000000E-001 -6.4000000E-002 0.0
  2.8000000E-001 -5.6000000E-002 0.0
  2.8000000E-001 -4.8000000E-002 0.0
  2.8000000E-001 -4.0000000E-002 0.0
  2.8000000E-001 -3.2000000E-002 0.0
  2.8000000E-001 -2.4000000E-002 0.0
  2.8000000E-001 -1.6000000E-002 0.0
  2.8000000E-001 -8.0000000E-003 0.0
  2.8000000E-001  0.0000000E+000 0.0
  2.8000000E-001  8.0000000E-003 0.0
  2.8000000E-001  1.6000000E-002 0.0
  2.8000000E-001  2.4000000E-002 0.0
  2.8000000E-001  3.2000000E-002 0.0
  2.8000000E-001  6.4000000E-002 0.0
  2.8000000E-001  7.2000000E-002 0.0
  2.8000000E-001  8.0000000E-002 0.0
  2.8000000E-001  8.8000000E-002 0.0
  2.8000000E-001  9.6000000E-002 0.0
  2.8000000E-001  1.0400000E-001 0.0
  2.8000000E-001  1.1200000E-001 0.0
  2.8000000E-001  1.2000000E-001 0.0
  2.8000000E-001  1.2800000E-001 0.0
  2.8000000E-001  1.3600000E-001 0.0
  2.8000000E-001  1.4400000E-001 0.0
  2.8000000E-001  1.5200000E-001 0.0
  2.8000000E-001  1.6000000E-001 0.0
  2.8000000E-001  1.6800000E-001 0.0
  2.8000000E-001  1.7600000E-001 0.0
  2.8000000E-001  1.8400000E-001 0.0
  2.8000000E-001  1.9200000E-001 0.0
  2.8000000E-001  2.0000000E-001 0.0
  2.8000000E-001  2.0800000E-001 0.0
  2.8000000E-001  2.1600000E-001 0.0
  2.8000000E-001  2.2400000E-001 0.0
  2.8000000E-001  2.3200000E-001 0.0
  2.8000000E-001  2.4000000E-001 0.0
  2.8000000E-001  2.4800000E-001 0.0
  2.8000000E-001  2.5600000E-001 0.0
  2.8800000E-001 -1.9200000E-001 0.0
  2.8800000E-001 -1.8400000E-001 0.0
  2.8800000E-001 -1.7600000E-001 0.0
  2.8800000E-001 -1.6800000E-001 0.0
  2.8800000E-001 -1.6000000E-001 0.0
  2.8800000E-001 -1.5200000E-001 0.0
  2.8800000E-001 -1.4400000E-001 0.0
  2.8800000E-001 -1.3600000E-001 0.0
  2.8800000E-001 -1.2800000E-001 0.0
  2.8800000E-001 -1.2000000E-001 0.0
  2.8800000E-001 -1.1200000E-001 0.0
  2.8800000E-001 -1.0400000E-001 0.0
  2.8800000E-001 -9.6000000E-002 0.0
  2.8800000E-001 -8.8000000E-002 0.0
  2.8800000E-001 -8.0000000E-002 0.0
  2.8800000E-001 -7.2000000E-002 0.0
  2.8800000E-001 -6.4000000E-002 0.0
  2.8800000E-001 -5.6000000E-002 0.0
  2.8800000E-001 -4.8000000E-002 0.0
  2.8800000E-001 -4.0000000E-002 0.0
  2.8800000E-001 -3.2000000E-002 0.0
  2.8800000E-001 -2.4000000E-002 0.0
  2.8800000E-001 -1.6000000E-002 0.0
  2.8800000E-001 -8.0000000E-003 0.0
  2.8800000E-001  0.0000000E+000 0.0
  2.8800000E-001  8.0000000E-003 0.0
  2.8800000E-001  8.0000000E-002 0.0
  2.8800000E-001  8.8000000E-002 0.0
  2.8800000E-001  9.6000000E-002 0.0
  2.8800000E-001  1.0400000E-001 0.0
  2.8800000E-001  1.1200000E-001 0.0
  2.8800000E-001  1.2000000E-001 0.0
  2.8800000E-001  1.2800000E-001 0.0
  2.8800000E-001  1.3600000E-001 0.0
  2.8800000E-001  1.4400000E-001 0.0
  2.8800000E-001  1.5200000E-001 0.0
  2.8800000E-001  1.6000000E-001 0.0
  2.8800000E-001  1.6800000E-001 0.0
  2.8800000E-001  1.7600000E-001 0.0
  2.8800000E-001  1.8400000E-001 0.0
  2.8800000E-001  1.9200000E-001 0.0
  2.8800000E-001  2.0000000E-001 0.0
  2.8800000E-001  2.0800000E-001 0.0
  2.8800000E-001  2.1600000E-001 0.0
  2.8800000E-001  2.2400000E-001 0.0
  2.8800000E-001  2.3200000E-001 0.0
  2.8800000E-001  2.4000000E-001 0.0
  2.8800000E-001  2.4800000E-001 0.0
  2.8800000E-001  2.5600000E-001 0.0
  2.9600000E-001 -1.9200000E-001 0.0
  2.9600000E-001 -1.8400000E-001 0.0
  2.9600000E-001 -1.7600000E-001 0.0
  2.9600000E-001 -1.6800000E-001 0.0
  2.9600000E-001 -1.6000000E-001 0.0
  2.9600000E-001 -1.5200000E-001 0.0
  2.9600000E-001 -1.4400000E-001 0.0
  2.9600000E-001 -1.3600000E-001 0.0
  2.9600000E-001 -1.2800000E-001 0.0
  2.9600000E-001 -1.2000000E-001 0.0
  2.9600000E-001 -1.1200000E-001 0.0
  2.9600000E-001 -1.0400000E-001 0.0
  2.9600000E-001 -9.6000000E-002 0.0
  2.9600000E-001 -8.8000000E-002 0.0
  2.9600000E-001 -8.0000000E-002 0.0
  2.9600000E-001 -7.2000000E-002 0.0
  2.9600000E-001 -6.4000000E-002 0.0
  2.9600000E-001 -5.6000000E-002 0.0
  2.9600000E-001 -4.8000000E-002 0.0
  2.9600000E-001 -4.0000000E-002 0.0
  2.9600000E-001 -3.2000000E-002 0.0
  2.9600000E-001 -2.4000000E-002 0.0
  2.9600000E-001 -1.6000000E-002 0.0
  2.9600000E-001 -8.0000000E-003 0.0
  2.9600000E-001  0.0000000E+000 0.0
  2.9600000E-001  8.8000000E-002 0.0
  2.9600000E-001  9.6000000E-002 0.0
  2.9600000E-001  1.0400000E-001 0.0
  2.9600000E-001  1.1200000E-001 0.0
  2.9600000E-001  1.2000000E-001 0.0
  2.9600000E-001  1.2800000E-001 0.0
  2.9600000E-001  1.3600000E-001 0.0
  2.9600000E-001  1.4400000E-001 0.0
  2.9600000E-001  1.5200000E-001 0.0
  2.9600000E-001  1.6000000E-001 0.0
  2.9600000E-001  1.6800000E-001 0.0
  2.9600000E-001  1.7600000E-001 0.0
  2.9600000E-001  1.8400000E-001 0.0
  2.9600000E-001  1.9200000E-001 0.0
  2.9600000E-001  2.0000000E-001 0.0
  2.9600000E-001  2.0800000E-001 0.0
  2.9600000E-001  2.1600000E-001 0.0
  2.9600000E-001  2.2400000E-001 0.0
  2.9600000E-001  2.3200000E-001 0.0
  2.9600000E-001  2.4000000E-001 0.0
  2.9600000E-001  2.4800000E-001 0.0
  2.9600000E-001  2.5600000E-001 0.0
  3.0400000E-001 -1.9200000E-001 0.0
  3.0400000E-001 -1.8400000E-001 0.0
  3.0400000E-001 -1.7600000E-001 0.0
  3.0400000E-001 -1.6800000E-001 0.0
  3.0400000E-001 -1.6000000E-001 0.0
  3.0400000E-001 -1.5200000E-001 0.0
  3.0400000E-001 -1.4400000E-001 0.0
  3.0400000E-001 -1.3600000E-001 0.0
  3.0400000E-001 -1.2800000E-001 0.0
  3.0400000E-001 -1.2000000E-001 0.0
  3.0400000E-001 -1.1200000E-001 0.0
  3.0400000E-001 -1.0400000E-001 0.0
  3.0400000E-001 -9.6000000E-002 0.0
  3.0400000E-001 -8.8000000E-002 0.0
  3.0400000E-001 -8.0000000E-002 0.0
  3.0400000E-001 -7.2000000E-002 0.0
  3.0400000E-001 -6.4000000E-002 0.0
  3.0400000E-001 -5.6000000E-002 0.0
  3.0400000E-001 -4.8000000E-002 0.0
  3.0400000E-001 -4.0000000E-002 0.0
  3.0400000E-001 -3.2000000E-002 0.0
  3.0400000E-001 -2.4000000E-002 0.0
  3.0400000E-001 -1.6000000E-002 0.0
  3.0400000E-001 -8.0000000E-003 0.0
  3.0400000E-001  0.0000000E+000 0.0
  3.0400000E-001  9.6000000E-002 0.0
  3.0400000E-001  1.0400000E-001 0.0
  3.0400000E-001  1.1200000E-001 0.0
  3.0400000E-001  1.2000000E-001 0.0
  3.0400000E-001  1.2800000E-001 0.0
  3.0400000E-001  1.3600000E-001 0.0
  3.0400000E-001  1.4400000E-001 0.0
  3.0400000E-001  1.5200000E-001 0.0
  3.0400000E-001  1.6000000E-001 0.0
  3.0400000E-001  1.6800000E-001 0.0
  3.0400000E-001  1.7600000E-001 0.0
  3.0400000E-001  1.8400000E-001 0.0
  3.0400000E-001  1.9200000E-001 0.0
  3.0400000E-001  2.0000000E-001 0.0
  3.0400000E-001  2.0800000E-001 0.0
  3.0400000E-001  2.1600000E-001 0.0
  3.0400000E-001  2.2400000E-001 0.0
  3.0400000E-001  2.3200000E-001 0.0
  3.0400000E-001  2.4000000E-001 0.0
  3.0400000E-001  2.4800000E-001 0.0
  3.0400000E-001  2.5600000E-001 0.0
  3.1200000E-001 -1.9200000E-001 0.0
  3.1200000E-001 -1.8400000E-001 0.0
  3.1200000E-001 -1.7600000E-001 0.0
  3.1200000E-001 -1.6800000E-001 0.0
  3.1200000E-001 -1.6000000E-001 0.0
  3.1200000E-001 -1.5200000E-001 0.0
  3.1200000E-001 -1.4400000E-001 0.0
  3.1200000E-001 -1.3600000E-001 0.0
  3.1200000E-001 -1.2800000E-001 0.0
  3.1200000E-001 -1.2000000E-001 0.0
  3.1200000E-001 -1.1200000E-001 0.0
  3.1200000E-001 -1.0400000E-001 0.0
  3.1200000E-001 -9.6000000E-002 0.0
  3.1200000E-001 -8.8000000E-002 0.0
  3.1200000E-001 -8.0000000E-002 0.0
  3.1200000E-001 -7.2000000E-002 0.0
  3.1200000E-001 -6.4000000E-002 0.0
  3.1200000E-001 -5.6000000E-002 0.0
  3.1200000E-001 -4.8000000E-002 0.0
  3.1200000E-001 -4.0000000E-002 0.0
  3.1200000E-001 -3.2000000E-002 0.0
  3.1200000E-001 -2.4000000E-002 0.0
  3.1200000E-001 -1.6000000E-002 0.0
  3.1200000E-001 -8.0000000E-003 0.0
  3.1200000E-001  0.0000000E+000 0.0
  3.1200000E-001  1.0400000E-001 0.0
  3.1200000E-001  1.1200000E-001 0.0
  3.1200000E-001  1.2000000E-001 0.0
  3.1200000E-001  1.2800000E-001 0.0
  3.1200000E-001  1.3600000E-001 0.0
  3.1200000E-001  1.4400000E-001 0.0
  3.1200000E-001  1.5200000E-001 0.0
  3.1200000E-001  1.6000000E-001 0.0
  3.1200000E-001  1.6800000E-001 0.0
  3.1200000E-001  1.7600000E-001 0.0
  3.1200000E-001  1.8400000E-001 0.0
  3.1200000E-001  1.9200000E-001 0.0
  3.1200000E-001  2.0000000E-001 0.0
  3.1200000E-001  2.0800000E-001 0.0
  3.1200000E-001  2.1600000E-001 0.0
  3.1200000E-001  2.2400000E-001 0.0
  3.1200000E-001  2.3200000E-001 0.0
  3.1200000E-001  2.4000000E-001 0.0
  3.1200000E-001  2.4800000E-001 0.0
  3.1200000E-001  2.5600000E-001 0.0
  3.2000000E-001 -1.9200000E-001 0.0
  3.2000000E-001 -1.8400000E-001 0.0
  3.2000000E-001 -1.7600000E-001 0.0
  3.2000000E-001 -1.6800000E-001 0.0
  3.2000000E-001 -1.6000000E-001 0.0
  3.2000000E-001 -1.5200000E-001 0.0
  3.2000000E-001 -1.4400000E-001 0.0
  3.2000000E-001 -1.3600000E-001 0.0
  3.2000000E-001 -1.2800000E-001 0.0
  3.2000000E-001 -1.2000000E-001 0.0
  3.2000000E-001 -1.1200000E-001 0.0
  3.2000000E-001 -1.0400000E-001 0.0
  3.2000000E-001 -9.6000000E-002 0.0
  3.2000000E-001 -8.8000000E-002 0.0
  3.2000000E-001 -8.0000000E-002 0.0
  3.2000000E-001 -7.2000000E-002 0.0
  3.2000000E-001 -6.4000000E-002 0.0
  3.2000000E-001 -5.6000000E-002 0.0
  3.2000000E-001 -4.8000000E-002 0.0
  3.2000000E-001 -4.0000000E-002 0.0
  3.2000000E-001 -3.2000000E-002 0.0
  3.2000000E-001 -2.4000000E-002 0.0
  3.2000000E-001 -1.6000000E-002 0.0
  3.2000000E-001 -8.0000000E-003 0.0
  3.2000000E-001  0.0000000E+000 0.0
  3.2000000E-001  1.0400000E-001 0.0
  3.2000000E-001  1.1200000E-001 0.0
  3.2000000E-001  1.2000000E-001 0.0
  3.2000000E-001  1.2800000E-001 0.0
  3.2000000E-001  1.3600000E-001 0.0
  3.2000000E-001  1.4400000E-001 0.0
  3.2000000E-001  1.5200000E-001 0.0
  3.2000000E-001  1.6000000E-001 0.0
  3.2000000E-001  1.6800000E-001 0.0
  3.2000000E-001  1.7600000E-001 0.0
  3.2000000E-001  1.8400000E-001 0.0
  3.2000000E-001  1.9200000E-001 0.0
  3.2000000E-001  2.0000000E-001 0.0
  3.2000000E-001  2.0800000E-001 0.0
  3.2000000E-001  2.1600000E-001 0.0
  3.2000000E-001  2.2400000E-001 0.0
  3.2000000E-001  2.3200000E-001 0.0
  3.2000000E-001  2.4000000E-001 0.0
  3.2000000E-001  2.4800000E-001 0.0
  3.2000000E-001  2.5600000E-001 0.0
  3.2800000E-001 -1.9200000E-001 0.0
  3.2800000E-001 -1.8400000E-001 0.0
  3.2800000E-001 -1.7600000E-001 0.0
  3.2800000E-001 -1.6800000E-001 0.0
  3.2800000E-001 -1.6000000E-001 0.0
  3.2800000E-001 -1.5200000E-001 0.0
  3.2800000E-001 -1.4400000E-001 0.0
  3.2800000E-001 -1.3600000E-001 0.0
  3.2800000E-001 -1.2800000E-001 0.0
  3.2800000E-001 -1.2000000E-001 0.0
  3.2800000E-001 -1.1200000E-001 0.0
  3.2800000E-001 -1.0400000E-001 0.0
  3.2800000E-001 -9.6000000E-002 0.0
  3.2800000E-001 -8.8000000E-002 0.0
  3.2800000E-001 -8.0000000E-002 0.0
  3.2800000E-001 -7.2000000E-002 0.0
  3.2800000E-001 -6.4000000E-002 0.0
  3.2800000E-001 -5.6000000E-002 0.0
  3.2800000E-001 -4.8000000E-002 0.0
  3.2800000E-001 -4.0000000E-002 0.0
  3.2800000E-001 -3.2000000E-002 0.0
  3.2800000E-001 -2.4000000E-002 0.0
  3.2800000E-001 -1.6000000E-002 0.0
  3.2800000E-001 -8.0000000E-003 0.0
  3.2800000E-001  0.0000000E+000 0.0
  3.2000000E-001  9.6000000E-002 0.0
  3.2800000E-001  9.6000000E-002 0.0
  3.2800000E-001  1.0400000E-001 0.0
  3.2800000E-001  1.1200000E-001 0.0
  3.2800000E-001  1.2000000E-001 0.0
  3.2800000E-001  1.2800000E-001 0.0
  3.2800000E-001  1.3600000E-001 0.0
  3.2800000E-001  1.4400000E-001 0.0
  3.2800000E-001  1.5200000E-001 0.0
  3.2800000E-001  1.6000000E-001 0.0
  3.2800000E-001  1.6800000E-001 0.0
  3.2800000E-001  1.7600000E-001 0.0
  3.2800000E-001  1.8400000E-001 0.0
  3.2800000E-001  1.9200000E-001 0.0
  3.2800000E-001  2.0000000E-001 0.0
  3.2800000E-001  2.0800000E-001 0.0
  3.2800000E-001  2.1600000E-001 0.0
  3.2800000E-001  2.2400000E-001 0.0
  3.2800000E-001  2.3200000E-001 0.0
  3.2800000E-001  2.4000000E-001 0.0
  3.2800000E-001  2.4800000E-001 0.0
  3.2800000E-001  2.5600000E-001 0.0
  3.3600000E-001 -1.9200000E-001 0.0
  3.3600000E-001 -1.8400000E-001 0.0
  3.3600000E-001 -1.7600000E-001 0.0
  3.3600000E-001 -1.6800000E-001 0.0
  3.3600000E-001 -1.6000000E-001 0.0
  3.3600000E-001 -1.5200000E-001 0.0
  3.3600000E-001 -1.4400000E-001 0.0
  3.3600000E-001 -1.3600000E-001 0.0
  3.3600000E-001 -1.2800000E-001 0.0
  3.3600000E-001 -1.2000000E-001 0.0
  3.3600000E-001 -1.1200000E-001 0.0
  3.3600000E-001 -1.0400000E-001 0.0
  3.3600000E-001 -9.6000000E-002 0.0
  3.3600000E-001 -8.8000000E-002 0.0
  3.3600000E-001 -8.0000000E-002 0.0
  3.3600000E-001 -7.2000000E-002 0.0
  3.3600000E-001 -6.4000000E-002 0.0
  3.3600000E-001 -5.6000000E-002 0.0
  3.3600000E-001 -4.8000000E-002 0.0
  3.3600000E-001 -4.0000000E-002 0.0
  3.3600000E-001 -3.2000000E-002 0.0
  3.3600000E-001 -2.4000000E-002 0.0
  3.3600000E-001 -1.6000000E-002 0.0
  3.3600000E-001 -8.0000000E-003 0.0
  3.3600000E-001  0.0000000E+000 0.0
  3.3600000E-001  8.0000000E-003 0.0
  3.2800000E-001  8.0000000E-003 0.0
  3.3600000E-001  9.6000000E-002 0.0
  3.3600000E-001  1.0400000E-001 0.0
  3.3600000E-001  1.1200000E-001 0.0
  3.3600000E-001  1.2000000E-001 0.0
  3.3600000E-001  1.2800000E-001 0.0
  3.3600000E-001  1.3600000E-001 0.0
  3.3600000E-001  1.4400000E-001 0.0
  3.3600000E-001  1.5200000E-001 0.0
  3.3600000E-001  1.6000000E-001 0.0
  3.3600000E-001  1.6800000E-001 0.0
  3.3600000E-001  1.7600000E-001 0.0
  3.3600000E-001  1.8400000E-001 0.0
  3.3600000E-001  1.9200000E-001 0.0
  3.3600000E-001  2.0000000E-001 0.0
  3.3600000E-001  2.0800000E-001 0.0
  3.3600000E-001  2.1600000E-001 0.0
  3.3600000E-001  2.2400000E-001 0.0
  3.3600000E-001  2.3200000E-001 0.0
  3.3600000E-001  2.4000000E-001 0.0
  3.3600000E-001  2.4800000E-001 0.0
  3.3600000E-001  2.5600000E-001 0.0
  3.4400000E-001 -1.9200000E-001 0.0
  3.4400000E-001 -1.8400000E-001 0.0
  3.4400000E-001 -1.7600000E-001 0.0
  3.4400000E-001 -1.6800000E-001 0.0
  3.4400000E-001 -1.6000000E-001 0.0
  3.4400000E-001 -1.5200000E-001 0.0
  3.4400000E-001 -1.4400000E-001 0.0
  3.4400000E-001 -1.3600000E-001 0.0
  3.4400000E-001 -1.2800000E-001 0.0
  3.4400000E-001 -1.2000000E-001 0.0
  3.4400000E-001 -1.1200000E-001 0.0
  3.4400000E-001 -1.0400000E-001 0.0
  3.4400000E-001 -9.6000000E-002 0.0
  3.4400000E-001 -8.8000000E-002 0.0
  3.4400000E-001 -8.0000000E-002 0.0
  3.4400000E-001 -7.2000000E-002 0.0
  3.4400000E-001 -6.4000000E-002 0.0
  3.4400000E-001 -5.6000000E-002 0.0
  3.4400000E-001 -4.8000000E-002 0.0
  3.4400000E-001 -4.0000000E-002 0.0
  3.4400000E-001 -3.2000000E-002 0.0
  3.4400000E-001 -2.4000000E-002 0.0
  3.4400000E-001 -1.6000000E-002 0.0
  3.4400000E-001 -8.0000000E-003 0.0
  3.4400000E-001  0.0000000E+000 0.0
  3.4400000E-001  8.0000000E-003 0.0
  3.4400000E-001  1.6000000E-002 0.0
  3.3600000E-001  1.6000000E-002 0.0
  3.4400000E-001  9.6000000E-002 0.0
  3.4400000E-001  1.0400000E-001 0.0
  3.4400000E-001  1.1200000E-001 0.0
  3.4400000E-001  1.2000000E-001 0.0
  3.4400000E-001  1.2800000E-001 0.0
  3.4400000E-001  1.3600000E-001 0.0
  3.4400000E-001  1.4400000E-001 0.0
  3.4400000E-001  1.5200000E-001 0.0
  3.4400000E-001  1.6000000E-001 0.0
  3.4400000E-001  1.6800000E-001 0.0
  3.4400000E-001  1.7600000E-001 0.0
  3.4400000E-001  1.8400000E-001 0.0
  3.4400000E-001  1.9200000E-001 0.0
  3.4400000E-001  2.0000000E-001 0.0
  3.4400000E-001  2.0800000E-001 0.0
  3.4400000E-001  2.1600000E-001 0.0
  3.4400000E-001  2.2400000E-001 0.0
  3.4400000E-001  2.3200000E-001 0.0
  3.4400000E-001  2.4000000E-001 0.0
  3.4400000E-001  2.4800000E-001 0.0
  3.5200000E-001 -1.9200000E-001 0.0
  3.5200000E-001 -1.8400000E-001 0.0
  3.5200000E-001 -1.7600000E-001 0.0
  3.5200000E-001 -1.6800000E-001 0.0
  3.5200000E-001 -1.6000000E-001 0.0
  3.5200000E-001 -1.5200000E-001 0.0
  3.5200000E-001 -1.4400000E-001 0.0
  3.5200000E-001 -1.3600000E-001 0.0
  3.5200000E-001 -1.2800000E-001 0.0
  3.5200000E-001 -1.2000000E-001 0.0
  3.5200000E-001 -1.1200000E-001 0.0
  3.5200000E-001 -1.0400000E-001 0.0
  3.5200000E-001 -9.6000000E-002 0.0
  3.5200000E-001 -8.8000000E-002 0.0
  3.5200000E-001 -8.0000000E-002 0.0
  3.5200000E-001 -7.2000000E-002 0.0
  3.5200000E-001 -6.4000000E-002 0.0
  3.5200000E-001 -5.6000000E-002 0.0
  3.5200000E-001 -4.8000000E-002 0.0
  3.5200000E-001 -4.0000000E-002 0.0
  3.5200000E-001 -3.2000000E-002 0.0
  3.5200000E-001 -2.4000000E-002 0.0
  3.5200000E-001 -1.6000000E-002 0.0
  3.5200000E-001 -8.0000000E-003 0.0
  3.5200000E-001  0.0000000E+000 0.0
  3.5200000E-001  8.0000000E-003 0.0
  3.5200000E-001  1.6000000E-002 0.0
  3.5200000E-001  2.4000000E-002 0.0
  3.4400000E-001  2.4000000E-002 0.0
  3.4400000E-001  8.8000000E-002 0.0
  3.5200000E-001  8.8000000E-002 0.0
  3.5200000E-001  9.6000000E-002 0.0
  3.5200000E-001  1.0400000E-001 0.0
  3.5200000E-001  1.1200000E-001 0.0
  3.5200000E-001  1.2000000E-001 0.0
  3.5200000E-001  1.2800000E-001 0.0
  3.5200000E-001  1.3600000E-001 0.0
  3.5200000E-001  1.4400000E-001 0.0
  3.5200000E-001  1.5200000E-001 0.0
  3.5200000E-001  1.6000000E-001 0.0
  3.5200000E-001  1.6800000E-001 0.0
  3.5200000E-001  1.7600000E-001 0.0
  3.5200000E-001  1.8400000E-001 0.0
  3.5200000E-001  1.9200000E-001 0.0
  3.5200000E-001  2.0000000E-001 0.0
  3.5200000E-001  2.0800000E-001 0.0
  3.5200000E-001  2.1600000E-001 0.0
  3.5200000E-001  2.2400000E-001 0.0
  3.5200000E-001  2.3200000E-001 0.0
  3.5200000E-001  2.4000000E-001 0.0
  3.6000000E-001 -1.9200000E-001 0.0
  3.6000000E-001 -1.8400000E-001 0.0
  3.6000000E-001 -1.7600000E-001 0.0
  3.6000000E-001 -1.6800000E-001 0.0
  3.6000000E-001 -1.6000000E-001 0.0
  3.6000000E-001 -1.5200000E-001 0.0
  3.6000000E-001 -1.4400000E-001 0.0
  3.6000000E-001 -1.3600000E-001 0.0
  3.6000000E-001 -1.2800000E-001 0.0
  3.6000000E-001 -1.2000000E-001 0.0
  3.6000000E-001 -1.1200000E-001 0.0
  3.6000000E-001 -1.0400000E-001 0.0
  3.6000000E-001 -9.6000000E-002 0.0
  3.6000000E-001 -8.8000000E-002 0.0
  3.6000000E-001 -8.0000000E-002 0.0
  3.6000000E-001 -7.2000000E-002 0.0
  3.6000000E-001 -6.4000000E-002 0.0
  3.6000000E-001 -5.6000000E-002 0.0
  3.6000000E-001 -4.8000000E-002 0.0
  3.6000000E-001 -4.0000000E-002 0.0
  3.6000000E-001 -3.2000000E-002 0.0
  3.6000000E-001 -2.4000000E-002 0.0
  3.6000000E-001 -1.6000000E-002 0.0
  3.6000000E-001 -8.0000000E-003 0.0
  3.6000000E-001  0.0000000E+000 0.0
  3.6000000E-001  8.0000000E-003 0.0
  3.6000000E-001  1.6000000E-002 0.0
  3.6000000E-001  2.4000000E-002 0.0
  3.6000000E-001  3.2000000E-002 0.0
  3.5200000E-001  3.2000000E-002 0.0
  3.6000000E-001  8.8000000E-002 0.0
  3.6000000E-001  9.6000000E-002 0.0
  3.6000000E-001  1.0400000E-001 0.0
  3.6000000E-001  1.1200000E-001 0.0
  3.6000000E-001  1.2000000E-001 0.0
  3.6000000E-001  1.2800000E-001 0.0
  3.6000000E-001  1.3600000E-001 0.0
  3.6000000E-001  1.4400000E-001 0.0
  3.6000000E-001  1.5200000E-001 0.0
  3.6000000E-001  1.6000000E-001 0.0
  3.6000000E-001  1.6800000E-001 0.0
  3.6000000E-001  1.7600000E-001 0.0
  3.6000000E-001  1.8400000E-001 0.0
  3.6000000E-001  1.9200000E-001 0.0
  3.6000000E-001  2.0000000E-001 0.0
  3.6000000E-001  2.0800000E-001 0.0
  3.6000000E-001  2.1600000E-001 0.0
  3.6000000E-001  2.2400000E-001 0.0
  3.6000000E-001  2.3200000E-001 0.0
  3.6000000E-001  2.4000000E-001 0.0
  3.6800000E-001 -1.9200000E-001 0.0
  3.6800000E-001 -1.8400000E-001 0.0
  3.6800000E-001 -1.7600000E-001 0.0
  3.6800000E-001 -1.6800000E-001 0.0
  3.6800000E-001 -1.6000000E-001 0.0
  3.6800000E-001 -1.5200000E-001 0.0
  3.6800000E-001 -1.4400000E-001 0.0
  3.6800000E-001 -1.3600000E-001 0.0
  3.6800000E-001 -1.2800000E-001 0.0
  3.6800000E-001 -1.2000000E-001 0.0
  3.6800000E-001 -1.1200000E-001 0.0
  3.6800000E-001 -1.0400000E-001 0.0
  3.6800000E-001 -9.6000000E-002 0.0
  3.6800000E-001 -8.8000000E-002 0.0
  3.6800000E-001 -8.0000000E-002 0.0
  3.6800000E-001 -7.2000000E-002 0.0
  3.6800000E-001 -6.4000000E-002 0.0
  3.6800000E-001 -5.6000000E-002 0.0
  3.6800000E-001 -4.8000000E-002 0.0
  3.6800000E-001 -4.0000000E-002 0.0
  3.6800000E-001 -3.2000000E-002 0.0
  3.6800000E-001 -2.4000000E-002 0.0
  3.6800000E-001 -1.6000000E-002 0.0
  3.6800000E-001 -8.0000000E-003 0.0
  3.6800000E-001  0.0000000E+000 0.0
  3.6800000E-001  8.0000000E-003 0.0
  3.6800000E-001  1.6000000E-002 0.0
  3.6800000E-001  2.4000000E-002 0.0
  3.6800000E-001  3.2000000E-002 0.0
  3.6800000E-001  4.0000000E-002 0.0
  3.6000000E-001  4.0000000E-002 0.0
  3.6000000E-001  8.0000000E-002 0.0
  3.6800000E-001  8.0000000E-002 0.0
  3.6800000E-001  8.8000000E-002 0.0
  3.6800000E-001  9.6000000E-002 0.0
  3.6800000E-001  1.0400000E-001 0.0
  3.6800000E-001  1.1200000E-001 0.0
  3.6800000E-001  1.2000000E-001 0.0
  3.6800000E-001  1.2800000E-001 0.0
  3.6800000E-001  1.3600000E-001 0.0
  3.6800000E-001  1.4400000E-001 0.0
  3.6800000E-001  1.5200000E-001 0.0
  3.6800000E-001  1.6000000E-001 0.0
  3.6800000E-001  1.6800000E-001 0.0
  3.6800000E-001  1.7600000E-001 0.0
  3.6800000E-001  1.8400000E-001 0.0
  3.6800000E-001  1.9200000E-001 0.0
  3.6800000E-001  2.0000000E-001 0.0
  3.6800000E-001  2.0800000E-001 0.0
  3.6800000E-001  2.1600000E-001 0.0
  3.6800000E-001  2.2400000E-001 0.0
  3.6800000E-001  2.3200000E-001 0.0
  3.7600000E-001 -1.9200000E-001 0.0
  3.7600000E-001 -1.8400000E-001 0.0
  3.7600000E-001 -1.7600000E-001 0.0
  3.7600000E-001 -1.6800000E-001 0.0
  3.7600000E-001 -1.6000000E-001 0.0
  3.7600000E-001 -1.5200000E-001 0.0
  3.7600000E-001 -1.4400000E-001 0.0
  3.7600000E-001 -1.3600000E-001 0.0
  3.7600000E-001 -1.2800000E-001 0.0
  3.7600000E-001 -1.2000000E-001 0.0
  3.7600000E-001 -1.1200000E-001 0.0
  3.7600000E-001 -1.0400000E-001 0.0
  3.7600000E-001 -9.6000000E-002 0.0
  3.7600000E-001 -8.8000000E-002 0.0
  3.7600000E-001 -8.0000000E-002 0.0
  3.7600000E-001 -7.2000000E-002 0.0
  3.7600000E-001 -6.4000000E-002 0.0
  3.7600000E-001 -5.6000000E-002 0.0
  3.7600000E-001 -4.8000000E-002 0.0
  3.7600000E-001 -4.0000000E-002 0.0
  3.7600000E-001 -3.2000000E-002 0.0
  3.7600000E-001 -2.4000000E-002 0.0
  3.7600000E-001 -1.6000000E-002 0.0
  3.7600000E-001 -8.0000000E-003 0.0
  3.7600000E-001  0.0000000E+000 0.0
  3.7600000E-001  8.0000000E-003 0.0
  3.7600000E-001  1.6000000E-002 0.0
  3.7600000E-001  2.4000000E-002 0.0
  3.7600000E-001  3.2000000E-002 0.0
  3.7600000E-001  4.0000000E-002 0.0
  3.7600000E-001  4.8000000E-002 0.0
  3.6800000E-001  4.8000000E-002 0.0
  3.7600000E-001  5.6000000E-002 0.0
  3.6800000E-001  5.6000000E-002 0.0
  3.7600000E-001  6.4000000E-002 0.0
  3.6800000E-001  6.4000000E-002 0.0
  3.7600000E-001  7.2000000E-002 0.0
  3.6800000E-001  7.2000000E-002 0.0
  3.7600000E-001  8.0000000E-002 0.0
  3.7600000E-001  8.8000000E-002 0.0
  3.7600000E-001  9.6000000E-002 0.0
  3.7600000E-001  1.0400000E-001 0.0
  3.7600000E-001  1.1200000E-001 0.0
  3.7600000E-001  1.2000000E-001 0.0
  3.7600000E-001  1.2800000E-001 0.0
  3.7600000E-001  1.3600000E-001 0.0
  3.7600000E-001  1.4400000E-001 0.0
  3.7600000E-001  1.5200000E-001 0.0
  3.7600000E-001  1.6000000E-001 0.0
  3.7600000E-001  1.6800000E-001 0.0
  3.7600000E-001  1.7600000E-001 0.0
  3.7600000E-001  1.8400000E-001 0.0
  3.7600000E-001  1.9200000E-001 0.0
  3.7600000E-001  2.0000000E-001 0.0
  3.7600000E-001  2.0800000E-001 0.0
  3.7600000E-001  2.1600000E-001 0.0
  3.7600000E-001  2.2400000E-001 0.0
  3.7600000E-001  2.3200000E-001 0.0
  3.8400000E-001 -1.9200000E-001 0.0
  3.8400000E-001 -1.8400000E-001 0.0
  3.8400000E-001 -1.7600000E-001 0.0
  3.8400000E-001 -1.6800000E-001 0.0
  3.8400000E-001 -1.6000000E-001 0.0
  3.8400000E-001 -1.5200000E-001 0.0
  3.8400000E-001 -1.4400000E-001 0.0
  3.8400000E-001 -1.3600000E-001 0.0
  3.8400000E-001 -1.2800000E-001 0.0
  3.8400000E-001 -1.2000000E-001 0.0
  3.8400000E-001 -1.1200000E-001 0.0
  3.8400000E-001 -1.0400000E-001 0.0
  3.8400000E-001 -9.6000000E-002 0.0
  3.8400000E-001 -8.8000000E-002 0.0
  3.8400000E-001 -8.0000000E-002 0.0
  3.8400000E-001 -7.2000000E-002 0.0
  3.8400000E-001 -6.4000000E-002 0.0
  3.8400000E-001 -5.6000000E-002 0.0
  3.8400000E-001 -4.8000000E-002 0.0
  3.8400000E-001 -4.0000000E-002 0.0
  3.8400000E-001 -3.2000000E-002 0.0
  3.8400000E-001 -2.4000000E-002 0.0
  3.8400000E-001 -1.6000000E-002 0.0
  3.8400000E-001 -8.0000000E-003 0.0
  3.8400000E-001  0.0000000E+000 0.0
  3.8400000E-001  8.0000000E-003 0.0
  3.8400000E-001  1.6000000E-002 0.0
  3.8400000E-001  2.4000000E-002 0.0
  3.8400000E-001  3.2000000E-002 0.0
  3.8400000E-001  4.0000000E-002 0.0
  3.8400000E-001  4.8000000E-002 0.0
  3.8400000E-001  5.6000000E-002 0.0
  3.8400000E-001  6.4000000E-002 0.0
  3.8400000E-001  7.2000000E-002 0.0
  3.8400000E-001  8.0000000E-002 0.0
  3.8400000E-001  8.8000000E-002 0.0
  3.8400000E-001  9.6000000E-002 0.0
  3.8400000E-001  1.0400000E-001 0.0
  3.8400000E-001  1.1200000E-001 0.0
  3.8400000E-001  1.2000000E-001 0.0
  3.8400000E-001  1.2800000E-001 0.0
  3.8400000E-001  1.3600000E-001 0.0
  3.8400000E-001  1.4400000E-001 0.0
  3.8400000E-001  1.5200000E-001 0.0
  3.8400000E-001  1.6000000E-001 0.0
  3.8400000E-001  1.6800000E-001 0.0
  3.8400000E-001  1.7600000E-001 0.0
  3.8400000E-001  1.8400000E-001 0.0
  3.8400000E-001  1.9200000E-001 0.0
  3.8400000E-001  2.0000000E-001 0.0
  3.8400000E-001  2.0800000E-001 0.0
  3.8400000E-001  2.1600000E-001 0.0
  3.8400000E-001  2.2400000E-001 0.0
  3.8400000E-001  2.3200000E-001 0.0
  3.8400000E-001  2.4000000E-001 0.0
  3.7600000E-001  2.4000000E-001 0.0
  3.9200000E-001 -1.9200000E-001 0.0
  3.9200000E-001 -1.8400000E-001 0.0
  3.9200000E-001 -1.7600000E-001 0.0
  3.9200000E-001 -1.6800000E-001 0.0
  3.9200000E-001 -1.6000000E-001 0.0
  3.9200000E-001 -1.5200000E-001 0.0
  3.9200000E-001 -1.4400000E-001 0.0
  3.9200000E-001 -1.3600000E-001 0.0
  3.9200000E-001 -1.2800000E-001 0.0
  3.9200000E-001 -1.2000000E-001 0.0
  3.9200000E-001 -1.1200000E-001 0.0
  3.9200000E-001 -1.0400000E-001 0.0
  3.9200000E-001 -9.6000000E-002 0.0
  3.9200000E-001 -8.8000000E-002 0.0
  3.9200000E-001 -8.0000000E-002 0.0
  3.9200000E-001 -7.2000000E-002 0.0
  3.9200000E-001 -6.4000000E-002 0.0
  3.9200000E-001 -5.6000000E-002 0.0
  3.9200000E-001 -4.8000000E-002 0.0
  3.9200000E-001 -4.0000000E-002 0.0
  3.9200000E-001 -3.2000000E-002 0.0
  3.9200000E-001 -2.4000000E-002 0.0
  3.9200000E-001 -1.6000000E-002 0.0
  3.9200000E-001 -8.0000000E-003 0.0
  3.9200000E-001  0.0000000E+000 0.0
  3.9200000E-001  8.0000000E-003 0.0
  3.9200000E-001  1.6000000E-002 0.0
  3.9200000E-001  2.4000000E-002 0.0
  3.9200000E-001  3.2000000E-002 0.0
  3.9200000E-001  4.0000000E-002 0.0
  3.9200000E-001  4.8000000E-002 0.0
  3.9200000E-001  5.6000000E-002 0.0
  3.9200000E-001  6.4000000E-002 0.0
  3.9200000E-001  7.2000000E-002 0.0
  3.9200000E-001  8.0000000E-002 0.0
  3.9200000E-001  8.8000000E-002 0.0
  3.9200000E-001  9.6000000E-002 0.0
  3.9200000E-001  1.0400000E-001 0.0
  3.9200000E-001  1.1200000E-001 0.0
  3.9200000E-001  1.2000000E-001 0.0
  3.9200000E-001  1.2800000E-001 0.0
  3.9200000E-001  1.3600000E-001 0.0
  3.9200000E-001  1.4400000E-001 0.0
  3.9200000E-001  1.5200000E-001 0.0
  3.9200000E-001  1.6000000E-001 0.0
  3.9200000E-001  1.6800000E-001 0.0
  3.9200000E-001  1.7600000E-001 0.0
  3.9200000E-001  1.8400000E-001 0.0
  3.9200000E-001  1.9200000E-001 0.0
  3.9200000E-001  2.0000000E-001 0.0
  3.9200000E-001  2.0800000E-001 0.0
  3.9200000E-001  2.1600000E-001 0.0
  3.9200000E-001  2.2400000E-001 0.0
  3.9200000E-001  2.3200000E-001 0.0
  3.9200000E-001  2.4000000E-001 0.0
  4.0000000E-001 -1.9200000E-001 0.0
  4.0000000E-001 -1.8400000E-001 0.0
  4.0000000E-001 -1.7600000E-001 0.0
  4.0000000E-001 -1.6800000E-001 0.0
  4.0000000E-001 -1.6000000E-001 0.0
  4.0000000E-001 -1.5200000E-001 0.0
  4.0000000E-001 -1.4400000E-001 0.0
  4.0000000E-001 -1.3600000E-001 0.0
  4.0000000E-001 -1.2800000E-001 0.0
  4.0000000E-001 -1.2000000E-001 0.0
  4.0000000E-001 -1.1200000E-001 0.0
  4.0000000E-001 -1.0400000E-001 0.0
  4.0000000E-001 -9.6000000E-002 0.0
  4.0000000E-001 -8.8000000E-002 0.0
  4.0000000E-001 -8.0000000E-002 0.0
  4.0000000E-001 -7.2000000E-002 0.0
  4.0000000E-001 -6.4000000E-002 0.0
  4.0000000E-001 -5.6000000E-002 0.0
  4.0000000E-001 -4.8000000E-002 0.0
  4.0000000E-001 -4.0000000E-002 0.0
  4.0000000E-001 -3.2000000E-002 0.0
  4.0000000E-001 -2.4000000E-002 0.0
  4.0000000E-001 -1.6000000E-002 0.0
  4.0000000E-001 -8.0000000E-003 0.0
  4.0000000E-001  0.0000000E+000 0.0
  4.0000000E-001  8.0000000E-003 0.0
  4.0000000E-001  1.6000000E-002 0.0
  4.0000000E-001  2.4000000E-002 0.0
  4.0000000E-001  3.2000000E-002 0.0
  4.0000000E-001  4.0000000E-002 0.0
  4.0000000E-001  4.8000000E-002 0.0
  4.0000000E-001  5.6000000E-002 0.0
  4.0000000E-001  6.4000000E-002 0.0
  4.0000000E-001  7.2000000E-002 0.0
  4.0000000E-001  8.0000000E-002 0.0
  4.0000000E-001  8.8000000E-002 0.0
  4.0000000E-001  9.6000000E-002 0.0
  4.0000000E-001  1.0400000E-001 0.0
  4.0000000E-001  1.1200000E-001 0.0
  4.0000000E-001  1.2000000E-001 0.0
  4.0000000E-001  1.2800000E-001 0.0
  4.0000000E-001  1.3600000E-001 0.0
  4.0000000E-001  1.4400000E-001 0.0
  4.0000000E-001  1.5200000E-001 0.0
  4.0000000E-001  1.6000000E-001 0.0
  4.0000000E-001  1.6800000E-001 0.0
  4.0000000E-001  1.7600000E-001 0.0
  4.0000000E-001  1.8400000E-001 0.0
  4.0000000E-001  1.9200000E-001 0.0
  4.0000000E-001  2.0000000E-001 0.0
  4.0000000E-001  2.0800000E-001 0.0
  4.0000000E-001  2.1600000E-001 0.0
  4.0000000E-001  2.2400000E-001 0.0
  4.0000000E-001  2.3200000E-001 0.0
  4.0000000E-001  2.4000000E-001 0.0
  4.0800000E-001 -1.9200000E-001 0.0
  4.0800000E-001 -1.8400000E-001 0.0
  4.0800000E-001 -1.7600000E-001 0.0
  4.0800000E-001 -1.6800000E-001 0.0
  4.0800000E-001 -1.6000000E-001 0.0
  4.0800000E-001 -1.5200000E-001 0.0
  4.0800000E-001 -1.4400000E-001 0.0
  4.0800000E-001 -1.3600000E-001 0.0
  4.0800000E-001 -1.2800000E-001 0.0
  4.0800000E-001 -1.2000000E-001 0.0
  4.0800000E-001 -1.1200000E-001 0.0
  4.0800000E-001 -1.0400000E-001 0.0
  4.0800000E-001 -9.6000000E-002 0.0
  4.0800000E-001 -8.8000000E-002 0.0
  4.0800000E-001 -8.0000000E-002 0.0
  4.0800000E-001 -7.2000000E-002 0.0
  4.0800000E-001 -6.4000000E-002 0.0
  4.0800000E-001 -5.6000000E-002 0.0
  4.0800000E-001 -4.8000000E-002 0.0
  4.0800000E-001 -4.0000000E-002 0.0
  4.0800000E-001 -3.2000000E-002 0.0
  4.0800000E-001 -2.4000000E-002 0.0
  4.0800000E-001 -1.6000000E-002 0.0
  4.0800000E-001 -8.0000000E-003 0.0
  4.0800000E-001  0.0000000E+000 0.0
  4.0800000E-001  8.0000000E-003 0.0
  4.0800000E-001  1.6000000E-002 0.0
  4.0800000E-001  2.4000000E-002 0.0
  4.0800000E-001  3.2000000E-002 0.0
  4.0800000E-001  4.0000000E-002 0.0
  4.0800000E-001  4.8000000E-002 0.0
  4.0800000E-001  5.6000000E-002 0.0
  4.0800000E-001  6.4000000E-002 0.0
  4.0800000E-001  7.2000000E-002 0.0
  4.0800000E-001  8.0000000E-002 0.0
  4.0800000E-001  8.8000000E-002 0.0
  4.0800000E-001  9.6000000E-002 0.0
  4.0800000E-001  1.0400000E-001 0.0
  4.0800000E-001  1.1200000E-001 0.0
  4.0800000E-001  1.2000000E-001 0.0
  4.0800000E-001  1.2800000E-001 0.0
  4.0800000E-001  1.3600000E-001 0.0
  4.0800000E-001  1.4400000E-001 0.0
  4.0800000E-001  1.5200000E-001 0.0
  4.0800000E-001  1.6000000E-001 0.0
  4.0800000E-001  1.6800000E-001 0.0
  4.0800000E-001  1.7600000E-001 0.0
  4.0800000E-001  1.8400000E-001 0.0
  4.0800000E-001  1.9200000E-001 0.0
  4.0800000E-001  2.0000000E-001 0.0
  4.0800000E-001  2.0800000E-001 0.0
  4.0800000E-001  2.1600000E-001 0.0
  4.0800000E-001  2.2400000E-001 0.0
  4.0800000E-001  2.3200000E-001 0.0
  4.0800000E-001  2.4000000E-001 0.0
  4.1600000E-001 -1.9200000E-001 0.0
  4.1600000E-001 -1.8400000E-001 0.0
  4.1600000E-001 -1.7600000E-001 0.0
  4.1600000E-001 -1.6800000E-001 0.0
  4.1600000E-001 -1.6000000E-001 0.0
  4.1600000E-001 -1.5200000E-001 0.0
  4.1600000E-001 -1.4400000E-001 0.0
  4.1600000E-001 -1.3600000E-001 0.0
  4.1600000E-001 -1.2800000E-001 0.0
  4.1600000E-001 -1.2000000E-001 0.0
  4.1600000E-001 -1.1200000E-001 0.0
  4.1600000E-001 -1.0400000E-001 0.0
  4.1600000E-001 -9.6000000E-002 0.0
  4.1600000E-001 -8.8000000E-002 0.0
  4.1600000E-001 -8.0000000E-002 0.0
  4.1600000E-001 -7.2000000E-002 0.0
  4.1600000E-001 -6.4000000E-002 0.0
  4.1600000E-001 -5.6000000E-002 0.0
  4.1600000E-001 -4.8000000E-002 0.0
  4.1600000E-001 -4.0000000E-002 0.0
  4.1600000E-001 -3.2000000E-002 0.0
  4.1600000E-001 -2.4000000E-002 0.0
  4.1600000E-001 -1.6000000E-002 0.0
  4.1600000E-001 -8.0000000E-003 0.0
  4.1600000E-001  0.0000000E+000 0.0
  4.1600000E-001  8.0000000E-003 0.0
  4.1600000E-001  1.6000000E-002 0.0
  4.1600000E-001  2.4000000E-002 0.0
  4.1600000E-001  3.2000000E-002 0.0
  4.1600000E-001  4.0000000E-002 0.0
  4.1600000E-001  4.8000000E-002 0.0
  4.1600000E-001  5.6000000E-002 0.0
  4.1600000E-001  6.4000000E-002 0.0
  4.1600000E-001  7.2000000E-002 0.0
  4.1600000E-001  8.0000000E-002 0.0
  4.1600000E-001  8.8000000E-002 0.0
  4.1600000E-001  9.6000000E-002 0.0
  4.1600000E-001  1.0400000E-001 0.0
  4.1600000E-001  1.1200000E-001 0.0
  4.1600000E-001  1.2000000E-001 0.0
  4.1600000E-001  1.2800000E-001 0.0
  4.1600000E-001  1.3600000E-001 0.0
  4.1600000E-001  1.4400000E-001 0.0
  4.1600000E-001  1.5200000E-001 0.0
  4.1600000E-001  1.6000000E-001 0.0
  4.1600000E-001  1.6800000E-001 0.0
  4.1600000E-001  1.7600000E-001 0.0
  4.1600000E-001  1.8400000E-001 0.0
  4.1600000E-001  1.9200000E-001 0.0
  4.1600000E-001  2.0000000E-001 0.0
  4.1600000E-001  2.0800000E-001 0.0
  4.1600000E-001  2.1600000E-001 0.0
  4.1600000E-001  2.2400000E-001 0.0
  4.1600000E-001  2.3200000E-001 0.0
  4.1600000E-001  2.4000000E-001 0.0
  4.2400000E-001 -1.9200000E-001 0.0
  4.2400000E-001 -1.8400000E-001 0.0
  4.2400000E-001 -1.7600000E-001 0.0
  4.2400000E-001 -1.6800000E-001 0.0
  4.2400000E-001 -1.6000000E-001 0.0
  4.2400000E-001 -1.5200000E-001 0.0
  4.2400000E-001 -1.4400000E-001 0.0
  4.2400000E-001 -1.3600000E-001 0.0
  4.2400000E-001 -1.2800000E-001 0.0
  4.2400000E-001 -1.2000000E-001 0.0
  4.2400000E-001 -1.1200000E-001 0.0
  4.2400000E-001 -1.0400000E-001 0.0
  4.2400000E-001 -9.6000000E-002 0.0
  4.2400000E-001 -8.8000000E-002 0.0
  4.2400000E-001 -8.0000000E-002 0.0
  4.2400000E-001 -7.2000000E-002 0.0
  4.2400000E-001 -6.4000000E-002 0.0
  4.2400000E-001 -5.6000000E-002 0.0
  4.2400000E-001 -4.8000000E-002 0.0
  4.2400000E-001 -4.0000000E-002 0.0
  4.2400000E-001 -3.2000000E-002 0.0
  4.2400000E-001 -2.4000000E-002 0.0
  4.2400000E-001 -1.6000000E-002 0.0
  4.2400000E-001 -8.0000000E-003 0.0
  4.2400000E-001  0.0000000E+000 0.0
  4.2400000E-001  8.0000000E-003 0.0
  4.2400000E-001  1.6000000E-002 0.0
  4.2400000E-001  2.4000000E-002 0.0
  4.2400000E-001  3.2000000E-002 0.0
  4.2400000E-001  4.0000000E-002 0.0
  4.2400000E-001  4.8000000E-002 0.0
  4.2400000E-001  5.6000000E-002 0.0
  4.2400000E-001  6.4000000E-002 0.0
  4.2400000E-001  7.2000000E-002 0.0
  4.2400000E-001  8.0000000E-002 0.0
  4.2400000E-001  8.8000000E-002 0.0
  4.2400000E-001  9.6000000E-002 0.0
  4.2400000E-001  1.0400000E-001 0.0
  4.2400000E-001  1.1200000E-001 0.0
  4.2400000E-001  1.2000000E-001 0.0
  4.2400000E-001  1.2800000E-001 0.0
  4.2400000E-001  1.3600000E-001 0.0
  4.2400000E-001  1.4400000E-001 0.0
  4.2400000E-001  1.5200000E-001 0.0
  4.2400000E-001  1.6000000E-001 0.0
  4.2400000E-001  1.6800000E-001 0.0
  4.2400000E-001  1.7600000E-001 0.0
  4.2400000E-001  1.8400000E-001 0.0
  4.2400000E-001  1.9200000E-001 0.0
  4.2400000E-001  2.0000000E-001 0.0
  4.2400000E-001  2.0800000E-001 0.0
  4.2400000E-001  2.1600000E-001 0.0
  4.2400000E-001  2.2400000E-001 0.0
  4.2400000E-001  2.3200000E-001 0.0
  4.3200000E-001 -1.9200000E-001 0.0
  4.3200000E-001 -1.8400000E-001 0.0
  4.3200000E-001 -1.7600000E-001 0.0
  4.3200000E-001 -1.6800000E-001 0.0
  4.3200000E-001 -1.6000000E-001 0.0
  4.3200000E-001 -1.5200000E-001 0.0
  4.3200000E-001 -1.4400000E-001 0.0
  4.3200000E-001 -1.3600000E-001 0.0
  4.3200000E-001 -1.2800000E-001 0.0
  4.3200000E-001 -1.2000000E-001 0.0
  4.3200000E-001 -1.1200000E-001 0.0
  4.3200000E-001 -1.0400000E-001 0.0
  4.3200000E-001 -9.6000000E-002 0.0
  4.3200000E-001 -8.8000000E-002 0.0
  4.3200000E-001 -8.0000000E-002 0.0
  4.3200000E-001 -7.2000000E-002 0.0
  4.3200000E-001 -6.4000000E-002 0.0
  4.3200000E-001 -5.6000000E-002 0.0
  4.3200000E-001 -4.8000000E-002 0.0
  4.3200000E-001 -4.0000000E-002 0.0
  4.3200000E-001 -3.2000000E-002 0.0
  4.3200000E-001 -2.4000000E-002 0.0
  4.3200000E-001 -1.6000000E-002 0.0
  4.3200000E-001 -8.0000000E-003 0.0
  4.3200000E-001  0.0000000E+000 0.0
  4.3200000E-001  8.0000000E-003 0.0
  4.3200000E-001  1.6000000E-002 0.0
  4.3200000E-001  2.4000000E-002 0.0
  4.3200000E-001  3.2000000E-002 0.0
  4.3200000E-001  4.0000000E-002 0.0
  4.3200000E-001  4.8000000E-002 0.0
  4.3200000E-001  5.6000000E-002 0.0
  4.3200000E-001  6.4000000E-002 0.0
  4.3200000E-001  7.2000000E-002 0.0
  4.3200000E-001  8.0000000E-002 0.0
  4.3200000E-001  8.8000000E-002 0.0
  4.3200000E-001  9.6000000E-002 0.0
  4.3200000E-001  1.0400000E-001 0.0
  4.3200000E-001  1.1200000E-001 0.0
  4.3200000E-001  1.2000000E-001 0.0
  4.3200000E-001  1.2800000E-001 0.0
  4.3200000E-001  1.3600000E-001 0.0
  4.3200000E-001  1.4400000E-001 0.0
  4.3200000E-001  1.5200000E-001 0.0
  4.3200000E-001  1.6000000E-001 0.0
  4.3200000E-001  1.6800000E-001 0.0
  4.3200000E-001  1.7600000E-001 0.0
  4.3200000E-001  1.8400000E-001 0.0
  4.3200000E-001  1.9200000E-001 0.0
  4.3200000E-001  2.0000000E-001 0.0
  4.3200000E-001  2.0800000E-001 0.0
  4.3200000E-001  2.1600000E-001 0.0
  4.3200000E-001  2.2400000E-001 0.0
  4.3200000E-001  2.3200000E-001 0.0
  4.4000000E-001 -1.9200000E-001 0.0
  4.4000000E-001 -1.8400000E-001 0.0
  4.4000000E-001 -1.7600000E-001 0.0
  4.4000000E-001 -1.6800000E-001 0.0
  4.4000000E-001 -1.6000000E-001 0.0
  4.4000000E-001 -1.5200000E-001 0.0
  4.4000000E-001 -1.4400000E-001 0.0
  4.4000000E-001 -1.3600000E-001 0.0
  4.4000000E-001 -1.2800000E-001 0.0
  4.4000000E-001 -1.2000000E-001 0.0
  4.4000000E-001 -1.1200000E-001 0.0
  4.4000000E-001 -1.0400000E-001 0.0
  4.4000000E-001 -9.6000000E-002 0.0
  4.4000000E-001 -8.8000000E-002 0.0
  4.4000000E-001 -8.0000000E-002 0.0
  4.4000000E-001 -7.2000000E-002 0.0
  4.4000000E-001 -6.4000000E-002 0.0
  4.4000000E-001 -5.6000000E-002 0.0
  4.4000000E-001 -4.8000000E-002 0.0
  4.4000000E-001 -4.0000000E-002 0.0
  4.4000000E-001 -3.2000000E-002 0.0
  4.4000000E-001 -2.4000000E-002 0.0
  4.4000000E-001 -1.6000000E-002 0.0
  4.4000000E-001 -8.0000000E-003 0.0
  4.4000000E-001  0.0000000E+000 0.0
  4.4000000E-001  8.0000000E-003 0.0
  4.4000000E-001  1.6000000E-002 0.0
  4.4000000E-001  2.4000000E-002 0.0
  4.4000000E-001  3.2000000E-002 0.0
  4.4000000E-001  4.0000000E-002 0.0
  4.4000000E-001  4.8000000E-002 0.0
  4.4000000E-001  5.6000000E-002 0.0
  4.4000000E-001  6.4000000E-002 0.0
  4.4000000E-001  7.2000000E-002 0.0
  4.4000000E-001  8.0000000E-002 0.0
  4.4000000E-001  8.8000000E-002 0.0
  4.4000000E-001  9.6000000E-002 0.0
  4.4000000E-001  1.0400000E-001 0.0
  4.4000000E-001  1.1200000E-001 0.0
  4.4000000E-001  1.2000000E-001 0.0
  4.4000000E-001  1.2800000E-001 0.0
  4.4000000E-001  1.3600000E-001 0.0
  4.4000000E-001  1.4400000E-001 0.0
  4.4000000E-001  1.5200000E-001 0.0
  4.4000000E-001  1.6000000E-001 0.0
  4.4000000E-001  1.6800000E-001 0.0
  4.4000000E-001  1.7600000E-001 0.0
  4.4000000E-001  1.8400000E-001 0.0
  4.4000000E-001  1.9200000E-001 0.0
  4.4000000E-001  2.0000000E-001 0.0
  4.4000000E-001  2.0800000E-001 0.0
  4.4000000E-001  2.1600000E-001 0.0
  4.4000000E-001  2.2400000E-001 0.0
  4.4000000E-001  2.3200000E-001 0.0
  4.4800000E-001 -1.9200000E-001 0.0
  4.4800000E-001 -1.8400000E-001 0.0
  4.4800000E-001 -1.7600000E-001 0.0
  4.4800000E-001 -1.6800000E-001 0.0
  4.4800000E-001 -1.6000000E-001 0.0
  4.4800000E-001 -1.5200000E-001 0.0
  4.4800000E-001 -1.4400000E-001 0.0
  4.4800000E-001 -1.3600000E-001 0.0
  4.4800000E-001 -1.2800000E-001 0.0
  4.4800000E-001 -1.2000000E-001 0.0
  4.4800000E-001 -1.1200000E-001 0.0
  4.4800000E-001 -1.0400000E-001 0.0
  4.4800000E-001 -9.6000000E-002 0.0
  4.4800000E-001 -8.8000000E-002 0.0
  4.4800000E-001 -8.0000000E-002 0.0
  4.4800000E-001 -7.2000000E-002 0.0
  4.4800000E-001 -6.4000000E-002 0.0
  4.4800000E-001 -5.6000000E-002 0.0
  4.4800000E-001 -4.8000000E-002 0.0
  4.4800000E-001 -4.0000000E-002 0.0
  4.4800000E-001 -3.2000000E-002 0.0
  4.4800000E-001 -2.4000000E-002 0.0
  4.4800000E-001 -1.6000000E-002 0.0
  4.4800000E-001 -8.0000000E-003 0.0
  4.4800000E-001  0.0000000E+000 0.0
  4.4800000E-001  8.0000000E-003 0.0
  4.4800000E-001  1.6000000E-002 0.0
  4.4800000E-001  2.4000000E-002 0.0
  4.4800000E-001  3.2000000E-002 0.0
  4.4800000E-001  4.0000000E-002 0.0
  4.4800000E-001  4.8000000E-002 0.0
  4.4800000E-001  5.6000000E-002 0.0
  4.4800000E-001  6.4000000E-002 0.0
  4.4800000E-001  7.2000000E-002 0.0
  4.4800000E-001  8.0000000E-002 0.0
  4.4800000E-001  8.8000000E-002 0.0
  4.4800000E-001  9.6000000E-002 0.0
  4.4800000E-001  1.0400000E-001 0.0
  4.4800000E-001  1.1200000E-001 0.0
  4.4800000E-001  1.2000000E-001 0.0
  4.4800000E-001  1.2800000E-001 0.0
  4.4800000E-001  1.3600000E-001 0.0
  4.4800000E-001  1.4400000E-001 0.0
  4.4800000E-001  1.5200000E-001 0.0
  4.4800000E-001  1.6000000E-001 0.0
  4.4800000E-001  1.6800000E-001 0.0
  4.4800000E-001  1.7600000E-001 0.0
  4.4800000E-001  1.8400000E-001 0.0
  4.4800000E-001  1.9200000E-001 0.0
  4.4800000E-001  2.0000000E-001 0.0
  4.4800000E-001  2.0800000E-001 0.0
  4.4800000E-001  2.1600000E-001 0.0
  4.4800000E-001  2.2400000E-001 0.0
  4.4800000E-001  2.3200000E-001 0.0
  4.5600000E-001 -1.9200000E-001 0.0
  4.5600000E-001 -1.8400000E-001 0.0
  4.5600000E-001 -1.7600000E-001 0.0
  4.5600000E-001 -1.6800000E-001 0.0
  4.5600000E-001 -1.6000000E-001 0.0
  4.5600000E-001 -1.5200000E-001 0.0
  4.5600000E-001 -1.4400000E-001 0.0
  4.5600000E-001 -1.3600000E-001 0.0
  4.5600000E-001 -1.2800000E-001 0.0
  4.5600000E-001 -1.2000000E-001 0.0
  4.5600000E-001 -1.1200000E-001 0.0
  4.5600000E-001 -1.0400000E-001 0.0
  4.5600000E-001 -9.6000000E-002 0.0
  4.5600000E-001 -8.8000000E-002 0.0
  4.5600000E-001 -8.0000000E-002 0.0
  4.5600000E-001 -7.2000000E-002 0.0
  4.5600000E-001 -6.4000000E-002 0.0
  4.5600000E-001 -5.6000000E-002 0.0
  4.5600000E-001 -4.8000000E-002 0.0
  4.5600000E-001 -4.0000000E-002 0.0
  4.5600000E-001 -3.2000000E-002 0.0
  4.5600000E-001 -2.4000000E-002 0.0
  4.5600000E-001 -1.6000000E-002 0.0
  4.5600000E-001 -8.0000000E-003 0.0
  4.5600000E-001  0.0000000E+000 0.0
  4.5600000E-001  8.0000000E-003 0.0
  4.5600000E-001  1.6000000E-002 0.0
  4.5600000E-001  2.4000000E-002 0.0
  4.5600000E-001  3.2000000E-002 0.0
  4.5600000E-001  4.0000000E-002 0.0
  4.5600000E-001  4.8000000E-002 0.0
  4.5600000E-001  5.6000000E-002 0.0
  4.5600000E-001  6.4000000E-002 0.0
  4.5600000E-001  7.2000000E-002 0.0
  4.5600000E-001  8.0000000E-002 0.0
  4.5600000E-001  8.8000000E-002 0.0
  4.5600000E-001  9.6000000E-002 0.0
  4.5600000E-001  1.0400000E-001 0.0
  4.5600000E-001  1.1200000E-001 0.0
  4.5600000E-001  1.2000000E-001 0.0
  4.5600000E-001  1.2800000E-001 0.0
  4.5600000E-001  1.3600000E-001 0.0
  4.5600000E-001  1.4400000E-001 0.0
  4.5600000E-001  1.5200000E-001 0.0
  4.5600000E-001  1.6000000E-001 0.0
  4.5600000E-001  1.6800000E-001 0.0
  4.5600000E-001  1.7600000E-001 0.0
  4.5600000E-001  1.8400000E-001 0.0
  4.5600000E-001  1.9200000E-001 0.0
  4.5600000E-001  2.0000000E-001 0.0
  4.5600000E-001  2.0800000E-001 0.0
  4.5600000E-001  2.1600000E-001 0.0
  4.5600000E-001  2.2400000E-001 0.0
  4.5600000E-001  2.3200000E-001 0.0
  4.6400000E-001 -1.8400000E-001 0.0
  4.6400000E-001 -1.7600000E-001 0.0
  4.6400000E-001 -1.6800000E-001 0.0
  4.6400000E-001 -1.6000000E-001 0.0
  4.6400000E-001 -1.5200000E-001 0.0
  4.6400000E-001 -1.4400000E-001 0.0
  4.6400000E-001 -1.3600000E-001 0.0
  4.6400000E-001 -1.2800000E-001 0.0
  4.6400000E-001 -1.2000000E-001 0.0
  4.6400000E-001 -1.1200000E-001 0.0
  4.6400000E-001 -1.0400000E-001 0.0
  4.6400000E-001 -9.6000000E-002 0.0
  4.6400000E-001 -8.8000000E-002 0.0
  4.6400000E-001 -8.0000000E-002 0.0
  4.6400000E-001 -7.2000000E-002 0.0
  4.6400000E-001 -6.4000000E-002 0.0
  4.6400000E-001 -5.6000000E-002 0.0
  4.6400000E-001 -4.8000000E-002 0.0
  4.6400000E-001 -4.0000000E-002 0.0
  4.6400000E-001 -3.2000000E-002 0.0
  4.6400000E-001 -2.4000000E-002 0.0
  4.6400000E-001 -1.6000000E-002 0.0
  4.6400000E-001 -8.0000000E-003 0.0
  4.6400000E-001  0.0000000E+000 0.0
  4.6400000E-001  8.0000000E-003 0.0
  4.6400000E-001  1.6000000E-002 0.0
  4.6400000E-001  2.4000000E-002 0.0
  4.6400000E-001  3.2000000E-002 0.0
  4.6400000E-001  4.0000000E-002 0.0
  4.6400000E-001  4.8000000E-002 0.0
  4.6400000E-001  5.6000000E-002 0.0
  4.6400000E-001  6.4000000E-002 0.0
  4.6400000E-001  7.2000000E-002 0.0
  4.6400000E-001  8.0000000E-002 0.0
  4.6400000E-001  8.8000000E-002 0.0
  4.6400000E-001  9.6000000E-002 0.0
  4.6400000E-001  1.0400000E-001 0.0
  4.6400000E-001  1.1200000E-001 0.0
  4.6400000E-001  1.2000000E-001 0.0
  4.6400000E-001  1.2800000E-001 0.0
  4.6400000E-001  1.3600000E-001 0.0
  4.6400000E-001  1.4400000E-001 0.0
  4.6400000E-001  1.5200000E-001 0.0
  4.6400000E-001  1.6000000E-001 0.0
  4.6400000E-001  1.6800000E-001 0.0
  4.6400000E-001  1.7600000E-001 0.0
  4.6400000E-001  1.8400000E-001 0.0
  4.6400000E-001  1.9200000E-001 0.0
  4.6400000E-001  2.0000000E-001 0.0
  4.6400000E-001  2.0800000E-001 0.0
  4.6400000E-001  2.1600000E-001 0.0
  4.6400000E-001  2.2400000E-001 0.0
  4.6400000E-001  2.3200000E-001 0.0
  4.7200000E-001 -1.8400000E-001 0.0
  4.7200000E-001 -1.7600000E-001 0.0
  4.7200000E-001 -1.6800000E-001 0.0
  4.7200000E-001 -1.6000000E-001 0.0
  4.7200000E-001 -1.5200000E-001 0.0
  4.7200000E-001 -1.4400000E-001 0.0
  4.7200000E-001 -1.3600000E-001 0.0
  4.7200000E-001 -1.2800000E-001 0.0
  4.7200000E-001 -1.2000000E-001 0.0
  4.7200000E-001 -1.1200000E-001 0.0
  4.7200000E-001 -1.0400000E-001 0.0
  4.7200000E-001 -9.6000000E-002 0.0
  4.7200000E-001 -8.8000000E-002 0.0
  4.7200000E-001 -8.0000000E-002 0.0
  4.7200000E-001 -7.2000000E-002 0.0
  4.7200000E-001 -6.4000000E-002 0.0
  4.7200000E-001 -5.6000000E-002 0.0
  4.7200000E-001 -4.8000000E-002 0.0
  4.7200000E-001 -4.0000000E-002 0.0
  4.7200000E-001 -3.2000000E-002 0.0
  4.7200000E-001 -2.4000000E-002 0.0
  4.7200000E-001 -1.6000000E-002 0.0
  4.7200000E-001 -8.0000000E-003 0.0
  4.7200000E-001  0.0000000E+000 0.0
  4.7200000E-001  8.0000000E-003 0.0
  4.7200000E-001  1.6000000E-002 0.0
  4.7200000E-001  2.4000000E-002 0.0
  4.7200000E-001  3.2000000E-002 0.0
  4.7200000E-001  4.0000000E-002 0.0
  4.7200000E-001  4.8000000E-002 0.0
  4.7200000E-001  5.6000000E-002 0.0
  4.7200000E-001  6.4000000E-002 0.0
  4.7200000E-001  7.2000000E-002 0.0
  4.7200000E-001  8.0000000E-002 0.0
  4.7200000E-001  8.8000000E-002 0.0
  4.7200000E-001  9.6000000E-002 0.0
  4.7200000E-001  1.0400000E-001 0.0
  4.7200000E-001  1.1200000E-001 0.0
  4.7200000E-001  1.2000000E-001 0.0
  4.7200000E-001  1.2800000E-001 0.0
  4.7200000E-001  1.3600000E-001 0.0
  4.7200000E-001  1.4400000E-001 0.0
  4.7200000E-001  1.5200000E-001 0.0
  4.7200000E-001  1.6000000E-001 0.0
  4.7200000E-001  1.6800000E-001 0.0
  4.7200000E-001  1.7600000E-001 0.0
  4.7200000E-001  1.8400000E-001 0.0
  4.7200000E-001  1.9200000E-001 0.0
  4.7200000E-001  2.0000000E-001 0.0
  4.7200000E-001  2.0800000E-001 0.0
  4.7200000E-001  2.1600000E-001 0.0
  4.7200000E-001  2.2400000E-001 0.0
  4.7200000E-001  2.3200000E-001 0.0
  4.8000000E-001 -1.8400000E-001 0.0
  4.8000000E-001 -1.7600000E-001 0.0
  4.8000000E-001 -1.6800000E-001 0.0
  4.8000000E-001 -1.6000000E-001 0.0
  4.8000000E-001 -1.5200000E-001 0.0
  4.8000000E-001 -1.4400000E-001 0.0
  4.8000000E-001 -1.3600000E-001 0.0
  4.8000000E-001 -1.2800000E-001 0.0
  4.8000000E-001 -1.2000000E-001 0.0
  4.8000000E-001 -1.1200000E-001 0.0
  4.8000000E-001 -1.0400000E-001 0.0
  4.8000000E-001 -9.6000000E-002 0.0
  4.8000000E-001 -8.8000000E-002 0.0
  4.8000000E-001 -8.0000000E-002 0.0
  4.8000000E-001 -7.2000000E-002 0.0
  4.8000000E-001 -6.4000000E-002 0.0
  4.8000000E-001 -5.6000000E-002 0.0
  4.8000000E-001 -4.8000000E-002 0.0
  4.8000000E-001 -4.0000000E-002 0.0
  4.8000000E-001 -3.2000000E-002 0.0
  4.8000000E-001 -2.4000000E-002 0.0
  4.8000000E-001 -1.6000000E-002 0.0
  4.8000000E-001 -8.0000000E-003 0.0
  4.8000000E-001  0.0000000E+000 0.0
  4.8000000E-001  8.0000000E-003 0.0
  4.8000000E-001  1.6000000E-002 0.0
  4.8000000E-001  2.4000000E-002 0.0
  4.8000000E-001  3.2000000E-002 0.0
  4.8000000E-001  4.0000000E-002 0.0
  4.8000000E-001  4.8000000E-002 0.0
  4.8000000E-001  5.6000000E-002 0.0
  4.8000000E-001  6.4000000E-002 0.0
  4.8000000E-001  7.2000000E-002 0.0
  4.8000000E-001  8.0000000E-002 0.0
  4.8000000E-001  8.8000000E-002 0.0
  4.8000000E-001  9.6000000E-002 0.0
  4.8000000E-001  1.0400000E-001 0.0
  4.8000000E-001  1.1200000E-001 0.0
  4.8000000E-001  1.2000000E-001 0.0
  4.8000000E-001  1.2800000E-001 0.0
  4.8000000E-001  1.3600000E-001 0.0
  4.8000000E-001  1.4400000E-001 0.0
  4.8000000E-001  1.5200000E-001 0.0
  4.8000000E-001  1.6000000E-001 0.0
  4.8000000E-001  1.6800000E-001 0.0
  4.8000000E-001  1.7600000E-001 0.0
  4.8000000E-001  1.8400000E-001 0.0
  4.8000000E-001  1.9200000E-001 0.0
  4.8000000E-001  2.0000000E-001 0.0
  4.8000000E-001  2.0800000E-001 0.0
  4.8000000E-001  2.1600000E-001 0.0
  4.8000000E-001  2.2400000E-001 0.0
  4.8800000E-001 -1.7600000E-001 0.0
  4.8800000E-001 -1.6800000E-001 0.0
  4.8800000E-001 -1.6000000E-001 0.0
  4.8800000E-001 -1.5200000E-001 0.0
  4.8800000E-001 -1.4400000E-001 0.0
  4.8800000E-001 -1.3600000E-001 0.0
  4.8800000E-001 -1.2800000E-001 0.0
  4.8800000E-001 -1.2000000E-001 0.0
  4.8800000E-001 -1.1200000E-001 0.0
  4.8800000E-001 -1.0400000E-001 0.0
  4.8800000E-001 -9.6000000E-002 0.0
  4.8800000E-001 -8.8000000E-002 0.0
  4.8800000E-001 -8.0000000E-002 0.0
  4.8800000E-001 -7.2000000E-002 0.0
  4.8800000E-001 -6.4000000E-002 0.0
  4.8800000E-001 -5.6000000E-002 0.0
  4.8800000E-001 -4.8000000E-002 0.0
  4.8800000E-001 -4.0000000E-002 0.0
  4.8800000E-001 -3.2000000E-002 0.0
  4.8800000E-001 -2.4000000E-002 0.0
  4.8800000E-001 -1.6000000E-002 0.0
  4.8800000E-001 -8.0000000E-003 0.0
  4.8800000E-001  0.0000000E+000 0.0
  4.8800000E-001  8.0000000E-003 0.0
  4.8800000E-001  1.6000000E-002 0.0
  4.8800000E-001  2.4000000E-002 0.0
  4.8800000E-001  3.2000000E-002 0.0
  4.8800000E-001  4.0000000E-002 0.0
  4.8800000E-001  4.8000000E-002 0.0
  4.8800000E-001  5.6000000E-002 0.0
  4.8800000E-001  6.4000000E-002 0.0
  4.8800000E-001  7.2000000E-002 0.0
  4.8800000E-001  8.0000000E-002 0.0
  4.8800000E-001  8.8000000E-002 0.0
  4.8800000E-001  9.6000000E-002 0.0
  4.8800000E-001  1.0400000E-001 0.0
  4.8800000E-001  1.1200000E-001 0.0
  4.8800000E-001  1.2000000E-001 0.0
  4.8800000E-001  1.2800000E-001 0.0
  4.8800000E-001  1.3600000E-001 0.0
  4.8800000E-001  1.4400000E-001 0.0
  4.8800000E-001  1.5200000E-001 0.0
  4.8800000E-001  1.6000000E-001 0.0
  4.8800000E-001  1.6800000E-001 0.0
  4.8800000E-001  1.7600000E-001 0.0
  4.8800000E-001  1.8400000E-001 0.0
  4.8800000E-001  1.9200000E-001 0.0
  4.8800000E-001  2.0000000E-001 0.0
  4.8800000E-001  2.0800000E-001 0.0
  4.8800000E-001  2.1600000E-001 0.0
  4.8800000E-001  2.2400000E-001 0.0
  4.9600000E-001 -1.7600000E-001 0.0
  4.9600000E-001 -1.6800000E-001 0.0
  4.9600000E-001 -1.6000000E-001 0.0
  4.9600000E-001 -1.5200000E-001 0.0
  4.9600000E-001 -1.4400000E-001 0.0
  4.9600000E-001 -1.3600000E-001 0.0
  4.9600000E-001 -1.2800000E-001 0.0
  4.9600000E-001 -1.2000000E-001 0.0
  4.9600000E-001 -1.1200000E-001 0.0
  4.9600000E-001 -1.0400000E-001 0.0
  4.9600000E-001 -9.6000000E-002 0.0
  4.9600000E-001 -8.8000000E-002 0.0
  4.9600000E-001 -8.0000000E-002 0.0
  4.9600000E-001 -7.2000000E-002 0.0
  4.9600000E-001 -6.4000000E-002 0.0
  4.9600000E-001 -5.6000000E-002 0.0
  4.9600000E-001 -4.8000000E-002 0.0
  4.9600000E-001 -4.0000000E-002 0.0
  4.9600000E-001 -3.2000000E-002 0.0
  4.9600000E-001 -2.4000000E-002 0.0
  4.9600000E-001 -1.6000000E-002 0.0
  4.9600000E-001 -8.0000000E-003 0.0
  4.9600000E-001  0.0000000E+000 0.0
  4.9600000E-001  8.0000000E-003 0.0
  4.9600000E-001  1.6000000E-002 0.0
  4.9600000E-001  2.4000000E-002 0.0
  4.9600000E-001  3.2000000E-002 0.0
  4.9600000E-001  4.0000000E-002 0.0
  4.9600000E-001  4.8000000E-002 0.0
  4.9600000E-001  5.6000000E-002 0.0
  4.9600000E-001  6.4000000E-002 0.0
  4.9600000E-001  7.2000000E-002 0.0
  4.9600000E-001  8.0000000E-002 0.0
  4.9600000E-001  8.8000000E-002 0.0
  4.9600000E-001  9.6000000E-002 0.0
  4.9600000E-001  1.0400000E-001 0.0
  4.9600000E-001  1.1200000E-001 0.0
  4.9600000E-001  1.2000000E-001 0.0
  4.9600000E-001  1.2800000E-001 0.0
  4.9600000E-001  1.3600000E-001 0.0
  4.9600000E-001  1.4400000E-001 0.0
  4.9600000E-001  1.5200000E-001 0.0
  4.9600000E-001  1.6000000E-001 0.0
  4.9600000E-001  1.6800000E-001 0.0
  4.9600000E-001  1.7600000E-001 0.0
  4.9600000E-001  1.8400000E-001 0.0
  4.9600000E-001  1.9200000E-001 0.0
  4.9600000E-001  2.0000000E-001 0.0
  4.9600000E-001  2.0800000E-001 0.0
  4.9600000E-001  2.1600000E-001 0.0
  4.9600000E-001  2.2400000E-001 0.0
  5.0400000E-001 -1.7600000E-001 0.0
  5.0400000E-001 -1.6800000E-001 0.0
  5.0400000E-001 -1.6000000E-001 0.0
  5.0400000E-001 -1.5200000E-001 0.0
  5.0400000E-001 -1.4400000E-001 0.0
  5.0400000E-001 -1.3600000E-001 0.0
  5.0400000E-001 -1.2800000E-001 0.0
  5.0400000E-001 -1.2000000E-001 0.0
  5.0400000E-001 -1.1200000E-001 0.0
  5.0400000E-001 -1.0400000E-001 0.0
  5.0400000E-001 -9.6000000E-002 0.0
  5.0400000E-001 -8.8000000E-002 0.0
  5.0400000E-001 -8.0000000E-002 0.0
  5.0400000E-001 -7.2000000E-002 0.0
  5.0400000E-001 -6.4000000E-002 0.0
  5.0400000E-001 -5.6000000E-002 0.0
  5.0400000E-001 -4.8000000E-002 0.0
  5.0400000E-001 -4.0000000E-002 0.0
  5.0400000E-001 -3.2000000E-002 0.0
  5.0400000E-001 -2.4000000E-002 0.0
  5.0400000E-001 -1.6000000E-002 0.0
  5.0400000E-001 -8.0000000E-003 0.0
  5.0400000E-001  0.0000000E+000 0.0
  5.0400000E-001  8.0000000E-003 0.0
  5.0400000E-001  1.6000000E-002 0.0
  5.0400000E-001  2.4000000E-002 0.0
  5.0400000E-001  3.2000000E-002 0.0
  5.0400000E-001  4.0000000E-002 0.0
  5.0400000E-001  4.8000000E-002 0.0
  5.0400000E-001  5.6000000E-002 0.0
  5.0400000E-001  6.4000000E-002 0.0
  5.0400000E-001  7.2000000E-002 0.0
  5.0400000E-001  8.0000000E-002 0.0
  5.0400000E-001  8.8000000E-002 0.0
  5.0400000E-001  9.6000000E-002 0.0
  5.0400000E-001  1.0400000E-001 0.0
  5.0400000E-001  1.1200000E-001 0.0
  5.0400000E-001  1.2000000E-001 0.0
  5.0400000E-001  1.2800000E-001 0.0
  5.0400000E-001  1.3600000E-001 0.0
  5.0400000E-001  1.4400000E-001 0.0
  5.0400000E-001  1.5200000E-001 0.0
  5.0400000E-001  1.6000000E-001 0.0
  5.0400000E-001  1.6800000E-001 0.0
  5.0400000E-001  1.7600000E-001 0.0
  5.0400000E-001  1.8400000E-001 0.0
  5.0400000E-001  1.9200000E-001 0.0
  5.0400000E-001  2.0000000E-001 0.0
  5.0400000E-001  2.0800000E-001 0.0
  5.0400000E-001  2.1600000E-001 0.0
  5.0400000E-001  2.2400000E-001 0.0
  5.1200000E-001 -1.7600000E-001 0.0
  5.1200000E-001 -1.6800000E-001 0.0
  5.1200000E-001 -1.6000000E-001 0.0
  5.1200000E-001 -1.5200000E-001 0.0
  5.1200000E-001 -1.4400000E-001 0.0
  5.1200000E-001 -1.3600000E-001 0.0
  5.1200000E-001 -1.2800000E-001 0.0
  5.1200000E-001 -1.2000000E-001 0.0
  5.1200000E-001 -1.1200000E-001 0.0
  5.1200000E-001 -1.0400000E-001 0.0
  5.1200000E-001 -9.6000000E-002 0.0
  5.1200000E-001 -8.8000000E-002 0.0
  5.1200000E-001 -8.0000000E-002 0.0
  5.1200000E-001 -7.2000000E-002 0.0
  5.1200000E-001 -6.4000000E-002 0.0
  5.1200000E-001 -5.6000000E-002 0.0
  5.1200000E-001 -4.8000000E-002 0.0
  5.1200000E-001 -4.0000000E-002 0.0
  5.1200000E-001 -3.2000000E-002 0.0
  5.1200000E-001 -2.4000000E-002 0.0
  5.1200000E-001 -1.6000000E-002 0.0
  5.1200000E-001 -8.0000000E-003 0.0
  5.1200000E-001  0.0000000E+000 0.0
  5.1200000E-001  8.0000000E-003 0.0
  5.1200000E-001  1.6000000E-002 0.0
  5.1200000E-001  2.4000000E-002 0.0
  5.1200000E-001  3.2000000E-002 0.0
  5.1200000E-001  4.0000000E-002 0.0
  5.1200000E-001  4.8000000E-002 0.0
  5.1200000E-001  5.6000000E-002 0.0
  5.1200000E-001  6.4000000E-002 0.0
  5.1200000E-001  7.2000000E-002 0.0
  5.1200000E-001  8.0000000E-002 0.0
  5.1200000E-001  8.8000000E-002 0.0
  5.1200000E-001  9.6000000E-002 0.0
  5.1200000E-001  1.0400000E-001 0.0
  5.1200000E-001  1.1200000E-001 0.0
  5.1200000E-001  1.2000000E-001 0.0
  5.1200000E-001  1.2800000E-001 0.0
  5.1200000E-001  1.3600000E-001 0.0
  5.1200000E-001  1.4400000E-001 0.0
  5.1200000E-001  1.5200000E-001 0.0
  5.1200000E-001  1.6000000E-001 0.0
  5.1200000E-001  1.6800000E-001 0.0
  5.1200000E-001  1.7600000E-001 0.0
  5.1200000E-001  1.8400000E-001 0.0
  5.1200000E-001  1.9200000E-001 0.0
  5.1200000E-001  2.0000000E-001 0.0
  5.1200000E-001  2.0800000E-001 0.0
  5.1200000E-001  2.1600000E-001 0.0
  5.2000000E-001 -1.6800000E-001 0.0
  5.2000000E-001 -1.6000000E-001 0.0
  5.2000000E-001 -1.5200000E-001 0.0
  5.2000000E-001 -1.4400000E-001 0.0
  5.2000000E-001 -1.3600000E-001 0.0
  5.2000000E-001 -1.2800000E-001 0.0
  5.2000000E-001 -1.2000000E-001 0.0
  5.2000000E-001 -1.1200000E-001 0.0
  5.2000000E-001 -1.0400000E-001 0.0
  5.2000000E-001 -9.6000000E-002 0.0
  5.2000000E-001 -8.8000000E-002 0.0
  5.2000000E-001 -8.0000000E-002 0.0
  5.2000000E-001 -7.2000000E-002 0.0
  5.2000000E-001 -6.4000000E-002 0.0
  5.2000000E-001 -5.6000000E-002 0.0
  5.2000000E-001 -4.8000000E-002 0.0
  5.2000000E-001 -4.0000000E-002 0.0
  5.2000000E-001 -3.2000000E-002 0.0
  5.2000000E-001 -2.4000000E-002 0.0
  5.2000000E-001 -1.6000000E-002 0.0
  5.2000000E-001 -8.0000000E-003 0.0
  5.2000000E-001  0.0000000E+000 0.0
  5.2000000E-001  8.0000000E-003 0.0
  5.2000000E-001  1.6000000E-002 0.0
  5.2000000E-001  2.4000000E-002 0.0
  5.2000000E-001  3.2000000E-002 0.0
  5.2000000E-001  4.0000000E-002 0.0
  5.2000000E-001  4.8000000E-002 0.0
  5.2000000E-001  5.6000000E-002 0.0
  5.2000000E-001  6.4000000E-002 0.0
  5.2000000E-001  7.2000000E-002 0.0
  5.2000000E-001  8.0000000E-002 0.0
  5.2000000E-001  8.8000000E-002 0.0
  5.2000000E-001  9.6000000E-002 0.0
  5.2000000E-001  1.0400000E-001 0.0
  5.2000000E-001  1.1200000E-001 0.0
  5.2000000E-001  1.2000000E-001 0.0
  5.2000000E-001  1.2800000E-001 0.0
  5.2000000E-001  1.3600000E-001 0.0
  5.2000000E-001  1.6000000E-001 0.0
  5.2000000E-001  1.6800000E-001 0.0
  5.2000000E-001  1.7600000E-001 0.0
  5.2000000E-001  1.8400000E-001 0.0
  5.2000000E-001  1.9200000E-001 0.0
  5.2000000E-001  2.0000000E-001 0.0
  5.2000000E-001  2.0800000E-001 0.0
  5.2000000E-001  2.1600000E-001 0.0
  5.2800000E-001 -1.6800000E-001 0.0
  5.2800000E-001 -1.6000000E-001 0.0
  5.2800000E-001 -1.5200000E-001 0.0
  5.2800000E-001 -1.4400000E-001 0.0
  5.2800000E-001 -1.3600000E-001 0.0
  5.2800000E-001 -1.2800000E-001 0.0
  5.2800000E-001 -1.2000000E-001 0.0
  5.2800000E-001 -1.1200000E-001 0.0
  5.2800000E-001 -1.0400000E-001 0.0
  5.2800000E-001 -9.6000000E-002 0.0
  5.2800000E-001 -8.8000000E-002 0.0
  5.2800000E-001 -8.0000000E-002 0.0
  5.2800000E-001 -7.2000000E-002 0.0
  5.2800000E-001 -6.4000000E-002 0.0
  5.2800000E-001 -5.6000000E-002 0.0
  5.2800000E-001 -4.8000000E-002 0.0
  5.2800000E-001 -4.0000000E-002 0.0
  5.2800000E-001 -3.2000000E-002 0.0
  5.2800000E-001 -2.4000000E-002 0.0
  5.2800000E-001 -1.6000000E-002 0.0
  5.2800000E-001 -8.0000000E-003 0.0
  5.2800000E-001  0.0000000E+000 0.0
  5.2800000E-001  8.0000000E-003 0.0
  5.2800000E-001  1.6000000E-002 0.0
  5.2800000E-001  2.4000000E-002 0.0
  5.2800000E-001  3.2000000E-002 0.0
  5.2800000E-001  4.0000000E-002 0.0
  5.2800000E-001  4.8000000E-002 0.0
  5.2800000E-001  5.6000000E-002 0.0
  5.2800000E-001  6.4000000E-002 0.0
  5.2800000E-001  7.2000000E-002 0.0
  5.2800000E-001  8.0000000E-002 0.0
  5.2800000E-001  8.8000000E-002 0.0
  5.2800000E-001  9.6000000E-002 0.0
  5.2800000E-001  1.0400000E-001 0.0
  5.2800000E-001  1.1200000E-001 0.0
  5.2800000E-001  1.2000000E-001 0.0
  5.2800000E-001  1.2800000E-001 0.0
  5.2800000E-001  1.6000000E-001 0.0
  5.2800000E-001  1.6800000E-001 0.0
  5.2800000E-001  1.7600000E-001 0.0
  5.2800000E-001  1.8400000E-001 0.0
  5.2800000E-001  1.9200000E-001 0.0
  5.2800000E-001  2.0000000E-001 0.0
  5.2800000E-001  2.0800000E-001 0.0
  5.2800000E-001  2.1600000E-001 0.0
  5.3600000E-001 -1.6800000E-001 0.0
  5.3600000E-001 -1.6000000E-001 0.0
  5.3600000E-001 -1.5200000E-001 0.0
  5.3600000E-001 -1.4400000E-001 0.0
  5.3600000E-001 -1.3600000E-001 0.0
  5.3600000E-001 -1.2800000E-001 0.0
  5.3600000E-001 -1.2000000E-001 0.0
  5.3600000E-001 -1.1200000E-001 0.0
  5.3600000E-001 -1.0400000E-001 0.0
  5.3600000E-001 -9.6000000E-002 0.0
  5.3600000E-001 -8.8000000E-002 0.0
  5.3600000E-001 -8.0000000E-002 0.0
  5.3600000E-001 -7.2000000E-002 0.0
  5.3600000E-001 -6.4000000E-002 0.0
  5.3600000E-001 -5.6000000E-002 0.0
  5.3600000E-001 -4.8000000E-002 0.0
  5.3600000E-001 -4.0000000E-002 0.0
  5.3600000E-001 -3.2000000E-002 0.0
  5.3600000E-001 -2.4000000E-002 0.0
  5.3600000E-001 -1.6000000E-002 0.0
  5.3600000E-001 -8.0000000E-003 0.0
  5.3600000E-001  0.0000000E+000 0.0
  5.3600000E-001  8.0000000E-003 0.0
  5.3600000E-001  1.6000000E-002 0.0
  5.3600000E-001  2.4000000E-002 0.0
  5.3600000E-001  3.2000000E-002 0.0
  5.3600000E-001  4.0000000E-002 0.0
  5.3600000E-001  4.8000000E-002 0.0
  5.3600000E-001  5.6000000E-002 0.0
  5.3600000E-001  6.4000000E-002 0.0
  5.3600000E-001  7.2000000E-002 0.0
  5.3600000E-001  8.0000000E-002 0.0
  5.3600000E-001  8.8000000E-002 0.0
  5.3600000E-001  9.6000000E-002 0.0
  5.3600000E-001  1.0400000E-001 0.0
  5.3600000E-001  1.1200000E-001 0.0
  5.3600000E-001  1.2000000E-001 0.0
  5.3600000E-001  1.6000000E-001 0.0
  5.3600000E-001  1.6800000E-001 0.0
  5.3600000E-001  1.7600000E-001 0.0
  5.3600000E-001  1.8400000E-001 0.0
  5.3600000E-001  1.9200000E-001 0.0
  5.3600000E-001  2.0000000E-001 0.0
  5.3600000E-001  2.0800000E-001 0.0
  5.4400000E-001 -1.6000000E-001 0.0
  5.4400000E-001 -1.5200000E-001 0.0
  5.4400000E-001 -1.4400000E-001 0.0
  5.4400000E-001 -1.3600000E-001 0.0
  5.4400000E-001 -1.2800000E-001 0.0
  5.4400000E-001 -1.2000000E-001 0.0
  5.4400000E-001 -1.1200000E-001 0.0
  5.4400000E-001 -1.0400000E-001 0.0
  5.4400000E-001 -9.6000000E-002 0.0
  5.4400000E-001 -8.8000000E-002 0.0
  5.4400000E-001 -8.0000000E-002 0.0
  5.4400000E-001 -7.2000000E-002 0.0
  5.4400000E-001 -6.4000000E-002 0.0
  5.4400000E-001 -5.6000000E-002 0.0
  5.4400000E-001 -4.8000000E-002 0.0
  5.4400000E-001 -4.0000000E-002 0.0
  5.4400000E-001 -3.2000000E-002 0.0
  5.4400000E-001 -2.4000000E-002 0.0
  5.4400000E-001 -1.6000000E-002 0.0
  5.4400000E-001 -8.0000000E-003 0.0
  5.4400000E-001  0.0000000E+000 0.0
  5.4400000E-001  8.0000000E-003 0.0
  5.4400000E-001  1.6000000E-002 0.0
  5.4400000E-001  2.4000000E-002 0.0
  5.4400000E-001  3.2000000E-002 0.0
  5.4400000E-001  4.0000000E-002 0.0
  5.4400000E-001  4.8000000E-002 0.0
  5.4400000E-001  5.6000000E-002 0.0
  5.4400000E-001  6.4000000E-002 0.0
  5.4400000E-001  7.2000000E-002 0.0
  5.4400000E-001  8.0000000E-002 0.0
  5.4400000E-001  8.8000000E-002 0.0
  5.4400000E-001  9.6000000E-002 0.0
  5.4400000E-001  1.0400000E-001 0.0
  5.4400000E-001  1.1200000E-001 0.0
  5.3600000E-001  1.5200000E-001 0.0
  5.4400000E-001  1.5200000E-001 0.0
  5.4400000E-001  1.6000000E-001 0.0
  5.4400000E-001  1.6800000E-001 0.0
  5.4400000E-001  1.7600000E-001 0.0
  5.4400000E-001  1.8400000E-001 0.0
  5.4400000E-001  1.9200000E-001 0.0
  5.4400000E-001  2.0000000E-001 0.0
  5.4400000E-001  2.0800000E-001 0.0
  5.5200000E-001 -1.6000000E-001 0.0
  5.5200000E-001 -1.5200000E-001 0.0
  5.5200000E-001 -1.4400000E-001 0.0
  5.5200000E-001 -1.3600000E-001 0.0
  5.5200000E-001 -1.2800000E-001 0.0
  5.5200000E-001 -1.2000000E-001 0.0
  5.5200000E-001 -1.1200000E-001 0.0
  5.5200000E-001 -1.0400000E-001 0.0
  5.5200000E-001 -9.6000000E-002 0.0
  5.5200000E-001 -8.8000000E-002 0.0
  5.5200000E-001 -8.0000000E-002 0.0
  5.5200000E-001 -7.2000000E-002 0.0
  5.5200000E-001 -6.4000000E-002 0.0
  5.5200000E-001 -5.6000000E-002 0.0
  5.5200000E-001 -4.8000000E-002 0.0
  5.5200000E-001 -4.0000000E-002 0.0
  5.5200000E-001 -3.2000000E-002 0.0
  5.5200000E-001 -2.4000000E-002 0.0
  5.5200000E-001 -1.6000000E-002 0.0
  5.5200000E-001 -8.0000000E-003 0.0
  5.5200000E-001  0.0000000E+000 0.0
  5.5200000E-001  8.0000000E-003 0.0
  5.5200000E-001  1.6000000E-002 0.0
  5.5200000E-001  2.4000000E-002 0.0
  5.5200000E-001  3.2000000E-002 0.0
  5.5200000E-001  4.0000000E-002 0.0
  5.5200000E-001  4.8000000E-002 0.0
  5.5200000E-001  5.6000000E-002 0.0
  5.5200000E-001  6.4000000E-002 0.0
  5.5200000E-001  7.2000000E-002 0.0
  5.5200000E-001  8.0000000E-002 0.0
  5.5200000E-001  8.8000000E-002 0.0
  5.5200000E-001  9.6000000E-002 0.0
  5.5200000E-001  1.0400000E-001 0.0
  5.5200000E-001  1.1200000E-001 0.0
  5.5200000E-001  1.5200000E-001 0.0
  5.5200000E-001  1.6000000E-001 0.0
  5.5200000E-001  1.6800000E-001 0.0
  5.5200000E-001  1.7600000E-001 0.0
  5.5200000E-001  1.8400000E-001 0.0
  5.5200000E-001  1.9200000E-001 0.0
  5.5200000E-001  2.0000000E-001 0.0
  5.5200000E-001  2.0800000E-001 0.0
  5.6000000E-001 -1.5200000E-001 0.0
  5.6000000E-001 -1.4400000E-001 0.0
  5.6000000E-001 -1.3600000E-001 0.0
  5.6000000E-001 -1.2800000E-001 0.0
  5.6000000E-001 -1.2000000E-001 0.0
  5.6000000E-001 -1.1200000E-001 0.0
  5.6000000E-001 -1.0400000E-001 0.0
  5.6000000E-001 -9.6000000E-002 0.0
  5.6000000E-001 -8.8000000E-002 0.0
  5.6000000E-001 -8.0000000E-002 0.0
  5.6000000E-001 -7.2000000E-002 0.0
  5.6000000E-001 -6.4000000E-002 0.0
  5.6000000E-001 -5.6000000E-002 0.0
  5.6000000E-001 -4.8000000E-002 0.0
  5.6000000E-001 -4.0000000E-002 0.0
  5.6000000E-001 -3.2000000E-002 0.0
  5.6000000E-001 -2.4000000E-002 0.0
  5.6000000E-001 -1.6000000E-002 0.0
  5.6000000E-001 -8.0000000E-003 0.0
  5.6000000E-001  0.0000000E+000 0.0
  5.6000000E-001  8.0000000E-003 0.0
  5.6000000E-001  1.6000000E-002 0.0
  5.6000000E-001  2.4000000E-002 0.0
  5.6000000E-001  3.2000000E-002 0.0
  5.6000000E-001  4.0000000E-002 0.0
  5.6000000E-001  4.8000000E-002 0.0
  5.6000000E-001  5.6000000E-002 0.0
  5.6000000E-001  6.4000000E-002 0.0
  5.6000000E-001  7.2000000E-002 0.0
  5.6000000E-001  8.0000000E-002 0.0
  5.6000000E-001  8.8000000E-002 0.0
  5.6000000E-001  9.6000000E-002 0.0
  5.6000000E-001  1.0400000E-001 0.0
  5.6000000E-001  1.5200000E-001 0.0
  5.6000000E-001  1.6000000E-001 0.0
  5.6000000E-001  1.6800000E-001 0.0
  5.6000000E-001  1.7600000E-001 0.0
  5.6000000E-001  1.8400000E-001 0.0
  5.6000000E-001  1.9200000E-001 0.0
  5.6000000E-001  2.0000000E-001 0.0
  5.6800000E-001 -1.5200000E-001 0.0
  5.6800000E-001 -1.4400000E-001 0.0
  5.6800000E-001 -1.3600000E-001 0.0
  5.6800000E-001 -1.2800000E-001 0.0
  5.6800000E-001 -1.2000000E-001 0.0
  5.6800000E-001 -1.1200000E-001 0.0
  5.6800000E-001 -1.0400000E-001 0.0
  5.6800000E-001 -9.6000000E-002 0.0
  5.6800000E-001 -8.8000000E-002 0.0
  5.6800000E-001 -8.0000000E-002 0.0
  5.6800000E-001 -7.2000000E-002 0.0
  5.6800000E-001 -6.4000000E-002 0.0
  5.6800000E-001 -5.6000000E-002 0.0
  5.6800000E-001 -4.8000000E-002 0.0
  5.6800000E-001 -4.0000000E-002 0.0
  5.6800000E-001 -3.2000000E-002 0.0
  5.6800000E-001 -2.4000000E-002 0.0
  5.6800000E-001 -1.6000000E-002 0.0
  5.6800000E-001 -8.0000000E-003 0.0
  5.6800000E-001  0.0000000E+000 0.0
  5.6800000E-001  8.0000000E-003 0.0
  5.6800000E-001  1.6000000E-002 0.0
  5.6800000E-001  2.4000000E-002 0.0
  5.6800000E-001  3.2000000E-002 0.0
  5.6800000E-001  4.0000000E-002 0.0
  5.6800000E-001  4.8000000E-002 0.0
  5.6800000E-001  5.6000000E-002 0.0
  5.6800000E-001  6.4000000E-002 0.0
  5.6800000E-001  7.2000000E-002 0.0
  5.6800000E-001  8.0000000E-002 0.0
  5.6800000E-001  8.8000000E-002 0.0
  5.6800000E-001  9.6000000E-002 0.0
  5.6800000E-001  1.0400000E-001 0.0
  5.6000000E-001  1.4400000E-001 0.0
  5.6800000E-001  1.4400000E-001 0.0
  5.6800000E-001  1.5200000E-001 0.0
  5.6800000E-001  1.6000000E-001 0.0
  5.6800000E-001  1.6800000E-001 0.0
  5.6800000E-001  1.7600000E-001 0.0
  5.6800000E-001  1.8400000E-001 0.0
  5.6800000E-001  1.9200000E-001 0.0
  5.6800000E-001  2.0000000E-001 0.0
  5.7600000E-001 -1.5200000E-001 0.0
  5.7600000E-001 -1.4400000E-001 0.0
  5.7600000E-001 -1.3600000E-001 0.0
  5.7600000E-001 -1.2800000E-001 0.0
  5.7600000E-001 -1.2000000E-001 0.0
  5.7600000E-001 -1.1200000E-001 0.0
  5.7600000E-001 -1.0400000E-001 0.0
  5.7600000E-001 -9.6000000E-002 0.0
  5.7600000E-001 -8.8000000E-002 0.0
  5.7600000E-001 -8.0000000E-002 0.0
  5.7600000E-001 -7.2000000E-002 0.0
  5.7600000E-001 -6.4000000E-002 0.0
  5.7600000E-001 -5.6000000E-002 0.0
  5.7600000E-001 -4.8000000E-002 0.0
  5.7600000E-001 -4.0000000E-002 0.0
  5.7600000E-001 -3.2000000E-002 0.0
  5.7600000E-001 -2.4000000E-002 0.0
  5.7600000E-001 -1.6000000E-002 0.0
  5.7600000E-001 -8.0000000E-003 0.0
  5.7600000E-001  0.0000000E+000 0.0
  5.7600000E-001  8.0000000E-003 0.0
  5.7600000E-001  1.6000000E-002 0.0
  5.7600000E-001  2.4000000E-002 0.0
  5.7600000E-001  3.2000000E-002 0.0
  5.7600000E-001  4.0000000E-002 0.0
  5.7600000E-001  4.8000000E-002 0.0
  5.7600000E-001  5.6000000E-002 0.0
  5.7600000E-001  6.4000000E-002 0.0
  5.7600000E-001  7.2000000E-002 0.0
  5.7600000E-001  8.0000000E-002 0.0
  5.7600000E-001  8.8000000E-002 0.0
  5.7600000E-001  9.6000000E-002 0.0
  5.7600000E-001  1.4400000E-001 0.0
  5.7600000E-001  1.5200000E-001 0.0
  5.7600000E-001  1.6000000E-001 0.0
  5.7600000E-001  1.6800000E-001 0.0
  5.7600000E-001  1.7600000E-001 0.0
  5.7600000E-001  1.8400000E-001 0.0
  5.7600000E-001  1.9200000E-001 0.0
  5.7600000E-001  2.0000000E-001 0.0
  5.8400000E-001 -1.4400000E-001 0.0
  5.8400000E-001 -1.3600000E-001 0.0
  5.8400000E-001 -1.2800000E-001 0.0
  5.8400000E-001 -1.2000000E-001 0.0
  5.8400000E-001 -1.1200000E-001 0.0
  5.8400000E-001 -1.0400000E-001 0.0
  5.8400000E-001 -9.6000000E-002 0.0
  5.8400000E-001 -8.8000000E-002 0.0
  5.8400000E-001 -8.0000000E-002 0.0
  5.8400000E-001 -7.2000000E-002 0.0
  5.8400000E-001 -6.4000000E-002 0.0
  5.8400000E-001 -5.6000000E-002 0.0
  5.8400000E-001 -4.8000000E-002 0.0
  5.8400000E-001 -4.0000000E-002 0.0
  5.8400000E-001 -3.2000000E-002 0.0
  5.8400000E-001 -2.4000000E-002 0.0
  5.8400000E-001 -1.6000000E-002 0.0
  5.8400000E-001 -8.0000000E-003 0.0
  5.8400000E-001  0.0000000E+000 0.0
  5.8400000E-001  8.0000000E-003 0.0
  5.8400000E-001  1.6000000E-002 0.0
  5.8400000E-001  2.4000000E-002 0.0
  5.8400000E-001  3.2000000E-002 0.0
  5.8400000E-001  4.0000000E-002 0.0
  5.8400000E-001  4.8000000E-002 0.0
  5.8400000E-001  5.6000000E-002 0.0
  5.8400000E-001  6.4000000E-002 0.0
  5.8400000E-001  7.2000000E-002 0.0
  5.8400000E-001  8.0000000E-002 0.0
  5.8400000E-001  8.8000000E-002 0.0
  5.8400000E-001  9.6000000E-002 0.0
  5.8400000E-001  1.4400000E-001 0.0
  5.8400000E-001  1.5200000E-001 0.0
  5.8400000E-001  1.6000000E-001 0.0
  5.8400000E-001  1.6800000E-001 0.0
  5.8400000E-001  1.7600000E-001 0.0
  5.8400000E-001  1.8400000E-001 0.0
  5.8400000E-001  1.9200000E-001 0.0
  5.8400000E-001  2.0000000E-001 0.0
  5.9200000E-001 -1.4400000E-001 0.0
  5.9200000E-001 -1.3600000E-001 0.0
  5.9200000E-001 -1.2800000E-001 0.0
  5.9200000E-001 -1.2000000E-001 0.0
  5.9200000E-001 -1.1200000E-001 0.0
  5.9200000E-001 -1.0400000E-001 0.0
  5.9200000E-001 -9.6000000E-002 0.0
  5.9200000E-001 -8.8000000E-002 0.0
  5.9200000E-001 -8.0000000E-002 0.0
  5.9200000E-001 -7.2000000E-002 0.0
  5.9200000E-001 -6.4000000E-002 0.0
  5.9200000E-001 -5.6000000E-002 0.0
  5.9200000E-001 -4.8000000E-002 0.0
  5.9200000E-001 -4.0000000E-002 0.0
  5.9200000E-001 -3.2000000E-002 0.0
  5.9200000E-001 -2.4000000E-002 0.0
  5.9200000E-001 -1.6000000E-002 0.0
  5.9200000E-001 -8.0000000E-003 0.0
  5.9200000E-001  0.0000000E+000 0.0
  5.9200000E-001  8.0000000E-003 0.0
  5.9200000E-001  1.6000000E-002 0.0
  5.9200000E-001  2.4000000E-002 0.0
  5.9200000E-001  3.2000000E-002 0.0
  5.9200000E-001  4.0000000E-002 0.0
  5.9200000E-001  4.8000000E-002 0.0
  5.9200000E-001  5.6000000E-002 0.0
  5.9200000E-001  6.4000000E-002 0.0
  5.9200000E-001  7.2000000E-002 0.0
  5.9200000E-001  8.0000000E-002 0.0
  5.9200000E-001  8.8000000E-002 0.0
  5.9200000E-001  1.4400000E-001 0.0
  5.9200000E-001  1.5200000E-001 0.0
  5.9200000E-001  1.6000000E-001 0.0
  5.9200000E-001  1.6800000E-001 0.0
  5.9200000E-001  1.7600000E-001 0.0
  5.9200000E-001  1.8400000E-001 0.0
  5.9200000E-001  1.9200000E-001 0.0
  6.0000000E-001 -1.3600000E-001 0.0
  6.0000000E-001 -1.2800000E-001 0.0
  6.0000000E-001 -1.2000000E-001 0.0
  6.0000000E-001 -1.1200000E-001 0.0
  6.0000000E-001 -1.0400000E-001 0.0
  6.0000000E-001 -9.6000000E-002 0.0
  6.0000000E-001 -8.8000000E-002 0.0
  6.0000000E-001 -8.0000000E-002 0.0
  6.0000000E-001 -7.2000000E-002 0.0
  6.0000000E-001 -6.4000000E-002 0.0
  6.0000000E-001 -5.6000000E-002 0.0
  6.0000000E-001 -4.8000000E-002 0.0
  6.0000000E-001 -4.0000000E-002 0.0
  6.0000000E-001 -3.2000000E-002 0.0
  6.0000000E-001 -2.4000000E-002 0.0
  6.0000000E-001 -1.6000000E-002 0.0
  6.0000000E-001 -8.0000000E-003 0.0
  6.0000000E-001  0.0000000E+000 0.0
  6.0000000E-001  8.0000000E-003 0.0
  6.0000000E-001  1.6000000E-002 0.0
  6.0000000E-001  2.4000000E-002 0.0
  6.0000000E-001  3.2000000E-002 0.0
  6.0000000E-001  4.0000000E-002 0.0
  6.0000000E-001  4.8000000E-002 0.0
  6.0000000E-001  5.6000000E-002 0.0
  6.0000000E-001  6.4000000E-002 0.0
  6.0000000E-001  7.2000000E-002 0.0
  6.0000000E-001  8.0000000E-002 0.0
  5.9200000E-001  1.3600000E-001 0.0
  6.0000000E-001  1.3600000E-001 0.0
  6.0000000E-001  1.4400000E-001 0.0
  6.0000000E-001  1.5200000E-001 0.0
  6.0000000E-001  1.6000000E-001 0.0
  6.0000000E-001  1.6800000E-001 0.0
  6.0000000E-001  1.7600000E-001 0.0
  6.0000000E-001  1.8400000E-001 0.0
  6.0000000E-001  1.9200000E-001 0.0
  6.0800000E-001 -1.3600000E-001 0.0
  6.0800000E-001 -1.2800000E-001 0.0
  6.0800000E-001 -1.2000000E-001 0.0
  6.0800000E-001 -1.1200000E-001 0.0
  6.0800000E-001 -1.0400000E-001 0.0
  6.0800000E-001 -9.6000000E-002 0.0
  6.0800000E-001 -8.8000000E-002 0.0
  6.0800000E-001 -8.0000000E-002 0.0
  6.0800000E-001 -7.2000000E-002 0.0
  6.0800000E-001 -6.4000000E-002 0.0
  6.0800000E-001 -5.6000000E-002 0.0
  6.0800000E-001 -4.8000000E-002 0.0
  6.0800000E-001 -4.0000000E-002 0.0
  6.0800000E-001 -3.2000000E-002 0.0
  6.0800000E-001 -2.4000000E-002 0.0
  6.0800000E-001 -1.6000000E-002 0.0
  6.0800000E-001 -8.0000000E-003 0.0
  6.0800000E-001  0.0000000E+000 0.0
  6.0800000E-001  8.0000000E-003 0.0
  6.0800000E-001  1.6000000E-002 0.0
  6.0800000E-001  2.4000000E-002 0.0
  6.0800000E-001  3.2000000E-002 0.0
  6.0800000E-001  4.0000000E-002 0.0
  6.0800000E-001  4.8000000E-002 0.0
  6.0800000E-001  5.6000000E-002 0.0
  6.0800000E-001  6.4000000E-002 0.0
  6.0800000E-001  7.2000000E-002 0.0
  6.0800000E-001  8.0000000E-002 0.0
  6.0800000E-001  1.3600000E-001 0.0
  6.0800000E-001  1.4400000E-001 0.0
  6.0800000E-001  1.5200000E-001 0.0
  6.0800000E-001  1.6000000E-001 0.0
  6.0800000E-001  1.6800000E-001 0.0
  6.0800000E-001  1.7600000E-001 0.0
  6.0800000E-001  1.8400000E-001 0.0
  6.0800000E-001  1.9200000E-001 0.0
  6.1600000E-001 -1.3600000E-001 0.0
  6.1600000E-001 -1.2800000E-001 0.0
  6.1600000E-001 -1.2000000E-001 0.0
  6.1600000E-001 -1.1200000E-001 0.0
  6.1600000E-001 -1.0400000E-001 0.0
  6.1600000E-001 -9.6000000E-002 0.0
  6.1600000E-001 -8.8000000E-002 0.0
  6.1600000E-001 -8.0000000E-002 0.0
  6.1600000E-001 -7.2000000E-002 0.0
  6.1600000E-001 -6.4000000E-002 0.0
  6.1600000E-001 -5.6000000E-002 0.0
  6.1600000E-001 -4.8000000E-002 0.0
  6.1600000E-001 -4.0000000E-002 0.0
  6.1600000E-001 -3.2000000E-002 0.0
  6.1600000E-001 -2.4000000E-002 0.0
  6.1600000E-001 -1.6000000E-002 0.0
  6.1600000E-001 -8.0000000E-003 0.0
  6.1600000E-001  0.0000000E+000 0.0
  6.1600000E-001  8.0000000E-003 0.0
  6.1600000E-001  1.6000000E-002 0.0
  6.1600000E-001  2.4000000E-002 0.0
  6.1600000E-001  3.2000000E-002 0.0
  6.1600000E-001  4.0000000E-002 0.0
  6.1600000E-001  4.8000000E-002 0.0
  6.1600000E-001  5.6000000E-002 0.0
  6.1600000E-001  6.4000000E-002 0.0
  6.1600000E-001  7.2000000E-002 0.0
  6.1600000E-001  8.0000000E-002 0.0
  6.1600000E-001  1.3600000E-001 0.0
  6.1600000E-001  1.4400000E-001 0.0
  6.1600000E-001  1.5200000E-001 0.0
  6.1600000E-001  1.6000000E-001 0.0
  6.1600000E-001  1.6800000E-001 0.0
  6.1600000E-001  1.7600000E-001 0.0
  6.1600000E-001  1.8400000E-001 0.0
  6.2400000E-001 -1.2800000E-001 0.0
  6.2400000E-001 -1.2000000E-001 0.0
  6.2400000E-001 -1.1200000E-001 0.0
  6.2400000E-001 -1.0400000E-001 0.0
  6.2400000E-001 -9.6000000E-002 0.0
  6.2400000E-001 -8.8000000E-002 0.0
  6.2400000E-001 -8.0000000E-002 0.0
  6.2400000E-001 -7.2000000E-002 0.0
  6.2400000E-001 -6.4000000E-002 0.0
  6.2400000E-001 -5.6000000E-002 0.0
  6.2400000E-001 -4.8000000E-002 0.0
  6.2400000E-001 -4.0000000E-002 0.0
  6.2400000E-001 -3.2000000E-002 0.0
  6.2400000E-001 -2.4000000E-002 0.0
  6.2400000E-001 -1.6000000E-002 0.0
  6.2400000E-001 -8.0000000E-003 0.0
  6.2400000E-001  0.0000000E+000 0.0
  6.2400000E-001  8.0000000E-003 0.0
  6.2400000E-001  1.6000000E-002 0.0
  6.2400000E-001  2.4000000E-002 0.0
  6.2400000E-001  3.2000000E-002 0.0
  6.2400000E-001  4.0000000E-002 0.0
  6.2400000E-001  4.8000000E-002 0.0
  6.2400000E-001  5.6000000E-002 0.0
  6.2400000E-001  6.4000000E-002 0.0
  6.2400000E-001  7.2000000E-002 0.0
  6.2400000E-001  8.0000000E-002 0.0
  6.2400000E-001  1.3600000E-001 0.0
  6.2400000E-001  1.4400000E-001 0.0
  6.2400000E-001  1.5200000E-001 0.0
  6.2400000E-001  1.6000000E-001 0.0
  6.2400000E-001  1.6800000E-001 0.0
  6.2400000E-001  1.7600000E-001 0.0
  6.2400000E-001  1.8400000E-001 0.0
  6.3200000E-001 -1.2800000E-001 0.0
  6.3200000E-001 -1.2000000E-001 0.0
  6.3200000E-001 -1.1200000E-001 0.0
  6.3200000E-001 -1.0400000E-001 0.0
  6.3200000E-001 -9.6000000E-002 0.0
  6.3200000E-001 -8.8000000E-002 0.0
  6.3200000E-001 -8.0000000E-002 0.0
  6.3200000E-001 -7.2000000E-002 0.0
  6.3200000E-001 -6.4000000E-002 0.0
  6.3200000E-001 -5.6000000E-002 0.0
  6.3200000E-001 -4.8000000E-002 0.0
  6.3200000E-001 -4.0000000E-002 0.0
  6.3200000E-001 -3.2000000E-002 0.0
  6.3200000E-001 -2.4000000E-002 0.0
  6.3200000E-001 -1.6000000E-002 0.0
  6.3200000E-001 -8.0000000E-003 0.0
  6.3200000E-001  0.0000000E+000 0.0
  6.3200000E-001  8.0000000E-003 0.0
  6.3200000E-001  1.6000000E-002 0.0
  6.3200000E-001  2.4000000E-002 0.0
  6.3200000E-001  3.2000000E-002 0.0
  6.3200000E-001  4.0000000E-002 0.0
  6.3200000E-001  4.8000000E-002 0.0
  6.3200000E-001  5.6000000E-002 0.0
  6.3200000E-001  6.4000000E-002 0.0
  6.3200000E-001  7.2000000E-002 0.0
  6.2400000E-001  1.2800000E-001 0.0
  6.3200000E-001  1.2800000E-001 0.0
  6.3200000E-001  1.3600000E-001 0.0
  6.3200000E-001  1.4400000E-001 0.0
  6.3200000E-001  1.5200000E-001 0.0
  6.3200000E-001  1.6000000E-001 0.0
  6.3200000E-001  1.6800000E-001 0.0
  6.3200000E-001  1.7600000E-001 0.0
  6.3200000E-001  1.8400000E-001 0.0
  6.4000000E-001 -1.2800000E-001 0.0
  6.4000000E-001 -1.2000000E-001 0.0
  6.4000000E-001 -1.1200000E-001 0.0
  6.4000000E-001 -1.0400000E-001 0.0
  6.4000000E-001 -9.6000000E-002 0.0
  6.4000000E-001 -8.8000000E-002 0.0
  6.4000000E-001 -8.0000000E-002 0.0
  6.4000000E-001 -7.2000000E-002 0.0
  6.4000000E-001 -6.4000000E-002 0.0
  6.4000000E-001 -5.6000000E-002 0.0
  6.4000000E-001 -4.8000000E-002 0.0
  6.4000000E-001 -4.0000000E-002 0.0
  6.4000000E-001 -3.2000000E-002 0.0
  6.4000000E-001 -2.4000000E-002 0.0
  6.4000000E-001 -1.6000000E-002 0.0
  6.4000000E-001 -8.0000000E-003 0.0
  6.4000000E-001  0.0000000E+000 0.0
  6.4000000E-001  8.0000000E-003 0.0
  6.4000000E-001  1.6000000E-002 0.0
  6.4000000E-001  2.4000000E-002 0.0
  6.4000000E-001  3.2000000E-002 0.0
  6.4000000E-001  4.0000000E-002 0.0
  6.4000000E-001  4.8000000E-002 0.0
  6.4000000E-001  5.6000000E-002 0.0
  6.4000000E-001  6.4000000E-002 0.0
  6.4000000E-001  7.2000000E-002 0.0
  6.4000000E-001  1.2800000E-001 0.0
  6.4000000E-001  1.3600000E-001 0.0
  6.4000000E-001  1.4400000E-001 0.0
  6.4000000E-001  1.5200000E-001 0.0
  6.4000000E-001  1.6000000E-001 0.0
  6.4000000E-001  1.6800000E-001 0.0
  6.4000000E-001  1.7600000E-001 0.0
  6.4800000E-001 -1.2000000E-001 0.0
  6.4800000E-001 -1.1200000E-001 0.0
  6.4800000E-001 -1.0400000E-001 0.0
  6.4800000E-001 -9.6000000E-002 0.0
  6.4800000E-001 -8.8000000E-002 0.0
  6.4800000E-001 -8.0000000E-002 0.0
  6.4800000E-001 -7.2000000E-002 0.0
  6.4800000E-001 -6.4000000E-002 0.0
  6.4800000E-001 -5.6000000E-002 0.0
  6.4800000E-001 -4.8000000E-002 0.0
  6.4800000E-001 -4.0000000E-002 0.0
  6.4800000E-001 -3.2000000E-002 0.0
  6.4800000E-001 -2.4000000E-002 0.0
  6.4800000E-001 -1.6000000E-002 0.0
  6.4800000E-001 -8.0000000E-003 0.0
  6.4800000E-001  0.0000000E+000 0.0
  6.4800000E-001  8.0000000E-003 0.0
  6.4800000E-001  1.6000000E-002 0.0
  6.4800000E-001  2.4000000E-002 0.0
  6.4800000E-001  3.2000000E-002 0.0
  6.4800000E-001  4.0000000E-002 0.0
  6.4800000E-001  4.8000000E-002 0.0
  6.4800000E-001  5.6000000E-002 0.0
  6.4800000E-001  6.4000000E-002 0.0
  6.4800000E-001  7.2000000E-002 0.0
  6.4800000E-001  1.2800000E-001 0.0
  6.4800000E-001  1.3600000E-001 0.0
  6.4800000E-001  1.4400000E-001 0.0
  6.4800000E-001  1.5200000E-001 0.0
  6.4800000E-001  1.6000000E-001 0.0
  6.4800000E-001  1.6800000E-001 0.0
  6.4800000E-001  1.7600000E-001 0.0
  6.5600000E-001 -1.2000000E-001 0.0
  6.5600000E-001 -1.1200000E-001 0.0
  6.5600000E-001 -1.0400000E-001 0.0
  6.5600000E-001 -9.6000000E-002 0.0
  6.5600000E-001 -8.8000000E-002 0.0
  6.5600000E-001 -8.0000000E-002 0.0
  6.5600000E-001 -7.2000000E-002 0.0
  6.5600000E-001 -6.4000000E-002 0.0
  6.5600000E-001 -5.6000000E-002 0.0
  6.5600000E-001 -4.8000000E-002 0.0
  6.5600000E-001 -4.0000000E-002 0.0
  6.5600000E-001 -3.2000000E-002 0.0
  6.5600000E-001 -2.4000000E-002 0.0
  6.5600000E-001 -1.6000000E-002 0.0
  6.5600000E-001 -8.0000000E-003 0.0
  6.5600000E-001  0.0000000E+000 0.0
  6.5600000E-001  8.0000000E-003 0.0
  6.5600000E-001  1.6000000E-002 0.0
  6.5600000E-001  2.4000000E-002 0.0
  6.5600000E-001  3.2000000E-002 0.0
  6.5600000E-001  4.0000000E-002 0.0
  6.5600000E-001  4.8000000E-002 0.0
  6.5600000E-001  5.6000000E-002 0.0
  6.5600000E-001  6.4000000E-002 0.0
  6.4800000E-001  1.2000000E-001 0.0
  6.5600000E-001  1.2000000E-001 0.0
  6.5600000E-001  1.2800000E-001 0.0
  6.5600000E-001  1.3600000E-001 0.0
  6.5600000E-001  1.4400000E-001 0.0
  6.5600000E-001  1.5200000E-001 0.0
  6.5600000E-001  1.6000000E-001 0.0
  6.5600000E-001  1.6800000E-001 0.0
  6.5600000E-001  1.7600000E-001 0.0
  6.6400000E-001 -1.2000000E-001 0.0
  6.6400000E-001 -1.1200000E-001 0.0
  6.6400000E-001 -1.0400000E-001 0.0
  6.6400000E-001 -9.6000000E-002 0.0
  6.6400000E-001 -8.8000000E-002 0.0
  6.6400000E-001 -8.0000000E-002 0.0
  6.6400000E-001 -7.2000000E-002 0.0
  6.6400000E-001 -6.4000000E-002 0.0
  6.6400000E-001 -5.6000000E-002 0.0
  6.6400000E-001 -4.8000000E-002 0.0
  6.6400000E-001 -4.0000000E-002 0.0
  6.6400000E-001 -3.2000000E-002 0.0
  6.6400000E-001 -2.4000000E-002 0.0
  6.6400000E-001 -1.6000000E-002 0.0
  6.6400000E-001 -8.0000000E-003 0.0
  6.6400000E-001  0.0000000E+000 0.0
  6.6400000E-001  8.0000000E-003 0.0
  6.6400000E-001  1.6000000E-002 0.0
  6.6400000E-001  2.4000000E-002 0.0
  6.6400000E-001  3.2000000E-002 0.0
  6.6400000E-001  4.0000000E-002 0.0
  6.6400000E-001  4.8000000E-002 0.0
  6.6400000E-001  5.6000000E-002 0.0
  6.6400000E-001  6.4000000E-002 0.0
  6.6400000E-001  1.2000000E-001 0.0
  6.6400000E-001  1.2800000E-001 0.0
  6.6400000E-001  1.3600000E-001 0.0
  6.6400000E-001  1.4400000E-001 0.0
  6.6400000E-001  1.5200000E-001 0.0
  6.6400000E-001  1.6000000E-001 0.0
  6.6400000E-001  1.6800000E-001 0.0
  6.6400000E-001  1.7600000E-001 0.0
  6.7200000E-001 -1.0400000E-001 0.0
  6.7200000E-001 -9.6000000E-002 0.0
  6.7200000E-001 -8.8000000E-002 0.0
  6.7200000E-001 -8.0000000E-002 0.0
  6.7200000E-001 -7.2000000E-002 0.0
  6.7200000E-001 -6.4000000E-002 0.0
  6.7200000E-001 -5.6000000E-002 0.0
  6.7200000E-001 -4.8000000E-002 0.0
  6.7200000E-001 -4.0000000E-002 0.0
  6.7200000E-001 -3.2000000E-002 0.0
  6.7200000E-001 -2.4000000E-002 0.0
  6.7200000E-001 -1.6000000E-002 0.0
  6.7200000E-001 -8.0000000E-003 0.0
  6.7200000E-001  0.0000000E+000 0.0
  6.7200000E-001  8.0000000E-003 0.0
  6.7200000E-001  1.6000000E-002 0.0
  6.7200000E-001  2.4000000E-002 0.0
  6.7200000E-001  3.2000000E-002 0.0
  6.7200000E-001  4.0000000E-002 0.0
  6.7200000E-001  4.8000000E-002 0.0
  6.7200000E-001  5.6000000E-002 0.0
  6.6400000E-001  1.1200000E-001 0.0
  6.7200000E-001  1.1200000E-001 0.0
  6.7200000E-001  1.2000000E-001 0.0
  6.7200000E-001  1.2800000E-001 0.0
  6.7200000E-001  1.3600000E-001 0.0
  6.7200000E-001  1.4400000E-001 0.0
  6.7200000E-001  1.5200000E-001 0.0
  6.7200000E-001  1.6000000E-001 0.0
  6.7200000E-001  1.6800000E-001 0.0
  6.8000000E-001 -1.0400000E-001 0.0
  6.8000000E-001 -9.6000000E-002 0.0
  6.8000000E-001 -8.8000000E-002 0.0
  6.8000000E-001 -8.0000000E-002 0.0
  6.8000000E-001 -7.2000000E-002 0.0
  6.8000000E-001 -6.4000000E-002 0.0
  6.8000000E-001 -5.6000000E-002 0.0
  6.8000000E-001 -4.8000000E-002 0.0
  6.8000000E-001 -4.0000000E-002 0.0
  6.8000000E-001 -3.2000000E-002 0.0
  6.8000000E-001 -2.4000000E-002 0.0
  6.8000000E-001 -1.6000000E-002 0.0
  6.8000000E-001 -8.0000000E-003 0.0
  6.8000000E-001  0.0000000E+000 0.0
  6.8000000E-001  8.0000000E-003 0.0
  6.8000000E-001  1.6000000E-002 0.0
  6.8000000E-001  2.4000000E-002 0.0
  6.8000000E-001  3.2000000E-002 0.0
  6.8000000E-001  4.0000000E-002 0.0
  6.8000000E-001  4.8000000E-002 0.0
  6.8000000E-001  5.6000000E-002 0.0
  6.7200000E-001  1.0400000E-001 0.0
  6.8000000E-001  1.0400000E-001 0.0
  6.8000000E-001  1.1200000E-001 0.0
  6.8000000E-001  1.2000000E-001 0.0
  6.8000000E-001  1.2800000E-001 0.0
  6.8000000E-001  1.3600000E-001 0.0
  6.8000000E-001  1.4400000E-001 0.0
  6.8000000E-001  1.5200000E-001 0.0
  6.8000000E-001  1.6000000E-001 0.0
  6.8000000E-001  1.6800000E-001 0.0
  6.8800000E-001 -9.6000000E-002 0.0
  6.8800000E-001 -8.8000000E-002 0.0
  6.8800000E-001 -8.0000000E-002 0.0
  6.8800000E-001 -7.2000000E-002 0.0
  6.8800000E-001 -6.4000000E-002 0.0
  6.8800000E-001 -5.6000000E-002 0.0
  6.8800000E-001 -4.8000000E-002 0.0
  6.8800000E-001 -4.0000000E-002 0.0
  6.8800000E-001 -3.2000000E-002 0.0
  6.8800000E-001 -2.4000000E-002 0.0
  6.8800000E-001 -1.6000000E-002 0.0
  6.8800000E-001 -8.0000000E-003 0.0
  6.8800000E-001  0.0000000E+000 0.0
  6.8800000E-001  8.0000000E-003 0.0
  6.8800000E-001  1.6000000E-002 0.0
  6.8800000E-001  2.4000000E-002 0.0
  6.8800000E-001  3.2000000E-002 0.0
  6.8800000E-001  4.0000000E-002 0.0
  6.8800000E-001  4.8000000E-002 0.0
  6.8800000E-001  5.6000000E-002 0.0
  6.8000000E-001  9.6000000E-002 0.0
  6.8800000E-001  9.6000000E-002 0.0
  6.8800000E-001  1.0400000E-001 0.0
  6.8800000E-001  1.1200000E-001 0.0
  6.8800000E-001  1.2000000E-001 0.0
  6.8800000E-001  1.2800000E-001 0.0
  6.8800000E-001  1.3600000E-001 0.0
  6.8800000E-001  1.4400000E-001 0.0
  6.8800000E-001  1.5200000E-001 0.0
  6.8800000E-001  1.6000000E-001 0.0
  6.8800000E-001  1.6800000E-001 0.0
  6.9600000E-001 -9.6000000E-002 0.0
  6.9600000E-001 -8.8000000E-002 0.0
  6.9600000E-001 -8.0000000E-002 0.0
  6.9600000E-001 -7.2000000E-002 0.0
  6.9600000E-001 -6.4000000E-002 0.0
  6.9600000E-001 -5.6000000E-002 0.0
  6.9600000E-001 -4.8000000E-002 0.0
  6.9600000E-001 -4.0000000E-002 0.0
  6.9600000E-001 -3.2000000E-002 0.0
  6.9600000E-001 -2.4000000E-002 0.0
  6.9600000E-001 -1.6000000E-002 0.0
  6.9600000E-001 -8.0000000E-003 0.0
  6.9600000E-001  0.0000000E+000 0.0
  6.9600000E-001  8.0000000E-003 0.0
  6.9600000E-001  1.6000000E-002 0.0
  6.9600000E-001  2.4000000E-002 0.0
  6.9600000E-001  3.2000000E-002 0.0
  6.9600000E-001  4.0000000E-002 0.0
  6.9600000E-001  4.8000000E-002 0.0
  6.9600000E-001  5.6000000E-002 0.0
  6.8800000E-001  8.8000000E-002 0.0
  6.9600000E-001  8.8000000E-002 0.0
  6.9600000E-001  9.6000000E-002 0.0
  6.9600000E-001  1.0400000E-001 0.0
  6.9600000E-001  1.1200000E-001 0.0
  6.9600000E-001  1.2000000E-001 0.0
  6.9600000E-001  1.2800000E-001 0.0
  6.9600000E-001  1.3600000E-001 0.0
  6.9600000E-001  1.4400000E-001 0.0
  6.9600000E-001  1.5200000E-001 0.0
  6.9600000E-001  1.6000000E-001 0.0
  7.0400000E-001 -8.8000000E-002 0.0
  7.0400000E-001 -8.0000000E-002 0.0
  7.0400000E-001 -7.2000000E-002 0.0
  7.0400000E-001 -6.4000000E-002 0.0
  7.0400000E-001 -5.6000000E-002 0.0
  7.0400000E-001 -4.8000000E-002 0.0
  7.0400000E-001 -4.0000000E-002 0.0
  7.0400000E-001 -3.2000000E-002 0.0
  7.0400000E-001 -2.4000000E-002 0.0
  7.0400000E-001 -1.6000000E-002 0.0
  7.0400000E-001 -8.0000000E-003 0.0
  7.0400000E-001  0.0000000E+000 0.0
  7.0400000E-001  8.0000000E-003 0.0
  7.0400000E-001  1.6000000E-002 0.0
  7.0400000E-001  2.4000000E-002 0.0
  7.0400000E-001  3.2000000E-002 0.0
  7.0400000E-001  4.0000000E-002 0.0
  7.0400000E-001  4.8000000E-002 0.0
  7.0400000E-001  5.6000000E-002 0.0
  7.0400000E-001  6.4000000E-002 0.0
  6.9600000E-001  6.4000000E-002 0.0
  7.0400000E-001  7.2000000E-002 0.0
  6.9600000E-001  7.2000000E-002 0.0
  7.0400000E-001  8.0000000E-002 0.0
  6.9600000E-001  8.0000000E-002 0.0
  7.0400000E-001  8.8000000E-002 0.0
  7.0400000E-001  9.6000000E-002 0.0
  7.0400000E-001  1.0400000E-001 0.0
  7.0400000E-001  1.1200000E-001 0.0
  7.0400000E-001  1.2000000E-001 0.0
  7.0400000E-001  1.2800000E-001 0.0
  7.0400000E-001  1.3600000E-001 0.0
  7.0400000E-001  1.4400000E-001 0.0
  7.0400000E-001  1.5200000E-001 0.0
  7.1200000E-001 -8.8000000E-002 0.0
  7.1200000E-001 -8.0000000E-002 0.0
  7.1200000E-001 -7.2000000E-002 0.0
  7.1200000E-001 -6.4000000E-002 0.0
  7.1200000E-001 -5.6000000E-002 0.0
  7.1200000E-001 -4.8000000E-002 0.0
  7.1200000E-001 -4.0000000E-002 0.0
  7.1200000E-001 -3.2000000E-002 0.0
  7.1200000E-001 -2.4000000E-002 0.0
  7.1200000E-001 -1.6000000E-002 0.0
  7.1200000E-001 -8.0000000E-003 0.0
  7.1200000E-001  0.0000000E+000 0.0
  7.1200000E-001  8.0000000E-003 0.0
  7.1200000E-001  1.6000000E-002 0.0
  7.1200000E-001  2.4000000E-002 0.0
  7.1200000E-001  3.2000000E-002 0.0
  7.1200000E-001  4.0000000E-002 0.0
  7.1200000E-001  4.8000000E-002 0.0
  7.1200000E-001  5.6000000E-002 0.0
  7.1200000E-001  6.4000000E-002 0.0
  7.1200000E-001  7.2000000E-002 0.0
  7.1200000E-001  8.0000000E-002 0.0
  7.1200000E-001  8.8000000E-002 0.0
  7.1200000E-001  9.6000000E-002 0.0
  7.1200000E-001  1.0400000E-001 0.0
  7.1200000E-001  1.1200000E-001 0.0
  7.1200000E-001  1.2000000E-001 0.0
  7.1200000E-001  1.2800000E-001 0.0
  7.1200000E-001  1.3600000E-001 0.0
  7.1200000E-001  1.4400000E-001 0.0
  7.2000000E-001 -8.0000000E-002 0.0
  7.2000000E-001 -7.2000000E-002 0.0
  7.2000000E-001 -6.4000000E-002 0.0
  7.2000000E-001 -5.6000000E-002 0.0
  7.2000000E-001 -4.8000000E-002 0.0
  7.2000000E-001 -4.0000000E-002 0.0
  7.2000000E-001 -3.2000000E-002 0.0
  7.2000000E-001 -2.4000000E-002 0.0
  7.2000000E-001 -1.6000000E-002 0.0
  7.2000000E-001 -8.0000000E-003 0.0
  7.2000000E-001  0.0000000E+000 0.0
  7.2000000E-001  8.0000000E-003 0.0
  7.2000000E-001  1.6000000E-002 0.0
  7.2000000E-001  2.4000000E-002 0.0
  7.2000000E-001  3.2000000E-002 0.0
  7.2000000E-001  4.0000000E-002 0.0
  7.2000000E-001  4.8000000E-002 0.0
  7.2000000E-001  5.6000000E-002 0.0
  7.2000000E-001  6.4000000E-002 0.0
  7.2000000E-001  7.2000000E-002 0.0
  7.2000000E-001  8.0000000E-002 0.0
  7.2000000E-001  8.8000000E-002 0.0
  7.2000000E-001  9.6000000E-002 0.0
  7.2000000E-001  1.0400000E-001 0.0
  7.2000000E-001  1.1200000E-001 0.0
  7.2000000E-001  1.2000000E-001 0.0
  7.2000000E-001  1.2800000E-001 0.0
  7.2000000E-001  1.3600000E-001 0.0
  7.2800000E-001 -8.0000000E-002 0.0
  7.2800000E-001 -7.2000000E-002 0.0
  7.2800000E-001 -6.4000000E-002 0.0
  7.2800000E-001 -5.6000000E-002 0.0
  7.2800000E-001 -4.8000000E-002 0.0
  7.2800000E-001 -4.0000000E-002 0.0
  7.2800000E-001 -3.2000000E-002 0.0
  7.2800000E-001 -2.4000000E-002 0.0
  7.2800000E-001 -1.6000000E-002 0.0
  7.2800000E-001 -8.0000000E-003 0.0
  7.2800000E-001  0.0000000E+000 0.0
  7.2800000E-001  8.0000000E-003 0.0
  7.2800000E-001  1.6000000E-002 0.0
  7.2800000E-001  2.4000000E-002 0.0
  7.2800000E-001  3.2000000E-002 0.0
  7.2800000E-001  4.0000000E-002 0.0
  7.2800000E-001  4.8000000E-002 0.0
  7.2800000E-001  5.6000000E-002 0.0
  7.2800000E-001  6.4000000E-002 0.0
  7.2800000E-001  7.2000000E-002 0.0
  7.2800000E-001  8.0000000E-002 0.0
  7.2800000E-001  8.8000000E-002 0.0
  7.2800000E-001  9.6000000E-002 0.0
  7.2800000E-001  1.0400000E-001 0.0
  7.2800000E-001  1.1200000E-001 0.0
  7.2800000E-001  1.2000000E-001 0.0
  7.3600000E-001 -8.0000000E-002 0.0
  7.3600000E-001 -7.2000000E-002 0.0
  7.3600000E-001 -6.4000000E-002 0.0
  7.3600000E-001 -5.6000000E-002 0.0
  7.3600000E-001 -4.8000000E-002 0.0
  7.3600000E-001 -4.0000000E-002 0.0
  7.3600000E-001 -3.2000000E-002 0.0
  7.3600000E-001 -2.4000000E-002 0.0
  7.3600000E-001 -1.6000000E-002 0.0
  7.3600000E-001 -8.0000000E-003 0.0
  7.3600000E-001  0.0000000E+000 0.0
  7.3600000E-001  8.0000000E-003 0.0
  7.3600000E-001  1.6000000E-002 0.0
  7.3600000E-001  2.4000000E-002 0.0
  7.3600000E-001  3.2000000E-002 0.0
  7.3600000E-001  4.0000000E-002 0.0
  7.3600000E-001  4.8000000E-002 0.0
  7.3600000E-001  5.6000000E-002 0.0
  7.3600000E-001  6.4000000E-002 0.0
  7.3600000E-001  7.2000000E-002 0.0
  7.3600000E-001  8.0000000E-002 0.0
  7.3600000E-001  8.8000000E-002 0.0
  7.3600000E-001  9.6000000E-002 0.0
  7.3600000E-001  1.0400000E-001 0.0
  7.4400000E-001 -7.2000000E-002 0.0
  7.4400000E-001 -6.4000000E-002 0.0
  7.4400000E-001 -5.6000000E-002 0.0
  7.4400000E-001 -4.8000000E-002 0.0
  7.4400000E-001 -4.0000000E-002 0.0
  7.4400000E-001 -3.2000000E-002 0.0
  7.4400000E-001 -2.4000000E-002 0.0
  7.4400000E-001 -1.6000000E-002 0.0
  7.4400000E-001 -8.0000000E-003 0.0
  7.4400000E-001  0.0000000E+000 0.0
  7.4400000E-001  8.0000000E-003 0.0
  7.4400000E-001  1.6000000E-002 0.0
  7.4400000E-001  2.4000000E-002 0.0
  7.4400000E-001  3.2000000E-002 0.0
  7.4400000E-001  4.0000000E-002 0.0
  7.4400000E-001  4.8000000E-002 0.0
  7.4400000E-001  5.6000000E-002 0.0
  7.4400000E-001  6.4000000E-002 0.0
  7.4400000E-001  7.2000000E-002 0.0
  7.4400000E-001  8.0000000E-002 0.0
  7.4400000E-001  8.8000000E-002 0.0
  7.5200000E-001 -7.2000000E-002 0.0
  7.5200000E-001 -6.4000000E-002 0.0
  7.5200000E-001 -5.6000000E-002 0.0
  7.5200000E-001 -4.8000000E-002 0.0
  7.5200000E-001 -4.0000000E-002 0.0
  7.5200000E-001 -3.2000000E-002 0.0
  7.5200000E-001 -2.4000000E-002 0.0
  7.5200000E-001 -1.6000000E-002 0.0
  7.5200000E-001 -8.0000000E-003 0.0
  7.5200000E-001  0.0000000E+000 0.0
  7.5200000E-001  8.0000000E-003 0.0
  7.5200000E-001  1.6000000E-002 0.0
  7.5200000E-001  2.4000000E-002 0.0
  7.5200000E-001  3.2000000E-002 0.0
  7.5200000E-001  4.0000000E-002 0.0
  7.5200000E-001  4.8000000E-002 0.0
  7.5200000E-001  5.6000000E-002 0.0
  7.5200000E-001  6.4000000E-002 0.0
  7.6000000E-001 -7.2000000E-002 0.0
  7.6000000E-001 -6.4000000E-002 0.0
  7.6000000E-001 -5.6000000E-002 0.0
  7.6000000E-001 -4.8000000E-002 0.0
  7.6000000E-001 -4.0000000E-002 0.0
  7.6000000E-001 -3.2000000E-002 0.0
  7.6000000E-001 -2.4000000E-002 0.0
  7.6000000E-001 -1.6000000E-002 0.0
  7.6000000E-001 -8.0000000E-003 0.0
  7.6000000E-001  0.0000000E+000 0.0
  7.6000000E-001  8.0000000E-003 0.0
  7.6000000E-001  1.6000000E-002 0.0
  7.6000000E-001  2.4000000E-002 0.0
  7.6000000E-001  3.2000000E-002 0.0
  7.6000000E-001  4.0000000E-002 0.0
  7.6000000E-001  4.8000000E-002 0.0
  7.6800000E-001 -6.4000000E-002 0.0
  7.6800000E-001 -5.6000000E-002 0.0
  7.6800000E-001 -4.8000000E-002 0.0
  7.6800000E-001 -4.0000000E-002 0.0
  7.6800000E-001 -3.2000000E-002 0.0
  7.6800000E-001 -2.4000000E-002 0.0
  7.6800000E-001 -1.6000000E-002 0.0
  7.6800000E-001 -8.0000000E-003 0.0
  7.6800000E-001  0.0000000E+000 0.0
  7.6800000E-001  8.0000000E-003 0.0
  7.6800000E-001  1.6000000E-002 0.0
  7.7600000E-001 -5.6000000E-002 0.0
  7.7600000E-001 -4.8000000E-002 0.0
  7.7600000E-001 -4.0000000E-002 0.0
  7.7600000E-001 -3.2000000E-002 0.0

CELLS 9646 45782
4 1 2 3 0 
4 2 4 5 3 
4 4 6 7 5 
4 6 8 9 7 
4 8 10 11 9 
4 13 14 15 12 
4 14 16 17 15 
4 16 18 19 17 
4 18 20 21 19 
4 20 22 23 21 
4 22 24 25 23 
4 24 26 27 25 
4 26 28 29 27 
4 28 30 31 29 
4 30 32 33 31 
4 32 34 35 33 
4 34 36 1 35 
4 36 37 2 1 
4 37 38 4 2 
4 38 39 6 4 
4 39 40 8 6 
4 40 41 10 8 
4 41 42 43 10 
4 42 44 45 43 
4 44 46 47 45 
4 48 49 14 13 
4 49 50 16 14 
4 50 51 18 16 
4 51 52 20 18 
4 52 53 22 20 
4 53 54 24 22 
4 54 55 26 24 
4 55 56 28 26 
4 56 57 30 28 
4 57 58 32 30 
4 58 59 34 32 
4 59 60 36 34 
4 60 61 37 36 
4 61 62 38 37 
4 62 63 39 38 
4 63 64 40 39 
4 64 65 41 40 
4 65 66 42 41 
4 66 67 44 42 
4 67 68 46 44 
4 68 69 70 46 
4 69 71 72 70 
4 74 75 48 73 
4 75 76 49 48 
4 76 77 50 49 
4 77 78 51 50 
4 78 79 52 51 
4 79 80 53 52 
4 80 81 54 53 
4 81 82 55 54 
4 82 83 56 55 
4 83 84 57 56 
4 84 85 58 57 
4 85 86 59 58 
4 86 87 60 59 
4 87 88 61 60 
4 88 89 62 61 
4 89 90 63 62 
4 90 91 64 63 
4 91 92 65 64 
4 92 93 66 65 
4 93 94 67 66 
4 94 95 68 67 
4 95 96 69 68 
4 96 97 71 69 
4 97 98 99 71 
4 100 101 75 74 
4 101 102 76 75 
4 102 103 77 76 
4 103 104 78 77 
4 104 105 79 78 
4 105 106 80 79 
4 106 107 81 80 
4 107 108 82 81 
4 108 109 83 82 
4 109 110 84 83 
4 110 111 85 84 
4 111 112 86 85 
4 112 113 87 86 
4 113 114 88 87 
4 114 115 89 88 
4 115 116 90 89 
4 116 117 91 90 
4 117 118 92 91 
4 118 119 93 92 
4 119 120 94 93 
4 120 121 95 94 
4 121 122 96 95 
4 122 123 97 96 
4 123 124 98 97 
4 125 126 101 100 
4 126 127 102 101 
4 127 128 103 102 
4 128 129 104 103 
4 129 130 105 104 
4 130 131 106 105 
4 131 132 107 106 
4 132 133 108 107 
4 133 134 109 108 
4 134 135 110 109 
4 135 136 111 110 
4 136 137 112 111 
4 137 138 113 112 
4 138 139 114 113 
4 139 140 115 114 
4 140 141 116 115 
4 141 142 117 116 
4 142 143 118 117 
4 143 144 119 118 
4 144 145 120 119 
4 145 146 121 120 
4 146 147 122 121 
4 147 148 123 122 
4 148 149 124 123 
4 149 150 151 124 
4 150 152 153 151 
4 155 156 125 154 
4 156 157 126 125 
4 157 158 127 126 
4 158 159 128 127 
4 159 160 129 128 
4 160 161 130 129 
4 161 162 131 130 
4 162 163 132 131 
4 163 164 133 132 
4 164 165 134 133 
4 165 166 135 134 
4 166 167 136 135 
4 167 168 137 136 
4 168 169 138 137 
4 169 170 139 138 
4 170 171 140 139 
4 171 172 141 140 
4 172 173 142 141 
4 173 174 143 142 
4 174 175 144 143 
4 175 176 145 144 
4 176 177 146 145 
4 177 178 147 146 
4 178 179 148 147 
4 179 180 149 148 
4 180 181 150 149 
4 181 182 152 150 
4 182 183 184 152 
4 183 185 186 184 
4 187 188 156 155 
4 188 189 157 156 
4 189 190 158 157 
4 190 191 159 158 
4 191 192 160 159 
4 192 193 161 160 
4 193 194 162 161 
4 194 195 163 162 
4 195 196 164 163 
4 196 197 165 164 
4 197 198 166 165 
4 198 199 167 166 
4 199 200 168 167 
4 200 201 169 168 
4 201 202 170 169 
4 202 203 171 170 
4 203 204 172 171 
4 204 205 173 172 
4 205 206 174 173 
4 206 207 175 174 
4 207 208 176 175 
4 208 209 177 176 
4 209 210 178 177 
4 210 211 179 178 
4 211 212 180 179 
4 212 213 181 180 
4 213 214 182 181 
4 214 215 183 182 
4 215 216 185 183 
4 216 217 218 185 
4 217 219 220 218 
4 222 223 187 221 
4 223 224 188 187 
4 224 225 189 188 
4 225 226 190 189 
4 226 227 191 190 
4 227 228 192 191 
4 228 229 193 192 
4 229 230 194 193 
4 230 231 195 194 
4 231 232 196 195 
4 232 233 197 196 
4 233 234 198 197 
4 234 235 199 198 
4 235 236 200 199 
4 236 237 201 200 
4 237 238 202 201 
4 238 239 203 202 
4 239 240 204 203 
4 240 241 205 204 
4 241 242 206 205 
4 242 243 207 206 
4 243 244 208 207 
4 244 245 209 208 
4 245 246 210 209 
4 246 247 211 210 
4 247 248 212 211 
4 248 249 213 212 
4 249 250 214 213 
4 250 251 215 214 
4 251 252 216 215 
4 252 253 217 216 
4 253 254 219 217 
4 254 255 256 219 
4 255 257 258 256 
4 259 260 223 222 
4 260 261 224 223 
4 261 262 225 224 
4 262 263 226 225 
4 263 264 227 226 
4 264 265 228 227 
4 265 266 229 228 
4 266 267 230 229 
4 267 268 231 230 
4 268 269 232 231 
4 269 270 233 232 
4 270 271 234 233 
4 271 272 235 234 
4 272 273 236 235 
4 273 274 237 236 
4 274 275 238 237 
4 275 276 239 238 
4 276 277 240 239 
4 277 278 241 240 
4 278 279 242 241 
4 279 280 243 242 
4 280 281 244 243 
4 281 282 245 244 
4 282 283 246 245 
4 283 284 247 246 
4 284 285 248 247 
4 285 286 249 248 
4 286 287 250 249 
4 287 288 251 250 
4 288 289 252 251 
4 289 290 253 252 
4 290 291 254 253 
4 291 292 255 254 
4 292 293 257 255 
4 293 294 295 257 
4 294 296 297 295 
4 298 299 261 260 
4 299 300 262 261 
4 300 301 263 262 
4 301 302 264 263 
4 302 303 265 264 
4 303 304 266 265 
4 304 305 267 266 
4 305 306 268 267 
4 306 307 269 268 
4 307 308 270 269 
4 308 309 271 270 
4 309 310 272 271 
4 310 311 273 272 
4 311 312 274 273 
4 312 313 275 274 
4 313 314 276 275 
4 314 315 277 276 
4 315 316 278 277 
4 316 317 279 278 
4 317 318 280 279 
4 318 319 281 280 
4 319 320 282 281 
4 320 321 283 282 
4 321 322 284 283 
4 322 323 285 284 
4 323 324 286 285 
4 324 325 287 286 
4 325 326 288 287 
4 326 327 289 288 
4 327 328 290 289 
4 328 329 291 290 
4 329 330 292 291 
4 330 331 293 292 
4 331 332 294 293 
4 332 333 296 294 
4 333 334 335 296 
4 336 337 300 299 
4 337 338 301 300 
4 338 339 302 301 
4 339 340 303 302 
4 340 341 304 303 
4 341 342 305 304 
4 342 343 306 305 
4 343 344 307 306 
4 344 345 308 307 
4 345 346 309 308 
4 346 347 310 309 
4 347 348 311 310 
4 348 349 312 311 
4 349 350 313 312 
4 350 351 314 313 
4 351 352 315 314 
4 352 353 316 315 
4 353 354 317 316 
4 354 355 318 317 
4 355 356 319 318 
4 356 357 320 319 
4 357 358 321 320 
4 358 359 322 321 
4 359 360 323 322 
4 360 361 324 323 
4 361 362 325 324 
4 362 363 326 325 
4 363 364 327 326 
4 364 365 328 327 
4 365 366 329 328 
4 366 367 330 329 
4 367 368 331 330 
4 368 369 332 331 
4 369 370 333 332 
4 370 371 334 333 
4 371 372 373 334 
4 374 375 338 337 
4 375 376 339 338 
4 376 377 340 339 
4 377 378 341 340 
4 378 379 342 341 
4 379 380 343 342 
4 380 381 344 343 
4 381 382 345 344 
4 382 383 346 345 
4 383 384 347 346 
4 384 385 348 347 
4 385 386 349 348 
4 386 387 350 349 
4 387 388 351 350 
4 388 389 352 351 
4 389 390 353 352 
4 390 391 354 353 
4 391 392 355 354 
4 392 393 356 355 
4 393 394 357 356 
4 394 395 358 357 
4 395 396 359 358 
4 396 397 360 359 
4 397 398 361 360 
4 398 399 362 361 
4 399 400 363 362 
4 400 401 364 363 
4 401 402 365 364 
4 402 403 366 365 
4 403 404 367 366 
4 404 405 368 367 
4 405 406 369 368 
4 406 407 370 369 
4 407 408 371 370 
4 408 409 372 371 
4 409 410 411 372 
4 412 413 375 374 
4 413 414 376 375 
4 414 415 377 376 
4 415 416 378 377 
4 416 417 379 378 
4 417 418 380 379 
4 418 419 381 380 
4 419 420 382 381 
4 420 421 383 382 
4 421 422 384 383 
4 422 423 385 384 
4 423 424 386 385 
4 424 425 387 386 
4 425 426 388 387 
4 426 427 389 388 
4 427 428 390 389 
4 428 429 391 390 
4 429 430 392 391 
4 430 431 393 392 
4 431 432 394 393 
4 432 433 395 394 
4 433 434 396 395 
4 434 435 397 396 
4 435 436 398 397 
4 436 437 399 398 
4 437 438 400 399 
4 438 439 401 400 
4 439 440 402 401 
4 440 441 403 402 
4 441 442 404 403 
4 442 443 405 404 
4 443 444 406 405 
4 444 445 407 406 
4 445 446 408 407 
4 446 447 409 408 
4 447 448 410 409 
4 449 450 413 412 
4 450 451 414 413 
4 451 452 415 414 
4 452 453 416 415 
4 453 454 417 416 
4 454 455 418 417 
4 455 456 419 418 
4 456 457 420 419 
4 457 458 421 420 
4 458 459 422 421 
4 459 460 423 422 
4 460 461 424 423 
4 461 462 425 424 
4 462 463 426 425 
4 463 464 427 426 
4 464 465 428 427 
4 465 466 429 428 
4 466 467 430 429 
4 467 468 431 430 
4 468 469 432 431 
4 469 470 433 432 
4 470 471 434 433 
4 471 472 435 434 
4 472 473 436 435 
4 473 474 437 436 
4 474 475 438 437 
4 475 476 439 438 
4 476 477 440 439 
4 477 478 441 440 
4 478 479 442 441 
4 479 480 443 442 
4 480 481 444 443 
4 481 482 445 444 
4 482 483 446 445 
4 483 484 447 446 
4 484 485 448 447 
4 485 486 487 448 
4 489 490 491 488 
4 490 492 493 491 
4 492 494 495 493 
4 494 496 497 495 
4 499 500 501 498 
4 500 502 503 501 
4 502 504 449 503 
4 504 505 450 449 
4 505 506 451 450 
4 506 507 452 451 
4 507 508 453 452 
4 508 509 454 453 
4 509 510 455 454 
4 510 511 456 455 
4 511 512 457 456 
4 512 513 458 457 
4 513 514 459 458 
4 514 515 460 459 
4 515 516 461 460 
4 516 517 462 461 
4 517 518 463 462 
4 518 519 464 463 
4 519 520 465 464 
4 521 522 470 469 
4 522 523 471 470 
4 523 524 472 471 
4 524 525 473 472 
4 525 526 474 473 
4 526 527 475 474 
4 527 528 476 475 
4 528 529 477 476 
4 529 530 478 477 
4 530 531 479 478 
4 531 532 480 479 
4 532 533 481 480 
4 533 534 482 481 
4 534 535 483 482 
4 535 536 484 483 
4 536 537 485 484 
4 537 538 486 485 
4 540 541 489 539 
4 541 542 490 489 
4 542 543 492 490 
4 543 544 494 492 
4 544 545 496 494 
4 545 546 547 496 
4 546 548 549 547 
4 548 550 551 549 
4 553 554 555 552 
4 554 556 499 555 
4 556 557 500 499 
4 557 558 502 500 
4 558 559 504 502 
4 559 560 505 504 
4 560 561 506 505 
4 561 562 507 506 
4 562 563 508 507 
4 563 564 509 508 
4 564 565 510 509 
4 565 566 511 510 
4 566 567 512 511 
4 567 568 513 512 
4 568 569 514 513 
4 569 570 515 514 
4 570 571 516 515 
4 571 572 517 516 
4 572 573 518 517 
4 573 574 519 518 
4 574 575 520 519 
4 576 577 524 523 
4 577 578 525 524 
4 578 579 526 525 
4 579 580 527 526 
4 580 581 528 527 
4 581 582 529 528 
4 582 583 530 529 
4 583 584 531 530 
4 584 585 532 531 
4 585 586 533 532 
4 586 587 534 533 
4 587 588 535 534 
4 588 589 536 535 
4 589 590 537 536 
4 590 591 538 537 
4 591 592 593 538 
4 594 595 541 540 
4 595 596 542 541 
4 596 597 543 542 
4 597 598 544 543 
4 598 599 545 544 
4 599 600 546 545 
4 600 601 548 546 
4 601 602 550 548 
4 602 603 604 550 
4 603 605 606 604 
4 605 607 608 606 
4 607 609 610 608 
4 612 613 614 611 
4 613 615 553 614 
4 615 616 554 553 
4 616 617 556 554 
4 617 618 557 556 
4 618 619 558 557 
4 619 620 559 558 
4 620 621 560 559 
4 621 622 561 560 
4 622 623 562 561 
4 623 624 563 562 
4 624 625 564 563 
4 625 626 565 564 
4 626 627 566 565 
4 627 628 567 566 
4 628 629 568 567 
4 629 630 569 568 
4 630 631 570 569 
4 631 632 571 570 
4 632 633 572 571 
4 633 634 573 572 
4 634 635 574 573 
4 635 636 575 574 
4 637 638 580 579 
4 638 639 581 580 
4 639 640 582 581 
4 640 641 583 582 
4 641 642 584 583 
4 642 643 585 584 
4 643 644 586 585 
4 644 645 587 586 
4 645 646 588 587 
4 646 647 589 588 
4 647 648 590 589 
4 648 649 591 590 
4 649 650 592 591 
4 650 651 652 592 
4 654 655 594 653 
4 655 656 595 594 
4 656 657 596 595 
4 657 658 597 596 
4 658 659 598 597 
4 659 660 599 598 
4 660 661 600 599 
4 661 662 601 600 
4 662 663 602 601 
4 663 664 603 602 
4 664 665 605 603 
4 665 666 607 605 
4 666 667 609 607 
4 667 668 669 609 
4 668 670 671 669 
4 670 672 673 671 
4 672 674 675 673 
4 674 676 677 675 
4 676 678 679 677 
4 678 680 681 679 
4 680 682 683 681 
4 682 684 685 683 
4 684 686 687 685 
4 686 688 689 687 
4 688 690 691 689 
4 690 692 693 691 
4 692 694 695 693 
4 694 696 697 695 
4 696 698 699 697 
4 698 700 612 699 
4 700 701 613 612 
4 701 702 615 613 
4 702 703 616 615 
4 703 704 617 616 
4 704 705 618 617 
4 705 706 619 618 
4 706 707 620 619 
4 707 708 621 620 
4 708 709 622 621 
4 709 710 623 622 
4 710 711 624 623 
4 711 712 625 624 
4 712 713 626 625 
4 713 714 627 626 
4 714 715 628 627 
4 715 716 629 628 
4 716 717 630 629 
4 717 718 631 630 
4 718 719 632 631 
4 719 720 633 632 
4 720 721 634 633 
4 721 722 635 634 
4 722 723 636 635 
4 724 725 640 639 
4 725 726 641 640 
4 726 727 642 641 
4 727 728 643 642 
4 728 729 644 643 
4 729 730 645 644 
4 730 731 646 645 
4 731 732 647 646 
4 732 733 648 647 
4 733 734 649 648 
4 734 735 650 649 
4 735 736 651 650 
4 737 738 655 654 
4 738 739 656 655 
4 739 740 657 656 
4 740 741 658 657 
4 741 742 659 658 
4 742 743 660 659 
4 743 744 661 660 
4 744 745 662 661 
4 745 746 663 662 
4 746 747 664 663 
4 747 748 665 664 
4 748 749 666 665 
4 749 750 667 666 
4 750 751 668 667 
4 751 752 670 668 
4 752 753 672 670 
4 753 754 674 672 
4 754 755 676 674 
4 755 756 678 676 
4 756 757 680 678 
4 757 758 682 680 
4 758 759 684 682 
4 759 760 686 684 
4 760 761 688 686 
4 761 762 690 688 
4 762 763 692 690 
4 763 764 694 692 
4 764 765 696 694 
4 765 766 698 696 
4 766 767 700 698 
4 767 768 701 700 
4 768 769 702 701 
4 769 770 703 702 
4 770 771 704 703 
4 771 772 705 704 
4 772 773 706 705 
4 773 774 707 706 
4 774 775 708 707 
4 775 776 709 708 
4 776 777 710 709 
4 777 778 711 710 
4 778 779 712 711 
4 779 780 713 712 
4 780 781 714 713 
4 781 782 715 714 
4 782 783 716 715 
4 783 784 717 716 
4 784 785 718 717 
4 785 786 719 718 
4 786 787 720 719 
4 787 788 721 720 
4 788 789 722 721 
4 789 790 723 722 
4 790 791 792 723 
4 793 794 726 725 
4 794 795 727 726 
4 795 796 728 727 
4 796 797 729 728 
4 797 798 730 729 
4 798 799 731 730 
4 799 800 732 731 
4 800 801 733 732 
4 801 802 734 733 
4 802 803 735 734 
4 803 804 736 735 
4 804 805 806 736 
4 805 807 808 806 
4 807 809 810 808 
4 809 811 812 810 
4 811 813 814 812 
4 813 815 816 814 
4 815 817 818 816 
4 817 819 820 818 
4 819 821 822 820 
4 821 823 824 822 
4 823 825 826 824 
4 827 828 738 737 
4 828 829 739 738 
4 829 830 740 739 
4 830 831 741 740 
4 831 832 742 741 
4 832 833 743 742 
4 833 834 744 743 
4 834 835 745 744 
4 835 836 746 745 
4 836 837 747 746 
4 837 838 748 747 
4 838 839 749 748 
4 839 840 750 749 
4 840 841 751 750 
4 841 842 752 751 
4 842 843 753 752 
4 843 844 754 753 
4 844 845 755 754 
4 845 846 756 755 
4 846 847 757 756 
4 847 848 758 757 
4 848 849 759 758 
4 849 850 760 759 
4 850 851 761 760 
4 851 852 762 761 
4 852 853 763 762 
4 853 854 764 763 
4 854 855 765 764 
4 855 856 766 765 
4 856 857 767 766 
4 857 858 768 767 
4 858 859 769 768 
4 859 860 770 769 
4 860 861 771 770 
4 861 862 772 771 
4 862 863 773 772 
4 863 864 774 773 
4 864 865 775 774 
4 865 866 776 775 
4 866 867 777 776 
4 867 868 778 777 
4 868 869 779 778 
4 869 870 780 779 
4 870 871 781 780 
4 871 872 782 781 
4 872 873 783 782 
4 873 874 784 783 
4 874 875 785 784 
4 875 876 786 785 
4 876 877 787 786 
4 877 878 788 787 
4 878 879 789 788 
4 879 880 790 789 
4 880 881 791 790 
4 881 882 883 791 
4 884 885 795 794 
4 885 886 796 795 
4 886 887 797 796 
4 887 888 798 797 
4 888 889 799 798 
4 889 890 800 799 
4 890 891 801 800 
4 891 892 802 801 
4 892 893 803 802 
4 893 894 804 803 
4 894 895 805 804 
4 895 896 807 805 
4 896 897 809 807 
4 897 898 811 809 
4 898 899 813 811 
4 899 900 815 813 
4 900 901 817 815 
4 901 902 819 817 
4 902 903 821 819 
4 903 904 823 821 
4 904 905 825 823 
4 905 906 907 825 
4 906 908 909 907 
4 908 910 911 909 
4 912 913 828 827 
4 913 914 829 828 
4 914 915 830 829 
4 915 916 831 830 
4 916 917 832 831 
4 917 918 833 832 
4 918 919 834 833 
4 919 920 835 834 
4 920 921 836 835 
4 921 922 837 836 
4 922 923 838 837 
4 923 924 839 838 
4 924 925 840 839 
4 925 926 841 840 
4 926 927 842 841 
4 927 928 843 842 
4 928 929 844 843 
4 929 930 845 844 
4 930 931 846 845 
4 931 932 847 846 
4 932 933 848 847 
4 933 934 849 848 
4 934 935 850 849 
4 935 936 851 850 
4 936 937 852 851 
4 937 938 853 852 
4 938 939 854 853 
4 939 940 855 854 
4 940 941 856 855 
4 941 942 857 856 
4 942 943 858 857 
4 943 944 859 858 
4 944 945 860 859 
4 945 946 861 860 
4 946 947 862 861 
4 947 948 863 862 
4 948 949 864 863 
4 949 950 865 864 
4 950 951 866 865 
4 951 952 867 866 
4 952 953 868 867 
4 953 954 869 868 
4 954 955 870 869 
4 955 956 871 870 
4 956 957 872 871 
4 957 958 873 872 
4 958 959 874 873 
4 959 960 875 874 
4 960 961 876 875 
4 961 962 877 876 
4 962 963 878 877 
4 963 964 879 878 
4 964 965 880 879 
4 965 966 881 880 
4 966 967 882 881 
4 968 969 885 884 
4 969 970 886 885 
4 970 971 887 886 
4 971 972 888 887 
4 972 973 889 888 
4 973 974 890 889 
4 974 975 891 890 
4 975 976 892 891 
4 976 977 893 892 
4 977 978 894 893 
4 978 979 895 894 
4 979 980 896 895 
4 980 981 897 896 
4 981 982 898 897 
4 982 983 899 898 
4 983 984 900 899 
4 984 985 901 900 
4 985 986 902 901 
4 986 987 903 902 
4 987 988 904 903 
4 988 989 905 904 
4 989 990 906 905 
4 990 991 908 906 
4 991 992 910 908 
4 992 993 994 910 
4 995 996 913 912 
4 996 997 914 913 
4 997 998 915 914 
4 998 999 916 915 
4 999 1000 917 916 
4 1000 1001 918 917 
4 1001 1002 919 918 
4 1002 1003 920 919 
4 1003 1004 921 920 
4 1004 1005 922 921 
4 1005 1006 923 922 
4 1006 1007 924 923 
4 1007 1008 925 924 
4 1008 1009 926 925 
4 1009 1010 927 926 
4 1010 1011 928 927 
4 1011 1012 929 928 
4 1012 1013 930 929 
4 1013 1014 931 930 
4 1014 1015 932 931 
4 1015 1016 933 932 
4 1016 1017 934 933 
4 1017 1018 935 934 
4 1018 1019 936 935 
4 1019 1020 937 936 
4 1020 1021 938 937 
4 1021 1022 939 938 
4 1022 1023 940 939 
4 1023 1024 941 940 
4 1024 1025 942 941 
4 1025 1026 943 942 
4 1026 1027 944 943 
4 1027 1028 945 944 
4 1028 1029 946 945 
4 1029 1030 947 946 
4 1030 1031 948 947 
4 1031 1032 949 948 
4 1032 1033 950 949 
4 1033 1034 951 950 
4 1034 1035 952 951 
4 1035 1036 953 952 
4 1036 1037 954 953 
4 1037 1038 955 954 
4 1038 1039 956 955 
4 1039 1040 957 956 
4 1040 1041 958 957 
4 1041 1042 959 958 
4 1042 1043 960 959 
4 1043 1044 961 960 
4 1044 1045 962 961 
4 1045 1046 963 962 
4 1046 1047 964 963 
4 1047 1048 965 964 
4 1048 1049 966 965 
4 1049 1050 967 966 
4 1050 1051 1052 967 
4 1053 1054 970 969 
4 1054 1055 971 970 
4 1055 1056 972 971 
4 1056 1057 973 972 
4 1057 1058 974 973 
4 1058 1059 975 974 
4 1059 1060 976 975 
4 1060 1061 977 976 
4 1061 1062 978 977 
4 1062 1063 979 978 
4 1063 1064 980 979 
4 1064 1065 981 980 
4 1065 1066 982 981 
4 1066 1067 983 982 
4 1067 1068 984 983 
4 1068 1069 985 984 
4 1069 1070 986 985 
4 1070 1071 987 986 
4 1071 1072 988 987 
4 1072 1073 989 988 
4 1073 1074 990 989 
4 1074 1075 991 990 
4 1075 1076 992 991 
4 1076 1077 993 992 
4 1078 1079 996 995 
4 1079 1080 997 996 
4 1080 1081 998 997 
4 1081 1082 999 998 
4 1082 1083 1000 999 
4 1083 1084 1001 1000 
4 1084 1085 1002 1001 
4 1085 1086 1003 1002 
4 1086 1087 1004 1003 
4 1087 1088 1005 1004 
4 1088 1089 1006 1005 
4 1089 1090 1007 1006 
4 1090 1091 1008 1007 
4 1091 1092 1009 1008 
4 1092 1093 1010 1009 
4 1093 1094 1011 1010 
4 1094 1095 1012 1011 
4 1095 1096 1013 1012 
4 1096 1097 1014 1013 
4 1097 1098 1015 1014 
4 1098 1099 1016 1015 
4 1099 1100 1017 1016 
4 1100 1101 1018 1017 
4 1101 1102 1019 1018 
4 1102 1103 1020 1019 
4 1103 1104 1021 1020 
4 1104 1105 1022 1021 
4 1105 1106 1023 1022 
4 1106 1107 1024 1023 
4 1107 1108 1025 1024 
4 1108 1109 1026 1025 
4 1109 1110 1027 1026 
4 1110 1111 1028 1027 
4 1111 1112 1029 1028 
4 1112 1113 1030 1029 
4 1113 1114 1031 1030 
4 1114 1115 1032 1031 
4 1115 1116 1033 1032 
4 1116 1117 1034 1033 
4 1117 1118 1035 1034 
4 1118 1119 1036 1035 
4 1119 1120 1037 1036 
4 1120 1121 1038 1037 
4 1121 1122 1039 1038 
4 1122 1123 1040 1039 
4 1123 1124 1041 1040 
4 1124 1125 1042 1041 
4 1125 1126 1043 1042 
4 1126 1127 1044 1043 
4 1127 1128 1045 1044 
4 1128 1129 1046 1045 
4 1129 1130 1047 1046 
4 1130 1131 1048 1047 
4 1131 1132 1049 1048 
4 1132 1133 1050 1049 
4 1133 1134 1051 1050 
4 1135 1136 1054 1053 
4 1136 1137 1055 1054 
4 1137 1138 1056 1055 
4 1138 1139 1057 1056 
4 1139 1140 1058 1057 
4 1140 1141 1059 1058 
4 1141 1142 1060 1059 
4 1142 1143 1061 1060 
4 1143 1144 1062 1061 
4 1144 1145 1063 1062 
4 1145 1146 1064 1063 
4 1146 1147 1065 1064 
4 1147 1148 1066 1065 
4 1148 1149 1067 1066 
4 1149 1150 1068 1067 
4 1150 1151 1069 1068 
4 1151 1152 1070 1069 
4 1152 1153 1071 1070 
4 1153 1154 1072 1071 
4 1154 1155 1073 1072 
4 1155 1156 1074 1073 
4 1156 1157 1075 1074 
4 1157 1158 1076 1075 
4 1158 1159 1077 1076 
4 1160 1161 1080 1079 
4 1161 1162 1081 1080 
4 1162 1163 1082 1081 
4 1163 1164 1083 1082 
4 1164 1165 1084 1083 
4 1165 1166 1085 1084 
4 1166 1167 1086 1085 
4 1167 1168 1087 1086 
4 1168 1169 1088 1087 
4 1169 1170 1089 1088 
4 1170 1171 1090 1089 
4 1171 1172 1091 1090 
4 1172 1173 1092 1091 
4 1173 1174 1093 1092 
4 1174 1175 1094 1093 
4 1175 1176 1095 1094 
4 1176 1177 1096 1095 
4 1177 1178 1097 1096 
4 1178 1179 1098 1097 
4 1179 1180 1099 1098 
4 1180 1181 1100 1099 
4 1181 1182 1101 1100 
4 1182 1183 1102 1101 
4 1183 1184 1103 1102 
4 1184 1185 1104 1103 
4 1185 1186 1105 1104 
4 1186 1187 1106 1105 
4 1187 1188 1107 1106 
4 1188 1189 1108 1107 
4 1189 1190 1109 1108 
4 1190 1191 1110 1109 
4 1191 1192 1111 1110 
4 1192 1193 1112 1111 
4 1193 1194 1113 1112 
4 1194 1195 1114 1113 
4 1195 1196 1115 1114 
4 1196 1197 1116 1115 
4 1197 1198 1117 1116 
4 1198 1199 1118 1117 
4 1199 1200 1119 1118 
4 1200 1201 1120 1119 
4 1201 1202 1121 1120 
4 1202 1203 1122 1121 
4 1203 1204 1123 1122 
4 1204 1205 1124 1123 
4 1205 1206 1125 1124 
4 1206 1207 1126 1125 
4 1207 1208 1127 1126 
4 1208 1209 1128 1127 
4 1209 1210 1129 1128 
4 1210 1211 1130 1129 
4 1211 1212 1131 1130 
4 1212 1213 1132 1131 
4 1213 1214 1133 1132 
4 1214 1215 1134 1133 
4 1216 1217 1137 1136 
4 1217 1218 1138 1137 
4 1218 1219 1139 1138 
4 1219 1220 1140 1139 
4 1220 1221 1141 1140 
4 1221 1222 1142 1141 
4 1222 1223 1143 1142 
4 1223 1224 1144 1143 
4 1224 1225 1145 1144 
4 1225 1226 1146 1145 
4 1226 1227 1147 1146 
4 1227 1228 1148 1147 
4 1228 1229 1149 1148 
4 1229 1230 1150 1149 
4 1230 1231 1151 1150 
4 1231 1232 1152 1151 
4 1232 1233 1153 1152 
4 1233 1234 1154 1153 
4 1234 1235 1155 1154 
4 1235 1236 1156 1155 
4 1236 1237 1157 1156 
4 1237 1238 1158 1157 
4 1238 1239 1159 1158 
4 1240 1241 1161 1160 
4 1241 1242 1162 1161 
4 1242 1243 1163 1162 
4 1243 1244 1164 1163 
4 1244 1245 1165 1164 
4 1245 1246 1166 1165 
4 1246 1247 1167 1166 
4 1247 1248 1168 1167 
4 1248 1249 1169 1168 
4 1249 1250 1170 1169 
4 1250 1251 1171 1170 
4 1251 1252 1172 1171 
4 1252 1253 1173 1172 
4 1253 1254 1174 1173 
4 1254 1255 1175 1174 
4 1255 1256 1176 1175 
4 1256 1257 1177 1176 
4 1257 1258 1178 1177 
4 1258 1259 1179 1178 
4 1260 1261 1186 1185 
4 1261 1262 1187 1186 
4 1262 1263 1188 1187 
4 1263 1264 1189 1188 
4 1264 1265 1190 1189 
4 1265 1266 1191 1190 
4 1266 1267 1192 1191 
4 1267 1268 1193 1192 
4 1268 1269 1194 1193 
4 1269 1270 1195 1194 
4 1270 1271 1196 1195 
4 1271 1272 1197 1196 
4 1272 1273 1198 1197 
4 1273 1274 1199 1198 
4 1274 1275 1200 1199 
4 1275 1276 1201 1200 
4 1276 1277 1202 1201 
4 1277 1278 1203 1202 
4 1278 1279 1204 1203 
4 1279 1280 1205 1204 
4 1280 1281 1206 1205 
4 1281 1282 1207 1206 
4 1282 1283 1208 1207 
4 1283 1284 1209 1208 
4 1284 1285 1210 1209 
4 1285 1286 1211 1210 
4 1286 1287 1212 1211 
4 1287 1288 1213 1212 
4 1288 1289 1214 1213 
4 1289 1290 1215 1214 
4 1291 1292 1218 1217 
4 1292 1293 1219 1218 
4 1293 1294 1220 1219 
4 1294 1295 1221 1220 
4 1295 1296 1222 1221 
4 1296 1297 1223 1222 
4 1297 1298 1224 1223 
4 1298 1299 1225 1224 
4 1299 1300 1226 1225 
4 1300 1301 1227 1226 
4 1301 1302 1228 1227 
4 1302 1303 1229 1228 
4 1303 1304 1230 1229 
4 1304 1305 1231 1230 
4 1305 1306 1232 1231 
4 1306 1307 1233 1232 
4 1307 1308 1234 1233 
4 1308 1309 1235 1234 
4 1309 1310 1236 1235 
4 1310 1311 1237 1236 
4 1311 1312 1238 1237 
4 1312 1313 1239 1238 
4 1314 1315 1241 1240 
4 1315 1316 1242 1241 
4 1316 1317 1243 1242 
4 1317 1318 1244 1243 
4 1318 1319 1245 1244 
4 1319 1320 1246 1245 
4 1320 1321 1247 1246 
4 1321 1322 1248 1247 
4 1322 1323 1249 1248 
4 1323 1324 1250 1249 
4 1324 1325 1251 1250 
4 1325 1326 1252 1251 
4 1326 1327 1253 1252 
4 1327 1328 1254 1253 
4 1328 1329 1255 1254 
4 1329 1330 1256 1255 
4 1330 1331 1257 1256 
4 1331 1332 1258 1257 
4 1332 1333 1259 1258 
4 1334 1335 1264 1263 
4 1335 1336 1265 1264 
4 1336 1337 1266 1265 
4 1337 1338 1267 1266 
4 1338 1339 1268 1267 
4 1339 1340 1269 1268 
4 1340 1341 1270 1269 
4 1341 1342 1271 1270 
4 1342 1343 1272 1271 
4 1343 1344 1273 1272 
4 1344 1345 1274 1273 
4 1345 1346 1275 1274 
4 1346 1347 1276 1275 
4 1347 1348 1277 1276 
4 1348 1349 1278 1277 
4 1349 1350 1279 1278 
4 1350 1351 1280 1279 
4 1351 1352 1281 1280 
4 1352 1353 1282 1281 
4 1353 1354 1283 1282 
4 1354 1355 1284 1283 
4 1355 1356 1285 1284 
4 1356 1357 1286 1285 
4 1357 1358 1287 1286 
4 1358 1359 1288 1287 
4 1359 1360 1289 1288 
4 1361 1362 1292 1291 
4 1362 1363 1293 1292 
4 1363 1364 1294 1293 
4 1364 1365 1295 1294 
4 1365 1366 1296 1295 
4 1366 1367 1297 1296 
4 1367 1368 1298 1297 
4 1368 1369 1299 1298 
4 1369 1370 1300 1299 
4 1370 1371 1301 1300 
4 1371 1372 1302 1301 
4 1372 1373 1303 1302 
4 1373 1374 1304 1303 
4 1374 1375 1305 1304 
4 1375 1376 1306 1305 
4 1376 1377 1307 1306 
4 1377 1378 1308 1307 
4 1378 1379 1309 1308 
4 1379 1380 1310 1309 
4 1380 1381 1311 1310 
4 1381 1382 1312 1311 
4 1382 1383 1313 1312 
4 1384 1385 1316 1315 
4 1385 1386 1317 1316 
4 1386 1387 1318 1317 
4 1387 1388 1319 1318 
4 1388 1389 1320 1319 
4 1389 1390 1321 1320 
4 1390 1391 1322 1321 
4 1391 1392 1323 1322 
4 1392 1393 1324 1323 
4 1393 1394 1325 1324 
4 1394 1395 1326 1325 
4 1395 1396 1327 1326 
4 1396 1397 1328 1327 
4 1397 1398 1329 1328 
4 1398 1399 1330 1329 
4 1399 1400 1331 1330 
4 1400 1401 1332 1331 
4 1401 1402 1333 1332 
4 1403 1404 1337 1336 
4 1404 1405 1338 1337 
4 1405 1406 1339 1338 
4 1406 1407 1340 1339 
4 1407 1408 1341 1340 
4 1408 1409 1342 1341 
4 1409 1410 1343 1342 
4 1410 1411 1344 1343 
4 1411 1412 1345 1344 
4 1412 1413 1346 1345 
4 1413 1414 1347 1346 
4 1414 1415 1348 1347 
4 1415 1416 1349 1348 
4 1416 1417 1350 1349 
4 1417 1418 1351 1350 
4 1418 1419 1352 1351 
4 1419 1420 1353 1352 
4 1420 1421 1354 1353 
4 1421 1422 1355 1354 
4 1422 1423 1356 1355 
4 1423 1424 1357 1356 
4 1424 1425 1358 1357 
4 1425 1426 1359 1358 
4 1426 1427 1360 1359 
4 1428 1429 1363 1362 
4 1429 1430 1364 1363 
4 1430 1431 1365 1364 
4 1431 1432 1366 1365 
4 1432 1433 1367 1366 
4 1433 1434 1368 1367 
4 1434 1435 1369 1368 
4 1435 1436 1370 1369 
4 1436 1437 1371 1370 
4 1437 1438 1372 1371 
4 1438 1439 1373 1372 
4 1439 1440 1374 1373 
4 1440 1441 1375 1374 
4 1441 1442 1376 1375 
4 1442 1443 1377 1376 
4 1443 1444 1378 1377 
4 1444 1445 1379 1378 
4 1445 1446 1380 1379 
4 1447 1448 1386 1385 
4 1448 1449 1387 1386 
4 1449 1450 1388 1387 
4 1450 1451 1389 1388 
4 1451 1452 1390 1389 
4 1452 1453 1391 1390 
4 1453 1454 1392 1391 
4 1454 1455 1393 1392 
4 1455 1456 1394 1393 
4 1456 1457 1395 1394 
4 1457 1458 1396 1395 
4 1458 1459 1397 1396 
4 1459 1460 1398 1397 
4 1460 1461 1399 1398 
4 1461 1462 1400 1399 
4 1462 1463 1401 1400 
4 1463 1464 1402 1401 
4 1465 1466 1406 1405 
4 1466 1467 1407 1406 
4 1467 1468 1408 1407 
4 1468 1469 1409 1408 
4 1469 1470 1410 1409 
4 1470 1471 1411 1410 
4 1471 1472 1412 1411 
4 1472 1473 1413 1412 
4 1473 1474 1414 1413 
4 1474 1475 1415 1414 
4 1475 1476 1416 1415 
4 1476 1477 1417 1416 
4 1477 1478 1418 1417 
4 1478 1479 1419 1418 
4 1479 1480 1420 1419 
4 1480 1481 1421 1420 
4 1481 1482 1422 1421 
4 1482 1483 1423 1422 
4 1483 1484 1424 1423 
4 1484 1485 1425 1424 
4 1485 1486 1426 1425 
4 1486 1487 1427 1426 
4 1488 1489 1429 1428 
4 1489 1490 1430 1429 
4 1490 1491 1431 1430 
4 1491 1492 1432 1431 
4 1492 1493 1433 1432 
4 1493 1494 1434 1433 
4 1494 1495 1435 1434 
4 1495 1496 1436 1435 
4 1496 1497 1437 1436 
4 1497 1498 1438 1437 
4 1498 1499 1439 1438 
4 1499 1500 1440 1439 
4 1500 1501 1441 1440 
4 1501 1502 1442 1441 
4 1502 1503 1443 1442 
4 1503 1504 1444 1443 
4 1505 1506 1450 1449 
4 1506 1507 1451 1450 
4 1507 1508 1452 1451 
4 1508 1509 1453 1452 
4 1509 1510 1454 1453 
4 1510 1511 1455 1454 
4 1511 1512 1456 1455 
4 1512 1513 1457 1456 
4 1513 1514 1458 1457 
4 1514 1515 1459 1458 
4 1515 1516 1460 1459 
4 1516 1517 1461 1460 
4 1517 1518 1462 1461 
4 1518 1519 1463 1462 
4 1519 1520 1464 1463 
4 1521 1522 1468 1467 
4 1522 1523 1469 1468 
4 1523 1524 1470 1469 
4 1524 1525 1471 1470 
4 1525 1526 1472 1471 
4 1526 1527 1473 1472 
4 1527 1528 1474 1473 
4 1528 1529 1475 1474 
4 1529 1530 1476 1475 
4 1530 1531 1477 1476 
4 1531 1532 1478 1477 
4 1532 1533 1479 1478 
4 1533 1534 1480 1479 
4 1534 1535 1481 1480 
4 1535 1536 1482 1481 
4 1536 1537 1483 1482 
4 1537 1538 1484 1483 
4 1538 1539 1485 1484 
4 1539 1540 1486 1485 
4 1540 1541 1487 1486 
4 1542 1543 1490 1489 
4 1543 1544 1491 1490 
4 1544 1545 1492 1491 
4 1545 1546 1493 1492 
4 1546 1547 1494 1493 
4 1547 1548 1495 1494 
4 1548 1549 1496 1495 
4 1549 1550 1497 1496 
4 1550 1551 1498 1497 
4 1551 1552 1499 1498 
4 1552 1553 1500 1499 
4 1553 1554 1501 1500 
4 1554 1555 1502 1501 
4 1555 1556 1503 1502 
4 1557 1558 1506 1505 
4 1558 1559 1507 1506 
4 1559 1560 1508 1507 
4 1560 1561 1509 1508 
4 1561 1562 1510 1509 
4 1562 1563 1511 1510 
4 1563 1564 1512 1511 
4 1564 1565 1513 1512 
4 1565 1566 1514 1513 
4 1566 1567 1515 1514 
4 1567 1568 1516 1515 
4 1568 1569 1517 1516 
4 1569 1570 1518 1517 
4 1570 1571 1519 1518 
4 1571 1572 1520 1519 
4 1573 1574 1524 1523 
4 1574 1575 1525 1524 
4 1575 1576 1526 1525 
4 1576 1577 1527 1526 
4 1577 1578 1528 1527 
4 1578 1579 1529 1528 
4 1579 1580 1530 1529 
4 1580 1581 1531 1530 
4 1581 1582 1532 1531 
4 1582 1583 1533 1532 
4 1583 1584 1534 1533 
4 1584 1585 1535 1534 
4 1585 1586 1536 1535 
4 1586 1587 1537 1536 
4 1587 1588 1538 1537 
4 1588 1589 1539 1538 
4 1589 1590 1540 1539 
4 1590 1591 1541 1540 
4 1592 1593 1544 1543 
4 1593 1594 1545 1544 
4 1594 1595 1546 1545 
4 1595 1596 1547 1546 
4 1596 1597 1548 1547 
4 1597 1598 1549 1548 
4 1598 1599 1550 1549 
4 1599 1600 1551 1550 
4 1600 1601 1552 1551 
4 1601 1602 1553 1552 
4 1602 1603 1554 1553 
4 1603 1604 1555 1554 
4 1604 1605 1556 1555 
4 1606 1607 1558 1557 
4 1607 1608 1559 1558 
4 1608 1609 1560 1559 
4 1609 1610 1561 1560 
4 1610 1611 1562 1561 
4 1611 1612 1563 1562 
4 1612 1613 1564 1563 
4 1613 1614 1565 1564 
4 1614 1615 1566 1565 
4 1615 1616 1567 1566 
4 1616 1617 1568 1567 
4 1617 1618 1569 1568 
4 1618 1619 1570 1569 
4 1619 1620 1571 1570 
4 1620 1621 1572 1571 
4 1622 1623 1575 1574 
4 1623 1624 1576 1575 
4 1624 1625 1577 1576 
4 1625 1626 1578 1577 
4 1626 1627 1579 1578 
4 1627 1628 1580 1579 
4 1628 1629 1581 1580 
4 1629 1630 1582 1581 
4 1630 1631 1583 1582 
4 1631 1632 1584 1583 
4 1632 1633 1585 1584 
4 1633 1634 1586 1585 
4 1634 1635 1587 1586 
4 1635 1636 1588 1587 
4 1636 1637 1589 1588 
4 1637 1638 1590 1589 
4 1638 1639 1591 1590 
4 1640 1641 1593 1592 
4 1641 1642 1594 1593 
4 1642 1643 1595 1594 
4 1643 1644 1596 1595 
4 1644 1645 1597 1596 
4 1645 1646 1598 1597 
4 1646 1647 1599 1598 
4 1647 1648 1600 1599 
4 1648 1649 1601 1600 
4 1649 1650 1602 1601 
4 1650 1651 1603 1602 
4 1651 1652 1604 1603 
4 1653 1654 1608 1607 
4 1654 1655 1609 1608 
4 1655 1656 1610 1609 
4 1656 1657 1611 1610 
4 1657 1658 1612 1611 
4 1658 1659 1613 1612 
4 1659 1660 1614 1613 
4 1660 1661 1615 1614 
4 1661 1662 1616 1615 
4 1662 1663 1617 1616 
4 1663 1664 1618 1617 
4 1664 1665 1619 1618 
4 1665 1666 1620 1619 
4 1666 1667 1621 1620 
4 1668 1669 1625 1624 
4 1669 1670 1626 1625 
4 1670 1671 1627 1626 
4 1671 1672 1628 1627 
4 1672 1673 1629 1628 
4 1673 1674 1630 1629 
4 1674 1675 1631 1630 
4 1675 1676 1632 1631 
4 1676 1677 1633 1632 
4 1677 1678 1634 1633 
4 1678 1679 1635 1634 
4 1679 1680 1636 1635 
4 1680 1681 1637 1636 
4 1681 1682 1638 1637 
4 1682 1683 1639 1638 
4 1684 1685 1641 1640 
4 1685 1686 1642 1641 
4 1686 1687 1643 1642 
4 1687 1688 1644 1643 
4 1688 1689 1645 1644 
4 1689 1690 1646 1645 
4 1690 1691 1647 1646 
4 1691 1692 1648 1647 
4 1692 1693 1649 1648 
4 1693 1694 1650 1649 
4 1694 1695 1651 1650 
4 1695 1696 1652 1651 
4 1697 1698 1654 1653 
4 1698 1699 1655 1654 
4 1699 1700 1656 1655 
4 1700 1701 1657 1656 
4 1701 1702 1658 1657 
4 1702 1703 1659 1658 
4 1703 1704 1660 1659 
4 1704 1705 1661 1660 
4 1705 1706 1662 1661 
4 1706 1707 1663 1662 
4 1707 1708 1664 1663 
4 1708 1709 1665 1664 
4 1709 1710 1666 1665 
4 1710 1711 1667 1666 
4 1712 1713 1671 1670 
4 1713 1714 1672 1671 
4 1714 1715 1673 1672 
4 1715 1716 1674 1673 
4 1716 1717 1675 1674 
4 1717 1718 1676 1675 
4 1718 1719 1677 1676 
4 1719 1720 1678 1677 
4 1720 1721 1679 1678 
4 1721 1722 1680 1679 
4 1722 1723 1681 1680 
4 1723 1724 1682 1681 
4 1725 1726 1685 1684 
4 1726 1727 1686 1685 
4 1727 1728 1687 1686 
4 1728 1729 1688 1687 
4 1729 1730 1689 1688 
4 1730 1731 1690 1689 
4 1731 1732 1691 1690 
4 1732 1733 1692 1691 
4 1733 1734 1693 1692 
4 1734 1735 1694 1693 
4 1735 1736 1695 1694 
4 1736 1737 1696 1695 
4 1737 1738 1739 1696 
4 1740 1741 1698 1697 
4 1741 1742 1699 1698 
4 1742 1743 1700 1699 
4 1743 1744 1701 1700 
4 1744 1745 1702 1701 
4 1745 1746 1703 1702 
4 1746 1747 1704 1703 
4 1747 1748 1705 1704 
4 1748 1749 1706 1705 
4 1749 1750 1707 1706 
4 1750 1751 1708 1707 
4 1751 1752 1709 1708 
4 1752 1753 1710 1709 
4 1753 1754 1711 1710 
4 1754 1755 1756 1711 
4 1757 1758 1714 1713 
4 1758 1759 1715 1714 
4 1759 1760 1716 1715 
4 1760 1761 1717 1716 
4 1761 1762 1718 1717 
4 1762 1763 1719 1718 
4 1763 1764 1720 1719 
4 1764 1765 1721 1720 
4 1765 1766 1722 1721 
4 1766 1767 1723 1722 
4 1767 1768 1724 1723 
4 1770 1771 1725 1769 
4 1771 1772 1726 1725 
4 1772 1773 1727 1726 
4 1773 1774 1728 1727 
4 1774 1775 1729 1728 
4 1775 1776 1730 1729 
4 1776 1777 1731 1730 
4 1777 1778 1732 1731 
4 1778 1779 1733 1732 
4 1779 1780 1734 1733 
4 1780 1781 1735 1734 
4 1781 1782 1736 1735 
4 1782 1783 1737 1736 
4 1783 1784 1738 1737 
4 1785 1786 1741 1740 
4 1786 1787 1742 1741 
4 1787 1788 1743 1742 
4 1788 1789 1744 1743 
4 1789 1790 1745 1744 
4 1790 1791 1746 1745 
4 1791 1792 1747 1746 
4 1792 1793 1748 1747 
4 1793 1794 1749 1748 
4 1794 1795 1750 1749 
4 1795 1796 1751 1750 
4 1796 1797 1752 1751 
4 1797 1798 1753 1752 
4 1798 1799 1754 1753 
4 1799 1800 1755 1754 
4 1801 1802 1760 1759 
4 1802 1803 1761 1760 
4 1803 1804 1762 1761 
4 1804 1805 1763 1762 
4 1805 1806 1764 1763 
4 1806 1807 1765 1764 
4 1807 1808 1766 1765 
4 1808 1809 1767 1766 
4 1809 1810 1768 1767 
4 1812 1813 1814 1811 
4 1813 1815 1770 1814 
4 1815 1816 1771 1770 
4 1816 1817 1772 1771 
4 1817 1818 1773 1772 
4 1818 1819 1774 1773 
4 1819 1820 1775 1774 
4 1820 1821 1776 1775 
4 1821 1822 1777 1776 
4 1822 1823 1778 1777 
4 1823 1824 1779 1778 
4 1824 1825 1780 1779 
4 1825 1826 1781 1780 
4 1826 1827 1782 1781 
4 1827 1828 1783 1782 
4 1828 1829 1784 1783 
4 1829 1830 1831 1784 
4 1832 1833 1786 1785 
4 1833 1834 1787 1786 
4 1834 1835 1788 1787 
4 1835 1836 1789 1788 
4 1836 1837 1790 1789 
4 1837 1838 1791 1790 
4 1838 1839 1792 1791 
4 1839 1840 1793 1792 
4 1840 1841 1794 1793 
4 1841 1842 1795 1794 
4 1842 1843 1796 1795 
4 1843 1844 1797 1796 
4 1844 1845 1798 1797 
4 1845 1846 1799 1798 
4 1846 1847 1800 1799 
4 1848 1849 1805 1804 
4 1849 1850 1806 1805 
4 1850 1851 1807 1806 
4 1851 1852 1808 1807 
4 1852 1853 1809 1808 
4 1855 1856 1857 1854 
4 1856 1858 1859 1857 
4 1858 1860 1861 1859 
4 1860 1862 1863 1861 
4 1862 1864 1865 1863 
4 1864 1866 1867 1865 
4 1866 1868 1869 1867 
4 1868 1870 1871 1869 
4 1870 1872 1873 1871 
4 1872 1874 1875 1873 
4 1874 1876 1812 1875 
4 1876 1877 1813 1812 
4 1877 1878 1815 1813 
4 1878 1879 1816 1815 
4 1879 1880 1817 1816 
4 1880 1881 1818 1817 
4 1881 1882 1819 1818 
4 1882 1883 1820 1819 
4 1883 1884 1821 1820 
4 1884 1885 1822 1821 
4 1885 1886 1823 1822 
4 1886 1887 1824 1823 
4 1887 1888 1825 1824 
4 1888 1889 1826 1825 
4 1889 1890 1827 1826 
4 1890 1891 1828 1827 
4 1891 1892 1829 1828 
4 1892 1893 1830 1829 
4 1893 1894 1895 1830 
4 1896 1897 1834 1833 
4 1897 1898 1835 1834 
4 1898 1899 1836 1835 
4 1899 1900 1837 1836 
4 1900 1901 1838 1837 
4 1901 1902 1839 1838 
4 1902 1903 1840 1839 
4 1903 1904 1841 1840 
4 1904 1905 1842 1841 
4 1905 1906 1843 1842 
4 1906 1907 1844 1843 
4 1907 1908 1845 1844 
4 1908 1909 1846 1845 
4 1909 1910 1847 1846 
4 1910 1911 1912 1847 
4 1914 1915 1916 1913 
4 1915 1917 1918 1916 
4 1917 1919 1855 1918 
4 1919 1920 1856 1855 
4 1920 1921 1858 1856 
4 1921 1922 1860 1858 
4 1922 1923 1862 1860 
4 1923 1924 1864 1862 
4 1924 1925 1866 1864 
4 1925 1926 1868 1866 
4 1926 1927 1870 1868 
4 1927 1928 1872 1870 
4 1928 1929 1874 1872 
4 1929 1930 1876 1874 
4 1930 1931 1877 1876 
4 1931 1932 1878 1877 
4 1932 1933 1879 1878 
4 1933 1934 1880 1879 
4 1934 1935 1881 1880 
4 1935 1936 1882 1881 
4 1936 1937 1883 1882 
4 1937 1938 1884 1883 
4 1938 1939 1885 1884 
4 1939 1940 1886 1885 
4 1940 1941 1887 1886 
4 1941 1942 1888 1887 
4 1942 1943 1889 1888 
4 1943 1944 1890 1889 
4 1944 1945 1891 1890 
4 1945 1946 1892 1891 
4 1946 1947 1893 1892 
4 1947 1948 1894 1893 
4 1948 1949 1950 1894 
4 1951 1952 1897 1896 
4 1952 1953 1898 1897 
4 1953 1954 1899 1898 
4 1954 1955 1900 1899 
4 1955 1956 1901 1900 
4 1956 1957 1902 1901 
4 1957 1958 1903 1902 
4 1958 1959 1904 1903 
4 1959 1960 1905 1904 
4 1960 1961 1906 1905 
4 1961 1962 1907 1906 
4 1962 1963 1908 1907 
4 1963 1964 1909 1908 
4 1964 1965 1910 1909 
4 1965 1966 1911 1910 
4 1968 1969 1970 1967 
4 1969 1971 1914 1970 
4 1971 1972 1915 1914 
4 1972 1973 1917 1915 
4 1973 1974 1919 1917 
4 1974 1975 1920 1919 
4 1975 1976 1921 1920 
4 1976 1977 1922 1921 
4 1977 1978 1923 1922 
4 1978 1979 1924 1923 
4 1979 1980 1925 1924 
4 1980 1981 1926 1925 
4 1981 1982 1927 1926 
4 1982 1983 1928 1927 
4 1983 1984 1929 1928 
4 1984 1985 1930 1929 
4 1985 1986 1931 1930 
4 1986 1987 1932 1931 
4 1987 1988 1933 1932 
4 1988 1989 1934 1933 
4 1989 1990 1935 1934 
4 1990 1991 1936 1935 
4 1991 1992 1937 1936 
4 1992 1993 1938 1937 
4 1993 1994 1939 1938 
4 1994 1995 1940 1939 
4 1995 1996 1941 1940 
4 1996 1997 1942 1941 
4 1997 1998 1943 1942 
4 1998 1999 1944 1943 
4 1999 2000 1945 1944 
4 2000 2001 1946 1945 
4 2001 2002 1947 1946 
4 2002 2003 1948 1947 
4 2003 2004 1949 1948 
4 2005 2006 1952 1951 
4 2006 2007 1953 1952 
4 2007 2008 1954 1953 
4 2008 2009 1955 1954 
4 2009 2010 1956 1955 
4 2010 2011 1957 1956 
4 2011 2012 1958 1957 
4 2012 2013 1959 1958 
4 2013 2014 1960 1959 
4 2014 2015 1961 1960 
4 2015 2016 1962 1961 
4 2016 2017 1963 1962 
4 2017 2018 1964 1963 
4 2018 2019 1965 1964 
4 2019 2020 1966 1965 
4 2020 2021 2022 1966 
4 2024 2025 2026 2023 
4 2025 2027 2028 2026 
4 2027 2029 1968 2028 
4 2029 2030 1969 1968 
4 2030 2031 1971 1969 
4 2031 2032 1972 1971 
4 2032 2033 1973 1972 
4 2033 2034 1974 1973 
4 2034 2035 1975 1974 
4 2035 2036 1976 1975 
4 2036 2037 1977 1976 
4 2037 2038 1978 1977 
4 2038 2039 1979 1978 
4 2039 2040 1980 1979 
4 2040 2041 1981 1980 
4 2041 2042 1982 1981 
4 2042 2043 1983 1982 
4 2043 2044 1984 1983 
4 2044 2045 1985 1984 
4 2045 2046 1986 1985 
4 2046 2047 1987 1986 
4 2047 2048 1988 1987 
4 2048 2049 1989 1988 
4 2049 2050 1990 1989 
4 2050 2051 1991 1990 
4 2051 2052 1992 1991 
4 2052 2053 1993 1992 
4 2053 2054 1994 1993 
4 2054 2055 1995 1994 
4 2055 2056 1996 1995 
4 2056 2057 1997 1996 
4 2057 2058 1998 1997 
4 2058 2059 1999 1998 
4 2059 2060 2000 1999 
4 2060 2061 2001 2000 
4 2061 2062 2002 2001 
4 2062 2063 2003 2002 
4 2063 2064 2004 2003 
4 2064 2065 2066 2004 
4 2067 2068 2006 2005 
4 2068 2069 2007 2006 
4 2069 2070 2008 2007 
4 2070 2071 2009 2008 
4 2071 2072 2010 2009 
4 2072 2073 2011 2010 
4 2073 2074 2012 2011 
4 2074 2075 2013 2012 
4 2075 2076 2014 2013 
4 2076 2077 2015 2014 
4 2077 2078 2016 2015 
4 2078 2079 2017 2016 
4 2079 2080 2018 2017 
4 2080 2081 2019 2018 
4 2081 2082 2020 2019 
4 2082 2083 2021 2020 
4 2085 2086 2087 2084 
4 2086 2088 2089 2087 
4 2088 2090 2024 2089 
4 2090 2091 2025 2024 
4 2091 2092 2027 2025 
4 2092 2093 2029 2027 
4 2093 2094 2030 2029 
4 2094 2095 2031 2030 
4 2095 2096 2032 2031 
4 2096 2097 2033 2032 
4 2097 2098 2034 2033 
4 2098 2099 2035 2034 
4 2099 2100 2036 2035 
4 2100 2101 2037 2036 
4 2101 2102 2038 2037 
4 2102 2103 2039 2038 
4 2103 2104 2040 2039 
4 2104 2105 2041 2040 
4 2105 2106 2042 2041 
4 2106 2107 2043 2042 
4 2107 2108 2044 2043 
4 2108 2109 2045 2044 
4 2109 2110 2046 2045 
4 2110 2111 2047 2046 
4 2111 2112 2048 2047 
4 2112 2113 2049 2048 
4 2113 2114 2050 2049 
4 2114 2115 2051 2050 
4 2115 2116 2052 2051 
4 2116 2117 2053 2052 
4 2117 2118 2054 2053 
4 2118 2119 2055 2054 
4 2119 2120 2056 2055 
4 2120 2121 2057 2056 
4 2121 2122 2058 2057 
4 2122 2123 2059 2058 
4 2123 2124 2060 2059 
4 2124 2125 2061 2060 
4 2125 2126 2062 2061 
4 2126 2127 2063 2062 
4 2127 2128 2064 2063 
4 2128 2129 2065 2064 
4 2130 2131 2069 2068 
4 2131 2132 2070 2069 
4 2132 2133 2071 2070 
4 2133 2134 2072 2071 
4 2134 2135 2073 2072 
4 2135 2136 2074 2073 
4 2136 2137 2075 2074 
4 2137 2138 2076 2075 
4 2138 2139 2077 2076 
4 2139 2140 2078 2077 
4 2140 2141 2079 2078 
4 2141 2142 2080 2079 
4 2142 2143 2081 2080 
4 2143 2144 2082 2081 
4 2144 2145 2083 2082 
4 2147 2148 2149 2146 
4 2148 2150 2151 2149 
4 2150 2152 2153 2151 
4 2152 2154 2155 2153 
4 2154 2156 2157 2155 
4 2156 2158 2085 2157 
4 2158 2159 2086 2085 
4 2159 2160 2088 2086 
4 2160 2161 2090 2088 
4 2161 2162 2091 2090 
4 2162 2163 2092 2091 
4 2163 2164 2093 2092 
4 2164 2165 2094 2093 
4 2165 2166 2095 2094 
4 2166 2167 2096 2095 
4 2167 2168 2097 2096 
4 2168 2169 2098 2097 
4 2169 2170 2099 2098 
4 2170 2171 2100 2099 
4 2171 2172 2101 2100 
4 2172 2173 2102 2101 
4 2173 2174 2103 2102 
4 2174 2175 2104 2103 
4 2175 2176 2105 2104 
4 2176 2177 2106 2105 
4 2177 2178 2107 2106 
4 2178 2179 2108 2107 
4 2179 2180 2109 2108 
4 2180 2181 2110 2109 
4 2181 2182 2111 2110 
4 2182 2183 2112 2111 
4 2183 2184 2113 2112 
4 2184 2185 2114 2113 
4 2185 2186 2115 2114 
4 2186 2187 2116 2115 
4 2187 2188 2117 2116 
4 2188 2189 2118 2117 
4 2189 2190 2119 2118 
4 2190 2191 2120 2119 
4 2191 2192 2121 2120 
4 2192 2193 2122 2121 
4 2193 2194 2123 2122 
4 2194 2195 2124 2123 
4 2195 2196 2125 2124 
4 2196 2197 2126 2125 
4 2197 2198 2127 2126 
4 2198 2199 2128 2127 
4 2199 2200 2129 2128 
4 2200 2201 2202 2129 
4 2203 2204 2131 2130 
4 2204 2205 2132 2131 
4 2205 2206 2133 2132 
4 2206 2207 2134 2133 
4 2207 2208 2135 2134 
4 2208 2209 2136 2135 
4 2209 2210 2137 2136 
4 2210 2211 2138 2137 
4 2211 2212 2139 2138 
4 2212 2213 2140 2139 
4 2213 2214 2141 2140 
4 2214 2215 2142 2141 
4 2215 2216 2143 2142 
4 2216 2217 2144 2143 
4 2217 2218 2145 2144 
4 2218 2219 2220 2145 
4 2222 2223 2224 2221 
4 2223 2225 2226 2224 
4 2225 2227 2228 2226 
4 2227 2229 2147 2228 
4 2229 2230 2148 2147 
4 2230 2231 2150 2148 
4 2231 2232 2152 2150 
4 2232 2233 2154 2152 
4 2233 2234 2156 2154 
4 2234 2235 2158 2156 
4 2235 2236 2159 2158 
4 2236 2237 2160 2159 
4 2237 2238 2161 2160 
4 2238 2239 2162 2161 
4 2239 2240 2163 2162 
4 2240 2241 2164 2163 
4 2241 2242 2165 2164 
4 2242 2243 2166 2165 
4 2243 2244 2167 2166 
4 2244 2245 2168 2167 
4 2245 2246 2169 2168 
4 2246 2247 2170 2169 
4 2247 2248 2171 2170 
4 2248 2249 2172 2171 
4 2249 2250 2173 2172 
4 2250 2251 2174 2173 
4 2251 2252 2175 2174 
4 2252 2253 2176 2175 
4 2253 2254 2177 2176 
4 2254 2255 2178 2177 
4 2255 2256 2179 2178 
4 2256 2257 2180 2179 
4 2257 2258 2181 2180 
4 2258 2259 2182 2181 
4 2259 2260 2183 2182 
4 2260 2261 2184 2183 
4 2261 2262 2185 2184 
4 2262 2263 2186 2185 
4 2263 2264 2187 2186 
4 2264 2265 2188 2187 
4 2265 2266 2189 2188 
4 2266 2267 2190 2189 
4 2267 2268 2191 2190 
4 2268 2269 2192 2191 
4 2269 2270 2193 2192 
4 2270 2271 2194 2193 
4 2271 2272 2195 2194 
4 2272 2273 2196 2195 
4 2273 2274 2197 2196 
4 2274 2275 2198 2197 
4 2275 2276 2199 2198 
4 2276 2277 2200 2199 
4 2277 2278 2201 2200 
4 2279 2280 2205 2204 
4 2280 2281 2206 2205 
4 2281 2282 2207 2206 
4 2282 2283 2208 2207 
4 2283 2284 2209 2208 
4 2284 2285 2210 2209 
4 2285 2286 2211 2210 
4 2286 2287 2212 2211 
4 2287 2288 2213 2212 
4 2288 2289 2214 2213 
4 2289 2290 2215 2214 
4 2290 2291 2216 2215 
4 2291 2292 2217 2216 
4 2292 2293 2218 2217 
4 2293 2294 2219 2218 
4 2294 2295 2296 2219 
4 2298 2299 2300 2297 
4 2299 2301 2302 2300 
4 2301 2303 2222 2302 
4 2303 2304 2223 2222 
4 2304 2305 2225 2223 
4 2305 2306 2227 2225 
4 2306 2307 2229 2227 
4 2307 2308 2230 2229 
4 2308 2309 2231 2230 
4 2309 2310 2232 2231 
4 2310 2311 2233 2232 
4 2311 2312 2234 2233 
4 2312 2313 2235 2234 
4 2313 2314 2236 2235 
4 2314 2315 2237 2236 
4 2315 2316 2238 2237 
4 2316 2317 2239 2238 
4 2317 2318 2240 2239 
4 2318 2319 2241 2240 
4 2319 2320 2242 2241 
4 2320 2321 2243 2242 
4 2321 2322 2244 2243 
4 2322 2323 2245 2244 
4 2323 2324 2246 2245 
4 2324 2325 2247 2246 
4 2325 2326 2248 2247 
4 2326 2327 2249 2248 
4 2327 2328 2250 2249 
4 2328 2329 2251 2250 
4 2329 2330 2252 2251 
4 2330 2331 2253 2252 
4 2331 2332 2254 2253 
4 2332 2333 2255 2254 
4 2333 2334 2256 2255 
4 2334 2335 2257 2256 
4 2335 2336 2258 2257 
4 2336 2337 2259 2258 
4 2337 2338 2260 2259 
4 2338 2339 2261 2260 
4 2339 2340 2262 2261 
4 2340 2341 2263 2262 
4 2341 2342 2264 2263 
4 2342 2343 2265 2264 
4 2343 2344 2266 2265 
4 2344 2345 2267 2266 
4 2345 2346 2268 2267 
4 2346 2347 2269 2268 
4 2347 2348 2270 2269 
4 2348 2349 2271 2270 
4 2349 2350 2272 2271 
4 2350 2351 2273 2272 
4 2351 2352 2274 2273 
4 2352 2353 2275 2274 
4 2353 2354 2276 2275 
4 2354 2355 2277 2276 
4 2355 2356 2278 2277 
4 2357 2358 2280 2279 
4 2358 2359 2281 2280 
4 2359 2360 2282 2281 
4 2360 2361 2283 2282 
4 2361 2362 2284 2283 
4 2362 2363 2285 2284 
4 2363 2364 2286 2285 
4 2364 2365 2287 2286 
4 2365 2366 2288 2287 
4 2366 2367 2289 2288 
4 2367 2368 2290 2289 
4 2368 2369 2291 2290 
4 2369 2370 2292 2291 
4 2370 2371 2293 2292 
4 2371 2372 2294 2293 
4 2372 2373 2295 2294 
4 2373 2374 2375 2295 
4 2374 2376 2377 2375 
4 2376 2378 2379 2377 
4 2378 2380 2381 2379 
4 2380 2382 2383 2381 
4 2382 2384 2385 2383 
4 2384 2386 2387 2385 
4 2386 2388 2389 2387 
4 2388 2390 2298 2389 
4 2390 2391 2299 2298 
4 2391 2392 2301 2299 
4 2392 2393 2303 2301 
4 2393 2394 2304 2303 
4 2394 2395 2305 2304 
4 2395 2396 2306 2305 
4 2396 2397 2307 2306 
4 2397 2398 2308 2307 
4 2398 2399 2309 2308 
4 2399 2400 2310 2309 
4 2400 2401 2311 2310 
4 2401 2402 2312 2311 
4 2402 2403 2313 2312 
4 2403 2404 2314 2313 
4 2404 2405 2315 2314 
4 2405 2406 2316 2315 
4 2406 2407 2317 2316 
4 2407 2408 2318 2317 
4 2408 2409 2319 2318 
4 2409 2410 2320 2319 
4 2410 2411 2321 2320 
4 2411 2412 2322 2321 
4 2412 2413 2323 2322 
4 2413 2414 2324 2323 
4 2414 2415 2325 2324 
4 2415 2416 2326 2325 
4 2416 2417 2327 2326 
4 2417 2418 2328 2327 
4 2418 2419 2329 2328 
4 2419 2420 2330 2329 
4 2420 2421 2331 2330 
4 2421 2422 2332 2331 
4 2422 2423 2333 2332 
4 2423 2424 2334 2333 
4 2424 2425 2335 2334 
4 2425 2426 2336 2335 
4 2426 2427 2337 2336 
4 2427 2428 2338 2337 
4 2428 2429 2339 2338 
4 2429 2430 2340 2339 
4 2430 2431 2341 2340 
4 2431 2432 2342 2341 
4 2432 2433 2343 2342 
4 2433 2434 2344 2343 
4 2434 2435 2345 2344 
4 2435 2436 2346 2345 
4 2436 2437 2347 2346 
4 2437 2438 2348 2347 
4 2438 2439 2349 2348 
4 2439 2440 2350 2349 
4 2440 2441 2351 2350 
4 2441 2442 2352 2351 
4 2442 2443 2353 2352 
4 2443 2444 2354 2353 
4 2444 2445 2355 2354 
4 2445 2446 2356 2355 
4 2447 2448 2359 2358 
4 2448 2449 2360 2359 
4 2449 2450 2361 2360 
4 2450 2451 2362 2361 
4 2451 2452 2363 2362 
4 2452 2453 2364 2363 
4 2453 2454 2365 2364 
4 2454 2455 2366 2365 
4 2455 2456 2367 2366 
4 2456 2457 2368 2367 
4 2457 2458 2369 2368 
4 2458 2459 2370 2369 
4 2459 2460 2371 2370 
4 2460 2461 2372 2371 
4 2461 2462 2373 2372 
4 2462 2463 2374 2373 
4 2463 2464 2376 2374 
4 2464 2465 2378 2376 
4 2465 2466 2380 2378 
4 2466 2467 2382 2380 
4 2467 2468 2384 2382 
4 2468 2469 2386 2384 
4 2469 2470 2388 2386 
4 2470 2471 2390 2388 
4 2471 2472 2391 2390 
4 2472 2473 2392 2391 
4 2473 2474 2393 2392 
4 2474 2475 2394 2393 
4 2475 2476 2395 2394 
4 2476 2477 2396 2395 
4 2477 2478 2397 2396 
4 2478 2479 2398 2397 
4 2479 2480 2399 2398 
4 2480 2481 2400 2399 
4 2481 2482 2401 2400 
4 2482 2483 2402 2401 
4 2483 2484 2403 2402 
4 2484 2485 2404 2403 
4 2485 2486 2405 2404 
4 2486 2487 2406 2405 
4 2487 2488 2407 2406 
4 2488 2489 2408 2407 
4 2489 2490 2409 2408 
4 2490 2491 2410 2409 
4 2491 2492 2411 2410 
4 2492 2493 2412 2411 
4 2493 2494 2413 2412 
4 2494 2495 2414 2413 
4 2495 2496 2415 2414 
4 2496 2497 2416 2415 
4 2497 2498 2417 2416 
4 2498 2499 2418 2417 
4 2499 2500 2419 2418 
4 2500 2501 2420 2419 
4 2501 2502 2421 2420 
4 2502 2503 2422 2421 
4 2503 2504 2423 2422 
4 2504 2505 2424 2423 
4 2505 2506 2425 2424 
4 2506 2507 2426 2425 
4 2507 2508 2427 2426 
4 2508 2509 2428 2427 
4 2509 2510 2429 2428 
4 2510 2511 2430 2429 
4 2511 2512 2431 2430 
4 2512 2513 2432 2431 
4 2513 2514 2433 2432 
4 2514 2515 2434 2433 
4 2515 2516 2435 2434 
4 2516 2517 2436 2435 
4 2517 2518 2437 2436 
4 2518 2519 2438 2437 
4 2519 2520 2439 2438 
4 2520 2521 2440 2439 
4 2521 2522 2441 2440 
4 2522 2523 2442 2441 
4 2523 2524 2443 2442 
4 2524 2525 2444 2443 
4 2525 2526 2445 2444 
4 2526 2527 2446 2445 
4 2527 2528 2529 2446 
4 2530 2531 2448 2447 
4 2531 2532 2449 2448 
4 2532 2533 2450 2449 
4 2533 2534 2451 2450 
4 2534 2535 2452 2451 
4 2535 2536 2453 2452 
4 2536 2537 2454 2453 
4 2537 2538 2455 2454 
4 2538 2539 2456 2455 
4 2539 2540 2457 2456 
4 2540 2541 2458 2457 
4 2541 2542 2459 2458 
4 2542 2543 2460 2459 
4 2543 2544 2461 2460 
4 2544 2545 2462 2461 
4 2545 2546 2463 2462 
4 2546 2547 2464 2463 
4 2547 2548 2465 2464 
4 2548 2549 2466 2465 
4 2549 2550 2467 2466 
4 2550 2551 2468 2467 
4 2551 2552 2469 2468 
4 2552 2553 2470 2469 
4 2553 2554 2471 2470 
4 2554 2555 2472 2471 
4 2555 2556 2473 2472 
4 2556 2557 2474 2473 
4 2557 2558 2475 2474 
4 2558 2559 2476 2475 
4 2559 2560 2477 2476 
4 2560 2561 2478 2477 
4 2561 2562 2479 2478 
4 2562 2563 2480 2479 
4 2563 2564 2481 2480 
4 2564 2565 2482 2481 
4 2565 2566 2483 2482 
4 2566 2567 2484 2483 
4 2567 2568 2485 2484 
4 2568 2569 2486 2485 
4 2569 2570 2487 2486 
4 2570 2571 2488 2487 
4 2571 2572 2489 2488 
4 2572 2573 2490 2489 
4 2573 2574 2491 2490 
4 2574 2575 2492 2491 
4 2575 2576 2493 2492 
4 2576 2577 2494 2493 
4 2577 2578 2495 2494 
4 2578 2579 2496 2495 
4 2579 2580 2497 2496 
4 2580 2581 2498 2497 
4 2581 2582 2499 2498 
4 2582 2583 2500 2499 
4 2583 2584 2501 2500 
4 2584 2585 2502 2501 
4 2585 2586 2503 2502 
4 2586 2587 2504 2503 
4 2587 2588 2505 2504 
4 2588 2589 2506 2505 
4 2589 2590 2507 2506 
4 2590 2591 2508 2507 
4 2591 2592 2509 2508 
4 2592 2593 2510 2509 
4 2593 2594 2511 2510 
4 2594 2595 2512 2511 
4 2595 2596 2513 2512 
4 2596 2597 2514 2513 
4 2597 2598 2515 2514 
4 2598 2599 2516 2515 
4 2599 2600 2517 2516 
4 2600 2601 2518 2517 
4 2601 2602 2519 2518 
4 2602 2603 2520 2519 
4 2603 2604 2521 2520 
4 2604 2605 2522 2521 
4 2605 2606 2523 2522 
4 2606 2607 2524 2523 
4 2607 2608 2525 2524 
4 2608 2609 2526 2525 
4 2609 2610 2527 2526 
4 2610 2611 2528 2527 
4 2612 2613 2532 2531 
4 2613 2614 2533 2532 
4 2614 2615 2534 2533 
4 2615 2616 2535 2534 
4 2616 2617 2536 2535 
4 2617 2618 2537 2536 
4 2618 2619 2538 2537 
4 2619 2620 2539 2538 
4 2620 2621 2540 2539 
4 2621 2622 2541 2540 
4 2622 2623 2542 2541 
4 2623 2624 2543 2542 
4 2624 2625 2544 2543 
4 2625 2626 2545 2544 
4 2626 2627 2546 2545 
4 2627 2628 2547 2546 
4 2628 2629 2548 2547 
4 2629 2630 2549 2548 
4 2630 2631 2550 2549 
4 2631 2632 2551 2550 
4 2632 2633 2552 2551 
4 2633 2634 2553 2552 
4 2634 2635 2554 2553 
4 2635 2636 2555 2554 
4 2636 2637 2556 2555 
4 2637 2638 2557 2556 
4 2638 2639 2558 2557 
4 2639 2640 2559 2558 
4 2640 2641 2560 2559 
4 2641 2642 2561 2560 
4 2642 2643 2562 2561 
4 2643 2644 2563 2562 
4 2644 2645 2564 2563 
4 2645 2646 2565 2564 
4 2646 2647 2566 2565 
4 2647 2648 2567 2566 
4 2648 2649 2568 2567 
4 2649 2650 2569 2568 
4 2650 2651 2570 2569 
4 2651 2652 2571 2570 
4 2652 2653 2572 2571 
4 2653 2654 2573 2572 
4 2654 2655 2574 2573 
4 2655 2656 2575 2574 
4 2656 2657 2576 2575 
4 2657 2658 2577 2576 
4 2658 2659 2578 2577 
4 2659 2660 2579 2578 
4 2660 2661 2580 2579 
4 2661 2662 2581 2580 
4 2662 2663 2582 2581 
4 2663 2664 2583 2582 
4 2664 2665 2584 2583 
4 2665 2666 2585 2584 
4 2666 2667 2586 2585 
4 2667 2668 2587 2586 
4 2668 2669 2588 2587 
4 2669 2670 2589 2588 
4 2670 2671 2590 2589 
4 2671 2672 2591 2590 
4 2672 2673 2592 2591 
4 2673 2674 2593 2592 
4 2674 2675 2594 2593 
4 2675 2676 2595 2594 
4 2676 2677 2596 2595 
4 2677 2678 2597 2596 
4 2678 2679 2598 2597 
4 2679 2680 2599 2598 
4 2680 2681 2600 2599 
4 2681 2682 2601 2600 
4 2682 2683 2602 2601 
4 2683 2684 2603 2602 
4 2684 2685 2604 2603 
4 2685 2686 2605 2604 
4 2686 2687 2606 2605 
4 2687 2688 2607 2606 
4 2688 2689 2608 2607 
4 2689 2690 2609 2608 
4 2690 2691 2610 2609 
4 2692 2693 2613 2612 
4 2693 2694 2614 2613 
4 2694 2695 2615 2614 
4 2695 2696 2616 2615 
4 2696 2697 2617 2616 
4 2697 2698 2618 2617 
4 2698 2699 2619 2618 
4 2699 2700 2620 2619 
4 2700 2701 2621 2620 
4 2701 2702 2622 2621 
4 2702 2703 2623 2622 
4 2703 2704 2624 2623 
4 2704 2705 2625 2624 
4 2705 2706 2626 2625 
4 2706 2707 2627 2626 
4 2707 2708 2628 2627 
4 2708 2709 2629 2628 
4 2709 2710 2630 2629 
4 2710 2711 2631 2630 
4 2711 2712 2632 2631 
4 2712 2713 2633 2632 
4 2713 2714 2634 2633 
4 2714 2715 2635 2634 
4 2715 2716 2636 2635 
4 2716 2717 2637 2636 
4 2717 2718 2638 2637 
4 2718 2719 2639 2638 
4 2719 2720 2640 2639 
4 2720 2721 2641 2640 
4 2721 2722 2642 2641 
4 2722 2723 2643 2642 
4 2723 2724 2644 2643 
4 2724 2725 2645 2644 
4 2725 2726 2646 2645 
4 2726 2727 2647 2646 
4 2727 2728 2648 2647 
4 2728 2729 2649 2648 
4 2729 2730 2650 2649 
4 2730 2731 2651 2650 
4 2731 2732 2652 2651 
4 2732 2733 2653 2652 
4 2733 2734 2654 2653 
4 2734 2735 2655 2654 
4 2735 2736 2656 2655 
4 2736 2737 2657 2656 
4 2737 2738 2658 2657 
4 2738 2739 2659 2658 
4 2739 2740 2660 2659 
4 2740 2741 2661 2660 
4 2741 2742 2662 2661 
4 2742 2743 2663 2662 
4 2743 2744 2664 2663 
4 2744 2745 2665 2664 
4 2745 2746 2666 2665 
4 2746 2747 2667 2666 
4 2747 2748 2668 2667 
4 2748 2749 2669 2668 
4 2749 2750 2670 2669 
4 2750 2751 2671 2670 
4 2751 2752 2672 2671 
4 2752 2753 2673 2672 
4 2753 2754 2674 2673 
4 2754 2755 2675 2674 
4 2755 2756 2676 2675 
4 2756 2757 2677 2676 
4 2757 2758 2678 2677 
4 2758 2759 2679 2678 
4 2759 2760 2680 2679 
4 2760 2761 2681 2680 
4 2761 2762 2682 2681 
4 2762 2763 2683 2682 
4 2763 2764 2684 2683 
4 2764 2765 2685 2684 
4 2765 2766 2686 2685 
4 2766 2767 2687 2686 
4 2767 2768 2688 2687 
4 2768 2769 2689 2688 
4 2769 2770 2690 2689 
4 2770 2771 2691 2690 
4 2772 2773 2694 2693 
4 2773 2774 2695 2694 
4 2774 2775 2696 2695 
4 2775 2776 2697 2696 
4 2776 2777 2698 2697 
4 2777 2778 2699 2698 
4 2778 2779 2700 2699 
4 2779 2780 2701 2700 
4 2780 2781 2702 2701 
4 2781 2782 2703 2702 
4 2782 2783 2704 2703 
4 2783 2784 2705 2704 
4 2784 2785 2706 2705 
4 2785 2786 2707 2706 
4 2786 2787 2708 2707 
4 2787 2788 2709 2708 
4 2788 2789 2710 2709 
4 2789 2790 2711 2710 
4 2790 2791 2712 2711 
4 2791 2792 2713 2712 
4 2792 2793 2714 2713 
4 2793 2794 2715 2714 
4 2794 2795 2716 2715 
4 2795 2796 2717 2716 
4 2796 2797 2718 2717 
4 2797 2798 2719 2718 
4 2798 2799 2720 2719 
4 2799 2800 2721 2720 
4 2800 2801 2722 2721 
4 2801 2802 2723 2722 
4 2802 2803 2724 2723 
4 2803 2804 2725 2724 
4 2804 2805 2726 2725 
4 2805 2806 2727 2726 
4 2806 2807 2728 2727 
4 2807 2808 2729 2728 
4 2808 2809 2730 2729 
4 2809 2810 2731 2730 
4 2810 2811 2732 2731 
4 2811 2812 2733 2732 
4 2812 2813 2734 2733 
4 2813 2814 2735 2734 
4 2814 2815 2736 2735 
4 2815 2816 2737 2736 
4 2816 2817 2738 2737 
4 2817 2818 2739 2738 
4 2818 2819 2740 2739 
4 2819 2820 2741 2740 
4 2820 2821 2742 2741 
4 2821 2822 2743 2742 
4 2822 2823 2744 2743 
4 2823 2824 2745 2744 
4 2824 2825 2746 2745 
4 2825 2826 2747 2746 
4 2826 2827 2748 2747 
4 2827 2828 2749 2748 
4 2828 2829 2750 2749 
4 2829 2830 2751 2750 
4 2830 2831 2752 2751 
4 2831 2832 2753 2752 
4 2832 2833 2754 2753 
4 2833 2834 2755 2754 
4 2834 2835 2756 2755 
4 2835 2836 2757 2756 
4 2836 2837 2758 2757 
4 2837 2838 2759 2758 
4 2838 2839 2760 2759 
4 2839 2840 2761 2760 
4 2840 2841 2762 2761 
4 2841 2842 2763 2762 
4 2842 2843 2764 2763 
4 2843 2844 2765 2764 
4 2844 2845 2766 2765 
4 2845 2846 2767 2766 
4 2846 2847 2768 2767 
4 2847 2848 2769 2768 
4 2848 2849 2770 2769 
4 2850 2851 2773 2772 
4 2851 2852 2774 2773 
4 2852 2853 2775 2774 
4 2853 2854 2776 2775 
4 2854 2855 2777 2776 
4 2855 2856 2778 2777 
4 2856 2857 2779 2778 
4 2857 2858 2780 2779 
4 2858 2859 2781 2780 
4 2859 2860 2782 2781 
4 2860 2861 2783 2782 
4 2861 2862 2784 2783 
4 2862 2863 2785 2784 
4 2863 2864 2786 2785 
4 2864 2865 2787 2786 
4 2865 2866 2788 2787 
4 2866 2867 2789 2788 
4 2867 2868 2790 2789 
4 2868 2869 2791 2790 
4 2869 2870 2792 2791 
4 2870 2871 2793 2792 
4 2871 2872 2794 2793 
4 2872 2873 2795 2794 
4 2873 2874 2796 2795 
4 2874 2875 2797 2796 
4 2875 2876 2798 2797 
4 2876 2877 2799 2798 
4 2877 2878 2800 2799 
4 2878 2879 2801 2800 
4 2879 2880 2802 2801 
4 2880 2881 2803 2802 
4 2881 2882 2804 2803 
4 2882 2883 2805 2804 
4 2883 2884 2806 2805 
4 2884 2885 2807 2806 
4 2885 2886 2808 2807 
4 2886 2887 2809 2808 
4 2887 2888 2810 2809 
4 2888 2889 2811 2810 
4 2889 2890 2812 2811 
4 2890 2891 2813 2812 
4 2891 2892 2814 2813 
4 2892 2893 2815 2814 
4 2893 2894 2816 2815 
4 2894 2895 2817 2816 
4 2895 2896 2818 2817 
4 2896 2897 2819 2818 
4 2897 2898 2820 2819 
4 2898 2899 2821 2820 
4 2899 2900 2822 2821 
4 2900 2901 2823 2822 
4 2901 2902 2824 2823 
4 2902 2903 2825 2824 
4 2903 2904 2826 2825 
4 2904 2905 2827 2826 
4 2905 2906 2828 2827 
4 2906 2907 2829 2828 
4 2907 2908 2830 2829 
4 2908 2909 2831 2830 
4 2909 2910 2832 2831 
4 2910 2911 2833 2832 
4 2911 2912 2834 2833 
4 2912 2913 2835 2834 
4 2913 2914 2836 2835 
4 2914 2915 2837 2836 
4 2915 2916 2838 2837 
4 2916 2917 2839 2838 
4 2917 2918 2840 2839 
4 2918 2919 2841 2840 
4 2919 2920 2842 2841 
4 2920 2921 2843 2842 
4 2921 2922 2844 2843 
4 2922 2923 2845 2844 
4 2923 2924 2846 2845 
4 2924 2925 2847 2846 
4 2925 2926 2848 2847 
4 2927 2928 2851 2850 
4 2928 2929 2852 2851 
4 2929 2930 2853 2852 
4 2930 2931 2854 2853 
4 2931 2932 2855 2854 
4 2932 2933 2856 2855 
4 2933 2934 2857 2856 
4 2934 2935 2858 2857 
4 2935 2936 2859 2858 
4 2936 2937 2860 2859 
4 2937 2938 2861 2860 
4 2938 2939 2862 2861 
4 2939 2940 2863 2862 
4 2940 2941 2864 2863 
4 2941 2942 2865 2864 
4 2942 2943 2866 2865 
4 2943 2944 2867 2866 
4 2944 2945 2868 2867 
4 2945 2946 2869 2868 
4 2946 2947 2870 2869 
4 2947 2948 2871 2870 
4 2948 2949 2872 2871 
4 2949 2950 2873 2872 
4 2950 2951 2874 2873 
4 2951 2952 2875 2874 
4 2952 2953 2876 2875 
4 2953 2954 2877 2876 
4 2954 2955 2878 2877 
4 2955 2956 2879 2878 
4 2956 2957 2880 2879 
4 2957 2958 2881 2880 
4 2958 2959 2882 2881 
4 2959 2960 2883 2882 
4 2960 2961 2884 2883 
4 2961 2962 2885 2884 
4 2962 2963 2886 2885 
4 2963 2964 2887 2886 
4 2964 2965 2888 2887 
4 2965 2966 2889 2888 
4 2966 2967 2890 2889 
4 2967 2968 2891 2890 
4 2968 2969 2892 2891 
4 2969 2970 2893 2892 
4 2970 2971 2894 2893 
4 2971 2972 2895 2894 
4 2972 2973 2896 2895 
4 2973 2974 2897 2896 
4 2974 2975 2898 2897 
4 2975 2976 2899 2898 
4 2976 2977 2900 2899 
4 2977 2978 2901 2900 
4 2978 2979 2902 2901 
4 2979 2980 2903 2902 
4 2980 2981 2904 2903 
4 2981 2982 2905 2904 
4 2982 2983 2906 2905 
4 2983 2984 2907 2906 
4 2984 2985 2908 2907 
4 2985 2986 2909 2908 
4 2986 2987 2910 2909 
4 2987 2988 2911 2910 
4 2988 2989 2912 2911 
4 2989 2990 2913 2912 
4 2990 2991 2914 2913 
4 2991 2992 2915 2914 
4 2992 2993 2916 2915 
4 2993 2994 2917 2916 
4 2994 2995 2918 2917 
4 2995 2996 2919 2918 
4 2996 2997 2920 2919 
4 2997 2998 2921 2920 
4 2998 2999 2922 2921 
4 2999 3000 2923 2922 
4 3000 3001 2924 2923 
4 3001 3002 2925 2924 
4 3002 3003 2926 2925 
4 3004 3005 2928 2927 
4 3005 3006 2929 2928 
4 3006 3007 2930 2929 
4 3007 3008 2931 2930 
4 3008 3009 2932 2931 
4 3009 3010 2933 2932 
4 3010 3011 2934 2933 
4 3011 3012 2935 2934 
4 3012 3013 2936 2935 
4 3013 3014 2937 2936 
4 3014 3015 2938 2937 
4 3015 3016 2939 2938 
4 3016 3017 2940 2939 
4 3017 3018 2941 2940 
4 3018 3019 2942 2941 
4 3019 3020 2943 2942 
4 3020 3021 2944 2943 
4 3021 3022 2945 2944 
4 3022 3023 2946 2945 
4 3023 3024 2947 2946 
4 3024 3025 2948 2947 
4 3025 3026 2949 2948 
4 3026 3027 2950 2949 
4 3027 3028 2951 2950 
4 3028 3029 2952 2951 
4 3029 3030 2953 2952 
4 3030 3031 2954 2953 
4 3031 3032 2955 2954 
4 3032 3033 2956 2955 
4 3033 3034 2957 2956 
4 3034 3035 2958 2957 
4 3035 3036 2959 2958 
4 3036 3037 2960 2959 
4 3037 3038 2961 2960 
4 3038 3039 2962 2961 
4 3039 3040 2963 2962 
4 3040 3041 2964 2963 
4 3041 3042 2965 2964 
4 3042 3043 2966 2965 
4 3043 3044 2967 2966 
4 3044 3045 2968 2967 
4 3045 3046 2969 2968 
4 3046 3047 2970 2969 
4 3047 3048 2971 2970 
4 3048 3049 2972 2971 
4 3049 3050 2973 2972 
4 3050 3051 2974 2973 
4 3051 3052 2975 2974 
4 3052 3053 2976 2975 
4 3053 3054 2977 2976 
4 3054 3055 2978 2977 
4 3055 3056 2979 2978 
4 3057 3058 2983 2982 
4 3058 3059 2984 2983 
4 3059 3060 2985 2984 
4 3060 3061 2986 2985 
4 3061 3062 2987 2986 
4 3062 3063 2988 2987 
4 3063 3064 2989 2988 
4 3064 3065 2990 2989 
4 3065 3066 2991 2990 
4 3066 3067 2992 2991 
4 3067 3068 2993 2992 
4 3068 3069 2994 2993 
4 3069 3070 2995 2994 
4 3070 3071 2996 2995 
4 3071 3072 2997 2996 
4 3072 3073 2998 2997 
4 3073 3074 2999 2998 
4 3074 3075 3000 2999 
4 3075 3076 3001 3000 
4 3076 3077 3002 3001 
4 3077 3078 3003 3002 
4 3079 3080 3005 3004 
4 3080 3081 3006 3005 
4 3081 3082 3007 3006 
4 3082 3083 3008 3007 
4 3083 3084 3009 3008 
4 3084 3085 3010 3009 
4 3085 3086 3011 3010 
4 3086 3087 3012 3011 
4 3087 3088 3013 3012 
4 3088 3089 3014 3013 
4 3089 3090 3015 3014 
4 3090 3091 3016 3015 
4 3091 3092 3017 3016 
4 3092 3093 3018 3017 
4 3093 3094 3019 3018 
4 3094 3095 3020 3019 
4 3095 3096 3021 3020 
4 3096 3097 3022 3021 
4 3097 3098 3023 3022 
4 3098 3099 3024 3023 
4 3099 3100 3025 3024 
4 3100 3101 3026 3025 
4 3101 3102 3027 3026 
4 3102 3103 3028 3027 
4 3103 3104 3029 3028 
4 3104 3105 3030 3029 
4 3105 3106 3031 3030 
4 3106 3107 3032 3031 
4 3107 3108 3033 3032 
4 3108 3109 3034 3033 
4 3109 3110 3035 3034 
4 3110 3111 3036 3035 
4 3111 3112 3037 3036 
4 3112 3113 3038 3037 
4 3113 3114 3039 3038 
4 3114 3115 3040 3039 
4 3115 3116 3041 3040 
4 3116 3117 3042 3041 
4 3117 3118 3043 3042 
4 3118 3119 3044 3043 
4 3119 3120 3045 3044 
4 3120 3121 3046 3045 
4 3121 3122 3047 3046 
4 3122 3123 3048 3047 
4 3123 3124 3049 3048 
4 3124 3125 3050 3049 
4 3125 3126 3051 3050 
4 3126 3127 3052 3051 
4 3127 3128 3053 3052 
4 3128 3129 3054 3053 
4 3129 3130 3055 3054 
4 3131 3132 3060 3059 
4 3132 3133 3061 3060 
4 3133 3134 3062 3061 
4 3134 3135 3063 3062 
4 3135 3136 3064 3063 
4 3136 3137 3065 3064 
4 3137 3138 3066 3065 
4 3138 3139 3067 3066 
4 3139 3140 3068 3067 
4 3140 3141 3069 3068 
4 3141 3142 3070 3069 
4 3142 3143 3071 3070 
4 3143 3144 3072 3071 
4 3144 3145 3073 3072 
4 3145 3146 3074 3073 
4 3146 3147 3075 3074 
4 3147 3148 3076 3075 
4 3148 3149 3077 3076 
4 3149 3150 3078 3077 
4 3151 3152 3080 3079 
4 3152 3153 3081 3080 
4 3153 3154 3082 3081 
4 3154 3155 3083 3082 
4 3155 3156 3084 3083 
4 3156 3157 3085 3084 
4 3157 3158 3086 3085 
4 3158 3159 3087 3086 
4 3159 3160 3088 3087 
4 3160 3161 3089 3088 
4 3161 3162 3090 3089 
4 3162 3163 3091 3090 
4 3163 3164 3092 3091 
4 3164 3165 3093 3092 
4 3165 3166 3094 3093 
4 3166 3167 3095 3094 
4 3167 3168 3096 3095 
4 3168 3169 3097 3096 
4 3169 3170 3098 3097 
4 3170 3171 3099 3098 
4 3171 3172 3100 3099 
4 3172 3173 3101 3100 
4 3173 3174 3102 3101 
4 3174 3175 3103 3102 
4 3175 3176 3104 3103 
4 3176 3177 3105 3104 
4 3177 3178 3106 3105 
4 3178 3179 3107 3106 
4 3179 3180 3108 3107 
4 3180 3181 3109 3108 
4 3181 3182 3110 3109 
4 3182 3183 3111 3110 
4 3183 3184 3112 3111 
4 3184 3185 3113 3112 
4 3185 3186 3114 3113 
4 3186 3187 3115 3114 
4 3187 3188 3116 3115 
4 3188 3189 3117 3116 
4 3189 3190 3118 3117 
4 3190 3191 3119 3118 
4 3191 3192 3120 3119 
4 3192 3193 3121 3120 
4 3193 3194 3122 3121 
4 3194 3195 3123 3122 
4 3195 3196 3124 3123 
4 3196 3197 3125 3124 
4 3197 3198 3126 3125 
4 3198 3199 3127 3126 
4 3199 3200 3128 3127 
4 3200 3201 3129 3128 
4 3202 3203 3133 3132 
4 3203 3204 3134 3133 
4 3204 3205 3135 3134 
4 3205 3206 3136 3135 
4 3206 3207 3137 3136 
4 3207 3208 3138 3137 
4 3208 3209 3139 3138 
4 3209 3210 3140 3139 
4 3210 3211 3141 3140 
4 3211 3212 3142 3141 
4 3212 3213 3143 3142 
4 3213 3214 3144 3143 
4 3214 3215 3145 3144 
4 3215 3216 3146 3145 
4 3216 3217 3147 3146 
4 3217 3218 3148 3147 
4 3218 3219 3149 3148 
4 3220 3221 3153 3152 
4 3221 3222 3154 3153 
4 3222 3223 3155 3154 
4 3223 3224 3156 3155 
4 3224 3225 3157 3156 
4 3225 3226 3158 3157 
4 3226 3227 3159 3158 
4 3227 3228 3160 3159 
4 3228 3229 3161 3160 
4 3229 3230 3162 3161 
4 3230 3231 3163 3162 
4 3231 3232 3164 3163 
4 3232 3233 3165 3164 
4 3233 3234 3166 3165 
4 3234 3235 3167 3166 
4 3235 3236 3168 3167 
4 3236 3237 3169 3168 
4 3237 3238 3170 3169 
4 3238 3239 3171 3170 
4 3239 3240 3172 3171 
4 3240 3241 3173 3172 
4 3241 3242 3174 3173 
4 3242 3243 3175 3174 
4 3243 3244 3176 3175 
4 3244 3245 3177 3176 
4 3245 3246 3178 3177 
4 3246 3247 3179 3178 
4 3247 3248 3180 3179 
4 3248 3249 3181 3180 
4 3249 3250 3182 3181 
4 3250 3251 3183 3182 
4 3251 3252 3184 3183 
4 3252 3253 3185 3184 
4 3253 3254 3186 3185 
4 3254 3255 3187 3186 
4 3255 3256 3188 3187 
4 3256 3257 3189 3188 
4 3257 3258 3190 3189 
4 3258 3259 3191 3190 
4 3259 3260 3192 3191 
4 3260 3261 3193 3192 
4 3261 3262 3194 3193 
4 3262 3263 3195 3194 
4 3263 3264 3196 3195 
4 3264 3265 3197 3196 
4 3265 3266 3198 3197 
4 3266 3267 3199 3198 
4 3267 3268 3200 3199 
4 3269 3270 3205 3204 
4 3270 3271 3206 3205 
4 3271 3272 3207 3206 
4 3272 3273 3208 3207 
4 3273 3274 3209 3208 
4 3274 3275 3210 3209 
4 3275 3276 3211 3210 
4 3276 3277 3212 3211 
4 3277 3278 3213 3212 
4 3278 3279 3214 3213 
4 3279 3280 3215 3214 
4 3280 3281 3216 3215 
4 3281 3282 3217 3216 
4 3282 3283 3218 3217 
4 3283 3284 3219 3218 
4 3285 3286 3221 3220 
4 3286 3287 3222 3221 
4 3287 3288 3223 3222 
4 3288 3289 3224 3223 
4 3289 3290 3225 3224 
4 3290 3291 3226 3225 
4 3291 3292 3227 3226 
4 3292 3293 3228 3227 
4 3293 3294 3229 3228 
4 3294 3295 3230 3229 
4 3295 3296 3231 3230 
4 3296 3297 3232 3231 
4 3297 3298 3233 3232 
4 3298 3299 3234 3233 
4 3299 3300 3235 3234 
4 3300 3301 3236 3235 
4 3301 3302 3237 3236 
4 3302 3303 3238 3237 
4 3303 3304 3239 3238 
4 3304 3305 3240 3239 
4 3305 3306 3241 3240 
4 3306 3307 3242 3241 
4 3307 3308 3243 3242 
4 3308 3309 3244 3243 
4 3309 3310 3245 3244 
4 3310 3311 3246 3245 
4 3311 3312 3247 3246 
4 3312 3313 3248 3247 
4 3313 3314 3249 3248 
4 3314 3315 3250 3249 
4 3315 3316 3251 3250 
4 3316 3317 3252 3251 
4 3317 3318 3253 3252 
4 3318 3319 3254 3253 
4 3319 3320 3255 3254 
4 3320 3321 3256 3255 
4 3321 3322 3257 3256 
4 3322 3323 3258 3257 
4 3323 3324 3259 3258 
4 3324 3325 3260 3259 
4 3325 3326 3261 3260 
4 3326 3327 3262 3261 
4 3327 3328 3263 3262 
4 3328 3329 3264 3263 
4 3329 3330 3265 3264 
4 3330 3331 3266 3265 
4 3331 3332 3267 3266 
4 3333 3334 3272 3271 
4 3334 3335 3273 3272 
4 3335 3336 3274 3273 
4 3336 3337 3275 3274 
4 3337 3338 3276 3275 
4 3338 3339 3277 3276 
4 3339 3340 3278 3277 
4 3340 3341 3279 3278 
4 3341 3342 3280 3279 
4 3342 3343 3281 3280 
4 3343 3344 3282 3281 
4 3344 3345 3283 3282 
4 3345 3346 3284 3283 
4 3347 3348 3286 3285 
4 3348 3349 3287 3286 
4 3349 3350 3288 3287 
4 3350 3351 3289 3288 
4 3351 3352 3290 3289 
4 3352 3353 3291 3290 
4 3353 3354 3292 3291 
4 3354 3355 3293 3292 
4 3355 3356 3294 3293 
4 3356 3357 3295 3294 
4 3357 3358 3296 3295 
4 3358 3359 3297 3296 
4 3359 3360 3298 3297 
4 3360 3361 3299 3298 
4 3361 3362 3300 3299 
4 3362 3363 3301 3300 
4 3363 3364 3302 3301 
4 3364 3365 3303 3302 
4 3365 3366 3304 3303 
4 3366 3367 3305 3304 
4 3367 3368 3306 3305 
4 3368 3369 3307 3306 
4 3369 3370 3308 3307 
4 3370 3371 3309 3308 
4 3371 3372 3310 3309 
4 3372 3373 3311 3310 
4 3373 3374 3312 3311 
4 3374 3375 3313 3312 
4 3375 3376 3314 3313 
4 3376 3377 3315 3314 
4 3377 3378 3316 3315 
4 3378 3379 3317 3316 
4 3379 3380 3318 3317 
4 3380 3381 3319 3318 
4 3381 3382 3320 3319 
4 3382 3383 3321 3320 
4 3383 3384 3322 3321 
4 3384 3385 3323 3322 
4 3385 3386 3324 3323 
4 3386 3387 3325 3324 
4 3387 3388 3326 3325 
4 3388 3389 3327 3326 
4 3389 3390 3328 3327 
4 3390 3391 3329 3328 
4 3391 3392 3330 3329 
4 3392 3393 3331 3330 
4 3394 3395 3335 3334 
4 3395 3396 3336 3335 
4 3396 3397 3337 3336 
4 3397 3398 3338 3337 
4 3398 3399 3339 3338 
4 3399 3400 3340 3339 
4 3400 3401 3341 3340 
4 3401 3402 3342 3341 
4 3402 3403 3343 3342 
4 3403 3404 3344 3343 
4 3404 3405 3345 3344 
4 3405 3406 3346 3345 
4 3406 3407 3408 3346 
4 3409 3410 3348 3347 
4 3410 3411 3349 3348 
4 3411 3412 3350 3349 
4 3412 3413 3351 3350 
4 3413 3414 3352 3351 
4 3414 3415 3353 3352 
4 3415 3416 3354 3353 
4 3416 3417 3355 3354 
4 3417 3418 3356 3355 
4 3418 3419 3357 3356 
4 3419 3420 3358 3357 
4 3420 3421 3359 3358 
4 3421 3422 3360 3359 
4 3422 3423 3361 3360 
4 3423 3424 3362 3361 
4 3424 3425 3363 3362 
4 3425 3426 3364 3363 
4 3426 3427 3365 3364 
4 3427 3428 3366 3365 
4 3428 3429 3367 3366 
4 3429 3430 3368 3367 
4 3430 3431 3369 3368 
4 3431 3432 3370 3369 
4 3432 3433 3371 3370 
4 3433 3434 3372 3371 
4 3434 3435 3373 3372 
4 3435 3436 3374 3373 
4 3436 3437 3375 3374 
4 3437 3438 3376 3375 
4 3438 3439 3377 3376 
4 3439 3440 3378 3377 
4 3440 3441 3379 3378 
4 3441 3442 3380 3379 
4 3442 3443 3381 3380 
4 3443 3444 3382 3381 
4 3444 3445 3383 3382 
4 3445 3446 3384 3383 
4 3446 3447 3385 3384 
4 3447 3448 3386 3385 
4 3448 3449 3387 3386 
4 3449 3450 3388 3387 
4 3450 3451 3389 3388 
4 3451 3452 3390 3389 
4 3452 3453 3391 3390 
4 3453 3454 3392 3391 
4 3454 3455 3393 3392 
4 3456 3457 3395 3394 
4 3457 3458 3396 3395 
4 3458 3459 3397 3396 
4 3459 3460 3398 3397 
4 3460 3461 3399 3398 
4 3461 3462 3400 3399 
4 3462 3463 3401 3400 
4 3463 3464 3402 3401 
4 3464 3465 3403 3402 
4 3465 3466 3404 3403 
4 3466 3467 3405 3404 
4 3467 3468 3406 3405 
4 3468 3469 3407 3406 
4 3471 3472 3473 3470 
4 3472 3474 3409 3473 
4 3474 3475 3410 3409 
4 3475 3476 3411 3410 
4 3476 3477 3412 3411 
4 3477 3478 3413 3412 
4 3478 3479 3414 3413 
4 3479 3480 3415 3414 
4 3480 3481 3416 3415 
4 3481 3482 3417 3416 
4 3482 3483 3418 3417 
4 3483 3484 3419 3418 
4 3484 3485 3420 3419 
4 3485 3486 3421 3420 
4 3486 3487 3422 3421 
4 3487 3488 3423 3422 
4 3488 3489 3424 3423 
4 3489 3490 3425 3424 
4 3490 3491 3426 3425 
4 3491 3492 3427 3426 
4 3492 3493 3428 3427 
4 3493 3494 3429 3428 
4 3494 3495 3430 3429 
4 3495 3496 3431 3430 
4 3496 3497 3432 3431 
4 3497 3498 3433 3432 
4 3498 3499 3434 3433 
4 3499 3500 3435 3434 
4 3500 3501 3436 3435 
4 3501 3502 3437 3436 
4 3502 3503 3438 3437 
4 3503 3504 3439 3438 
4 3504 3505 3440 3439 
4 3505 3506 3441 3440 
4 3506 3507 3442 3441 
4 3507 3508 3443 3442 
4 3508 3509 3444 3443 
4 3509 3510 3445 3444 
4 3510 3511 3446 3445 
4 3511 3512 3447 3446 
4 3512 3513 3448 3447 
4 3513 3514 3449 3448 
4 3514 3515 3450 3449 
4 3515 3516 3451 3450 
4 3516 3517 3452 3451 
4 3517 3518 3453 3452 
4 3518 3519 3454 3453 
4 3520 3521 3457 3456 
4 3521 3522 3458 3457 
4 3522 3523 3459 3458 
4 3523 3524 3460 3459 
4 3524 3525 3461 3460 
4 3525 3526 3462 3461 
4 3526 3527 3463 3462 
4 3527 3528 3464 3463 
4 3528 3529 3465 3464 
4 3529 3530 3466 3465 
4 3530 3531 3467 3466 
4 3531 3532 3468 3467 
4 3532 3533 3469 3468 
4 3535 3536 3471 3534 
4 3536 3537 3472 3471 
4 3537 3538 3474 3472 
4 3538 3539 3475 3474 
4 3539 3540 3476 3475 
4 3540 3541 3477 3476 
4 3541 3542 3478 3477 
4 3542 3543 3479 3478 
4 3543 3544 3480 3479 
4 3544 3545 3481 3480 
4 3545 3546 3482 3481 
4 3546 3547 3483 3482 
4 3547 3548 3484 3483 
4 3548 3549 3485 3484 
4 3549 3550 3486 3485 
4 3550 3551 3487 3486 
4 3551 3552 3488 3487 
4 3552 3553 3489 3488 
4 3553 3554 3490 3489 
4 3554 3555 3491 3490 
4 3555 3556 3492 3491 
4 3556 3557 3493 3492 
4 3557 3558 3494 3493 
4 3558 3559 3495 3494 
4 3559 3560 3496 3495 
4 3560 3561 3497 3496 
4 3561 3562 3498 3497 
4 3562 3563 3499 3498 
4 3563 3564 3500 3499 
4 3564 3565 3501 3500 
4 3565 3566 3502 3501 
4 3566 3567 3503 3502 
4 3567 3568 3504 3503 
4 3568 3569 3505 3504 
4 3569 3570 3506 3505 
4 3570 3571 3507 3506 
4 3571 3572 3508 3507 
4 3572 3573 3509 3508 
4 3573 3574 3510 3509 
4 3574 3575 3511 3510 
4 3575 3576 3512 3511 
4 3576 3577 3513 3512 
4 3577 3578 3514 3513 
4 3578 3579 3515 3514 
4 3579 3580 3516 3515 
4 3580 3581 3517 3516 
4 3581 3582 3518 3517 
4 3582 3583 3519 3518 
4 3584 3585 3521 3520 
4 3585 3586 3522 3521 
4 3586 3587 3523 3522 
4 3587 3588 3524 3523 
4 3588 3589 3525 3524 
4 3589 3590 3526 3525 
4 3590 3591 3527 3526 
4 3591 3592 3528 3527 
4 3592 3593 3529 3528 
4 3593 3594 3530 3529 
4 3594 3595 3531 3530 
4 3595 3596 3532 3531 
4 3596 3597 3533 3532 
4 3598 3599 3536 3535 
4 3599 3600 3537 3536 
4 3600 3601 3538 3537 
4 3601 3602 3539 3538 
4 3602 3603 3540 3539 
4 3603 3604 3541 3540 
4 3604 3605 3542 3541 
4 3605 3606 3543 3542 
4 3606 3607 3544 3543 
4 3607 3608 3545 3544 
4 3608 3609 3546 3545 
4 3609 3610 3547 3546 
4 3610 3611 3548 3547 
4 3611 3612 3549 3548 
4 3612 3613 3550 3549 
4 3613 3614 3551 3550 
4 3614 3615 3552 3551 
4 3615 3616 3553 3552 
4 3616 3617 3554 3553 
4 3617 3618 3555 3554 
4 3618 3619 3556 3555 
4 3619 3620 3557 3556 
4 3620 3621 3558 3557 
4 3621 3622 3559 3558 
4 3622 3623 3560 3559 
4 3623 3624 3561 3560 
4 3624 3625 3562 3561 
4 3625 3626 3563 3562 
4 3626 3627 3564 3563 
4 3627 3628 3565 3564 
4 3628 3629 3566 3565 
4 3629 3630 3567 3566 
4 3630 3631 3568 3567 
4 3631 3632 3569 3568 
4 3632 3633 3570 3569 
4 3633 3634 3571 3570 
4 3634 3635 3572 3571 
4 3635 3636 3573 3572 
4 3636 3637 3574 3573 
4 3637 3638 3575 3574 
4 3638 3639 3576 3575 
4 3639 3640 3577 3576 
4 3640 3641 3578 3577 
4 3641 3642 3579 3578 
4 3642 3643 3580 3579 
4 3643 3644 3581 3580 
4 3644 3645 3582 3581 
4 3645 3646 3583 3582 
4 3648 3649 3584 3647 
4 3649 3650 3585 3584 
4 3650 3651 3586 3585 
4 3651 3652 3587 3586 
4 3652 3653 3588 3587 
4 3653 3654 3589 3588 
4 3654 3655 3590 3589 
4 3655 3656 3591 3590 
4 3656 3657 3592 3591 
4 3657 3658 3593 3592 
4 3658 3659 3594 3593 
4 3659 3660 3595 3594 
4 3660 3661 3596 3595 
4 3662 3663 3599 3598 
4 3663 3664 3600 3599 
4 3664 3665 3601 3600 
4 3665 3666 3602 3601 
4 3666 3667 3603 3602 
4 3667 3668 3604 3603 
4 3668 3669 3605 3604 
4 3669 3670 3606 3605 
4 3670 3671 3607 3606 
4 3671 3672 3608 3607 
4 3672 3673 3609 3608 
4 3673 3674 3610 3609 
4 3674 3675 3611 3610 
4 3675 3676 3612 3611 
4 3676 3677 3613 3612 
4 3677 3678 3614 3613 
4 3678 3679 3615 3614 
4 3679 3680 3616 3615 
4 3680 3681 3617 3616 
4 3681 3682 3618 3617 
4 3682 3683 3619 3618 
4 3683 3684 3620 3619 
4 3684 3685 3621 3620 
4 3685 3686 3622 3621 
4 3686 3687 3623 3622 
4 3687 3688 3624 3623 
4 3688 3689 3625 3624 
4 3689 3690 3626 3625 
4 3690 3691 3627 3626 
4 3691 3692 3628 3627 
4 3692 3693 3629 3628 
4 3693 3694 3630 3629 
4 3694 3695 3631 3630 
4 3695 3696 3632 3631 
4 3696 3697 3633 3632 
4 3697 3698 3634 3633 
4 3698 3699 3635 3634 
4 3699 3700 3636 3635 
4 3700 3701 3637 3636 
4 3701 3702 3638 3637 
4 3702 3703 3639 3638 
4 3703 3704 3640 3639 
4 3704 3705 3641 3640 
4 3705 3706 3642 3641 
4 3706 3707 3643 3642 
4 3707 3708 3644 3643 
4 3708 3709 3645 3644 
4 3709 3710 3646 3645 
4 3712 3713 3648 3711 
4 3713 3714 3649 3648 
4 3714 3715 3650 3649 
4 3715 3716 3651 3650 
4 3716 3717 3652 3651 
4 3717 3718 3653 3652 
4 3718 3719 3654 3653 
4 3719 3720 3655 3654 
4 3720 3721 3656 3655 
4 3721 3722 3657 3656 
4 3722 3723 3658 3657 
4 3723 3724 3659 3658 
4 3724 3725 3660 3659 
4 3725 3726 3661 3660 
4 3727 3728 3663 3662 
4 3728 3729 3664 3663 
4 3729 3730 3665 3664 
4 3730 3731 3666 3665 
4 3731 3732 3667 3666 
4 3732 3733 3668 3667 
4 3733 3734 3669 3668 
4 3734 3735 3670 3669 
4 3735 3736 3671 3670 
4 3736 3737 3672 3671 
4 3737 3738 3673 3672 
4 3738 3739 3674 3673 
4 3739 3740 3675 3674 
4 3740 3741 3676 3675 
4 3741 3742 3677 3676 
4 3742 3743 3678 3677 
4 3743 3744 3679 3678 
4 3744 3745 3680 3679 
4 3745 3746 3681 3680 
4 3746 3747 3682 3681 
4 3747 3748 3683 3682 
4 3748 3749 3684 3683 
4 3749 3750 3685 3684 
4 3750 3751 3686 3685 
4 3751 3752 3687 3686 
4 3752 3753 3688 3687 
4 3753 3754 3689 3688 
4 3754 3755 3690 3689 
4 3755 3756 3691 3690 
4 3756 3757 3692 3691 
4 3757 3758 3693 3692 
4 3758 3759 3694 3693 
4 3759 3760 3695 3694 
4 3760 3761 3696 3695 
4 3761 3762 3697 3696 
4 3762 3763 3698 3697 
4 3763 3764 3699 3698 
4 3764 3765 3700 3699 
4 3765 3766 3701 3700 
4 3766 3767 3702 3701 
4 3767 3768 3703 3702 
4 3768 3769 3704 3703 
4 3769 3770 3705 3704 
4 3770 3771 3706 3705 
4 3771 3772 3707 3706 
4 3772 3773 3708 3707 
4 3773 3774 3709 3708 
4 3774 3775 3710 3709 
4 3777 3778 3712 3776 
4 3778 3779 3713 3712 
4 3779 3780 3714 3713 
4 3780 3781 3715 3714 
4 3781 3782 3716 3715 
4 3782 3783 3717 3716 
4 3783 3784 3718 3717 
4 3784 3785 3719 3718 
4 3785 3786 3720 3719 
4 3786 3787 3721 3720 
4 3787 3788 3722 3721 
4 3788 3789 3723 3722 
4 3789 3790 3724 3723 
4 3790 3791 3725 3724 
4 3791 3792 3726 3725 
4 3793 3794 3728 3727 
4 3794 3795 3729 3728 
4 3795 3796 3730 3729 
4 3796 3797 3731 3730 
4 3797 3798 3732 3731 
4 3798 3799 3733 3732 
4 3799 3800 3734 3733 
4 3800 3801 3735 3734 
4 3801 3802 3736 3735 
4 3802 3803 3737 3736 
4 3803 3804 3738 3737 
4 3804 3805 3739 3738 
4 3805 3806 3740 3739 
4 3806 3807 3741 3740 
4 3807 3808 3742 3741 
4 3808 3809 3743 3742 
4 3809 3810 3744 3743 
4 3810 3811 3745 3744 
4 3811 3812 3746 3745 
4 3812 3813 3747 3746 
4 3813 3814 3748 3747 
4 3814 3815 3749 3748 
4 3815 3816 3750 3749 
4 3816 3817 3751 3750 
4 3817 3818 3752 3751 
4 3818 3819 3753 3752 
4 3819 3820 3754 3753 
4 3820 3821 3755 3754 
4 3821 3822 3756 3755 
4 3822 3823 3757 3756 
4 3823 3824 3758 3757 
4 3824 3825 3759 3758 
4 3825 3826 3760 3759 
4 3826 3827 3761 3760 
4 3827 3828 3762 3761 
4 3828 3829 3763 3762 
4 3829 3830 3764 3763 
4 3830 3831 3765 3764 
4 3831 3832 3766 3765 
4 3833 3834 3770 3769 
4 3834 3835 3771 3770 
4 3835 3836 3772 3771 
4 3836 3837 3773 3772 
4 3837 3838 3774 3773 
4 3838 3839 3775 3774 
4 3840 3841 3778 3777 
4 3841 3842 3779 3778 
4 3842 3843 3780 3779 
4 3843 3844 3781 3780 
4 3844 3845 3782 3781 
4 3845 3846 3783 3782 
4 3846 3847 3784 3783 
4 3847 3848 3785 3784 
4 3848 3849 3786 3785 
4 3849 3850 3787 3786 
4 3850 3851 3788 3787 
4 3851 3852 3789 3788 
4 3852 3853 3790 3789 
4 3853 3854 3791 3790 
4 3854 3855 3792 3791 
4 3856 3857 3794 3793 
4 3857 3858 3795 3794 
4 3858 3859 3796 3795 
4 3859 3860 3797 3796 
4 3860 3861 3798 3797 
4 3861 3862 3799 3798 
4 3862 3863 3800 3799 
4 3863 3864 3801 3800 
4 3864 3865 3802 3801 
4 3865 3866 3803 3802 
4 3866 3867 3804 3803 
4 3867 3868 3805 3804 
4 3868 3869 3806 3805 
4 3869 3870 3807 3806 
4 3870 3871 3808 3807 
4 3871 3872 3809 3808 
4 3872 3873 3810 3809 
4 3873 3874 3811 3810 
4 3874 3875 3812 3811 
4 3875 3876 3813 3812 
4 3876 3877 3814 3813 
4 3877 3878 3815 3814 
4 3878 3879 3816 3815 
4 3879 3880 3817 3816 
4 3880 3881 3818 3817 
4 3881 3882 3819 3818 
4 3882 3883 3820 3819 
4 3883 3884 3821 3820 
4 3884 3885 3822 3821 
4 3885 3886 3823 3822 
4 3886 3887 3824 3823 
4 3887 3888 3825 3824 
4 3889 3890 3834 3833 
4 3890 3891 3835 3834 
4 3891 3892 3836 3835 
4 3892 3893 3837 3836 
4 3893 3894 3838 3837 
4 3895 3896 3841 3840 
4 3896 3897 3842 3841 
4 3897 3898 3843 3842 
4 3898 3899 3844 3843 
4 3899 3900 3845 3844 
4 3900 3901 3846 3845 
4 3901 3902 3847 3846 
4 3902 3903 3848 3847 
4 3903 3904 3849 3848 
4 3904 3905 3850 3849 
4 3905 3906 3851 3850 
4 3906 3907 3852 3851 
4 3907 3908 3853 3852 
4 3908 3909 3854 3853 
4 3909 3910 3855 3854 
4 3911 3912 3858 3857 
4 3912 3913 3859 3858 
4 3913 3914 3860 3859 
4 3914 3915 3861 3860 
4 3915 3916 3862 3861 
4 3916 3917 3863 3862 
4 3917 3918 3864 3863 
4 3918 3919 3865 3864 
4 3919 3920 3866 3865 
4 3920 3921 3867 3866 
4 3921 3922 3868 3867 
4 3922 3923 3869 3868 
4 3923 3924 3870 3869 
4 3924 3925 3871 3870 
4 3925 3926 3872 3871 
4 3926 3927 3873 3872 
4 3927 3928 3874 3873 
4 3928 3929 3875 3874 
4 3929 3930 3876 3875 
4 3930 3931 3877 3876 
4 3931 3932 3878 3877 
4 3932 3933 3879 3878 
4 3933 3934 3880 3879 
4 3934 3935 3881 3880 
4 3935 3936 3882 3881 
4 3936 3937 3883 3882 
4 3937 3938 3884 3883 
4 3938 3939 3885 3884 
4 3939 3940 3886 3885 
4 3942 3943 3889 3941 
4 3943 3944 3890 3889 
4 3944 3945 3891 3890 
4 3945 3946 3892 3891 
4 3946 3947 3893 3892 
4 3947 3948 3894 3893 
4 3950 3951 3895 3949 
4 3951 3952 3896 3895 
4 3952 3953 3897 3896 
4 3953 3954 3898 3897 
4 3954 3955 3899 3898 
4 3955 3956 3900 3899 
4 3956 3957 3901 3900 
4 3957 3958 3902 3901 
4 3958 3959 3903 3902 
4 3959 3960 3904 3903 
4 3960 3961 3905 3904 
4 3961 3962 3906 3905 
4 3962 3963 3907 3906 
4 3963 3964 3908 3907 
4 3964 3965 3909 3908 
4 3965 3966 3910 3909 
4 3967 3968 3912 3911 
4 3968 3969 3913 3912 
4 3969 3970 3914 3913 
4 3970 3971 3915 3914 
4 3971 3972 3916 3915 
4 3972 3973 3917 3916 
4 3973 3974 3918 3917 
4 3974 3975 3919 3918 
4 3975 3976 3920 3919 
4 3976 3977 3921 3920 
4 3977 3978 3922 3921 
4 3978 3979 3923 3922 
4 3979 3980 3924 3923 
4 3980 3981 3925 3924 
4 3981 3982 3926 3925 
4 3982 3983 3927 3926 
4 3983 3984 3928 3927 
4 3984 3985 3929 3928 
4 3985 3986 3930 3929 
4 3986 3987 3931 3930 
4 3987 3988 3932 3931 
4 3988 3989 3933 3932 
4 3989 3990 3934 3933 
4 3990 3991 3935 3934 
4 3991 3992 3936 3935 
4 3992 3993 3937 3936 
4 3993 3994 3938 3937 
4 3995 3996 3943 3942 
4 3996 3997 3944 3943 
4 3997 3998 3945 3944 
4 3998 3999 3946 3945 
4 3999 4000 3947 3946 
4 4002 4003 3950 4001 
4 4003 4004 3951 3950 
4 4004 4005 3952 3951 
4 4005 4006 3953 3952 
4 4006 4007 3954 3953 
4 4007 4008 3955 3954 
4 4008 4009 3956 3955 
4 4009 4010 3957 3956 
4 4010 4011 3958 3957 
4 4011 4012 3959 3958 
4 4012 4013 3960 3959 
4 4013 4014 3961 3960 
4 4014 4015 3962 3961 
4 4015 4016 3963 3962 
4 4016 4017 3964 3963 
4 4017 4018 3965 3964 
4 4019 4020 3969 3968 
4 4020 4021 3970 3969 
4 4021 4022 3971 3970 
4 4022 4023 3972 3971 
4 4023 4024 3973 3972 
4 4024 4025 3974 3973 
4 4025 4026 3975 3974 
4 4026 4027 3976 3975 
4 4027 4028 3977 3976 
4 4028 4029 3978 3977 
4 4029 4030 3979 3978 
4 4030 4031 3980 3979 
4 4031 4032 3981 3980 
4 4032 4033 3982 3981 
4 4033 4034 3983 3982 
4 4034 4035 3984 3983 
4 4035 4036 3985 3984 
4 4036 4037 3986 3985 
4 4037 4038 3987 3986 
4 4038 4039 3988 3987 
4 4039 4040 3989 3988 
4 4040 4041 3990 3989 
4 4041 4042 3991 3990 
4 4042 4043 3992 3991 
4 4043 4044 3993 3992 
4 4045 4046 3997 3996 
4 4046 4047 3998 3997 
4 4049 4050 4002 4048 
4 4050 4051 4003 4002 
4 4051 4052 4004 4003 
4 4052 4053 4005 4004 
4 4053 4054 4006 4005 
4 4054 4055 4007 4006 
4 4055 4056 4008 4007 
4 4056 4057 4009 4008 
4 4057 4058 4010 4009 
4 4058 4059 4011 4010 
4 4059 4060 4012 4011 
4 4060 4061 4013 4012 
4 4061 4062 4014 4013 
4 4062 4063 4015 4014 
4 4063 4064 4016 4015 
4 4064 4065 4017 4016 
4 4066 4067 4021 4020 
4 4067 4068 4022 4021 
4 4068 4069 4023 4022 
4 4069 4070 4024 4023 
4 4070 4071 4025 4024 
4 4071 4072 4026 4025 
4 4072 4073 4027 4026 
4 4073 4074 4028 4027 
4 4074 4075 4029 4028 
4 4075 4076 4030 4029 
4 4076 4077 4031 4030 
4 4077 4078 4032 4031 
4 4078 4079 4033 4032 
4 4079 4080 4034 4033 
4 4080 4081 4035 4034 
4 4081 4082 4036 4035 
4 4082 4083 4037 4036 
4 4083 4084 4038 4037 
4 4084 4085 4039 4038 
4 4085 4086 4040 4039 
4 4086 4087 4041 4040 
4 4087 4088 4042 4041 
4 4088 4089 4043 4042 
4 4089 4090 4044 4043 
4 4092 4093 4049 4091 
4 4093 4094 4050 4049 
4 4094 4095 4051 4050 
4 4095 4096 4052 4051 
4 4096 4097 4053 4052 
4 4097 4098 4054 4053 
4 4098 4099 4055 4054 
4 4099 4100 4056 4055 
4 4100 4101 4057 4056 
4 4101 4102 4058 4057 
4 4102 4103 4059 4058 
4 4103 4104 4060 4059 
4 4104 4105 4061 4060 
4 4105 4106 4062 4061 
4 4106 4107 4063 4062 
4 4107 4108 4064 4063 
4 4108 4109 4065 4064 
4 4110 4111 4067 4066 
4 4111 4112 4068 4067 
4 4112 4113 4069 4068 
4 4113 4114 4070 4069 
4 4114 4115 4071 4070 
4 4115 4116 4072 4071 
4 4116 4117 4073 4072 
4 4117 4118 4074 4073 
4 4118 4119 4075 4074 
4 4119 4120 4076 4075 
4 4120 4121 4077 4076 
4 4121 4122 4078 4077 
4 4122 4123 4079 4078 
4 4123 4124 4080 4079 
4 4124 4125 4081 4080 
4 4125 4126 4082 4081 
4 4126 4127 4083 4082 
4 4127 4128 4084 4083 
4 4128 4129 4085 4084 
4 4129 4130 4086 4085 
4 4130 4131 4087 4086 
4 4131 4132 4088 4087 
4 4132 4133 4089 4088 
4 4135 4136 4092 4134 
4 4136 4137 4093 4092 
4 4137 4138 4094 4093 
4 4138 4139 4095 4094 
4 4139 4140 4096 4095 
4 4140 4141 4097 4096 
4 4141 4142 4098 4097 
4 4142 4143 4099 4098 
4 4143 4144 4100 4099 
4 4144 4145 4101 4100 
4 4145 4146 4102 4101 
4 4146 4147 4103 4102 
4 4147 4148 4104 4103 
4 4148 4149 4105 4104 
4 4149 4150 4106 4105 
4 4150 4151 4107 4106 
4 4151 4152 4108 4107 
4 4152 4153 4109 4108 
4 4154 4155 4113 4112 
4 4155 4156 4114 4113 
4 4156 4157 4115 4114 
4 4157 4158 4116 4115 
4 4158 4159 4117 4116 
4 4159 4160 4118 4117 
4 4160 4161 4119 4118 
4 4161 4162 4120 4119 
4 4162 4163 4121 4120 
4 4163 4164 4122 4121 
4 4164 4165 4123 4122 
4 4165 4166 4124 4123 
4 4166 4167 4125 4124 
4 4167 4168 4126 4125 
4 4168 4169 4127 4126 
4 4169 4170 4128 4127 
4 4170 4171 4129 4128 
4 4171 4172 4130 4129 
4 4172 4173 4131 4130 
4 4173 4174 4132 4131 
4 4174 4175 4133 4132 
4 4177 4178 4179 4176 
4 4178 4180 4135 4179 
4 4180 4181 4136 4135 
4 4181 4182 4137 4136 
4 4182 4183 4138 4137 
4 4183 4184 4139 4138 
4 4184 4185 4140 4139 
4 4185 4186 4141 4140 
4 4186 4187 4142 4141 
4 4187 4188 4143 4142 
4 4188 4189 4144 4143 
4 4189 4190 4145 4144 
4 4190 4191 4146 4145 
4 4191 4192 4147 4146 
4 4192 4193 4148 4147 
4 4193 4194 4149 4148 
4 4194 4195 4150 4149 
4 4195 4196 4151 4150 
4 4196 4197 4152 4151 
4 4198 4199 4155 4154 
4 4199 4200 4156 4155 
4 4200 4201 4157 4156 
4 4201 4202 4158 4157 
4 4202 4203 4159 4158 
4 4203 4204 4160 4159 
4 4204 4205 4161 4160 
4 4205 4206 4162 4161 
4 4206 4207 4163 4162 
4 4207 4208 4164 4163 
4 4208 4209 4165 4164 
4 4209 4210 4166 4165 
4 4210 4211 4167 4166 
4 4211 4212 4168 4167 
4 4212 4213 4169 4168 
4 4213 4214 4170 4169 
4 4214 4215 4171 4170 
4 4215 4216 4172 4171 
4 4216 4217 4173 4172 
4 4217 4218 4174 4173 
4 4218 4219 4175 4174 
4 4221 4222 4177 4220 
4 4222 4223 4178 4177 
4 4223 4224 4180 4178 
4 4224 4225 4181 4180 
4 4225 4226 4182 4181 
4 4226 4227 4183 4182 
4 4227 4228 4184 4183 
4 4228 4229 4185 4184 
4 4229 4230 4186 4185 
4 4230 4231 4187 4186 
4 4231 4232 4188 4187 
4 4232 4233 4189 4188 
4 4233 4234 4190 4189 
4 4234 4235 4191 4190 
4 4235 4236 4192 4191 
4 4236 4237 4193 4192 
4 4237 4238 4194 4193 
4 4238 4239 4195 4194 
4 4239 4240 4196 4195 
4 4240 4241 4197 4196 
4 4242 4243 4201 4200 
4 4243 4244 4202 4201 
4 4244 4245 4203 4202 
4 4245 4246 4204 4203 
4 4246 4247 4205 4204 
4 4247 4248 4206 4205 
4 4248 4249 4207 4206 
4 4249 4250 4208 4207 
4 4250 4251 4209 4208 
4 4251 4252 4210 4209 
4 4252 4253 4211 4210 
4 4253 4254 4212 4211 
4 4254 4255 4213 4212 
4 4255 4256 4214 4213 
4 4256 4257 4215 4214 
4 4257 4258 4216 4215 
4 4258 4259 4217 4216 
4 4259 4260 4218 4217 
4 4260 4261 4219 4218 
4 4263 4264 4265 4262 
4 4264 4266 4221 4265 
4 4266 4267 4222 4221 
4 4267 4268 4223 4222 
4 4268 4269 4224 4223 
4 4269 4270 4225 4224 
4 4270 4271 4226 4225 
4 4271 4272 4227 4226 
4 4272 4273 4228 4227 
4 4273 4274 4229 4228 
4 4274 4275 4230 4229 
4 4275 4276 4231 4230 
4 4276 4277 4232 4231 
4 4277 4278 4233 4232 
4 4278 4279 4234 4233 
4 4279 4280 4235 4234 
4 4280 4281 4236 4235 
4 4281 4282 4237 4236 
4 4282 4283 4238 4237 
4 4283 4284 4239 4238 
4 4284 4285 4240 4239 
4 4285 4286 4241 4240 
4 4287 4288 4244 4243 
4 4288 4289 4245 4244 
4 4289 4290 4246 4245 
4 4290 4291 4247 4246 
4 4291 4292 4248 4247 
4 4292 4293 4249 4248 
4 4293 4294 4250 4249 
4 4294 4295 4251 4250 
4 4295 4296 4252 4251 
4 4296 4297 4253 4252 
4 4297 4298 4254 4253 
4 4298 4299 4255 4254 
4 4299 4300 4256 4255 
4 4300 4301 4257 4256 
4 4301 4302 4258 4257 
4 4302 4303 4259 4258 
4 4303 4304 4260 4259 
4 4304 4305 4261 4260 
4 4305 4306 4307 4261 
4 4309 4310 4263 4308 
4 4310 4311 4264 4263 
4 4311 4312 4266 4264 
4 4312 4313 4267 4266 
4 4313 4314 4268 4267 
4 4314 4315 4269 4268 
4 4315 4316 4270 4269 
4 4316 4317 4271 4270 
4 4317 4318 4272 4271 
4 4318 4319 4273 4272 
4 4319 4320 4274 4273 
4 4320 4321 4275 4274 
4 4321 4322 4276 4275 
4 4322 4323 4277 4276 
4 4323 4324 4278 4277 
4 4324 4325 4279 4278 
4 4325 4326 4280 4279 
4 4326 4327 4281 4280 
4 4327 4328 4282 4281 
4 4328 4329 4283 4282 
4 4329 4330 4284 4283 
4 4330 4331 4285 4284 
4 4331 4332 4286 4285 
4 4333 4334 4289 4288 
4 4334 4335 4290 4289 
4 4335 4336 4291 4290 
4 4336 4337 4292 4291 
4 4337 4338 4293 4292 
4 4338 4339 4294 4293 
4 4339 4340 4295 4294 
4 4340 4341 4296 4295 
4 4341 4342 4297 4296 
4 4342 4343 4298 4297 
4 4343 4344 4299 4298 
4 4344 4345 4300 4299 
4 4345 4346 4301 4300 
4 4346 4347 4302 4301 
4 4347 4348 4303 4302 
4 4348 4349 4304 4303 
4 4349 4350 4305 4304 
4 4350 4351 4306 4305 
4 4351 4352 4353 4306 
4 4352 4354 4355 4353 
4 4354 4356 4357 4355 
4 4356 4358 4359 4357 
4 4361 4362 4363 4360 
4 4362 4364 4309 4363 
4 4364 4365 4310 4309 
4 4365 4366 4311 4310 
4 4366 4367 4312 4311 
4 4367 4368 4313 4312 
4 4368 4369 4314 4313 
4 4369 4370 4315 4314 
4 4370 4371 4316 4315 
4 4371 4372 4317 4316 
4 4372 4373 4318 4317 
4 4373 4374 4319 4318 
4 4374 4375 4320 4319 
4 4375 4376 4321 4320 
4 4376 4377 4322 4321 
4 4377 4378 4323 4322 
4 4378 4379 4324 4323 
4 4379 4380 4325 4324 
4 4380 4381 4326 4325 
4 4381 4382 4327 4326 
4 4382 4383 4328 4327 
4 4383 4384 4329 4328 
4 4384 4385 4330 4329 
4 4385 4386 4331 4330 
4 4386 4387 4332 4331 
4 4388 4389 4335 4334 
4 4389 4390 4336 4335 
4 4390 4391 4337 4336 
4 4391 4392 4338 4337 
4 4392 4393 4339 4338 
4 4393 4394 4340 4339 
4 4394 4395 4341 4340 
4 4395 4396 4342 4341 
4 4396 4397 4343 4342 
4 4397 4398 4344 4343 
4 4398 4399 4345 4344 
4 4399 4400 4346 4345 
4 4400 4401 4347 4346 
4 4401 4402 4348 4347 
4 4402 4403 4349 4348 
4 4403 4404 4350 4349 
4 4404 4405 4351 4350 
4 4405 4406 4352 4351 
4 4406 4407 4354 4352 
4 4407 4408 4356 4354 
4 4408 4409 4358 4356 
4 4409 4410 4411 4358 
4 4410 4412 4413 4411 
4 4412 4414 4415 4413 
4 4414 4416 4417 4415 
4 4416 4418 4419 4417 
4 4418 4420 4421 4419 
4 4423 4424 4361 4422 
4 4424 4425 4362 4361 
4 4425 4426 4364 4362 
4 4426 4427 4365 4364 
4 4427 4428 4366 4365 
4 4428 4429 4367 4366 
4 4429 4430 4368 4367 
4 4430 4431 4369 4368 
4 4431 4432 4370 4369 
4 4432 4433 4371 4370 
4 4433 4434 4372 4371 
4 4434 4435 4373 4372 
4 4435 4436 4374 4373 
4 4436 4437 4375 4374 
4 4437 4438 4376 4375 
4 4438 4439 4377 4376 
4 4439 4440 4378 4377 
4 4440 4441 4379 4378 
4 4441 4442 4380 4379 
4 4442 4443 4381 4380 
4 4443 4444 4382 4381 
4 4444 4445 4383 4382 
4 4445 4446 4384 4383 
4 4446 4447 4385 4384 
4 4447 4448 4386 4385 
4 4448 4449 4387 4386 
4 4450 4451 4389 4388 
4 4451 4452 4390 4389 
4 4452 4453 4391 4390 
4 4453 4454 4392 4391 
4 4454 4455 4393 4392 
4 4455 4456 4394 4393 
4 4456 4457 4395 4394 
4 4457 4458 4396 4395 
4 4458 4459 4397 4396 
4 4459 4460 4398 4397 
4 4460 4461 4399 4398 
4 4461 4462 4400 4399 
4 4462 4463 4401 4400 
4 4463 4464 4402 4401 
4 4464 4465 4403 4402 
4 4465 4466 4404 4403 
4 4466 4467 4405 4404 
4 4467 4468 4406 4405 
4 4468 4469 4407 4406 
4 4469 4470 4408 4407 
4 4470 4471 4409 4408 
4 4471 4472 4410 4409 
4 4472 4473 4412 4410 
4 4473 4474 4414 4412 
4 4474 4475 4416 4414 
4 4475 4476 4418 4416 
4 4476 4477 4420 4418 
4 4477 4478 4479 4420 
4 4481 4482 4483 4480 
4 4482 4484 4423 4483 
4 4484 4485 4424 4423 
4 4485 4486 4425 4424 
4 4486 4487 4426 4425 
4 4487 4488 4427 4426 
4 4488 4489 4428 4427 
4 4489 4490 4429 4428 
4 4490 4491 4430 4429 
4 4491 4492 4431 4430 
4 4492 4493 4432 4431 
4 4493 4494 4433 4432 
4 4494 4495 4434 4433 
4 4495 4496 4435 4434 
4 4496 4497 4436 4435 
4 4497 4498 4437 4436 
4 4498 4499 4438 4437 
4 4499 4500 4439 4438 
4 4500 4501 4440 4439 
4 4501 4502 4441 4440 
4 4502 4503 4442 4441 
4 4503 4504 4443 4442 
4 4504 4505 4444 4443 
4 4505 4506 4445 4444 
4 4506 4507 4446 4445 
4 4507 4508 4447 4446 
4 4508 4509 4448 4447 
4 4510 4511 4452 4451 
4 4511 4512 4453 4452 
4 4512 4513 4454 4453 
4 4513 4514 4455 4454 
4 4514 4515 4456 4455 
4 4515 4516 4457 4456 
4 4516 4517 4458 4457 
4 4517 4518 4459 4458 
4 4518 4519 4460 4459 
4 4519 4520 4461 4460 
4 4520 4521 4462 4461 
4 4521 4522 4463 4462 
4 4522 4523 4464 4463 
4 4523 4524 4465 4464 
4 4524 4525 4466 4465 
4 4525 4526 4467 4466 
4 4526 4527 4468 4467 
4 4527 4528 4469 4468 
4 4528 4529 4470 4469 
4 4529 4530 4471 4470 
4 4530 4531 4472 4471 
4 4531 4532 4473 4472 
4 4532 4533 4474 4473 
4 4533 4534 4475 4474 
4 4534 4535 4476 4475 
4 4535 4536 4477 4476 
4 4536 4537 4478 4477 
4 4537 4538 4539 4478 
4 4538 4540 4541 4539 
4 4540 4542 4543 4541 
4 4542 4544 4545 4543 
4 4544 4546 4547 4545 
4 4546 4548 4549 4547 
4 4548 4550 4551 4549 
4 4550 4552 4481 4551 
4 4552 4553 4482 4481 
4 4553 4554 4484 4482 
4 4554 4555 4485 4484 
4 4555 4556 4486 4485 
4 4556 4557 4487 4486 
4 4557 4558 4488 4487 
4 4558 4559 4489 4488 
4 4559 4560 4490 4489 
4 4560 4561 4491 4490 
4 4561 4562 4492 4491 
4 4562 4563 4493 4492 
4 4563 4564 4494 4493 
4 4564 4565 4495 4494 
4 4565 4566 4496 4495 
4 4566 4567 4497 4496 
4 4567 4568 4498 4497 
4 4568 4569 4499 4498 
4 4569 4570 4500 4499 
4 4570 4571 4501 4500 
4 4571 4572 4502 4501 
4 4572 4573 4503 4502 
4 4573 4574 4504 4503 
4 4574 4575 4505 4504 
4 4575 4576 4506 4505 
4 4576 4577 4507 4506 
4 4577 4578 4508 4507 
4 4578 4579 4509 4508 
4 4580 4581 4512 4511 
4 4581 4582 4513 4512 
4 4582 4583 4514 4513 
4 4583 4584 4515 4514 
4 4584 4585 4516 4515 
4 4585 4586 4517 4516 
4 4586 4587 4518 4517 
4 4587 4588 4519 4518 
4 4588 4589 4520 4519 
4 4589 4590 4521 4520 
4 4590 4591 4522 4521 
4 4591 4592 4523 4522 
4 4592 4593 4524 4523 
4 4593 4594 4525 4524 
4 4594 4595 4526 4525 
4 4595 4596 4527 4526 
4 4596 4597 4528 4527 
4 4597 4598 4529 4528 
4 4598 4599 4530 4529 
4 4599 4600 4531 4530 
4 4600 4601 4532 4531 
4 4601 4602 4533 4532 
4 4602 4603 4534 4533 
4 4603 4604 4535 4534 
4 4604 4605 4536 4535 
4 4605 4606 4537 4536 
4 4606 4607 4538 4537 
4 4607 4608 4540 4538 
4 4608 4609 4542 4540 
4 4609 4610 4544 4542 
4 4610 4611 4546 4544 
4 4611 4612 4548 4546 
4 4612 4613 4550 4548 
4 4613 4614 4552 4550 
4 4614 4615 4553 4552 
4 4615 4616 4554 4553 
4 4616 4617 4555 4554 
4 4617 4618 4556 4555 
4 4618 4619 4557 4556 
4 4619 4620 4558 4557 
4 4620 4621 4559 4558 
4 4621 4622 4560 4559 
4 4622 4623 4561 4560 
4 4623 4624 4562 4561 
4 4624 4625 4563 4562 
4 4625 4626 4564 4563 
4 4626 4627 4565 4564 
4 4627 4628 4566 4565 
4 4628 4629 4567 4566 
4 4629 4630 4568 4567 
4 4630 4631 4569 4568 
4 4631 4632 4570 4569 
4 4632 4633 4571 4570 
4 4633 4634 4572 4571 
4 4634 4635 4573 4572 
4 4635 4636 4574 4573 
4 4636 4637 4575 4574 
4 4637 4638 4576 4575 
4 4638 4639 4577 4576 
4 4639 4640 4578 4577 
4 4640 4641 4579 4578 
4 4642 4643 4582 4581 
4 4643 4644 4583 4582 
4 4644 4645 4584 4583 
4 4645 4646 4585 4584 
4 4646 4647 4586 4585 
4 4647 4648 4587 4586 
4 4648 4649 4588 4587 
4 4649 4650 4589 4588 
4 4650 4651 4590 4589 
4 4651 4652 4591 4590 
4 4652 4653 4592 4591 
4 4653 4654 4593 4592 
4 4654 4655 4594 4593 
4 4655 4656 4595 4594 
4 4656 4657 4596 4595 
4 4657 4658 4597 4596 
4 4658 4659 4598 4597 
4 4659 4660 4599 4598 
4 4660 4661 4600 4599 
4 4661 4662 4601 4600 
4 4662 4663 4602 4601 
4 4663 4664 4603 4602 
4 4664 4665 4604 4603 
4 4665 4666 4605 4604 
4 4666 4667 4606 4605 
4 4667 4668 4607 4606 
4 4668 4669 4608 4607 
4 4669 4670 4609 4608 
4 4670 4671 4610 4609 
4 4671 4672 4611 4610 
4 4672 4673 4612 4611 
4 4673 4674 4613 4612 
4 4674 4675 4614 4613 
4 4675 4676 4615 4614 
4 4676 4677 4616 4615 
4 4677 4678 4617 4616 
4 4678 4679 4618 4617 
4 4679 4680 4619 4618 
4 4680 4681 4620 4619 
4 4681 4682 4621 4620 
4 4682 4683 4622 4621 
4 4683 4684 4623 4622 
4 4684 4685 4624 4623 
4 4685 4686 4625 4624 
4 4686 4687 4626 4625 
4 4687 4688 4627 4626 
4 4688 4689 4628 4627 
4 4689 4690 4629 4628 
4 4690 4691 4630 4629 
4 4691 4692 4631 4630 
4 4692 4693 4632 4631 
4 4693 4694 4633 4632 
4 4694 4695 4634 4633 
4 4695 4696 4635 4634 
4 4696 4697 4636 4635 
4 4697 4698 4637 4636 
4 4698 4699 4638 4637 
4 4699 4700 4639 4638 
4 4700 4701 4640 4639 
4 4702 4703 4644 4643 
4 4703 4704 4645 4644 
4 4704 4705 4646 4645 
4 4705 4706 4647 4646 
4 4706 4707 4648 4647 
4 4707 4708 4649 4648 
4 4708 4709 4650 4649 
4 4709 4710 4651 4650 
4 4710 4711 4652 4651 
4 4711 4712 4653 4652 
4 4712 4713 4654 4653 
4 4713 4714 4655 4654 
4 4714 4715 4656 4655 
4 4715 4716 4657 4656 
4 4716 4717 4658 4657 
4 4717 4718 4659 4658 
4 4718 4719 4660 4659 
4 4719 4720 4661 4660 
4 4720 4721 4662 4661 
4 4721 4722 4663 4662 
4 4722 4723 4664 4663 
4 4723 4724 4665 4664 
4 4724 4725 4666 4665 
4 4725 4726 4667 4666 
4 4726 4727 4668 4667 
4 4727 4728 4669 4668 
4 4728 4729 4670 4669 
4 4729 4730 4671 4670 
4 4730 4731 4672 4671 
4 4731 4732 4673 4672 
4 4732 4733 4674 4673 
4 4733 4734 4675 4674 
4 4734 4735 4676 4675 
4 4735 4736 4677 4676 
4 4736 4737 4678 4677 
4 4737 4738 4679 4678 
4 4738 4739 4680 4679 
4 4739 4740 4681 4680 
4 4740 4741 4682 4681 
4 4741 4742 4683 4682 
4 4742 4743 4684 4683 
4 4743 4744 4685 4684 
4 4744 4745 4686 4685 
4 4745 4746 4687 4686 
4 4746 4747 4688 4687 
4 4747 4748 4689 4688 
4 4748 4749 4690 4689 
4 4749 4750 4691 4690 
4 4750 4751 4692 4691 
4 4751 4752 4693 4692 
4 4752 4753 4694 4693 
4 4753 4754 4695 4694 
4 4754 4755 4696 4695 
4 4755 4756 4697 4696 
4 4756 4757 4698 4697 
4 4757 4758 4699 4698 
4 4758 4759 4700 4699 
4 4759 4760 4701 4700 
4 4761 4762 4704 4703 
4 4762 4763 4705 4704 
4 4763 4764 4706 4705 
4 4764 4765 4707 4706 
4 4765 4766 4708 4707 
4 4766 4767 4709 4708 
4 4767 4768 4710 4709 
4 4768 4769 4711 4710 
4 4769 4770 4712 4711 
4 4770 4771 4713 4712 
4 4771 4772 4714 4713 
4 4772 4773 4715 4714 
4 4773 4774 4716 4715 
4 4774 4775 4717 4716 
4 4775 4776 4718 4717 
4 4776 4777 4719 4718 
4 4777 4778 4720 4719 
4 4778 4779 4721 4720 
4 4779 4780 4722 4721 
4 4780 4781 4723 4722 
4 4781 4782 4724 4723 
4 4782 4783 4725 4724 
4 4783 4784 4726 4725 
4 4784 4785 4727 4726 
4 4785 4786 4728 4727 
4 4786 4787 4729 4728 
4 4787 4788 4730 4729 
4 4788 4789 4731 4730 
4 4789 4790 4732 4731 
4 4790 4791 4733 4732 
4 4791 4792 4734 4733 
4 4792 4793 4735 4734 
4 4793 4794 4736 4735 
4 4794 4795 4737 4736 
4 4795 4796 4738 4737 
4 4796 4797 4739 4738 
4 4797 4798 4740 4739 
4 4798 4799 4741 4740 
4 4799 4800 4742 4741 
4 4800 4801 4743 4742 
4 4801 4802 4744 4743 
4 4802 4803 4745 4744 
4 4803 4804 4746 4745 
4 4804 4805 4747 4746 
4 4805 4806 4748 4747 
4 4806 4807 4749 4748 
4 4807 4808 4750 4749 
4 4808 4809 4751 4750 
4 4809 4810 4752 4751 
4 4810 4811 4753 4752 
4 4811 4812 4754 4753 
4 4812 4813 4755 4754 
4 4813 4814 4756 4755 
4 4814 4815 4757 4756 
4 4815 4816 4758 4757 
4 4816 4817 4759 4758 
4 4817 4818 4760 4759 
4 4819 4820 4762 4761 
4 4820 4821 4763 4762 
4 4821 4822 4764 4763 
4 4822 4823 4765 4764 
4 4823 4824 4766 4765 
4 4824 4825 4767 4766 
4 4825 4826 4768 4767 
4 4826 4827 4769 4768 
4 4827 4828 4770 4769 
4 4828 4829 4771 4770 
4 4829 4830 4772 4771 
4 4830 4831 4773 4772 
4 4831 4832 4774 4773 
4 4832 4833 4775 4774 
4 4833 4834 4776 4775 
4 4834 4835 4777 4776 
4 4835 4836 4778 4777 
4 4836 4837 4779 4778 
4 4837 4838 4780 4779 
4 4838 4839 4781 4780 
4 4839 4840 4782 4781 
4 4840 4841 4783 4782 
4 4841 4842 4784 4783 
4 4842 4843 4785 4784 
4 4843 4844 4786 4785 
4 4844 4845 4787 4786 
4 4845 4846 4788 4787 
4 4846 4847 4789 4788 
4 4847 4848 4790 4789 
4 4848 4849 4791 4790 
4 4849 4850 4792 4791 
4 4850 4851 4793 4792 
4 4851 4852 4794 4793 
4 4852 4853 4795 4794 
4 4853 4854 4796 4795 
4 4854 4855 4797 4796 
4 4855 4856 4798 4797 
4 4856 4857 4799 4798 
4 4857 4858 4800 4799 
4 4858 4859 4801 4800 
4 4859 4860 4802 4801 
4 4860 4861 4803 4802 
4 4861 4862 4804 4803 
4 4862 4863 4805 4804 
4 4864 4865 4809 4808 
4 4865 4866 4810 4809 
4 4866 4867 4811 4810 
4 4867 4868 4812 4811 
4 4868 4869 4813 4812 
4 4869 4870 4814 4813 
4 4870 4871 4815 4814 
4 4871 4872 4816 4815 
4 4872 4873 4817 4816 
4 4873 4874 4818 4817 
4 4875 4876 4820 4819 
4 4876 4877 4821 4820 
4 4877 4878 4822 4821 
4 4878 4879 4823 4822 
4 4879 4880 4824 4823 
4 4880 4881 4825 4824 
4 4881 4882 4826 4825 
4 4882 4883 4827 4826 
4 4883 4884 4828 4827 
4 4884 4885 4829 4828 
4 4885 4886 4830 4829 
4 4886 4887 4831 4830 
4 4887 4888 4832 4831 
4 4888 4889 4833 4832 
4 4889 4890 4834 4833 
4 4890 4891 4835 4834 
4 4891 4892 4836 4835 
4 4892 4893 4837 4836 
4 4893 4894 4838 4837 
4 4894 4895 4839 4838 
4 4895 4896 4840 4839 
4 4896 4897 4841 4840 
4 4897 4898 4842 4841 
4 4898 4899 4843 4842 
4 4899 4900 4844 4843 
4 4900 4901 4845 4844 
4 4901 4902 4846 4845 
4 4902 4903 4847 4846 
4 4903 4904 4848 4847 
4 4904 4905 4849 4848 
4 4905 4906 4850 4849 
4 4906 4907 4851 4850 
4 4907 4908 4852 4851 
4 4908 4909 4853 4852 
4 4909 4910 4854 4853 
4 4910 4911 4855 4854 
4 4911 4912 4856 4855 
4 4912 4913 4857 4856 
4 4913 4914 4858 4857 
4 4914 4915 4859 4858 
4 4915 4916 4860 4859 
4 4916 4917 4861 4860 
4 4917 4918 4862 4861 
4 4918 4919 4863 4862 
4 4920 4921 4865 4864 
4 4921 4922 4866 4865 
4 4922 4923 4867 4866 
4 4923 4924 4868 4867 
4 4924 4925 4869 4868 
4 4925 4926 4870 4869 
4 4926 4927 4871 4870 
4 4927 4928 4872 4871 
4 4928 4929 4873 4872 
4 4929 4930 4874 4873 
4 4932 4933 4875 4931 
4 4933 4934 4876 4875 
4 4934 4935 4877 4876 
4 4935 4936 4878 4877 
4 4936 4937 4879 4878 
4 4937 4938 4880 4879 
4 4938 4939 4881 4880 
4 4939 4940 4882 4881 
4 4940 4941 4883 4882 
4 4941 4942 4884 4883 
4 4942 4943 4885 4884 
4 4943 4944 4886 4885 
4 4944 4945 4887 4886 
4 4945 4946 4888 4887 
4 4946 4947 4889 4888 
4 4947 4948 4890 4889 
4 4948 4949 4891 4890 
4 4949 4950 4892 4891 
4 4950 4951 4893 4892 
4 4951 4952 4894 4893 
4 4952 4953 4895 4894 
4 4953 4954 4896 4895 
4 4954 4955 4897 4896 
4 4955 4956 4898 4897 
4 4956 4957 4899 4898 
4 4957 4958 4900 4899 
4 4958 4959 4901 4900 
4 4959 4960 4902 4901 
4 4960 4961 4903 4902 
4 4961 4962 4904 4903 
4 4962 4963 4905 4904 
4 4963 4964 4906 4905 
4 4964 4965 4907 4906 
4 4965 4966 4908 4907 
4 4966 4967 4909 4908 
4 4967 4968 4910 4909 
4 4968 4969 4911 4910 
4 4969 4970 4912 4911 
4 4970 4971 4913 4912 
4 4971 4972 4914 4913 
4 4972 4973 4915 4914 
4 4973 4974 4916 4915 
4 4974 4975 4917 4916 
4 4975 4976 4918 4917 
4 4977 4978 4921 4920 
4 4978 4979 4922 4921 
4 4979 4980 4923 4922 
4 4980 4981 4924 4923 
4 4981 4982 4925 4924 
4 4982 4983 4926 4925 
4 4983 4984 4927 4926 
4 4984 4985 4928 4927 
4 4985 4986 4929 4928 
4 4986 4987 4930 4929 
4 4988 4989 4933 4932 
4 4989 4990 4934 4933 
4 4990 4991 4935 4934 
4 4991 4992 4936 4935 
4 4992 4993 4937 4936 
4 4993 4994 4938 4937 
4 4994 4995 4939 4938 
4 4995 4996 4940 4939 
4 4996 4997 4941 4940 
4 4997 4998 4942 4941 
4 4998 4999 4943 4942 
4 4999 5000 4944 4943 
4 5000 5001 4945 4944 
4 5001 5002 4946 4945 
4 5002 5003 4947 4946 
4 5003 5004 4948 4947 
4 5004 5005 4949 4948 
4 5005 5006 4950 4949 
4 5006 5007 4951 4950 
4 5007 5008 4952 4951 
4 5008 5009 4953 4952 
4 5009 5010 4954 4953 
4 5010 5011 4955 4954 
4 5011 5012 4956 4955 
4 5012 5013 4957 4956 
4 5013 5014 4958 4957 
4 5014 5015 4959 4958 
4 5015 5016 4960 4959 
4 5016 5017 4961 4960 
4 5017 5018 4962 4961 
4 5018 5019 4963 4962 
4 5019 5020 4964 4963 
4 5020 5021 4965 4964 
4 5021 5022 4966 4965 
4 5022 5023 4967 4966 
4 5023 5024 4968 4967 
4 5024 5025 4969 4968 
4 5025 5026 4970 4969 
4 5026 5027 4971 4970 
4 5027 5028 4972 4971 
4 5028 5029 4973 4972 
4 5029 5030 4974 4973 
4 5030 5031 4975 4974 
4 5032 5033 4978 4977 
4 5033 5034 4979 4978 
4 5034 5035 4980 4979 
4 5035 5036 4981 4980 
4 5036 5037 4982 4981 
4 5037 5038 4983 4982 
4 5038 5039 4984 4983 
4 5039 5040 4985 4984 
4 5040 5041 4986 4985 
4 5041 5042 4987 4986 
4 5043 5044 4989 4988 
4 5044 5045 4990 4989 
4 5045 5046 4991 4990 
4 5046 5047 4992 4991 
4 5047 5048 4993 4992 
4 5048 5049 4994 4993 
4 5049 5050 4995 4994 
4 5050 5051 4996 4995 
4 5051 5052 4997 4996 
4 5052 5053 4998 4997 
4 5053 5054 4999 4998 
4 5054 5055 5000 4999 
4 5055 5056 5001 5000 
4 5056 5057 5002 5001 
4 5057 5058 5003 5002 
4 5058 5059 5004 5003 
4 5059 5060 5005 5004 
4 5060 5061 5006 5005 
4 5061 5062 5007 5006 
4 5062 5063 5008 5007 
4 5063 5064 5009 5008 
4 5064 5065 5010 5009 
4 5065 5066 5011 5010 
4 5066 5067 5012 5011 
4 5067 5068 5013 5012 
4 5068 5069 5014 5013 
4 5069 5070 5015 5014 
4 5070 5071 5016 5015 
4 5071 5072 5017 5016 
4 5072 5073 5018 5017 
4 5073 5074 5019 5018 
4 5074 5075 5020 5019 
4 5075 5076 5021 5020 
4 5076 5077 5022 5021 
4 5077 5078 5023 5022 
4 5078 5079 5024 5023 
4 5079 5080 5025 5024 
4 5080 5081 5026 5025 
4 5081 5082 5027 5026 
4 5082 5083 5028 5027 
4 5083 5084 5029 5028 
4 5084 5085 5030 5029 
4 5086 5087 5033 5032 
4 5087 5088 5034 5033 
4 5088 5089 5035 5034 
4 5089 5090 5036 5035 
4 5090 5091 5037 5036 
4 5091 5092 5038 5037 
4 5092 5093 5039 5038 
4 5093 5094 5040 5039 
4 5094 5095 5041 5040 
4 5095 5096 5042 5041 
4 5097 5098 5044 5043 
4 5098 5099 5045 5044 
4 5099 5100 5046 5045 
4 5100 5101 5047 5046 
4 5101 5102 5048 5047 
4 5102 5103 5049 5048 
4 5103 5104 5050 5049 
4 5104 5105 5051 5050 
4 5105 5106 5052 5051 
4 5106 5107 5053 5052 
4 5107 5108 5054 5053 
4 5108 5109 5055 5054 
4 5109 5110 5056 5055 
4 5110 5111 5057 5056 
4 5111 5112 5058 5057 
4 5112 5113 5059 5058 
4 5113 5114 5060 5059 
4 5114 5115 5061 5060 
4 5115 5116 5062 5061 
4 5116 5117 5063 5062 
4 5117 5118 5064 5063 
4 5118 5119 5065 5064 
4 5119 5120 5066 5065 
4 5120 5121 5067 5066 
4 5121 5122 5068 5067 
4 5122 5123 5069 5068 
4 5123 5124 5070 5069 
4 5124 5125 5071 5070 
4 5125 5126 5072 5071 
4 5126 5127 5073 5072 
4 5127 5128 5074 5073 
4 5128 5129 5075 5074 
4 5129 5130 5076 5075 
4 5130 5131 5077 5076 
4 5131 5132 5078 5077 
4 5132 5133 5079 5078 
4 5133 5134 5080 5079 
4 5134 5135 5081 5080 
4 5135 5136 5082 5081 
4 5136 5137 5083 5082 
4 5138 5139 5087 5086 
4 5139 5140 5088 5087 
4 5140 5141 5089 5088 
4 5141 5142 5090 5089 
4 5142 5143 5091 5090 
4 5143 5144 5092 5091 
4 5144 5145 5093 5092 
4 5145 5146 5094 5093 
4 5146 5147 5095 5094 
4 5147 5148 5096 5095 
4 5149 5150 5098 5097 
4 5150 5151 5099 5098 
4 5151 5152 5100 5099 
4 5152 5153 5101 5100 
4 5153 5154 5102 5101 
4 5154 5155 5103 5102 
4 5155 5156 5104 5103 
4 5156 5157 5105 5104 
4 5157 5158 5106 5105 
4 5158 5159 5107 5106 
4 5159 5160 5108 5107 
4 5160 5161 5109 5108 
4 5161 5162 5110 5109 
4 5162 5163 5111 5110 
4 5163 5164 5112 5111 
4 5164 5165 5113 5112 
4 5165 5166 5114 5113 
4 5166 5167 5115 5114 
4 5167 5168 5116 5115 
4 5168 5169 5117 5116 
4 5169 5170 5118 5117 
4 5171 5172 5126 5125 
4 5172 5173 5127 5126 
4 5173 5174 5128 5127 
4 5174 5175 5129 5128 
4 5175 5176 5130 5129 
4 5176 5177 5131 5130 
4 5177 5178 5132 5131 
4 5178 5179 5133 5132 
4 5179 5180 5134 5133 
4 5180 5181 5135 5134 
4 5181 5182 5136 5135 
4 5184 5185 5138 5183 
4 5185 5186 5139 5138 
4 5186 5187 5140 5139 
4 5187 5188 5141 5140 
4 5188 5189 5142 5141 
4 5189 5190 5143 5142 
4 5190 5191 5144 5143 
4 5191 5192 5145 5144 
4 5192 5193 5146 5145 
4 5193 5194 5147 5146 
4 5194 5195 5148 5147 
4 5196 5197 5150 5149 
4 5197 5198 5151 5150 
4 5198 5199 5152 5151 
4 5199 5200 5153 5152 
4 5200 5201 5154 5153 
4 5201 5202 5155 5154 
4 5202 5203 5156 5155 
4 5203 5204 5157 5156 
4 5204 5205 5158 5157 
4 5205 5206 5159 5158 
4 5206 5207 5160 5159 
4 5207 5208 5161 5160 
4 5208 5209 5162 5161 
4 5209 5210 5163 5162 
4 5210 5211 5164 5163 
4 5211 5212 5165 5164 
4 5212 5213 5166 5165 
4 5213 5214 5167 5166 
4 5214 5215 5168 5167 
4 5215 5216 5169 5168 
4 5217 5218 5185 5184 
4 5218 5219 5186 5185 
4 5219 5220 5187 5186 
4 5220 5221 5188 5187 
4 5221 5222 5189 5188 
4 5222 5223 5190 5189 
4 5223 5224 5191 5190 
4 5224 5225 5192 5191 
4 5225 5226 5193 5192 
4 5226 5227 5194 5193 
4 5227 5228 5195 5194 
4 5229 5230 5197 5196 
4 5230 5231 5198 5197 
4 5231 5232 5199 5198 
4 5232 5233 5200 5199 
4 5233 5234 5201 5200 
4 5234 5235 5202 5201 
4 5235 5236 5203 5202 
4 5236 5237 5204 5203 
4 5237 5238 5205 5204 
4 5238 5239 5206 5205 
4 5239 5240 5207 5206 
4 5240 5241 5208 5207 
4 5241 5242 5209 5208 
4 5242 5243 5210 5209 
4 5243 5244 5211 5210 
4 5244 5245 5212 5211 
4 5245 5246 5213 5212 
4 5246 5247 5214 5213 
4 5248 5249 5218 5217 
4 5249 5250 5219 5218 
4 5250 5251 5220 5219 
4 5251 5252 5221 5220 
4 5252 5253 5222 5221 
4 5253 5254 5223 5222 
4 5254 5255 5224 5223 
4 5255 5256 5225 5224 
4 5256 5257 5226 5225 
4 5257 5258 5227 5226 
4 5258 5259 5228 5227 
4 5260 5261 5230 5229 
4 5261 5262 5231 5230 
4 5262 5263 5232 5231 
4 5263 5264 5233 5232 
4 5264 5265 5234 5233 
4 5265 5266 5235 5234 
4 5266 5267 5236 5235 
4 5267 5268 5237 5236 
4 5268 5269 5238 5237 
4 5269 5270 5239 5238 
4 5270 5271 5240 5239 
4 5271 5272 5241 5240 
4 5272 5273 5242 5241 
4 5273 5274 5243 5242 
4 5274 5275 5244 5243 
4 5275 5276 5245 5244 
4 5276 5277 5246 5245 
4 5278 5279 5249 5248 
4 5279 5280 5250 5249 
4 5280 5281 5251 5250 
4 5281 5282 5252 5251 
4 5282 5283 5253 5252 
4 5283 5284 5254 5253 
4 5284 5285 5255 5254 
4 5285 5286 5256 5255 
4 5286 5287 5257 5256 
4 5287 5288 5258 5257 
4 5288 5289 5259 5258 
4 5290 5291 5262 5261 
4 5291 5292 5263 5262 
4 5292 5293 5264 5263 
4 5293 5294 5265 5264 
4 5294 5295 5266 5265 
4 5295 5296 5267 5266 
4 5296 5297 5268 5267 
4 5297 5298 5269 5268 
4 5298 5299 5270 5269 
4 5299 5300 5271 5270 
4 5300 5301 5272 5271 
4 5301 5302 5273 5272 
4 5302 5303 5274 5273 
4 5303 5304 5275 5274 
4 5304 5305 5276 5275 
4 5307 5308 5278 5306 
4 5308 5309 5279 5278 
4 5309 5310 5280 5279 
4 5310 5311 5281 5280 
4 5311 5312 5282 5281 
4 5312 5313 5283 5282 
4 5313 5314 5284 5283 
4 5314 5315 5285 5284 
4 5315 5316 5286 5285 
4 5316 5317 5287 5286 
4 5317 5318 5288 5287 
4 5318 5319 5289 5288 
4 5320 5321 5291 5290 
4 5321 5322 5292 5291 
4 5322 5323 5293 5292 
4 5323 5324 5294 5293 
4 5324 5325 5295 5294 
4 5325 5326 5296 5295 
4 5326 5327 5297 5296 
4 5327 5328 5298 5297 
4 5328 5329 5299 5298 
4 5329 5330 5300 5299 
4 5330 5331 5301 5300 
4 5331 5332 5302 5301 
4 5332 5333 5303 5302 
4 5334 5335 5308 5307 
4 5335 5336 5309 5308 
4 5336 5337 5310 5309 
4 5337 5338 5311 5310 
4 5338 5339 5312 5311 
4 5339 5340 5313 5312 
4 5340 5341 5314 5313 
4 5341 5342 5315 5314 
4 5342 5343 5316 5315 
4 5343 5344 5317 5316 
4 5344 5345 5318 5317 
4 5346 5347 5321 5320 
4 5347 5348 5322 5321 
4 5348 5349 5323 5322 
4 5349 5350 5324 5323 
4 5350 5351 5325 5324 
4 5351 5352 5326 5325 
4 5352 5353 5327 5326 
4 5353 5354 5328 5327 
4 5354 5355 5329 5328 
4 5355 5356 5330 5329 
4 5356 5357 5331 5330 
4 5357 5358 5332 5331 
4 5359 5360 5335 5334 
4 5360 5361 5336 5335 
4 5361 5362 5337 5336 
4 5362 5363 5338 5337 
4 5363 5364 5339 5338 
4 5364 5365 5340 5339 
4 5365 5366 5341 5340 
4 5366 5367 5342 5341 
4 5367 5368 5343 5342 
4 5368 5369 5344 5343 
4 5369 5370 5345 5344 
4 5371 5372 5347 5346 
4 5372 5373 5348 5347 
4 5373 5374 5349 5348 
4 5374 5375 5350 5349 
4 5375 5376 5351 5350 
4 5376 5377 5352 5351 
4 5377 5378 5353 5352 
4 5378 5379 5354 5353 
4 5379 5380 5355 5354 
4 5380 5381 5356 5355 
4 5381 5382 5357 5356 
4 5383 5384 5360 5359 
4 5384 5385 5361 5360 
4 5385 5386 5362 5361 
4 5386 5387 5363 5362 
4 5387 5388 5364 5363 
4 5388 5389 5365 5364 
4 5389 5390 5366 5365 
4 5390 5391 5367 5366 
4 5391 5392 5368 5367 
4 5392 5393 5369 5368 
4 5393 5394 5370 5369 
4 5395 5396 5372 5371 
4 5396 5397 5373 5372 
4 5397 5398 5374 5373 
4 5398 5399 5375 5374 
4 5399 5400 5376 5375 
4 5400 5401 5377 5376 
4 5401 5402 5378 5377 
4 5402 5403 5379 5378 
4 5403 5404 5380 5379 
4 5404 5405 5381 5380 
4 5406 5407 5384 5383 
4 5407 5408 5385 5384 
4 5408 5409 5386 5385 
4 5409 5410 5387 5386 
4 5410 5411 5388 5387 
4 5411 5412 5389 5388 
4 5412 5413 5390 5389 
4 5413 5414 5391 5390 
4 5414 5415 5392 5391 
4 5415 5416 5393 5392 
4 5416 5417 5394 5393 
4 5418 5419 5396 5395 
4 5419 5420 5397 5396 
4 5420 5421 5398 5397 
4 5421 5422 5399 5398 
4 5422 5423 5400 5399 
4 5423 5424 5401 5400 
4 5424 5425 5402 5401 
4 5425 5426 5403 5402 
4 5426 5427 5404 5403 
4 5427 5428 5405 5404 
4 5429 5430 5407 5406 
4 5430 5431 5408 5407 
4 5431 5432 5409 5408 
4 5432 5433 5410 5409 
4 5433 5434 5411 5410 
4 5434 5435 5412 5411 
4 5435 5436 5413 5412 
4 5436 5437 5414 5413 
4 5437 5438 5415 5414 
4 5438 5439 5416 5415 
4 5439 5440 5417 5416 
4 5442 5443 5418 5441 
4 5443 5444 5419 5418 
4 5444 5445 5420 5419 
4 5445 5446 5421 5420 
4 5446 5447 5422 5421 
4 5447 5448 5423 5422 
4 5448 5449 5424 5423 
4 5449 5450 5425 5424 
4 5450 5451 5426 5425 
4 5451 5452 5427 5426 
4 5452 5453 5428 5427 
4 5455 5456 5429 5454 
4 5456 5457 5430 5429 
4 5457 5458 5431 5430 
4 5458 5459 5432 5431 
4 5459 5460 5433 5432 
4 5460 5461 5434 5433 
4 5461 5462 5435 5434 
4 5462 5463 5436 5435 
4 5463 5464 5437 5436 
4 5464 5465 5438 5437 
4 5465 5466 5439 5438 
4 5466 5467 5440 5439 
4 5468 5469 5443 5442 
4 5469 5470 5444 5443 
4 5470 5471 5445 5444 
4 5471 5472 5446 5445 
4 5472 5473 5447 5446 
4 5473 5474 5448 5447 
4 5474 5475 5449 5448 
4 5475 5476 5450 5449 
4 5476 5477 5451 5450 
4 5477 5478 5452 5451 
4 5478 5479 5453 5452 
4 5480 5481 5456 5455 
4 5481 5482 5457 5456 
4 5482 5483 5458 5457 
4 5483 5484 5459 5458 
4 5484 5485 5460 5459 
4 5485 5486 5461 5460 
4 5486 5487 5462 5461 
4 5487 5488 5463 5462 
4 5488 5489 5464 5463 
4 5489 5490 5465 5464 
4 5490 5491 5466 5465 
4 5491 5492 5467 5466 
4 5493 5494 5469 5468 
4 5494 5495 5470 5469 
4 5495 5496 5471 5470 
4 5496 5497 5472 5471 
4 5497 5498 5473 5472 
4 5498 5499 5474 5473 
4 5499 5500 5475 5474 
4 5500 5501 5476 5475 
4 5501 5502 5477 5476 
4 5502 5503 5478 5477 
4 5503 5504 5479 5478 
4 5505 5506 5481 5480 
4 5506 5507 5482 5481 
4 5507 5508 5483 5482 
4 5508 5509 5484 5483 
4 5509 5510 5485 5484 
4 5510 5511 5486 5485 
4 5511 5512 5487 5486 
4 5512 5513 5488 5487 
4 5513 5514 5489 5488 
4 5514 5515 5490 5489 
4 5515 5516 5491 5490 
4 5516 5517 5492 5491 
4 5518 5519 5495 5494 
4 5519 5520 5496 5495 
4 5520 5521 5497 5496 
4 5521 5522 5498 5497 
4 5522 5523 5499 5498 
4 5523 5524 5500 5499 
4 5524 5525 5501 5500 
4 5525 5526 5502 5501 
4 5526 5527 5503 5502 
4 5528 5529 5506 5505 
4 5529 5530 5507 5506 
4 5530 5531 5508 5507 
4 5531 5532 5509 5508 
4 5532 5533 5510 5509 
4 5533 5534 5511 5510 
4 5534 5535 5512 5511 
4 5535 5536 5513 5512 
4 5536 5537 5514 5513 
4 5537 5538 5515 5514 
4 5538 5539 5516 5515 
4 5539 5540 5517 5516 
4 5541 5542 5519 5518 
4 5542 5543 5520 5519 
4 5543 5544 5521 5520 
4 5544 5545 5522 5521 
4 5545 5546 5523 5522 
4 5546 5547 5524 5523 
4 5547 5548 5525 5524 
4 5548 5549 5526 5525 
4 5549 5550 5527 5526 
4 5551 5552 5529 5528 
4 5552 5553 5530 5529 
4 5553 5554 5531 5530 
4 5554 5555 5532 5531 
4 5555 5556 5533 5532 
4 5556 5557 5534 5533 
4 5557 5558 5535 5534 
4 5558 5559 5536 5535 
4 5559 5560 5537 5536 
4 5560 5561 5538 5537 
4 5561 5562 5539 5538 
4 5562 5563 5540 5539 
4 5564 5565 5542 5541 
4 5565 5566 5543 5542 
4 5566 5567 5544 5543 
4 5567 5568 5545 5544 
4 5568 5569 5546 5545 
4 5569 5570 5547 5546 
4 5570 5571 5548 5547 
4 5571 5572 5549 5548 
4 5572 5573 5550 5549 
4 5574 5575 5552 5551 
4 5575 5576 5553 5552 
4 5576 5577 5554 5553 
4 5577 5578 5555 5554 
4 5578 5579 5556 5555 
4 5579 5580 5557 5556 
4 5580 5581 5558 5557 
4 5581 5582 5559 5558 
4 5582 5583 5560 5559 
4 5583 5584 5561 5560 
4 5584 5585 5562 5561 
4 5585 5586 5563 5562 
4 5587 5588 5565 5564 
4 5588 5589 5566 5565 
4 5589 5590 5567 5566 
4 5590 5591 5568 5567 
4 5591 5592 5569 5568 
4 5592 5593 5570 5569 
4 5593 5594 5571 5570 
4 5594 5595 5572 5571 
4 5595 5596 5573 5572 
4 5597 5598 5575 5574 
4 5598 5599 5576 5575 
4 5599 5600 5577 5576 
4 5600 5601 5578 5577 
4 5601 5602 5579 5578 
4 5602 5603 5580 5579 
4 5603 5604 5581 5580 
4 5604 5605 5582 5581 
4 5605 5606 5583 5582 
4 5606 5607 5584 5583 
4 5607 5608 5585 5584 
4 5608 5609 5586 5585 
4 5610 5611 5588 5587 
4 5611 5612 5589 5588 
4 5612 5613 5590 5589 
4 5613 5614 5591 5590 
4 5614 5615 5592 5591 
4 5615 5616 5593 5592 
4 5616 5617 5594 5593 
4 5617 5618 5595 5594 
4 5618 5619 5596 5595 
4 5621 5622 5597 5620 
4 5622 5623 5598 5597 
4 5623 5624 5599 5598 
4 5624 5625 5600 5599 
4 5625 5626 5601 5600 
4 5626 5627 5602 5601 
4 5627 5628 5603 5602 
4 5628 5629 5604 5603 
4 5629 5630 5605 5604 
4 5630 5631 5606 5605 
4 5631 5632 5607 5606 
4 5632 5633 5608 5607 
4 5633 5634 5609 5608 
4 5635 5636 5611 5610 
4 5636 5637 5612 5611 
4 5637 5638 5613 5612 
4 5638 5639 5614 5613 
4 5639 5640 5615 5614 
4 5640 5641 5616 5615 
4 5641 5642 5617 5616 
4 5642 5643 5618 5617 
4 5643 5644 5619 5618 
4 5645 5646 5622 5621 
4 5646 5647 5623 5622 
4 5647 5648 5624 5623 
4 5648 5649 5625 5624 
4 5649 5650 5626 5625 
4 5650 5651 5627 5626 
4 5651 5652 5628 5627 
4 5652 5653 5629 5628 
4 5653 5654 5630 5629 
4 5654 5655 5631 5630 
4 5655 5656 5632 5631 
4 5656 5657 5633 5632 
4 5657 5658 5634 5633 
4 5659 5660 5636 5635 
4 5660 5661 5637 5636 
4 5661 5662 5638 5637 
4 5662 5663 5639 5638 
4 5663 5664 5640 5639 
4 5664 5665 5641 5640 
4 5665 5666 5642 5641 
4 5666 5667 5643 5642 
4 5667 5668 5644 5643 
4 5669 5670 5646 5645 
4 5670 5671 5647 5646 
4 5671 5672 5648 5647 
4 5672 5673 5649 5648 
4 5673 5674 5650 5649 
4 5674 5675 5651 5650 
4 5675 5676 5652 5651 
4 5676 5677 5653 5652 
4 5677 5678 5654 5653 
4 5678 5679 5655 5654 
4 5679 5680 5656 5655 
4 5680 5681 5657 5656 
4 5681 5682 5658 5657 
4 5683 5684 5660 5659 
4 5684 5685 5661 5660 
4 5685 5686 5662 5661 
4 5686 5687 5663 5662 
4 5687 5688 5664 5663 
4 5688 5689 5665 5664 
4 5689 5690 5666 5665 
4 5690 5691 5667 5666 
4 5691 5692 5668 5667 
4 5693 5694 5670 5669 
4 5694 5695 5671 5670 
4 5695 5696 5672 5671 
4 5696 5697 5673 5672 
4 5697 5698 5674 5673 
4 5698 5699 5675 5674 
4 5699 5700 5676 5675 
4 5700 5701 5677 5676 
4 5701 5702 5678 5677 
4 5702 5703 5679 5678 
4 5703 5704 5680 5679 
4 5704 5705 5681 5680 
4 5705 5706 5682 5681 
4 5707 5708 5684 5683 
4 5708 5709 5685 5684 
4 5709 5710 5686 5685 
4 5710 5711 5687 5686 
4 5711 5712 5688 5687 
4 5712 5713 5689 5688 
4 5713 5714 5690 5689 
4 5714 5715 5691 5690 
4 5715 5716 5692 5691 
4 5716 5717 5718 5692 
4 5719 5720 5694 5693 
4 5720 5721 5695 5694 
4 5721 5722 5696 5695 
4 5722 5723 5697 5696 
4 5723 5724 5698 5697 
4 5724 5725 5699 5698 
4 5725 5726 5700 5699 
4 5726 5727 5701 5700 
4 5727 5728 5702 5701 
4 5728 5729 5703 5702 
4 5729 5730 5704 5703 
4 5730 5731 5705 5704 
4 5731 5732 5706 5705 
4 5733 5734 5708 5707 
4 5734 5735 5709 5708 
4 5735 5736 5710 5709 
4 5736 5737 5711 5710 
4 5737 5738 5712 5711 
4 5738 5739 5713 5712 
4 5739 5740 5714 5713 
4 5740 5741 5715 5714 
4 5741 5742 5716 5715 
4 5742 5743 5717 5716 
4 5744 5745 5720 5719 
4 5745 5746 5721 5720 
4 5746 5747 5722 5721 
4 5747 5748 5723 5722 
4 5748 5749 5724 5723 
4 5749 5750 5725 5724 
4 5750 5751 5726 5725 
4 5751 5752 5727 5726 
4 5752 5753 5728 5727 
4 5753 5754 5729 5728 
4 5754 5755 5730 5729 
4 5755 5756 5731 5730 
4 5756 5757 5732 5731 
4 5758 5759 5734 5733 
4 5759 5760 5735 5734 
4 5760 5761 5736 5735 
4 5761 5762 5737 5736 
4 5762 5763 5738 5737 
4 5763 5764 5739 5738 
4 5764 5765 5740 5739 
4 5765 5766 5741 5740 
4 5766 5767 5742 5741 
4 5767 5768 5743 5742 
4 5770 5771 5744 5769 
4 5771 5772 5745 5744 
4 5772 5773 5746 5745 
4 5773 5774 5747 5746 
4 5774 5775 5748 5747 
4 5775 5776 5749 5748 
4 5776 5777 5750 5749 
4 5777 5778 5751 5750 
4 5778 5779 5752 5751 
4 5779 5780 5753 5752 
4 5780 5781 5754 5753 
4 5781 5782 5755 5754 
4 5782 5783 5756 5755 
4 5783 5784 5757 5756 
4 5785 5786 5759 5758 
4 5786 5787 5760 5759 
4 5787 5788 5761 5760 
4 5788 5789 5762 5761 
4 5789 5790 5763 5762 
4 5790 5791 5764 5763 
4 5791 5792 5765 5764 
4 5792 5793 5766 5765 
4 5793 5794 5767 5766 
4 5794 5795 5768 5767 
4 5796 5797 5771 5770 
4 5797 5798 5772 5771 
4 5798 5799 5773 5772 
4 5799 5800 5774 5773 
4 5800 5801 5775 5774 
4 5801 5802 5776 5775 
4 5802 5803 5777 5776 
4 5803 5804 5778 5777 
4 5804 5805 5779 5778 
4 5805 5806 5780 5779 
4 5806 5807 5781 5780 
4 5807 5808 5782 5781 
4 5808 5809 5783 5782 
4 5810 5811 5786 5785 
4 5811 5812 5787 5786 
4 5812 5813 5788 5787 
4 5813 5814 5789 5788 
4 5814 5815 5790 5789 
4 5815 5816 5791 5790 
4 5816 5817 5792 5791 
4 5817 5818 5793 5792 
4 5818 5819 5794 5793 
4 5819 5820 5795 5794 
4 5820 5821 5822 5795 
4 5823 5824 5797 5796 
4 5824 5825 5798 5797 
4 5825 5826 5799 5798 
4 5826 5827 5800 5799 
4 5827 5828 5801 5800 
4 5828 5829 5802 5801 
4 5829 5830 5803 5802 
4 5830 5831 5804 5803 
4 5831 5832 5805 5804 
4 5832 5833 5806 5805 
4 5833 5834 5807 5806 
4 5834 5835 5808 5807 
4 5835 5836 5809 5808 
4 5837 5838 5811 5810 
4 5838 5839 5812 5811 
4 5839 5840 5813 5812 
4 5840 5841 5814 5813 
4 5841 5842 5815 5814 
4 5842 5843 5816 5815 
4 5843 5844 5817 5816 
4 5844 5845 5818 5817 
4 5845 5846 5819 5818 
4 5846 5847 5820 5819 
4 5847 5848 5821 5820 
4 5849 5850 5824 5823 
4 5850 5851 5825 5824 
4 5851 5852 5826 5825 
4 5852 5853 5827 5826 
4 5853 5854 5828 5827 
4 5854 5855 5829 5828 
4 5855 5856 5830 5829 
4 5856 5857 5831 5830 
4 5857 5858 5832 5831 
4 5858 5859 5833 5832 
4 5859 5860 5834 5833 
4 5860 5861 5835 5834 
4 5861 5862 5836 5835 
4 5863 5864 5838 5837 
4 5864 5865 5839 5838 
4 5865 5866 5840 5839 
4 5866 5867 5841 5840 
4 5867 5868 5842 5841 
4 5868 5869 5843 5842 
4 5869 5870 5844 5843 
4 5870 5871 5845 5844 
4 5871 5872 5846 5845 
4 5872 5873 5847 5846 
4 5873 5874 5848 5847 
4 5874 5875 5876 5848 
4 5878 5879 5849 5877 
4 5879 5880 5850 5849 
4 5880 5881 5851 5850 
4 5881 5882 5852 5851 
4 5882 5883 5853 5852 
4 5883 5884 5854 5853 
4 5884 5885 5855 5854 
4 5885 5886 5856 5855 
4 5886 5887 5857 5856 
4 5887 5888 5858 5857 
4 5888 5889 5859 5858 
4 5889 5890 5860 5859 
4 5890 5891 5861 5860 
4 5891 5892 5862 5861 
4 5893 5894 5864 5863 
4 5894 5895 5865 5864 
4 5895 5896 5866 5865 
4 5896 5897 5867 5866 
4 5897 5898 5868 5867 
4 5898 5899 5869 5868 
4 5899 5900 5870 5869 
4 5900 5901 5871 5870 
4 5901 5902 5872 5871 
4 5902 5903 5873 5872 
4 5903 5904 5874 5873 
4 5904 5905 5875 5874 
4 5905 5906 5907 5875 
4 5908 5909 5879 5878 
4 5909 5910 5880 5879 
4 5910 5911 5881 5880 
4 5911 5912 5882 5881 
4 5912 5913 5883 5882 
4 5913 5914 5884 5883 
4 5914 5915 5885 5884 
4 5915 5916 5886 5885 
4 5916 5917 5887 5886 
4 5917 5918 5888 5887 
4 5918 5919 5889 5888 
4 5919 5920 5890 5889 
4 5920 5921 5891 5890 
4 5923 5924 5893 5922 
4 5924 5925 5894 5893 
4 5925 5926 5895 5894 
4 5926 5927 5896 5895 
4 5927 5928 5897 5896 
4 5928 5929 5898 5897 
4 5929 5930 5899 5898 
4 5930 5931 5900 5899 
4 5931 5932 5901 5900 
4 5932 5933 5902 5901 
4 5933 5934 5903 5902 
4 5934 5935 5904 5903 
4 5935 5936 5905 5904 
4 5936 5937 5906 5905 
4 5939 5940 5908 5938 
4 5940 5941 5909 5908 
4 5941 5942 5910 5909 
4 5942 5943 5911 5910 
4 5943 5944 5912 5911 
4 5944 5945 5913 5912 
4 5945 5946 5914 5913 
4 5946 5947 5915 5914 
4 5947 5948 5916 5915 
4 5948 5949 5917 5916 
4 5949 5950 5918 5917 
4 5950 5951 5919 5918 
4 5951 5952 5920 5919 
4 5952 5953 5921 5920 
4 5954 5955 5924 5923 
4 5955 5956 5925 5924 
4 5956 5957 5926 5925 
4 5957 5958 5927 5926 
4 5958 5959 5928 5927 
4 5959 5960 5929 5928 
4 5960 5961 5930 5929 
4 5961 5962 5931 5930 
4 5962 5963 5932 5931 
4 5963 5964 5933 5932 
4 5964 5965 5934 5933 
4 5965 5966 5935 5934 
4 5966 5967 5936 5935 
4 5967 5968 5937 5936 
4 5968 5969 5970 5937 
4 5972 5973 5939 5971 
4 5973 5974 5940 5939 
4 5974 5975 5941 5940 
4 5975 5976 5942 5941 
4 5976 5977 5943 5942 
4 5977 5978 5944 5943 
4 5978 5979 5945 5944 
4 5979 5980 5946 5945 
4 5980 5981 5947 5946 
4 5981 5982 5948 5947 
4 5982 5983 5949 5948 
4 5983 5984 5950 5949 
4 5984 5985 5951 5950 
4 5985 5986 5952 5951 
4 5986 5987 5953 5952 
4 5988 5989 5955 5954 
4 5989 5990 5956 5955 
4 5990 5991 5957 5956 
4 5991 5992 5958 5957 
4 5992 5993 5959 5958 
4 5993 5994 5960 5959 
4 5994 5995 5961 5960 
4 5995 5996 5962 5961 
4 5996 5997 5963 5962 
4 5997 5998 5964 5963 
4 5998 5999 5965 5964 
4 5999 6000 5966 5965 
4 6000 6001 5967 5966 
4 6001 6002 5968 5967 
4 6002 6003 5969 5968 
4 6003 6004 6005 5969 
4 6004 6006 6007 6005 
4 6009 6010 5972 6008 
4 6010 6011 5973 5972 
4 6011 6012 5974 5973 
4 6012 6013 5975 5974 
4 6013 6014 5976 5975 
4 6014 6015 5977 5976 
4 6015 6016 5978 5977 
4 6016 6017 5979 5978 
4 6017 6018 5980 5979 
4 6018 6019 5981 5980 
4 6019 6020 5982 5981 
4 6020 6021 5983 5982 
4 6021 6022 5984 5983 
4 6022 6023 5985 5984 
4 6023 6024 5986 5985 
4 6024 6025 5987 5986 
4 6026 6027 5989 5988 
4 6027 6028 5990 5989 
4 6028 6029 5991 5990 
4 6029 6030 5992 5991 
4 6030 6031 5993 5992 
4 6031 6032 5994 5993 
4 6032 6033 5995 5994 
4 6033 6034 5996 5995 
4 6034 6035 5997 5996 
4 6035 6036 5998 5997 
4 6036 6037 5999 5998 
4 6037 6038 6000 5999 
4 6038 6039 6001 6000 
4 6039 6040 6002 6001 
4 6040 6041 6003 6002 
4 6041 6042 6004 6003 
4 6042 6043 6006 6004 
4 6043 6044 6045 6006 
4 6044 6046 6047 6045 
4 6049 6050 6009 6048 
4 6050 6051 6010 6009 
4 6051 6052 6011 6010 
4 6052 6053 6012 6011 
4 6053 6054 6013 6012 
4 6054 6055 6014 6013 
4 6055 6056 6015 6014 
4 6056 6057 6016 6015 
4 6057 6058 6017 6016 
4 6058 6059 6018 6017 
4 6059 6060 6019 6018 
4 6060 6061 6020 6019 
4 6061 6062 6021 6020 
4 6062 6063 6022 6021 
4 6063 6064 6023 6022 
4 6064 6065 6024 6023 
4 6065 6066 6025 6024 
4 6067 6068 6027 6026 
4 6068 6069 6028 6027 
4 6069 6070 6029 6028 
4 6070 6071 6030 6029 
4 6071 6072 6031 6030 
4 6072 6073 6032 6031 
4 6073 6074 6033 6032 
4 6074 6075 6034 6033 
4 6075 6076 6035 6034 
4 6076 6077 6036 6035 
4 6077 6078 6037 6036 
4 6078 6079 6038 6037 
4 6079 6080 6039 6038 
4 6080 6081 6040 6039 
4 6081 6082 6041 6040 
4 6082 6083 6042 6041 
4 6083 6084 6043 6042 
4 6084 6085 6044 6043 
4 6085 6086 6046 6044 
4 6086 6087 6088 6046 
4 6087 6089 6090 6088 
4 6089 6091 6092 6090 
4 6091 6093 6094 6092 
4 6093 6095 6096 6094 
4 6098 6099 6100 6097 
4 6099 6101 6049 6100 
4 6101 6102 6050 6049 
4 6102 6103 6051 6050 
4 6103 6104 6052 6051 
4 6104 6105 6053 6052 
4 6105 6106 6054 6053 
4 6106 6107 6055 6054 
4 6107 6108 6056 6055 
4 6108 6109 6057 6056 
4 6109 6110 6058 6057 
4 6110 6111 6059 6058 
4 6111 6112 6060 6059 
4 6112 6113 6061 6060 
4 6113 6114 6062 6061 
4 6114 6115 6063 6062 
4 6115 6116 6064 6063 
4 6116 6117 6065 6064 
4 6117 6118 6066 6065 
4 6120 6121 6067 6119 
4 6121 6122 6068 6067 
4 6122 6123 6069 6068 
4 6123 6124 6070 6069 
4 6124 6125 6071 6070 
4 6125 6126 6072 6071 
4 6126 6127 6073 6072 
4 6127 6128 6074 6073 
4 6128 6129 6075 6074 
4 6129 6130 6076 6075 
4 6130 6131 6077 6076 
4 6131 6132 6078 6077 
4 6132 6133 6079 6078 
4 6133 6134 6080 6079 
4 6134 6135 6081 6080 
4 6135 6136 6082 6081 
4 6136 6137 6083 6082 
4 6137 6138 6084 6083 
4 6138 6139 6085 6084 
4 6139 6140 6086 6085 
4 6140 6141 6087 6086 
4 6141 6142 6089 6087 
4 6142 6143 6091 6089 
4 6143 6144 6093 6091 
4 6144 6145 6095 6093 
4 6145 6146 6147 6095 
4 6146 6148 6149 6147 
4 6148 6150 6151 6149 
4 6150 6152 6153 6151 
4 6152 6154 6155 6153 
4 6154 6156 6157 6155 
4 6156 6158 6159 6157 
4 6158 6160 6161 6159 
4 6160 6162 6163 6161 
4 6162 6164 6165 6163 
4 6164 6166 6167 6165 
4 6166 6168 6098 6167 
4 6168 6169 6099 6098 
4 6169 6170 6101 6099 
4 6170 6171 6102 6101 
4 6171 6172 6103 6102 
4 6172 6173 6104 6103 
4 6173 6174 6105 6104 
4 6174 6175 6106 6105 
4 6175 6176 6107 6106 
4 6176 6177 6108 6107 
4 6177 6178 6109 6108 
4 6178 6179 6110 6109 
4 6179 6180 6111 6110 
4 6180 6181 6112 6111 
4 6181 6182 6113 6112 
4 6182 6183 6114 6113 
4 6183 6184 6115 6114 
4 6184 6185 6116 6115 
4 6185 6186 6117 6116 
4 6186 6187 6118 6117 
4 6188 6189 6121 6120 
4 6189 6190 6122 6121 
4 6190 6191 6123 6122 
4 6191 6192 6124 6123 
4 6192 6193 6125 6124 
4 6193 6194 6126 6125 
4 6194 6195 6127 6126 
4 6195 6196 6128 6127 
4 6196 6197 6129 6128 
4 6197 6198 6130 6129 
4 6198 6199 6131 6130 
4 6199 6200 6132 6131 
4 6200 6201 6133 6132 
4 6201 6202 6134 6133 
4 6202 6203 6135 6134 
4 6203 6204 6136 6135 
4 6204 6205 6137 6136 
4 6205 6206 6138 6137 
4 6206 6207 6139 6138 
4 6207 6208 6140 6139 
4 6208 6209 6141 6140 
4 6209 6210 6142 6141 
4 6210 6211 6143 6142 
4 6211 6212 6144 6143 
4 6212 6213 6145 6144 
4 6213 6214 6146 6145 
4 6214 6215 6148 6146 
4 6215 6216 6150 6148 
4 6216 6217 6152 6150 
4 6217 6218 6154 6152 
4 6218 6219 6156 6154 
4 6219 6220 6158 6156 
4 6220 6221 6160 6158 
4 6221 6222 6162 6160 
4 6222 6223 6164 6162 
4 6223 6224 6166 6164 
4 6224 6225 6168 6166 
4 6225 6226 6169 6168 
4 6226 6227 6170 6169 
4 6227 6228 6171 6170 
4 6228 6229 6172 6171 
4 6229 6230 6173 6172 
4 6230 6231 6174 6173 
4 6231 6232 6175 6174 
4 6232 6233 6176 6175 
4 6233 6234 6177 6176 
4 6234 6235 6178 6177 
4 6235 6236 6179 6178 
4 6236 6237 6180 6179 
4 6237 6238 6181 6180 
4 6238 6239 6182 6181 
4 6239 6240 6183 6182 
4 6240 6241 6184 6183 
4 6241 6242 6185 6184 
4 6242 6243 6186 6185 
4 6243 6244 6187 6186 
4 6245 6246 6189 6188 
4 6246 6247 6190 6189 
4 6247 6248 6191 6190 
4 6248 6249 6192 6191 
4 6249 6250 6193 6192 
4 6250 6251 6194 6193 
4 6251 6252 6195 6194 
4 6252 6253 6196 6195 
4 6253 6254 6197 6196 
4 6254 6255 6198 6197 
4 6255 6256 6199 6198 
4 6256 6257 6200 6199 
4 6257 6258 6201 6200 
4 6258 6259 6202 6201 
4 6259 6260 6203 6202 
4 6260 6261 6204 6203 
4 6261 6262 6205 6204 
4 6262 6263 6206 6205 
4 6263 6264 6207 6206 
4 6264 6265 6208 6207 
4 6265 6266 6209 6208 
4 6266 6267 6210 6209 
4 6267 6268 6211 6210 
4 6268 6269 6212 6211 
4 6269 6270 6213 6212 
4 6270 6271 6214 6213 
4 6271 6272 6215 6214 
4 6272 6273 6216 6215 
4 6273 6274 6217 6216 
4 6274 6275 6218 6217 
4 6275 6276 6219 6218 
4 6276 6277 6220 6219 
4 6277 6278 6221 6220 
4 6278 6279 6222 6221 
4 6279 6280 6223 6222 
4 6280 6281 6224 6223 
4 6281 6282 6225 6224 
4 6282 6283 6226 6225 
4 6283 6284 6227 6226 
4 6284 6285 6228 6227 
4 6285 6286 6229 6228 
4 6286 6287 6230 6229 
4 6287 6288 6231 6230 
4 6288 6289 6232 6231 
4 6289 6290 6233 6232 
4 6290 6291 6234 6233 
4 6291 6292 6235 6234 
4 6292 6293 6236 6235 
4 6293 6294 6237 6236 
4 6294 6295 6238 6237 
4 6295 6296 6239 6238 
4 6296 6297 6240 6239 
4 6297 6298 6241 6240 
4 6298 6299 6242 6241 
4 6299 6300 6243 6242 
4 6300 6301 6244 6243 
4 6301 6302 6303 6244 
4 6304 6305 6246 6245 
4 6305 6306 6247 6246 
4 6306 6307 6248 6247 
4 6307 6308 6249 6248 
4 6308 6309 6250 6249 
4 6309 6310 6251 6250 
4 6310 6311 6252 6251 
4 6311 6312 6253 6252 
4 6312 6313 6254 6253 
4 6313 6314 6255 6254 
4 6314 6315 6256 6255 
4 6315 6316 6257 6256 
4 6316 6317 6258 6257 
4 6317 6318 6259 6258 
4 6318 6319 6260 6259 
4 6319 6320 6261 6260 
4 6320 6321 6262 6261 
4 6321 6322 6263 6262 
4 6322 6323 6264 6263 
4 6323 6324 6265 6264 
4 6324 6325 6266 6265 
4 6325 6326 6267 6266 
4 6326 6327 6268 6267 
4 6327 6328 6269 6268 
4 6328 6329 6270 6269 
4 6329 6330 6271 6270 
4 6330 6331 6272 6271 
4 6331 6332 6273 6272 
4 6332 6333 6274 6273 
4 6333 6334 6275 6274 
4 6334 6335 6276 6275 
4 6335 6336 6277 6276 
4 6336 6337 6278 6277 
4 6337 6338 6279 6278 
4 6338 6339 6280 6279 
4 6339 6340 6281 6280 
4 6340 6341 6282 6281 
4 6341 6342 6283 6282 
4 6342 6343 6284 6283 
4 6343 6344 6285 6284 
4 6344 6345 6286 6285 
4 6345 6346 6287 6286 
4 6346 6347 6288 6287 
4 6347 6348 6289 6288 
4 6348 6349 6290 6289 
4 6349 6350 6291 6290 
4 6350 6351 6292 6291 
4 6351 6352 6293 6292 
4 6352 6353 6294 6293 
4 6353 6354 6295 6294 
4 6354 6355 6296 6295 
4 6355 6356 6297 6296 
4 6356 6357 6298 6297 
4 6357 6358 6299 6298 
4 6358 6359 6300 6299 
4 6359 6360 6301 6300 
4 6360 6361 6302 6301 
4 6362 6363 6305 6304 
4 6363 6364 6306 6305 
4 6364 6365 6307 6306 
4 6365 6366 6308 6307 
4 6366 6367 6309 6308 
4 6367 6368 6310 6309 
4 6368 6369 6311 6310 
4 6369 6370 6312 6311 
4 6370 6371 6313 6312 
4 6371 6372 6314 6313 
4 6372 6373 6315 6314 
4 6373 6374 6316 6315 
4 6374 6375 6317 6316 
4 6375 6376 6318 6317 
4 6376 6377 6319 6318 
4 6377 6378 6320 6319 
4 6378 6379 6321 6320 
4 6379 6380 6322 6321 
4 6380 6381 6323 6322 
4 6381 6382 6324 6323 
4 6382 6383 6325 6324 
4 6383 6384 6326 6325 
4 6384 6385 6327 6326 
4 6385 6386 6328 6327 
4 6386 6387 6329 6328 
4 6387 6388 6330 6329 
4 6388 6389 6331 6330 
4 6389 6390 6332 6331 
4 6390 6391 6333 6332 
4 6391 6392 6334 6333 
4 6392 6393 6335 6334 
4 6393 6394 6336 6335 
4 6394 6395 6337 6336 
4 6395 6396 6338 6337 
4 6396 6397 6339 6338 
4 6397 6398 6340 6339 
4 6398 6399 6341 6340 
4 6399 6400 6342 6341 
4 6400 6401 6343 6342 
4 6401 6402 6344 6343 
4 6402 6403 6345 6344 
4 6403 6404 6346 6345 
4 6404 6405 6347 6346 
4 6405 6406 6348 6347 
4 6406 6407 6349 6348 
4 6407 6408 6350 6349 
4 6408 6409 6351 6350 
4 6409 6410 6352 6351 
4 6410 6411 6353 6352 
4 6411 6412 6354 6353 
4 6412 6413 6355 6354 
4 6413 6414 6356 6355 
4 6414 6415 6357 6356 
4 6415 6416 6358 6357 
4 6416 6417 6359 6358 
4 6417 6418 6360 6359 
4 6418 6419 6361 6360 
4 6420 6421 6363 6362 
4 6421 6422 6364 6363 
4 6422 6423 6365 6364 
4 6423 6424 6366 6365 
4 6424 6425 6367 6366 
4 6425 6426 6368 6367 
4 6426 6427 6369 6368 
4 6427 6428 6370 6369 
4 6428 6429 6371 6370 
4 6429 6430 6372 6371 
4 6430 6431 6373 6372 
4 6431 6432 6374 6373 
4 6432 6433 6375 6374 
4 6433 6434 6376 6375 
4 6434 6435 6377 6376 
4 6435 6436 6378 6377 
4 6436 6437 6379 6378 
4 6437 6438 6380 6379 
4 6438 6439 6381 6380 
4 6439 6440 6382 6381 
4 6440 6441 6383 6382 
4 6441 6442 6384 6383 
4 6442 6443 6385 6384 
4 6443 6444 6386 6385 
4 6444 6445 6387 6386 
4 6445 6446 6388 6387 
4 6446 6447 6389 6388 
4 6447 6448 6390 6389 
4 6449 6450 6395 6394 
4 6450 6451 6396 6395 
4 6451 6452 6397 6396 
4 6452 6453 6398 6397 
4 6453 6454 6399 6398 
4 6454 6455 6400 6399 
4 6455 6456 6401 6400 
4 6456 6457 6402 6401 
4 6457 6458 6403 6402 
4 6458 6459 6404 6403 
4 6459 6460 6405 6404 
4 6460 6461 6406 6405 
4 6461 6462 6407 6406 
4 6462 6463 6408 6407 
4 6463 6464 6409 6408 
4 6464 6465 6410 6409 
4 6465 6466 6411 6410 
4 6466 6467 6412 6411 
4 6467 6468 6413 6412 
4 6468 6469 6414 6413 
4 6469 6470 6415 6414 
4 6470 6471 6416 6415 
4 6471 6472 6417 6416 
4 6472 6473 6418 6417 
4 6474 6475 6421 6420 
4 6475 6476 6422 6421 
4 6476 6477 6423 6422 
4 6477 6478 6424 6423 
4 6478 6479 6425 6424 
4 6479 6480 6426 6425 
4 6480 6481 6427 6426 
4 6481 6482 6428 6427 
4 6482 6483 6429 6428 
4 6483 6484 6430 6429 
4 6484 6485 6431 6430 
4 6485 6486 6432 6431 
4 6486 6487 6433 6432 
4 6487 6488 6434 6433 
4 6488 6489 6435 6434 
4 6489 6490 6436 6435 
4 6490 6491 6437 6436 
4 6491 6492 6438 6437 
4 6492 6493 6439 6438 
4 6493 6494 6440 6439 
4 6494 6495 6441 6440 
4 6495 6496 6442 6441 
4 6496 6497 6443 6442 
4 6497 6498 6444 6443 
4 6498 6499 6445 6444 
4 6500 6501 6452 6451 
4 6501 6502 6453 6452 
4 6502 6503 6454 6453 
4 6503 6504 6455 6454 
4 6504 6505 6456 6455 
4 6505 6506 6457 6456 
4 6506 6507 6458 6457 
4 6507 6508 6459 6458 
4 6508 6509 6460 6459 
4 6509 6510 6461 6460 
4 6510 6511 6462 6461 
4 6511 6512 6463 6462 
4 6512 6513 6464 6463 
4 6513 6514 6465 6464 
4 6514 6515 6466 6465 
4 6515 6516 6467 6466 
4 6516 6517 6468 6467 
4 6517 6518 6469 6468 
4 6518 6519 6470 6469 
4 6519 6520 6471 6470 
4 6520 6521 6472 6471 
4 6521 6522 6473 6472 
4 6523 6524 6475 6474 
4 6524 6525 6476 6475 
4 6525 6526 6477 6476 
4 6526 6527 6478 6477 
4 6527 6528 6479 6478 
4 6528 6529 6480 6479 
4 6529 6530 6481 6480 
4 6530 6531 6482 6481 
4 6531 6532 6483 6482 
4 6532 6533 6484 6483 
4 6533 6534 6485 6484 
4 6534 6535 6486 6485 
4 6535 6536 6487 6486 
4 6536 6537 6488 6487 
4 6537 6538 6489 6488 
4 6538 6539 6490 6489 
4 6539 6540 6491 6490 
4 6540 6541 6492 6491 
4 6541 6542 6493 6492 
4 6542 6543 6494 6493 
4 6543 6544 6495 6494 
4 6544 6545 6496 6495 
4 6545 6546 6497 6496 
4 6546 6547 6498 6497 
4 6548 6549 6502 6501 
4 6549 6550 6503 6502 
4 6550 6551 6504 6503 
4 6551 6552 6505 6504 
4 6552 6553 6506 6505 
4 6553 6554 6507 6506 
4 6554 6555 6508 6507 
4 6555 6556 6509 6508 
4 6556 6557 6510 6509 
4 6557 6558 6511 6510 
4 6558 6559 6512 6511 
4 6559 6560 6513 6512 
4 6560 6561 6514 6513 
4 6561 6562 6515 6514 
4 6562 6563 6516 6515 
4 6563 6564 6517 6516 
4 6564 6565 6518 6517 
4 6565 6566 6519 6518 
4 6566 6567 6520 6519 
4 6567 6568 6521 6520 
4 6568 6569 6522 6521 
4 6570 6571 6524 6523 
4 6571 6572 6525 6524 
4 6572 6573 6526 6525 
4 6573 6574 6527 6526 
4 6574 6575 6528 6527 
4 6575 6576 6529 6528 
4 6576 6577 6530 6529 
4 6577 6578 6531 6530 
4 6578 6579 6532 6531 
4 6579 6580 6533 6532 
4 6580 6581 6534 6533 
4 6581 6582 6535 6534 
4 6582 6583 6536 6535 
4 6583 6584 6537 6536 
4 6584 6585 6538 6537 
4 6585 6586 6539 6538 
4 6586 6587 6540 6539 
4 6587 6588 6541 6540 
4 6588 6589 6542 6541 
4 6589 6590 6543 6542 
4 6590 6591 6544 6543 
4 6591 6592 6545 6544 
4 6592 6593 6546 6545 
4 6593 6594 6547 6546 
4 6595 6596 6550 6549 
4 6596 6597 6551 6550 
4 6597 6598 6552 6551 
4 6598 6599 6553 6552 
4 6599 6600 6554 6553 
4 6600 6601 6555 6554 
4 6601 6602 6556 6555 
4 6602 6603 6557 6556 
4 6603 6604 6558 6557 
4 6604 6605 6559 6558 
4 6605 6606 6560 6559 
4 6606 6607 6561 6560 
4 6607 6608 6562 6561 
4 6608 6609 6563 6562 
4 6609 6610 6564 6563 
4 6610 6611 6565 6564 
4 6611 6612 6566 6565 
4 6612 6613 6567 6566 
4 6613 6614 6568 6567 
4 6614 6615 6569 6568 
4 6616 6617 6571 6570 
4 6617 6618 6572 6571 
4 6618 6619 6573 6572 
4 6619 6620 6574 6573 
4 6620 6621 6575 6574 
4 6621 6622 6576 6575 
4 6622 6623 6577 6576 
4 6623 6624 6578 6577 
4 6624 6625 6579 6578 
4 6625 6626 6580 6579 
4 6626 6627 6581 6580 
4 6627 6628 6582 6581 
4 6628 6629 6583 6582 
4 6629 6630 6584 6583 
4 6630 6631 6585 6584 
4 6631 6632 6586 6585 
4 6632 6633 6587 6586 
4 6633 6634 6588 6587 
4 6634 6635 6589 6588 
4 6635 6636 6590 6589 
4 6636 6637 6591 6590 
4 6637 6638 6592 6591 
4 6638 6639 6593 6592 
4 6639 6640 6594 6593 
4 6641 6642 6597 6596 
4 6642 6643 6598 6597 
4 6643 6644 6599 6598 
4 6644 6645 6600 6599 
4 6645 6646 6601 6600 
4 6646 6647 6602 6601 
4 6647 6648 6603 6602 
4 6648 6649 6604 6603 
4 6649 6650 6605 6604 
4 6650 6651 6606 6605 
4 6651 6652 6607 6606 
4 6652 6653 6608 6607 
4 6653 6654 6609 6608 
4 6654 6655 6610 6609 
4 6655 6656 6611 6610 
4 6656 6657 6612 6611 
4 6657 6658 6613 6612 
4 6658 6659 6614 6613 
4 6659 6660 6615 6614 
4 6661 6662 6617 6616 
4 6662 6663 6618 6617 
4 6663 6664 6619 6618 
4 6664 6665 6620 6619 
4 6665 6666 6621 6620 
4 6666 6667 6622 6621 
4 6667 6668 6623 6622 
4 6668 6669 6624 6623 
4 6669 6670 6625 6624 
4 6670 6671 6626 6625 
4 6671 6672 6627 6626 
4 6672 6673 6628 6627 
4 6673 6674 6629 6628 
4 6674 6675 6630 6629 
4 6675 6676 6631 6630 
4 6676 6677 6632 6631 
4 6677 6678 6633 6632 
4 6678 6679 6634 6633 
4 6679 6680 6635 6634 
4 6680 6681 6636 6635 
4 6681 6682 6637 6636 
4 6682 6683 6638 6637 
4 6683 6684 6639 6638 
4 6684 6685 6640 6639 
4 6686 6687 6642 6641 
4 6687 6688 6643 6642 
4 6688 6689 6644 6643 
4 6689 6690 6645 6644 
4 6690 6691 6646 6645 
4 6691 6692 6647 6646 
4 6692 6693 6648 6647 
4 6693 6694 6649 6648 
4 6694 6695 6650 6649 
4 6695 6696 6651 6650 
4 6696 6697 6652 6651 
4 6697 6698 6653 6652 
4 6698 6699 6654 6653 
4 6699 6700 6655 6654 
4 6700 6701 6656 6655 
4 6701 6702 6657 6656 
4 6702 6703 6658 6657 
4 6703 6704 6659 6658 
4 6704 6705 6660 6659 
4 6706 6707 6662 6661 
4 6707 6708 6663 6662 
4 6708 6709 6664 6663 
4 6709 6710 6665 6664 
4 6710 6711 6666 6665 
4 6711 6712 6667 6666 
4 6712 6713 6668 6667 
4 6713 6714 6669 6668 
4 6714 6715 6670 6669 
4 6715 6716 6671 6670 
4 6716 6717 6672 6671 
4 6717 6718 6673 6672 
4 6718 6719 6674 6673 
4 6719 6720 6675 6674 
4 6720 6721 6676 6675 
4 6721 6722 6677 6676 
4 6722 6723 6678 6677 
4 6723 6724 6679 6678 
4 6724 6725 6680 6679 
4 6725 6726 6681 6680 
4 6726 6727 6682 6681 
4 6727 6728 6683 6682 
4 6728 6729 6684 6683 
4 6729 6730 6685 6684 
4 6732 6733 6686 6731 
4 6733 6734 6687 6686 
4 6734 6735 6688 6687 
4 6735 6736 6689 6688 
4 6736 6737 6690 6689 
4 6737 6738 6691 6690 
4 6738 6739 6692 6691 
4 6739 6740 6693 6692 
4 6740 6741 6694 6693 
4 6741 6742 6695 6694 
4 6742 6743 6696 6695 
4 6743 6744 6697 6696 
4 6744 6745 6698 6697 
4 6745 6746 6699 6698 
4 6746 6747 6700 6699 
4 6747 6748 6701 6700 
4 6748 6749 6702 6701 
4 6749 6750 6703 6702 
4 6750 6751 6704 6703 
4 6751 6752 6705 6704 
4 6753 6754 6707 6706 
4 6754 6755 6708 6707 
4 6755 6756 6709 6708 
4 6756 6757 6710 6709 
4 6757 6758 6711 6710 
4 6758 6759 6712 6711 
4 6759 6760 6713 6712 
4 6760 6761 6714 6713 
4 6761 6762 6715 6714 
4 6762 6763 6716 6715 
4 6763 6764 6717 6716 
4 6764 6765 6718 6717 
4 6765 6766 6719 6718 
4 6766 6767 6720 6719 
4 6767 6768 6721 6720 
4 6768 6769 6722 6721 
4 6769 6770 6723 6722 
4 6770 6771 6724 6723 
4 6771 6772 6725 6724 
4 6772 6773 6726 6725 
4 6773 6774 6727 6726 
4 6774 6775 6728 6727 
4 6775 6776 6729 6728 
4 6776 6777 6730 6729 
4 6777 6778 6779 6730 
4 6780 6781 6733 6732 
4 6781 6782 6734 6733 
4 6782 6783 6735 6734 
4 6783 6784 6736 6735 
4 6784 6785 6737 6736 
4 6785 6786 6738 6737 
4 6786 6787 6739 6738 
4 6787 6788 6740 6739 
4 6788 6789 6741 6740 
4 6789 6790 6742 6741 
4 6790 6791 6743 6742 
4 6791 6792 6744 6743 
4 6792 6793 6745 6744 
4 6793 6794 6746 6745 
4 6794 6795 6747 6746 
4 6795 6796 6748 6747 
4 6796 6797 6749 6748 
4 6797 6798 6750 6749 
4 6798 6799 6751 6750 
4 6799 6800 6752 6751 
4 6801 6802 6754 6753 
4 6802 6803 6755 6754 
4 6803 6804 6756 6755 
4 6804 6805 6757 6756 
4 6805 6806 6758 6757 
4 6806 6807 6759 6758 
4 6807 6808 6760 6759 
4 6808 6809 6761 6760 
4 6809 6810 6762 6761 
4 6810 6811 6763 6762 
4 6811 6812 6764 6763 
4 6812 6813 6765 6764 
4 6813 6814 6766 6765 
4 6814 6815 6767 6766 
4 6815 6816 6768 6767 
4 6816 6817 6769 6768 
4 6817 6818 6770 6769 
4 6818 6819 6771 6770 
4 6819 6820 6772 6771 
4 6820 6821 6773 6772 
4 6821 6822 6774 6773 
4 6822 6823 6775 6774 
4 6823 6824 6776 6775 
4 6824 6825 6777 6776 
4 6825 6826 6778 6777 
4 6826 6827 6828 6778 
4 6829 6830 6781 6780 
4 6830 6831 6782 6781 
4 6831 6832 6783 6782 
4 6832 6833 6784 6783 
4 6833 6834 6785 6784 
4 6834 6835 6786 6785 
4 6835 6836 6787 6786 
4 6836 6837 6788 6787 
4 6837 6838 6789 6788 
4 6838 6839 6790 6789 
4 6839 6840 6791 6790 
4 6840 6841 6792 6791 
4 6841 6842 6793 6792 
4 6842 6843 6794 6793 
4 6843 6844 6795 6794 
4 6844 6845 6796 6795 
4 6845 6846 6797 6796 
4 6846 6847 6798 6797 
4 6847 6848 6799 6798 
4 6849 6850 6802 6801 
4 6850 6851 6803 6802 
4 6851 6852 6804 6803 
4 6852 6853 6805 6804 
4 6853 6854 6806 6805 
4 6854 6855 6807 6806 
4 6855 6856 6808 6807 
4 6856 6857 6809 6808 
4 6857 6858 6810 6809 
4 6858 6859 6811 6810 
4 6859 6860 6812 6811 
4 6860 6861 6813 6812 
4 6861 6862 6814 6813 
4 6862 6863 6815 6814 
4 6863 6864 6816 6815 
4 6864 6865 6817 6816 
4 6865 6866 6818 6817 
4 6866 6867 6819 6818 
4 6867 6868 6820 6819 
4 6868 6869 6821 6820 
4 6869 6870 6822 6821 
4 6870 6871 6823 6822 
4 6871 6872 6824 6823 
4 6872 6873 6825 6824 
4 6873 6874 6826 6825 
4 6874 6875 6827 6826 
4 6875 6876 6877 6827 
4 6879 6880 6829 6878 
4 6880 6881 6830 6829 
4 6881 6882 6831 6830 
4 6882 6883 6832 6831 
4 6883 6884 6833 6832 
4 6884 6885 6834 6833 
4 6885 6886 6835 6834 
4 6886 6887 6836 6835 
4 6887 6888 6837 6836 
4 6888 6889 6838 6837 
4 6889 6890 6839 6838 
4 6890 6891 6840 6839 
4 6891 6892 6841 6840 
4 6892 6893 6842 6841 
4 6893 6894 6843 6842 
4 6894 6895 6844 6843 
4 6895 6896 6845 6844 
4 6896 6897 6846 6845 
4 6897 6898 6847 6846 
4 6899 6900 6850 6849 
4 6900 6901 6851 6850 
4 6901 6902 6852 6851 
4 6902 6903 6853 6852 
4 6903 6904 6854 6853 
4 6904 6905 6855 6854 
4 6905 6906 6856 6855 
4 6906 6907 6857 6856 
4 6907 6908 6858 6857 
4 6908 6909 6859 6858 
4 6909 6910 6860 6859 
4 6910 6911 6861 6860 
4 6911 6912 6862 6861 
4 6912 6913 6863 6862 
4 6913 6914 6864 6863 
4 6914 6915 6865 6864 
4 6915 6916 6866 6865 
4 6916 6917 6867 6866 
4 6917 6918 6868 6867 
4 6918 6919 6869 6868 
4 6919 6920 6870 6869 
4 6920 6921 6871 6870 
4 6921 6922 6872 6871 
4 6922 6923 6873 6872 
4 6923 6924 6874 6873 
4 6924 6925 6875 6874 
4 6925 6926 6876 6875 
4 6926 6927 6928 6876 
4 6929 6930 6880 6879 
4 6930 6931 6881 6880 
4 6931 6932 6882 6881 
4 6932 6933 6883 6882 
4 6933 6934 6884 6883 
4 6934 6935 6885 6884 
4 6935 6936 6886 6885 
4 6936 6937 6887 6886 
4 6937 6938 6888 6887 
4 6938 6939 6889 6888 
4 6939 6940 6890 6889 
4 6940 6941 6891 6890 
4 6941 6942 6892 6891 
4 6942 6943 6893 6892 
4 6943 6944 6894 6893 
4 6944 6945 6895 6894 
4 6945 6946 6896 6895 
4 6946 6947 6897 6896 
4 6947 6948 6898 6897 
4 6949 6950 6900 6899 
4 6950 6951 6901 6900 
4 6951 6952 6902 6901 
4 6952 6953 6903 6902 
4 6953 6954 6904 6903 
4 6954 6955 6905 6904 
4 6955 6956 6906 6905 
4 6956 6957 6907 6906 
4 6957 6958 6908 6907 
4 6958 6959 6909 6908 
4 6959 6960 6910 6909 
4 6960 6961 6911 6910 
4 6961 6962 6912 6911 
4 6962 6963 6913 6912 
4 6963 6964 6914 6913 
4 6964 6965 6915 6914 
4 6965 6966 6916 6915 
4 6966 6967 6917 6916 
4 6967 6968 6918 6917 
4 6968 6969 6919 6918 
4 6969 6970 6920 6919 
4 6970 6971 6921 6920 
4 6971 6972 6922 6921 
4 6972 6973 6923 6922 
4 6973 6974 6924 6923 
4 6974 6975 6925 6924 
4 6975 6976 6926 6925 
4 6976 6977 6927 6926 
4 6977 6978 6979 6927 
4 6981 6982 6929 6980 
4 6982 6983 6930 6929 
4 6983 6984 6931 6930 
4 6984 6985 6932 6931 
4 6985 6986 6933 6932 
4 6986 6987 6934 6933 
4 6987 6988 6935 6934 
4 6988 6989 6936 6935 
4 6989 6990 6937 6936 
4 6990 6991 6938 6937 
4 6991 6992 6939 6938 
4 6992 6993 6940 6939 
4 6993 6994 6941 6940 
4 6994 6995 6942 6941 
4 6995 6996 6943 6942 
4 6996 6997 6944 6943 
4 6997 6998 6945 6944 
4 6998 6999 6946 6945 
4 6999 7000 6947 6946 
4 7001 7002 6950 6949 
4 7002 7003 6951 6950 
4 7003 7004 6952 6951 
4 7004 7005 6953 6952 
4 7005 7006 6954 6953 
4 7006 7007 6955 6954 
4 7007 7008 6956 6955 
4 7008 7009 6957 6956 
4 7009 7010 6958 6957 
4 7010 7011 6959 6958 
4 7011 7012 6960 6959 
4 7012 7013 6961 6960 
4 7013 7014 6962 6961 
4 7014 7015 6963 6962 
4 7015 7016 6964 6963 
4 7016 7017 6965 6964 
4 7017 7018 6966 6965 
4 7018 7019 6967 6966 
4 7019 7020 6968 6967 
4 7020 7021 6969 6968 
4 7021 7022 6970 6969 
4 7022 7023 6971 6970 
4 7023 7024 6972 6971 
4 7024 7025 6973 6972 
4 7025 7026 6974 6973 
4 7026 7027 6975 6974 
4 7027 7028 6976 6975 
4 7028 7029 6977 6976 
4 7029 7030 6978 6977 
4 7030 7031 7032 6978 
4 7031 7033 7034 7032 
4 7033 7035 7036 7034 
4 7035 7037 7038 7036 
4 7037 7039 6981 7038 
4 7039 7040 6982 6981 
4 7040 7041 6983 6982 
4 7041 7042 6984 6983 
4 7042 7043 6985 6984 
4 7043 7044 6986 6985 
4 7044 7045 6987 6986 
4 7045 7046 6988 6987 
4 7046 7047 6989 6988 
4 7047 7048 6990 6989 
4 7048 7049 6991 6990 
4 7049 7050 6992 6991 
4 7050 7051 6993 6992 
4 7051 7052 6994 6993 
4 7052 7053 6995 6994 
4 7053 7054 6996 6995 
4 7054 7055 6997 6996 
4 7055 7056 6998 6997 
4 7056 7057 6999 6998 
4 7057 7058 7000 6999 
4 7059 7060 7002 7001 
4 7060 7061 7003 7002 
4 7061 7062 7004 7003 
4 7062 7063 7005 7004 
4 7063 7064 7006 7005 
4 7064 7065 7007 7006 
4 7065 7066 7008 7007 
4 7066 7067 7009 7008 
4 7067 7068 7010 7009 
4 7068 7069 7011 7010 
4 7069 7070 7012 7011 
4 7070 7071 7013 7012 
4 7071 7072 7014 7013 
4 7072 7073 7015 7014 
4 7073 7074 7016 7015 
4 7074 7075 7017 7016 
4 7075 7076 7018 7017 
4 7076 7077 7019 7018 
4 7077 7078 7020 7019 
4 7078 7079 7021 7020 
4 7079 7080 7022 7021 
4 7080 7081 7023 7022 
4 7081 7082 7024 7023 
4 7082 7083 7025 7024 
4 7083 7084 7026 7025 
4 7084 7085 7027 7026 
4 7085 7086 7028 7027 
4 7086 7087 7029 7028 
4 7087 7088 7030 7029 
4 7088 7089 7031 7030 
4 7089 7090 7033 7031 
4 7090 7091 7035 7033 
4 7091 7092 7037 7035 
4 7092 7093 7039 7037 
4 7093 7094 7040 7039 
4 7094 7095 7041 7040 
4 7095 7096 7042 7041 
4 7096 7097 7043 7042 
4 7097 7098 7044 7043 
4 7098 7099 7045 7044 
4 7099 7100 7046 7045 
4 7100 7101 7047 7046 
4 7101 7102 7048 7047 
4 7102 7103 7049 7048 
4 7103 7104 7050 7049 
4 7104 7105 7051 7050 
4 7105 7106 7052 7051 
4 7106 7107 7053 7052 
4 7107 7108 7054 7053 
4 7108 7109 7055 7054 
4 7109 7110 7056 7055 
4 7110 7111 7057 7056 
4 7111 7112 7058 7057 
4 7112 7113 7114 7058 
4 7115 7116 7060 7059 
4 7116 7117 7061 7060 
4 7117 7118 7062 7061 
4 7118 7119 7063 7062 
4 7119 7120 7064 7063 
4 7120 7121 7065 7064 
4 7121 7122 7066 7065 
4 7122 7123 7067 7066 
4 7123 7124 7068 7067 
4 7124 7125 7069 7068 
4 7125 7126 7070 7069 
4 7126 7127 7071 7070 
4 7127 7128 7072 7071 
4 7128 7129 7073 7072 
4 7129 7130 7074 7073 
4 7130 7131 7075 7074 
4 7131 7132 7076 7075 
4 7132 7133 7077 7076 
4 7133 7134 7078 7077 
4 7134 7135 7079 7078 
4 7135 7136 7080 7079 
4 7136 7137 7081 7080 
4 7137 7138 7082 7081 
4 7138 7139 7083 7082 
4 7139 7140 7084 7083 
4 7140 7141 7085 7084 
4 7141 7142 7086 7085 
4 7142 7143 7087 7086 
4 7143 7144 7088 7087 
4 7144 7145 7089 7088 
4 7145 7146 7090 7089 
4 7146 7147 7091 7090 
4 7147 7148 7092 7091 
4 7148 7149 7093 7092 
4 7149 7150 7094 7093 
4 7150 7151 7095 7094 
4 7151 7152 7096 7095 
4 7152 7153 7097 7096 
4 7153 7154 7098 7097 
4 7154 7155 7099 7098 
4 7155 7156 7100 7099 
4 7156 7157 7101 7100 
4 7157 7158 7102 7101 
4 7158 7159 7103 7102 
4 7159 7160 7104 7103 
4 7160 7161 7105 7104 
4 7161 7162 7106 7105 
4 7162 7163 7107 7106 
4 7163 7164 7108 7107 
4 7164 7165 7109 7108 
4 7165 7166 7110 7109 
4 7166 7167 7111 7110 
4 7167 7168 7112 7111 
4 7168 7169 7113 7112 
4 7170 7171 7116 7115 
4 7171 7172 7117 7116 
4 7172 7173 7118 7117 
4 7173 7174 7119 7118 
4 7174 7175 7120 7119 
4 7175 7176 7121 7120 
4 7176 7177 7122 7121 
4 7177 7178 7123 7122 
4 7178 7179 7124 7123 
4 7179 7180 7125 7124 
4 7180 7181 7126 7125 
4 7181 7182 7127 7126 
4 7182 7183 7128 7127 
4 7183 7184 7129 7128 
4 7184 7185 7130 7129 
4 7185 7186 7131 7130 
4 7186 7187 7132 7131 
4 7187 7188 7133 7132 
4 7188 7189 7134 7133 
4 7189 7190 7135 7134 
4 7190 7191 7136 7135 
4 7191 7192 7137 7136 
4 7192 7193 7138 7137 
4 7193 7194 7139 7138 
4 7194 7195 7140 7139 
4 7195 7196 7141 7140 
4 7196 7197 7142 7141 
4 7197 7198 7143 7142 
4 7198 7199 7144 7143 
4 7199 7200 7145 7144 
4 7200 7201 7146 7145 
4 7201 7202 7147 7146 
4 7202 7203 7148 7147 
4 7203 7204 7149 7148 
4 7204 7205 7150 7149 
4 7205 7206 7151 7150 
4 7206 7207 7152 7151 
4 7207 7208 7153 7152 
4 7208 7209 7154 7153 
4 7209 7210 7155 7154 
4 7210 7211 7156 7155 
4 7211 7212 7157 7156 
4 7212 7213 7158 7157 
4 7213 7214 7159 7158 
4 7214 7215 7160 7159 
4 7215 7216 7161 7160 
4 7216 7217 7162 7161 
4 7217 7218 7163 7162 
4 7218 7219 7164 7163 
4 7219 7220 7165 7164 
4 7220 7221 7166 7165 
4 7221 7222 7167 7166 
4 7222 7223 7168 7167 
4 7223 7224 7169 7168 
4 7225 7226 7171 7170 
4 7226 7227 7172 7171 
4 7227 7228 7173 7172 
4 7228 7229 7174 7173 
4 7229 7230 7175 7174 
4 7230 7231 7176 7175 
4 7231 7232 7177 7176 
4 7232 7233 7178 7177 
4 7233 7234 7179 7178 
4 7234 7235 7180 7179 
4 7235 7236 7181 7180 
4 7236 7237 7182 7181 
4 7237 7238 7183 7182 
4 7238 7239 7184 7183 
4 7239 7240 7185 7184 
4 7240 7241 7186 7185 
4 7241 7242 7187 7186 
4 7242 7243 7188 7187 
4 7243 7244 7189 7188 
4 7244 7245 7190 7189 
4 7245 7246 7191 7190 
4 7246 7247 7192 7191 
4 7247 7248 7193 7192 
4 7248 7249 7194 7193 
4 7249 7250 7195 7194 
4 7250 7251 7196 7195 
4 7251 7252 7197 7196 
4 7252 7253 7198 7197 
4 7253 7254 7199 7198 
4 7254 7255 7200 7199 
4 7255 7256 7201 7200 
4 7256 7257 7202 7201 
4 7257 7258 7203 7202 
4 7258 7259 7204 7203 
4 7259 7260 7205 7204 
4 7260 7261 7206 7205 
4 7261 7262 7207 7206 
4 7262 7263 7208 7207 
4 7263 7264 7209 7208 
4 7264 7265 7210 7209 
4 7265 7266 7211 7210 
4 7266 7267 7212 7211 
4 7267 7268 7213 7212 
4 7268 7269 7214 7213 
4 7269 7270 7215 7214 
4 7270 7271 7216 7215 
4 7271 7272 7217 7216 
4 7272 7273 7218 7217 
4 7273 7274 7219 7218 
4 7274 7275 7220 7219 
4 7275 7276 7221 7220 
4 7276 7277 7222 7221 
4 7277 7278 7223 7222 
4 7278 7279 7224 7223 
4 7280 7281 7226 7225 
4 7281 7282 7227 7226 
4 7282 7283 7228 7227 
4 7283 7284 7229 7228 
4 7284 7285 7230 7229 
4 7285 7286 7231 7230 
4 7286 7287 7232 7231 
4 7287 7288 7233 7232 
4 7288 7289 7234 7233 
4 7289 7290 7235 7234 
4 7290 7291 7236 7235 
4 7291 7292 7237 7236 
4 7292 7293 7238 7237 
4 7293 7294 7239 7238 
4 7294 7295 7240 7239 
4 7295 7296 7241 7240 
4 7296 7297 7242 7241 
4 7297 7298 7243 7242 
4 7298 7299 7244 7243 
4 7299 7300 7245 7244 
4 7300 7301 7246 7245 
4 7301 7302 7247 7246 
4 7302 7303 7248 7247 
4 7303 7304 7249 7248 
4 7304 7305 7250 7249 
4 7305 7306 7251 7250 
4 7306 7307 7252 7251 
4 7307 7308 7253 7252 
4 7308 7309 7254 7253 
4 7309 7310 7255 7254 
4 7310 7311 7256 7255 
4 7311 7312 7257 7256 
4 7312 7313 7258 7257 
4 7313 7314 7259 7258 
4 7314 7315 7260 7259 
4 7315 7316 7261 7260 
4 7316 7317 7262 7261 
4 7317 7318 7263 7262 
4 7318 7319 7264 7263 
4 7319 7320 7265 7264 
4 7320 7321 7266 7265 
4 7321 7322 7267 7266 
4 7322 7323 7268 7267 
4 7323 7324 7269 7268 
4 7324 7325 7270 7269 
4 7325 7326 7271 7270 
4 7326 7327 7272 7271 
4 7327 7328 7273 7272 
4 7328 7329 7274 7273 
4 7329 7330 7275 7274 
4 7330 7331 7276 7275 
4 7331 7332 7277 7276 
4 7332 7333 7278 7277 
4 7333 7334 7279 7278 
4 7335 7336 7281 7280 
4 7336 7337 7282 7281 
4 7337 7338 7283 7282 
4 7338 7339 7284 7283 
4 7339 7340 7285 7284 
4 7340 7341 7286 7285 
4 7341 7342 7287 7286 
4 7342 7343 7288 7287 
4 7343 7344 7289 7288 
4 7344 7345 7290 7289 
4 7345 7346 7291 7290 
4 7346 7347 7292 7291 
4 7347 7348 7293 7292 
4 7348 7349 7294 7293 
4 7349 7350 7295 7294 
4 7350 7351 7296 7295 
4 7351 7352 7297 7296 
4 7352 7353 7298 7297 
4 7353 7354 7299 7298 
4 7354 7355 7300 7299 
4 7355 7356 7301 7300 
4 7356 7357 7302 7301 
4 7357 7358 7303 7302 
4 7358 7359 7304 7303 
4 7359 7360 7305 7304 
4 7360 7361 7306 7305 
4 7361 7362 7307 7306 
4 7362 7363 7308 7307 
4 7363 7364 7309 7308 
4 7364 7365 7310 7309 
4 7365 7366 7311 7310 
4 7366 7367 7312 7311 
4 7367 7368 7313 7312 
4 7368 7369 7314 7313 
4 7369 7370 7315 7314 
4 7370 7371 7316 7315 
4 7371 7372 7317 7316 
4 7372 7373 7318 7317 
4 7373 7374 7319 7318 
4 7374 7375 7320 7319 
4 7375 7376 7321 7320 
4 7376 7377 7322 7321 
4 7377 7378 7323 7322 
4 7378 7379 7324 7323 
4 7379 7380 7325 7324 
4 7380 7381 7326 7325 
4 7381 7382 7327 7326 
4 7382 7383 7328 7327 
4 7383 7384 7329 7328 
4 7384 7385 7330 7329 
4 7385 7386 7331 7330 
4 7386 7387 7332 7331 
4 7387 7388 7333 7332 
4 7389 7390 7336 7335 
4 7390 7391 7337 7336 
4 7391 7392 7338 7337 
4 7392 7393 7339 7338 
4 7393 7394 7340 7339 
4 7394 7395 7341 7340 
4 7395 7396 7342 7341 
4 7396 7397 7343 7342 
4 7397 7398 7344 7343 
4 7398 7399 7345 7344 
4 7399 7400 7346 7345 
4 7400 7401 7347 7346 
4 7401 7402 7348 7347 
4 7402 7403 7349 7348 
4 7403 7404 7350 7349 
4 7404 7405 7351 7350 
4 7405 7406 7352 7351 
4 7406 7407 7353 7352 
4 7407 7408 7354 7353 
4 7408 7409 7355 7354 
4 7409 7410 7356 7355 
4 7410 7411 7357 7356 
4 7411 7412 7358 7357 
4 7412 7413 7359 7358 
4 7413 7414 7360 7359 
4 7414 7415 7361 7360 
4 7415 7416 7362 7361 
4 7416 7417 7363 7362 
4 7417 7418 7364 7363 
4 7418 7419 7365 7364 
4 7419 7420 7366 7365 
4 7420 7421 7367 7366 
4 7421 7422 7368 7367 
4 7422 7423 7369 7368 
4 7423 7424 7370 7369 
4 7424 7425 7371 7370 
4 7425 7426 7372 7371 
4 7426 7427 7373 7372 
4 7427 7428 7374 7373 
4 7428 7429 7375 7374 
4 7429 7430 7376 7375 
4 7430 7431 7377 7376 
4 7431 7432 7378 7377 
4 7432 7433 7379 7378 
4 7433 7434 7380 7379 
4 7434 7435 7381 7380 
4 7435 7436 7382 7381 
4 7436 7437 7383 7382 
4 7437 7438 7384 7383 
4 7438 7439 7385 7384 
4 7439 7440 7386 7385 
4 7440 7441 7387 7386 
4 7441 7442 7388 7387 
4 7443 7444 7390 7389 
4 7444 7445 7391 7390 
4 7445 7446 7392 7391 
4 7446 7447 7393 7392 
4 7447 7448 7394 7393 
4 7448 7449 7395 7394 
4 7449 7450 7396 7395 
4 7450 7451 7397 7396 
4 7451 7452 7398 7397 
4 7452 7453 7399 7398 
4 7453 7454 7400 7399 
4 7454 7455 7401 7400 
4 7455 7456 7402 7401 
4 7456 7457 7403 7402 
4 7457 7458 7404 7403 
4 7458 7459 7405 7404 
4 7459 7460 7406 7405 
4 7460 7461 7407 7406 
4 7461 7462 7408 7407 
4 7462 7463 7409 7408 
4 7463 7464 7410 7409 
4 7464 7465 7411 7410 
4 7465 7466 7412 7411 
4 7466 7467 7413 7412 
4 7467 7468 7414 7413 
4 7468 7469 7415 7414 
4 7469 7470 7416 7415 
4 7470 7471 7417 7416 
4 7471 7472 7418 7417 
4 7472 7473 7419 7418 
4 7473 7474 7420 7419 
4 7474 7475 7421 7420 
4 7475 7476 7422 7421 
4 7476 7477 7423 7422 
4 7477 7478 7424 7423 
4 7478 7479 7425 7424 
4 7479 7480 7426 7425 
4 7480 7481 7427 7426 
4 7481 7482 7428 7427 
4 7482 7483 7429 7428 
4 7483 7484 7430 7429 
4 7484 7485 7431 7430 
4 7485 7486 7432 7431 
4 7486 7487 7433 7432 
4 7487 7488 7434 7433 
4 7488 7489 7435 7434 
4 7489 7490 7436 7435 
4 7490 7491 7437 7436 
4 7491 7492 7438 7437 
4 7492 7493 7439 7438 
4 7493 7494 7440 7439 
4 7494 7495 7441 7440 
4 7495 7496 7442 7441 
4 7497 7498 7444 7443 
4 7498 7499 7445 7444 
4 7499 7500 7446 7445 
4 7500 7501 7447 7446 
4 7501 7502 7448 7447 
4 7502 7503 7449 7448 
4 7503 7504 7450 7449 
4 7504 7505 7451 7450 
4 7505 7506 7452 7451 
4 7506 7507 7453 7452 
4 7507 7508 7454 7453 
4 7508 7509 7455 7454 
4 7509 7510 7456 7455 
4 7510 7511 7457 7456 
4 7511 7512 7458 7457 
4 7512 7513 7459 7458 
4 7513 7514 7460 7459 
4 7514 7515 7461 7460 
4 7515 7516 7462 7461 
4 7516 7517 7463 7462 
4 7517 7518 7464 7463 
4 7518 7519 7465 7464 
4 7519 7520 7466 7465 
4 7520 7521 7467 7466 
4 7521 7522 7468 7467 
4 7522 7523 7469 7468 
4 7523 7524 7470 7469 
4 7524 7525 7471 7470 
4 7525 7526 7472 7471 
4 7526 7527 7473 7472 
4 7527 7528 7474 7473 
4 7528 7529 7475 7474 
4 7529 7530 7476 7475 
4 7530 7531 7477 7476 
4 7531 7532 7478 7477 
4 7532 7533 7479 7478 
4 7533 7534 7480 7479 
4 7534 7535 7481 7480 
4 7535 7536 7482 7481 
4 7536 7537 7483 7482 
4 7537 7538 7484 7483 
4 7538 7539 7485 7484 
4 7539 7540 7486 7485 
4 7540 7541 7487 7486 
4 7541 7542 7488 7487 
4 7542 7543 7489 7488 
4 7543 7544 7490 7489 
4 7544 7545 7491 7490 
4 7545 7546 7492 7491 
4 7546 7547 7493 7492 
4 7547 7548 7494 7493 
4 7548 7549 7495 7494 
4 7549 7550 7496 7495 
4 7551 7552 7498 7497 
4 7552 7553 7499 7498 
4 7553 7554 7500 7499 
4 7554 7555 7501 7500 
4 7555 7556 7502 7501 
4 7556 7557 7503 7502 
4 7557 7558 7504 7503 
4 7558 7559 7505 7504 
4 7559 7560 7506 7505 
4 7560 7561 7507 7506 
4 7561 7562 7508 7507 
4 7562 7563 7509 7508 
4 7563 7564 7510 7509 
4 7564 7565 7511 7510 
4 7565 7566 7512 7511 
4 7566 7567 7513 7512 
4 7567 7568 7514 7513 
4 7568 7569 7515 7514 
4 7569 7570 7516 7515 
4 7570 7571 7517 7516 
4 7571 7572 7518 7517 
4 7572 7573 7519 7518 
4 7573 7574 7520 7519 
4 7574 7575 7521 7520 
4 7575 7576 7522 7521 
4 7576 7577 7523 7522 
4 7577 7578 7524 7523 
4 7578 7579 7525 7524 
4 7579 7580 7526 7525 
4 7580 7581 7527 7526 
4 7581 7582 7528 7527 
4 7582 7583 7529 7528 
4 7583 7584 7530 7529 
4 7584 7585 7531 7530 
4 7585 7586 7532 7531 
4 7586 7587 7533 7532 
4 7587 7588 7534 7533 
4 7588 7589 7535 7534 
4 7589 7590 7536 7535 
4 7590 7591 7537 7536 
4 7591 7592 7538 7537 
4 7592 7593 7539 7538 
4 7593 7594 7540 7539 
4 7594 7595 7541 7540 
4 7595 7596 7542 7541 
4 7596 7597 7543 7542 
4 7597 7598 7544 7543 
4 7598 7599 7545 7544 
4 7599 7600 7546 7545 
4 7600 7601 7547 7546 
4 7601 7602 7548 7547 
4 7602 7603 7549 7548 
4 7603 7604 7550 7549 
4 7605 7606 7553 7552 
4 7606 7607 7554 7553 
4 7607 7608 7555 7554 
4 7608 7609 7556 7555 
4 7609 7610 7557 7556 
4 7610 7611 7558 7557 
4 7611 7612 7559 7558 
4 7612 7613 7560 7559 
4 7613 7614 7561 7560 
4 7614 7615 7562 7561 
4 7615 7616 7563 7562 
4 7616 7617 7564 7563 
4 7617 7618 7565 7564 
4 7618 7619 7566 7565 
4 7619 7620 7567 7566 
4 7620 7621 7568 7567 
4 7621 7622 7569 7568 
4 7622 7623 7570 7569 
4 7623 7624 7571 7570 
4 7624 7625 7572 7571 
4 7625 7626 7573 7572 
4 7626 7627 7574 7573 
4 7627 7628 7575 7574 
4 7628 7629 7576 7575 
4 7629 7630 7577 7576 
4 7630 7631 7578 7577 
4 7631 7632 7579 7578 
4 7632 7633 7580 7579 
4 7633 7634 7581 7580 
4 7634 7635 7582 7581 
4 7635 7636 7583 7582 
4 7636 7637 7584 7583 
4 7637 7638 7585 7584 
4 7638 7639 7586 7585 
4 7639 7640 7587 7586 
4 7640 7641 7588 7587 
4 7641 7642 7589 7588 
4 7642 7643 7590 7589 
4 7643 7644 7591 7590 
4 7644 7645 7592 7591 
4 7645 7646 7593 7592 
4 7646 7647 7594 7593 
4 7647 7648 7595 7594 
4 7648 7649 7596 7595 
4 7649 7650 7597 7596 
4 7650 7651 7598 7597 
4 7651 7652 7599 7598 
4 7652 7653 7600 7599 
4 7653 7654 7601 7600 
4 7654 7655 7602 7601 
4 7655 7656 7603 7602 
4 7656 7657 7604 7603 
4 7658 7659 7606 7605 
4 7659 7660 7607 7606 
4 7660 7661 7608 7607 
4 7661 7662 7609 7608 
4 7662 7663 7610 7609 
4 7663 7664 7611 7610 
4 7664 7665 7612 7611 
4 7665 7666 7613 7612 
4 7666 7667 7614 7613 
4 7667 7668 7615 7614 
4 7668 7669 7616 7615 
4 7669 7670 7617 7616 
4 7670 7671 7618 7617 
4 7671 7672 7619 7618 
4 7672 7673 7620 7619 
4 7673 7674 7621 7620 
4 7674 7675 7622 7621 
4 7675 7676 7623 7622 
4 7676 7677 7624 7623 
4 7677 7678 7625 7624 
4 7678 7679 7626 7625 
4 7679 7680 7627 7626 
4 7680 7681 7628 7627 
4 7681 7682 7629 7628 
4 7682 7683 7630 7629 
4 7683 7684 7631 7630 
4 7684 7685 7632 7631 
4 7685 7686 7633 7632 
4 7686 7687 7634 7633 
4 7687 7688 7635 7634 
4 7688 7689 7636 7635 
4 7689 7690 7637 7636 
4 7690 7691 7638 7637 
4 7691 7692 7639 7638 
4 7692 7693 7640 7639 
4 7693 7694 7641 7640 
4 7694 7695 7642 7641 
4 7695 7696 7643 7642 
4 7696 7697 7644 7643 
4 7697 7698 7645 7644 
4 7698 7699 7646 7645 
4 7699 7700 7647 7646 
4 7700 7701 7648 7647 
4 7701 7702 7649 7648 
4 7702 7703 7650 7649 
4 7703 7704 7651 7650 
4 7704 7705 7652 7651 
4 7705 7706 7653 7652 
4 7706 7707 7654 7653 
4 7707 7708 7655 7654 
4 7708 7709 7656 7655 
4 7709 7710 7657 7656 
4 7711 7712 7659 7658 
4 7712 7713 7660 7659 
4 7713 7714 7661 7660 
4 7714 7715 7662 7661 
4 7715 7716 7663 7662 
4 7716 7717 7664 7663 
4 7717 7718 7665 7664 
4 7718 7719 7666 7665 
4 7719 7720 7667 7666 
4 7720 7721 7668 7667 
4 7721 7722 7669 7668 
4 7722 7723 7670 7669 
4 7723 7724 7671 7670 
4 7724 7725 7672 7671 
4 7725 7726 7673 7672 
4 7726 7727 7674 7673 
4 7727 7728 7675 7674 
4 7728 7729 7676 7675 
4 7729 7730 7677 7676 
4 7730 7731 7678 7677 
4 7731 7732 7679 7678 
4 7732 7733 7680 7679 
4 7733 7734 7681 7680 
4 7734 7735 7682 7681 
4 7735 7736 7683 7682 
4 7736 7737 7684 7683 
4 7737 7738 7685 7684 
4 7738 7739 7686 7685 
4 7739 7740 7687 7686 
4 7740 7741 7688 7687 
4 7741 7742 7689 7688 
4 7742 7743 7690 7689 
4 7743 7744 7691 7690 
4 7744 7745 7692 7691 
4 7745 7746 7693 7692 
4 7746 7747 7694 7693 
4 7747 7748 7695 7694 
4 7748 7749 7696 7695 
4 7749 7750 7697 7696 
4 7750 7751 7698 7697 
4 7751 7752 7699 7698 
4 7752 7753 7700 7699 
4 7753 7754 7701 7700 
4 7754 7755 7702 7701 
4 7755 7756 7703 7702 
4 7756 7757 7704 7703 
4 7757 7758 7705 7704 
4 7758 7759 7706 7705 
4 7759 7760 7707 7706 
4 7760 7761 7708 7707 
4 7761 7762 7709 7708 
4 7763 7764 7713 7712 
4 7764 7765 7714 7713 
4 7765 7766 7715 7714 
4 7766 7767 7716 7715 
4 7767 7768 7717 7716 
4 7768 7769 7718 7717 
4 7769 7770 7719 7718 
4 7770 7771 7720 7719 
4 7771 7772 7721 7720 
4 7772 7773 7722 7721 
4 7773 7774 7723 7722 
4 7774 7775 7724 7723 
4 7775 7776 7725 7724 
4 7776 7777 7726 7725 
4 7777 7778 7727 7726 
4 7778 7779 7728 7727 
4 7779 7780 7729 7728 
4 7780 7781 7730 7729 
4 7781 7782 7731 7730 
4 7782 7783 7732 7731 
4 7783 7784 7733 7732 
4 7784 7785 7734 7733 
4 7785 7786 7735 7734 
4 7786 7787 7736 7735 
4 7787 7788 7737 7736 
4 7788 7789 7738 7737 
4 7789 7790 7739 7738 
4 7790 7791 7740 7739 
4 7791 7792 7741 7740 
4 7792 7793 7742 7741 
4 7793 7794 7743 7742 
4 7794 7795 7744 7743 
4 7795 7796 7745 7744 
4 7796 7797 7746 7745 
4 7797 7798 7747 7746 
4 7798 7799 7748 7747 
4 7799 7800 7749 7748 
4 7800 7801 7750 7749 
4 7801 7802 7751 7750 
4 7802 7803 7752 7751 
4 7803 7804 7753 7752 
4 7804 7805 7754 7753 
4 7805 7806 7755 7754 
4 7806 7807 7756 7755 
4 7807 7808 7757 7756 
4 7808 7809 7758 7757 
4 7809 7810 7759 7758 
4 7810 7811 7760 7759 
4 7811 7812 7761 7760 
4 7812 7813 7762 7761 
4 7814 7815 7764 7763 
4 7815 7816 7765 7764 
4 7816 7817 7766 7765 
4 7817 7818 7767 7766 
4 7818 7819 7768 7767 
4 7819 7820 7769 7768 
4 7820 7821 7770 7769 
4 7821 7822 7771 7770 
4 7822 7823 7772 7771 
4 7823 7824 7773 7772 
4 7824 7825 7774 7773 
4 7825 7826 7775 7774 
4 7826 7827 7776 7775 
4 7827 7828 7777 7776 
4 7828 7829 7778 7777 
4 7829 7830 7779 7778 
4 7830 7831 7780 7779 
4 7831 7832 7781 7780 
4 7832 7833 7782 7781 
4 7833 7834 7783 7782 
4 7834 7835 7784 7783 
4 7835 7836 7785 7784 
4 7836 7837 7786 7785 
4 7837 7838 7787 7786 
4 7838 7839 7788 7787 
4 7839 7840 7789 7788 
4 7840 7841 7790 7789 
4 7841 7842 7791 7790 
4 7842 7843 7792 7791 
4 7843 7844 7793 7792 
4 7844 7845 7794 7793 
4 7845 7846 7795 7794 
4 7846 7847 7796 7795 
4 7847 7848 7797 7796 
4 7848 7849 7798 7797 
4 7849 7850 7799 7798 
4 7850 7851 7800 7799 
4 7851 7852 7801 7800 
4 7852 7853 7802 7801 
4 7853 7854 7803 7802 
4 7854 7855 7804 7803 
4 7855 7856 7805 7804 
4 7856 7857 7806 7805 
4 7857 7858 7807 7806 
4 7858 7859 7808 7807 
4 7859 7860 7809 7808 
4 7860 7861 7810 7809 
4 7861 7862 7811 7810 
4 7862 7863 7812 7811 
4 7863 7864 7813 7812 
4 7865 7866 7815 7814 
4 7866 7867 7816 7815 
4 7867 7868 7817 7816 
4 7868 7869 7818 7817 
4 7869 7870 7819 7818 
4 7870 7871 7820 7819 
4 7871 7872 7821 7820 
4 7872 7873 7822 7821 
4 7873 7874 7823 7822 
4 7874 7875 7824 7823 
4 7875 7876 7825 7824 
4 7876 7877 7826 7825 
4 7877 7878 7827 7826 
4 7878 7879 7828 7827 
4 7879 7880 7829 7828 
4 7880 7881 7830 7829 
4 7881 7882 7831 7830 
4 7882 7883 7832 7831 
4 7883 7884 7833 7832 
4 7884 7885 7834 7833 
4 7885 7886 7835 7834 
4 7886 7887 7836 7835 
4 7887 7888 7837 7836 
4 7888 7889 7838 7837 
4 7889 7890 7839 7838 
4 7890 7891 7840 7839 
4 7891 7892 7841 7840 
4 7892 7893 7842 7841 
4 7893 7894 7843 7842 
4 7894 7895 7844 7843 
4 7895 7896 7845 7844 
4 7896 7897 7846 7845 
4 7897 7898 7847 7846 
4 7898 7899 7848 7847 
4 7899 7900 7849 7848 
4 7900 7901 7850 7849 
4 7901 7902 7851 7850 
4 7902 7903 7852 7851 
4 7903 7904 7853 7852 
4 7904 7905 7854 7853 
4 7905 7906 7855 7854 
4 7906 7907 7856 7855 
4 7907 7908 7857 7856 
4 7908 7909 7858 7857 
4 7909 7910 7859 7858 
4 7910 7911 7860 7859 
4 7911 7912 7861 7860 
4 7912 7913 7862 7861 
4 7913 7914 7863 7862 
4 7914 7915 7864 7863 
4 7916 7917 7866 7865 
4 7917 7918 7867 7866 
4 7918 7919 7868 7867 
4 7919 7920 7869 7868 
4 7920 7921 7870 7869 
4 7921 7922 7871 7870 
4 7922 7923 7872 7871 
4 7923 7924 7873 7872 
4 7924 7925 7874 7873 
4 7925 7926 7875 7874 
4 7926 7927 7876 7875 
4 7927 7928 7877 7876 
4 7928 7929 7878 7877 
4 7929 7930 7879 7878 
4 7930 7931 7880 7879 
4 7931 7932 7881 7880 
4 7932 7933 7882 7881 
4 7933 7934 7883 7882 
4 7934 7935 7884 7883 
4 7935 7936 7885 7884 
4 7936 7937 7886 7885 
4 7937 7938 7887 7886 
4 7938 7939 7888 7887 
4 7939 7940 7889 7888 
4 7940 7941 7890 7889 
4 7941 7942 7891 7890 
4 7942 7943 7892 7891 
4 7943 7944 7893 7892 
4 7944 7945 7894 7893 
4 7945 7946 7895 7894 
4 7946 7947 7896 7895 
4 7947 7948 7897 7896 
4 7948 7949 7898 7897 
4 7949 7950 7899 7898 
4 7950 7951 7900 7899 
4 7951 7952 7901 7900 
4 7952 7953 7902 7901 
4 7953 7954 7903 7902 
4 7954 7955 7904 7903 
4 7955 7956 7905 7904 
4 7956 7957 7906 7905 
4 7957 7958 7907 7906 
4 7958 7959 7908 7907 
4 7959 7960 7909 7908 
4 7960 7961 7910 7909 
4 7961 7962 7911 7910 
4 7962 7963 7912 7911 
4 7963 7964 7913 7912 
4 7964 7965 7914 7913 
4 7966 7967 7918 7917 
4 7967 7968 7919 7918 
4 7968 7969 7920 7919 
4 7969 7970 7921 7920 
4 7970 7971 7922 7921 
4 7971 7972 7923 7922 
4 7972 7973 7924 7923 
4 7973 7974 7925 7924 
4 7974 7975 7926 7925 
4 7975 7976 7927 7926 
4 7976 7977 7928 7927 
4 7977 7978 7929 7928 
4 7978 7979 7930 7929 
4 7979 7980 7931 7930 
4 7980 7981 7932 7931 
4 7981 7982 7933 7932 
4 7982 7983 7934 7933 
4 7983 7984 7935 7934 
4 7984 7985 7936 7935 
4 7985 7986 7937 7936 
4 7986 7987 7938 7937 
4 7987 7988 7939 7938 
4 7988 7989 7940 7939 
4 7989 7990 7941 7940 
4 7990 7991 7942 7941 
4 7991 7992 7943 7942 
4 7992 7993 7944 7943 
4 7993 7994 7945 7944 
4 7994 7995 7946 7945 
4 7995 7996 7947 7946 
4 7996 7997 7948 7947 
4 7997 7998 7949 7948 
4 7998 7999 7950 7949 
4 7999 8000 7951 7950 
4 8000 8001 7952 7951 
4 8001 8002 7953 7952 
4 8002 8003 7954 7953 
4 8003 8004 7955 7954 
4 8005 8006 7959 7958 
4 8006 8007 7960 7959 
4 8007 8008 7961 7960 
4 8008 8009 7962 7961 
4 8009 8010 7963 7962 
4 8010 8011 7964 7963 
4 8011 8012 7965 7964 
4 8013 8014 7967 7966 
4 8014 8015 7968 7967 
4 8015 8016 7969 7968 
4 8016 8017 7970 7969 
4 8017 8018 7971 7970 
4 8018 8019 7972 7971 
4 8019 8020 7973 7972 
4 8020 8021 7974 7973 
4 8021 8022 7975 7974 
4 8022 8023 7976 7975 
4 8023 8024 7977 7976 
4 8024 8025 7978 7977 
4 8025 8026 7979 7978 
4 8026 8027 7980 7979 
4 8027 8028 7981 7980 
4 8028 8029 7982 7981 
4 8029 8030 7983 7982 
4 8030 8031 7984 7983 
4 8031 8032 7985 7984 
4 8032 8033 7986 7985 
4 8033 8034 7987 7986 
4 8034 8035 7988 7987 
4 8035 8036 7989 7988 
4 8036 8037 7990 7989 
4 8037 8038 7991 7990 
4 8038 8039 7992 7991 
4 8039 8040 7993 7992 
4 8040 8041 7994 7993 
4 8041 8042 7995 7994 
4 8042 8043 7996 7995 
4 8043 8044 7997 7996 
4 8044 8045 7998 7997 
4 8045 8046 7999 7998 
4 8046 8047 8000 7999 
4 8047 8048 8001 8000 
4 8048 8049 8002 8001 
4 8049 8050 8003 8002 
4 8051 8052 8006 8005 
4 8052 8053 8007 8006 
4 8053 8054 8008 8007 
4 8054 8055 8009 8008 
4 8055 8056 8010 8009 
4 8056 8057 8011 8010 
4 8057 8058 8012 8011 
4 8059 8060 8014 8013 
4 8060 8061 8015 8014 
4 8061 8062 8016 8015 
4 8062 8063 8017 8016 
4 8063 8064 8018 8017 
4 8064 8065 8019 8018 
4 8065 8066 8020 8019 
4 8066 8067 8021 8020 
4 8067 8068 8022 8021 
4 8068 8069 8023 8022 
4 8069 8070 8024 8023 
4 8070 8071 8025 8024 
4 8071 8072 8026 8025 
4 8072 8073 8027 8026 
4 8073 8074 8028 8027 
4 8074 8075 8029 8028 
4 8075 8076 8030 8029 
4 8076 8077 8031 8030 
4 8077 8078 8032 8031 
4 8078 8079 8033 8032 
4 8079 8080 8034 8033 
4 8080 8081 8035 8034 
4 8081 8082 8036 8035 
4 8082 8083 8037 8036 
4 8083 8084 8038 8037 
4 8084 8085 8039 8038 
4 8085 8086 8040 8039 
4 8086 8087 8041 8040 
4 8087 8088 8042 8041 
4 8088 8089 8043 8042 
4 8089 8090 8044 8043 
4 8090 8091 8045 8044 
4 8091 8092 8046 8045 
4 8092 8093 8047 8046 
4 8093 8094 8048 8047 
4 8094 8095 8049 8048 
4 8096 8097 8052 8051 
4 8097 8098 8053 8052 
4 8098 8099 8054 8053 
4 8099 8100 8055 8054 
4 8100 8101 8056 8055 
4 8101 8102 8057 8056 
4 8103 8104 8061 8060 
4 8104 8105 8062 8061 
4 8105 8106 8063 8062 
4 8106 8107 8064 8063 
4 8107 8108 8065 8064 
4 8108 8109 8066 8065 
4 8109 8110 8067 8066 
4 8110 8111 8068 8067 
4 8111 8112 8069 8068 
4 8112 8113 8070 8069 
4 8113 8114 8071 8070 
4 8114 8115 8072 8071 
4 8115 8116 8073 8072 
4 8116 8117 8074 8073 
4 8117 8118 8075 8074 
4 8118 8119 8076 8075 
4 8119 8120 8077 8076 
4 8120 8121 8078 8077 
4 8121 8122 8079 8078 
4 8122 8123 8080 8079 
4 8123 8124 8081 8080 
4 8124 8125 8082 8081 
4 8125 8126 8083 8082 
4 8126 8127 8084 8083 
4 8127 8128 8085 8084 
4 8128 8129 8086 8085 
4 8129 8130 8087 8086 
4 8130 8131 8088 8087 
4 8131 8132 8089 8088 
4 8132 8133 8090 8089 
4 8133 8134 8091 8090 
4 8134 8135 8092 8091 
4 8135 8136 8093 8092 
4 8136 8137 8094 8093 
4 8139 8140 8096 8138 
4 8140 8141 8097 8096 
4 8141 8142 8098 8097 
4 8142 8143 8099 8098 
4 8143 8144 8100 8099 
4 8144 8145 8101 8100 
4 8145 8146 8102 8101 
4 8147 8148 8104 8103 
4 8148 8149 8105 8104 
4 8149 8150 8106 8105 
4 8150 8151 8107 8106 
4 8151 8152 8108 8107 
4 8152 8153 8109 8108 
4 8153 8154 8110 8109 
4 8154 8155 8111 8110 
4 8155 8156 8112 8111 
4 8156 8157 8113 8112 
4 8157 8158 8114 8113 
4 8158 8159 8115 8114 
4 8159 8160 8116 8115 
4 8160 8161 8117 8116 
4 8161 8162 8118 8117 
4 8162 8163 8119 8118 
4 8163 8164 8120 8119 
4 8164 8165 8121 8120 
4 8165 8166 8122 8121 
4 8166 8167 8123 8122 
4 8167 8168 8124 8123 
4 8168 8169 8125 8124 
4 8169 8170 8126 8125 
4 8170 8171 8127 8126 
4 8171 8172 8128 8127 
4 8172 8173 8129 8128 
4 8173 8174 8130 8129 
4 8174 8175 8131 8130 
4 8175 8176 8132 8131 
4 8176 8177 8133 8132 
4 8177 8178 8134 8133 
4 8178 8179 8135 8134 
4 8179 8180 8136 8135 
4 8180 8181 8137 8136 
4 8182 8183 8140 8139 
4 8183 8184 8141 8140 
4 8184 8185 8142 8141 
4 8185 8186 8143 8142 
4 8186 8187 8144 8143 
4 8187 8188 8145 8144 
4 8188 8189 8146 8145 
4 8190 8191 8149 8148 
4 8191 8192 8150 8149 
4 8192 8193 8151 8150 
4 8193 8194 8152 8151 
4 8194 8195 8153 8152 
4 8195 8196 8154 8153 
4 8196 8197 8155 8154 
4 8197 8198 8156 8155 
4 8198 8199 8157 8156 
4 8199 8200 8158 8157 
4 8200 8201 8159 8158 
4 8201 8202 8160 8159 
4 8202 8203 8161 8160 
4 8203 8204 8162 8161 
4 8204 8205 8163 8162 
4 8205 8206 8164 8163 
4 8206 8207 8165 8164 
4 8207 8208 8166 8165 
4 8208 8209 8167 8166 
4 8209 8210 8168 8167 
4 8210 8211 8169 8168 
4 8211 8212 8170 8169 
4 8212 8213 8171 8170 
4 8213 8214 8172 8171 
4 8214 8215 8173 8172 
4 8215 8216 8174 8173 
4 8216 8217 8175 8174 
4 8217 8218 8176 8175 
4 8218 8219 8177 8176 
4 8219 8220 8178 8177 
4 8220 8221 8179 8178 
4 8221 8222 8180 8179 
4 8223 8224 8183 8182 
4 8224 8225 8184 8183 
4 8225 8226 8185 8184 
4 8226 8227 8186 8185 
4 8227 8228 8187 8186 
4 8228 8229 8188 8187 
4 8230 8231 8191 8190 
4 8231 8232 8192 8191 
4 8232 8233 8193 8192 
4 8233 8234 8194 8193 
4 8234 8235 8195 8194 
4 8235 8236 8196 8195 
4 8236 8237 8197 8196 
4 8237 8238 8198 8197 
4 8238 8239 8199 8198 
4 8239 8240 8200 8199 
4 8240 8241 8201 8200 
4 8241 8242 8202 8201 
4 8242 8243 8203 8202 
4 8243 8244 8204 8203 
4 8244 8245 8205 8204 
4 8245 8246 8206 8205 
4 8246 8247 8207 8206 
4 8247 8248 8208 8207 
4 8248 8249 8209 8208 
4 8249 8250 8210 8209 
4 8250 8251 8211 8210 
4 8251 8252 8212 8211 
4 8252 8253 8213 8212 
4 8253 8254 8214 8213 
4 8254 8255 8215 8214 
4 8255 8256 8216 8215 
4 8256 8257 8217 8216 
4 8257 8258 8218 8217 
4 8258 8259 8219 8218 
4 8259 8260 8220 8219 
4 8260 8261 8221 8220 
4 8261 8262 8222 8221 
4 8264 8265 8223 8263 
4 8265 8266 8224 8223 
4 8266 8267 8225 8224 
4 8267 8268 8226 8225 
4 8268 8269 8227 8226 
4 8269 8270 8228 8227 
4 8270 8271 8229 8228 
4 8272 8273 8231 8230 
4 8273 8274 8232 8231 
4 8274 8275 8233 8232 
4 8275 8276 8234 8233 
4 8276 8277 8235 8234 
4 8277 8278 8236 8235 
4 8278 8279 8237 8236 
4 8279 8280 8238 8237 
4 8280 8281 8239 8238 
4 8281 8282 8240 8239 
4 8282 8283 8241 8240 
4 8283 8284 8242 8241 
4 8284 8285 8243 8242 
4 8285 8286 8244 8243 
4 8286 8287 8245 8244 
4 8287 8288 8246 8245 
4 8288 8289 8247 8246 
4 8289 8290 8248 8247 
4 8290 8291 8249 8248 
4 8291 8292 8250 8249 
4 8292 8293 8251 8250 
4 8293 8294 8252 8251 
4 8294 8295 8253 8252 
4 8295 8296 8254 8253 
4 8296 8297 8255 8254 
4 8297 8298 8256 8255 
4 8298 8299 8257 8256 
4 8299 8300 8258 8257 
4 8300 8301 8259 8258 
4 8301 8302 8260 8259 
4 8302 8303 8261 8260 
4 8304 8305 8265 8264 
4 8305 8306 8266 8265 
4 8306 8307 8267 8266 
4 8307 8308 8268 8267 
4 8308 8309 8269 8268 
4 8309 8310 8270 8269 
4 8310 8311 8271 8270 
4 8312 8313 8274 8273 
4 8313 8314 8275 8274 
4 8314 8315 8276 8275 
4 8315 8316 8277 8276 
4 8316 8317 8278 8277 
4 8317 8318 8279 8278 
4 8318 8319 8280 8279 
4 8319 8320 8281 8280 
4 8320 8321 8282 8281 
4 8321 8322 8283 8282 
4 8322 8323 8284 8283 
4 8323 8324 8285 8284 
4 8324 8325 8286 8285 
4 8325 8326 8287 8286 
4 8326 8327 8288 8287 
4 8327 8328 8289 8288 
4 8328 8329 8290 8289 
4 8329 8330 8291 8290 
4 8330 8331 8292 8291 
4 8331 8332 8293 8292 
4 8332 8333 8294 8293 
4 8333 8334 8295 8294 
4 8334 8335 8296 8295 
4 8335 8336 8297 8296 
4 8336 8337 8298 8297 
4 8337 8338 8299 8298 
4 8338 8339 8300 8299 
4 8339 8340 8301 8300 
4 8340 8341 8302 8301 
4 8341 8342 8303 8302 
4 8343 8344 8305 8304 
4 8344 8345 8306 8305 
4 8345 8346 8307 8306 
4 8346 8347 8308 8307 
4 8347 8348 8309 8308 
4 8348 8349 8310 8309 
4 8349 8350 8311 8310 
4 8351 8352 8313 8312 
4 8352 8353 8314 8313 
4 8353 8354 8315 8314 
4 8354 8355 8316 8315 
4 8355 8356 8317 8316 
4 8356 8357 8318 8317 
4 8357 8358 8319 8318 
4 8358 8359 8320 8319 
4 8359 8360 8321 8320 
4 8360 8361 8322 8321 
4 8361 8362 8323 8322 
4 8362 8363 8324 8323 
4 8363 8364 8325 8324 
4 8364 8365 8326 8325 
4 8365 8366 8327 8326 
4 8366 8367 8328 8327 
4 8367 8368 8329 8328 
4 8368 8369 8330 8329 
4 8369 8370 8331 8330 
4 8370 8371 8332 8331 
4 8371 8372 8333 8332 
4 8372 8373 8334 8333 
4 8373 8374 8335 8334 
4 8374 8375 8336 8335 
4 8375 8376 8337 8336 
4 8376 8377 8338 8337 
4 8377 8378 8339 8338 
4 8378 8379 8340 8339 
4 8379 8380 8341 8340 
4 8381 8382 8344 8343 
4 8382 8383 8345 8344 
4 8383 8384 8346 8345 
4 8384 8385 8347 8346 
4 8385 8386 8348 8347 
4 8386 8387 8349 8348 
4 8388 8389 8353 8352 
4 8389 8390 8354 8353 
4 8390 8391 8355 8354 
4 8391 8392 8356 8355 
4 8392 8393 8357 8356 
4 8393 8394 8358 8357 
4 8394 8395 8359 8358 
4 8395 8396 8360 8359 
4 8396 8397 8361 8360 
4 8397 8398 8362 8361 
4 8398 8399 8363 8362 
4 8399 8400 8364 8363 
4 8400 8401 8365 8364 
4 8401 8402 8366 8365 
4 8402 8403 8367 8366 
4 8403 8404 8368 8367 
4 8404 8405 8369 8368 
4 8405 8406 8370 8369 
4 8406 8407 8371 8370 
4 8407 8408 8372 8371 
4 8408 8409 8373 8372 
4 8409 8410 8374 8373 
4 8410 8411 8375 8374 
4 8411 8412 8376 8375 
4 8412 8413 8377 8376 
4 8413 8414 8378 8377 
4 8414 8415 8379 8378 
4 8417 8418 8381 8416 
4 8418 8419 8382 8381 
4 8419 8420 8383 8382 
4 8420 8421 8384 8383 
4 8421 8422 8385 8384 
4 8422 8423 8386 8385 
4 8423 8424 8387 8386 
4 8425 8426 8389 8388 
4 8426 8427 8390 8389 
4 8427 8428 8391 8390 
4 8428 8429 8392 8391 
4 8429 8430 8393 8392 
4 8430 8431 8394 8393 
4 8431 8432 8395 8394 
4 8432 8433 8396 8395 
4 8433 8434 8397 8396 
4 8434 8435 8398 8397 
4 8435 8436 8399 8398 
4 8436 8437 8400 8399 
4 8437 8438 8401 8400 
4 8438 8439 8402 8401 
4 8439 8440 8403 8402 
4 8440 8441 8404 8403 
4 8441 8442 8405 8404 
4 8442 8443 8406 8405 
4 8443 8444 8407 8406 
4 8444 8445 8408 8407 
4 8445 8446 8409 8408 
4 8446 8447 8410 8409 
4 8447 8448 8411 8410 
4 8448 8449 8412 8411 
4 8449 8450 8413 8412 
4 8450 8451 8414 8413 
4 8451 8452 8415 8414 
4 8453 8454 8418 8417 
4 8454 8455 8419 8418 
4 8455 8456 8420 8419 
4 8456 8457 8421 8420 
4 8457 8458 8422 8421 
4 8458 8459 8423 8422 
4 8459 8460 8424 8423 
4 8461 8462 8426 8425 
4 8462 8463 8427 8426 
4 8463 8464 8428 8427 
4 8464 8465 8429 8428 
4 8465 8466 8430 8429 
4 8466 8467 8431 8430 
4 8467 8468 8432 8431 
4 8468 8469 8433 8432 
4 8469 8470 8434 8433 
4 8470 8471 8435 8434 
4 8471 8472 8436 8435 
4 8472 8473 8437 8436 
4 8473 8474 8438 8437 
4 8474 8475 8439 8438 
4 8475 8476 8440 8439 
4 8476 8477 8441 8440 
4 8477 8478 8442 8441 
4 8478 8479 8443 8442 
4 8479 8480 8444 8443 
4 8480 8481 8445 8444 
4 8481 8482 8446 8445 
4 8482 8483 8447 8446 
4 8483 8484 8448 8447 
4 8484 8485 8449 8448 
4 8485 8486 8450 8449 
4 8486 8487 8451 8450 
4 8487 8488 8452 8451 
4 8489 8490 8454 8453 
4 8490 8491 8455 8454 
4 8491 8492 8456 8455 
4 8492 8493 8457 8456 
4 8493 8494 8458 8457 
4 8494 8495 8459 8458 
4 8496 8497 8463 8462 
4 8497 8498 8464 8463 
4 8498 8499 8465 8464 
4 8499 8500 8466 8465 
4 8500 8501 8467 8466 
4 8501 8502 8468 8467 
4 8502 8503 8469 8468 
4 8503 8504 8470 8469 
4 8504 8505 8471 8470 
4 8505 8506 8472 8471 
4 8506 8507 8473 8472 
4 8507 8508 8474 8473 
4 8508 8509 8475 8474 
4 8509 8510 8476 8475 
4 8510 8511 8477 8476 
4 8511 8512 8478 8477 
4 8512 8513 8479 8478 
4 8513 8514 8480 8479 
4 8514 8515 8481 8480 
4 8515 8516 8482 8481 
4 8516 8517 8483 8482 
4 8517 8518 8484 8483 
4 8518 8519 8485 8484 
4 8519 8520 8486 8485 
4 8520 8521 8487 8486 
4 8521 8522 8488 8487 
4 8523 8524 8490 8489 
4 8524 8525 8491 8490 
4 8525 8526 8492 8491 
4 8526 8527 8493 8492 
4 8527 8528 8494 8493 
4 8528 8529 8495 8494 
4 8530 8531 8497 8496 
4 8531 8532 8498 8497 
4 8532 8533 8499 8498 
4 8533 8534 8500 8499 
4 8534 8535 8501 8500 
4 8535 8536 8502 8501 
4 8536 8537 8503 8502 
4 8537 8538 8504 8503 
4 8538 8539 8505 8504 
4 8539 8540 8506 8505 
4 8540 8541 8507 8506 
4 8541 8542 8508 8507 
4 8542 8543 8509 8508 
4 8543 8544 8510 8509 
4 8544 8545 8511 8510 
4 8545 8546 8512 8511 
4 8546 8547 8513 8512 
4 8547 8548 8514 8513 
4 8548 8549 8515 8514 
4 8549 8550 8516 8515 
4 8550 8551 8517 8516 
4 8551 8552 8518 8517 
4 8552 8553 8519 8518 
4 8553 8554 8520 8519 
4 8554 8555 8521 8520 
4 8557 8558 8523 8556 
4 8558 8559 8524 8523 
4 8559 8560 8525 8524 
4 8560 8561 8526 8525 
4 8561 8562 8527 8526 
4 8562 8563 8528 8527 
4 8563 8564 8529 8528 
4 8565 8566 8531 8530 
4 8566 8567 8532 8531 
4 8567 8568 8533 8532 
4 8568 8569 8534 8533 
4 8569 8570 8535 8534 
4 8570 8571 8536 8535 
4 8571 8572 8537 8536 
4 8572 8573 8538 8537 
4 8573 8574 8539 8538 
4 8574 8575 8540 8539 
4 8575 8576 8541 8540 
4 8576 8577 8542 8541 
4 8577 8578 8543 8542 
4 8578 8579 8544 8543 
4 8579 8580 8545 8544 
4 8580 8581 8546 8545 
4 8581 8582 8547 8546 
4 8582 8583 8548 8547 
4 8583 8584 8549 8548 
4 8584 8585 8550 8549 
4 8585 8586 8551 8550 
4 8586 8587 8552 8551 
4 8587 8588 8553 8552 
4 8588 8589 8554 8553 
4 8589 8590 8555 8554 
4 8591 8592 8558 8557 
4 8592 8593 8559 8558 
4 8593 8594 8560 8559 
4 8594 8595 8561 8560 
4 8595 8596 8562 8561 
4 8596 8597 8563 8562 
4 8598 8599 8567 8566 
4 8599 8600 8568 8567 
4 8600 8601 8569 8568 
4 8601 8602 8570 8569 
4 8602 8603 8571 8570 
4 8603 8604 8572 8571 
4 8604 8605 8573 8572 
4 8605 8606 8574 8573 
4 8606 8607 8575 8574 
4 8607 8608 8576 8575 
4 8608 8609 8577 8576 
4 8609 8610 8578 8577 
4 8610 8611 8579 8578 
4 8611 8612 8580 8579 
4 8612 8613 8581 8580 
4 8613 8614 8582 8581 
4 8614 8615 8583 8582 
4 8615 8616 8584 8583 
4 8616 8617 8585 8584 
4 8617 8618 8586 8585 
4 8618 8619 8587 8586 
4 8619 8620 8588 8587 
4 8620 8621 8589 8588 
4 8621 8622 8590 8589 
4 8623 8624 8592 8591 
4 8624 8625 8593 8592 
4 8625 8626 8594 8593 
4 8626 8627 8595 8594 
4 8627 8628 8596 8595 
4 8628 8629 8597 8596 
4 8630 8631 8599 8598 
4 8631 8632 8600 8599 
4 8632 8633 8601 8600 
4 8633 8634 8602 8601 
4 8634 8635 8603 8602 
4 8635 8636 8604 8603 
4 8636 8637 8605 8604 
4 8637 8638 8606 8605 
4 8638 8639 8607 8606 
4 8639 8640 8608 8607 
4 8640 8641 8609 8608 
4 8641 8642 8610 8609 
4 8642 8643 8611 8610 
4 8643 8644 8612 8611 
4 8644 8645 8613 8612 
4 8645 8646 8614 8613 
4 8646 8647 8615 8614 
4 8647 8648 8616 8615 
4 8648 8649 8617 8616 
4 8649 8650 8618 8617 
4 8650 8651 8619 8618 
4 8651 8652 8620 8619 
4 8652 8653 8621 8620 
4 8655 8656 8623 8654 
4 8656 8657 8624 8623 
4 8657 8658 8625 8624 
4 8658 8659 8626 8625 
4 8659 8660 8627 8626 
4 8660 8661 8628 8627 
4 8661 8662 8629 8628 
4 8663 8664 8631 8630 
4 8664 8665 8632 8631 
4 8665 8666 8633 8632 
4 8666 8667 8634 8633 
4 8667 8668 8635 8634 
4 8668 8669 8636 8635 
4 8669 8670 8637 8636 
4 8670 8671 8638 8637 
4 8671 8672 8639 8638 
4 8672 8673 8640 8639 
4 8673 8674 8641 8640 
4 8674 8675 8642 8641 
4 8675 8676 8643 8642 
4 8676 8677 8644 8643 
4 8677 8678 8645 8644 
4 8678 8679 8646 8645 
4 8679 8680 8647 8646 
4 8680 8681 8648 8647 
4 8681 8682 8649 8648 
4 8682 8683 8650 8649 
4 8683 8684 8651 8650 
4 8684 8685 8652 8651 
4 8685 8686 8653 8652 
4 8687 8688 8656 8655 
4 8688 8689 8657 8656 
4 8689 8690 8658 8657 
4 8690 8691 8659 8658 
4 8691 8692 8660 8659 
4 8692 8693 8661 8660 
4 8693 8694 8662 8661 
4 8695 8696 8666 8665 
4 8696 8697 8667 8666 
4 8697 8698 8668 8667 
4 8698 8699 8669 8668 
4 8699 8700 8670 8669 
4 8700 8701 8671 8670 
4 8701 8702 8672 8671 
4 8702 8703 8673 8672 
4 8703 8704 8674 8673 
4 8704 8705 8675 8674 
4 8705 8706 8676 8675 
4 8706 8707 8677 8676 
4 8707 8708 8678 8677 
4 8708 8709 8679 8678 
4 8709 8710 8680 8679 
4 8710 8711 8681 8680 
4 8711 8712 8682 8681 
4 8712 8713 8683 8682 
4 8713 8714 8684 8683 
4 8714 8715 8685 8684 
4 8717 8718 8687 8716 
4 8718 8719 8688 8687 
4 8719 8720 8689 8688 
4 8720 8721 8690 8689 
4 8721 8722 8691 8690 
4 8722 8723 8692 8691 
4 8723 8724 8693 8692 
4 8725 8726 8696 8695 
4 8726 8727 8697 8696 
4 8727 8728 8698 8697 
4 8728 8729 8699 8698 
4 8729 8730 8700 8699 
4 8730 8731 8701 8700 
4 8731 8732 8702 8701 
4 8732 8733 8703 8702 
4 8733 8734 8704 8703 
4 8734 8735 8705 8704 
4 8735 8736 8706 8705 
4 8736 8737 8707 8706 
4 8737 8738 8708 8707 
4 8738 8739 8709 8708 
4 8739 8740 8710 8709 
4 8740 8741 8711 8710 
4 8741 8742 8712 8711 
4 8742 8743 8713 8712 
4 8743 8744 8714 8713 
4 8744 8745 8715 8714 
4 8747 8748 8717 8746 
4 8748 8749 8718 8717 
4 8749 8750 8719 8718 
4 8750 8751 8720 8719 
4 8751 8752 8721 8720 
4 8752 8753 8722 8721 
4 8753 8754 8723 8722 
4 8754 8755 8724 8723 
4 8756 8757 8727 8726 
4 8757 8758 8728 8727 
4 8758 8759 8729 8728 
4 8759 8760 8730 8729 
4 8760 8761 8731 8730 
4 8761 8762 8732 8731 
4 8762 8763 8733 8732 
4 8763 8764 8734 8733 
4 8764 8765 8735 8734 
4 8765 8766 8736 8735 
4 8766 8767 8737 8736 
4 8767 8768 8738 8737 
4 8768 8769 8739 8738 
4 8769 8770 8740 8739 
4 8770 8771 8741 8740 
4 8771 8772 8742 8741 
4 8772 8773 8743 8742 
4 8773 8774 8744 8743 
4 8774 8775 8745 8744 
4 8777 8778 8747 8776 
4 8778 8779 8748 8747 
4 8779 8780 8749 8748 
4 8780 8781 8750 8749 
4 8781 8782 8751 8750 
4 8782 8783 8752 8751 
4 8783 8784 8753 8752 
4 8784 8785 8754 8753 
4 8785 8786 8755 8754 
4 8787 8788 8757 8756 
4 8788 8789 8758 8757 
4 8789 8790 8759 8758 
4 8790 8791 8760 8759 
4 8791 8792 8761 8760 
4 8792 8793 8762 8761 
4 8793 8794 8763 8762 
4 8794 8795 8764 8763 
4 8795 8796 8765 8764 
4 8796 8797 8766 8765 
4 8797 8798 8767 8766 
4 8798 8799 8768 8767 
4 8799 8800 8769 8768 
4 8800 8801 8770 8769 
4 8801 8802 8771 8770 
4 8802 8803 8772 8771 
4 8803 8804 8773 8772 
4 8804 8805 8774 8773 
4 8805 8806 8775 8774 
4 8808 8809 8777 8807 
4 8809 8810 8778 8777 
4 8810 8811 8779 8778 
4 8811 8812 8780 8779 
4 8812 8813 8781 8780 
4 8813 8814 8782 8781 
4 8814 8815 8783 8782 
4 8815 8816 8784 8783 
4 8816 8817 8785 8784 
4 8818 8819 8789 8788 
4 8819 8820 8790 8789 
4 8820 8821 8791 8790 
4 8821 8822 8792 8791 
4 8822 8823 8793 8792 
4 8823 8824 8794 8793 
4 8824 8825 8795 8794 
4 8825 8826 8796 8795 
4 8826 8827 8797 8796 
4 8827 8828 8798 8797 
4 8828 8829 8799 8798 
4 8829 8830 8800 8799 
4 8830 8831 8801 8800 
4 8831 8832 8802 8801 
4 8832 8833 8803 8802 
4 8833 8834 8804 8803 
4 8834 8835 8805 8804 
4 8835 8836 8806 8805 
4 8836 8837 8838 8806 
4 8837 8839 8840 8838 
4 8839 8841 8842 8840 
4 8841 8843 8808 8842 
4 8843 8844 8809 8808 
4 8844 8845 8810 8809 
4 8845 8846 8811 8810 
4 8846 8847 8812 8811 
4 8847 8848 8813 8812 
4 8848 8849 8814 8813 
4 8849 8850 8815 8814 
4 8850 8851 8816 8815 
4 8852 8853 8819 8818 
4 8853 8854 8820 8819 
4 8854 8855 8821 8820 
4 8855 8856 8822 8821 
4 8856 8857 8823 8822 
4 8857 8858 8824 8823 
4 8858 8859 8825 8824 
4 8859 8860 8826 8825 
4 8860 8861 8827 8826 
4 8861 8862 8828 8827 
4 8862 8863 8829 8828 
4 8863 8864 8830 8829 
4 8864 8865 8831 8830 
4 8865 8866 8832 8831 
4 8866 8867 8833 8832 
4 8867 8868 8834 8833 
4 8868 8869 8835 8834 
4 8869 8870 8836 8835 
4 8870 8871 8837 8836 
4 8871 8872 8839 8837 
4 8872 8873 8841 8839 
4 8873 8874 8843 8841 
4 8874 8875 8844 8843 
4 8875 8876 8845 8844 
4 8876 8877 8846 8845 
4 8877 8878 8847 8846 
4 8878 8879 8848 8847 
4 8879 8880 8849 8848 
4 8880 8881 8850 8849 
4 8882 8883 8854 8853 
4 8883 8884 8855 8854 
4 8884 8885 8856 8855 
4 8885 8886 8857 8856 
4 8886 8887 8858 8857 
4 8887 8888 8859 8858 
4 8888 8889 8860 8859 
4 8889 8890 8861 8860 
4 8890 8891 8862 8861 
4 8891 8892 8863 8862 
4 8892 8893 8864 8863 
4 8893 8894 8865 8864 
4 8894 8895 8866 8865 
4 8895 8896 8867 8866 
4 8896 8897 8868 8867 
4 8897 8898 8869 8868 
4 8898 8899 8870 8869 
4 8899 8900 8871 8870 
4 8900 8901 8872 8871 
4 8901 8902 8873 8872 
4 8902 8903 8874 8873 
4 8903 8904 8875 8874 
4 8904 8905 8876 8875 
4 8905 8906 8877 8876 
4 8906 8907 8878 8877 
4 8907 8908 8879 8878 
4 8908 8909 8880 8879 
4 8910 8911 8883 8882 
4 8911 8912 8884 8883 
4 8912 8913 8885 8884 
4 8913 8914 8886 8885 
4 8914 8915 8887 8886 
4 8915 8916 8888 8887 
4 8916 8917 8889 8888 
4 8917 8918 8890 8889 
4 8918 8919 8891 8890 
4 8919 8920 8892 8891 
4 8920 8921 8893 8892 
4 8921 8922 8894 8893 
4 8922 8923 8895 8894 
4 8923 8924 8896 8895 
4 8924 8925 8897 8896 
4 8925 8926 8898 8897 
4 8926 8927 8899 8898 
4 8927 8928 8900 8899 
4 8928 8929 8901 8900 
4 8929 8930 8902 8901 
4 8930 8931 8903 8902 
4 8931 8932 8904 8903 
4 8932 8933 8905 8904 
4 8933 8934 8906 8905 
4 8934 8935 8907 8906 
4 8936 8937 8911 8910 
4 8937 8938 8912 8911 
4 8938 8939 8913 8912 
4 8939 8940 8914 8913 
4 8940 8941 8915 8914 
4 8941 8942 8916 8915 
4 8942 8943 8917 8916 
4 8943 8944 8918 8917 
4 8944 8945 8919 8918 
4 8945 8946 8920 8919 
4 8946 8947 8921 8920 
4 8947 8948 8922 8921 
4 8948 8949 8923 8922 
4 8949 8950 8924 8923 
4 8950 8951 8925 8924 
4 8951 8952 8926 8925 
4 8952 8953 8927 8926 
4 8953 8954 8928 8927 
4 8954 8955 8929 8928 
4 8955 8956 8930 8929 
4 8956 8957 8931 8930 
4 8957 8958 8932 8931 
4 8958 8959 8933 8932 
4 8960 8961 8938 8937 
4 8961 8962 8939 8938 
4 8962 8963 8940 8939 
4 8963 8964 8941 8940 
4 8964 8965 8942 8941 
4 8965 8966 8943 8942 
4 8966 8967 8944 8943 
4 8967 8968 8945 8944 
4 8968 8969 8946 8945 
4 8969 8970 8947 8946 
4 8970 8971 8948 8947 
4 8971 8972 8949 8948 
4 8972 8973 8950 8949 
4 8973 8974 8951 8950 
4 8974 8975 8952 8951 
4 8975 8976 8953 8952 
4 8976 8977 8954 8953 
4 8977 8978 8955 8954 
4 8978 8979 8956 8955 
4 8979 8980 8957 8956 
4 8981 8982 8961 8960 
4 8982 8983 8962 8961 
4 8983 8984 8963 8962 
4 8984 8985 8964 8963 
4 8985 8986 8965 8964 
4 8986 8987 8966 8965 
4 8987 8988 8967 8966 
4 8988 8989 8968 8967 
4 8989 8990 8969 8968 
4 8990 8991 8970 8969 
4 8991 8992 8971 8970 
4 8992 8993 8972 8971 
4 8993 8994 8973 8972 
4 8994 8995 8974 8973 
4 8995 8996 8975 8974 
4 8996 8997 8976 8975 
4 8997 8998 8977 8976 
4 8999 9000 8982 8981 
4 9000 9001 8983 8982 
4 9001 9002 8984 8983 
4 9002 9003 8985 8984 
4 9003 9004 8986 8985 
4 9004 9005 8987 8986 
4 9005 9006 8988 8987 
4 9006 9007 8989 8988 
4 9007 9008 8990 8989 
4 9008 9009 8991 8990 
4 9009 9010 8992 8991 
4 9010 9011 8993 8992 
4 9011 9012 8994 8993 
4 9012 9013 8995 8994 
4 9013 9014 8996 8995 
4 9015 9016 9001 9000 
4 9016 9017 9002 9001 
4 9017 9018 9003 9002 
4 9018 9019 9004 9003 
4 9019 9020 9005 9004 
4 9020 9021 9006 9005 
4 9021 9022 9007 9006 
4 9022 9023 9008 9007 
4 9023 9024 9009 9008 
4 9024 9025 9010 9009 
4 9026 9027 9017 9016 
4 9027 9028 9018 9017 
4 9028 9029 9019 9018 
2 0 3 
2 3 5 
2 5 7 
2 7 9 
2 9 11 
2 11 10 
2 10 43 
2 43 45 
2 45 47 
2 47 46 
2 46 70 
2 70 72 
2 72 71 
2 71 99 
2 99 98 
2 98 124 
2 124 151 
2 151 153 
2 153 152 
2 152 184 
2 184 186 
2 186 185 
2 185 218 
2 218 220 
2 220 219 
2 219 256 
2 256 258 
2 258 257 
2 257 295 
2 295 297 
2 297 296 
2 296 335 
2 335 334 
2 334 373 
2 373 372 
2 372 411 
2 411 410 
2 410 448 
2 448 487 
2 487 486 
2 486 538 
2 538 593 
2 593 592 
2 592 652 
2 652 651 
2 651 736 
2 736 806 
2 806 808 
2 808 810 
2 810 812 
2 812 814 
2 814 816 
2 816 818 
2 818 820 
2 820 822 
2 822 824 
2 824 826 
2 826 825 
2 825 907 
2 907 909 
2 909 911 
2 911 910 
2 910 994 
2 994 993 
2 993 1077 
2 1077 1159 
2 1159 1239 
2 1239 1313 
2 1313 1383 
2 1383 1382 
2 1382 1381 
2 1381 1380 
2 1380 1446 
2 1446 1445 
2 1445 1444 
2 1444 1504 
2 1504 1503 
2 1503 1556 
2 1556 1605 
2 1605 1604 
2 1604 1652 
2 1652 1696 
2 1696 1739 
2 1739 1738 
2 1738 1784 
2 1784 1831 
2 1831 1830 
2 1830 1895 
2 1895 1894 
2 1894 1950 
2 1950 1949 
2 1949 2004 
2 2004 2066 
2 2066 2065 
2 2065 2129 
2 2129 2202 
2 2202 2201 
2 2201 2278 
2 2278 2356 
2 2356 2446 
2 2446 2529 
2 2529 2528 
2 2528 2611 
2 2611 2610 
2 2610 2691 
2 2691 2771 
2 2771 2770 
2 2770 2849 
2 2849 2848 
2 2848 2926 
2 2926 3003 
2 3003 3078 
2 3078 3150 
2 3150 3149 
2 3149 3219 
2 3219 3284 
2 3284 3346 
2 3346 3408 
2 3408 3407 
2 3407 3469 
2 3469 3533 
2 3533 3597 
2 3597 3596 
2 3596 3661 
2 3661 3726 
2 3726 3792 
2 3792 3855 
2 3855 3910 
2 3910 3966 
2 3966 3965 
2 3965 4018 
2 4018 4017 
2 4017 4065 
2 4065 4109 
2 4109 4153 
2 4153 4152 
2 4152 4197 
2 4197 4241 
2 4241 4286 
2 4286 4332 
2 4332 4387 
2 4387 4449 
2 4449 4448 
2 4448 4509 
2 4509 4579 
2 4579 4641 
2 4641 4640 
2 4640 4701 
2 4701 4760 
2 4760 4818 
2 4818 4874 
2 4874 4930 
2 4930 4987 
2 4987 5042 
2 5042 5096 
2 5096 5148 
2 5148 5195 
2 5195 5228 
2 5228 5259 
2 5259 5289 
2 5289 5319 
2 5319 5318 
2 5318 5345 
2 5345 5370 
2 5370 5394 
2 5394 5417 
2 5417 5440 
2 5440 5467 
2 5467 5492 
2 5492 5517 
2 5517 5540 
2 5540 5563 
2 5563 5586 
2 5586 5609 
2 5609 5634 
2 5634 5658 
2 5658 5682 
2 5682 5706 
2 5706 5732 
2 5732 5757 
2 5757 5784 
2 5784 5783 
2 5783 5809 
2 5809 5836 
2 5836 5862 
2 5862 5892 
2 5892 5891 
2 5891 5921 
2 5921 5953 
2 5953 5987 
2 5987 6025 
2 6025 6066 
2 6066 6118 
2 6118 6187 
2 6187 6244 
2 6244 6303 
2 6303 6302 
2 6302 6361 
2 6361 6419 
2 6419 6418 
2 6418 6473 
2 6473 6522 
2 6522 6569 
2 6569 6615 
2 6615 6660 
2 6660 6705 
2 6705 6752 
2 6752 6800 
2 6800 6799 
2 6799 6848 
2 6848 6847 
2 6847 6898 
2 6898 6948 
2 6948 6947 
2 6947 7000 
2 7000 7058 
2 7058 7114 
2 7114 7113 
2 7113 7169 
2 7169 7224 
2 7224 7279 
2 7279 7334 
2 7334 7333 
2 7333 7388 
2 7388 7442 
2 7442 7496 
2 7496 7550 
2 7550 7604 
2 7604 7657 
2 7657 7710 
2 7710 7709 
2 7709 7762 
2 7762 7813 
2 7813 7864 
2 7864 7915 
2 7915 7914 
2 7914 7965 
2 7965 8012 
2 8012 8058 
2 8058 8057 
2 8057 8102 
2 8102 8146 
2 8146 8189 
2 8189 8188 
2 8188 8229 
2 8229 8271 
2 8271 8311 
2 8311 8350 
2 8350 8349 
2 8349 8387 
2 8387 8424 
2 8424 8460 
2 8460 8459 
2 8459 8495 
2 8495 8529 
2 8529 8564 
2 8564 8563 
2 8563 8597 
2 8597 8629 
2 8629 8662 
2 8662 8694 
2 8694 8693 
2 8693 8724 
2 8724 8755 
2 8755 8786 
2 8786 8785 
2 8785 8817 
2 8817 8816 
2 8816 8851 
2 8851 8850 
2 8850 8881 
2 8881 8880 
2 8880 8909 
2 8909 8908 
2 8908 8907 
2 8907 8935 
2 8935 8934 
2 8934 8933 
2 8933 8959 
2 8959 8958 
2 8958 8957 
2 8957 8980 
2 8980 8979 
2 8979 8978 
2 8978 8977 
2 8977 8998 
2 8998 8997 
2 8997 8996 
2 8996 9014 
2 9014 9013 
2 9013 9012 
2 9012 9011 
2 9011 9010 
2 9010 9025 
2 9025 9024 
2 9024 9023 
2 9023 9022 
2 9022 9021 
2 9021 9020 
2 9020 9019 
2 9019 9029 
2 9029 9028 
2 9028 9027 
2 9027 9026 
2 9026 9016 
2 9016 9015 
2 9015 9000 
2 9000 8999 
2 8999 8981 
2 8981 8960 
2 8960 8937 
2 8937 8936 
2 8936 8910 
2 8910 8882 
2 8882 8853 
2 8853 8852 
2 8852 8818 
2 8818 8788 
2 8788 8787 
2 8787 8756 
2 8756 8726 
2 8726 8725 
2 8725 8695 
2 8695 8665 
2 8665 8664 
2 8664 8663 
2 8663 8630 
2 8630 8598 
2 8598 8566 
2 8566 8565 
2 8565 8530 
2 8530 8496 
2 8496 8462 
2 8462 8461 
2 8461 8425 
2 8425 8388 
2 8388 8352 
2 8352 8351 
2 8351 8312 
2 8312 8273 
2 8273 8272 
2 8272 8230 
2 8230 8190 
2 8190 8148 
2 8148 8147 
2 8147 8103 
2 8103 8060 
2 8060 8059 
2 8059 8013 
2 8013 7966 
2 7966 7917 
2 7917 7916 
2 7916 7865 
2 7865 7814 
2 7814 7763 
2 7763 7712 
2 7712 7711 
2 7711 7658 
2 7658 7605 
2 7605 7552 
2 7552 7551 
2 7551 7497 
2 7497 7443 
2 7443 7389 
2 7389 7335 
2 7335 7280 
2 7280 7225 
2 7225 7170 
2 7170 7115 
2 7115 7059 
2 7059 7001 
2 7001 6949 
2 6949 6899 
2 6899 6849 
2 6849 6801 
2 6801 6753 
2 6753 6706 
2 6706 6661 
2 6661 6616 
2 6616 6570 
2 6570 6523 
2 6523 6474 
2 6474 6420 
2 6420 6362 
2 6362 6304 
2 6304 6245 
2 6245 6188 
2 6188 6120 
2 6120 6119 
2 6119 6067 
2 6067 6026 
2 6026 5988 
2 5988 5954 
2 5954 5923 
2 5923 5922 
2 5922 5893 
2 5893 5863 
2 5863 5837 
2 5837 5810 
2 5810 5785 
2 5785 5758 
2 5758 5733 
2 5733 5707 
2 5707 5683 
2 5683 5659 
2 5659 5635 
2 5635 5610 
2 5610 5587 
2 5587 5564 
2 5564 5541 
2 5541 5518 
2 5518 5494 
2 5494 5493 
2 5493 5468 
2 5468 5442 
2 5442 5441 
2 5441 5418 
2 5418 5395 
2 5395 5371 
2 5371 5346 
2 5346 5320 
2 5320 5290 
2 5290 5261 
2 5261 5260 
2 5260 5229 
2 5229 5196 
2 5196 5149 
2 5149 5097 
2 5097 5043 
2 5043 4988 
2 4988 4932 
2 4932 4931 
2 4931 4875 
2 4875 4819 
2 4819 4761 
2 4761 4703 
2 4703 4702 
2 4702 4643 
2 4643 4642 
2 4642 4581 
2 4581 4580 
2 4580 4511 
2 4511 4510 
2 4510 4451 
2 4451 4450 
2 4450 4388 
2 4388 4334 
2 4334 4333 
2 4333 4288 
2 4288 4287 
2 4287 4243 
2 4243 4242 
2 4242 4200 
2 4200 4199 
2 4199 4198 
2 4198 4154 
2 4154 4112 
2 4112 4111 
2 4111 4110 
2 4110 4066 
2 4066 4020 
2 4020 4019 
2 4019 3968 
2 3968 3967 
2 3967 3911 
2 3911 3857 
2 3857 3856 
2 3856 3793 
2 3793 3727 
2 3727 3662 
2 3662 3598 
2 3598 3535 
2 3535 3534 
2 3534 3471 
2 3471 3470 
2 3470 3473 
2 3473 3409 
2 3409 3347 
2 3347 3285 
2 3285 3220 
2 3220 3152 
2 3152 3151 
2 3151 3079 
2 3079 3004 
2 3004 2927 
2 2927 2850 
2 2850 2772 
2 2772 2693 
2 2693 2692 
2 2692 2612 
2 2612 2531 
2 2531 2530 
2 2530 2447 
2 2447 2358 
2 2358 2357 
2 2357 2279 
2 2279 2204 
2 2204 2203 
2 2203 2130 
2 2130 2068 
2 2068 2067 
2 2067 2005 
2 2005 1951 
2 1951 1896 
2 1896 1833 
2 1833 1832 
2 1832 1785 
2 1785 1740 
2 1740 1697 
2 1697 1653 
2 1653 1607 
2 1607 1606 
2 1606 1557 
2 1557 1505 
2 1505 1449 
2 1449 1448 
2 1448 1447 
2 1447 1385 
2 1385 1384 
2 1384 1315 
2 1315 1314 
2 1314 1240 
2 1240 1160 
2 1160 1079 
2 1079 1078 
2 1078 995 
2 995 912 
2 912 827 
2 827 737 
2 737 654 
2 654 653 
2 653 594 
2 594 540 
2 540 539 
2 539 489 
2 489 488 
2 488 491 
2 491 493 
2 493 495 
2 495 497 
2 497 496 
2 496 547 
2 547 549 
2 549 551 
2 551 550 
2 550 604 
2 604 606 
2 606 608 
2 608 610 
2 610 609 
2 609 669 
2 669 671 
2 671 673 
2 673 675 
2 675 677 
2 677 679 
2 679 681 
2 681 683 
2 683 685 
2 685 687 
2 687 689 
2 689 691 
2 691 693 
2 693 695 
2 695 697 
2 697 699 
2 699 612 
2 612 611 
2 611 614 
2 614 553 
2 553 552 
2 552 555 
2 555 499 
2 499 498 
2 498 501 
2 501 503 
2 503 449 
2 449 412 
2 412 374 
2 374 337 
2 337 336 
2 336 299 
2 299 298 
2 298 260 
2 260 259 
2 259 222 
2 222 221 
2 221 187 
2 187 155 
2 155 154 
2 154 125 
2 125 100 
2 100 74 
2 74 73 
2 73 48 
2 48 13 
2 13 12 
2 12 15 
2 15 17 
2 17 19 
2 19 21 
2 21 23 
2 23 25 
2 25 27 
2 27 29 
2 29 31 
2 31 33 
2 33 35 
2 35 1 
2 1 0 
2 465 466 
2 466 467 
2 467 468 
2 468 469 
2 469 521 
2 521 522 
2 522 523 
2 523 576 
2 576 577 
2 577 578 
2 578 579 
2 579 637 
2 637 638 
2 638 639 
2 639 724 
2 724 725 
2 725 793 
2 793 794 
2 794 884 
2 884 968 
2 968 969 
2 969 1053 
2 1053 1135 
2 1135 1136 
2 1136 1216 
2 1216 1217 
2 1217 1291 
2 1291 1361 
2 1361 1362 
2 1362 1428 
2 1428 1488 
2 1488 1489 
2 1489 1542 
2 1542 1543 
2 1543 1592 
2 1592 1640 
2 1640 1684 
2 1684 1725 
2 1725 1769 
2 1769 1770 
2 1770 1814 
2 1814 1811 
2 1811 1812 
2 1812 1875 
2 1875 1873 
2 1873 1871 
2 1871 1869 
2 1869 1867 
2 1867 1865 
2 1865 1863 
2 1863 1861 
2 1861 1859 
2 1859 1857 
2 1857 1854 
2 1854 1855 
2 1855 1918 
2 1918 1916 
2 1916 1913 
2 1913 1914 
2 1914 1970 
2 1970 1967 
2 1967 1968 
2 1968 2028 
2 2028 2026 
2 2026 2023 
2 2023 2024 
2 2024 2089 
2 2089 2087 
2 2087 2084 
2 2084 2085 
2 2085 2157 
2 2157 2155 
2 2155 2153 
2 2153 2151 
2 2151 2149 
2 2149 2146 
2 2146 2147 
2 2147 2228 
2 2228 2226 
2 2226 2224 
2 2224 2221 
2 2221 2222 
2 2222 2302 
2 2302 2300 
2 2300 2297 
2 2297 2298 
2 2298 2389 
2 2389 2387 
2 2387 2385 
2 2385 2383 
2 2383 2381 
2 2381 2379 
2 2379 2377 
2 2377 2375 
2 2375 2295 
2 2295 2296 
2 2296 2219 
2 2219 2220 
2 2220 2145 
2 2145 2083 
2 2083 2021 
2 2021 2022 
2 2022 1966 
2 1966 1911 
2 1911 1912 
2 1912 1847 
2 1847 1800 
2 1800 1755 
2 1755 1756 
2 1756 1711 
2 1711 1667 
2 1667 1621 
2 1621 1572 
2 1572 1520 
2 1520 1464 
2 1464 1402 
2 1402 1333 
2 1333 1259 
2 1259 1179 
2 1179 1180 
2 1180 1181 
2 1181 1182 
2 1182 1183 
2 1183 1184 
2 1184 1185 
2 1185 1260 
2 1260 1261 
2 1261 1262 
2 1262 1263 
2 1263 1334 
2 1334 1335 
2 1335 1336 
2 1336 1403 
2 1403 1404 
2 1404 1405 
2 1405 1465 
2 1465 1466 
2 1466 1467 
2 1467 1521 
2 1521 1522 
2 1522 1523 
2 1523 1573 
2 1573 1574 
2 1574 1622 
2 1622 1623 
2 1623 1624 
2 1624 1668 
2 1668 1669 
2 1669 1670 
2 1670 1712 
2 1712 1713 
2 1713 1757 
2 1757 1758 
2 1758 1759 
2 1759 1801 
2 1801 1802 
2 1802 1803 
2 1803 1804 
2 1804 1848 
2 1848 1849 
2 1849 1850 
2 1850 1851 
2 1851 1852 
2 1852 1853 
2 1853 1809 
2 1809 1810 
2 1810 1768 
2 1768 1724 
2 1724 1682 
2 1682 1683 
2 1683 1639 
2 1639 1591 
2 1591 1541 
2 1541 1487 
2 1487 1427 
2 1427 1360 
2 1360 1289 
2 1289 1290 
2 1290 1215 
2 1215 1134 
2 1134 1051 
2 1051 1052 
2 1052 967 
2 967 882 
2 882 883 
2 883 791 
2 791 792 
2 792 723 
2 723 636 
2 636 575 
2 575 520 
2 520 465 
2 2979 2980 
2 2980 2981 
2 2981 2982 
2 2982 3057 
2 3057 3058 
2 3058 3059 
2 3059 3131 
2 3131 3132 
2 3132 3202 
2 3202 3203 
2 3203 3204 
2 3204 3269 
2 3269 3270 
2 3270 3271 
2 3271 3333 
2 3333 3334 
2 3334 3394 
2 3394 3456 
2 3456 3520 
2 3520 3584 
2 3584 3647 
2 3647 3648 
2 3648 3711 
2 3711 3712 
2 3712 3776 
2 3776 3777 
2 3777 3840 
2 3840 3895 
2 3895 3949 
2 3949 3950 
2 3950 4001 
2 4001 4002 
2 4002 4048 
2 4048 4049 
2 4049 4091 
2 4091 4092 
2 4092 4134 
2 4134 4135 
2 4135 4179 
2 4179 4176 
2 4176 4177 
2 4177 4220 
2 4220 4221 
2 4221 4265 
2 4265 4262 
2 4262 4263 
2 4263 4308 
2 4308 4309 
2 4309 4363 
2 4363 4360 
2 4360 4361 
2 4361 4422 
2 4422 4423 
2 4423 4483 
2 4483 4480 
2 4480 4481 
2 4481 4551 
2 4551 4549 
2 4549 4547 
2 4547 4545 
2 4545 4543 
2 4543 4541 
2 4541 4539 
2 4539 4478 
2 4478 4479 
2 4479 4420 
2 4420 4421 
2 4421 4419 
2 4419 4417 
2 4417 4415 
2 4415 4413 
2 4413 4411 
2 4411 4358 
2 4358 4359 
2 4359 4357 
2 4357 4355 
2 4355 4353 
2 4353 4306 
2 4306 4307 
2 4307 4261 
2 4261 4219 
2 4219 4175 
2 4175 4133 
2 4133 4089 
2 4089 4090 
2 4090 4044 
2 4044 3993 
2 3993 3994 
2 3994 3938 
2 3938 3939 
2 3939 3940 
2 3940 3886 
2 3886 3887 
2 3887 3888 
2 3888 3825 
2 3825 3826 
2 3826 3827 
2 3827 3828 
2 3828 3829 
2 3829 3830 
2 3830 3831 
2 3831 3832 
2 3832 3766 
2 3766 3767 
2 3767 3768 
2 3768 3769 
2 3769 3833 
2 3833 3889 
2 3889 3941 
2 3941 3942 
2 3942 3995 
2 3995 3996 
2 3996 4045 
2 4045 4046 
2 4046 4047 
2 4047 3998 
2 3998 3999 
2 3999 4000 
2 4000 3947 
2 3947 3948 
2 3948 3894 
2 3894 3838 
2 3838 3839 
2 3839 3775 
2 3775 3710 
2 3710 3646 
2 3646 3583 
2 3583 3519 
2 3519 3454 
2 3454 3455 
2 3455 3393 
2 3393 3331 
2 3331 3332 
2 3332 3267 
2 3267 3268 
2 3268 3200 
2 3200 3201 
2 3201 3129 
2 3129 3130 
2 3130 3055 
2 3055 3056 
2 3056 2979 
2 4805 4806 
2 4806 4807 
2 4807 4808 
2 4808 4864 
2 4864 4920 
2 4920 4977 
2 4977 5032 
2 5032 5086 
2 5086 5138 
2 5138 5183 
2 5183 5184 
2 5184 5217 
2 5217 5248 
2 5248 5278 
2 5278 5306 
2 5306 5307 
2 5307 5334 
2 5334 5359 
2 5359 5383 
2 5383 5406 
2 5406 5429 
2 5429 5454 
2 5454 5455 
2 5455 5480 
2 5480 5505 
2 5505 5528 
2 5528 5551 
2 5551 5574 
2 5574 5597 
2 5597 5620 
2 5620 5621 
2 5621 5645 
2 5645 5669 
2 5669 5693 
2 5693 5719 
2 5719 5744 
2 5744 5769 
2 5769 5770 
2 5770 5796 
2 5796 5823 
2 5823 5849 
2 5849 5877 
2 5877 5878 
2 5878 5908 
2 5908 5938 
2 5938 5939 
2 5939 5971 
2 5971 5972 
2 5972 6008 
2 6008 6009 
2 6009 6048 
2 6048 6049 
2 6049 6100 
2 6100 6097 
2 6097 6098 
2 6098 6167 
2 6167 6165 
2 6165 6163 
2 6163 6161 
2 6161 6159 
2 6159 6157 
2 6157 6155 
2 6155 6153 
2 6153 6151 
2 6151 6149 
2 6149 6147 
2 6147 6095 
2 6095 6096 
2 6096 6094 
2 6094 6092 
2 6092 6090 
2 6090 6088 
2 6088 6046 
2 6046 6047 
2 6047 6045 
2 6045 6006 
2 6006 6007 
2 6007 6005 
2 6005 5969 
2 5969 5970 
2 5970 5937 
2 5937 5906 
2 5906 5907 
2 5907 5875 
2 5875 5876 
2 5876 5848 
2 5848 5821 
2 5821 5822 
2 5822 5795 
2 5795 5768 
2 5768 5743 
2 5743 5717 
2 5717 5718 
2 5718 5692 
2 5692 5668 
2 5668 5644 
2 5644 5619 
2 5619 5596 
2 5596 5573 
2 5573 5550 
2 5550 5527 
2 5527 5503 
2 5503 5504 
2 5504 5479 
2 5479 5453 
2 5453 5428 
2 5428 5405 
2 5405 5381 
2 5381 5382 
2 5382 5357 
2 5357 5358 
2 5358 5332 
2 5332 5333 
2 5333 5303 
2 5303 5304 
2 5304 5305 
2 5305 5276 
2 5276 5277 
2 5277 5246 
2 5246 5247 
2 5247 5214 
2 5214 5215 
2 5215 5216 
2 5216 5169 
2 5169 5170 
2 5170 5118 
2 5118 5119 
2 5119 5120 
2 5120 5121 
2 5121 5122 
2 5122 5123 
2 5123 5124 
2 5124 5125 
2 5125 5171 
2 5171 5172 
2 5172 5173 
2 5173 5174 
2 5174 5175 
2 5175 5176 
2 5176 5177 
2 5177 5178 
2 5178 5179 
2 5179 5180 
2 5180 5181 
2 5181 5182 
2 5182 5136 
2 5136 5137 
2 5137 5083 
2 5083 5084 
2 5084 5085 
2 5085 5030 
2 5030 5031 
2 5031 4975 
2 4975 4976 
2 4976 4918 
2 4918 4919 
2 4919 4863 
2 4863 4805 
2 6390 6391 
2 6391 6392 
2 6392 6393 
2 6393 6394 
2 6394 6449 
2 6449 6450 
2 6450 6451 
2 6451 6500 
2 6500 6501 
2 6501 6548 
2 6548 6549 
2 6549 6595 
2 6595 6596 
2 6596 6641 
2 6641 6686 
2 6686 6731 
2 6731 6732 
2 6732 6780 
2 6780 6829 
2 6829 6878 
2 6878 6879 
2 6879 6929 
2 6929 6980 
2 6980 6981 
2 6981 7038 
2 7038 7036 
2 7036 7034 
2 7034 7032 
2 7032 6978 
2 6978 6979 
2 6979 6927 
2 6927 6928 
2 6928 6876 
2 6876 6877 
2 6877 6827 
2 6827 6828 
2 6828 6778 
2 6778 6779 
2 6779 6730 
2 6730 6685 
2 6685 6640 
2 6640 6594 
2 6594 6547 
2 6547 6498 
2 6498 6499 
2 6499 6445 
2 6445 6446 
2 6446 6447 
2 6447 6448 
2 6448 6390 
2 7955 7956 
2 7956 7957 
2 7957 7958 
2 7958 8005 
2 8005 8051 
2 8051 8096 
2 8096 8138 
2 8138 8139 
2 8139 8182 
2 8182 8223 
2 8223 8263 
2 8263 8264 
2 8264 8304 
2 8304 8343 
2 8343 8381 
2 8381 8416 
2 8416 8417 
2 8417 8453 
2 8453 8489 
2 8489 8523 
2 8523 8556 
2 8556 8557 
2 8557 8591 
2 8591 8623 
2 8623 8654 
2 8654 8655 
2 8655 8687 
2 8687 8716 
2 8716 8717 
2 8717 8746 
2 8746 8747 
2 8747 8776 
2 8776 8777 
2 8777 8807 
2 8807 8808 
2 8808 8842 
2 8842 8840 
2 8840 8838 
2 8838 8806 
2 8806 8775 
2 8775 8745 
2 8745 8715 
2 8715 8685 
2 8685 8686 
2 8686 8653 
2 8653 8621 
2 8621 8622 
2 8622 8590 
2 8590 8555 
2 8555 8521 
2 8521 8522 
2 8522 8488 
2 8488 8452 
2 8452 8415 
2 8415 8379 
2 8379 8380 
2 8380 8341 
2 8341 8342 
2 8342 8303 
2 8303 8261 
2 8261 8262 
2 8262 8222 
2 8222 8180 
2 8180 8181 
2 8181 8137 
2 8137 8094 
2 8094 8095 
2 8095 8049 
2 8049 8050 
2 8050 8003 
2 8003 8004 
2 8004 7955 

CELL_TYPES 9646
9
9
9
9
9
9
9
9
9
9
9
9
9
9
9
9
9
9
9
9
9
9
9
9
9
9
9
9
9
9
9
9
9
9
9
9
9
9
9
9
9
9
9
9
9
9
9
9
9
9
9
9
9
9
9
9
9
9
9
9
9
9
9
9
9
9
9
9
9
9
9
9
9
9
9
9
9
9
9
9
9
9
9
9
9
9
9
9
9
9
9
9
9
9
9
9
9
9
9
9
9
9
9
9
9
9
9
9
9
9
9
9
9
9
9
9
9
9
9
9
9
9
9
9
9
9
9
9
9
9
9
9
9
9
9
9
9
9
9
9
9
9
9
9
9
9
9
9
9
9
9
9
9
9
9
9
9
9
9
9
9
9
9
9
9
9
9
9
9
9
9
9
9
9
9
9
9
9
9
9
9
9
9
9
9
9
9
9
9
9
9
9
9
9
9
9
9
9
9
9
9
9
9
9
9
9
9
9
9
9
9
9
9
9
9
9
9
9
9
9
9
9
9
9
9
9
9
9
9
9
9
9
9
9
9
9
9
9
9
9
9
9
9
9
9
9
9
9
9
9
9
9
9
9
9
9
9
9
9
9
9
9
9
9
9
9
9
9
9
9
9
9
9
9
9
9
9
9
9
9
9
9
9
9
9
9
9
9
9
9
9
9
9
9
9
9
9
9
9
9
9
9
9
9
9
9
9
9
9
9
9
9
9
9
9
9
9
9
9
9
9
9
9
9
9
9
9
9
9
9
9
9
9
9
9
9
9
9
9
9
9
9
9
9
9
9
9
9
9
9
9
9
9
9
9
9
9
9
9
9
9
9
9
9
9
9
9
9
9
9
9
9
9
9
9
9
9
9
9
9
9
9
9
9
9
9
9
9
9
9
9
9
9
9
9
9
9
9
9
9
9
9
9
9
9
9
9
9
9
9
9
9
9
9
9
9
9
9
9
9
9
9
9
9
9
9
9
9
9
9
9
9
9
9
9
9
9
9
9
9
9
9
9
9
9
9
9
9
9
9
9
9
9
9
9
9
9
9
9
9
9
9
9
9
9
9
9
9
9
9
9
9
9
9
9
9
9
9
9
9
9
9
9
9
9
9
9
9
9
9
9
9
9
9
9
9
9
9
9
9
9
9
9
9
9
9
9
9
9
9
9
9
9
9
9
9
9
9
9
9
9
9
9
9
9
9
9
9
9
9
9
9
9
9
9
9
9
9
9
9
9
9
9
9
9
9
9
9
9
9
9
9
9
9
9
9
9
9
9
9
9
9
9
9
9
9
9
9
9
9
9
9
9
9
9
9
9
9
9
9
9
9
9
9
9
9
9
9
9
9
9
9
9
9
9
9
9
9
9
9
9
9
9
9
9
9
9
9
9
9
9
9
9
9
9
9
9
9
9
9
9
9
9
9
9
9
9
9
9
9
9
9
9
9
9
9
9
9
9
9
9
9
9
9
9
9
9
9
9
9
9
9
9
9
9
9
9
9
9
9
9
9
9
9
9
9
9
9
9
9
9
9
9
9
9
9
9
9
9
9
9
9
9
9
9
9
9
9
9
9
9
9
9
9
9
9
9
9
9
9
9
9
9
9
9
9
9
9
9
9
9
9
9
9
9
9
9
9
9
9
9
9
9
9
9
9
9
9
9
9
9
9
9
9
9
9
9
9
9
9
9
9
9
9
9
9
9
9
9
9
9
9
9
9
9
9
9
9
9
9
9
9
9
9
9
9
9
9
9
9
9
9
9
9
9
9
9
9
9
9
9
9
9
9
9
9
9
9
9
9
9
9
9
9
9
9
9
9
9
9
9
9
9
9
9
9
9
9
9
9
9
9
9
9
9
9
9
9
9
9
9
9
9
9
9
9
9
9
9
9
9
9
9
9
9
9
9
9
9
9
9
9
9
9
9
9
9
9
9
9
9
9
9
9
9
9
9
9
9
9
9
9
9
9
9
9
9
9
9
9
9
9
9
9
9
9
9
9
9
9
9
9
9
9
9
9
9
9
9
9
9
9
9
9
9
9
9
9
9
9
9
9
9
9
9
9
9
9
9
9
9
9
9
9
9
9
9
9
9
9
9
9
9
9
9
9
9
9
9
9
9
9
9
9
9
9
9
9
9
9
9
9
9
9
9
9
9
9
9
9
9
9
9
9
9
9
9
9
9
9
9
9
9
9
9
9
9
9
9
9
9
9
9
9
9
9
9
9
9
9
9
9
9
9
9
9
9
9
9
9
9
9
9
9
9
9
9
9
9
9
9
9
9
9
9
9
9
9
9
9
9
9
9
9
9
9
9
9
9
9
9
9
9
9
9
9
9
9
9
9
9
9
9
9
9
9
9
9
9
9
9
9
9
9
9
9
9
9
9
9
9
9
9
9
9
9
9
9
9
9
9
9
9
9
9
9
9
9
9
9
9
9
9
9
9
9
9
9
9
9
9
9
9
9
9
9
9
9
9
9
9
9
9
9
9
9
9
9
9
9
9
9
9
9
9
9
9
9
9
9
9
9
9
9
9
9
9
9
9
9
9
9
9
9
9
9
9
9
9
9
9
9
9
9
9
9
9
9
9
9
9
9
9
9
9
9
9
9
9
9
9
9
9
9
9
9
9
9
9
9
9
9
9
9
9
9
9
9
9
9
9
9
9
9
9
9
9
9
9
9
9
9
9
9
9
9
9
9
9
9
9
9
9
9
9
9
9
9
9
9
9
9
9
9
9
9
9
9
9
9
9
9
9
9
9
9
9
9
9
9
9
9
9
9
9
9
9
9
9
9
9
9
9
9
9
9
9
9
9
9
9
9
9
9
9
9
9
9
9
9
9
9
9
9
9
9
9
9
9
9
9
9
9
9
9
9
9
9
9
9
9
9
9
9
9
9
9
9
9
9
9
9
9
9
9
9
9
9
9
9
9
9
9
9
9
9
9
9
9
9
9
9
9
9
9
9
9
9
9
9
9
9
9
9
9
9
9
9
9
9
9
9
9
9
9
9
9
9
9
9
9
9
9
9
9
9
9
9
9
9
9
9
9
9
9
9
9
9
9
9
9
9
9
9
9
9
9
9
9
9
9
9
9
9
9
9
9
9
9
9
9
9
9
9
9
9
9
9
9
9
9
9
9
9
9
9
9
9
9
9
9
9
9
9
9
9
9
9
9
9
9
9
9
9
9
9
9
9
9
9
9
9
9
9
9
9
9
9
9
9
9
9
9
9
9
9
9
9
9
9
9
9
9
9
9
9
9
9
9
9
9
9
9
9
9
9
9
9
9
9
9
9
9
9
9
9
9
9
9
9
9
9
9
9
9
9
9
9
9
9
9
9
9
9
9
9
9
9
9
9
9
9
9
9
9
9
9
9
9
9
9
9
9
9
9
9
9
9
9
9
9
9
9
9
9
9
9
9
9
9
9
9
9
9
9
9
9
9
9
9
9
9
9
9
9
9
9
9
9
9
9
9
9
9
9
9
9
9
9
9
9
9
9
9
9
9
9
9
9
9
9
9
9
9
9
9
9
9
9
9
9
9
9
9
9
9
9
9
9
9
9
9
9
9
9
9
9
9
9
9
9
9
9
9
9
9
9
9
9
9
9
9
9
9
9
9
9
9
9
9
9
9
9
9
9
9
9
9
9
9
9
9
9
9
9
9
9
9
9
9
9
9
9
9
9
9
9
9
9
9
9
9
9
9
9
9
9
9
9
9
9
9
9
9
9
9
9
9
9
9
9
9
9
9
9
9
9
9
9
9
9
9
9
9
9
9
9
9
9
9
9
9
9
9
9
9
9
9
9
9
9
9
9
9
9
9
9
9
9
9
9
9
9
9
9
9
9
9
9
9
9
9
9
9
9
9
9
9
9
9
9
9
9
9
9
9
9
9
9
9
9
9
9
9
9
9
9
9
9
9
9
9
9
9
9
9
9
9
9
9
9
9
9
9
9
9
9
9
9
9
9
9
9
9
9
9
9
9
9
9
9
9
9
9
9
9
9
9
9
9
9
9
9
9
9
9
9
9
9
9
9
9
9
9
9
9
9
9
9
9
9
9
9
9
9
9
9
9
9
9
9
9
9
9
9
9
9
9
9
9
9
9
9
9
9
9
9
9
9
9
9
9
9
9
9
9
9
9
9
9
9
9
9
9
9
9
9
9
9
9
9
9
9
9
9
9
9
9
9
9
9
9
9
9
9
9
9
9
9
9
9
9
9
9
9
9
9
9
9
9
9
9
9
9
9
9
9
9
9
9
9
9
9
9
9
9
9
9
9
9
9
9
9
9
9
9
9
9
9
9
9
9
9
9
9
9
9
9
9
9
9
9
9
9
9
9
9
9
9
9
9
9
9
9
9
9
9
9
9
9
9
9
9
9
9
9
9
9
9
9
9
9
9
9
9
9
9
9
9
9
9
9
9
9
9
9
9
9
9
9
9
9
9
9
9
9
9
9
9
9
9
9
9
9
9
9
9
9
9
9
9
9
9
9
9
9
9
9
9
9
9
9
9
9
9
9
9
9
9
9
9
9
9
9
9
9
9
9
9
9
9
9
9
9
9
9
9
9
9
9
9
9
9
9
9
9
9
9
9
9
9
9
9
9
9
9
9
9
9
9
9
9
9
9
9
9
9
9
9
9
9
9
9
9
9
9
9
9
9
9
9
9
9
9
9
9
9
9
9
9
9
9
9
9
9
9
9
9
9
9
9
9
9
9
9
9
9
9
9
9
9
9
9
9
9
9
9
9
9
9
9
9
9
9
9
9
9
9
9
9
9
9
9
9
9
9
9
9
9
9
9
9
9
9
9
9
9
9
9
9
9
9
9
9
9
9
9
9
9
9
9
9
9
9
9
9
9
9
9
9
9
9
9
9
9
9
9
9
9
9
9
9
9
9
9
9
9
9
9
9
9
9
9
9
9
9
9
9
9
9
9
9
9
9
9
9
9
9
9
9
9
9
9
9
9
9
9
9
9
9
9
9
9
9
9
9
9
9
9
9
9
9
9
9
9
9
9
9
9
9
9
9
9
9
9
9
9
9
9
9
9
9
9
9
9
9
9
9
9
9
9
9
9
9
9
9
9
9
9
9
9
9
9
9
9
9
9
9
9
9
9
9
9
9
9
9
9
9
9
9
9
9
9
9
9
9
9
9
9
9
9
9
9
9
9
9
9
9
9
9
9
9
9
9
9
9
9
9
9
9
9
9
9
9
9
9
9
9
9
9
9
9
9
9
9
9
9
9
9
9
9
9
9
9
9
9
9
9
9
9
9
9
9
9
9
9
9
9
9
9
9
9
9
9
9
9
9
9
9
9
9
9
9
9
9
9
9
9
9
9
9
9
9
9
9
9
9
9
9
9
9
9
9
9
9
9
9
9
9
9
9
9
9
9
9
9
9
9
9
9
9
9
9
9
9
9
9
9
9
9
9
9
9
9
9
9
9
9
9
9
9
9
9
9
9
9
9
9
9
9
9
9
9
9
9
9
9
9
9
9
9
9
9
9
9
9
9
9
9
9
9
9
9
9
9
9
9
9
9
9
9
9
9
9
9
9
9
9
9
9
9
9
9
9
9
9
9
9
9
9
9
9
9
9
9
9
9
9
9
9
9
9
9
9
9
9
9
9
9
9
9
9
9
9
9
9
9
9
9
9
9
9
9
9
9
9
9
9
9
9
9
9
9
9
9
9
9
9
9
9
9
9
9
9
9
9
9
9
9
9
9
9
9
9
9
9
9
9
9
9
9
9
9
9
9
9
9
9
9
9
9
9
9
9
9
9
9
9
9
9
9
9
9
9
9
9
9
9
9
9
9
9
9
9
9
9
9
9
9
9
9
9
9
9
9
9
9
9
9
9
9
9
9
9
9
9
9
9
9
9
9
9
9
9
9
9
9
9
9
9
9
9
9
9
9
9
9
9
9
9
9
9
9
9
9
9
9
9
9
9
9
9
9
9
9
9
9
9
9
9
9
9
9
9
9
9
9
9
9
9
9
9
9
9
9
9
9
9
9
9
9
9
9
9
9
9
9
9
9
9
9
9
9
9
9
9
9
9
9
9
9
9
9
9
9
9
9
9
9
9
9
9
9
9
9
9
9
9
9
9
9
9
9
9
9
9
9
9
9
9
9
9
9
9
9
9
9
9
9
9
9
9
9
9
9
9
9
9
9
9
9
9
9
9
9
9
9
9
9
9
9
9
9
9
9
9
9
9
9
9
9
9
9
9
9
9
9
9
9
9
9
9
9
9
9
9
9
9
9
9
9
9
9
9
9
9
9
9
9
9
9
9
9
9
9
9
9
9
9
9
9
9
9
9
9
9
9
9
9
9
9
9
9
9
9
9
9
9
9
9
9
9
9
9
9
9
9
9
9
9
9
9
9
9
9
9
9
9
9
9
9
9
9
9
9
9
9
9
9
9
9
9
9
9
9
9
9
9
9
9
9
9
9
9
9
9
9
9
9
9
9
9
9
9
9
9
9
9
9
9
9
9
9
9
9
9
9
9
9
9
9
9
9
9
9
9
9
9
9
9
9
9
9
9
9
9
9
9
9
9
9
9
9
9
9
9
9
9
9
9
9
9
9
9
9
9
9
9
9
9
9
9
9
9
9
9
9
9
9
9
9
9
9
9
9
9
9
9
9
9
9
9
9
9
9
9
9
9
9
9
9
9
9
9
9
9
9
9
9
9
9
9
9
9
9
9
9
9
9
9
9
9
9
9
9
9
9
9
9
9
9
9
9
9
9
9
9
9
9
9
9
9
9
9
9
9
9
9
9
9
9
9
9
9
9
9
9
9
9
9
9
9
9
9
9
9
9
9
9
9
9
9
9
9
9
9
9
9
9
9
9
9
9
9
9
9
9
9
9
9
9
9
9
9
9
9
9
9
9
9
9
9
9
9
9
9
9
9
9
9
9
9
9
9
9
9
9
9
9
9
9
9
9
9
9
9
9
9
9
9
9
9
9
9
9
9
9
9
9
9
9
9
9
9
9
9
9
9
9
9
9
9
9
9
9
9
9
9
9
9
9
9
9
9
9
9
9
9
9
9
9
9
9
9
9
9
9
9
9
9
9
9
9
9
9
9
9
9
9
9
9
9
9
9
9
9
9
9
9
9
9
9
9
9
9
9
9
9
9
9
9
9
9
9
9
9
9
9
9
9
9
9
9
9
9
9
9
9
9
9
9
9
9
9
9
9
9
9
9
9
9
9
9
9
9
9
9
9
9
9
9
9
9
9
9
9
9
9
9
9
9
9
9
9
9
9
9
9
9
9
9
9
9
9
9
9
9
9
9
9
9
9
9
9
9
9
9
9
9
9
9
9
9
9
9
9
9
9
9
9
9
9
9
9
9
9
9
9
9
9
9
9
9
9
9
9
9
9
9
9
9
9
9
9
9
9
9
9
9
9
9
9
9
9
9
9
9
9
9
9
9
9
9
9
9
9
9
9
9
9
9
9
9
9
9
9
9
9
9
9
9
9
9
9
9
9
9
9
9
9
9
9
9
9
9
9
9
9
9
9
9
9
9
9
9
9
9
9
9
9
9
9
9
9
9
9
9
9
9
9
9
9
9
9
9
9
9
9
9
9
9
9
9
9
9
9
9
9
9
9
9
9
9
9
9
9
9
9
9
9
9
9
9
9
9
9
9
9
9
9
9
9
9
9
9
9
9
9
9
9
9
9
9
9
9
9
9
9
9
9
9
9
9
9
9
9
9
9
9
9
9
9
9
9
9
9
9
9
9
9
9
9
9
9
9
9
9
9
9
9
9
9
9
9
9
9
9
9
9
9
9
9
9
9
9
9
9
9
9
9
9
9
9
9
9
9
9
9
9
9
9
9
9
9
9
9
9
9
9
9
9
9
9
9
9
9
9
9
9
9
9
9
9
9
9
9
9
9
9
9
9
9
9
9
9
9
9
9
9
9
9
9
9
9
9
9
9
9
9
9
9
9
9
9
9
9
9
9
9
9
9
9
9
9
9
9
9
9
9
9
9
9
9
9
9
9
9
9
9
9
9
9
9
9
9
9
9
9
9
9
9
9
9
9
9
9
9
9
9
9
9
9
9
9
9
9
9
9
9
9
9
9
9
9
9
9
9
9
9
9
9
9
9
9
9
9
9
9
9
9
9
9
9
9
9
9
9
9
9
9
9
9
9
9
9
9
9
9
9
9
9
9
9
9
9
9
9
9
9
9
9
9
9
9
9
9
9
9
9
9
9
9
9
9
9
9
9
9
9
9
9
9
9
9
9
9
9
9
9
9
9
9
9
9
9
9
9
9
9
9
9
9
9
9
9
9
9
9
9
9
9
9
9
9
9
9
9
9
9
9
9
9
9
9
9
9
9
9
9
9
9
9
9
9
9
9
9
9
9
9
9
9
9
9
9
9
9
9
9
9
9
9
9
9
9
9
9
9
9
9
9
9
9
9
9
9
9
9
9
9
9
9
9
9
9
9
9
9
9
9
9
9
9
9
9
9
9
9
9
9
9
9
9
9
9
9
9
9
9
9
9
9
9
9
9
9
9
9
9
9
9
9
9
9
9
9
9
9
9
9
9
9
9
9
9
9
9
9
9
9
9
9
9
9
9
9
9
9
9
9
9
9
9
9
9
9
9
9
9
9
9
9
9
9
9
9
9
9
9
9
9
9
9
9
9
9
9
9
9
9
9
9
9
9
9
9
9
9
9
9
9
9
9
9
9
9
9
9
9
9
9
9
9
9
9
9
9
9
9
9
9
9
9
9
9
9
9
9
9
9
9
9
9
9
9
9
9
9
9
9
9
9
9
9
9
9
9
9
9
9
9
9
9
9
9
9
9
9
9
9
9
9
9
9
9
9
9
9
9
9
9
9
9
9
9
9
9
9
9
9
9
9
9
9
9
9
9
9
9
9
9
9
9
9
9
9
9
9
9
9
9
9
9
9
9
9
9
9
9
9
9
9
9
9
9
9
9
9
9
9
9
9
9
9
9
9
9
9
9
9
9
9
9
9
9
9
9
9
9
9
9
9
9
9
9
9
9
9
9
9
9
9
9
9
9
9
9
9
9
9
9
9
9
9
9
9
9
9
9
9
9
9
9
9
9
9
9
9
9
9
9
9
9
9
9
9
9
9
9
9
9
9
9
9
9
9
9
9
9
9
9
9
9
9
9
9
9
9
9
9
9
9
9
9
9
9
9
9
9
9
9
9
9
9
9
9
9
9
9
9
9
9
9
9
9
9
9
9
9
9
9
9
9
9
9
9
9
9
9
9
9
9
9
9
9
9
9
9
9
9
9
9
9
9
9
9
9
9
9
9
9
9
9
9
9
9
9
9
9
9
9
9
9
9
9
9
9
9
9
9
9
9
9
9
9
9
9
9
9
9
9
9
9
9
9
9
9
9
9
9
9
9
9
9
9
9
9
9
9
9
9
9
9
9
9
9
9
9
9
9
9
9
9
9
9
9
9
9
9
9
9
9
9
9
9
9
9
9
9
9
9
9
9
9
9
9
9
9
9
9
9
9
9
9
9
9
9
9
9
9
9
9
9
9
9
9
9
9
9
9
9
9
9
9
9
9
9
9
9
9
9
9
9
9
9
9
9
9
9
9
9
9
9
9
9
9
9
9
9
9
9
9
9
9
9
9
9
9
9
9
9
9
9
9
9
9
9
9
9
9
9
9
9
9
9
9
9
9
9
9
9
9
9
9
9
9
9
9
9
9
9
9
9
9
9
9
9
9
9
9
9
9
9
9
9
9
9
9
9
9
9
9
9
9
9
9
9
9
9
9
9
9
9
9
9
9
9
9
9
9
9
9
9
9
9
9
9
9
9
9
9
9
9
9
9
9
9
9
9
9
9
9
9
9
9
9
9
9
9
9
9
9
9
9
9
9
9
9
9
9
9
9
9
9
9
9
9
9
9
9
9
9
9
9
9
9
9
9
9
9
9
9
9
9
9
9
9
9
9
9
9
9
9
9
9
9
9
9
9
9
9
9
9
9
9
9
9
9
9
9
9
9
9
9
9
9
9
9
9
9
9
9
9
9
9
9
9
9
9
9
9
9
9
9
9
9
9
9
9
9
9
9
9
9
9
9
9
9
9
9
9
9
9
9
9
9
9
9
9
9
9
9
9
9
9
9
9
9
9
9
9
9
9
9
9
9
9
9
9
9
9
9
9
9
9
9
9
9
9
9
9
9
9
9
9
9
9
9
9
9
9
9
9
9
9
9
9
9
9
9
9
9
9
9
9
9
9
9
9
9
9
9
9
9
9
9
9
9
9
9
9
9
9
9
9
9
9
9
9
9
9
9
9
9
9
9
9
9
9
9
9
9
9
9
9
9
9
9
9
9
9
9
9
9
9
9
9
9
9
9
9
9
9
9
9
9
9
9
9
9
9
9
9
9
9
9
9
9
9
9
9
9
9
9
9
9
9
9
9
9
9
9
9
9
9
9
9
9
9
9
9
9
9
9
9
9
9
9
9
9
9
9
9
9
9
9
9
9
9
9
9
9
9
9
9
9
9
9
9
9
9
9
9
9
9
9
9
9
9
9
9
9
9
9
9
9
9
9
9
9
9
9
9
9
9
9
9
9
9
9
9
9
9
9
9
9
9
9
9
9
9
9
9
9
9
9
9
9
9
9
9
9
9
9
9
9
9
9
9
9
9
9
9
9
9
9
9
9
9
9
9
9
9
9
9
9
9
9
9
9
9
9
9
9
9
9
9
9
9
9
9
9
9
9
9
9
9
9
9
9
9
9
9
9
9
9
9
9
9
9
9
9
9
9
9
9
9
9
9
9
9
9
9
9
9
9
9
9
9
9
9
9
9
9
9
9
9
9
9
9
9
9
9
9
9
9
9
9
9
9
9
9
9
9
9
9
9
9
9
9
9
9
9
9
9
9
9
9
9
9
9
9
9
9
9
9
9
9
9
9
9
9
9
9
9
9
9
9
9
9
9
9
9
9
9
9
9
9
9
9
9
9
9
9
9
9
9
9
9
9
9
9
9
9
9
9
9
9
9
9
9
9
9
9
9
9
9
9
9
9
9
9
9
9
9
9
9
9
9
9
9
9
9
9
9
9
9
9
9
9
9
9
9
9
9
9
9
9
9
9
9
9
9
9
9
9
9
9
9
9
9
9
9
9
9
9
9
9
9
9
9
9
9
9
9
9
9
9
9
9
9
9
9
9
9
9
9
9
9
9
9
9
9
9
9
9
9
9
9
9
9
9
9
9
9
9
9
9
9
9
9
9
9
9
9
9
9
9
9
9
9
9
9
9
9
9
9
9
9
9
9
9
9
9
9
9
9
9
9
9
9
9
9
9
9
9
9
9
9
9
9
9
9
9
9
9
9
9
9
9
9
9
9
9
9
9
9
9
9
9
9
9
9
9
9
9
9
9
9
9
9
9
9
9
9
9
9
9
9
9
9
9
9
9
9
9
9
9
9
9
9
9
9
9
9
9
9
9
9
9
9
9
9
9
9
9
9
9
9
9
9
9
9
9
9
9
9
9
9
9
9
9
9
9
9
9
9
9
9
9
9
9
9
9
9
9
9
9
9
9
9
9
9
9
9
9
9
9
9
9
9
9
9
9
9
9
9
9
9
9
9
9
9
9
9
9
9
9
9
9
9
9
9
9
9
9
9
9
9
9
9
9
9
9
9
9
9
9
9
9
9
9
9
9
9
9
9
9
9
9
9
9
9
9
9
9
9
9
9
9
9
9
9
9
9
9
9
9
9
9
9
9
9
9
9
9
9
9
9
9
9
9
9
9
9
9
9
9
9
9
9
9
9
9
9
9
9
9
9
9
9
9
9
9
9
9
9
9
9
9
9
9
9
9
9
9
9
9
9
9
9
9
9
9
9
9
9
9
9
9
9
9
9
9
9
9
9
9
9
9
9
9
9
9
9
9
9
9
9
9
9
9
9
9
9
9
9
9
9
9
9
9
9
9
9
9
9
9
9
9
9
9
9
9
9
9
9
9
9
9
9
9
9
9
9
9
9
9
9
9
9
9
9
9
9
9
9
9
9
9
9
9
9
9
9
9
9
9
9
9
9
9
9
9
9
9
9
9
9
9
9
9
9
9
9
9
9
9
9
9
9
9
9
9
9
9
9
9
9
9
9
9
9
9
9
9
9
9
9
9
9
9
9
9
9
9
9
9
9
9
9
9
9
9
9
9
9
9
9
9
9
9
9
9
9
9
9
9
9
9
9
9
9
9
9
9
9
9
9
9
9
9
9
9
9
9
9
9
9
9
9
9
9
9
9
9
9
9
9
9
9
9
9
9
9
9
9
9
9
9
9
9
9
9
9
9
9
9
9
9
9
9
9
9
9
9
9
9
9
9
9
9
9
9
9
9
9
9
9
9
9
9
9
9
9
9
9
9
9
9
9
9
9
9
9
9
9
9
9
9
9
9
9
9
9
9
9
9
9
9
9
9
9
9
9
9
9
9
9
9
9
9
9
9
9
9
9
9
9
9
9
9
9
9
9
9
9
9
9
9
9
9
9
9
9
9
9
9
9
9
9
9
9
9
9
9
9
9
9
9
9
9
9
9
9
9
9
9
9
9
9
9
9
9
9
9
9
9
9
9
9
9
9
9
9
9
9
9
9
9
9
9
9
9
9
9
9
9
9
9
9
9
9
9
9
9
9
9
9
9
9
9
9
9
9
9
9
9
9
9
9
9
9
9
9
9
9
9
9
9
9
9
9
9
9
9
9
9
9
9
9
9
9
9
9
9
9
9
9
9
9
9
9
9
9
9
9
9
9
9
9
9
9
9
9
9
9
9
9
9
9
9
9
9
9
9
9
9
9
9
9
9
9
9
9
9
9
9
9
9
9
9
9
9
9
9
9
9
9
9
9
9
9
9
9
9
9
9
9
9
9
9
9
9
9
9
9
9
9
9
9
9
9
9
9
9
9
9
9
9
9
9
9
9
9
9
9
9
9
9
9
9
9
9
9
9
9
9
9
9
9
9
9
9
9
9
9
9
9
9
9
9
9
9
9
9
9
9
9
9
9
9
9
9
9
9
9
9
9
9
9
9
9
9
9
9
9
9
9
9
9
9
9
9
9
9
9
9
9
9
9
9
9
9
9
9
9
9
9
9
9
9
9
9
9
9
9
9
9
9
9
9
9
9
9
9
9
9
9
9
9
9
9
9
9
9
9
9
9
9
9
9
9
9
9
9
9
9
9
9
9
9
9
9
9
9
9
9
9
9
9
9
9
9
9
9
9
9
9
9
9
9
9
9
9
9
9
9
9
9
9
9
9
9
9
9
9
9
9
9
9
9
9
9
9
9
9
9
9
9
9
9
9
9
9
9
9
9
9
9
9
9
9
9
9
9
9
9
9
9
9
9
9
9
9
9
9
9
9
9
9
9
9
9
9
9
9
9
9
9
9
9
9
9
9
9
9
9
9
9
9
9
9
9
9
9
9
9
9
9
9
9
9
9
9
9
9
9
9
9
9
9
9
9
9
9
9
9
9
9
9
9
9
9
9
9
9
9
9
9
9
9
9
9
9
9
9
9
9
9
9
9
9
9
9
9
9
9
9
9
9
9
9
9
9
9
9
9
9
9
9
9
9
9
9
9
9
9
9
9
9
9
9
9
9
9
9
9
9
9
9
9
9
9
9
9
9
9
9
9
9
9
9
9
9
9
9
9
9
9
9
9
9
9
9
9
9
9
9
9
9
9
9
9
9
9
9
9
9
9
9
9
9
9
9
9
9
9
9
9
9
9
9
9
9
9
9
9
9
9
9
9
9
9
9
9
9
9
9
9
9
9
9
9
9
9
9
9
9
9
9
9
9
9
9
9
9
9
9
9
9
9
9
9
9
9
9
9
9
9
9
9
9
9
9
9
9
9
9
9
9
9
9
9
9
9
9
9
9
9
9
9
9
9
9
9
9
9
9
9
9
9
9
9
9
9
9
9
9
9
9
9
9
9
9
9
9
9
9
9
9
9
9
9
9
9
9
9
9
9
9
9
9
9
9
9
9
9
9
9
9
9
9
9
9
9
9
9
9
9
9
9
9
9
9
9
9
9
9
9
9
9
9
9
9
9
9
9
9
9
9
9
9
9
9
9
9
9
9
9
9
9
9
9
9
9
9
9
9
9
9
9
9
9
9
9
9
9
9
9
9
9
9
9
9
9
9
9
9
9
9
9
9
9
9
9
9
9
9
9
9
9
9
9
9
9
9
9
9
9
9
9
9
9
9
9
9
9
9
9
9
9
9
9
9
9
9
9
9
9
9
9
9
9
9
9
9
9
9
9
9
9
9
9
9
9
9
9
9
9
9
9
9
9
9
9
9
9
9
9
9
9
9
9
9
9
9
9
9
9
9
9
9
9
9
9
9
9
9
9
9
9
9
9
9
9
9
9
9
9
9
9
9
9
9
9
9
9
9
9
9
9
9
9
9
9
9
9
9
9
9
9
9
9
9
9
9
9
9
9
9
9
9
9
9
9
9
9
9
9
9
9
9
9
9
9
9
9
9
9
9
9
9
9
9
9
9
9
9
9
9
9
9
9
9
9
9
9
9
9
9
9
9
9
9
9
9
9
9
9
9
9
9
9
9
9
9
9
9
9
9
9
9
9
9
9
9
9
9
9
9
9
9
9
9
9
9
9
9
9
9
9
9
9
9
9
9
9
9
9
9
9
9
9
9
9
9
9
9
9
9
9
9
9
9
9
9
9
9
9
9
9
9
9
9
9
9
9
9
9
9
9
9
9
9
9
9
9
9
9
9
9
9
9
9
9
9
9
9
9
9
9
9
9
9
9
9
9
9
9
9
9
9
9
9
9
9
9
9
9
9
9
9
9
9
9
9
9
9
9
9
9
9
9
9
9
9
9
9
9
9
9
9
9
9
9
9
9
9
9
9
9
9
9
9
9
9
9
9
9
9
9
9
9
9
9
9
9
9
9
9
9
9
9
9
9
9
9
9
9
9
9
9
9
9
9
9
9
9
9
9
9
9
9
9
9
9
9
9
9
9
9
9
9
9
9
9
9
9
9
9
9
9
9
9
9
9
9
9
9
9
9
9
9
9
9
9
9
9
9
9
9
9
9
9
9
9
9
9
9
9
9
9
9
9
9
9
9
9
9
9
9
9
9
9
9
9
9
9
9
9
9
9
9
9
9
9
9
9
9
9
9
9
9
9
9
9
9
9
9
9
9
9
9
9
9
9
9
9
9
9
9
9
9
9
9
9
9
9
9
9
9
9
9
9
9
9
9
9
9
9
9
9
9
9
9
9
9
9
9
9
9
9
9
9
9
9
9
9
9
9
9
9
9
9
9
9
9
9
9
9
9
9
9
9
9
9
9
9
9
9
9
9
9
9
9
9
9
9
9
9
9
9
9
9
9
9
9
9
9
9
9
9
9
9
9
9
9
9
9
9
9
9
9
9
9
9
9
9
9
9
9
9
9
9
9
9
9
9
9
9
9
9
9
9
9
9
9
9
9
9
9
9
9
9
9
9
9
9
9
9
9
9
9
9
9
9
9
9
9
9
9
9
9
9
9
9
9
9
9
9
9
9
9
9
9
9
9
9
9
9
9
9
9
9
9
9
9
9
9
9
9
9
9
9
9
9
9
9
9
9
9
9
9
9
9
9
9
9
9
9
9
9
9
9
9
9
9
9
9
9
9
9
9
9
9
9
9
9
9
9
9
9
9
9
9
9
9
9
9
9
9
9
9
9
9
9
9
9
9
9
9
9
9
9
9
9
9
9
9
9
9
9
9
9
9
9
9
9
9
9
9
9
9
9
9
9
9
9
9
9
9
9
9
9
9
9
9
9
9
9
9
9
9
9
9
9
9
9
9
9
9
9
9
9
9
9
9
9
9
9
9
9
9
9
9
9
9
9
9
9
9
9
9
9
9
9
9
9
9
9
9
9
9
9
9
9
9
9
9
9
9
9
9
9
9
9
9
9
9
9
9
9
9
9
9
9
9
9
9
9
9
9
9
9
9
9
9
9
9
9
9
9
9
9
9
9
9
9
9
9
9
9
9
9
9
9
9
9
9
9
9
9
9
9
9
9
9
9
9
9
9
9
9
9
9
9
9
9
9
9
9
9
9
9
9
9
9
9
9
9
9
9
9
9
9
9
9
9
9
9
9
9
9
9
9
9
9
9
9
9
9
9
9
9
9
9
9
9
9
9
9
9
9
9
9
9
9
9
9
9
9
9
9
9
9
9
9
9
9
9
9
9
9
9
9
9
9
9
9
9
9
9
9
9
9
9
9
9
9
9
9
9
9
9
9
9
9
9
9
9
9
9
9
9
9
9
9
9
9
9
9
9
9
9
9
9
9
9
9
9
9
9
9
9
9
9
9
9
9
9
9
9
9
9
9
9
9
9
9
9
9
9
9
9
9
9
9
9
9
9
9
9
9
9
9
9
9
9
9
9
9
9
9
9
9
9
9
9
9
9
9
9
9
9
9
9
9
9
9
9
9
9
9
9
9
9
9
9
9
9
9
9
9
9
9
9
9
9
9
9
9
9
9
9
9
9
9
9
9
9
9
9
9
9
9
9
9
9
9
9
9
9
9
9
9
9
9
9
9
9
9
9
9
9
9
9
9
9
9
9
9
9
9
9
9
9
9
9
9
9
9
9
9
9
9
9
9
9
9
9
9
9
9
9
9
9
9
9
9
9
9
9
9
9
9
9
9
9
9
9
9
9
9
9
9
9
9
9
9
9
9
9
9
9
9
9
9
9
9
9
9
9
9
9
9
9
9
9
9
9
9
9
9
9
9
9
9
9
9
9
9
9
9
9
9
9
9
9
9
9
9
9
9
9
9
9
9
9
9
9
9
9
9
9
9
9
9
9
9
9
9
9
9
9
9
9
9
9
9
9
9
9
9
9
9
9
9
9
9
9
9
9
9
9
9
9
9
9
9
9
9
9
9
9
9
9
9
9
9
9
9
9
9
9
9
9
9
9
9
9
9
9
9
9
9
9
9
9
9
9
9
9
9
9
9
9
9
9
9
9
9
9
9
9
9
9
9
9
9
9
9
9
9
9
9
9
9
9
9
9
9
9
9
9
9
9
9
9
9
9
9
9
9
9
9
9
9
9
9
9
9
9
9
9
9
9
9
9
9
9
9
9
9
9
9
9
9
9
9
9
9
9
9
9
9
9
9
9
9
9
9
9
9
9
9
9
9
9
9
9
9
9
9
9
9
9
9
9
9
9
9
9
9
9
9
9
9
9
9
9
9
9
9
9
9
9
9
9
9
9
9
9
9
9
9
9
9
9
9
9
9
9
9
9
9
9
9
9
9
9
9
9
9
9
9
9
9
9
9
9
9
9
9
9
9
9
9
9
9
9
9
9
9
9
9
9
9
9
9
9
9
9
9
9
9
9
9
9
9
9
9
9
9
9
9
9
9
9
9
9
9
9
9
9
9
9
9
9
9
9
9
9
9
9
9
9
9
9
9
9
9
9
9
9
9
9
9
9
9
9
9
9
9
9
9
9
9
9
9
9
9
9
9
9
9
9
9
9
9
9
9
9
9
9
9
9
9
9
9
9
9
9
9
9
9
9
9
9
9
9
9
9
9
9
9
9
9
9
9
9
9
9
9
9
9
9
9
9
9
9
9
9
9
9
9
9
9
9
9
9
9
9
9
9
9
9
9
9
9
9
9
9
9
9
9
9
9
9
9
9
9
9
9
9
9
9
9
9
9
9
9
9
9
9
9
9
9
9
9
9
9
9
9
9
9
9
9
9
9
9
9
9
9
9
9
9
9
9
9
9
9
9
9
9
9
9
9
9
9
9
9
9
9
9
9
9
9
9
9
9
9
9
9
9
9
9
9
9
9
9
9
9
9
9
9
9
9
9
9
9
9
9
9
9
9
9
9
9
9
9
9
9
9
9
9
9
9
9
9
9
9
9
9
9
9
9
9
9
9
9
9
9
9
9
9
9
9
9
9
9
9
9
9
9
9
9
9
9
9
9
9
9
9
9
9
9
9
9
9
9
9
9
9
9
9
9
9
9
9
9
9
9
9
9
9
9
9
9
9
9
9
9
9
9
9
9
9
9
9
9
9
9
9
9
9
9
9
9
9
9
9
9
9
9
9
9
9
9
9
9
9
9
9
9
9
9
9
9
9
9
9
9
9
9
9
9
9
9
9
9
9
9
9
9
9
9
9
9
9
9
9
9
9
9
9
9
9
9
9
9
9
9
9
9
9
9
9
9
9
9
9
9
9
9
9
9
9
9
9
9
9
9
9
9
9
9
9
9
9
9
9
9
9
9
9
9
9
9
9
9
9
9
9
9
9
9
9
9
9
9
9
9
9
9
9
9
9
9
9
9
9
9
9
9
9
9
9
9
9
9
9
9
9
9
9
9
9
9
9
9
9
9
9
9
9
9
9
9
9
9
9
9
9
9
9
9
9
9
9
9
9
9
9
9
9
9
9
9
9
9
9
9
9
9
9
9
9
9
9
9
9
9
9
9
9
9
9
9
9
9
9
9
9
9
9
9
9
9
9
9
9
9
9
9
9
9
9
9
9
9
9
9
9
9
9
9
9
9
9
9
9
9
9
9
9
9
9
9
9
9
9
9
9
9
9
9
9
9
9
9
9
9
9
9
9
9
9
9
9
9
9
9
9
9
9
9
9
9
9
9
9
9
9
9
9
9
9
9
9
9
9
9
9
9
9
9
9
9
9
9
9
9
9
9
9
9
9
9
9
9
9
9
9
9
9
9
9
9
9
9
9
9
9
9
9
9
9
9
9
9
9
9
9
9
9
9
9
9
9
9
9
9
9
9
9
9
9
9
9
9
9
9
9
9
9
9
9
9
9
9
9
9
9
9
9
9
9
9
9
9
9
9
9
9
9
9
9
9
9
9
9
9
9
9
9
9
9
9
9
9
9
9
9
9
9
9
9
9
9
9
9
9
9
9
9
9
9
9
9
9
9
9
9
9
9
9
9
9
9
9
9
9
9
9
9
9
9
9
9
9
9
3
3
3
3
3
3
3
3
3
3
3
3
3
3
3
3
3
3
3
3
3
3
3
3
3
3
3
3
3
3
3
3
3
3
3
3
3
3
3
3
3
3
3
3
3
3
3
3
3
3
3
3
3
3
3
3
3
3
3
3
3
3
3
3
3
3
3
3
3
3
3
3
3
3
3
3
3
3
3
3
3
3
3
3
3
3
3
3
3
3
3
3
3
3
3
3
3
3
3
3
3
3
3
3
3
3
3
3
3
3
3
3
3
3
3
3
3
3
3
3
3
3
3
3
3
3
3
3
3
3
3
3
3
3
3
3
3
3
3
3
3
3
3
3
3
3
3
3
3
3
3
3
3
3
3
3
3
3
3
3
3
3
3
3
3
3
3
3
3
3
3
3
3
3
3
3
3
3
3
3
3
3
3
3
3
3
3
3
3
3
3
3
3
3
3
3
3
3
3
3
3
3
3
3
3
3
3
3
3
3
3
3
3
3
3
3
3
3
3
3
3
3
3
3
3
3
3
3
3
3
3
3
3
3
3
3
3
3
3
3
3
3
3
3
3
3
3
3
3
3
3
3
3
3
3
3
3
3
3
3
3
3
3
3
3
3
3
3
3
3
3
3
3
3
3
3
3
3
3
3
3
3
3
3
3
3
3
3
3
3
3
3
3
3
3
3
3
3
3
3
3
3
3
3
3
3
3
3
3
3
3
3
3
3
3
3
3
3
3
3
3
3
3
3
3
3
3
3
3
3
3
3
3
3
3
3
3
3
3
3
3
3
3
3
3
3
3
3
3
3
3
3
3
3
3
3
3
3
3
3
3
3
3
3
3
3
3
3
3
3
3
3
3
3
3
3
3
3
3
3
3
3
3
3
3
3
3
3
3
3
3
3
3
3
3
3
3
3
3
3
3
3
3
3
3
3
3
3
3
3
3
3
3
3
3
3
3
3
3
3
3
3
3
3
3
3
3
3
3
3
3
3
3
3
3
3
3
3
3
3
3
3
3
3
3
3
3
3
3
3
3
3
3
3
3
3
3
3
3
3
3
3
3
3
3
3
3
3
3
3
3
3
3
3
3
3
3
3
3
3
3
3
3
3
3
3
3
3
3
3
3
3
3
3
3
3
3
3
3
3
3
3
3
3
3
3
3
3
3
3
3
3
3
3
3
3
3
3
3
3
3
3
3
3
3
3
3
3
3
3
3
3
3
3
3
3
3
3
3
3
3
3
3
3
3
3
3
3
3
3
3
3
3
3
3
3
3
3
3
3
3
3
3
3
3
3
3
3
3
3
3
3
3
3
3
3
3
3
3
3
3
3
3
3
3
3
3
3
3
3
3
3
3
3
3
3
3
3
3
3
3
3
3
3
3
3
3
3
3
3
3
3
3
3
3
3
3
3
3
3
3
3
3
3
3
3
3
3
3
3
3
3
3
3
3
3
3
3
3
3
3
3
3
3
3
3
3
3
3
3
3
3
3
3
3
3
3
3
3
3
3
3
3
3
3
3
3
3
3
3
3
3
3
3
3
3
3
3
3
3
3
3
3
3
3
3
3
3
3
3
3
3
3
3
3
3
3
3
3
3
3
3
3
3
3
3
3
3
3
3
3
3
3
3
3
3
3
3
3
3
3
3
3
3
3
3
3
3
3
3
3
3
3
3
3
3
3
3
3
3
3
3
3
3
3
3
3
3
3
3
3
3
3
3
3
3
3
3
3
3
3
3
3
3
3
3
3
3
3
3
3
3
3
3
3
3
3
3
3
3
3
3
3
3
3
3
3
3
3
3
3
3
3
3
3
3
3
3
3
3
3
3
3
3
3
3
3
3
3
3
3
3
3
3
3
3
3
3
3
3
3
3
3
3
3
3
3
3
3
3
3
3
3
3
3
3
3
3
3
3
3
3
3
3
3
3
3
3
3
3
3
3
3
3
3
3
3
3
3
3
3
3
3
3
3
3
3
3
3
3
3
3
3
3
3
3
3
3
3
3
3
3
3
3
3
3
3
3
3
3
3
3
3
3
3
3
3
3
3
3
3
3
3
3
3
3
3
3
3
3
3
3
3
3
3
3
3
3
3
3
3
3
3
3
3
3
3
3
3
3
3
3
3
3
3
3
3
3
3
3
3
3
3
3
3
3
3
3
3
3
3
3
3
3
3
3
3
3
3
3
3
3
3
3
3
3
3
3
3
3
3
3
3
3
3
3
3
3
3
3
3
3
3
3
3
3
3
3
3
3
3
3
3
3
3
3
3
3
3
3
3
3
3
3
3
3
3
3
3
3
3
3
3
3
3
3
3
3
3
3
3
3
3
3
3
3
3
3
3
3
3
3
3
3
3
3
3
3
3
3
3
3
3
3
3
3
3
3
3
3
3
3
3
3
3
3
3
3
3
3
3
3
3
3
3
3
3
3
3
3
3
3
3
3
3
3
3
3
3
3
3
3
3
3
3
3
3
3
3
3
3
3
3
3
3
3
3
3
3
3
3
3
3
3
3
3
3
3
3
3
3
3
3
3
3
3
3
3
3
3
3
3
3
3
3
3
3
3
3
3
3
3
3
3
3
3
3
3
3
3
3
3
3
3
3
3
3
3
3
3
3
3
3
3
3
3
3
3
3
3
3
3
3
3
3
3
3
3
3
3
3
3
3
3
3
3
3
3
3
3
3
3
3
3
3
3
3
3
3
3
3
3
3
3
3
3
3
3
3
3
3
3
3
3
3
3
3
3
3
3
3
3
3
3
3
3
3
3
3
3
3
3
3
3

 CELL_DATA        9646
SCALARS material int32
LOOKUP_TABLE default
           1
           1
           1
           1
           1
           1
           1
           1
           1
           1
           1
           1
           1
           1
           1
           1
           1
           1
           1
           1
           1
           1
           1
           1
           1
           1
           1
           1
           1
           1
           1
           1
           1
           1
           1
           1
           1
           1
           1
           1
           1
           1
           1
           1
           1
           1
           1
           1
           1
           1
           1
           1
           1
           1
           1
           1
           1
           1
           1
           1
           1
           1
           1
           1
           1
           1
           1
           1
           1
           1
           1
           1
           1
           1
           1
           1
           1
           1
           1
           1
           1
           1
           1
           1
           1
           1
           1
           1
           1
           1
           1
           1
           1
           1
           1
           1
           1
           1
           1
           1
           1
           1
           1
           1
           1
           1
           1
           1
           1
           1
           1
           1
           1
           1
           1
           1
           1
           1
           1
           1
           1
           1
           1
           1
           1
           1
           1
           1
           1
           1
           1
           1
           1
           1
           1
           1
           1
           1
           1
           1
           1
           1
           1
           1
           1
           1
           1
           1
           1
           1
           1
           1
           1
           1
           1
           1
           1
           1
           1
           1
           1
           1
           1
           1
           1
           1
           1
           1
           1
           1
           1
           1
           1
           1
           1
           1
           1
           1
           1
           1
           1
           1
           1
           1
           1
           1
           1
           1
           1
           1
           1
           1
           1
           1
           1
           1
           1
           1
           1
           1
           1
           1
           1
           1
           1
           1
           1
           1
           1
           1
           1
           1
           1
           1
           1
           1
           1
           1
           1
           1
           1
           1
           1
           1
           1
           1
           1
           1
           1
           1
           1
           1
           1
           1
           1
           1
           1
           1
           1
           1
           1
           1
           1
           1
           1
           1
           1
           1
           1
           1
           1
           1
           1
           1
           1
           1
           1
           1
           1
           1
           1
           1
           1
           1
           1
           1
           1
           1
           1
           1
           1
           1
           1
           1
           1
           1
           1
           1
           1
           1
           1
           1
           1
           1
           1
           1
           1
           1
           1
           1
           1
           1
           1
           1
           1
           1
           1
           1
           1
           1
           1
           1
           1
           1
           1
           1
           1
           1
           1
           1
           1
           1
           1
           1
           1
           1
           1
           1
           1
           1
           1
           1
           1
           1
           1
           1
           1
           1
           1
           1
           1
           1
           1
           1
           1
           1
           1
           1
           1
           1
           1
           1
           1
           1
           1
           1
           1
           1
           1
           1
           1
           1
           1
           1
           1
           1
           1
           1
           1
           1
           1
           1
           1
           1
           1
           1
           1
           1
           1
           1
           1
           1
           1
           1
           1
           1
           1
           1
           1
           1
           1
           1
           1
           1
           1
           1
           1
           1
           1
           1
           1
           1
           1
           1
           1
           1
           1
           1
           1
           1
           1
           1
           1
           1
           1
           1
           1
           1
           1
           1
           1
           1
           1
           1
           1
           1
           1
           1
           1
           1
           1
           1
           1
           1
           1
           1
           1
           1
           1
           1
           1
           1
           1
           1
           1
           1
           1
           1
           1
           1
           1
           1
           1
           1
           1
           1
           1
           1
           1
           1
           1
           1
           1
           1
           1
           1
           1
           1
           1
           1
           1
           1
           1
           1
           1
           1
           1
           1
           1
           1
           1
           1
           1
           1
           1
           1
           1
           1
           1
           1
           1
           1
           1
           1
           1
           1
           1
           1
           1
           1
           1
           1
           1
           1
           1
           1
           1
           1
           1
           1
           1
           1
           1
           1
           1
           1
           1
           1
           1
           1
           1
           1
           1
           1
           1
           1
           1
           1
           1
           1
           1
           1
           1
           1
           1
           1
           1
           1
           1
           1
           1
           1
           1
           1
           1
           1
           1
           1
           1
           1
           1
           1
           1
           1
           1
           1
           1
           1
           1
           1
           1
           1
           1
           1
           1
           1
           1
           1
           1
           1
           1
           1
           1
           1
           1
           1
           1
           1
           1
           1
           1
           1
           1
           1
           1
           1
           1
           1
           1
           1
           1
           1
           1
           1
           1
           1
           1
           1
           1
           1
           1
           1
           1
           1
           1
           1
           1
           1
           1
           1
           1
           1
           1
           1
           1
           1
           1
           1
           1
           1
           1
           1
           1
           1
           1
           1
           1
           1
           1
           1
           1
           1
           1
           1
           1
           1
           1
           1
           1
           1
           1
           1
           1
           1
           1
           1
           1
           1
           1
           1
           1
           1
           1
           1
           1
           1
           1
           1
           1
           1
           1
           1
           1
           1
           1
           1
           1
           1
           1
           1
           1
           1
           1
           1
           1
           1
           1
           1
           1
           1
           1
           1
           1
           1
           1
           1
           1
           1
           1
           1
           1
           1
           1
           1
           1
           1
           1
           1
           1
           1
           1
           1
           1
           1
           1
           1
           1
           1
           1
           1
           1
           1
           1
           1
           1
           1
           1
           1
           1
           1
           1
           1
           1
           1
           1
           1
           1
           1
           1
           1
           1
           1
           1
           1
           1
           1
           1
           1
           1
           1
           1
           1
           1
           1
           1
           1
           1
           1
           1
           1
           1
           1
           1
           1
           1
           1
           1
           1
           1
           1
           1
           1
           1
           1
           1
           1
           1
           1
           1
           1
           1
           1
           1
           1
           1
           1
           1
           1
           1
           1
           1
           1
           1
           1
           1
           1
           1
           1
           1
           1
           1
           1
           1
           1
           1
           1
           1
           1
           1
           1
           1
           1
           1
           1
           1
           1
           1
           1
           1
           1
           1
           1
           1
           1
           1
           1
           1
           1
           1
           1
           1
           1
           1
           1
           1
           1
           1
           1
           1
           1
           1
           1
           1
           1
           1
           1
           1
           1
           1
           1
           1
           1
           1
           1
           1
           1
           1
           1
           1
           1
           1
           1
           1
           1
           1
           1
           1
           1
           1
           1
           1
           1
           1
           1
           1
           1
           1
           1
           1
           1
           1
           1
           1
           1
           1
           1
           1
           1
           1
           1
           1
           1
           1
           1
           1
           1
           1
           1
           1
           1
           1
           1
           1
           1
           1
           1
           1
           1
           1
           1
           1
           1
           1
           1
           1
           1
           1
           1
           1
           1
           1
           1
           1
           1
           1
           1
           1
           1
           1
           1
           1
           1
           1
           1
           1
           1
           1
           1
           1
           1
           1
           1
           1
           1
           1
           1
           1
           1
           1
           1
           1
           1
           1
           1
           1
           1
           1
           1
           1
           1
           1
           1
           1
           1
           1
           1
           1
           1
           1
           1
           1
           1
           1
           1
           1
           1
           1
           1
           1
           1
           1
           1
           1
           1
           1
           1
           1
           1
           1
           1
           1
           1
           1
           1
           1
           1
           1
           1
           1
           1
           1
           1
           1
           1
           1
           1
           1
           1
           1
           1
           1
           1
           1
           1
           1
           1
           1
           1
           1
           1
           1
           1
           1
           1
           1
           1
           1
           1
           1
           1
           1
           1
           1
           1
           1
           1
           1
           1
           1
           1
           1
           1
           1
           1
           1
           1
           1
           1
           1
           1
           1
           1
           1
           1
           1
           1
           1
           1
           1
           1
           1
           1
           1
           1
           1
           1
           1
           1
           1
           1
           1
           1
           1
           1
           1
           1
           1
           1
           1
           1
           1
           1
           1
           1
           1
           1
           1
           1
           1
           1
           1
           1
           1
           1
           1
           1
           1
           1
           1
           1
           1
           1
           1
           1
           1
           1
           1
           1
           1
           1
           1
           1
           1
           1
           1
           1
           1
           1
           1
           1
           1
           1
           1
           1
           1
           1
           1
           1
           1
           1
           1
           1
           1
           1
           1
           1
           1
           1
           1
           1
           1
           1
           1
           1
           1
           1
           1
           1
           1
           1
           1
           1
           1
           1
           1
           1
           1
           1
           1
           1
           1
           1
           1
           1
           1
           1
           1
           1
           1
           1
           1
           1
           1
           1
           1
           1
           1
           1
           1
           1
           1
           1
           1
           1
           1
           1
           1
           1
           1
           1
           1
           1
           1
           1
           1
           1
           1
           1
           1
           1
           1
           1
           1
           1
           1
           1
           1
           1
           1
           1
           1
           1
           1
           1
           1
           1
           1
           1
           1
           1
           1
           1
           1
           1
           1
           1
           1
           1
           1
           1
           1
           1
           1
           1
           1
           1
           1
           1
           1
           1
           1
           1
           1
           1
           1
           1
           1
           1
           1
           1
           1
           1
           1
           1
           1
           1
           1
           1
           1
           1
           1
           1
           1
           1
           1
           1
           1
           1
           1
           1
           1
           1
           1
           1
           1
           1
           1
           1
           1
           1
           1
           1
           1
           1
           1
           1
           1
           1
           1
           1
           1
           1
           1
           1
           1
           1
           1
           1
           1
           1
           1
           1
           1
           1
           1
           1
           1
           1
           1
           1
           1
           1
           1
           1
           1
           1
           1
           1
           1
           1
           1
           1
           1
           1
           1
           1
           1
           1
           1
           1
           1
           1
           1
           1
           1
           1
           1
           1
           1
           1
           1
           1
           1
           1
           1
           1
           1
           1
           1
           1
           1
           1
           1
           1
           1
           1
           1
           1
           1
           1
           1
           1
           1
           1
           1
           1
           1
           1
           1
           1
           1
           1
           1
           1
           1
           1
           1
           1
           1
           1
           1
           1
           1
           1
           1
           1
           1
           1
           1
           1
           1
           1
           1
           1
           1
           1
           1
           1
           1
           1
           1
           1
           1
           1
           1
           1
           1
           1
           1
           1
           1
           1
           1
           1
           1
           1
           1
           1
           1
           1
           1
           1
           1
           1
           1
           1
           1
           1
           1
           1
           1
           1
           1
           1
           1
           1
           1
           1
           1
           1
           1
           1
           1
           1
           1
           1
           1
           1
           1
           1
           1
           1
           1
           1
           1
           1
           1
           1
           1
           1
           1
           1
           1
           1
           1
           1
           1
           1
           1
           1
           1
           1
           1
           1
           1
           1
           1
           1
           1
           1
           1
           1
           1
           1
           1
           1
           1
           1
           1
           1
           1
           1
           1
           1
           1
           1
           1
           1
           1
           1
           1
           1
           1
           1
           1
           1
           1
           1
           1
           1
           1
           1
           1
           1
           1
           1
           1
           1
           1
           1
           1
           1
           1
           1
           1
           1
           1
           1
           1
           1
           1
           1
           1
           1
           1
           1
           1
           1
           1
           1
           1
           1
           1
           1
           1
           1
           1
           1
           1
           1
           1
           1
           1
           1
           1
           1
           1
           1
           1
           1
           1
           1
           1
           1
           1
           1
           1
           1
           1
           1
           1
           1
           1
           1
           1
           1
           1
           1
           1
           1
           1
           1
           1
           1
           1
           1
           1
           1
           1
           1
           1
           1
           1
           1
           1
           1
           1
           1
           1
           1
           1
           1
           1
           1
           1
           1
           1
           1
           1
           1
           1
           1
           1
           1
           1
           1
           1
           1
           1
           1
           1
           1
           1
           1
           1
           1
           1
           1
           1
           1
           1
           1
           1
           1
           1
           1
           1
           1
           1
           1
           1
           1
           1
           1
           1
           1
           1
           1
           1
           1
           1
           1
           1
           1
           1
           1
           1
           1
           1
           1
           1
           1
           1
           1
           1
           1
           1
           1
           1
           1
           1
           1
           1
           1
           1
           1
           1
           1
           1
           1
           1
           1
           1
           1
           1
           1
           1
           1
           1
           1
           1
           1
           1
           1
           1
           1
           1
           1
           1
           1
           1
           1
           1
           1
           1
           1
           1
           1
           1
           1
           1
           1
           1
           1
           1
           1
           1
           1
           1
           1
           1
           1
           1
           1
           1
           1
           1
           1
           1
           1
           1
           1
           1
           1
           1
           1
           1
           1
           1
           1
           1
           1
           1
           1
           1
           1
           1
           1
           1
           1
           1
           1
           1
           1
           1
           1
           1
           1
           1
           1
           1
           1
           1
           1
           1
           1
           1
           1
           1
           1
           1
           1
           1
           1
           1
           1
           1
           1
           1
           1
           1
           1
           1
           1
           1
           1
           1
           1
           1
           1
           1
           1
           1
           1
           1
           1
           1
           1
           1
           1
           1
           1
           1
           1
           1
           1
           1
           1
           1
           1
           1
           1
           1
           1
           1
           1
           1
           1
           1
           1
           1
           1
           1
           1
           1
           1
           1
           1
           1
           1
           1
           1
           1
           1
           1
           1
           1
           1
           1
           1
           1
           1
           1
           1
           1
           1
           1
           1
           1
           1
           1
           1
           1
           1
           1
           1
           1
           1
           1
           1
           1
           1
           1
           1
           1
           1
           1
           1
           1
           1
           1
           1
           1
           1
           1
           1
           1
           1
           1
           1
           1
           1
           1
           1
           1
           1
           1
           1
           1
           1
           1
           1
           1
           1
           1
           1
           1
           1
           1
           1
           1
           1
           1
           1
           1
           1
           1
           1
           1
           1
           1
           1
           1
           1
           1
           1
           1
           1
           1
           1
           1
           1
           1
           1
           1
           1
           1
           1
           1
           1
           1
           1
           1
           1
           1
           1
           1
           1
           1
           1
           1
           1
           1
           1
           1
           1
           1
           1
           1
           1
           1
           1
           1
           1
           1
           1
           1
           1
           1
           1
           1
           1
           1
           1
           1
           1
           1
           1
           1
           1
           1
           1
           1
           1
           1
           1
           1
           1
           1
           1
           1
           1
           1
           1
           1
           1
           1
           1
           1
           1
           1
           1
           1
           1
           1
           1
           1
           1
           1
           1
           1
           1
           1
           1
           1
           1
           1
           1
           1
           1
           1
           1
           1
           1
           1
           1
           1
           1
           1
           1
           1
           1
           1
           1
           1
           1
           1
           1
           1
           1
           1
           1
           1
           1
           1
           1
           1
           1
           1
           1
           1
           1
           1
           1
           1
           1
           1
           1
           1
           1
           1
           1
           1
           1
           1
           1
           1
           1
           1
           1
           1
           1
           1
           1
           1
           1
           1
           1
           1
           1
           1
           1
           1
           1
           1
           1
           1
           1
           1
           1
           1
           1
           1
           1
           1
           1
           1
           1
           1
           1
           1
           1
           1
           1
           1
           1
           1
           1
           1
           1
           1
           1
           1
           1
           1
           1
           1
           1
           1
           1
           1
           1
           1
           1
           1
           1
           1
           1
           1
           1
           1
           1
           1
           1
           1
           1
           1
           1
           1
           1
           1
           1
           1
           1
           1
           1
           1
           1
           1
           1
           1
           1
           1
           1
           1
           1
           1
           1
           1
           1
           1
           1
           1
           1
           1
           1
           1
           1
           1
           1
           1
           1
           1
           1
           1
           1
           1
           1
           1
           1
           1
           1
           1
           1
           1
           1
           1
           1
           1
           1
           1
           1
           1
           1
           1
           1
           1
           1
           1
           1
           1
           1
           1
           1
           1
           1
           1
           1
           1
           1
           1
           1
           1
           1
           1
           1
           1
           1
           1
           1
           1
           1
           1
           1
           1
           1
           1
           1
           1
           1
           1
           1
           1
           1
           1
           1
           1
           1
           1
           1
           1
           1
           1
           1
           1
           1
           1
           1
           1
           1
           1
           1
           1
           1
           1
           1
           1
           1
           1
           1
           1
           1
           1
           1
           1
           1
           1
           1
           1
           1
           1
           1
           1
           1
           1
           1
           1
           1
           1
           1
           1
           1
           1
           1
           1
           1
           1
           1
           1
           1
           1
           1
           1
           1
           1
           1
           1
           1
           1
           1
           1
           1
           1
           1
           1
           1
           1
           1
           1
           1
           1
           1
           1
           1
           1
           1
           1
           1
           1
           1
           1
           1
           1
           1
           1
           1
           1
           1
           1
           1
           1
           1
           1
           1
           1
           1
           1
           1
           1
           1
           1
           1
           1
           1
           1
           1
           1
           1
           1
           1
           1
           1
           1
           1
           1
           1
           1
           1
           1
           1
           1
           1
           1
           1
           1
           1
           1
           1
           1
           1
           1
           1
           1
           1
           1
           1
           1
           1
           1
           1
           1
           1
           1
           1
           1
           1
           1
           1
           1
           1
           1
           1
           1
           1
           1
           1
           1
           1
           1
           1
           1
           1
           1
           1
           1
           1
           1
           1
           1
           1
           1
           1
           1
           1
           1
           1
           1
           1
           1
           1
           1
           1
           1
           1
           1
           1
           1
           1
           1
           1
           1
           1
           1
           1
           1
           1
           1
           1
           1
           1
           1
           1
           1
           1
           1
           1
           1
           1
           1
           1
           1
           1
           1
           1
           1
           1
           1
           1
           1
           1
           1
           1
           1
           1
           1
           1
           1
           1
           1
           1
           1
           1
           1
           1
           1
           1
           1
           1
           1
           1
           1
           1
           1
           1
           1
           1
           1
           1
           1
           1
           1
           1
           1
           1
           1
           1
           1
           1
           1
           1
           1
           1
           1
           1
           1
           1
           1
           1
           1
           1
           1
           1
           1
           1
           1
           1
           1
           1
           1
           1
           1
           1
           1
           1
           1
           1
           1
           1
           1
           1
           1
           1
           1
           1
           1
           1
           1
           1
           1
           1
           1
           1
           1
           1
           1
           1
           1
           1
           1
           1
           1
           1
           1
           1
           1
           1
           1
           1
           1
           1
           1
           1
           1
           1
           1
           1
           1
           1
           1
           1
           1
           1
           1
           1
           1
           1
           1
           1
           1
           1
           1
           1
           1
           1
           1
           1
           1
           1
           1
           1
           1
           1
           1
           1
           1
           1
           1
           1
           1
           1
           1
           1
           1
           1
           1
           1
           1
           1
           1
           1
           1
           1
           1
           1
           1
           1
           1
           1
           1
           1
           1
           1
           1
           1
           1
           1
           1
           1
           1
           1
           1
           1
           1
           1
           1
           1
           1
           1
           1
           1
           1
           1
           1
           1
           1
           1
           1
           1
           1
           1
           1
           1
           1
           1
           1
           1
           1
           1
           1
           1
           1
           1
           1
           1
           1
           1
           1
           1
           1
           1
           1
           1
           1
           1
           1
           1
           1
           1
           1
           1
           1
           1
           1
           1
           1
           1
           1
           1
           1
           1
           1
           1
           1
           1
           1
           1
           1
           1
           1
           1
           1
           1
           1
           1
           1
           1
           1
           1
           1
           1
           1
           1
           1
           1
           1
           1
           1
           1
           1
           1
           1
           1
           1
           1
           1
           1
           1
           1
           1
           1
           1
           1
           1
           1
           1
           1
           1
           1
           1
           1
           1
           1
           1
           1
           1
           1
           1
           1
           1
           1
           1
           1
           1
           1
           1
           1
           1
           1
           1
           1
           1
           1
           1
           1
           1
           1
           1
           1
           1
           1
           1
           1
           1
           1
           1
           1
           1
           1
           1
           1
           1
           1
           1
           1
           1
           1
           1
           1
           1
           1
           1
           1
           1
           1
           1
           1
           1
           1
           1
           1
           1
           1
           1
           1
           1
           1
           1
           1
           1
           1
           1
           1
           1
           1
           1
           1
           1
           1
           1
           1
           1
           1
           1
           1
           1
           1
           1
           1
           1
           1
           1
           1
           1
           1
           1
           1
           1
           1
           1
           1
           1
           1
           1
           1
           1
           1
           1
           1
           1
           1
           1
           1
           1
           1
           1
           1
           1
           1
           1
           1
           1
           1
           1
           1
           1
           1
           1
           1
           1
           1
           1
           1
           1
           1
           1
           1
           1
           1
           1
           1
           1
           1
           1
           1
           1
           1
           1
           1
           1
           1
           1
           1
           1
           1
           1
           1
           1
           1
           1
           1
           1
           1
           1
           1
           1
           1
           1
           1
           1
           1
           1
           1
           1
           1
           1
           1
           1
           1
           1
           1
           1
           1
           1
           1
           1
           1
           1
           1
           1
           1
           1
           1
           1
           1
           1
           1
           1
           1
           1
           1
           1
           1
           1
           1
           1
           1
           1
           1
           1
           1
           1
           1
           1
           1
           1
           1
           1
           1
           1
           1
           1
           1
           1
           1
           1
           1
           1
           1
           1
           1
           1
           1
           1
           1
           1
           1
           1
           1
           1
           1
           1
           1
           1
           1
           1
           1
           1
           1
           1
           1
           1
           1
           1
           1
           1
           1
           1
           1
           1
           1
           1
           1
           1
           1
           1
           1
           1
           1
           1
           1
           1
           1
           1
           1
           1
           1
           1
           1
           1
           1
           1
           1
           1
           1
           1
           1
           1
           1
           1
           1
           1
           1
           1
           1
           1
           1
           1
           1
           1
           1
           1
           1
           1
           1
           1
           1
           1
           1
           1
           1
           1
           1
           1
           1
           1
           1
           1
           1
           1
           1
           1
           1
           1
           1
           1
           1
           1
           1
           1
           1
           1
           1
           1
           1
           1
           1
           1
           1
           1
           1
           1
           1
           1
           1
           1
           1
           1
           1
           1
           1
           1
           1
           1
           1
           1
           1
           1
           1
           1
           1
           1
           1
           1
           1
           1
           1
           1
           1
           1
           1
           1
           1
           1
           1
           1
           1
           1
           1
           1
           1
           1
           1
           1
           1
           1
           1
           1
           1
           1
           1
           1
           1
           1
           1
           1
           1
           1
           1
           1
           1
           1
           1
           1
           1
           1
           1
           1
           1
           1
           1
           1
           1
           1
           1
           1
           1
           1
           1
           1
           1
           1
           1
           1
           1
           1
           1
           1
           1
           1
           1
           1
           1
           1
           1
           1
           1
           1
           1
           1
           1
           1
           1
           1
           1
           1
           1
           1
           1
           1
           1
           1
           1
           1
           1
           1
           1
           1
           1
           1
           1
           1
           1
           1
           1
           1
           1
           1
           1
           1
           1
           1
           1
           1
           1
           1
           1
           1
           1
           1
           1
           1
           1
           1
           1
           1
           1
           1
           1
           1
           1
           1
           1
           1
           1
           1
           1
           1
           1
           1
           1
           1
           1
           1
           1
           1
           1
           1
           1
           1
           1
           1
           1
           1
           1
           1
           1
           1
           1
           1
           1
           1
           1
           1
           1
           1
           1
           1
           1
           1
           1
           1
           1
           1
           1
           1
           1
           1
           1
           1
           1
           1
           1
           1
           1
           1
           1
           1
           1
           1
           1
           1
           1
           1
           1
           1
           1
           1
           1
           1
           1
           1
           1
           1
           1
           1
           1
           1
           1
           1
           1
           1
           1
           1
           1
           1
           1
           1
           1
           1
           1
           1
           1
           1
           1
           1
           1
           1
           1
           1
           1
           1
           1
           1
           1
           1
           1
           1
           1
           1
           1
           1
           1
           1
           1
           1
           1
           1
           1
           1
           1
           1
           1
           1
           1
           1
           1
           1
           1
           1
           1
           1
           1
           1
           1
           1
           1
           1
           1
           1
           1
           1
           1
           1
           1
           1
           1
           1
           1
           1
           1
           1
           1
           1
           1
           1
           1
           1
           1
           1
           1
           1
           1
           1
           1
           1
           1
           1
           1
           1
           1
           1
           1
           1
           1
           1
           1
           1
           1
           1
           1
           1
           1
           1
           1
           1
           1
           1
           1
           1
           1
           1
           1
           1
           1
           1
           1
           1
           1
           1
           1
           1
           1
           1
           1
           1
           1
           1
           1
           1
           1
           1
           1
           1
           1
           1
           1
           1
           1
           1
           1
           1
           1
           1
           1
           1
           1
           1
           1
           1
           1
           1
           1
           1
           1
           1
           1
           1
           1
           1
           1
           1
           1
           1
           1
           1
           1
           1
           1
           1
           1
           1
           1
           1
           1
           1
           1
           1
           1
           1
           1
           1
           1
           1
           1
           1
           1
           1
           1
           1
           1
           1
           1
           1
           1
           1
           1
           1
           1
           1
           1
           1
           1
           1
           1
           1
           1
           1
           1
           1
           1
           1
           1
           1
           1
           1
           1
           1
           1
           1
           1
           1
           1
           1
           1
           1
           1
           1
           1
           1
           1
           1
           1
           1
           1
           1
           1
           1
           1
           1
           1
           1
           1
           1
           1
           1
           1
           1
           1
           1
           1
           1
           1
           1
           1
           1
           1
           1
           1
           1
           1
           1
           1
           1
           1
           1
           1
           1
           1
           1
           1
           1
           1
           1
           1
           1
           1
           1
           1
           1
           1
           1
           1
           1
           1
           1
           1
           1
           1
           1
           1
           1
           1
           1
           1
           1
           1
           1
           1
           1
           1
           1
           1
           1
           1
           1
           1
           1
           1
           1
           1
           1
           1
           1
           1
           1
           1
           1
           1
           1
           1
           1
           1
           1
           1
           1
           1
           1
           1
           1
           1
           1
           1
           1
           1
           1
           1
           1
           1
           1
           1
           1
           1
           1
           1
           1
           1
           1
           1
           1
           1
           1
           1
           1
           1
           1
           1
           1
           1
           1
           1
           1
           1
           1
           1
           1
           1
           1
           1
           1
           1
           1
           1
           1
           1
           1
           1
           1
           1
           1
           1
           1
           1
           1
           1
           1
           1
           1
           1
           1
           1
           1
           1
           1
           1
           1
           1
           1
           1
           1
           1
           1
           1
           1
           1
           1
           1
           1
           1
           1
           1
           1
           1
           1
           1
           1
           1
           1
           1
           1
           1
           1
           1
           1
           1
           1
           1
           1
           1
           1
           1
           1
           1
           1
           1
           1
           1
           1
           1
           1
           1
           1
           1
           1
           1
           1
           1
           1
           1
           1
           1
           1
           1
           1
           1
           1
           1
           1
           1
           1
           1
           1
           1
           1
           1
           1
           1
           1
           1
           1
           1
           1
           1
           1
           1
           1
           1
           1
           1
           1
           1
           1
           1
           1
           1
           1
           1
           1
           1
           1
           1
           1
           1
           1
           1
           1
           1
           1
           1
           1
           1
           1
           1
           1
           1
           1
           1
           1
           1
           1
           1
           1
           1
           1
           1
           1
           1
           1
           1
           1
           1
           1
           1
           1
           1
           1
           1
           1
           1
           1
           1
           1
           1
           1
           1
           1
           1
           1
           1
           1
           1
           1
           1
           1
           1
           1
           1
           1
           1
           1
           1
           1
           1
           1
           1
           1
           1
           1
           1
           1
           1
           1
           1
           1
           1
           1
           1
           1
           1
           1
           1
           1
           1
           1
           1
           1
           1
           1
           1
           1
           1
           1
           1
           1
           1
           1
           1
           1
           1
           1
           1
           1
           1
           1
           1
           1
           1
           1
           1
           1
           1
           1
           1
           1
           1
           1
           1
           1
           1
           1
           1
           1
           1
           1
           1
           1
           1
           1
           1
           1
           1
           1
           1
           1
           1
           1
           1
           1
           1
           1
           1
           1
           1
           1
           1
           1
           1
           1
           1
           1
           1
           1
           1
           1
           1
           1
           1
           1
           1
           1
           1
           1
           1
           1
           1
           1
           1
           1
           1
           1
           1
           1
           1
           1
           1
           1
           1
           1
           1
           1
           1
           1
           1
           1
           1
           1
           1
           1
           1
           1
           1
           1
           1
           1
           1
           1
           1
           1
           1
           1
           1
           1
           1
           1
           1
           1
           1
           1
           1
           1
           1
           1
           1
           1
           1
           1
           1
           1
           1
           1
           1
           1
           1
           1
           1
           1
           1
           1
           1
           1
           1
           1
           1
           1
           1
           1
           1
           1
           1
           1
           1
           1
           1
           1
           1
           1
           1
           1
           1
           1
           1
           1
           1
           1
           1
           1
           1
           1
           1
           1
           1
           1
           1
           1
           1
           1
           1
           1
           1
           1
           1
           1
           1
           1
           1
           1
           1
           1
           1
           1
           1
           1
           1
           1
           1
           1
           1
           1
           1
           1
           1
           1
           1
           1
           1
           1
           1
           1
           1
           1
           1
           1
           1
           1
           1
           1
           1
           1
           1
           1
           1
           1
           1
           1
           1
           1
           1
           1
           1
           1
           1
           1
           1
           1
           1
           1
           1
           1
           1
           1
           1
           1
           1
           1
           1
           1
           1
           1
           1
           1
           1
           1
           1
           1
           1
           1
           1
           1
           1
           1
           1
           1
           1
           1
           1
           1
           1
           1
           1
           1
           1
           1
           1
           1
           1
           1
           1
           1
           1
           1
           1
           1
           1
           1
           1
           1
           1
           1
           1
           1
           1
           1
           1
           1
           1
           1
           1
           1
           1
           1
           1
           1
           1
           1
           1
           1
           1
           1
           1
           1
           1
           1
           1
           1
           1
           1
           1
           1
           1
           1
           1
           1
           1
           1
           1
           1
           1
           1
           1
           1
           1
           1
           1
           1
           1
           1
           1
           1
           1
           1
           1
           1
           1
           1
           1
           1
           1
           1
           1
           1
           1
           1
           1
           1
           1
           1
           1
           1
           1
           1
           1
           1
           1
           1
           1
           1
           1
           1
           1
           1
           1
           1
           1
           1
           1
           1
           1
           1
           1
           1
           1
           1
           1
           1
           1
           1
           1
           1
           1
           1
           1
           1
           1
           1
           1
           1
           1
           1
           1
           1
           1
           1
           1
           1
           1
           1
           1
           1
           1
           1
           1
           1
           1
           1
           1
           1
           1
           1
           1
           1
           1
           1
           1
           1
           1
           1
           1
           1
           1
           1
           1
           1
           1
           1
           1
           1
           1
           1
           1
           1
           1
           1
           1
           1
           1
           1
           1
           1
           1
           1
           1
           1
           1
           1
           1
           1
           1
           1
           1
           1
           1
           1
           1
           1
           1
           1
           1
           1
           1
           1
           1
           1
           1
           1
           1
           1
           1
           1
           1
           1
           1
           1
           1
           1
           1
           1
           1
           1
           1
           1
           1
           1
           1
           1
           1
           1
           1
           1
           1
           1
           1
           1
           1
           1
           1
           1
           1
           1
           1
           1
           1
           1
           1
           1
           1
           1
           1
           1
           1
           1
           1
           1
           1
           1
           1
           1
           1
           1
           1
           1
           1
           1
           1
           1
           1
           1
           1
           1
           1
           1
           1
           1
           1
           1
           1
           1
           1
           1
           1
           1
           1
           1
           1
           1
           1
           1
           1
           1
           1
           1
           1
           1
           1
           1
           1
           1
           1
           1
           1
           1
           1
           1
           1
           1
           1
           1
           1
           1
           1
           1
           1
           1
           1
           1
           1
           1
           1
           1
           1
           1
           1
           1
           1
           1
           1
           1
           1
           1
           1
           1
           1
           1
           1
           1
           1
           1
           1
           1
           1
           1
           1
           1
           1
           1
           1
           1
           1
           1
           1
           1
           1
           1
           1
           1
           1
           1
           1
           1
           1
           1
           1
           1
           1
           1
           1
           1
           1
           1
           1
           1
           1
           1
           1
           1
           1
           1
           1
           1
           1
           1
           1
           1
           1
           1
           1
           1
           1
           1
           1
           1
           1
           1
           1
           1
           1
           1
           1
           1
           1
           1
           1
           1
           1
           1
           1
           1
           1
           1
           1
           1
           1
           1
           1
           1
           1
           1
           1
           1
           1
           1
           1
           1
           1
           1
           1
           1
           1
           1
           1
           1
           1
           1
           1
           1
           1
           1
           1
           1
           1
           1
           1
           1
           1
           1
           1
           1
           1
           1
           1
           1
           1
           1
           1
           1
           1
           1
           1
           1
           1
           1
           1
           1
           1
           1
           1
           1
           1
           1
           1
           1
           1
           1
           1
           1
           1
           1
           1
           1
           1
           1
           1
           1
           1
           1
           1
           1
           1
           1
           1
           1
           1
           1
           1
           1
           1
           1
           1
           1
           1
           1
           1
           1
           1
           1
           1
           1
           1
           1
           1
           1
           1
           1
           1
           1
           1
           1
           1
           1
           1
           1
           1
           1
           1
           1
           1
           1
           1
           1
           1
           1
           1
           1
           1
           1
           1
           1
           1
           1
           1
           1
           1
           1
           1
           1
           1
           1
           1
           1
           1
           1
           1
           1
           1
           1
           1
           1
           1
           1
           1
           1
           1
           1
           1
           1
           1
           1
           1
           1
           1
           1
           1
           1
           1
           1
           1
           1
           1
           1
           1
           1
           1
           1
           1
           1
           1
           1
           1
           1
           1
           1
           1
           1
           1
           1
           1
           1
           1
           1
           1
           1
           1
           1
           1
           1
           1
           1
           1
           1
           1
           1
           1
           1
           1
           1
           1
           1
           1
           1
           1
           1
           1
           1
           1
           1
           1
           1
           1
           1
           1
           1
           1
           1
           1
           1
           1
           1
           1
           1
           1
           1
           1
           1
           1
           1
           1
           1
           1
           1
           1
           1
           1
           1
           1
           1
           1
           1
           1
           1
           1
           1
           1
           1
           1
           1
           1
           1
           1
           1
           1
           1
           1
           1
           1
           1
           1
           1
           1
           1
           1
           1
           1
           1
           1
           1
           1
           1
           1
           1
           1
           1
           1
           1
           1
           1
           1
           1
           1
           1
           1
           1
           1
           1
           1
           1
           1
           1
           1
           1
           1
           1
           1
           1
           1
           1
           1
           1
           1
           1
           1
           1
           1
           1
           1
           1
           1
           1
           1
           1
           1
           1
           1
           1
           1
           1
           1
           1
           1
           1
           1
           1
           1
           1
           1
           1
           1
           1
           1
           1
           1
           1
           1
           1
           1
           1
           1
           1
           1
           1
           1
           1
           1
           1
           1
           1
           1
           1
           1
           1
           1
           1
           1
           1
           1
           1
           1
           1
           1
           1
           1
           1
           1
           1
           1
           1
           1
           1
           1
           1
           1
           1
           1
           1
           1
           1
           1
           1
           1
           1
           1
           1
           1
           1
           1
           1
           1
           1
           1
           1
           1
           1
           1
           1
           1
           1
           1
           1
           1
           1
           1
           1
           1
           1
           1
           1
           1
           1
           1
           1
           1
           1
           1
           1
           1
           1
           1
           1
           1
           1
           1
           1
           1
           1
           1
           1
           1
           1
           1
           1
           1
           1
           1
           1
           1
           1
           1
           1
           1
           1
           1
           1
           1
           1
           1
           1
           1
           1
           1
           1
           1
           1
           1
           1
           1
           1
           1
           1
           1
           1
           1
           1
           1
           1
           1
           1
           1
           1
           1
           1
           1
           1
           1
           1
           1
           1
           1
           1
           1
           1
           1
           1
           1
           1
           1
           1
           1
           1
           1
           1
           1
           1
           1
           1
           1
           1
           1
           1
           1
           1
           1
           1
           1
           1
           1
           1
           1
           1
           1
           1
           1
           1
           1
           1
           1
           1
           1
           1
           1
           1
           1
           1
           1
           1
           1
           1
           1
           1
           1
           1
           1
           1
           1
           1
           1
           1
           1
           1
           1
           1
           1
           1
           1
           1
           1
           1
           1
           1
           1
           1
           1
           1
           1
           1
           1
           1
           1
           1
           1
           1
           1
           1
           1
           1
           1
           1
           1
           1
           1
           1
           1
           1
           1
           1
           1
           1
           1
           1
           1
           1
           1
           1
           1
           1
           1
           1
           1
           1
           1
           1
           1
           1
           1
           1
           1
           1
           1
           1
           1
           1
           1
           1
           1
           1
           1
           1
           1
           1
           1
           1
           1
           1
           1
           1
           1
           1
           1
           1
           1
           1
           1
           1
           1
           1
           1
           1
           1
           1
           1
           1
           1
           1
           1
           1
           1
           1
           1
           1
           1
           1
           1
           1
           1
           1
           1
           1
           1
           1
           1
           1
           1
           1
           1
           1
           1
           1
           1
           1
           1
           1
           1
           1
           1
           1
           1
           1
           1
           1
           1
           1
           1
           1
           1
           1
           1
           1
           1
           1
           1
           1
           1
           1
           1
           1
           1
           1
           1
           1
           1
           1
           1
           1
           1
           1
           1
           1
           1
           1
           1
           1
           1
           1
           1
           1
           1
           1
           1
           1
           1
           1
           1
           1
           1
           1
           1
           1
           1
           1
           1
           1
           1
           1
           1
           1
           1
           1
           1
           1
           1
           1
           1
           1
           1
           1
           1
           1
           1
           1
           1
           1
           1
           1
           1
           1
           1
           1
           1
           1
           1
           1
           1
           1
           1
           1
           1
           1
           1
           1
           1
           1
           1
           1
           1
           1
           1
           1
           1
           1
           1
           1
           1
           1
           1
           1
           1
           1
           1
           1
           1
           1
           1
           1
           1
           1
           1
           1
           1
           1
           1
           1
           1
           1
           1
           1
           1
           1
           1
           1
           1
           1
           1
           1
           1
           1
           1
           1
           1
           1
           1
           1
           1
           1
           1
           1
           1
           1
           1
           1
           1
           1
           1
           1
           1
           1
           1
           1
           1
           1
           1
           1
           1
           1
           1
           1
           1
           1
           1
           1
           1
           1
           1
           1
           1
           1
           1
           1
           1
           1
           1
           1
           1
           1
           1
           1
           1
           1
           1
           1
           1
           1
           1
           1
           1
           1
           1
           1
           1
           1
           1
           1
           1
           1
           1
           1
           1
           1
           1
           1
           1
           1
           1
           1
           1
           1
           1
           1
           1
           1
           1
           1
           1
           1
           1
           1
           1
           1
           1
           1
           1
           1
           1
           1
           1
           1
           1
           1
           1
           1
           1
           1
           1
           1
           1
           1
           1
           1
           1
           1
           1
           1
           1
           1
           1
           1
           1
           1
           1
           1
           1
           1
           1
           1
           1
           1
           1
           1
           1
           1
           1
           1
           1
           1
           1
           1
           1
           1
           1
           1
           1
           1
           1
           1
           1
           1
           1
           1
           1
           1
           1
           1
           1
           1
           1
           1
           1
           1
           1
           1
           1
           1
           1
           1
           1
           1
           1
           1
           1
           1
           1
           1
           1
           1
           1
           1
           1
           1
           1
           1
           1
           1
           1
           1
           1
           1
           1
           1
           1
           1
           1
           1
           1
           1
           1
           1
           1
           1
           1
           1
           1
           1
           1
           1
           1
           1
           1
           1
           1
           1
           1
           1
           1
           1
           1
           1
           1
           1
           1
           1
           1
           1
           1
           1
           1
           1
           1
           1
           1
           1
           1
           1
           1
           1
           1
           1
           1
           1
           1
           1
           1
           1
           1
           1
           1
           1
           1
           1
           1
           1
           1
           1
           1
           1
           1
           1
           1
           1
           1
           1
           1
           1
           1
           1
           1
           1
           1
           1
           1
           1
           1
           1
           1
           1
           1
           1
           1
           1
           1
           1
           1
           1
           1
           1
           1
           1
           1
           1
           1
           1
           1
           1
           1
           1
           1
           1
           1
           1
           1
           1
           1
           1
           1
           1
           1
           1
           1
           1
           1
           1
           1
           1
           1
           1
           1
           1
           1
           1
           1
           1
           1
           1
           1
           1
           1
           1
           1
           1
           1
           1
           1
           1
           1
           1
           1
           1
           1
           1
           1
           1
           1
           1
           1
           1
           1
           1
           1
           1
           1
           1
           1
           1
           1
           1
           1
           1
           1
           1
           1
           1
           1
           1
           1
           1
           1
           1
           1
           1
           1
           1
           1
           1
           1
           1
           1
           1
           1
           1
           1
           1
           1
           1
           1
           1
           1
           1
           1
           1
           1
           1
           1
           1
           1
           1
           1
           1
           1
           1
           1
           1
           1
           1
           1
           1
           1
           1
           1
           1
           1
           1
           1
           1
           1
           1
           1
           1
           1
           1
           1
           1
           1
           1
           1
           1
           1
           1
           1
           1
           1
           1
           1
           1
           1
           1
           1
           1
           1
           1
           1
           1
           1
           1
           1
           1
           1
           1
           1
           1
           1
           1
           1
           1
           1
           1
           1
           1
           1
           1
           1
           1
           1
           1
           1
           1
           1
           1
           1
           1
           1
           1
           1
           1
           1
           1
           1
           1
           1
           1
           1
           1
           1
           1
           1
           1
           1
           1
           1
           1
           1
           1
           1
           1
           1
           1
           1
           1
           1
           1
           1
           1
           1
           1
           1
           1
           1
           1
           1
           1
           1
           1
           1
           1
           1
           1
           1
           1
           1
           1
           1
           1
           1
           1
           1
           1
           1
           1
           1
           1
           1
           1
           1
           1
           1
           1
           1
           1
           1
           1
           1
           1
           1
           1
           1
           1
           1
           1
           1
           1
           1
           1
           1
           1
           1
           1
           1
           1
           1
           1
           1
           1
           1
           1
           1
           1
           1
           1
           1
           1
           1
           1
           1
           1
           1
           1
           1
           1
           1
           1
           1
           1
           1
           1
           1
           1
           1
           1
           1
           1
           1
           1
           1
           1
           1
           1
           1
           1
           1
           1
           1
           1
           1
           1
           1
           1
           1
           1
           1
           1
           1
           1
           1
           1
           1
           1
           1
           1
           1
           1
           1
           1
           1
           1
           1
           1
           1
           1
           1
           1
           1
           1
           1
           1
           1
           1
           1
           1
           1
           1
           1
           1
           1
           1
           1
           1
           1
           1
           1
           1
           1
           1
           1
           1
           1
           1
           1
           1
           1
           1
           1
           1
           1
           1
           1
           1
           1
           1
           1
           1
           1
           1
           1
           1
           1
           1
           1
           1
           1
           1
           1
           1
           1
           1
           1
           1
           1
           1
           1
           1
           1
           1
           1
           1
           1
           1
           1
           1
           1
           1
           1
           1
           1
           1
           1
           1
           1
           1
           1
           1
           1
           1
           1
           1
           1
           1
           1
           1
           1
           1
           1
           1
           1
           1
           1
           1
           1
           1
           1
           1
           1
           1
           1
           1
           1
           1
           1
           1
           1
           1
           1
           1
           1
           1
           1
           1
           1
           1
           1
           1
           1
           1
           1
           1
           1
           1
           1
           1
           1
           1
           1
           1
           1
           1
           1
           1
           1
           1
           1
           1
           1
           1
           1
           1
           1
           1
           1
           1
           1
           1
           1
           1
           1
           1
           1
           1
           1
           1
           1
           1
           1
           1
           1
           1
           1
           1
           1
           1
           1
           1
           1
           1
           1
           1
           1
           1
           1
           1
           1
           1
           1
           1
           1
           1
           1
           1
           1
           1
           1
           1
           1
           1
           1
           1
           1
           1
           1
           1
           1
           1
           1
           1
           1
           1
           1
           1
           1
           1
           1
           1
           1
           1
           1
           1
           1
           1
           1
           1
           1
           1
           1
           1
           1
           1
           1
           1
           1
           1
           1
           1
           1
           1
           1
           1
           1
           1
           1
           1
           1
           1
           1
           1
           1
           1
           1
           1
           1
           1
           1
           1
           1
           1
           1
           1
           1
           1
           1
           1
           1
           1
           1
           1
           1
           1
           1
           1
           1
           1
           1
           1
           1
           1
           1
           1
           1
           1
           1
           1
           1
           1
           1
           1
           1
           1
           1
           1
           1
           1
           1
           1
           1
           1
           1
           1
           1
           1
           1
           1
           1
           1
           1
           1
           1
           1
           1
           1
           1
           1
           1
           1
           1
           1
           1
           1
           1
           1
           1
           1
           1
           1
           1
           1
           1
           1
           1
           1
           1
           1
           1
           1
           1
           1
           1
           1
           1
           1
           1
           1
           1
           1
           1
           1
           1
           1
           1
           1
           1
           1
           1
           1
           1
           1
           1
           1
           1
           1
           1
           1
           1
           1
           1
           1
           1
           1
           1
           1
           1
           1
           1
           1
           1
           1
           1
           1
           1
           1
           1
           1
           1
           1
           1
           1
           1
           1
           1
           1
           1
           1
           1
           1
           1
           1
           1
           1
           1
           1
           1
           1
           1
           1
           1
           1
           1
           1
           1
           1
           1
           1
           1
           1
           1
           1
           1
           1
           1
           1
           1
           1
           1
           1
           1
           1
           1
           1
           1
           1
           1
           1
           1
           1
           1
           1
           1
           1
           1
           1
           1
           1
           1
           1
           1
           1
           1
           1
           1
           1
           1
           1
           1
           1
           1
           1
           1
           1
           1
           1
           1
           1
           1
           1
           1
           1
           1
           1
           1
           1
           1
           1
           1
           1
           1
           1
           1
           1
           1
           1
           1
           1
           1
           1
           1
           1
           1
           1
           1
           1
           1
           1
           1
           1
           1
           1
           1
           1
           1
           1
           1
           1
           1
           1
           1
           1
           1
           1
           1
           1
           1
           1
           1
           1
           1
           1
           1
           1
           1
           1
           1
           1
           1
           1
           1
           1
           1
           1
           1
           1
           1
           1
           1
           1
           1
           1
           1
           1
           1
           1
           1
           1
           1
           1
           1
           1
           1
           1
           1
           1
           1
           1
           1
           1
           1
           1
           1
           1
           1
           1
           1
           1
           1
           1
           1
           1
           1
           1
           1
           1
           1
           1
           1
           1
           1
           1
           1
           1
           1
           1
           1
           1
           1
           1
           1
           1
           1
           1
           1
           1
           1
           1
           1
           1
           1
           1
           1
           1
           1
           1
           1
           1
           1
           1
           1
           1
           1
           1
           1
           1
           1
           1
           1
           1
           1
           1
           1
           1
           1
           1
           1
           1
           1
           1
           1
           1
           1
           1
           1
           1
           1
           1
           1
           1
           1
           1
           1
           1
           1
           1
           1
           1
           1
           1
           1
           1
           1
           1
           1
           1
           1
           1
           1
           1
           1
           1
           1
           1
           1
           1
           1
           1
           1
           1
           1
           1
           1
           1
           1
           1
           1
           1
           1
           1
           1
           1
           1
           1
           1
           1
           1
           1
           1
           1
           1
           1
           1
           1
           1
           1
           1
           1
           1
           1
           1
           1
           1
           1
           1
           1
           1
           1
           1
           1
           1
           1
           1
           1
           1
           1
           1
           1
           1
           1
           1
           1
           1
           1
           1
           1
           1
           1
           1
           1
           1
           1
           1
           1
           1
           1
           1
           1
           1
           1
           1
           1
           1
           1
           1
           1
           1
           1
           1
           1
           1
           1
           1
           1
           1
           1
           1
           1
           1
           1
           1
           1
           1
           1
           1
           1
           1
           1
           1
           1
           1
           1
           1
           1
           1
           1
           1
           1
           1
           1
           1
           1
           1
           1
           1
           1
           1
           1
           1
           1
           1
           1
           1
           1
           1
           1
           1
           1
           1
           1
           1
           1
           1
           1
           1
           1
           1
           1
           1
           1
           1
           1
           1
           1
           1
           1
           1
           1
           1
           1
           1
           1
           1
           1
           1
           1
           1
           1
           1
           1
           1
           1
           1
           1
           1
           1
           1
           1
           1
           1
           1
           1
           1
           1
           1
           1
           1
           1
           1
           1
           1
           1
           1
           1
           1
           1
           1
           1
           1
           1
           1
           1
           1
           1
           1
           1
           1
           1
           1
           1
           1
           1
           1
           1
           1
           1
           1
           1
           1
           1
           1
           1
           1
           1
           1
           1
           1
           1
           1
           1
           1
           1
           1
           1
           1
           1
           1
           1
           1
           1
           1
           1
           1
           1
           1
           1
           1
           1
           1
           1
           1
           1
           1
           1
           1
           1
           1
           1
           1
           1
           1
           1
           1
           1
           1
           1
           1
           1
           1
           1
           1
           1
           1
           1
           1
           1
           1
           1
           1
           1
           1
           1
           1
           1
           1
           1
           1
           1
           1
           1
           1
           1
           1
           1
           1
           1
           1
           1
           1
           1
           1
           1
           1
           1
           1
           1
           1
           1
           1
           1
           1
           1
           1
           1
           1
           1
           1
           1
           1
           1
           1
           1
           1
           1
           1
           1
           1
           1
           1
           1
           1
           1
           1
           1
           1
           1
           1
           1
           1
           1
           1
           1
           1
           1
           1
           1
           1
           1
           1
           1
           1
           1
           1
           1
           1
           1
           1
           1
           1
           1
           1
           1
           1
           1
           1
           1
           1
           1
           1
           1
           1
           1
           1
           1
           1
           1
           1
           1
           1
           1
           1
           1
           1
           1
           1
           1
           1
           1
           1
           1
           1
           1
           1
           1
           1
           1
           1
           1
           1
           1
           1
           1
           1
           1
           1
           1
           1
           1
           1
           1
           1
           1
           1
           1
           1
           1
           1
           1
           1
           1
           1
           1
           1
           1
           1
           1
           1
           1
           1
           1
           1
           1
           1
           1
           1
           1
           1
           1
           1
           1
           1
           1
           1
           1
           1
           1
           1
           1
           1
           1
           1
           1
           1
           1
           1
           1
           1
           1
           1
           1
           1
           1
           1
           1
           1
           1
           1
           1
           1
           1
           1
           1
           1
           1
           1
           1
           1
           1
           1
           1
           1
           1
           1
           1
           1
           1
           1
           1
           1
           1
           1
           1
           1
           1
           1
           1
           1
           1
           1
           1
           1
           1
           1
           1
           1
           1
           1
           1
           1
           1
           1
           1
           1
           1
           1
           1
           1
           1
           1
           1
           1
           1
           1
           1
           1
           1
           1
           1
           1
           1
           1
           1
           1
           1
           1
           1
           1
           1
           1
           1
           1
           1
           1
           1
           1
           1
           1
           1
           1
           1
           1
           1
           1
           1
           1
           1
           1
           1
           1
           1
           1
           1
           1
           1
           1
           1
           1
           1
           1
           1
           1
           1
           1
           1
           1
           1
           1
           1
           1
           1
           1
           1
           1
           1
           1
           1
           1
           1
           1
           1
           1
           1
           1
           1
           1
           1
           1
           1
           1
           1
           1
           1
           1
           1
           1
           1
           1
           1
           1
           1
           1
           1
           1
           1
           1
           1
           1
           1
           1
           1
           1
           1
           1
           1
           1
           1
           1
           1
           1
           1
           1
           1
           1
           1
           1
           1
           1
           1
           1
           1
           1
           1
           1
           1
           1
           1
           1
           1
           1
           1
           1
           1
           1
           1
           1
           1
           1
           1
           1
           1
           1
           1
           1
           1
           1
           1
           1
           1
           1
           1
           1
           1
           1
           1
           1
           1
           1
           1
           1
           1
           1
           1
           1
           1
           1
           1
           1
           1
           1
           1
           1
           1
           1
           1
           1
           1
           1
           1
           1
           1
           1
           1
           1
           1
           1
           1
           1
           1
           1
           1
           1
           1
           1
           1
           1
           1
           1
           1
           1
           1
           1
           1
           1
           1
           1
           1
           1
           1
           1
           1
           1
           1
           1
           1
           1
           1
           1
           1
           1
           1
           1
           1
           1
           1
           1
           1
           1
           1
           1
           1
           1
           1
           1
           1
           1
           1
           1
           1
           1
           1
           1
           1
           1
           1
           1
           1
           1
           1
           1
           1
           1
           1
           1
           1
           1
           1
           1
           1
           1
           1
           1
           1
           1
           1
           1
           1
           1
           1
           1
           1
           1
           1
           1
           1
           1
           1
           1
           1
           1
           1
           1
           1
           1
           1
           1
           1
           1
           1
           1
           1
           1
           1
           1
           1
           1
           1
           1
           1
           1
           1
           1
           1
           1
           1
           1
           1
           1
           1
           1
           1
           1
           1
           1
           1
           1
           1
           1
           1
           1
           1
           1
           1
           1
           1
           1
           1
           1
           1
           1
           1
           1
           1
           1
           1
           1
           1
           1
           1
           1
           1
           1
           1
           1
           1
           1
           1
           1
           1
           1
           1
           1
           1
           1
           1
           1
           1
           1
           1
           1
           1
           1
           1
           1
           1
           1
           1
           1
           1
           1
           1
           1
           1
           1
           1
           1
           1
           1
           1
           1
           1
           1
           1
           1
           1
           1
           1
           1
           1
           1
           1
           1
           1
           1
           1
           1
           1
           1
           1
           1
           1
           1
           1
           1
           1
           1
           1
           1
           1
           1
           1
           1
           1
           1
           1
           1
           1
           1
           1
           1
           1
           1
           1
           1
           1
           1
           1
           1
           1
           1
           1
           1
           1
           1
           1
           1
           1
           1
           1
           1
           1
           1
           1
           1
           1
           1
           1
           1
           1
           1
           1
           1
           1
           1
           1
           1
           1
           1
           1
           1
           1
           1
           1
           1
           1
           1
           1
           1
           1
           1
           1
           1
           1
           1
           1
           1
           1
           1
           1
           1
           1
           1
           1
           1
           1
           1
           1
           1
           1
           1
           1
           1
           1
           1
           1
           1
           1
           1
           1
           1
           1
           1
           1
           1
           1
           1
           1
           1
           1
           1
           1
           1
           1
           1
           1
           1
           1
           1
           1
           1
           1
           1
           1
           1
           1
           1
           1
           1
           1
           1
           1
           1
           1
           1
           1
           1
           1
           1
           1
           1
           1
           1
           1
           1
           1
           1
           1
           1
           1
           1
           1
           1
           1
           1
           1
           1
           1
           1
           1
           1
           1
           1
           1
           1
           1
           1
           1
           1
           1
           1
           1
           1
           1
           1
           1
           1
           1
           1
           1
           1
           1
           1
           1
           1
           1
           1
           1
           1
           1
           1
           1
           1
           1
           1
           1
           1
           1
           1
           1
           1
           1
           1
           1
           1
           1
           1
           1
           1
           1
           1
           1
           1
           1
           1
           1
           1
           1
           1
           1
           1
           1
           1
           1
           1
           1
           1
           1
           1
           1
           1
           1
           1
           1
           1
           1
           1
           1
           1
           1
           1
           1
           1
           1
           1
           1
           1
           1
           1
           1
           1
           1
           1
           1
           1
           1
           1
           1
           1
           1
           1
           1
           1
           1
           1
           1
           1
           1
           1
           1
           1
           1
           1
           1
           1
           1
           1
           1
           1
           1
           1
           1
           1
           1
           1
           1
           1
           1
           1
           1
           1
           1
           1
           1
           1
           1
           1
           1
           1
           1
           1
           1
           1
           1
           1
           1
           1
           1
           1
           1
           1
           1
           1
           1
           1
           1
           1
           1
           1
           1
           1
           1
           1
           1
           1
           1
           1
           1
           1
           1
           1
           1
           1
           1
           1
           1
           1
           1
           1
           1
           1
           1
           1
           1
           1
           1
           1
           1
           1
           1
           1
           1
           1
           1
           1
           1
           1
           1
           1
           1
           1
           1
           1
           1
           1
           1
           1
           1
           1
           1
           1
           1
           1
           1
           1
           1
           1
           1
           1
           1
           1
           1
           1
           1
           1
           1
           1
           1
           1
           1
           1
           1
           1
           1
           1
           1
           1
           1
           1
           1
           1
           1
           1
           1
           1
           1
           1
           1
           1
           1
           1
           1
           1
           1
           1
           1
           1
           1
           1
           1
           1
           1
           1
           1
           1
           1
           1
           1
           1
           1
           1
           1
           1
           1
           1
           1
           1
           1
           1
           1
           1
           1
           1
           1
           1
           1
           1
           1
           1
           1
           1
           1
           1
           1
           1
           1
           1
           1
           1
           1
           1
           1
           1
           1
           1
           1
           1
           1
           1
           1
           1
           1
           1
           1
           1
           1
           1
           1
           1
           1
           1
           1
           1
           1
           1
           1
           1
           1
           1
           1
           1
           1
           1
           1
           1
           1
           1
           1
           1
           1
           1
           1
           1
           1
           1
           1
           1
           1
           1
           1
           1
           1
           1
           1
           1
           1
           1
           1
           1
           1
           1
           1
           1
           1
           1
           1
           1
           1
           1
           1
           1
           1
           1
           1
           1
           1
           1
           1
           1
           1
           1
           1
           1
           1
           1
           1
           1
           1
           1
           1
           1
           1
           1
           1
           1
           1
           1
           1
           1
           1
           1
           1
           1
           1
           1
           1
           1
           1
           1
           1
           1
           1
           1
           1
           1
           1
           1
           1
           1
           1
           1
           1
           1
           1
           1
           1
           1
           1
           1
           1
           1
           1
           1
           1
           1
           1
           1
           1
           1
           1
           1
           1
           1
           1
           1
           1
           1
           1
           1
           1
           1
           1
           1
           1
           1
           1
           1
           1
           1
           1
           1
           1
           1
           1
           1
           1
           1
           1
           1
           1
           1
           1
           1
           1
           1
           1
           1
           1
           1
           1
           1
           1
           1
           1
           1
           1
           1
           1
           1
           1
           1
           1
           1
           1
           1
           1
           1
           1
           1
           1
           1
           1
           1
           1
           1
           1
           1
           1
           1
           1
           1
           1
           1
           1
           1
           1
           1
           1
           1
           1
           1
           1
           1
           1
           1
           1
           1
           1
           1
           1
           1
           1
           1
           1
           1
           1
           1
           1
           1
           1
           1
           1
           1
           1
           1
           1
           1
           1
           1
           1
           1
           1
           1
           1
           1
           1
           1
           1
           1
           1
           1
           1
           1
           1
           1
           1
           1
           1
           1
           1
           1
           1
           1
           1
           1
           1
           1
           1
           1
           1
           1
           1
           1
           1
           1
           1
           1
           1
           1
           1
           1
           1
           1
           1
           1
           1
           1
           1
           1
           1
           1
           1
           1
           1
           1
           1
           1
           1
           1
           1
           1
           1
           1
           1
           1
           1
           1
           1
           1
           1
           1
           1
           1
           1
           1
           1
           1
           1
           1
           1
           1
           1
           1
           1
           1
           1
           1
           1
           1
           1
           1
           1
           1
           1
           1
           1
           1
           1
           1
           1
           1
           1
           1
           1
           1
           1
           1
           1
           1
           1
           1
           1
           1
           1
           1
           1
           1
           1
           1
           1
           1
           1
           1
           1
           1
           1
           1
           1
           1
           1
           1
           1
           1
           1
           1
           1
           1
           1
           1
           1
           1
           1
           1
           1
           1
           1
           1
           1
           1
           1
           1
           1
           1
           1
           1
           1
           1
           1
           1
           1
           1
         100
         100
         100
         100
         100
         100
         100
         100
         100
         100
         100
         100
         100
         100
         100
         100
         100
         100
         100
         100
         100
         100
         100
         100
         100
         100
         100
         100
         100
         100
         100
         100
         100
         100
         100
         100
         100
         100
         100
         100
         100
         100
         100
         100
         100
         100
         100
         100
         100
         100
         100
         100
         100
         100
         100
         100
         100
         100
         100
         100
         100
         100
         100
         100
         100
         100
         100
         100
         100
         100
         100
         100
         100
         100
         100
         100
         100
         100
         100
         100
         100
         100
         100
         100
         100
         100
         100
         100
         100
         100
         100
         100
         100
         100
         100
         100
         100
         100
         100
         100
         100
         100
         100
         100
         100
         100
         100
         100
         100
         100
         100
         100
         100
         100
         100
         100
         100
         100
         100
         100
         100
         100
         100
         100
         100
         100
         100
         100
         100
         100
         100
         100
         100
         100
         100
         100
         100
         100
         100
         100
         100
         100
         100
         100
         100
         100
         100
         100
         100
         100
         100
         100
         100
         100
         100
         100
         100
         100
         100
         100
         100
         100
         100
         100
         100
         100
         100
         100
         100
         100
         100
         100
         100
         100
         100
         100
         100
         100
         100
         100
         100
         100
         100
         100
         100
         100
         100
         100
         100
         100
         100
         100
         100
         100
         100
         100
         100
         100
         100
         100
         100
         100
         100
         100
         100
         100
         100
         100
         100
         100
         100
         100
         100
         100
         100
         100
         100
         100
         100
         100
         100
         100
         100
         100
         100
         100
         100
         100
         100
         100
         100
         100
         100
         100
         100
         100
         100
         100
         100
         100
         100
         100
         100
         100
         100
         100
         100
         100
         100
         100
         100
         100
         100
         100
         100
         100
         100
         100
         100
         100
         100
         100
         100
         100
         100
         100
         100
         100
         100
         100
         100
         100
         100
         100
         100
         100
         100
         100
         100
         100
         100
         100
         100
         100
         100
         100
         100
         100
         100
         100
         100
         100
         100
         100
         100
         100
         100
         100
         100
         100
         100
         100
         100
         100
         100
         102
         102
         102
         102
         102
         102
         102
         102
         100
         100
         100
         102
         102
         102
         102
         102
         102
         102
         102
         102
         102
         102
         102
         100
         100
         100
         100
         102
         102
         102
         102
         102
         102
         102
         102
         102
         102
         100
         100
         100
         100
         102
         102
         102
         102
         102
         102
         102
         102
         102
         100
         100
         100
         102
         102
         102
         102
         102
         102
         102
         102
         102
         100
         100
         102
         102
         102
         102
         102
         102
         102
         100
         100
         102
         102
         102
         102
         102
         102
         102
         100
         100
         102
         102
         102
         102
         102
         102
         100
         100
         102
         102
         102
         102
         102
         102
         102
         100
         100
         100
         100
         100
         100
         100
         100
         100
         100
         100
         100
         100
         100
         100
         100
         100
         100
         100
         100
         100
         100
         100
         100
         100
         100
         100
         100
         100
         100
         100
         100
         100
         100
         100
         100
         100
         100
         100
         100
         100
         100
         100
         100
         100
         100
         100
         100
         100
         100
         100
         100
         100
         100
         100
         100
         100
         100
         100
         100
         100
         100
         100
         100
         100
         100
         100
         100
         100
         100
         100
         100
         100
         100
         100
         100
         100
         100
         100
         100
         100
         100
         100
         100
         100
         100
         100
         100
         100
         100
         100
         100
         100
         100
         100
         100
         100
         100
         100
         100
         100
         100
         100
         100
         100
         100
         100
         100
         100
         100
         100
         100
         100
         100
         100
         100
         100
         100
         100
         101
         101
         101
         101
         101
         101
         101
         101
         101
         101
         101
         101
         101
         101
         101
         101
         100
         100
         100
         100
         100
         100
         100
         100
         100
         100
         100
         100
         100
         100
         100
         100
         100
         100
         100
         100
         100
         100
         100
         100
         100
         100
         100
         100
         100
         100
         100
         100
         100
         100
         100
         100
         100
         100
         100
         100
         100
         100
         100
         100
         100
         100
         100
         100
         100
         100
         100
         100
         100
         100
         100
         100
         100
         100
         100
         100
         100
         100
         100
         100
         100
         100
         100
         100
         100
         100
         100
         100
         100
         100
         100
         100
         100
         100
         100
         103
         103
         103
         103
         103
         103
         103
         103
         103
         103
         103
         103
         103
         103
         103
         103
         103
         103
         103
         103
         103
         103
         103
         103
         103
         103
         103
         103
         100
         100
         100
         100
         100
         100
         100
         100
         100
         100
         100
         100
         100
         100
         100
         100
         100
         100
         100
         100
         100
         100
         100
         100
         100
         100
         100
         100
         100
         100
         100
         100
         100
         100
         100
         100
         100
         100
         100
         100
         100
         100
         100
         100
         100
         100
         100
         100
         100
         100
         100
         100
         100
         100
         100
         100
         100
         100
         100
         100
         100
         100
         100
         100
         100
         100
         100
         100
         100
         100
         100
         100
         100
         100
         100
         100
         100
         100
         100
         100
         100
         100
         100
         100
         100
         100
         100
         100
         100
         100
         100
         100
         100
         100
         100
         100
         100
         100
         100
         100
         100
         100
         100
         100
         100
         100
         100
         100
         100
         100
         100
         100
         100
         100
         100
         100
         100
         100
         100
         100
         100
         100
         100
         100
         100
         100
         100
         100
         100
         100
         100
         100
         100
         100
         100
         100
         100
         100
         100
         100
         100
         100
         100
         100
         100
         100
         100
         100
         100
         100
         100
         100
         100
         100
         100
         100
         100
         100
         100
         100
         100
         100
         100
         100
         100
         100
         100
         100
         100
         100
         100
         100
         100
         100
         100
         100
         100
         100
         100
         100
         100
         100
         100
         100
         100
         100
         100
         100
         100
         100
         100
         100
         100
         100
         100
         100
         100
         100
         100
         100
         100
         100
         100
         100
         100
         100
         100
         100
         100
         100
         100
         100
         100
         100
         100
         100
         100
         100
         100
         100
         100
         100
         100
         100
         100
         100
         100
         100
         100
         100
         100
         100
         100
         100
         100
         100
         100
         100
         100
         100
         100
         100
         100
         100
         100
         100
         100
         100
         100
         100
         100
         100
         100
         100
         100
         100
         100
         100
         100
         100
         100
         100
         100
         100
         100
         100
         100
         100
         100
         100
         100
         100
         100
         100
         100
         100
         100
         100
         100
         100
         100
         100
         100
         100
         100
         100
         100
         100
         100
         100
         100
         100
         100
         100
         100
         100
         100
         100
         100
         100
         100
         100
         100
         100
         100
         100
         100
         100
         100
         100
         100
         100
         100
         100
         100
         100
         100
         100
         100
         100
         100
         100
         100
         100
         100
         100
         100
         100
         100
         100
         100
         100
         100
         100
         100
         100
         100
         100
         100
         100
         100
         100
         100
         100
         100
         100
         100
         100
         100
         100
         100
         100
         100
         100
         100
         100
         100
         100
         100
         100
         100
         100
         100
         100
         100
         100
         100
         100
         100
         100
         100
         100
         100
         100
         100
         100
         100
         100
         100
         100
         100
         100
         100
         100
         100
         100
         100
         100
         100
         100
         100
         100
         100
         100
         100
         100
         100
         100
         100
         100
         100
         100
         100
         100
         100
         100
         100
         100
         100
         100
         100
         100
         100
         100
         100
         100
         100
         100
         100
         100
         100
         100
         100
         100
         100
         100
         100
         100
         100
         100
         100
         100
         100
         100
         100
         100
         100
         100
         100
         100
         100
         100
         100
         100
         100
         100
         100
         100
         100
         100
         100
         100
         100
         100
         100
         100
         100
         100
         100
         100
         100
         100
         100
         100
         100
         100
         100
         100
         100
         100
         100
         100
         100
         100
         100
         100
         100
         100
         100
         100
         100
         100
         100
         100
         100
         100
         100
         100
         100
         100
         100
         100
         100
         100
         100
         100
         100
         100
         100
         100
         100
         100
         100
         100
         100
         100
         100
         100
         100
         100
         100
         100
         100
         100
         100
         100
         100
         100
         100
         100
         100
         100
         100
         100
         100
         100
         100
         100
         100
         100
         100
         100
         100
         100
         100
         100
         100
         100
         100
         100
         100
         100
         100
         100
         100
         100
         100
         100
         100
         100
         100
         100
         100
         100
         100
         100
         100
         100
         100
         100
         100
         100
         100
         100
         100
         100
         100
         100
         100
         100
         100
         100
         100
         100
         100
         100
         100
         100
         100
         100
POINT_DATA 9030
VECTORS Displacement double
 -3.8690807E-007 -8.2377772E-007 0.0
 -3.8604113E-007 -8.1625017E-007 0.0
 -4.0176785E-007 -8.1065031E-007 0.0
 -3.9973095E-007 -8.2410183E-007 0.0
 -4.1820934E-007 -8.0565655E-007 0.0
 -4.1616938E-007 -8.2093545E-007 0.0
 -4.3380243E-007 -8.0094288E-007 0.0
 -4.3174983E-007 -8.1678564E-007 0.0
 -4.4849478E-007 -7.9593348E-007 0.0
 -4.4643861E-007 -8.1358806E-007 0.0
 -4.6375397E-007 -7.9039788E-007 0.0
 -4.6465325E-007 -8.1387281E-007 0.0
 -7.6084821E-008 -8.5935831E-007 0.0
 -7.6062573E-008 -8.3306965E-007 0.0
 -1.0248886E-007 -8.3301687E-007 0.0
 -1.0250344E-007 -8.5934203E-007 0.0
 -1.2951195E-007 -8.3261288E-007 0.0
 -1.2933666E-007 -8.5915713E-007 0.0
 -1.5688784E-007 -8.3185789E-007 0.0
 -1.5652636E-007 -8.5851952E-007 0.0
 -1.8444548E-007 -8.3068846E-007 0.0
 -1.8386490E-007 -8.5731840E-007 0.0
 -2.1200445E-007 -8.2903664E-007 0.0
 -2.1117854E-007 -8.5547130E-007 0.0
 -2.3938689E-007 -8.2684160E-007 0.0
 -2.3829037E-007 -8.5290718E-007 0.0
 -2.6640766E-007 -8.2404913E-007 0.0
 -2.6501689E-007 -8.4955833E-007 0.0
 -2.9287049E-007 -8.2061090E-007 0.0
 -2.9116503E-007 -8.4535654E-007 0.0
 -3.1857121E-007 -8.1648686E-007 0.0
 -3.1652628E-007 -8.4021999E-007 0.0
 -3.4326602E-007 -8.1166683E-007 0.0
 -3.4091488E-007 -8.3402341E-007 0.0
 -3.6676647E-007 -8.0628337E-007 0.0
 -3.6392996E-007 -8.2636374E-007 0.0
 -3.8747407E-007 -8.0147557E-007 0.0
 -4.0473866E-007 -7.9605394E-007 0.0
 -4.2113894E-007 -7.9050659E-007 0.0
 -4.3678313E-007 -7.8500844E-007 0.0
 -4.5158661E-007 -7.7931605E-007 0.0
 -4.6525760E-007 -7.7371557E-007 0.0
 -4.7519727E-007 -7.6876253E-007 0.0
 -4.7245165E-007 -7.8107146E-007 0.0
 -4.8282450E-007 -7.6310356E-007 0.0
 -4.8069781E-007 -7.7589114E-007 0.0
 -4.9138447E-007 -7.5786909E-007 0.0
 -4.9274086E-007 -7.7568282E-007 0.0
 -7.5692174E-008 -8.0742328E-007 0.0
 -1.0243629E-007 -8.0724455E-007 0.0
 -1.2962391E-007 -8.0684683E-007 0.0
 -1.5716445E-007 -8.0618441E-007 0.0
 -1.8489112E-007 -8.0521984E-007 0.0
 -2.1263631E-007 -8.0391148E-007 0.0
 -2.4022218E-007 -8.0221731E-007 0.0
 -2.6746010E-007 -8.0010209E-007 0.0
 -2.9414566E-007 -7.9754391E-007 0.0
 -3.2004341E-007 -7.9455000E-007 0.0
 -3.4487185E-007 -7.9119080E-007 0.0
 -3.6805707E-007 -7.8770399E-007 0.0
 -3.8895875E-007 -7.8394845E-007 0.0
 -4.0751476E-007 -7.7974305E-007 0.0
 -4.2445566E-007 -7.7489683E-007 0.0
 -4.4024907E-007 -7.6970038E-007 0.0
 -4.5477999E-007 -7.6442104E-007 0.0
 -4.6740321E-007 -7.5934764E-007 0.0
 -4.7743748E-007 -7.5425158E-007 0.0
 -4.8538723E-007 -7.4903417E-007 0.0
 -4.9184903E-007 -7.4427521E-007 0.0
 -4.9589468E-007 -7.4076663E-007 0.0
 -4.9462855E-007 -7.5147005E-007 0.0
 -5.0138686E-007 -7.3840145E-007 0.0
 -5.0285065E-007 -7.5057262E-007 0.0
 -4.9051050E-008 -8.0759663E-007 0.0
 -4.8978935E-008 -7.8159437E-007 0.0
 -7.5224383E-008 -7.8177562E-007 0.0
 -1.0217311E-007 -7.8181934E-007 0.0
 -1.2955067E-007 -7.8159999E-007 0.0
 -1.5723423E-007 -7.8117708E-007 0.0
 -1.8509722E-007 -7.8055130E-007 0.0
 -2.1298306E-007 -7.7970109E-007 0.0
 -2.4071814E-007 -7.7860215E-007 0.0
 -2.6811114E-007 -7.7723518E-007 0.0
 -2.9494675E-007 -7.7559246E-007 0.0
 -3.2097173E-007 -7.7368572E-007 0.0
 -3.4584599E-007 -7.7155620E-007 0.0
 -3.6915833E-007 -7.6918048E-007 0.0
 -3.9055304E-007 -7.6645265E-007 0.0
 -4.0996906E-007 -7.6316504E-007 0.0
 -4.2763616E-007 -7.5926804E-007 0.0
 -4.4371373E-007 -7.5488312E-007 0.0
 -4.5807381E-007 -7.5024648E-007 0.0
 -4.7035431E-007 -7.4548454E-007 0.0
 -4.8026301E-007 -7.4060215E-007 0.0
 -4.8784380E-007 -7.3562808E-007 0.0
 -4.9315361E-007 -7.3080265E-007 0.0
 -4.9657603E-007 -7.2619075E-007 0.0
 -4.9926786E-007 -7.2273620E-007 0.0
 -5.0875798E-007 -7.2402265E-007 0.0
 -5.0992858E-007 -7.3669972E-007 0.0
 -4.8205956E-008 -7.5617480E-007 0.0
 -7.4486500E-008 -7.5656548E-007 0.0
 -1.0168668E-007 -7.5664629E-007 0.0
 -1.2921241E-007 -7.5664531E-007 0.0
 -1.5701615E-007 -7.5655414E-007 0.0
 -1.8498728E-007 -7.5635843E-007 0.0
 -2.1298109E-007 -7.5604345E-007 0.0
 -2.4082713E-007 -7.5559672E-007 0.0
 -2.6833550E-007 -7.5500849E-007 0.0
 -2.9529190E-007 -7.5427042E-007 0.0
 -3.2144342E-007 -7.5337290E-007 0.0
 -3.4649355E-007 -7.5228380E-007 0.0
 -3.7012648E-007 -7.5092817E-007 0.0
 -3.9208538E-007 -7.4916917E-007 0.0
 -4.1224714E-007 -7.4687079E-007 0.0
 -4.3059669E-007 -7.4397018E-007 0.0
 -4.4709431E-007 -7.4052759E-007 0.0
 -4.6158000E-007 -7.3666043E-007 0.0
 -4.7380791E-007 -7.3247006E-007 0.0
 -4.8357496E-007 -7.2799705E-007 0.0
 -4.9080904E-007 -7.2325755E-007 0.0
 -4.9560345E-007 -7.1819304E-007 0.0
 -4.9822440E-007 -7.1265532E-007 0.0
 -4.9958206E-007 -7.0603689E-007 0.0
 -4.9937695E-007 -6.9820141E-007 0.0
 -4.6430679E-008 -7.3105662E-007 0.0
 -7.3696461E-008 -7.3121929E-007 0.0
 -1.0095178E-007 -7.3143917E-007 0.0
 -1.2856446E-007 -7.3174228E-007 0.0
 -1.5645409E-007 -7.3205583E-007 0.0
 -1.8451363E-007 -7.3234831E-007 0.0
 -2.1259354E-007 -7.3261026E-007 0.0
 -2.4052561E-007 -7.3284125E-007 0.0
 -2.6812817E-007 -7.3303875E-007 0.0
 -2.9520158E-007 -7.3318952E-007 0.0
 -3.2152097E-007 -7.3325965E-007 0.0
 -3.4683587E-007 -7.3318395E-007 0.0
 -3.7088840E-007 -7.3285663E-007 0.0
 -3.9344562E-007 -7.3214371E-007 0.0
 -4.1432233E-007 -7.3091757E-007 0.0
 -4.3336382E-007 -7.2910664E-007 0.0
 -4.5039792E-007 -7.2671426E-007 0.0
 -4.6520808E-007 -7.2380116E-007 0.0
 -4.7756183E-007 -7.2044150E-007 0.0
 -4.8727810E-007 -7.1669261E-007 0.0
 -4.9429369E-007 -7.1257267E-007 0.0
 -4.9868757E-007 -7.0805787E-007 0.0
 -5.0071623E-007 -7.0306831E-007 0.0
 -5.0052453E-007 -6.9784340E-007 0.0
 -4.9574113E-007 -6.9341633E-007 0.0
 -4.8153184E-007 -6.8871104E-007 0.0
 -4.7773217E-007 -6.8402182E-007 0.0
 -4.6640993E-007 -6.8062571E-007 0.0
 -4.6953521E-007 -6.8275016E-007 0.0
 -1.7950381E-008 -7.3133173E-007 0.0
 -1.7941130E-008 -7.0410351E-007 0.0
 -4.5219248E-008 -7.0459673E-007 0.0
 -7.2550700E-008 -7.0524689E-007 0.0
 -9.9887548E-008 -7.0594593E-007 0.0
 -1.2754568E-007 -7.0668029E-007 0.0
 -1.5551348E-007 -7.0745342E-007 0.0
 -1.8365529E-007 -7.0825623E-007 0.0
 -2.1180836E-007 -7.0910188E-007 0.0
 -2.3980687E-007 -7.1000958E-007 0.0
 -2.6748635E-007 -7.1098747E-007 0.0
 -2.9467547E-007 -7.1202055E-007 0.0
 -3.2118692E-007 -7.1306269E-007 0.0
 -3.4681393E-007 -7.1403094E-007 0.0
 -3.7133422E-007 -7.1480670E-007 0.0
 -3.9451737E-007 -7.1524910E-007 0.0
 -4.1612618E-007 -7.1522401E-007 0.0
 -4.3590714E-007 -7.1463720E-007 0.0
 -4.5358044E-007 -7.1345676E-007 0.0
 -4.6885007E-007 -7.1171187E-007 0.0
 -4.8144274E-007 -7.0947385E-007 0.0
 -4.9116212E-007 -7.0683083E-007 0.0
 -4.9792907E-007 -7.0387420E-007 0.0
 -5.0178540E-007 -7.0070626E-007 0.0
 -5.0278699E-007 -6.9753297E-007 0.0
 -5.0051604E-007 -6.9478869E-007 0.0
 -4.9357729E-007 -6.9257240E-007 0.0
 -4.8150441E-007 -6.8972058E-007 0.0
 -4.6556569E-007 -6.8639940E-007 0.0
 -4.4472593E-007 -6.8261060E-007 0.0
 -4.4220908E-007 -6.6979395E-007 0.0
 -4.2396200E-007 -6.7711539E-007 0.0
 -4.2628417E-007 -6.6872136E-007 0.0
 -1.6948078E-008 -6.7773279E-007 0.0
 -4.4035815E-008 -6.7820640E-007 0.0
 -7.1069692E-008 -6.7905844E-007 0.0
 -9.8395210E-008 -6.8015242E-007 0.0
 -1.2612120E-007 -6.8133191E-007 0.0
 -1.5418980E-007 -6.8255297E-007 0.0
 -1.8242368E-007 -6.8383720E-007 0.0
 -2.1063797E-007 -6.8523534E-007 0.0
 -2.3867684E-007 -6.8679512E-007 0.0
 -2.6640505E-007 -6.8853853E-007 0.0
 -2.9369008E-007 -6.9045316E-007 0.0
 -3.2038809E-007 -6.9248907E-007 0.0
 -3.4633486E-007 -6.9455726E-007 0.0
 -3.7133849E-007 -6.9653213E-007 0.0
 -3.9517003E-007 -6.9826296E-007 0.0
 -4.1755072E-007 -6.9959714E-007 0.0
 -4.3814256E-007 -7.0041238E-007 0.0
 -4.5655638E-007 -7.0064687E-007 0.0
 -4.7238938E-007 -7.0031523E-007 0.0
 -4.8528611E-007 -6.9950215E-007 0.0
 -4.9499641E-007 -6.9834184E-007 0.0
 -5.0140104E-007 -6.9700033E-007 0.0
 -5.0447824E-007 -6.9568203E-007 0.0
 -5.0416812E-007 -6.9464502E-007 0.0
 -5.0017648E-007 -6.9409352E-007 0.0
 -4.9210207E-007 -6.9390444E-007 0.0
 -4.7983534E-007 -6.9378446E-007 0.0
 -4.6363950E-007 -6.9338795E-007 0.0
 -4.4429831E-007 -6.9221786E-007 0.0
 -4.2281592E-007 -6.9074155E-007 0.0
 -3.9830473E-007 -6.8906023E-007 0.0
 -3.9696863E-007 -6.6993745E-007 0.0
 -3.7402038E-007 -6.8628353E-007 0.0
 -3.7548260E-007 -6.6911668E-007 0.0
  1.0506776E-008 -6.7771693E-007 0.0
  1.0352050E-008 -6.5073766E-007 0.0
 -1.6255548E-008 -6.5093551E-007 0.0
 -4.2694175E-008 -6.5157114E-007 0.0
 -6.9298883E-008 -6.5266670E-007 0.0
 -9.6488466E-008 -6.5406787E-007 0.0
 -1.2431027E-007 -6.5559398E-007 0.0
 -1.5253153E-007 -6.5716546E-007 0.0
 -1.8086932E-007 -6.5884174E-007 0.0
 -2.0911827E-007 -6.6072711E-007 0.0
 -2.3715191E-007 -6.6289723E-007 0.0
 -2.6487933E-007 -6.6538243E-007 0.0
 -2.9221446E-007 -6.6817246E-007 0.0
 -3.1906012E-007 -6.7121987E-007 0.0
 -3.4529662E-007 -6.7443956E-007 0.0
 -3.7076728E-007 -6.7770762E-007 0.0
 -3.9525544E-007 -6.8086551E-007 0.0
 -4.1845469E-007 -6.8373715E-007 0.0
 -4.3994667E-007 -6.8616344E-007 0.0
 -4.5921413E-007 -6.8804959E-007 0.0
 -4.7570770E-007 -6.8940079E-007 0.0
 -4.8894864E-007 -6.9032487E-007 0.0
 -4.9861046E-007 -6.9099771E-007 0.0
 -5.0453328E-007 -6.9162795E-007 0.0
 -5.0667526E-007 -6.9243775E-007 0.0
 -5.0503108E-007 -6.9362967E-007 0.0
 -4.9958067E-007 -6.9529969E-007 0.0
 -4.9031477E-007 -6.9737347E-007 0.0
 -4.7734706E-007 -6.9960084E-007 0.0
 -4.6103709E-007 -7.0165696E-007 0.0
 -4.4190656E-007 -7.0337117E-007 0.0
 -4.2040745E-007 -7.0468575E-007 0.0
 -3.9711110E-007 -7.0537222E-007 0.0
 -3.7279721E-007 -7.0572388E-007 0.0
 -3.4720707E-007 -7.0582345E-007 0.0
 -3.4691991E-007 -6.8286763E-007 0.0
 -3.2197149E-007 -7.0534494E-007 0.0
 -3.2257059E-007 -6.8238795E-007 0.0
  1.0247854E-008 -6.2441666E-007 0.0
 -1.5710212E-008 -6.2440494E-007 0.0
 -4.1254949E-008 -6.2489675E-007 0.0
 -6.7173131E-008 -6.2602129E-007 0.0
 -9.4182971E-008 -6.2761429E-007 0.0
 -1.2220779E-007 -6.2931230E-007 0.0
 -1.5065387E-007 -6.3104277E-007 0.0
 -1.7907718E-007 -6.3297908E-007 0.0
 -2.0729794E-007 -6.3527951E-007 0.0
 -2.3525383E-007 -6.3801815E-007 0.0
 -2.6290890E-007 -6.4121548E-007 0.0
 -2.9022450E-007 -6.4485887E-007 0.0
 -3.1714857E-007 -6.4890934E-007 0.0
 -3.4360743E-007 -6.5329881E-007 0.0
 -3.6948965E-007 -6.5792176E-007 0.0
 -3.9461278E-007 -6.6262605E-007 0.0
 -4.1866824E-007 -6.6721487E-007 0.0
 -4.4116544E-007 -6.7148259E-007 0.0
 -4.6142535E-007 -6.7528513E-007 0.0
 -4.7868691E-007 -6.7862035E-007 0.0
 -4.9229997E-007 -6.8162845E-007 0.0
 -5.0186603E-007 -6.8451971E-007 0.0
 -5.0722250E-007 -6.8749009E-007 0.0
 -5.0835867E-007 -6.9071098E-007 0.0
 -5.0538439E-007 -6.9432139E-007 0.0
 -4.9851303E-007 -6.9837023E-007 0.0
 -4.8802107E-007 -7.0275960E-007 0.0
 -4.7423132E-007 -7.0726270E-007 0.0
 -4.5751728E-007 -7.1162930E-007 0.0
 -4.3829321E-007 -7.1566298E-007 0.0
 -4.1702291E-007 -7.1922645E-007 0.0
 -3.9419626E-007 -7.2228406E-007 0.0
 -3.7026397E-007 -7.2483595E-007 0.0
 -3.4567585E-007 -7.2680464E-007 0.0
 -3.2098952E-007 -7.2828872E-007 0.0
 -2.9637622E-007 -7.2932410E-007 0.0
 -2.9667488E-007 -7.0495088E-007 0.0
 -2.7206568E-007 -7.2993160E-007 0.0
 -2.7200421E-007 -7.0487102E-007 0.0
 -1.5638530E-008 -5.9859449E-007 0.0
 -4.0002825E-008 -5.9825082E-007 0.0
 -6.4577891E-008 -5.9908947E-007 0.0
 -9.1516477E-008 -6.0064177E-007 0.0
 -1.2003088E-007 -6.0214362E-007 0.0
 -1.4872016E-007 -6.0378341E-007 0.0
 -1.7712661E-007 -6.0589614E-007 0.0
 -2.0521318E-007 -6.0858969E-007 0.0
 -2.3299990E-007 -6.1188074E-007 0.0
 -2.6050173E-007 -6.1575875E-007 0.0
 -2.8771743E-007 -6.2020631E-007 0.0
 -3.1463128E-007 -6.2520128E-007 0.0
 -3.4121223E-007 -6.3070984E-007 0.0
 -3.6740267E-007 -6.3667172E-007 0.0
 -3.9308390E-007 -6.4297574E-007 0.0
 -4.1799801E-007 -6.4943139E-007 0.0
 -4.4161465E-007 -6.5577427E-007 0.0
 -4.6305116E-007 -6.6178781E-007 0.0
 -4.8120473E-007 -6.6744774E-007 0.0
 -4.9517305E-007 -6.7298611E-007 0.0
 -5.0456365E-007 -6.7863715E-007 0.0
 -5.0930744E-007 -6.8448945E-007 0.0
 -5.0942792E-007 -6.9055485E-007 0.0
 -5.0510884E-007 -6.9689103E-007 0.0
 -4.9680785E-007 -7.0352836E-007 0.0
 -4.8508503E-007 -7.1033387E-007 0.0
 -4.7042297E-007 -7.1707402E-007 0.0
 -4.5321195E-007 -7.2351645E-007 0.0
 -4.3381625E-007 -7.2950478E-007 0.0
 -4.1263515E-007 -7.3496369E-007 0.0
 -3.9010784E-007 -7.3985645E-007 0.0
 -3.6669273E-007 -7.4414994E-007 0.0
 -3.4282716E-007 -7.4781445E-007 0.0
 -3.1889728E-007 -7.5082224E-007 0.0
 -2.9513853E-007 -7.5316962E-007 0.0
 -2.7160903E-007 -7.5486706E-007 0.0
 -2.4814085E-007 -7.5592445E-007 0.0
 -2.4771342E-007 -7.3012289E-007 0.0
 -3.9879542E-008 -5.7263527E-007 0.0
 -6.1250680E-008 -5.7186226E-007 0.0
 -8.8813073E-008 -5.7240449E-007 0.0
 -1.1808503E-007 -5.7323944E-007 0.0
 -1.4680528E-007 -5.7481576E-007 0.0
 -1.7502050E-007 -5.7722795E-007 0.0
 -2.0285566E-007 -5.8040328E-007 0.0
 -2.3039465E-007 -5.8427258E-007 0.0
 -2.5767928E-007 -5.8879539E-007 0.0
 -2.8472706E-007 -5.9395770E-007 0.0
 -3.1154366E-007 -5.9976481E-007 0.0
 -3.3812984E-007 -6.0623298E-007 0.0
 -3.6447941E-007 -6.1337603E-007 0.0
 -3.9055915E-007 -6.2117862E-007 0.0
 -4.1623592E-007 -6.2953643E-007 0.0
 -4.4107419E-007 -6.3817357E-007 0.0
 -4.6395190E-007 -6.4669143E-007 0.0
 -4.8314661E-007 -6.5508675E-007 0.0
 -4.9727312E-007 -6.6376198E-007 0.0
 -5.0625419E-007 -6.7311279E-007 0.0
 -5.1044144E-007 -6.8279454E-007 0.0
 -5.0968054E-007 -6.9237668E-007 0.0
 -5.0401753E-007 -7.0188650E-007 0.0
 -4.9427207E-007 -7.1137836E-007 0.0
 -4.8137331E-007 -7.2070566E-007 0.0
 -4.6593104E-007 -7.2956899E-007 0.0
 -4.4827017E-007 -7.3779554E-007 0.0
 -4.2867144E-007 -7.4535092E-007 0.0
 -4.0748978E-007 -7.5225717E-007 0.0
 -3.8516451E-007 -7.5854614E-007 0.0
 -3.6216868E-007 -7.6421482E-007 0.0
 -3.3893816E-007 -7.6922265E-007 0.0
 -3.1581428E-007 -7.7351645E-007 0.0
 -2.9299247E-007 -7.7704182E-007 0.0
 -2.7048837E-007 -7.7973510E-007 0.0
 -2.4815322E-007 -7.8150348E-007 0.0
 -2.2550399E-007 -7.8228343E-007 0.0
 -2.2479419E-007 -7.5651453E-007 0.0
 -5.4196005E-008 -5.3835718E-007 0.0
 -8.6579624E-008 -5.4033368E-007 0.0
 -1.1624905E-007 -5.4146045E-007 0.0
 -1.4473812E-007 -5.4365803E-007 0.0
 -1.7263167E-007 -5.4676477E-007 0.0
 -2.0016419E-007 -5.5061144E-007 0.0
 -2.2743456E-007 -5.5510654E-007 0.0
 -2.5448590E-007 -5.6021746E-007 0.0
 -2.8133726E-007 -5.6595218E-007 0.0
 -3.0800087E-007 -5.7235060E-007 0.0
 -3.3449296E-007 -5.7948168E-007 0.0
 -3.6084145E-007 -5.8744278E-007 0.0
 -3.8708474E-007 -5.9635212E-007 0.0
 -4.1325359E-007 -6.0631719E-007 0.0
 -4.3921613E-007 -6.1727777E-007 0.0
 -4.6402046E-007 -6.2873639E-007 0.0
 -4.8454271E-007 -6.4010956E-007 0.0
 -4.9794862E-007 -6.5297857E-007 0.0
 -5.0588167E-007 -6.6774009E-007 0.0
 -5.0988371E-007 -6.8301501E-007 0.0
 -5.0891679E-007 -6.9720676E-007 0.0
 -5.0185609E-007 -7.1031949E-007 0.0
 -4.9064346E-007 -7.2307902E-007 0.0
 -4.7685777E-007 -7.3488477E-007 0.0
 -4.6088385E-007 -7.4551311E-007 0.0
 -4.4291915E-007 -7.5507423E-007 0.0
 -4.2314377E-007 -7.6367072E-007 0.0
 -4.0186688E-007 -7.7150390E-007 0.0
 -3.7959636E-007 -7.7872058E-007 0.0
 -3.5688177E-007 -7.8535431E-007 0.0
 -3.3418792E-007 -7.9135730E-007 0.0
 -3.1184013E-007 -7.9665532E-007 0.0
 -2.9000709E-007 -8.0116647E-007 0.0
 -2.6869460E-007 -8.0479339E-007 0.0
 -2.4770307E-007 -8.0740631E-007 0.0
 -2.2664332E-007 -8.0875975E-007 0.0
 -2.0296446E-007 -8.0824531E-007 0.0
 -2.0246242E-007 -7.8304340E-007 0.0
 -4.9218467E-008 -5.0246660E-007 0.0
 -8.4287440E-008 -5.0361764E-007 0.0
 -1.1389671E-007 -5.0667859E-007 0.0
 -1.4212392E-007 -5.1042109E-007 0.0
 -1.6976133E-007 -5.1465677E-007 0.0
 -1.9706505E-007 -5.1933999E-007 0.0
 -2.2413199E-007 -5.2446805E-007 0.0
 -2.5100056E-007 -5.3006336E-007 0.0
 -2.7768708E-007 -5.3617065E-007 0.0
 -3.0420310E-007 -5.4285926E-007 0.0
 -3.3056751E-007 -5.5023014E-007 0.0
 -3.5681746E-007 -5.5842911E-007 0.0
 -3.8302494E-007 -5.6767015E-007 0.0
 -4.0930237E-007 -5.7826547E-007 0.0
 -4.3586924E-007 -5.9068239E-007 0.0
 -4.6265127E-007 -6.0512241E-007 0.0
 -4.8621662E-007 -6.2091415E-007 0.0
 -4.9597224E-007 -6.3826861E-007 0.0
 -5.0038916E-007 -6.6263101E-007 0.0
 -5.0660129E-007 -6.8702102E-007 0.0
 -5.0736465E-007 -7.0628200E-007 0.0
 -4.9775914E-007 -7.2461094E-007 0.0
 -4.8599303E-007 -7.4072466E-007 0.0
 -4.7184170E-007 -7.5403814E-007 0.0
 -4.5554503E-007 -7.6581775E-007 0.0
 -4.3757792E-007 -7.7601552E-007 0.0
 -4.1765588E-007 -7.8491897E-007 0.0
 -3.9609676E-007 -7.9303991E-007 0.0
 -3.7365595E-007 -8.0066639E-007 0.0
 -3.5104218E-007 -8.0780326E-007 0.0
 -3.2875300E-007 -8.1438787E-007 0.0
 -3.0710693E-007 -8.2034176E-007 0.0
 -2.8625150E-007 -8.2557616E-007 0.0
 -2.6616633E-007 -8.3000320E-007 0.0
 -2.4666937E-007 -8.3352917E-007 0.0
 -2.2723789E-007 -8.3611829E-007 0.0
 -2.0720570E-007 -8.3735599E-007 0.0
 -4.7819956E-008 -4.5709408E-007 0.0
 -8.0755077E-008 -4.6416283E-007 0.0
 -1.1041476E-007 -4.7036669E-007 0.0
 -1.3868038E-007 -4.7599252E-007 0.0
 -1.6629755E-007 -4.8145143E-007 0.0
 -1.9354796E-007 -4.8695137E-007 0.0
 -2.2054694E-007 -4.9261398E-007 0.0
 -2.4734344E-007 -4.9852552E-007 0.0
 -2.7395964E-007 -5.0476107E-007 0.0
 -3.0041068E-007 -5.1139855E-007 0.0
 -3.2671768E-007 -5.1853005E-007 0.0
 -3.5292124E-007 -5.2627578E-007 0.0
 -3.7909628E-007 -5.3480592E-007 0.0
 -4.0540321E-007 -5.4438892E-007 0.0
 -4.3205953E-007 -5.5548418E-007 0.0
 -4.6007094E-007 -5.6936184E-007 0.0
 -4.8875133E-007 -5.8713976E-007 0.0
 -4.8483764E-007 -6.2674664E-007 0.0
 -4.9049013E-007 -6.5763927E-007 0.0
 -4.9547072E-007 -6.8884665E-007 0.0
 -5.0433107E-007 -7.2880584E-007 0.0
 -4.9164723E-007 -7.5044967E-007 0.0
 -4.8212975E-007 -7.6566113E-007 0.0
 -4.6656065E-007 -7.7927891E-007 0.0
 -4.5033500E-007 -7.9143084E-007 0.0
 -4.3303742E-007 -8.0120199E-007 0.0
 -4.1278690E-007 -8.0937184E-007 0.0
 -3.9051193E-007 -8.1717540E-007 0.0
 -3.6763676E-007 -8.2464255E-007 0.0
 -3.4490900E-007 -8.3170345E-007 0.0
 -3.2284687E-007 -8.3835599E-007 0.0
 -3.0178890E-007 -8.4452204E-007 0.0
 -2.8184675E-007 -8.5009824E-007 0.0
 -2.6296096E-007 -8.5500868E-007 0.0
 -2.4494268E-007 -8.5918102E-007 0.0
 -2.2747508E-007 -8.6237005E-007 0.0
 -2.1071843E-007 -8.6392606E-007 0.0
 -1.9018254E-007 -8.6226980E-007 0.0
 -1.8926480E-007 -8.3907991E-007 0.0
 -1.0542049E-034  2.6424233E-051 0.0
  1.5256038E-051  1.5256038E-051 0.0
 -6.4842207E-011  4.5078474E-010 0.0
 -7.4543544E-035  1.8684755E-051 0.0
  2.6143095E-009  6.9136021E-010 0.0
  3.3507518E-009  3.4902165E-009 0.0
  7.4970918E-009  1.5967707E-009 0.0
  8.1168806E-009  5.5072809E-009 0.0
  1.3212502E-008  2.7467324E-009 0.0
  1.2677428E-008  5.7663391E-009 0.0
  3.7924101E-008 -4.3943532E-007 0.0
  3.6447326E-008 -3.9913488E-007 0.0
  7.9122167E-009 -4.0643375E-007 0.0
  5.2564686E-009 -4.3935954E-007 0.0
 -1.8196545E-008 -4.1395057E-007 0.0
 -2.1497638E-008 -4.4542730E-007 0.0
 -4.5793217E-008 -4.2035430E-007 0.0
 -7.6323600E-008 -4.2756318E-007 0.0
 -1.0603146E-007 -4.3484644E-007 0.0
 -1.3454014E-007 -4.4157457E-007 0.0
 -1.6234303E-007 -4.4786970E-007 0.0
 -1.8971714E-007 -4.5393258E-007 0.0
 -2.1680206E-007 -4.5991370E-007 0.0
 -2.4366766E-007 -4.6591954E-007 0.0
 -2.7035285E-007 -4.7202748E-007 0.0
 -2.9688778E-007 -4.7829584E-007 0.0
 -3.2331043E-007 -4.8476840E-007 0.0
 -3.4968421E-007 -4.9147219E-007 0.0
 -3.7613220E-007 -4.9840325E-007 0.0
 -4.0288255E-007 -5.0547504E-007 0.0
 -4.3057962E-007 -5.1233944E-007 0.0
 -4.6023300E-007 -5.1748297E-007 0.0
 -5.0366920E-007 -5.1455059E-007 0.0
 -5.0965403E-007 -7.7923853E-007 0.0
 -4.8361714E-007 -7.7993344E-007 0.0
 -4.8158132E-007 -8.0023419E-007 0.0
 -4.6072918E-007 -8.1185967E-007 0.0
 -4.4614519E-007 -8.2288866E-007 0.0
 -4.3073309E-007 -8.3027813E-007 0.0
 -4.0879643E-007 -8.3740633E-007 0.0
 -3.8547383E-007 -8.4445525E-007 0.0
 -3.6198615E-007 -8.5086816E-007 0.0
 -3.3880665E-007 -8.5707312E-007 0.0
 -3.1672579E-007 -8.6318338E-007 0.0
 -2.9612358E-007 -8.6900637E-007 0.0
 -2.7700566E-007 -8.7441658E-007 0.0
 -2.5924599E-007 -8.7935216E-007 0.0
 -2.4267363E-007 -8.8375705E-007 0.0
 -2.2719429E-007 -8.8755266E-007 0.0
 -2.1241149E-007 -8.9095828E-007 0.0
 -1.9889644E-007 -8.9380696E-007 0.0
  2.1701921E-034  2.6424233E-051 0.0
  1.8684755E-051  1.8684755E-051 0.0
 -8.0787995E-010 -6.6061541E-010 0.0
 -6.8457885E-011 -1.2689611E-009 0.0
  2.6383699E-009 -1.9197501E-009 0.0
  7.2560438E-009 -2.4573616E-009 0.0
  1.3600041E-008 -3.0164195E-009 0.0
  2.2201684E-008 -3.8045447E-009 0.0
  2.2313175E-008  4.6971273E-009 0.0
  3.2471267E-008 -4.5238045E-009 0.0
  3.2370874E-008  5.6511054E-009 0.0
  4.3845797E-008 -5.5135510E-009 0.0
  4.3568616E-008  6.0983084E-009 0.0
  9.0884117E-008 -3.8929419E-007 0.0
  8.8662044E-008 -3.4709238E-007 0.0
  6.2499985E-008 -3.5648591E-007 0.0
  5.8873485E-008 -3.8948562E-007 0.0
  3.7966598E-008 -3.6440823E-007 0.0
  1.1380991E-008 -3.7234814E-007 0.0
 -1.5546243E-008 -3.7997669E-007 0.0
 -4.3315990E-008 -3.8703302E-007 0.0
 -7.2323952E-008 -3.9390915E-007 0.0
 -1.0153011E-007 -4.0099151E-007 0.0
 -1.3014742E-007 -4.0791441E-007 0.0
 -1.5817314E-007 -4.1448559E-007 0.0
 -1.8577102E-007 -4.2073971E-007 0.0
 -2.1306448E-007 -4.2676125E-007 0.0
 -2.4013486E-007 -4.3262480E-007 0.0
 -2.6704066E-007 -4.3837974E-007 0.0
 -2.9383724E-007 -4.4404494E-007 0.0
 -3.2059693E-007 -4.4960083E-007 0.0
 -3.4743781E-007 -4.5497112E-007 0.0
 -3.7457190E-007 -4.5998260E-007 0.0
 -4.0244537E-007 -4.6427591E-007 0.0
 -4.3194061E-007 -4.6714089E-007 0.0
 -4.6611245E-007 -4.6722649E-007 0.0
 -5.0812403E-007 -4.6654310E-007 0.0
 -4.8908881E-007 -8.5397564E-007 0.0
 -4.5696780E-007 -8.4796041E-007 0.0
 -4.4193071E-007 -8.5268365E-007 0.0
 -4.3144143E-007 -8.6511939E-007 0.0
 -4.0551654E-007 -8.7102360E-007 0.0
 -3.8204692E-007 -8.7545642E-007 0.0
 -3.5733981E-007 -8.7926936E-007 0.0
 -3.3305749E-007 -8.8381669E-007 0.0
 -3.1070184E-007 -8.8864646E-007 0.0
 -2.9041316E-007 -8.9345988E-007 0.0
 -2.7201423E-007 -8.9810595E-007 0.0
 -2.5527352E-007 -9.0252090E-007 0.0
 -2.4003175E-007 -9.0666664E-007 0.0
 -2.2616802E-007 -9.1047929E-007 0.0
 -2.1368565E-007 -9.1361806E-007 0.0
 -2.0363871E-007 -9.1538721E-007 0.0
 -1.9592349E-007 -9.1597594E-007 0.0
 -1.9329677E-007 -8.9708148E-007 0.0
  1.5256038E-051  1.5256038E-051 0.0
 -1.1672846E-009 -1.9041539E-009 0.0
 -8.0397020E-011 -3.5855528E-009 0.0
  2.8500370E-009 -5.2714389E-009 0.0
  7.6963449E-009 -7.0807106E-009 0.0
  1.4457436E-008 -9.1212631E-009 0.0
  2.3116966E-008 -1.1384562E-008 0.0
  3.3386356E-008 -1.3907803E-008 0.0
  4.5009330E-008 -1.6815208E-008 0.0
  5.7522622E-008 -2.0035210E-008 0.0
  5.6234315E-008 -7.7843588E-009 0.0
  7.0474232E-008 -2.3755854E-008 0.0
  6.9048124E-008 -1.0202054E-008 0.0
  8.4273825E-008 -2.8204829E-008 0.0
  8.2664703E-008 -1.1912232E-008 0.0
  1.0010339E-007 -3.3613033E-008 0.0
  1.0046255E-007 -1.1176938E-008 0.0
  1.3855142E-007 -3.3446445E-007 0.0
  1.3573736E-007 -2.8771053E-007 0.0
  1.1186979E-007 -3.0207562E-007 0.0
  1.0668014E-007 -3.3422870E-007 0.0
  9.0505337E-008 -3.1288120E-007 0.0
  6.6063427E-008 -3.2266258E-007 0.0
  4.0770188E-008 -3.3181687E-007 0.0
  1.4644305E-008 -3.3997766E-007 0.0
 -1.2369871E-008 -3.4761642E-007 0.0
 -4.0143253E-008 -3.5478137E-007 0.0
 -6.8608475E-008 -3.6168974E-007 0.0
 -9.7337687E-008 -3.6849782E-007 0.0
 -1.2589146E-007 -3.7517721E-007 0.0
 -1.5408238E-007 -3.8159764E-007 0.0
 -1.8192873E-007 -3.8770355E-007 0.0
 -2.0950437E-007 -3.9350330E-007 0.0
 -2.3688426E-007 -3.9901911E-007 0.0
 -2.6414116E-007 -4.0425906E-007 0.0
 -2.9135778E-007 -4.0920057E-007 0.0
 -3.1864790E-007 -4.1377529E-007 0.0
 -3.4618969E-007 -4.1784876E-007 0.0
 -3.7428985E-007 -4.2119067E-007 0.0
 -4.0348331E-007 -4.2345088E-007 0.0
 -4.3483827E-007 -4.2418958E-007 0.0
 -4.6967865E-007 -4.2367190E-007 0.0
 -5.0899725E-007 -4.2320245E-007 0.0
 -4.3800229E-007 -9.1519130E-007 0.0
 -4.0347724E-007 -9.0939032E-007 0.0
 -3.8229935E-007 -9.0954819E-007 0.0
 -3.5405026E-007 -9.0987300E-007 0.0
 -3.2808080E-007 -9.1161364E-007 0.0
 -3.0511309E-007 -9.1426074E-007 0.0
 -2.8500624E-007 -9.1735021E-007 0.0
 -2.6719464E-007 -9.2059517E-007 0.0
 -2.5130895E-007 -9.2397375E-007 0.0
 -2.3722141E-007 -9.2738784E-007 0.0
 -2.2491248E-007 -9.3067425E-007 0.0
 -2.1465004E-007 -9.3359480E-007 0.0
 -2.0682637E-007 -9.3602481E-007 0.0
 -2.0153894E-007 -9.3753074E-007 0.0
 -1.8961769E-007 -9.3451560E-007 0.0
 -1.8815324E-007 -9.1878645E-007 0.0
 -1.0542049E-034  2.6424233E-051 0.0
  1.8684755E-051  1.8684755E-051 0.0
 -1.2446491E-009 -2.1262949E-009 0.0
 -1.3262646E-009 -3.9771098E-009 0.0
 -3.5973431E-011 -6.3713374E-009 0.0
  3.2447482E-009 -8.9856545E-009 0.0
  8.4898380E-009 -1.1871415E-008 0.0
  1.5651267E-008 -1.5076021E-008 0.0
  2.4593422E-008 -1.8615167E-008 0.0
  3.5094672E-008 -2.2484413E-008 0.0
  4.6852549E-008 -2.6679799E-008 0.0
  5.9527948E-008 -3.1286392E-008 0.0
  7.2921876E-008 -3.6505094E-008 0.0
  8.7198651E-008 -4.2628510E-008 0.0
  1.0242143E-007 -4.9672779E-008 0.0
  1.1624959E-007 -5.7109967E-008 0.0
  1.1243020E-007 -4.4540654E-008 0.0
  1.2845208E-007 -6.6064880E-008 0.0
  1.2448603E-007 -5.4942186E-008 0.0
  1.3989774E-007 -7.5681004E-008 0.0
  1.3565245E-007 -6.5613584E-008 0.0
  1.5036371E-007 -8.5833633E-008 0.0
  1.4587988E-007 -7.6853513E-008 0.0
  1.5968875E-007 -9.6493113E-008 0.0
  1.5497304E-007 -8.8707930E-008 0.0
  1.6772263E-007 -1.0763822E-007 0.0
  1.6278951E-007 -1.0116890E-007 0.0
  1.7435244E-007 -1.1924897E-007 0.0
  1.6921099E-007 -1.1421620E-007 0.0
  1.7948340E-007 -1.3131490E-007 0.0
  1.7413392E-007 -1.2784136E-007 0.0
  1.8301394E-007 -1.4383858E-007 0.0
  1.7744904E-007 -1.4205310E-007 0.0
  1.8481724E-007 -1.5683157E-007 0.0
  1.7902804E-007 -1.5686950E-007 0.0
  1.8474412E-007 -1.7030629E-007 0.0
  1.7872669E-007 -1.7230483E-007 0.0
  1.8264974E-007 -1.8427293E-007 0.0
  1.7640587E-007 -1.8836383E-007 0.0
  1.7843275E-007 -1.9874570E-007 0.0
  1.7196908E-007 -2.0505610E-007 0.0
  1.7209245E-007 -2.1375641E-007 0.0
  1.6538643E-007 -2.2245959E-007 0.0
  1.6368141E-007 -2.2932871E-007 0.0
  1.5683580E-007 -2.4085633E-007 0.0
  1.5360823E-007 -2.4520444E-007 0.0
  1.4609330E-007 -2.6148254E-007 0.0
  1.3859505E-007 -2.5830765E-007 0.0
  1.1671657E-007 -2.7120555E-007 0.0
  9.3777430E-008 -2.8274447E-007 0.0
  6.9659036E-008 -2.9252176E-007 0.0
  4.4280338E-008 -3.0135325E-007 0.0
  1.8020379E-008 -3.0944276E-007 0.0
 -9.0118560E-009 -3.1688275E-007 0.0
 -3.6733963E-008 -3.2386677E-007 0.0
 -6.4974119E-008 -3.3053950E-007 0.0
 -9.3473347E-008 -3.3700773E-007 0.0
 -1.2196262E-007 -3.4328011E-007 0.0
 -1.5027593E-007 -3.4930471E-007 0.0
 -1.7836492E-007 -3.5502398E-007 0.0
 -2.0625635E-007 -3.6040497E-007 0.0
 -2.3400998E-007 -3.6542772E-007 0.0
 -2.6170473E-007 -3.7006498E-007 0.0
 -2.8944390E-007 -3.7426597E-007 0.0
 -3.1737248E-007 -3.7794332E-007 0.0
 -3.4570721E-007 -3.8096284E-007 0.0
 -3.7477913E-007 -3.8314414E-007 0.0
 -4.0509961E-007 -3.8429346E-007 0.0
 -4.3731031E-007 -3.8438092E-007 0.0
 -4.7191931E-007 -3.8367845E-007 0.0
 -5.0832550E-007 -3.8295408E-007 0.0
 -3.8662583E-007 -9.4910947E-007 0.0
 -3.5322102E-007 -9.4213301E-007 0.0
 -3.2414285E-007 -9.3942963E-007 0.0
 -3.0027736E-007 -9.3917382E-007 0.0
 -2.8028796E-007 -9.3971791E-007 0.0
 -2.6277872E-007 -9.4113645E-007 0.0
 -2.4754850E-007 -9.4314581E-007 0.0
 -2.3444670E-007 -9.4547873E-007 0.0
 -2.2345831E-007 -9.4799441E-007 0.0
 -2.1471782E-007 -9.5068906E-007 0.0
 -2.0845067E-007 -9.5385963E-007 0.0
 -2.0415187E-007 -9.5861346E-007 0.0
 -2.0272396E-007 -9.6572895E-007 0.0
  1.8684755E-051 -2.2948749E-034 0.0
 -1.6910901E-009 -3.1115283E-009 0.0
 -1.6955158E-009 -6.1756694E-009 0.0
  3.1837241E-011 -9.3312331E-009 0.0
  3.7237684E-009 -1.2807826E-008 0.0
  9.4635576E-009 -1.6648333E-008 0.0
  1.7112136E-008 -2.0889617E-008 0.0
  2.6462573E-008 -2.5508234E-008 0.0
  3.7269439E-008 -3.0462279E-008 0.0
  4.9267762E-008 -3.5738445E-008 0.0
  6.2211887E-008 -4.1381363E-008 0.0
  7.5949650E-008 -4.7489144E-008 0.0
  9.0400121E-008 -5.4077835E-008 0.0
  1.0506638E-007 -6.0940889E-008 0.0
  1.1905197E-007 -6.8217352E-008 0.0
  1.3191240E-007 -7.6038026E-008 0.0
  1.4367639E-007 -8.4567015E-008 0.0
  1.5439386E-007 -9.3620884E-008 0.0
  1.6391796E-007 -1.0311154E-007 0.0
  1.7211548E-007 -1.1297813E-007 0.0
  1.7888657E-007 -1.2317598E-007 0.0
  1.8415764E-007 -1.3368189E-007 0.0
  1.8784396E-007 -1.4449903E-007 0.0
  1.8982014E-007 -1.5564424E-007 0.0
  1.8992226E-007 -1.6713022E-007 0.0
  1.8797837E-007 -1.7894750E-007 0.0
  1.8385102E-007 -1.9105045E-007 0.0
  1.7744519E-007 -2.0332022E-007 0.0
  1.6869221E-007 -2.1547219E-007 0.0
  1.5684032E-007 -2.2671678E-007 0.0
  1.4076055E-007 -2.3710809E-007 0.0
  1.2039549E-007 -2.4685650E-007 0.0
  9.7459287E-008 -2.5638214E-007 0.0
  7.3149457E-008 -2.6522289E-007 0.0
  4.7733974E-008 -2.7329441E-007 0.0
  2.1394983E-008 -2.8074427E-007 0.0
 -5.6899015E-009 -2.8767823E-007 0.0
 -3.3383954E-008 -2.9419812E-007 0.0
 -6.1531098E-008 -3.0041101E-007 0.0
 -8.9940180E-008 -3.0638300E-007 0.0
 -1.1842767E-007 -3.1212874E-007 0.0
 -1.4686276E-007 -3.1761886E-007 0.0
 -1.7518674E-007 -3.2280678E-007 0.0
 -2.0340226E-007 -3.2764646E-007 0.0
 -2.3155516E-007 -3.3209521E-007 0.0
 -2.5972365E-007 -3.3610593E-007 0.0
 -2.8801943E-007 -3.3961787E-007 0.0
 -3.1659852E-007 -3.4255111E-007 0.0
 -3.4567808E-007 -3.4480928E-007 0.0
 -3.7555433E-007 -3.4629935E-007 0.0
 -4.0658853E-007 -3.4699133E-007 0.0
 -4.3911530E-007 -3.4700116E-007 0.0
 -4.7317547E-007 -3.4669945E-007 0.0
 -5.0796750E-007 -3.4660481E-007 0.0
 -5.4221352E-007 -3.4665609E-007 0.0
 -5.4266893E-007 -3.8243484E-007 0.0
 -3.5629563E-007 -9.7392577E-007 0.0
 -3.2088952E-007 -9.6579166E-007 0.0
 -2.9675260E-007 -9.6095030E-007 0.0
 -2.7619646E-007 -9.5917770E-007 0.0
 -2.5877896E-007 -9.5897699E-007 0.0
 -2.4408977E-007 -9.5949072E-007 0.0
 -2.3180975E-007 -9.6054087E-007 0.0
 -2.2189309E-007 -9.6196229E-007 0.0
 -2.1433099E-007 -9.6371837E-007 0.0
 -2.0907890E-007 -9.6598258E-007 0.0
 -2.0630406E-007 -9.6868430E-007 0.0
 -2.0881838E-007 -9.7095994E-007 0.0
 -2.2238189E-007 -9.7366330E-007 0.0
 -2.2580950E-007 -9.8250484E-007 0.0
 -2.3894065E-007 -9.7957968E-007 0.0
 -2.4086072E-007 -9.9115599E-007 0.0
 -2.5396079E-007 -9.8408216E-007 0.0
 -2.5548172E-007 -9.9630586E-007 0.0
 -2.6841556E-007 -9.8728673E-007 0.0
 -2.6945004E-007 -9.9973710E-007 0.0
 -2.8239385E-007 -9.8950202E-007 0.0
 -2.8308331E-007 -1.0019989E-006 0.0
 -2.9596614E-007 -9.9098551E-007 0.0
 -2.9639279E-007 -1.0034256E-006 0.0
 -3.0913666E-007 -9.9193146E-007 0.0
 -3.0937334E-007 -1.0042464E-006 0.0
 -3.2190962E-007 -9.9249179E-007 0.0
 -3.2201595E-007 -1.0046447E-006 0.0
 -3.3430548E-007 -9.9278692E-007 0.0
 -3.3433115E-007 -1.0047744E-006 0.0
 -3.4637564E-007 -9.9290497E-007 0.0
 -3.4635667E-007 -1.0047707E-006 0.0
 -3.5821242E-007 -9.9290541E-007 0.0
 -3.5822245E-007 -1.0047636E-006 0.0
  1.8684755E-051 -2.2948749E-034 0.0
 -1.7947786E-009 -4.1034957E-009 0.0
 -1.8722692E-009 -8.1527849E-009 0.0
  5.3478130E-011 -1.2242860E-008 0.0
  4.2311083E-009 -1.6583716E-008 0.0
  1.0573006E-008 -2.1384576E-008 0.0
  1.8797321E-008 -2.6628698E-008 0.0
  2.8621788E-008 -3.2233546E-008 0.0
  3.9788912E-008 -3.8117828E-008 0.0
  5.2062256E-008 -4.4233138E-008 0.0
  6.5232775E-008 -5.0568738E-008 0.0
  7.9117843E-008 -5.7116467E-008 0.0
  9.3473045E-008 -6.3816929E-008 0.0
  1.0789197E-007 -7.0625740E-008 0.0
  1.2184615E-007 -7.7569981E-008 0.0
  1.3495390E-007 -8.4808948E-008 0.0
  1.4704419E-007 -9.2433547E-008 0.0
  1.5800497E-007 -1.0046612E-007 0.0
  1.6770451E-007 -1.0884173E-007 0.0
  1.7600432E-007 -1.1748145E-007 0.0
  1.8282767E-007 -1.2630452E-007 0.0
  1.8814874E-007 -1.3526839E-007 0.0
  1.9192201E-007 -1.4437761E-007 0.0
  1.9402206E-007 -1.5366514E-007 0.0
  1.9424870E-007 -1.6314527E-007 0.0
  1.9237202E-007 -1.7279164E-007 0.0
  1.8817263E-007 -1.8250962E-007 0.0
  1.8145796E-007 -1.9211809E-007 0.0
  1.7193584E-007 -2.0131282E-007 0.0
  1.5916429E-007 -2.0990021E-007 0.0
  1.4274739E-007 -2.1787182E-007 0.0
  1.2287939E-007 -2.2554566E-007 0.0
  1.0043005E-007 -2.3304171E-007 0.0
  7.6239558E-008 -2.4030276E-007 0.0
  5.0832235E-008 -2.4719310E-007 0.0
  2.4484347E-008 -2.5368463E-007 0.0
 -2.6108163E-009 -2.5981527E-007 0.0
 -3.0290469E-008 -2.6563702E-007 0.0
 -5.8401773E-008 -2.7120039E-007 0.0
 -8.6792167E-008 -2.7653861E-007 0.0
 -1.1532291E-007 -2.8165400E-007 0.0
 -1.4389146E-007 -2.8652103E-007 0.0
 -1.7244394E-007 -2.9109701E-007 0.0
 -2.0097500E-007 -2.9533307E-007 0.0
 -2.2952093E-007 -2.9917873E-007 0.0
 -2.5815407E-007 -3.0258143E-007 0.0
 -2.8698197E-007 -3.0548470E-007 0.0
 -3.1615096E-007 -3.0782989E-007 0.0
 -3.4584988E-007 -3.0956635E-007 0.0
 -3.7630285E-007 -3.1067631E-007 0.0
 -4.0773288E-007 -3.1121394E-007 0.0
 -4.4026729E-007 -3.1135116E-007 0.0
 -4.7376350E-007 -3.1137204E-007 0.0
 -5.0772894E-007 -3.1150507E-007 0.0
 -5.4150559E-007 -3.1178963E-007 0.0
 -5.7528581E-007 -3.1219902E-007 0.0
 -5.7543927E-007 -3.4632836E-007 0.0
 -3.1526702E-007 -9.7709688E-007 0.0
 -2.9294070E-007 -9.7684603E-007 0.0
 -2.7208010E-007 -9.7523261E-007 0.0
 -2.5515501E-007 -9.7350722E-007 0.0
 -2.4087737E-007 -9.7259266E-007 0.0
 -2.2935976E-007 -9.7231694E-007 0.0
 -2.2049671E-007 -9.7235826E-007 0.0
 -2.1414213E-007 -9.7255466E-007 0.0
 -2.1032513E-007 -9.7273870E-007 0.0
 -2.0971963E-007 -9.7253060E-007 0.0
 -2.1415835E-007 -9.7181309E-007 0.0
 -2.2457023E-007 -9.7185507E-007 0.0
 -2.3853519E-007 -9.7315485E-007 0.0
 -2.5335263E-007 -9.7534523E-007 0.0
 -2.6786452E-007 -9.7728963E-007 0.0
 -2.8200816E-007 -9.7878661E-007 0.0
 -2.9573445E-007 -9.7984794E-007 0.0
 -3.0902824E-007 -9.8055004E-007 0.0
 -3.2188786E-007 -9.8097818E-007 0.0
 -3.3433802E-007 -9.8120995E-007 0.0
 -3.4643470E-007 -9.8131064E-007 0.0
 -3.5824164E-007 -9.8134230E-007 0.0
 -3.6978845E-007 -9.8134755E-007 0.0
 -3.6975359E-007 -9.9280449E-007 0.0
 -3.8115895E-007 -9.8132897E-007 0.0
 -3.8113652E-007 -9.9272056E-007 0.0
 -3.9246191E-007 -9.8130677E-007 0.0
 -3.9248696E-007 -9.9270247E-007 0.0
  1.8684755E-051  1.8684755E-051 0.0
 -1.6018235E-009 -4.9921474E-009 0.0
 -2.0254522E-009 -1.0046796E-008 0.0
 -1.7632396E-011 -1.4903454E-008 0.0
  4.8056042E-009 -2.0274130E-008 0.0
  1.1871335E-008 -2.6191132E-008 0.0
  2.0726830E-008 -3.2509919E-008 0.0
  3.1038866E-008 -3.9075650E-008 0.0
  4.2556417E-008 -4.5774240E-008 0.0
  5.5066863E-008 -5.2538679E-008 0.0
  6.8371535E-008 -5.9327382E-008 0.0
  8.2262975E-008 -6.6099605E-008 0.0
  9.6488399E-008 -7.2813238E-008 0.0
  1.1071912E-007 -7.9446275E-008 0.0
  1.2459045E-007 -8.6045189E-008 0.0
  1.3778806E-007 -9.2708051E-008 0.0
  1.5007849E-007 -9.9546273E-008 0.0
  1.6126042E-007 -1.0662664E-007 0.0
  1.7111455E-007 -1.1395334E-007 0.0
  1.7945124E-007 -1.2143907E-007 0.0
  1.8620507E-007 -1.2895803E-007 0.0
  1.9145473E-007 -1.3641759E-007 0.0
  1.9523855E-007 -1.4384450E-007 0.0
  1.9741955E-007 -1.5128460E-007 0.0
  1.9773487E-007 -1.5876793E-007 0.0
  1.9587182E-007 -1.6625978E-007 0.0
  1.9151850E-007 -1.7367419E-007 0.0
  1.8439904E-007 -1.8084740E-007 0.0
  1.7428955E-007 -1.8763295E-007 0.0
  1.6097323E-007 -1.9396710E-007 0.0
  1.4436836E-007 -1.9994244E-007 0.0
  1.2472637E-007 -2.0571543E-007 0.0
  1.0261734E-007 -2.1141488E-007 0.0
  7.8675046E-008 -2.1704442E-007 0.0
  5.3394364E-008 -2.2255193E-007 0.0
  2.7112055E-008 -2.2788644E-007 0.0
  5.8194672E-011 -2.3303004E-007 0.0
 -2.7589839E-008 -2.3798697E-007 0.0
 -5.5680709E-008 -2.4276621E-007 0.0
 -8.4080189E-008 -2.4736889E-007 0.0
 -1.1267444E-007 -2.5178071E-007 0.0
 -1.4137937E-007 -2.5597076E-007 0.0
 -1.7014804E-007 -2.5989615E-007 0.0
 -1.9897259E-007 -2.6350794E-007 0.0
 -2.2788191E-007 -2.6675571E-007 0.0
 -2.5693855E-007 -2.6959018E-007 0.0
 -2.8623634E-007 -2.7196595E-007 0.0
 -3.1589840E-007 -2.7384720E-007 0.0
 -3.4607110E-007 -2.7521930E-007 0.0
 -3.7690695E-007 -2.7610708E-007 0.0
 -4.0852607E-007 -2.7659603E-007 0.0
 -4.4095004E-007 -2.7683936E-007 0.0
 -4.7403810E-007 -2.7701767E-007 0.0
 -5.0748002E-007 -2.7725438E-007 0.0
 -5.4096333E-007 -2.7750620E-007 0.0
 -5.7412899E-007 -2.7768091E-007 0.0
 -3.1783327E-007 -1.0023657E-006 0.0
 -2.8757058E-007 -9.9301062E-007 0.0
 -2.6857096E-007 -9.8752756E-007 0.0
 -2.5162298E-007 -9.8426502E-007 0.0
 -2.3768555E-007 -9.8232616E-007 0.0
 -2.2707568E-007 -9.8080938E-007 0.0
 -2.1943360E-007 -9.7936874E-007 0.0
 -2.1449539E-007 -9.7782881E-007 0.0
 -2.1233192E-007 -9.7603491E-007 0.0
 -2.1347944E-007 -9.7385807E-007 0.0
 -2.1865210E-007 -9.7153231E-007 0.0
 -2.2796089E-007 -9.6963546E-007 0.0
 -2.4027650E-007 -9.6870801E-007 0.0
 -2.5405176E-007 -9.6861681E-007 0.0
 -2.6821200E-007 -9.6897469E-007 0.0
 -2.8224118E-007 -9.6939352E-007 0.0
 -2.9595258E-007 -9.6972425E-007 0.0
 -3.0925534E-007 -9.6992764E-007 0.0
 -3.2211717E-007 -9.7001754E-007 0.0
 -3.3454997E-007 -9.7002927E-007 0.0
 -3.4660218E-007 -9.7000468E-007 0.0
 -3.5834028E-007 -9.6997943E-007 0.0
 -3.6983696E-007 -9.6996746E-007 0.0
 -3.8117642E-007 -9.6996764E-007 0.0
 -3.9243501E-007 -9.6998040E-007 0.0
 -4.0368236E-007 -9.7000282E-007 0.0
 -4.0369738E-007 -9.8128406E-007 0.0
  1.8684755E-051  1.8684755E-051 0.0
 -9.5932800E-010 -5.8565681E-009 0.0
 -2.6557334E-009 -1.0997429E-008 0.0
 -3.8809762E-011 -1.7154016E-008 0.0
  5.6487401E-009 -2.4063669E-008 0.0
  1.3513255E-008 -3.1412657E-008 0.0
  2.2971839E-008 -3.8940652E-008 0.0
  3.3702888E-008 -4.6451018E-008 0.0
  4.5499802E-008 -5.3854610E-008 0.0
  5.8170728E-008 -6.1110855E-008 0.0
  7.1519775E-008 -6.8187471E-008 0.0
  8.5340708E-008 -7.5049620E-008 0.0
  9.9403326E-008 -8.1667717E-008 0.0
  1.1344695E-007 -8.8039240E-008 0.0
  1.2719718E-007 -9.4204551E-008 0.0
  1.4039621E-007 -1.0024765E-007 0.0
  1.5280945E-007 -1.0627389E-007 0.0
  1.6419325E-007 -1.1239075E-007 0.0
  1.7423579E-007 -1.1868404E-007 0.0
  1.8256403E-007 -1.2511935E-007 0.0
  1.8907386E-007 -1.3143132E-007 0.0
  1.9407986E-007 -1.3749310E-007 0.0
  1.9780338E-007 -1.4329895E-007 0.0
  2.0003123E-007 -1.4897248E-007 0.0
  2.0039658E-007 -1.5446325E-007 0.0
  1.9854085E-007 -1.5979600E-007 0.0
  1.9403548E-007 -1.6493526E-007 0.0
  1.8654050E-007 -1.6980078E-007 0.0
  1.7599353E-007 -1.7432126E-007 0.0
  1.6234490E-007 -1.7858171E-007 0.0
  1.4559828E-007 -1.8266785E-007 0.0
  1.2603637E-007 -1.8666793E-007 0.0
  1.0414529E-007 -1.9067192E-007 0.0
  8.0436246E-008 -1.9473185E-007 0.0
  5.5340450E-008 -1.9883464E-007 0.0
  2.9188051E-008 -2.0293933E-007 0.0
  2.2246484E-009 -2.0700826E-007 0.0
 -2.5363063E-008 -2.1101390E-007 0.0
 -5.3424512E-008 -2.1493374E-007 0.0
 -8.1834549E-008 -2.1874375E-007 0.0
 -1.1049219E-007 -2.2241330E-007 0.0
 -1.3932391E-007 -2.2590374E-007 0.0
 -1.6828729E-007 -2.2917009E-007 0.0
 -1.9737237E-007 -2.3216434E-007 0.0
 -2.2660045E-007 -2.3483927E-007 0.0
 -2.5602145E-007 -2.3715214E-007 0.0
 -2.8571029E-007 -2.3906925E-007 0.0
 -3.1576135E-007 -2.4057238E-007 0.0
 -3.4627841E-007 -2.4166800E-007 0.0
 -3.7735607E-007 -2.4239804E-007 0.0
 -4.0905027E-007 -2.4284680E-007 0.0
 -4.4134358E-007 -2.4313353E-007 0.0
 -4.7412398E-007 -2.4338388E-007 0.0
 -5.0721117E-007 -2.4368111E-007 0.0
 -5.4039791E-007 -2.4405613E-007 0.0
 -5.7339993E-007 -2.4448314E-007 0.0
 -6.0619262E-007 -2.4478691E-007 0.0
 -6.0617695E-007 -2.7753550E-007 0.0
 -2.8031369E-007 -9.9472052E-007 0.0
 -2.6487236E-007 -9.9418231E-007 0.0
 -2.4749786E-007 -9.9158822E-007 0.0
 -2.3424401E-007 -9.8893711E-007 0.0
 -2.2490253E-007 -9.8620482E-007 0.0
 -2.1871738E-007 -9.8323965E-007 0.0
 -2.1527104E-007 -9.8012648E-007 0.0
 -2.1463597E-007 -9.7680543E-007 0.0
 -2.1706824E-007 -9.7327249E-007 0.0
 -2.2279720E-007 -9.6973244E-007 0.0
 -2.3168072E-007 -9.6657931E-007 0.0
 -2.4304056E-007 -9.6413377E-007 0.0
 -2.5592779E-007 -9.6246971E-007 0.0
 -2.6950535E-007 -9.6140944E-007 0.0
 -2.8321981E-007 -9.6072104E-007 0.0
 -2.9675495E-007 -9.6021885E-007 0.0
 -3.0994364E-007 -9.5980551E-007 0.0
 -3.2270483E-007 -9.5944548E-007 0.0
 -3.3502501E-007 -9.5914141E-007 0.0
 -3.4694687E-007 -9.5891143E-007 0.0
 -3.5855269E-007 -9.5876733E-007 0.0
 -3.6994089E-007 -9.5870151E-007 0.0
 -3.8120243E-007 -9.5868932E-007 0.0
 -3.9240561E-007 -9.5870415E-007 0.0
 -4.0360786E-007 -9.5873388E-007 0.0
  2.6424233E-051  2.6424233E-051 0.0
  1.5256038E-051  1.5256038E-051 0.0
 -2.8813460E-009 -1.0327212E-008 0.0
  4.4561926E-010 -1.9472289E-008 0.0
  7.1265330E-009 -2.8619527E-008 0.0
  1.5712612E-008 -3.7769095E-008 0.0
  2.5579995E-008 -4.6555995E-008 0.0
  3.6573659E-008 -5.4900508E-008 0.0
  4.8542874E-008 -6.2845822E-008 0.0
  6.1291251E-008 -7.0427581E-008 0.0
  7.4610598E-008 -7.7643801E-008 0.0
  8.8300364E-008 -8.4471605E-008 0.0
  1.0216199E-007 -9.0892584E-008 0.0
  1.1598989E-007 -9.6910517E-008 0.0
  1.2957389E-007 -1.0256121E-007 0.0
  1.4270670E-007 -1.0791215E-007 0.0
  1.5517948E-007 -1.1305685E-007 0.0
  1.6675098E-007 -1.1811148E-007 0.0
  1.7708526E-007 -1.2322415E-007 0.0
  1.8557373E-007 -1.2858037E-007 0.0
  1.9152976E-007 -1.3400145E-007 0.0
  1.9603082E-007 -1.3874676E-007 0.0
  1.9974441E-007 -1.4328639E-007 0.0
  2.0190728E-007 -1.4735890E-007 0.0
  2.0217549E-007 -1.5085905E-007 0.0
  2.0035527E-007 -1.5380353E-007 0.0
  1.9582112E-007 -1.5657640E-007 0.0
  1.8787006E-007 -1.5896461E-007 0.0
  1.7706455E-007 -1.6111454E-007 0.0
  1.6329768E-007 -1.6332141E-007 0.0
  1.4640543E-007 -1.6557270E-007 0.0
  1.2682582E-007 -1.6782356E-007 0.0
  1.0508052E-007 -1.7020685E-007 0.0
  8.1577707E-008 -1.7278710E-007 0.0
  5.6679993E-008 -1.7554337E-007 0.0
  3.0695233E-008 -1.7843896E-007 0.0
  3.8608824E-009 -1.8142919E-007 0.0
 -2.3637517E-008 -1.8446722E-007 0.0
 -5.1651000E-008 -1.8750968E-007 0.0
 -8.0059269E-008 -1.9051423E-007 0.0
 -1.0876735E-007 -1.9343732E-007 0.0
 -1.3770641E-007 -1.9623352E-007 0.0
 -1.6683534E-007 -1.9885589E-007 0.0
 -1.9614082E-007 -2.0125774E-007 0.0
 -2.2563564E-007 -2.0339573E-007 0.0
 -2.5535568E-007 -2.0523358E-007 0.0
 -2.8535538E-007 -2.0674669E-007 0.0
 -3.1570098E-007 -2.0792750E-007 0.0
 -3.4645991E-007 -2.0879148E-007 0.0
 -3.7768526E-007 -2.0938185E-007 0.0
 -4.0939637E-007 -2.0976954E-007 0.0
 -4.4156158E-007 -2.1004470E-007 0.0
 -4.7409502E-007 -2.1029862E-007 0.0
 -5.0687846E-007 -2.1060855E-007 0.0
 -5.3979744E-007 -2.1100980E-007 0.0
 -5.7276829E-007 -2.1141732E-007 0.0
 -6.0573915E-007 -2.1169488E-007 0.0
 -2.8232471E-007 -1.0116647E-006 0.0
 -2.6076986E-007 -1.0019968E-006 0.0
 -2.4270239E-007 -9.9692369E-007 0.0
 -2.3051169E-007 -9.9288784E-007 0.0
 -2.2296766E-007 -9.8836353E-007 0.0
 -2.1821404E-007 -9.8395453E-007 0.0
 -2.1619166E-007 -9.7962474E-007 0.0
 -2.1691549E-007 -9.7519896E-007 0.0
 -2.2041833E-007 -9.7069500E-007 0.0
 -2.2668268E-007 -9.6627667E-007 0.0
 -2.3547808E-007 -9.6220809E-007 0.0
 -2.4631621E-007 -9.5873288E-007 0.0
 -2.5855785E-007 -9.5595268E-007 0.0
 -2.7158252E-007 -9.5381778E-007 0.0
 -2.8489737E-007 -9.5218794E-007 0.0
 -2.9815727E-007 -9.5091595E-007 0.0
 -3.1113637E-007 -9.4989214E-007 0.0
 -3.2370316E-007 -9.4906010E-007 0.0
 -3.3581261E-007 -9.4840747E-007 0.0
 -3.4750512E-007 -9.4794226E-007 0.0
 -3.5888967E-007 -9.4766335E-007 0.0
 -3.7010050E-007 -9.4753845E-007 0.0
 -3.8124546E-007 -9.4751097E-007 0.0
 -3.9237738E-007 -9.4752477E-007 0.0
 -4.0350475E-007 -9.4755812E-007 0.0
  1.8684755E-051  1.8684755E-051 0.0
 -2.5717865E-009 -1.1651292E-008 0.0
  1.8910001E-009 -2.3456225E-008 0.0
  9.7049823E-009 -3.5459453E-008 0.0
  1.8534091E-008 -4.6408898E-008 0.0
  2.8443978E-008 -5.6160357E-008 0.0
  3.9513803E-008 -6.5013111E-008 0.0
  5.1572861E-008 -7.3234848E-008 0.0
  6.4342918E-008 -8.0940357E-008 0.0
  7.7576883E-008 -8.8135952E-008 0.0
  9.1084603E-008 -9.4799942E-008 0.0
  1.0470342E-007 -1.0091967E-007 0.0
  1.1827578E-007 -1.0650149E-007 0.0
  1.3164264E-007 -1.1157313E-007 0.0
  1.4464227E-007 -1.1618299E-007 0.0
  1.5710185E-007 -1.2039699E-007 0.0
  1.6881140E-007 -1.2429750E-007 0.0
  1.7945713E-007 -1.2798899E-007 0.0
  1.8848205E-007 -1.3164969E-007 0.0
  1.9393327E-007 -1.3550452E-007 0.0
  1.9778564E-007 -1.4104506E-007 0.0
  2.0120678E-007 -1.4476488E-007 0.0
  2.0307170E-007 -1.4726125E-007 0.0
  2.0306209E-007 -1.4876826E-007 0.0
  2.0090055E-007 -1.4926724E-007 0.0
  1.9679029E-007 -1.4848961E-007 0.0
  1.8805426E-007 -1.4793531E-007 0.0
  1.7749116E-007 -1.4759243E-007 0.0
  1.6389619E-007 -1.4782233E-007 0.0
  1.4667068E-007 -1.4809010E-007 0.0
  1.2709875E-007 -1.4857711E-007 0.0
  1.0550200E-007 -1.4949427E-007 0.0
  8.2170592E-008 -1.5072424E-007 0.0
  5.7472115E-008 -1.5224179E-007 0.0
  3.1673583E-008 -1.5401751E-007 0.0
  4.9908230E-009 -1.5598919E-007 0.0
 -2.2395653E-008 -1.5810081E-007 0.0
 -5.0342584E-008 -1.6029708E-007 0.0
 -7.8732878E-008 -1.6252276E-007 0.0
 -1.0747291E-007 -1.6472605E-007 0.0
 -1.3649465E-007 -1.6685759E-007 0.0
 -1.6575593E-007 -1.6886973E-007 0.0
 -1.9523893E-007 -1.7071746E-007 0.0
 -2.2494741E-007 -1.7236087E-007 0.0
 -2.5490306E-007 -1.7376860E-007 0.0
 -2.8514078E-007 -1.7492182E-007 0.0
 -3.1570217E-007 -1.7581800E-007 0.0
 -3.4662633E-007 -1.7647392E-007 0.0
 -3.7793820E-007 -1.7692679E-007 0.0
 -4.0963627E-007 -1.7723146E-007 0.0
 -4.4168406E-007 -1.7745277E-007 0.0
 -4.7401193E-007 -1.7765482E-007 0.0
 -5.0653125E-007 -1.7788991E-007 0.0
 -5.3920330E-007 -1.7820482E-007 0.0
 -5.7215104E-007 -1.7858457E-007 0.0
 -6.0529959E-007 -1.7886430E-007 0.0
 -2.6134361E-007 -1.0110555E-006 0.0
 -2.3701628E-007 -1.0004107E-006 0.0
 -2.2736392E-007 -9.9235796E-007 0.0
 -2.2105615E-007 -9.8639859E-007 0.0
 -2.1759378E-007 -9.8132360E-007 0.0
 -2.1698233E-007 -9.7623981E-007 0.0
 -2.1896633E-007 -9.7111897E-007 0.0
 -2.2347208E-007 -9.6597785E-007 0.0
 -2.3032312E-007 -9.6094394E-007 0.0
 -2.3923601E-007 -9.5623506E-007 0.0
 -2.4982337E-007 -9.5205735E-007 0.0
 -2.6163072E-007 -9.4852572E-007 0.0
 -2.7420119E-007 -9.4564048E-007 0.0
 -2.8712981E-007 -9.4331851E-007 0.0
 -3.0008502E-007 -9.4144307E-007 0.0
 -3.1280824E-007 -9.3991097E-007 0.0
 -3.2511663E-007 -9.3866257E-007 0.0
 -3.3692526E-007 -9.3768913E-007 0.0
 -3.4827649E-007 -9.3700939E-007 0.0
 -3.5932921E-007 -9.3662015E-007 0.0
 -3.7028690E-007 -9.3646608E-007 0.0
 -3.8128781E-007 -9.3644135E-007 0.0
 -3.9234861E-007 -9.3646067E-007 0.0
 -4.0340812E-007 -9.3648820E-007 0.0
  1.8684755E-051  1.8684755E-051 0.0
 -2.7052888E-009 -1.5545067E-008 0.0
  5.3891359E-009 -3.2378805E-008 0.0
  1.3347953E-008 -4.6853271E-008 0.0
  2.1590670E-008 -5.8622315E-008 0.0
  3.1159299E-008 -6.8487490E-008 0.0
  4.2261233E-008 -7.7274739E-008 0.0
  5.4443911E-008 -8.5440084E-008 0.0
  6.7227741E-008 -9.3042393E-008 0.0
  8.0340321E-008 -1.0003529E-007 0.0
  9.3627161E-008 -1.0639068E-007 0.0
  1.0696831E-007 -1.1210283E-007 0.0
  1.2024916E-007 -1.1717939E-007 0.0
  1.3335339E-007 -1.2163949E-007 0.0
  1.4615948E-007 -1.2551242E-007 0.0
  1.5853187E-007 -1.2883487E-007 0.0
  1.7029658E-007 -1.3164427E-007 0.0
  1.8118520E-007 -1.3396515E-007 0.0
  1.9068213E-007 -1.3573847E-007 0.0
  1.9743743E-007 -1.3701378E-007 0.0
  1.9745283E-007 -1.3733458E-007 0.0
  1.8747132E-007 -1.3684940E-007 0.0
  1.7679366E-007 -1.3457290E-007 0.0
  1.6401058E-007 -1.3095068E-007 0.0
  1.4627200E-007 -1.2917635E-007 0.0
  1.2706781E-007 -1.2840193E-007 0.0
  1.0548017E-007 -1.2807010E-007 0.0
  8.2312537E-008 -1.2809487E-007 0.0
  5.7820840E-008 -1.2856720E-007 0.0
  3.2198215E-008 -1.2935824E-007 0.0
  5.6771846E-009 -1.3041549E-007 0.0
 -2.1583867E-008 -1.3168885E-007 0.0
 -4.9453244E-008 -1.3310851E-007 0.0
 -7.7812468E-008 -1.3461323E-007 0.0
 -1.0656639E-007 -1.3614871E-007 0.0
 -1.3564548E-007 -1.3766483E-007 0.0
 -1.6500555E-007 -1.3911546E-007 0.0
 -1.9462450E-007 -1.4045746E-007 0.0
 -2.2449722E-007 -1.4165333E-007 0.0
 -2.5463182E-007 -1.4267493E-007 0.0
 -2.8504568E-007 -1.4350663E-007 0.0
 -3.1576012E-007 -1.4414740E-007 0.0
 -3.4679315E-007 -1.4461172E-007 0.0
 -3.7815103E-007 -1.4492867E-007 0.0
 -4.0982045E-007 -1.4513825E-007 0.0
 -4.4176426E-007 -1.4528486E-007 0.0
 -4.7392326E-007 -1.4540837E-007 0.0
 -5.0623490E-007 -1.4553460E-007 0.0
 -5.3864566E-007 -1.4566091E-007 0.0
 -5.7144974E-007 -1.4580312E-007 0.0
 -6.0532017E-007 -1.4567069E-007 0.0
 -2.2599495E-007 -9.8362579E-007 0.0
 -2.2322219E-007 -9.8405093E-007 0.0
 -2.1815492E-007 -9.8041253E-007 0.0
 -2.1658865E-007 -9.7522223E-007 0.0
 -2.1734469E-007 -9.6986547E-007 0.0
 -2.2061103E-007 -9.6445863E-007 0.0
 -2.2617770E-007 -9.5896208E-007 0.0
 -2.3370722E-007 -9.5353218E-007 0.0
 -2.4287844E-007 -9.4840715E-007 0.0
 -2.5338439E-007 -9.4379634E-007 0.0
 -2.6490974E-007 -9.3981718E-007 0.0
 -2.7713026E-007 -9.3648718E-007 0.0
 -2.8972880E-007 -9.3374666E-007 0.0
 -3.0240634E-007 -9.3149440E-007 0.0
 -3.1488295E-007 -9.2962686E-007 0.0
 -3.2691265E-007 -9.2808364E-007 0.0
 -3.3834644E-007 -9.2687483E-007 0.0
 -3.4922600E-007 -9.2605099E-007 0.0
 -3.5981324E-007 -9.2562442E-007 0.0
 -3.7043821E-007 -9.2548781E-007 0.0
 -3.8130484E-007 -9.2548916E-007 0.0
 -3.9232825E-007 -9.2548791E-007 0.0
 -4.0335054E-007 -9.2549454E-007 0.0
  2.1701921E-034  2.6424233E-051 0.0
 -2.1890923E-010 -3.4409622E-008 0.0
  9.9144537E-009 -5.1313239E-008 0.0
  1.7029917E-008 -6.4565889E-008 0.0
  2.3793560E-008 -7.5081499E-008 0.0
  3.3039525E-008 -8.3763203E-008 0.0
  4.4553567E-008 -9.1961646E-008 0.0
  5.7022284E-008 -9.9801501E-008 0.0
  6.9831568E-008 -1.0705152E-007 0.0
  8.2803689E-008 -1.1362112E-007 0.0
  9.5852598E-008 -1.1950195E-007 0.0
  1.0890176E-007 -1.2469819E-007 0.0
  1.2187451E-007 -1.2921688E-007 0.0
  1.3469137E-007 -1.3306808E-007 0.0
  1.4726869E-007 -1.3626727E-007 0.0
  1.5951172E-007 -1.3883731E-007 0.0
  1.7129595E-007 -1.4081192E-007 0.0
  1.8243210E-007 -1.4224747E-007 0.0
  1.9259006E-007 -1.4331916E-007 0.0
  2.0188506E-007 -1.4478150E-007 0.0
  1.6466819E-007 -1.0954944E-007 0.0
  1.4536831E-007 -1.0930951E-007 0.0
  1.2695621E-007 -1.0677991E-007 0.0
  1.0505453E-007 -1.0533439E-007 0.0
  8.2238606E-008 -1.0460593E-007 0.0
  5.7823570E-008 -1.0424116E-007 0.0
  3.2368104E-008 -1.0418287E-007 0.0
  6.0173078E-009 -1.0448546E-007 0.0
 -2.1125729E-008 -1.0503678E-007 0.0
 -4.8915997E-008 -1.0577364E-007 0.0
 -7.7239094E-008 -1.0664020E-007 0.0
 -1.0599433E-007 -1.0757757E-007 0.0
 -1.3510717E-007 -1.0854250E-007 0.0
 -1.6453493E-007 -1.0949270E-007 0.0
 -1.9425294E-007 -1.1038557E-007 0.0
 -2.2424744E-007 -1.1118482E-007 0.0
 -2.5451360E-007 -1.1186448E-007 0.0
 -2.8505345E-007 -1.1241085E-007 0.0
 -3.1587210E-007 -1.1282300E-007 0.0
 -3.4697220E-007 -1.1311221E-007 0.0
 -3.7834771E-007 -1.1330012E-007 0.0
 -4.0997863E-007 -1.1341538E-007 0.0
 -4.4182830E-007 -1.1348866E-007 0.0
 -4.7384614E-007 -1.1354713E-007 0.0
 -5.0597091E-007 -1.1361221E-007 0.0
 -5.3816974E-007 -1.1371177E-007 0.0
 -5.7017953E-007 -1.1404054E-007 0.0
 -2.2803600E-007 -9.8768232E-007 0.0
 -2.1620007E-007 -9.7743893E-007 0.0
 -2.1505151E-007 -9.7104382E-007 0.0
 -2.1483381E-007 -9.6562821E-007 0.0
 -2.1696286E-007 -9.6056351E-007 0.0
 -2.2172504E-007 -9.5517821E-007 0.0
 -2.2852357E-007 -9.4950357E-007 0.0
 -2.3683384E-007 -9.4383322E-007 0.0
 -2.4634358E-007 -9.3849224E-007 0.0
 -2.5685973E-007 -9.3369722E-007 0.0
 -2.6819907E-007 -9.2955160E-007 0.0
 -2.8015482E-007 -9.2606715E-007 0.0
 -2.9249223E-007 -9.2318680E-007 0.0
 -3.0495078E-007 -9.2081558E-007 0.0
 -3.1724266E-007 -9.1884560E-007 0.0
 -3.2903577E-007 -9.1719135E-007 0.0
 -3.4003548E-007 -9.1589121E-007 0.0
 -3.5027346E-007 -9.1508361E-007 0.0
 -3.6022327E-007 -9.1475946E-007 0.0
 -3.7048249E-007 -9.1472685E-007 0.0
 -3.8133482E-007 -9.1459493E-007 0.0
 -3.9232854E-007 -9.1452223E-007 0.0
 -4.0333672E-007 -9.1450742E-007 0.0
 -4.8279319E-009 -7.7157262E-008 0.0
  1.2661453E-008 -7.8701510E-008 0.0
  1.9279232E-008 -8.7196276E-008 0.0
  2.3503153E-008 -9.4491437E-008 0.0
  3.3716967E-008 -1.0172296E-007 0.0
  4.6338498E-008 -1.0939239E-007 0.0
  5.9165961E-008 -1.1663355E-007 0.0
  7.1997752E-008 -1.2317032E-007 0.0
  8.4846276E-008 -1.2904080E-007 0.0
  9.7678877E-008 -1.3426341E-007 0.0
  1.1045691E-007 -1.3884060E-007 0.0
  1.2313638E-007 -1.4276755E-007 0.0
  1.3567296E-007 -1.4604135E-007 0.0
  1.4802358E-007 -1.4866776E-007 0.0
  1.6014581E-007 -1.5067057E-007 0.0
  1.7199505E-007 -1.5211021E-007 0.0
  1.8352459E-007 -1.5312970E-007 0.0
  1.9480101E-007 -1.5406624E-007 0.0
  2.0624563E-007 -1.5541013E-007 0.0
  1.2743741E-007 -8.2043970E-008 0.0
  1.0435921E-007 -8.1896664E-008 0.0
  8.2135917E-008 -8.0022744E-008 0.0
  5.7529367E-008 -7.8919433E-008 0.0
  3.2370424E-008 -7.8339260E-008 0.0
  6.0957007E-009 -7.8037586E-008 0.0
 -2.0928938E-008 -7.7968254E-008 0.0
 -4.8644079E-008 -7.8153447E-008 0.0
 -7.6949278E-008 -7.8472932E-008 0.0
 -1.0569638E-007 -7.8891006E-008 0.0
 -1.3482033E-007 -7.9382988E-008 0.0
 -1.6428978E-007 -7.9904417E-008 0.0
 -1.9407773E-007 -8.0411091E-008 0.0
 -2.2416089E-007 -8.0867405E-008 0.0
 -2.5452153E-007 -8.1249825E-008 0.0
 -2.8514827E-007 -8.1546799E-008 0.0
 -3.1603357E-007 -8.1757532E-008 0.0
 -3.4716915E-007 -8.1890604E-008 0.0
 -3.7854081E-007 -8.1962046E-008 0.0
 -4.1012432E-007 -8.1992932E-008 0.0
 -4.4188328E-007 -8.2006497E-008 0.0
 -4.7376793E-007 -8.2026381E-008 0.0
 -5.0571654E-007 -8.2079416E-008 0.0
 -5.3761451E-007 -8.2222095E-008 0.0
 -5.6926068E-007 -8.2478666E-008 0.0
 -2.0721503E-007 -9.5694385E-007 0.0
 -2.1118932E-007 -9.5656720E-007 0.0
 -2.1170352E-007 -9.5309465E-007 0.0
 -2.1563559E-007 -9.4860624E-007 0.0
 -2.2234347E-007 -9.4325309E-007 0.0
 -2.3059188E-007 -9.3738102E-007 0.0
 -2.3970844E-007 -9.3159960E-007 0.0
 -2.4955972E-007 -9.2627012E-007 0.0
 -2.6011504E-007 -9.2155553E-007 0.0
 -2.7131931E-007 -9.1752005E-007 0.0
 -2.8307223E-007 -9.1415777E-007 0.0
 -2.9521952E-007 -9.1140583E-007 0.0
 -3.0753257E-007 -9.0916378E-007 0.0
 -3.1971643E-007 -9.0734993E-007 0.0
 -3.3140214E-007 -9.0587871E-007 0.0
 -3.4197298E-007 -9.0470126E-007 0.0
 -3.5119379E-007 -9.0418159E-007 0.0
 -3.6026645E-007 -9.0449038E-007 0.0
 -3.7047814E-007 -9.0449785E-007 0.0
  9.7760870E-009 -1.0231661E-007 0.0
  2.3033800E-008 -1.0329153E-007 0.0
  2.0144248E-008 -1.1624708E-007 0.0
  3.3675257E-008 -1.2361512E-007 0.0
  4.7458373E-008 -1.3027190E-007 0.0
  6.0570852E-008 -1.3606507E-007 0.0
  7.3520170E-008 -1.4137974E-007 0.0
  8.6335471E-008 -1.4625051E-007 0.0
  9.9031708E-008 -1.5064736E-007 0.0
  1.1160223E-007 -1.5452671E-007 0.0
  1.2403856E-007 -1.5785236E-007 0.0
  1.3633429E-007 -1.6060036E-007 0.0
  1.4849256E-007 -1.6276502E-007 0.0
  1.6053526E-007 -1.6437041E-007 0.0
  1.7251754E-007 -1.6549432E-007 0.0
  1.8456634E-007 -1.6631128E-007 0.0
  1.9694923E-007 -1.6711897E-007 0.0
  2.1015256E-007 -1.6830674E-007 0.0
  8.2493005E-008 -5.3275890E-008 0.0
  5.7016487E-008 -5.3170869E-008 0.0
  3.2326720E-008 -5.1726748E-008 0.0
  5.9409990E-009 -5.0837977E-008 0.0
 -2.0826391E-008 -5.0396625E-008 0.0
 -4.8569676E-008 -5.0133802E-008 0.0
 -7.6883598E-008 -4.9980881E-008 0.0
 -1.0560196E-007 -4.9980174E-008 0.0
 -1.3471798E-007 -5.0092111E-008 0.0
 -1.6421204E-007 -5.0264598E-008 0.0
 -1.9405187E-007 -5.0450452E-008 0.0
 -2.2420123E-007 -5.0617891E-008 0.0
 -2.5462953E-007 -5.0747878E-008 0.0
 -2.8531381E-007 -5.0831633E-008 0.0
 -3.1623711E-007 -5.0869497E-008 0.0
 -3.4738400E-007 -5.0868130E-008 0.0
 -3.7873497E-007 -5.0839312E-008 0.0
 -4.1026260E-007 -5.0799116E-008 0.0
 -4.4192932E-007 -5.0766680E-008 0.0
 -4.7368520E-007 -5.0763226E-008 0.0
 -5.0545742E-007 -5.0814127E-008 0.0
 -5.3713559E-007 -5.0940246E-008 0.0
 -5.6856687E-007 -5.1148999E-008 0.0
 -2.0910982E-007 -9.5400262E-007 0.0
 -2.0648348E-007 -9.4409928E-007 0.0
 -2.0723306E-007 -9.3902509E-007 0.0
 -2.1353327E-007 -9.3418686E-007 0.0
 -2.2282864E-007 -9.2821992E-007 0.0
 -2.3247453E-007 -9.2214727E-007 0.0
 -2.4227511E-007 -9.1655673E-007 0.0
 -2.5241193E-007 -9.1156933E-007 0.0
 -2.6300200E-007 -9.0724176E-007 0.0
 -2.7410054E-007 -9.0358927E-007 0.0
 -2.8569584E-007 -9.0059605E-007 0.0
 -2.9771642E-007 -8.9820841E-007 0.0
 -3.0999696E-007 -8.9631374E-007 0.0
 -3.2215990E-007 -8.9478280E-007 0.0
 -3.3379385E-007 -8.9373711E-007 0.0
 -3.4417119E-007 -8.9333703E-007 0.0
 -3.5137036E-007 -8.9393749E-007 0.0
  9.9008959E-009 -1.5391199E-007 0.0
  3.2205110E-008 -1.5198666E-007 0.0
  4.7004975E-008 -1.5425258E-007 0.0
  6.0887621E-008 -1.5760717E-007 0.0
  7.4210464E-008 -1.6129477E-007 0.0
  8.7181406E-008 -1.6498046E-007 0.0
  9.9871577E-008 -1.6846228E-007 0.0
  1.1233397E-007 -1.7161751E-007 0.0
  1.2460475E-007 -1.7436512E-007 0.0
  1.3672148E-007 -1.7665426E-007 0.0
  1.4873748E-007 -1.7846280E-007 0.0
  1.6074057E-007 -1.7980418E-007 0.0
  1.7288360E-007 -1.8074287E-007 0.0
  1.8542550E-007 -1.8142042E-007 0.0
  1.9876800E-007 -1.8207502E-007 0.0
  2.1343714E-007 -1.8302875E-007 0.0
  3.2632138E-008 -2.3563111E-008 0.0
  5.5248312E-009 -2.3461216E-008 0.0
 -2.0697018E-008 -2.2168402E-008 0.0
 -4.8655675E-008 -2.1506637E-008 0.0
 -7.6959377E-008 -2.1056230E-008 0.0
 -1.0562619E-007 -2.0765995E-008 0.0
 -1.3472687E-007 -2.0605425E-008 0.0
 -1.6424608E-007 -2.0502713E-008 0.0
 -1.9412993E-007 -2.0428027E-008 0.0
 -2.2433366E-007 -2.0360293E-008 0.0
 -2.5481281E-007 -2.0281136E-008 0.0
 -2.8553276E-007 -2.0188219E-008 0.0
 -3.1647226E-007 -2.0083819E-008 0.0
 -3.4761251E-007 -1.9972092E-008 0.0
 -3.7893047E-007 -1.9861007E-008 0.0
 -4.1039595E-007 -1.9762609E-008 0.0
 -4.4197003E-007 -1.9692605E-008 0.0
 -4.7360283E-007 -1.9669074E-008 0.0
 -5.0522815E-007 -1.9706829E-008 0.0
 -5.3675164E-007 -1.9809539E-008 0.0
 -5.6804499E-007 -1.9966894E-008 0.0
 -2.0677249E-007 -9.3321830E-007 0.0
 -2.0106615E-007 -9.2221395E-007 0.0
 -2.1165587E-007 -9.1500321E-007 0.0
 -2.2333187E-007 -9.0867367E-007 0.0
 -2.3398476E-007 -9.0331182E-007 0.0
 -2.4434329E-007 -8.9855127E-007 0.0
 -2.5471984E-007 -8.9436900E-007 0.0
 -2.6536048E-007 -8.9076174E-007 0.0
 -2.7639369E-007 -8.8773633E-007 0.0
 -2.8787692E-007 -8.8529536E-007 0.0
 -2.9981416E-007 -8.8342386E-007 0.0
 -3.1216278E-007 -8.8206169E-007 0.0
 -3.2465725E-007 -8.8095246E-007 0.0
 -3.3625456E-007 -8.7977308E-007 0.0
 -3.4779048E-007 -8.7838297E-007 0.0
  6.6976473E-009 -1.7987175E-007 0.0
  2.7839210E-008 -1.7907206E-007 0.0
  4.4999760E-008 -1.7867793E-007 0.0
  6.0054960E-008 -1.8001180E-007 0.0
  7.4083652E-008 -1.8223060E-007 0.0
  8.7396719E-008 -1.8478598E-007 0.0
  1.0022317E-007 -1.8739045E-007 0.0
  1.1268725E-007 -1.8986620E-007 0.0
  1.2488047E-007 -1.9209711E-007 0.0
  1.3688738E-007 -1.9400818E-007 0.0
  1.4881002E-007 -1.9555878E-007 0.0
  1.6079400E-007 -1.9674263E-007 0.0
  1.7306197E-007 -1.9759144E-007 0.0
  1.8597107E-007 -1.9817701E-007 0.0
  2.0004838E-007 -1.9865859E-007 0.0
  2.1593177E-007 -1.9931038E-007 0.0
 -2.0363557E-008  7.5648374E-009 0.0
 -4.8718952E-008  7.7852182E-009 0.0
 -7.7096884E-008  8.3123144E-009 0.0
 -1.0565683E-007  8.7280404E-009 0.0
 -1.3480483E-007  9.1111270E-009 0.0
 -1.6434192E-007  9.4532932E-009 0.0
 -1.9426541E-007  9.7199637E-009 0.0
 -2.2452953E-007  9.9762933E-009 0.0
 -2.5504788E-007  1.0223917E-008 0.0
 -2.8578569E-007  1.0453686E-008 0.0
 -3.1672553E-007  1.0666549E-008 0.0
 -3.4784724E-007  1.0862227E-008 0.0
 -3.7912521E-007  1.1036621E-008 0.0
 -4.1052688E-007  1.1181311E-008 0.0
 -4.4201200E-007  1.1284525E-008 0.0
 -4.7353281E-007  1.1332064E-008 0.0
 -5.0503642E-007  1.1311945E-008 0.0
 -5.3645782E-007  1.1230849E-008 0.0
 -5.6768075E-007  1.1120650E-008 0.0
 -1.8650433E-007 -8.8346102E-007 0.0
 -2.0922775E-007 -8.8638088E-007 0.0
 -2.2282924E-007 -8.8413945E-007 0.0
 -2.3467785E-007 -8.8098356E-007 0.0
 -2.4559806E-007 -8.7783906E-007 0.0
 -2.5627835E-007 -8.7492159E-007 0.0
 -2.6704670E-007 -8.7232094E-007 0.0
 -2.7809674E-007 -8.7009429E-007 0.0
 -2.8953650E-007 -8.6828768E-007 0.0
 -3.0143655E-007 -8.6694038E-007 0.0
 -3.1384456E-007 -8.6608153E-007 0.0
 -3.2689547E-007 -8.6573255E-007 0.0
 -3.3952074E-007 -8.6545391E-007 0.0
 -3.4795589E-007 -8.6634553E-007 0.0
  6.8274923E-009 -2.0128819E-007 0.0
  2.4559585E-008 -2.0179457E-007 0.0
  4.2313962E-008 -2.0169948E-007 0.0
  5.8623224E-008 -2.0227971E-007 0.0
  7.3360320E-008 -2.0351755E-007 0.0
  8.7118574E-008 -2.0518581E-007 0.0
  1.0018007E-007 -2.0705943E-007 0.0
  1.1273821E-007 -2.0896437E-007 0.0
  1.2493280E-007 -2.1077353E-007 0.0
  1.3689174E-007 -2.1239827E-007 0.0
  1.4875893E-007 -2.1378272E-007 0.0
  1.6072217E-007 -2.1490046E-007 0.0
  1.7304939E-007 -2.1574979E-007 0.0
  1.8612629E-007 -2.1634518E-007 0.0
  2.0061289E-007 -2.1667262E-007 0.0
  2.1743270E-007 -2.1698007E-007 0.0
 -4.8476339E-008  3.7393985E-008 0.0
 -7.7374008E-008  3.7511168E-008 0.0
 -1.0567375E-007  3.8498848E-008 0.0
 -1.3496824E-007  3.9181742E-008 0.0
 -1.6440870E-007  3.9639017E-008 0.0
 -1.9443271E-007  4.0058358E-008 0.0
 -2.2476701E-007  4.0471786E-008 0.0
 -2.5530693E-007  4.0835045E-008 0.0
 -2.8604921E-007  4.1153980E-008 0.0
 -3.1698040E-007  4.1437359E-008 0.0
 -3.4807838E-007  4.1689377E-008 0.0
 -3.7931521E-007  4.1907240E-008 0.0
 -4.1065690E-007  4.2085875E-008 0.0
 -4.4206265E-007  4.2217756E-008 0.0
 -4.7348599E-007  4.2294700E-008 0.0
 -5.0488200E-007  4.2305949E-008 0.0
 -5.3623138E-007  4.2247592E-008 0.0
 -5.6747567E-007  4.2170884E-008 0.0
 -1.7999404E-007 -8.5496239E-007 0.0
 -2.0412545E-007 -8.5635815E-007 0.0
 -2.2108946E-007 -8.5701674E-007 0.0
 -2.3414249E-007 -8.5639070E-007 0.0
 -2.4581844E-007 -8.5520428E-007 0.0
 -2.5694361E-007 -8.5379119E-007 0.0
 -2.6797925E-007 -8.5234236E-007 0.0
 -2.7917441E-007 -8.5097996E-007 0.0
 -2.9068553E-007 -8.4978987E-007 0.0
 -3.0263140E-007 -8.4883314E-007 0.0
 -3.1517365E-007 -8.4814126E-007 0.0
 -3.2854317E-007 -8.4766853E-007 0.0
 -3.4473259E-007 -8.4651916E-007 0.0
  2.0584588E-008 -2.2483152E-007 0.0
  4.0188892E-008 -2.2399789E-007 0.0
  5.7021984E-008 -2.2409183E-007 0.0
  7.2363815E-008 -2.2471512E-007 0.0
  8.6546048E-008 -2.2577109E-007 0.0
  9.9884420E-008 -2.2710966E-007 0.0
  1.1259314E-007 -2.2858920E-007 0.0
  1.2484522E-007 -2.3009162E-007 0.0
  1.3680042E-007 -2.3152605E-007 0.0
  1.4863328E-007 -2.3282734E-007 0.0
  1.6055994E-007 -2.3395306E-007 0.0
  1.7286562E-007 -2.3487839E-007 0.0
  1.8595673E-007 -2.3558527E-007 0.0
  2.0034483E-007 -2.3603463E-007 0.0
  2.1753738E-007 -2.3584087E-007 0.0
 -1.0544495E-007  6.9145503E-008 0.0
 -1.3527909E-007  6.9219311E-008 0.0
 -1.6438804E-007  7.0183091E-008 0.0
 -1.9462497E-007  7.0737866E-008 0.0
 -2.2500524E-007  7.1201574E-008 0.0
 -2.5555133E-007  7.1602368E-008 0.0
 -2.8629564E-007  7.1951607E-008 0.0
 -3.1722039E-007  7.2270972E-008 0.0
 -3.4829426E-007  7.2552697E-008 0.0
 -3.7949430E-007  7.2793486E-008 0.0
 -4.1078515E-007  7.2991889E-008 0.0
 -4.4212439E-007  7.3143490E-008 0.0
 -4.7347043E-007  7.3244145E-008 0.0
 -5.0477735E-007  7.3300514E-008 0.0
 -5.3604953E-007  7.3318182E-008 0.0
 -5.6746191E-007  7.3372276E-008 0.0
 -1.7743773E-007 -8.2728081E-007 0.0
 -2.0106621E-007 -8.2796604E-007 0.0
 -2.1836342E-007 -8.2976776E-007 0.0
 -2.3253749E-007 -8.3112741E-007 0.0
 -2.4500348E-007 -8.3171203E-007 0.0
 -2.5671654E-007 -8.3173815E-007 0.0
 -2.6816725E-007 -8.3140689E-007 0.0
 -2.7965631E-007 -8.3087066E-007 0.0
 -2.9138400E-007 -8.3023117E-007 0.0
 -3.0352551E-007 -8.2953990E-007 0.0
 -3.1630637E-007 -8.2878704E-007 0.0
 -3.3029751E-007 -8.2781391E-007 0.0
 -3.4704435E-007 -8.2687619E-007 0.0
  1.8814654E-008 -2.4591796E-007 0.0
  3.8247173E-008 -2.4547686E-007 0.0
  5.5594652E-008 -2.4525727E-007 0.0
  7.1338667E-008 -2.4554053E-007 0.0
  8.5886685E-008 -2.4622963E-007 0.0
  9.9492116E-008 -2.4723084E-007 0.0
  1.1237149E-007 -2.4843805E-007 0.0
  1.2470890E-007 -2.4975234E-007 0.0
  1.3668172E-007 -2.5108842E-007 0.0
  1.4848232E-007 -2.5237679E-007 0.0
  1.6033970E-007 -2.5356174E-007 0.0
  1.7254604E-007 -2.5459578E-007 0.0
  1.8547295E-007 -2.5543118E-007 0.0
  1.9968390E-007 -2.5603520E-007 0.0
  2.1534573E-007 -2.5630762E-007 0.0
 -1.6416668E-007  1.0170254E-007 0.0
 -1.9472727E-007  1.0182142E-007 0.0
 -2.2519127E-007  1.0217556E-007 0.0
 -2.5572620E-007  1.0251257E-007 0.0
 -2.8651149E-007  1.0286483E-007 0.0
 -3.1743211E-007  1.0319936E-007 0.0
 -3.4848000E-007  1.0348500E-007 0.0
 -3.7965528E-007  1.0372700E-007 0.0
 -4.1090867E-007  1.0393282E-007 0.0
 -4.4219281E-007  1.0408956E-007 0.0
 -4.7347414E-007  1.0419248E-007 0.0
 -5.0472131E-007  1.0424201E-007 0.0
 -5.3582211E-007  1.0421164E-007 0.0
 -1.7886252E-007 -7.9734267E-007 0.0
 -1.9848124E-007 -8.0043853E-007 0.0
 -2.1550842E-007 -8.0377794E-007 0.0
 -2.3019477E-007 -8.0645727E-007 0.0
 -2.4338984E-007 -8.0835337E-007 0.0
 -2.5573702E-007 -8.0952768E-007 0.0
 -2.6770588E-007 -8.1013641E-007 0.0
 -2.7961080E-007 -8.1031729E-007 0.0
 -2.9168703E-007 -8.1016638E-007 0.0
 -3.0414927E-007 -8.0972982E-007 0.0
 -3.1727668E-007 -8.0900027E-007 0.0
 -3.3153461E-007 -8.0802212E-007 0.0
 -3.4724183E-007 -8.0721027E-007 0.0
 -3.6502443E-007 -8.0739828E-007 0.0
 -3.6551378E-007 -8.2638831E-007 0.0
  1.8076485E-008 -2.6597583E-007 0.0
  3.7007535E-008 -2.6575342E-007 0.0
  5.4460875E-008 -2.6562439E-007 0.0
  7.0492021E-008 -2.6580422E-007 0.0
  8.5313672E-008 -2.6633636E-007 0.0
  9.9148930E-008 -2.6717304E-007 0.0
  1.1218920E-007 -2.6824739E-007 0.0
  1.2461361E-007 -2.6948208E-007 0.0
  1.3660259E-007 -2.7080096E-007 0.0
  1.4835314E-007 -2.7213319E-007 0.0
  1.6009430E-007 -2.7341131E-007 0.0
  1.7210033E-007 -2.7456135E-007 0.0
  1.8471473E-007 -2.7547956E-007 0.0
  1.9829004E-007 -2.7593542E-007 0.0
  2.1318369E-007 -2.7550737E-007 0.0
  2.3034350E-007 -2.7472093E-007 0.0
  2.3050089E-007 -2.5692487E-007 0.0
 -1.9459471E-007  1.3302335E-007 0.0
 -2.2536586E-007  1.3307345E-007 0.0
 -2.5581230E-007  1.3357314E-007 0.0
 -2.8670945E-007  1.3392171E-007 0.0
 -3.1759534E-007  1.3424298E-007 0.0
 -3.4861680E-007  1.3449822E-007 0.0
 -3.7979933E-007  1.3474141E-007 0.0
 -4.1102198E-007  1.3494145E-007 0.0
 -4.4225702E-007  1.3508417E-007 0.0
 -4.7348511E-007  1.3517177E-007 0.0
 -5.0466572E-007  1.3520262E-007 0.0
 -5.3574811E-007  1.3519846E-007 0.0
 -1.5986238E-007 -7.9595768E-007 0.0
 -1.6191572E-007 -7.6774579E-007 0.0
 -1.7882580E-007 -7.7199439E-007 0.0
 -1.9617309E-007 -7.7591694E-007 0.0
 -2.1261132E-007 -7.7978637E-007 0.0
 -2.2755816E-007 -7.8316770E-007 0.0
 -2.4129183E-007 -7.8583011E-007 0.0
 -2.5423022E-007 -7.8777313E-007 0.0
 -2.6674089E-007 -7.8907380E-007 0.0
 -2.7912141E-007 -7.8982937E-007 0.0
 -2.9161560E-007 -7.9011972E-007 0.0
 -3.0445121E-007 -7.8999767E-007 0.0
 -3.1787737E-007 -7.8950925E-007 0.0
 -3.3212081E-007 -7.8875824E-007 0.0
 -3.4731085E-007 -7.8787485E-007 0.0
 -3.6287226E-007 -7.8709866E-007 0.0
  1.7854316E-008 -2.8516993E-007 0.0
  3.6369047E-008 -2.8513123E-007 0.0
  5.3791909E-008 -2.8516953E-007 0.0
  6.9951986E-008 -2.8541892E-007 0.0
  8.4960597E-008 -2.8593922E-007 0.0
  9.8974503E-008 -2.8674488E-007 0.0
  1.1214790E-007 -2.8779933E-007 0.0
  1.2464085E-007 -2.8904393E-007 0.0
  1.3662566E-007 -2.9041179E-007 0.0
  1.4829326E-007 -2.9183291E-007 0.0
  1.5986026E-007 -2.9323228E-007 0.0
  1.7157576E-007 -2.9452178E-007 0.0
  1.8370889E-007 -2.9557951E-007 0.0
  1.9653836E-007 -2.9624089E-007 0.0
  2.1030330E-007 -2.9633131E-007 0.0
  2.2756584E-007 -2.9496676E-007 0.0
 -2.5574081E-007  1.6503009E-007 0.0
 -2.8684663E-007  1.6502581E-007 0.0
 -3.1773941E-007  1.6528505E-007 0.0
 -3.4870848E-007  1.6568200E-007 0.0
 -3.7992136E-007  1.6588714E-007 0.0
 -4.1111048E-007  1.6604034E-007 0.0
 -4.4230697E-007  1.6614598E-007 0.0
 -4.7349567E-007  1.6621140E-007 0.0
 -5.0464253E-007  1.6623960E-007 0.0
 -5.3574071E-007  1.6625127E-007 0.0
 -1.3569288E-007 -7.6000569E-007 0.0
 -1.3727458E-007 -7.3590659E-007 0.0
 -1.5041687E-007 -7.4212183E-007 0.0
 -1.5282184E-007 -7.6024296E-007 0.0
 -1.6265853E-007 -7.4632629E-007 0.0
 -1.7791867E-007 -7.5016801E-007 0.0
 -1.9413931E-007 -7.5415216E-007 0.0
 -2.0996198E-007 -7.5800893E-007 0.0
 -2.2493100E-007 -7.6152881E-007 0.0
 -2.3901542E-007 -7.6450685E-007 0.0
 -2.5242736E-007 -7.6686247E-007 0.0
 -2.6543019E-007 -7.6860667E-007 0.0
 -2.7827353E-007 -7.6978910E-007 0.0
 -2.9118240E-007 -7.7047018E-007 0.0
 -3.0436362E-007 -7.7071292E-007 0.0
 -3.1800120E-007 -7.7059759E-007 0.0
 -3.3222484E-007 -7.7024015E-007 0.0
 -3.4698279E-007 -7.6984509E-007 0.0
 -3.6172515E-007 -7.6963229E-007 0.0
 -3.7578464E-007 -7.6937093E-007 0.0
 -3.7643278E-007 -7.8631237E-007 0.0
  1.7831849E-008 -3.0378142E-007 0.0
  3.6222562E-008 -3.0383277E-007 0.0
  5.3596846E-008 -3.0400945E-007 0.0
  6.9782776E-008 -3.0434962E-007 0.0
  8.4912584E-008 -3.0493902E-007 0.0
  9.9058829E-008 -3.0580396E-007 0.0
  1.1232911E-007 -3.0692007E-007 0.0
  1.2485956E-007 -3.0824016E-007 0.0
  1.3680751E-007 -3.0970556E-007 0.0
  1.4835023E-007 -3.1124888E-007 0.0
  1.5968642E-007 -3.1279258E-007 0.0
  1.7103512E-007 -3.1424437E-007 0.0
  1.8263366E-007 -3.1549933E-007 0.0
  1.9472267E-007 -3.1646614E-007 0.0
  2.0771879E-007 -3.1717004E-007 0.0
  2.2093568E-007 -3.1727807E-007 0.0
 -3.4868964E-007  1.9715830E-007 0.0
 -3.7998934E-007  1.9713455E-007 0.0
 -4.1116134E-007  1.9720552E-007 0.0
 -4.4233935E-007  1.9728035E-007 0.0
 -4.7350737E-007  1.9732125E-007 0.0
 -5.0463172E-007  1.9732584E-007 0.0
 -3.6753298E-008 -6.8849128E-007 0.0
 -3.7150286E-008 -6.7466092E-007 0.0
 -4.7166234E-008 -6.7726695E-007 0.0
 -4.8075697E-008 -6.8833998E-007 0.0
 -5.6243220E-008 -6.7993823E-007 0.0
 -5.7278655E-008 -6.8987077E-007 0.0
 -6.5007457E-008 -6.8279226E-007 0.0
 -6.6226984E-008 -6.9234710E-007 0.0
 -7.3760978E-008 -6.8597357E-007 0.0
 -7.5138954E-008 -6.9543741E-007 0.0
 -8.2568385E-008 -6.8950715E-007 0.0
 -8.4099899E-008 -6.9900242E-007 0.0
 -9.1443139E-008 -6.9340696E-007 0.0
 -9.3131131E-008 -7.0300095E-007 0.0
 -1.0036993E-007 -6.9770458E-007 0.0
 -1.0222775E-007 -7.0745125E-007 0.0
 -1.0930036E-007 -7.0245981E-007 0.0
 -1.1136469E-007 -7.1244279E-007 0.0
 -1.1818027E-007 -7.0774762E-007 0.0
 -1.2043449E-007 -7.1819106E-007 0.0
 -1.2679183E-007 -7.1352653E-007 0.0
 -1.2952163E-007 -7.2539978E-007 0.0
 -1.3666146E-007 -7.1835928E-007 0.0
 -1.4923572E-007 -7.2313692E-007 0.0
 -1.6256557E-007 -7.2738109E-007 0.0
 -1.7704170E-007 -7.3097588E-007 0.0
 -1.9236433E-007 -7.3454903E-007 0.0
 -2.0767575E-007 -7.3811901E-007 0.0
 -2.2251839E-007 -7.4148169E-007 0.0
 -2.3677468E-007 -7.4446745E-007 0.0
 -2.5051806E-007 -7.4696921E-007 0.0
 -2.6391388E-007 -7.4895040E-007 0.0
 -2.7715195E-007 -7.5042317E-007 0.0
 -2.9041751E-007 -7.5142846E-007 0.0
 -3.0387706E-007 -7.5202928E-007 0.0
 -3.1766096E-007 -7.5231477E-007 0.0
 -3.3182168E-007 -7.5241424E-007 0.0
 -3.4624882E-007 -7.5248646E-007 0.0
 -3.6065923E-007 -7.5261313E-007 0.0
 -3.7477434E-007 -7.5275134E-007 0.0
 -3.8867985E-007 -7.5279914E-007 0.0
 -3.8918134E-007 -7.6870442E-007 0.0
  3.6650077E-008 -3.2184865E-007 0.0
  5.3788670E-008 -3.2212825E-007 0.0
  6.9995124E-008 -3.2256041E-007 0.0
  8.5221739E-008 -3.2326752E-007 0.0
  9.9463335E-008 -3.2424724E-007 0.0
  1.1279267E-007 -3.2547359E-007 0.0
  1.2532396E-007 -3.2690849E-007 0.0
  1.3719653E-007 -3.2850063E-007 0.0
  1.4857022E-007 -3.3018647E-007 0.0
  1.5962224E-007 -3.3188880E-007 0.0
  1.7054531E-007 -3.3351249E-007 0.0
  1.8154580E-007 -3.3493881E-007 0.0
  1.9285796E-007 -3.3601701E-007 0.0
  2.0462388E-007 -3.3641476E-007 0.0
  2.1625348E-007 -3.3579625E-007 0.0
  2.3017358E-007 -3.3393619E-007 0.0
  2.3055848E-007 -3.1868332E-007 0.0
 -9.5665247E-009 -6.6862022E-007 0.0
 -1.0069039E-008 -6.5497146E-007 0.0
 -1.9548417E-008 -6.5761291E-007 0.0
 -2.0487361E-008 -6.6856433E-007 0.0
 -2.7931663E-008 -6.6044856E-007 0.0
 -2.9136117E-008 -6.7063364E-007 0.0
 -3.6485277E-008 -6.6302440E-007 0.0
 -4.5815756E-008 -6.6598018E-007 0.0
 -5.4873297E-008 -6.6911737E-007 0.0
 -6.3647091E-008 -6.7230574E-007 0.0
 -7.2348151E-008 -6.7560951E-007 0.0
 -8.1078355E-008 -6.7910486E-007 0.0
 -8.9867380E-008 -6.8283113E-007 0.0
 -9.8715001E-008 -6.8680436E-007 0.0
 -1.0761745E-007 -6.9100666E-007 0.0
 -1.1658945E-007 -6.9533567E-007 0.0
 -1.2601041E-007 -6.9941601E-007 0.0
 -1.3658490E-007 -7.0317890E-007 0.0
 -1.4871783E-007 -7.0665932E-007 0.0
 -1.6203918E-007 -7.1006253E-007 0.0
 -1.7619164E-007 -7.1333164E-007 0.0
 -1.9089750E-007 -7.1653315E-007 0.0
 -2.0574880E-007 -7.1972334E-007 0.0
 -2.2039743E-007 -7.2280226E-007 0.0
 -2.3469071E-007 -7.2563227E-007 0.0
 -2.4862884E-007 -7.2810935E-007 0.0
 -2.6230114E-007 -7.3017713E-007 0.0
 -2.7583774E-007 -7.3182381E-007 0.0
 -2.8937667E-007 -7.3307283E-007 0.0
 -3.0304133E-007 -7.3397673E-007 0.0
 -3.1691708E-007 -7.3461558E-007 0.0
 -3.3101917E-007 -7.3509150E-007 0.0
 -3.4526884E-007 -7.3550100E-007 0.0
 -3.5951160E-007 -7.3589560E-007 0.0
 -3.7362578E-007 -7.3625796E-007 0.0
 -3.8760149E-007 -7.3657385E-007 0.0
 -4.0235862E-007 -7.3708474E-007 0.0
 -4.0254689E-007 -7.5236301E-007 0.0
  3.7446027E-008 -3.3906141E-007 0.0
  5.4316586E-008 -3.3944555E-007 0.0
  7.0603096E-008 -3.4003396E-007 0.0
  8.5917621E-008 -3.4089220E-007 0.0
  1.0022244E-007 -3.4200159E-007 0.0
  1.1357676E-007 -3.4335240E-007 0.0
  1.2607246E-007 -3.4491484E-007 0.0
  1.3783104E-007 -3.4664229E-007 0.0
  1.4899454E-007 -3.4847671E-007 0.0
  1.5971752E-007 -3.5034494E-007 0.0
  1.7016221E-007 -3.5215167E-007 0.0
  1.8049460E-007 -3.5376664E-007 0.0
  1.9086729E-007 -3.5499178E-007 0.0
  2.0133032E-007 -3.5559455E-007 0.0
  2.1226411E-007 -3.5562908E-007 0.0
  2.2362607E-007 -3.5538830E-007 0.0
  8.5967680E-009 -6.5152582E-007 0.0
  7.8304922E-009 -6.3674550E-007 0.0
 -1.2273443E-009 -6.4016203E-007 0.0
 -2.5074563E-009 -6.5155959E-007 0.0
 -9.5162289E-009 -6.4303866E-007 0.0
 -1.8283556E-008 -6.4601609E-007 0.0
 -2.6910818E-008 -6.4901450E-007 0.0
 -3.5570389E-008 -6.5194033E-007 0.0
 -4.4476541E-008 -6.5490992E-007 0.0
 -5.3406511E-008 -6.5806517E-007 0.0
 -6.2202891E-008 -6.6131349E-007 0.0
 -7.0929072E-008 -6.6461970E-007 0.0
 -7.9667795E-008 -6.6800494E-007 0.0
 -8.8468926E-008 -6.7148803E-007 0.0
 -9.7366697E-008 -6.7505822E-007 0.0
 -1.0641060E-007 -6.7865793E-007 0.0
 -1.1574838E-007 -6.8215256E-007 0.0
 -1.2567283E-007 -6.8542276E-007 0.0
 -1.3655352E-007 -6.8841904E-007 0.0
 -1.4857687E-007 -6.9126242E-007 0.0
 -1.6161047E-007 -6.9405287E-007 0.0
 -1.7540446E-007 -6.9685045E-007 0.0
 -1.8967572E-007 -6.9966779E-007 0.0
 -2.0414268E-007 -7.0248786E-007 0.0
 -2.1856783E-007 -7.0524771E-007 0.0
 -2.3280951E-007 -7.0785090E-007 0.0
 -2.4683038E-007 -7.1020888E-007 0.0
 -2.6066842E-007 -7.1226337E-007 0.0
 -2.7440362E-007 -7.1399107E-007 0.0
 -2.8813011E-007 -7.1540128E-007 0.0
 -3.0193308E-007 -7.1653117E-007 0.0
 -3.1586761E-007 -7.1743951E-007 0.0
 -3.2994069E-007 -7.1819466E-007 0.0
 -3.4410470E-007 -7.1885447E-007 0.0
 -3.5827982E-007 -7.1944111E-007 0.0
 -3.7239776E-007 -7.1993030E-007 0.0
 -3.8651291E-007 -7.2023193E-007 0.0
 -4.0053164E-007 -7.2036976E-007 0.0
  3.8136411E-008 -3.5568173E-007 0.0
  5.5180413E-008 -3.5612582E-007 0.0
  7.1612937E-008 -3.5685964E-007 0.0
  8.6990626E-008 -3.5780351E-007 0.0
  1.0134599E-007 -3.5900702E-007 0.0
  1.1470042E-007 -3.6046780E-007 0.0
  1.2712709E-007 -3.6214407E-007 0.0
  1.3873735E-007 -3.6399424E-007 0.0
  1.4965694E-007 -3.6596687E-007 0.0
  1.6001970E-007 -3.6799779E-007 0.0
  1.6995814E-007 -3.7000464E-007 0.0
  1.7959296E-007 -3.7187407E-007 0.0
  1.8901671E-007 -3.7345085E-007 0.0
  1.9836793E-007 -3.7454351E-007 0.0
  2.0785916E-007 -3.7475155E-007 0.0
  2.1822913E-007 -3.7326086E-007 0.0
  2.3220978E-007 -3.7143757E-007 0.0
  2.3231055E-007 -3.5661517E-007 0.0
  3.1349493E-008 -6.2885053E-007 0.0
  3.0732264E-008 -6.1512929E-007 0.0
  2.2388999E-008 -6.1861354E-007 0.0
  2.1191691E-008 -6.2873760E-007 0.0
  1.5493055E-008 -6.2215111E-007 0.0
  1.3997936E-008 -6.3140158E-007 0.0
  8.3656203E-009 -6.2514375E-007 0.0
 -6.5516496E-011 -6.2836067E-007 0.0
 -8.5587898E-009 -6.3159230E-007 0.0
 -1.7106633E-008 -6.3466284E-007 0.0
 -2.5728762E-008 -6.3771507E-007 0.0
 -3.4406591E-008 -6.4073768E-007 0.0
 -4.3181157E-008 -6.4377956E-007 0.0
 -5.1997270E-008 -6.4688395E-007 0.0
 -6.0793026E-008 -6.5004799E-007 0.0
 -6.9570526E-008 -6.5323839E-007 0.0
 -7.8378731E-008 -6.5643957E-007 0.0
 -8.7272782E-008 -6.5964073E-007 0.0
 -9.6312525E-008 -6.6281409E-007 0.0
 -1.0558824E-007 -6.6590187E-007 0.0
 -1.1524815E-007 -6.6883210E-007 0.0
 -1.2550210E-007 -6.7154957E-007 0.0
 -1.3655640E-007 -6.7407040E-007 0.0
 -1.4850842E-007 -6.7646901E-007 0.0
 -1.6129717E-007 -6.7883923E-007 0.0
 -1.7475151E-007 -6.8123792E-007 0.0
 -1.8865745E-007 -6.8368374E-007 0.0
 -2.0279960E-007 -6.8615691E-007 0.0
 -2.1699800E-007 -6.8860611E-007 0.0
 -2.3113318E-007 -6.9096189E-007 0.0
 -2.4515351E-007 -6.9315534E-007 0.0
 -2.5906466E-007 -6.9513477E-007 0.0
 -2.7290943E-007 -6.9687361E-007 0.0
 -2.8674671E-007 -6.9837121E-007 0.0
 -3.0063235E-007 -6.9964939E-007 0.0
 -3.1460318E-007 -7.0074555E-007 0.0
 -3.2866606E-007 -7.0170175E-007 0.0
 -3.4279744E-007 -7.0255038E-007 0.0
 -3.5695629E-007 -7.0330217E-007 0.0
 -3.7111409E-007 -7.0394324E-007 0.0
 -3.8524875E-007 -7.0449256E-007 0.0
 -3.9914976E-007 -7.0502083E-007 0.0
 -4.1331708E-007 -7.0558876E-007 0.0
 -4.1338803E-007 -7.1999472E-007 0.0
  3.8094219E-008 -3.7282144E-007 0.0
  5.6304946E-008 -3.7261898E-007 0.0
  7.2902766E-008 -3.7305274E-007 0.0
  8.8409352E-008 -3.7394083E-007 0.0
  1.0283441E-007 -3.7520942E-007 0.0
  1.1616335E-007 -3.7673701E-007 0.0
  1.2849513E-007 -3.7849073E-007 0.0
  1.3992813E-007 -3.8043165E-007 0.0
  1.5057798E-007 -3.8251188E-007 0.0
  1.6056549E-007 -3.8468109E-007 0.0
  1.7000234E-007 -3.8688178E-007 0.0
  1.7897877E-007 -3.8904520E-007 0.0
  1.8756527E-007 -3.9108900E-007 0.0
  1.9581116E-007 -3.9288936E-007 0.0
  2.0384497E-007 -3.9423931E-007 0.0
  2.1189604E-007 -3.9476949E-007 0.0
  2.2646086E-007 -3.9182171E-007 0.0
  5.2608881E-008 -6.0722060E-007 0.0
  5.1986687E-008 -5.9368212E-007 0.0
  4.4164375E-008 -5.9747951E-007 0.0
  4.2883962E-008 -6.0705085E-007 0.0
  3.7880682E-008 -6.0120706E-007 0.0
  3.6332259E-008 -6.0977186E-007 0.0
  3.1409948E-008 -6.0438457E-007 0.0
  2.3873573E-008 -6.0788433E-007 0.0
  1.6506251E-008 -6.1129130E-007 0.0
  9.0011113E-009 -6.1442381E-007 0.0
  9.5375180E-010 -6.1741934E-007 0.0
 -7.4330769E-009 -6.2048211E-007 0.0
 -1.5933495E-008 -6.2354517E-007 0.0
 -2.4511535E-008 -6.2657051E-007 0.0
 -3.3166939E-008 -6.2957773E-007 0.0
 -4.1893523E-008 -6.3258180E-007 0.0
 -5.0671530E-008 -6.3559839E-007 0.0
 -5.9479792E-008 -6.3862210E-007 0.0
 -6.8323092E-008 -6.4163306E-007 0.0
 -7.7234570E-008 -6.4460716E-007 0.0
 -8.6266983E-008 -6.4751983E-007 0.0
 -9.5490140E-008 -6.5033942E-007 0.0
 -1.0499877E-007 -6.5302624E-007 0.0
 -1.1491920E-007 -6.5554249E-007 0.0
 -1.2539646E-007 -6.5787492E-007 0.0
 -1.3655516E-007 -6.6004929E-007 0.0
 -1.4844991E-007 -6.6212766E-007 0.0
 -1.6104146E-007 -6.6417973E-007 0.0
 -1.7421396E-007 -6.6625785E-007 0.0
 -1.8781053E-007 -6.6838274E-007 0.0
 -2.0166849E-007 -6.7054397E-007 0.0
 -2.1564673E-007 -6.7270588E-007 0.0
 -2.2964404E-007 -6.7481833E-007 0.0
 -2.4360557E-007 -6.7682968E-007 0.0
 -2.5751846E-007 -6.7869796E-007 0.0
 -2.7140026E-007 -6.8039788E-007 0.0
 -2.8528446E-007 -6.8192292E-007 0.0
 -2.9920640E-007 -6.8328307E-007 0.0
 -3.1319160E-007 -6.8449933E-007 0.0
 -3.2724869E-007 -6.8559547E-007 0.0
 -3.4136867E-007 -6.8658935E-007 0.0
 -3.5553139E-007 -6.8748727E-007 0.0
 -3.6971035E-007 -6.8829042E-007 0.0
 -3.8384713E-007 -6.8899737E-007 0.0
 -3.9791827E-007 -6.8952873E-007 0.0
 -4.1176094E-007 -6.8981793E-007 0.0
  5.8066763E-008 -3.8745755E-007 0.0
  7.4418619E-008 -3.8826891E-007 0.0
  9.0217471E-008 -3.8929065E-007 0.0
  1.0465549E-007 -3.9054109E-007 0.0
  1.1795600E-007 -3.9206895E-007 0.0
  1.3017373E-007 -3.9385584E-007 0.0
  1.4140116E-007 -3.9583826E-007 0.0
  1.5175900E-007 -3.9797352E-007 0.0
  1.6136471E-007 -4.0022508E-007 0.0
  1.7032319E-007 -4.0256221E-007 0.0
  1.7871588E-007 -4.0496233E-007 0.0
  1.8659227E-007 -4.0741309E-007 0.0
  1.9398397E-007 -4.0992918E-007 0.0
  2.0089148E-007 -4.1259962E-007 0.0
  2.0780975E-007 -4.1574905E-007 0.0
  2.1252555E-007 -4.1873752E-007 0.0
  8.7322086E-008 -5.7535184E-007 0.0
  8.6920100E-008 -5.6440954E-007 0.0
  8.0017588E-008 -5.6721596E-007 0.0
  7.9061647E-008 -5.7516704E-007 0.0
  7.4207841E-008 -5.7005512E-007 0.0
  7.3124773E-008 -5.7676548E-007 0.0
  6.8849266E-008 -5.7309971E-007 0.0
  6.7555140E-008 -5.7941399E-007 0.0
  6.3637180E-008 -5.7653672E-007 0.0
  6.2170186E-008 -5.8287368E-007 0.0
  5.8577933E-008 -5.8034462E-007 0.0
  5.6798860E-008 -5.8735039E-007 0.0
  5.2767312E-008 -5.8377461E-007 0.0
  4.5766245E-008 -5.8753413E-007 0.0
  3.9005096E-008 -5.9114866E-007 0.0
  3.2208867E-008 -5.9447324E-007 0.0
  2.4999423E-008 -5.9763110E-007 0.0
  1.7533387E-008 -6.0078741E-007 0.0
  9.8711470E-009 -6.0382242E-007 0.0
  1.8993622E-009 -6.0676958E-007 0.0
 -6.3482986E-009 -6.0970049E-007 0.0
 -1.4774465E-008 -6.1264118E-007 0.0
 -2.3313233E-008 -6.1557389E-007 0.0
 -3.1942944E-008 -6.1848847E-007 0.0
 -4.0653533E-008 -6.2138663E-007 0.0
 -4.9434546E-008 -6.2426654E-007 0.0
 -5.8281623E-008 -6.2711825E-007 0.0
 -6.7205442E-008 -6.2992277E-007 0.0
 -7.6236248E-008 -6.3265649E-007 0.0
 -8.5422957E-008 -6.3529372E-007 0.0
 -9.4832412E-008 -6.3780770E-007 0.0
 -1.0454976E-007 -6.4017322E-007 0.0
 -1.1467514E-007 -6.4237451E-007 0.0
 -1.2531033E-007 -6.4441523E-007 0.0
 -1.3653454E-007 -6.4632466E-007 0.0
 -1.4837891E-007 -6.4815202E-007 0.0
 -1.6081428E-007 -6.4995193E-007 0.0
 -1.7375846E-007 -6.5176760E-007 0.0
 -1.8709684E-007 -6.5362087E-007 0.0
 -2.0070616E-007 -6.5550984E-007 0.0
 -2.1447508E-007 -6.5741282E-007 0.0
 -2.2831821E-007 -6.5929592E-007 0.0
 -2.4218225E-007 -6.6112208E-007 0.0
 -2.5604476E-007 -6.6285919E-007 0.0
 -2.6990757E-007 -6.6448559E-007 0.0
 -2.8378736E-007 -6.6599226E-007 0.0
 -2.9770593E-007 -6.6738165E-007 0.0
 -3.1168193E-007 -6.6866383E-007 0.0
 -3.2572553E-007 -6.6985088E-007 0.0
 -3.3983652E-007 -6.7095145E-007 0.0
 -3.5400446E-007 -6.7196798E-007 0.0
 -3.6820574E-007 -6.7289678E-007 0.0
 -3.8241034E-007 -6.7372297E-007 0.0
 -3.9657807E-007 -6.7445522E-007 0.0
 -4.1059876E-007 -6.7511364E-007 0.0
 -4.2470684E-007 -6.7554914E-007 0.0
 -4.2466976E-007 -6.8960584E-007 0.0
  5.8084265E-008 -4.0372176E-007 0.0
  7.6408322E-008 -4.0326739E-007 0.0
  9.2261648E-008 -4.0379337E-007 0.0
  1.0678765E-007 -4.0486241E-007 0.0
  1.2008141E-007 -4.0638006E-007 0.0
  1.3214997E-007 -4.0814509E-007 0.0
  1.4314175E-007 -4.1010776E-007 0.0
  1.5318010E-007 -4.1222824E-007 0.0
  1.6239136E-007 -4.1447548E-007 0.0
  1.7088814E-007 -4.1683858E-007 0.0
  1.7875317E-007 -4.1932386E-007 0.0
  1.8603507E-007 -4.2195648E-007 0.0
  1.9274166E-007 -4.2478106E-007 0.0
  1.9888094E-007 -4.2784726E-007 0.0
  2.0405606E-007 -4.3084732E-007 0.0
  2.0629538E-007 -4.3341106E-007 0.0
  2.0411308E-007 -4.3652542E-007 0.0
  2.0723055E-007 -4.2234094E-007 0.0
  1.1104054E-007 -5.5535336E-007 0.0
  1.1062880E-007 -5.4451260E-007 0.0
  1.0383291E-007 -5.4729337E-007 0.0
  1.0288617E-007 -5.5518375E-007 0.0
  9.8200406E-008 -5.5015092E-007 0.0
  9.7129458E-008 -5.5684824E-007 0.0
  9.3123621E-008 -5.5316123E-007 0.0
  9.1767268E-008 -5.5983538E-007 0.0
  8.7641330E-008 -5.5594863E-007 0.0
  8.1410114E-008 -5.5908653E-007 0.0
  7.5583286E-008 -5.6234329E-007 0.0
  7.0158540E-008 -5.6558898E-007 0.0
  6.4891203E-008 -5.6884388E-007 0.0
  5.9452676E-008 -5.7200424E-007 0.0
  5.3487728E-008 -5.7513694E-007 0.0
  4.6922266E-008 -5.7828291E-007 0.0
  4.0096771E-008 -5.8151232E-007 0.0
  3.3139571E-008 -5.8463815E-007 0.0
  2.5941631E-008 -5.8765519E-007 0.0
  1.8490081E-008 -5.9059650E-007 0.0
  1.0796587E-008 -5.9348045E-007 0.0
  2.8567739E-009 -5.9631134E-007 0.0
 -5.3144176E-009 -5.9911889E-007 0.0
 -1.3670605E-008 -6.0191986E-007 0.0
 -2.2167759E-008 -6.0471287E-007 0.0
 -3.0778722E-008 -6.0748818E-007 0.0
 -3.9490345E-008 -6.1023640E-007 0.0
 -4.8296967E-008 -6.1294745E-007 0.0
 -5.7200788E-008 -6.1560683E-007 0.0
 -6.6215848E-008 -6.1819558E-007 0.0
 -7.5370778E-008 -6.2069206E-007 0.0
 -8.4709587E-008 -6.2307440E-007 0.0
 -9.4290994E-008 -6.2532288E-007 0.0
 -1.0418610E-007 -6.2742330E-007 0.0
 -1.1447244E-007 -6.2937170E-007 0.0
 -1.2522270E-007 -6.3117921E-007 0.0
 -1.3648922E-007 -6.3287339E-007 0.0
 -1.4828965E-007 -6.3449404E-007 0.0
 -1.6060031E-007 -6.3608399E-007 0.0
 -1.7336027E-007 -6.3767892E-007 0.0
 -1.8648387E-007 -6.3930006E-007 0.0
 -1.9987661E-007 -6.4095174E-007 0.0
 -2.1345003E-007 -6.4262322E-007 0.0
 -2.2713246E-007 -6.4429364E-007 0.0
 -2.4087464E-007 -6.4593810E-007 0.0
 -2.5465021E-007 -6.4753352E-007 0.0
 -2.6845210E-007 -6.4906285E-007 0.0
 -2.8228680E-007 -6.5051703E-007 0.0
 -2.9616782E-007 -6.5189455E-007 0.0
 -3.1010995E-007 -6.5319905E-007 0.0
 -3.2412508E-007 -6.5443543E-007 0.0
 -3.3821941E-007 -6.5560593E-007 0.0
 -3.5239085E-007 -6.5670683E-007 0.0
 -3.6662664E-007 -6.5772626E-007 0.0
 -3.8089938E-007 -6.5864905E-007 0.0
 -3.9515533E-007 -6.5945847E-007 0.0
 -4.0939521E-007 -6.6012467E-007 0.0
 -4.2393678E-007 -6.6061359E-007 0.0
  7.9369909E-008 -4.1566768E-007 0.0
  9.4532569E-008 -4.1686781E-007 0.0
  1.0934059E-007 -4.1814991E-007 0.0
  1.2251362E-007 -4.1958812E-007 0.0
  1.3441210E-007 -4.2126309E-007 0.0
  1.4513007E-007 -4.2315115E-007 0.0
  1.5480359E-007 -4.2517729E-007 0.0
  1.6358954E-007 -4.2731577E-007 0.0
  1.7161566E-007 -4.2956680E-007 0.0
  1.7897073E-007 -4.3194782E-007 0.0
  1.8569435E-007 -4.3448469E-007 0.0
  1.9176710E-007 -4.3719619E-007 0.0
  1.9701951E-007 -4.4003059E-007 0.0
  2.0088086E-007 -4.4291544E-007 0.0
  2.0242693E-007 -4.4618285E-007 0.0
  2.0135561E-007 -4.5085071E-007 0.0
  1.9888342E-007 -4.5812430E-007 0.0
  2.0252750E-007 -4.3946516E-007 0.0
  1.3041009E-007 -5.3824996E-007 0.0
  1.2992123E-007 -5.2567744E-007 0.0
  1.2261575E-007 -5.2940777E-007 0.0
  1.2142414E-007 -5.3797117E-007 0.0
  1.1693523E-007 -5.3291619E-007 0.0
  1.1556938E-007 -5.4020101E-007 0.0
  1.1136263E-007 -5.3589806E-007 0.0
  1.0519253E-007 -5.3910998E-007 0.0
  9.9479884E-008 -5.4234064E-007 0.0
  9.4061565E-008 -5.4536130E-007 0.0
  8.8499786E-008 -5.4829476E-007 0.0
  8.2694693E-008 -5.5128081E-007 0.0
  7.6942197E-008 -5.5441944E-007 0.0
  7.1395164E-008 -5.5756518E-007 0.0
  6.5906247E-008 -5.6061765E-007 0.0
  6.0246956E-008 -5.6356357E-007 0.0
  5.4217740E-008 -5.6643014E-007 0.0
  4.7773708E-008 -5.6930285E-007 0.0
  4.1020444E-008 -5.7219025E-007 0.0
  3.4035217E-008 -5.7506199E-007 0.0
  2.6826025E-008 -5.7787813E-007 0.0
  1.9381442E-008 -5.8064040E-007 0.0
  1.1702122E-008 -5.8335685E-007 0.0
  3.7939377E-009 -5.8603955E-007 0.0
 -4.3264050E-009 -5.8870018E-007 0.0
 -1.2632321E-008 -5.9134708E-007 0.0
 -2.1095505E-008 -5.9397909E-007 0.0
 -2.9694870E-008 -5.9658789E-007 0.0
 -3.8418601E-008 -5.9916140E-007 0.0
 -4.7263264E-008 -6.0168529E-007 0.0
 -5.6233648E-008 -6.0414292E-007 0.0
 -6.5344190E-008 -6.0651570E-007 0.0
 -7.4620611E-008 -6.0878473E-007 0.0
 -8.4100645E-008 -6.1093292E-007 0.0
 -9.3833340E-008 -6.1294723E-007 0.0
 -1.0387615E-007 -6.1482114E-007 0.0
 -1.1428892E-007 -6.1655714E-007 0.0
 -1.2512476E-007 -6.1816865E-007 0.0
 -1.3641936E-007 -6.1967985E-007 0.0
 -1.4818219E-007 -6.2112263E-007 0.0
 -1.6039275E-007 -6.2253090E-007 0.0
 -1.7300350E-007 -6.2393419E-007 0.0
 -1.8594815E-007 -6.2535264E-007 0.0
 -1.9915258E-007 -6.2679473E-007 0.0
 -2.1254560E-007 -6.2825788E-007 0.0
 -2.2606716E-007 -6.2973127E-007 0.0
 -2.3967321E-007 -6.3119986E-007 0.0
 -2.5333694E-007 -6.3264840E-007 0.0
 -2.6704715E-007 -6.3406460E-007 0.0
 -2.8080482E-007 -6.3544082E-007 0.0
 -2.9461895E-007 -6.3677414E-007 0.0
 -3.0850272E-007 -6.3806492E-007 0.0
 -3.2247046E-007 -6.3931414E-007 0.0
 -3.3653509E-007 -6.4051993E-007 0.0
 -3.5070511E-007 -6.4167351E-007 0.0
 -3.6497949E-007 -6.4275583E-007 0.0
 -3.7933918E-007 -6.4373488E-007 0.0
 -3.9375171E-007 -6.4456132E-007 0.0
 -4.0816913E-007 -6.4517892E-007 0.0
 -4.2272847E-007 -6.4573526E-007 0.0
  7.9457578E-008 -4.3051901E-007 0.0
  9.7454183E-008 -4.2978850E-007 0.0
  1.1212211E-007 -4.3037286E-007 0.0
  1.2524783E-007 -4.3153464E-007 0.0
  1.3697663E-007 -4.3314010E-007 0.0
  1.4734143E-007 -4.3489886E-007 0.0
  1.5658310E-007 -4.3675057E-007 0.0
  1.6488879E-007 -4.3867649E-007 0.0
  1.7240852E-007 -4.4068208E-007 0.0
  1.7923486E-007 -4.4278937E-007 0.0
  1.8539237E-007 -4.4501706E-007 0.0
  1.9081693E-007 -4.4736514E-007 0.0
  1.9529854E-007 -4.4982816E-007 0.0
  1.9845069E-007 -4.5249149E-007 0.0
  1.9985279E-007 -4.5566626E-007 0.0
  1.9937918E-007 -4.5982066E-007 0.0
  1.9637174E-007 -4.6486381E-007 0.0
  1.8738801E-007 -4.7047957E-007 0.0
  1.8352555E-007 -4.7486186E-007 0.0
  1.7709162E-007 -4.7857508E-007 0.0
  1.7425598E-007 -4.8476925E-007 0.0
  1.6864342E-007 -4.8570049E-007 0.0
  1.6605712E-007 -4.9197823E-007 0.0
  1.6115736E-007 -4.9193296E-007 0.0
  1.5885921E-007 -4.9805364E-007 0.0
  1.5437606E-007 -4.9754709E-007 0.0
  1.5225138E-007 -5.0349854E-007 0.0
  1.4811417E-007 -5.0277636E-007 0.0
  1.4608853E-007 -5.0861534E-007 0.0
  1.4227072E-007 -5.0779261E-007 0.0
  1.4030924E-007 -5.1365540E-007 0.0
  1.3683835E-007 -5.1265835E-007 0.0
  1.3477380E-007 -5.1904792E-007 0.0
  1.3095452E-007 -5.1677790E-007 0.0
  1.2428673E-007 -5.2092601E-007 0.0
  1.1817394E-007 -5.2471689E-007 0.0
  1.1233896E-007 -5.2812402E-007 0.0
  1.0647249E-007 -5.3133422E-007 0.0
  1.0071261E-007 -5.3451394E-007 0.0
  9.5109467E-008 -5.3758287E-007 0.0
  8.9499637E-008 -5.4054154E-007 0.0
  8.3815048E-008 -5.4348907E-007 0.0
  7.8130572E-008 -5.4645891E-007 0.0
  7.2490968E-008 -5.4941225E-007 0.0
  6.6832280E-008 -5.5228437E-007 0.0
  6.1017330E-008 -5.5505201E-007 0.0
  5.4926551E-008 -5.5774364E-007 0.0
  4.8515035E-008 -5.6040099E-007 0.0
  4.1808083E-008 -5.6305133E-007 0.0
  3.4845552E-008 -5.6568787E-007 0.0
  2.7646805E-008 -5.6829777E-007 0.0
  2.0217781E-008 -5.7087337E-007 0.0
  1.2561891E-008 -5.7341696E-007 0.0
  4.6867449E-009 -5.7593413E-007 0.0
 -3.3944661E-009 -5.7843092E-007 0.0
 -1.1663955E-008 -5.8090978E-007 0.0
 -2.0103587E-008 -5.8336776E-007 0.0
 -2.8699040E-008 -5.8579635E-007 0.0
 -3.7442173E-008 -5.8818287E-007 0.0
 -4.6331545E-008 -5.9051183E-007 0.0
 -5.5372562E-008 -5.9276600E-007 0.0
 -6.4578028E-008 -5.9492778E-007 0.0
 -7.3969103E-008 -5.9698104E-007 0.0
 -8.3576133E-008 -5.9891322E-007 0.0
 -9.3438450E-008 -6.0071696E-007 0.0
 -1.0360194E-007 -6.0239120E-007 0.0
 -1.1411360E-007 -6.0394187E-007 0.0
 -1.2501372E-007 -6.0538214E-007 0.0
 -1.3632753E-007 -6.0673198E-007 0.0
 -1.4805916E-007 -6.0801639E-007 0.0
 -1.6018960E-007 -6.0926213E-007 0.0
 -1.7267931E-007 -6.1049386E-007 0.0
 -1.8547450E-007 -6.1173062E-007 0.0
 -1.9851515E-007 -6.1298375E-007 0.0
 -2.1174287E-007 -6.1425664E-007 0.0
 -2.2510720E-007 -6.1554614E-007 0.0
 -2.3856963E-007 -6.1684495E-007 0.0
 -2.5210508E-007 -6.1814433E-007 0.0
 -2.6570133E-007 -6.1943638E-007 0.0
 -2.7935707E-007 -6.2071550E-007 0.0
 -2.9307946E-007 -6.2197874E-007 0.0
 -3.0688167E-007 -6.2322518E-007 0.0
 -3.2078114E-007 -6.2445418E-007 0.0
 -3.3479826E-007 -6.2566262E-007 0.0
 -3.4895431E-007 -6.2684030E-007 0.0
 -3.6326557E-007 -6.2796384E-007 0.0
 -3.7773269E-007 -6.2899127E-007 0.0
 -3.9232431E-007 -6.2986777E-007 0.0
 -4.0698358E-007 -6.3054250E-007 0.0
 -4.2124968E-007 -6.3101465E-007 0.0
  1.0167298E-007 -4.3915007E-007 0.0
  1.1513946E-007 -4.4073766E-007 0.0
  1.2846940E-007 -4.4222941E-007 0.0
  1.3983238E-007 -4.4372306E-007 0.0
  1.4975803E-007 -4.4529014E-007 0.0
  1.5847247E-007 -4.4690463E-007 0.0
  1.6621790E-007 -4.4852519E-007 0.0
  1.7318042E-007 -4.5017916E-007 0.0
  1.7944640E-007 -4.5189690E-007 0.0
  1.8501976E-007 -4.5369139E-007 0.0
  1.8981994E-007 -4.5556411E-007 0.0
  1.9367054E-007 -4.5752945E-007 0.0
  1.9631492E-007 -4.5965350E-007 0.0
  1.9748170E-007 -4.6205462E-007 0.0
  1.9682723E-007 -4.6474789E-007 0.0
  1.9346970E-007 -4.6765249E-007 0.0
  1.8695749E-007 -4.7148723E-007 0.0
  1.7876751E-007 -4.7633862E-007 0.0
  1.7059422E-007 -4.8192083E-007 0.0
  1.6313244E-007 -4.8736991E-007 0.0
  1.5626981E-007 -4.9251987E-007 0.0
  1.4989872E-007 -4.9736701E-007 0.0
  1.4390771E-007 -5.0192047E-007 0.0
  1.3803474E-007 -5.0608244E-007 0.0
  1.3196789E-007 -5.0996035E-007 0.0
  1.2566822E-007 -5.1364091E-007 0.0
  1.1946713E-007 -5.1723976E-007 0.0
  1.1348645E-007 -5.2062850E-007 0.0
  1.0762320E-007 -5.2384123E-007 0.0
  1.0185675E-007 -5.2693439E-007 0.0
  9.6172071E-008 -5.2992951E-007 0.0
  9.0516691E-008 -5.3283715E-007 0.0
  8.4847284E-008 -5.3568888E-007 0.0
  7.9162173E-008 -5.3850649E-007 0.0
  7.3456577E-008 -5.4127498E-007 0.0
  6.7682351E-008 -5.4396705E-007 0.0
  6.1759006E-008 -5.4657083E-007 0.0
  5.5610302E-008 -5.4909964E-007 0.0
  4.9195736E-008 -5.5158084E-007 0.0
  4.2512632E-008 -5.5403513E-007 0.0
  3.5575893E-008 -5.5647001E-007 0.0
  2.8400094E-008 -5.5888333E-007 0.0
  2.0994463E-008 -5.6127247E-007 0.0
  1.3365903E-008 -5.6363724E-007 0.0
  5.5221146E-009 -5.6597973E-007 0.0
 -2.5267937E-009 -5.6830182E-007 0.0
 -1.0769054E-008 -5.7060301E-007 0.0
 -1.9193343E-008 -5.7287882E-007 0.0
 -2.7791152E-008 -5.7512052E-007 0.0
 -3.6558285E-008 -5.7731557E-007 0.0
 -4.5495352E-008 -5.7944859E-007 0.0
 -5.4607623E-008 -5.8150264E-007 0.0
 -6.3904958E-008 -5.8346111E-007 0.0
 -7.3402449E-008 -5.8531022E-007 0.0
 -8.3121913E-008 -5.8704131E-007 0.0
 -9.3093242E-008 -5.8865200E-007 0.0
 -1.0335334E-007 -5.9014561E-007 0.0
 -1.1394109E-007 -5.9152993E-007 0.0
 -1.2488935E-007 -5.9281637E-007 0.0
 -1.3621705E-007 -5.9402003E-007 0.0
 -1.4792431E-007 -5.9515946E-007 0.0
 -1.5999182E-007 -5.9625556E-007 0.0
 -1.7238397E-007 -5.9732920E-007 0.0
 -1.8505442E-007 -5.9839866E-007 0.0
 -1.9795247E-007 -5.9947749E-007 0.0
 -2.1102911E-007 -6.0057362E-007 0.0
 -2.2424177E-007 -6.0168973E-007 0.0
 -2.3755743E-007 -6.0282448E-007 0.0
 -2.5095400E-007 -6.0397429E-007 0.0
 -2.6442027E-007 -6.0513492E-007 0.0
 -2.7795490E-007 -6.0630275E-007 0.0
 -2.9156497E-007 -6.0747531E-007 0.0
 -3.0526470E-007 -6.0865116E-007 0.0
 -3.1907467E-007 -6.0982914E-007 0.0
 -3.3302218E-007 -6.1100704E-007 0.0
 -3.4714233E-007 -6.1217788E-007 0.0
 -3.6147521E-007 -6.1332149E-007 0.0
 -3.7604841E-007 -6.1439448E-007 0.0
 -3.9083856E-007 -6.1533413E-007 0.0
 -4.0571037E-007 -6.1611609E-007 0.0
 -4.2045682E-007 -6.1668157E-007 0.0
 -4.3503459E-007 -6.1689962E-007 0.0
 -4.3485074E-007 -6.3104083E-007 0.0
  1.0183281E-007 -4.5206673E-007 0.0
  1.1900745E-007 -4.5105603E-007 0.0
  1.3197630E-007 -4.5169923E-007 0.0
  1.4300791E-007 -4.5287515E-007 0.0
  1.5238992E-007 -4.5429470E-007 0.0
  1.6041489E-007 -4.5560277E-007 0.0
  1.6751388E-007 -4.5683902E-007 0.0
  1.7387343E-007 -4.5808032E-007 0.0
  1.7955181E-007 -4.5935627E-007 0.0
  1.8453286E-007 -4.6067229E-007 0.0
  1.8873377E-007 -4.6202474E-007 0.0
  1.9200758E-007 -4.6341727E-007 0.0
  1.9415282E-007 -4.6487021E-007 0.0
  1.9491333E-007 -4.6640322E-007 0.0
  1.9391981E-007 -4.6803482E-007 0.0
  1.9079323E-007 -4.6994733E-007 0.0
  1.8550583E-007 -4.7243310E-007 0.0
  1.7876118E-007 -4.7575827E-007 0.0
  1.7151578E-007 -4.7973902E-007 0.0
  1.6439480E-007 -4.8405268E-007 0.0
  1.5763210E-007 -4.8837804E-007 0.0
  1.5122109E-007 -4.9256583E-007 0.0
  1.4506333E-007 -4.9652839E-007 0.0
  1.3900174E-007 -5.0024463E-007 0.0
  1.3288819E-007 -5.0374315E-007 0.0
  1.2670795E-007 -5.0712021E-007 0.0
  1.2057496E-007 -5.1040351E-007 0.0
  1.1456437E-007 -5.1358590E-007 0.0
  1.0867770E-007 -5.1664824E-007 0.0
  1.0288744E-007 -5.1960347E-007 0.0
  9.7165379E-008 -5.2246516E-007 0.0
  9.1475726E-008 -5.2524635E-007 0.0
  8.5786101E-008 -5.2796098E-007 0.0
  8.0073083E-008 -5.3061670E-007 0.0
  7.4310734E-008 -5.3320900E-007 0.0
  6.8457350E-008 -5.3572711E-007 0.0
  6.2457978E-008 -5.3816692E-007 0.0
  5.6260643E-008 -5.4053690E-007 0.0
  4.9831261E-008 -5.4285364E-007 0.0
  4.3157307E-008 -5.4513326E-007 0.0
  3.6240742E-008 -5.4738547E-007 0.0
  2.9088828E-008 -5.4961413E-007 0.0
  2.1709110E-008 -5.5182012E-007 0.0
  1.4108424E-008 -5.5400402E-007 0.0
  6.2936249E-009 -5.5616646E-007 0.0
 -1.7279762E-009 -5.5830744E-007 0.0
 -9.9490440E-009 -5.6042491E-007 0.0
 -1.8363412E-008 -5.6251384E-007 0.0
 -2.6967372E-008 -5.6456578E-007 0.0
 -3.5760487E-008 -5.6656897E-007 0.0
 -4.4745570E-008 -5.6850882E-007 0.0
 -5.3927772E-008 -5.7036896E-007 0.0
 -6.3313436E-008 -5.7213329E-007 0.0
 -7.2910008E-008 -5.7378921E-007 0.0
 -8.2728876E-008 -5.7533127E-007 0.0
 -9.2790112E-008 -5.7676192E-007 0.0
 -1.0312453E-007 -5.7808903E-007 0.0
 -1.1376823E-007 -5.7932135E-007 0.0
 -1.2475186E-007 -5.8046729E-007 0.0
 -1.3609102E-007 -5.8153590E-007 0.0
 -1.4778188E-007 -5.8253945E-007 0.0
 -1.5980253E-007 -5.8349395E-007 0.0
 -1.7211767E-007 -5.8441781E-007 0.0
 -1.8468450E-007 -5.8532925E-007 0.0
 -1.9745820E-007 -5.8624389E-007 0.0
 -2.1039660E-007 -5.8717328E-007 0.0
 -2.2346370E-007 -5.8812455E-007 0.0
 -2.3663183E-007 -5.8910083E-007 0.0
 -2.4988271E-007 -5.9010237E-007 0.0
 -2.6320750E-007 -5.9112773E-007 0.0
 -2.7660630E-007 -5.9217479E-007 0.0
 -2.9008746E-007 -5.9324136E-007 0.0
 -3.0366692E-007 -5.9432529E-007 0.0
 -3.1736817E-007 -5.9542436E-007 0.0
 -3.3122314E-007 -5.9653632E-007 0.0
 -3.4527718E-007 -5.9765976E-007 0.0
 -3.5959734E-007 -5.9878728E-007 0.0
 -3.7426114E-007 -5.9988093E-007 0.0
 -3.8928506E-007 -6.0084952E-007 0.0
 -4.0450181E-007 -6.0156065E-007 0.0
 -4.1977562E-007 -6.0194456E-007 0.0
 -4.3518011E-007 -6.0194983E-007 0.0
  1.2451955E-007 -4.5689941E-007 0.0
  1.3588231E-007 -4.5897524E-007 0.0
  1.4678701E-007 -4.6067517E-007 0.0
  1.5516470E-007 -4.6187706E-007 0.0
  1.6233706E-007 -4.6275353E-007 0.0
  1.6873952E-007 -4.6358013E-007 0.0
  1.7446767E-007 -4.6441288E-007 0.0
  1.7954237E-007 -4.6526161E-007 0.0
  1.8392793E-007 -4.6611709E-007 0.0
  1.8754234E-007 -4.6696731E-007 0.0
  1.9025724E-007 -4.6780605E-007 0.0
  1.9189893E-007 -4.6863699E-007 0.0
  1.9224657E-007 -4.6948082E-007 0.0
  1.9105851E-007 -4.7041109E-007 0.0
  1.8816294E-007 -4.7157990E-007 0.0
  1.8363555E-007 -4.7321235E-007 0.0
  1.7788106E-007 -4.7545188E-007 0.0
  1.7146475E-007 -4.7827871E-007 0.0
  1.6486355E-007 -4.8150868E-007 0.0
  1.5834668E-007 -4.8493140E-007 0.0
  1.5200477E-007 -4.8837239E-007 0.0
  1.4581427E-007 -4.9172835E-007 0.0
  1.3970078E-007 -4.9495416E-007 0.0
  1.3359808E-007 -4.9806178E-007 0.0
  1.2749590E-007 -5.0108416E-007 0.0
  1.2143565E-007 -5.0404692E-007 0.0
  1.1545948E-007 -5.0694680E-007 0.0
  1.0957869E-007 -5.0977523E-007 0.0
  1.0378117E-007 -5.1252712E-007 0.0
  9.8041959E-008 -5.1520468E-007 0.0
  9.2331164E-008 -5.1781260E-007 0.0
  8.6618243E-008 -5.2035579E-007 0.0
  8.0873763E-008 -5.2283614E-007 0.0
  7.5065864E-008 -5.2525101E-007 0.0
  6.9156617E-008 -5.2759613E-007 0.0
  6.3103956E-008 -5.2987076E-007 0.0
  5.6868900E-008 -5.3208062E-007 0.0
  5.0422973E-008 -5.3423640E-007 0.0
  4.3750924E-008 -5.3634960E-007 0.0
  3.6848333E-008 -5.3842924E-007 0.0
  2.9717062E-008 -5.4048081E-007 0.0
  2.2361545E-008 -5.4250723E-007 0.0
  1.4786888E-008 -5.4450997E-007 0.0
  6.9981633E-009 -5.4648962E-007 0.0
 -9.9995234E-010 -5.4844561E-007 0.0
 -9.2037271E-009 -5.5037559E-007 0.0
 -1.7611124E-008 -5.5227477E-007 0.0
 -2.6222507E-008 -5.5413563E-007 0.0
 -3.5040962E-008 -5.5594785E-007 0.0
 -4.4071878E-008 -5.5769849E-007 0.0
 -5.3321306E-008 -5.5937220E-007 0.0
 -6.2792553E-008 -5.6095241E-007 0.0
 -7.2483993E-008 -5.6242603E-007 0.0
 -8.2392323E-008 -5.6378888E-007 0.0
 -9.2525340E-008 -5.6504985E-007 0.0
 -1.0291143E-007 -5.6622191E-007 0.0
 -1.1359159E-007 -5.6731507E-007 0.0
 -1.2460049E-007 -5.6833152E-007 0.0
 -1.3595205E-007 -5.6927317E-007 0.0
 -1.4763683E-007 -5.7014578E-007 0.0
 -1.5962685E-007 -5.7096228E-007 0.0
 -1.7188377E-007 -5.7174032E-007 0.0
 -1.8436528E-007 -5.7249916E-007 0.0
 -1.9703008E-007 -5.7325660E-007 0.0
 -2.0984118E-007 -5.7402719E-007 0.0
 -2.2276828E-007 -5.7482136E-007 0.0
 -2.3578905E-007 -5.7564544E-007 0.0
 -2.4888961E-007 -5.7650232E-007 0.0
 -2.6206441E-007 -5.7739232E-007 0.0
 -2.7531601E-007 -5.7831417E-007 0.0
 -2.8865491E-007 -5.7926562E-007 0.0
 -3.0209963E-007 -5.8024341E-007 0.0
 -3.1567684E-007 -5.8124271E-007 0.0
 -3.2942210E-007 -5.8225718E-007 0.0
 -3.4338201E-007 -5.8328168E-007 0.0
 -3.5763687E-007 -5.8432513E-007 0.0
 -3.7234301E-007 -5.8538480E-007 0.0
 -3.8765758E-007 -5.8634705E-007 0.0
 -4.0344685E-007 -5.8699324E-007 0.0
 -4.1895643E-007 -5.8736298E-007 0.0
  1.2461712E-007 -4.6774769E-007 0.0
  1.4122998E-007 -4.6649233E-007 0.0
  1.5091643E-007 -4.6723690E-007 0.0
  1.5789818E-007 -4.6769051E-007 0.0
  1.6422274E-007 -4.6819126E-007 0.0
  1.6990689E-007 -4.6870154E-007 0.0
  1.7498971E-007 -4.6921466E-007 0.0
  1.7944745E-007 -4.6971171E-007 0.0
  1.8323348E-007 -4.7017467E-007 0.0
  1.8626936E-007 -4.7059095E-007 0.0
  1.8844296E-007 -4.7095707E-007 0.0
  1.8961001E-007 -4.7128414E-007 0.0
  1.8960662E-007 -4.7161044E-007 0.0
  1.8828237E-007 -4.7201674E-007 0.0
  1.8556696E-007 -4.7263568E-007 0.0
  1.8154510E-007 -4.7361864E-007 0.0
  1.7647817E-007 -4.7507546E-007 0.0
  1.7072756E-007 -4.7701408E-007 0.0
  1.6463450E-007 -4.7934793E-007 0.0
  1.5843989E-007 -4.8193924E-007 0.0
  1.5226817E-007 -4.8465585E-007 0.0
  1.4615476E-007 -4.8739945E-007 0.0
  1.4008684E-007 -4.9011747E-007 0.0
  1.3404377E-007 -4.9279490E-007 0.0
  1.2802377E-007 -4.9543846E-007 0.0
  1.2204557E-007 -4.9805480E-007 0.0
  1.1613046E-007 -5.0064231E-007 0.0
  1.1028695E-007 -5.0319255E-007 0.0
  1.0450751E-007 -5.0569759E-007 0.0
  9.8772912E-008 -5.0815226E-007 0.0
  9.3057131E-008 -5.1055417E-007 0.0
  8.7331182E-008 -5.1290190E-007 0.0
  8.1564627E-008 -5.1519334E-007 0.0
  7.5725218E-008 -5.1742532E-007 0.0
  6.9778563E-008 -5.1959489E-007 0.0
  6.3689868E-008 -5.2170164E-007 0.0
  5.7427710E-008 -5.2374895E-007 0.0
  5.0967845E-008 -5.2574341E-007 0.0
  4.4294955E-008 -5.2769280E-007 0.0
  3.7401830E-008 -5.2960413E-007 0.0
  3.0286985E-008 -5.3148260E-007 0.0
  2.2952132E-008 -5.3333167E-007 0.0
  1.5400260E-008 -5.3515340E-007 0.0
  7.6343845E-009 -5.3694868E-007 0.0
 -3.4331747E-010 -5.3871719E-007 0.0
 -8.5321986E-009 -5.4045695E-007 0.0
 -1.6933706E-008 -5.4216400E-007 0.0
 -2.5551723E-008 -5.4383217E-007 0.0
 -3.4392558E-008 -5.4545314E-007 0.0
 -4.3464441E-008 -5.4701665E-007 0.0
 -5.2775897E-008 -5.4851012E-007 0.0
 -6.2331009E-008 -5.4991739E-007 0.0
 -7.2118267E-008 -5.5122012E-007 0.0
 -8.2112039E-008 -5.5241465E-007 0.0
 -9.2297685E-008 -5.5351431E-007 0.0
 -1.0270875E-007 -5.5454567E-007 0.0
 -1.1340545E-007 -5.5551224E-007 0.0
 -1.2443295E-007 -5.5640937E-007 0.0
 -1.3580340E-007 -5.5722677E-007 0.0
 -1.4749587E-007 -5.5796775E-007 0.0
 -1.5947238E-007 -5.5864466E-007 0.0
 -1.7168830E-007 -5.5927712E-007 0.0
 -1.8410010E-007 -5.5988632E-007 0.0
 -1.9666853E-007 -5.6049215E-007 0.0
 -2.0936084E-007 -5.6111142E-007 0.0
 -2.2215206E-007 -5.6175689E-007 0.0
 -2.3502539E-007 -5.6243692E-007 0.0
 -2.4797186E-007 -5.6315584E-007 0.0
 -2.6098991E-007 -5.6391475E-007 0.0
 -2.7408509E-007 -5.6471260E-007 0.0
 -2.8727048E-007 -5.6554693E-007 0.0
 -3.0056775E-007 -5.6641374E-007 0.0
 -3.1400842E-007 -5.6730591E-007 0.0
 -3.2763356E-007 -5.6820977E-007 0.0
 -3.4149393E-007 -5.6910361E-007 0.0
 -3.5564545E-007 -5.6996497E-007 0.0
 -3.7027122E-007 -5.7084634E-007 0.0
 -3.8588421E-007 -5.7171781E-007 0.0
 -4.0255897E-007 -5.7218289E-007 0.0
 -4.1892543E-007 -5.7195575E-007 0.0
  1.5072728E-007 -4.6794946E-007 0.0
  1.5495476E-007 -4.7045459E-007 0.0
  1.6076337E-007 -4.7126530E-007 0.0
  1.6615043E-007 -4.7179362E-007 0.0
  1.7109868E-007 -4.7221950E-007 0.0
  1.7550489E-007 -4.7256461E-007 0.0
  1.7932279E-007 -4.7282214E-007 0.0
  1.8249928E-007 -4.7298717E-007 0.0
  1.8496263E-007 -4.7306144E-007 0.0
  1.8661715E-007 -4.7305568E-007 0.0
  1.8734868E-007 -4.7299533E-007 0.0
  1.8704007E-007 -4.7292903E-007 0.0
  1.8560009E-007 -4.7293626E-007 0.0
  1.8300331E-007 -4.7312355E-007 0.0
  1.7932513E-007 -4.7360330E-007 0.0
  1.7474538E-007 -4.7445691E-007 0.0
  1.6950852E-007 -4.7570667E-007 0.0
  1.6386118E-007 -4.7731136E-007 0.0
  1.5800113E-007 -4.7918902E-007 0.0
  1.5205682E-007 -4.8124708E-007 0.0
  1.4609413E-007 -4.8340750E-007 0.0
  1.4013812E-007 -4.8561795E-007 0.0
  1.3419708E-007 -4.8785179E-007 0.0
  1.2827937E-007 -4.9009867E-007 0.0
  1.2239781E-007 -4.9235387E-007 0.0
  1.1656430E-007 -4.9461092E-007 0.0
  1.1078290E-007 -4.9686079E-007 0.0
  1.0504689E-007 -4.9909362E-007 0.0
  9.9339900E-008 -5.0130080E-007 0.0
  9.3638777E-008 -5.0347529E-007 0.0
  8.7916310E-008 -5.0561123E-007 0.0
  8.2143062E-008 -5.0770326E-007 0.0
  7.6288293E-008 -5.0974640E-007 0.0
  7.0320849E-008 -5.1173679E-007 0.0
  6.4210751E-008 -5.1367263E-007 0.0
  5.7931461E-008 -5.1555479E-007 0.0
  5.1462004E-008 -5.1738648E-007 0.0
  4.4788026E-008 -5.1917220E-007 0.0
  3.7901452E-008 -5.2091660E-007 0.0
  3.0799094E-008 -5.2262365E-007 0.0
  2.3480847E-008 -5.2429644E-007 0.0
  1.5947963E-008 -5.2593710E-007 0.0
  8.2016168E-009 -5.2754688E-007 0.0
  2.4177170E-010 -5.2912596E-007 0.0
 -7.9336406E-009 -5.3067309E-007 0.0
 -1.6329172E-008 -5.3218529E-007 0.0
 -2.4951860E-008 -5.3365771E-007 0.0
 -3.3810863E-008 -5.3508396E-007 0.0
 -4.2916811E-008 -5.3645680E-007 0.0
 -5.2281115E-008 -5.3776892E-007 0.0
 -6.1913369E-008 -5.3901081E-007 0.0
 -7.1806714E-008 -5.4016252E-007 0.0
 -8.1892339E-008 -5.4119737E-007 0.0
 -9.2104856E-008 -5.4215933E-007 0.0
 -1.0250499E-007 -5.4306632E-007 0.0
 -1.1319927E-007 -5.4393004E-007 0.0
 -1.2424948E-007 -5.4470574E-007 0.0
 -1.3565175E-007 -5.4539163E-007 0.0
 -1.4737002E-007 -5.4598966E-007 0.0
 -1.5934948E-007 -5.4651978E-007 0.0
 -1.7153922E-007 -5.4700471E-007 0.0
 -1.8389372E-007 -5.4746701E-007 0.0
 -1.9637508E-007 -5.4792761E-007 0.0
 -2.0895422E-007 -5.4840457E-007 0.0
 -2.2161147E-007 -5.4891201E-007 0.0
 -2.3433603E-007 -5.4945931E-007 0.0
 -2.4712459E-007 -5.5005110E-007 0.0
 -2.5997999E-007 -5.5068822E-007 0.0
 -2.7291082E-007 -5.5136913E-007 0.0
 -2.8593231E-007 -5.5209127E-007 0.0
 -2.9906868E-007 -5.5285147E-007 0.0
 -3.1235667E-007 -5.5364442E-007 0.0
 -3.2584906E-007 -5.5445634E-007 0.0
 -3.3960846E-007 -5.5525152E-007 0.0
 -3.5370495E-007 -5.5595930E-007 0.0
 -3.6814111E-007 -5.5646191E-007 0.0
 -3.8383218E-007 -5.5679021E-007 0.0
 -4.0245588E-007 -5.5629455E-007 0.0
  1.5751505E-007 -4.6938429E-007 0.0
  1.5982761E-007 -4.7145408E-007 0.0
  1.6386617E-007 -4.7289921E-007 0.0
  1.6828707E-007 -4.7374692E-007 0.0
  1.7241750E-007 -4.7429457E-007 0.0
  1.7608979E-007 -4.7461145E-007 0.0
  1.7922812E-007 -4.7473399E-007 0.0
  1.8177812E-007 -4.7469221E-007 0.0
  1.8367243E-007 -4.7451431E-007 0.0
  1.8482840E-007 -4.7423054E-007 0.0
  1.8515522E-007 -4.7387999E-007 0.0
  1.8456843E-007 -4.7351731E-007 0.0
  1.8301105E-007 -4.7321576E-007 0.0
  1.8047728E-007 -4.7306250E-007 0.0
  1.7702932E-007 -4.7314361E-007 0.0
  1.7279619E-007 -4.7352358E-007 0.0
  1.6795102E-007 -4.7422866E-007 0.0
  1.6267582E-007 -4.7524344E-007 0.0
  1.5712980E-007 -4.7652111E-007 0.0
  1.5143184E-007 -4.7800120E-007 0.0
  1.4565916E-007 -4.7962597E-007 0.0
  1.3985670E-007 -4.8135067E-007 0.0
  1.3405029E-007 -4.8314573E-007 0.0
  1.2825699E-007 -4.8499344E-007 0.0
  1.2248979E-007 -4.8688207E-007 0.0
  1.1675692E-007 -4.8880142E-007 0.0
  1.1105955E-007 -4.9074077E-007 0.0
  1.0539031E-007 -4.9268909E-007 0.0
  9.9733879E-008 -4.9463570E-007 0.0
  9.4068695E-008 -4.9657077E-007 0.0
  8.8369107E-008 -4.9848536E-007 0.0
  8.2607183E-008 -5.0037130E-007 0.0
  7.6754152E-008 -5.0222139E-007 0.0
  7.0781708E-008 -5.0402976E-007 0.0
  6.4663443E-008 -5.0579241E-007 0.0
  5.8376381E-008 -5.0750749E-007 0.0
  5.1902263E-008 -5.0917511E-007 0.0
  4.5228169E-008 -5.1079674E-007 0.0
  3.8346289E-008 -5.1237457E-007 0.0
  3.1252960E-008 -5.1391089E-007 0.0
  2.3947252E-008 -5.1540785E-007 0.0
  1.6429403E-008 -5.1686731E-007 0.0
  8.6992933E-009 -5.1829068E-007 0.0
  7.5510457E-010 -5.1967869E-007 0.0
 -7.4076688E-009 -5.2103090E-007 0.0
 -1.5796603E-008 -5.2234519E-007 0.0
 -2.4421962E-008 -5.2361742E-007 0.0
 -3.3295570E-008 -5.2484183E-007 0.0
 -4.2429758E-008 -5.2601265E-007 0.0
 -5.1836496E-008 -5.2712633E-007 0.0
 -6.1529167E-008 -5.2818605E-007 0.0
 -7.1521097E-008 -5.2919645E-007 0.0
 -8.1755091E-008 -5.3013443E-007 0.0
 -9.1922810E-008 -5.3096638E-007 0.0
 -1.0226174E-007 -5.3186276E-007 0.0
 -1.1297776E-007 -5.3260309E-007 0.0
 -1.2405827E-007 -5.3323587E-007 0.0
 -1.3551688E-007 -5.3374934E-007 0.0
 -1.4727516E-007 -5.3418074E-007 0.0
 -1.5927008E-007 -5.3455447E-007 0.0
 -1.7144434E-007 -5.3489193E-007 0.0
 -1.8375039E-007 -5.3521372E-007 0.0
 -1.9615073E-007 -5.3553922E-007 0.0
 -2.0861912E-007 -5.3588659E-007 0.0
 -2.2114144E-007 -5.3627066E-007 0.0
 -2.3371394E-007 -5.3670103E-007 0.0
 -2.4633998E-007 -5.3718156E-007 0.0
 -2.5902725E-007 -5.3771166E-007 0.0
 -2.7178689E-007 -5.3828845E-007 0.0
 -2.8463480E-007 -5.3890904E-007 0.0
 -2.9759509E-007 -5.3957238E-007 0.0
 -3.1070593E-007 -5.4028002E-007 0.0
 -3.2402869E-007 -5.4103453E-007 0.0
 -3.3765690E-007 -5.4182469E-007 0.0
 -3.5166913E-007 -5.4259764E-007 0.0
 -3.6608908E-007 -5.4328962E-007 0.0
 -3.7986790E-007 -5.4445291E-007 0.0
  1.6283442E-007 -4.6992003E-007 0.0
  1.6427330E-007 -4.7176197E-007 0.0
  1.6726442E-007 -4.7331844E-007 0.0
  1.7068304E-007 -4.7449081E-007 0.0
  1.7392559E-007 -4.7521604E-007 0.0
  1.7678804E-007 -4.7555999E-007 0.0
  1.7920271E-007 -4.7560447E-007 0.0
  1.8110888E-007 -4.7542035E-007 0.0
  1.8243721E-007 -4.7506213E-007 0.0
  1.8311116E-007 -4.7457729E-007 0.0
  1.8305430E-007 -4.7401475E-007 0.0
  1.8220197E-007 -4.7343114E-007 0.0
  1.8051561E-007 -4.7289281E-007 0.0
  1.7799662E-007 -4.7247201E-007 0.0
  1.7469457E-007 -4.7223744E-007 0.0
  1.7070483E-007 -4.7224194E-007 0.0
  1.6615448E-007 -4.7251284E-007 0.0
  1.6118134E-007 -4.7304909E-007 0.0
  1.5591356E-007 -4.7382647E-007 0.0
  1.5045633E-007 -4.7480752E-007 0.0
  1.4488748E-007 -4.7595225E-007 0.0
  1.3926038E-007 -4.7722567E-007 0.0
  1.3361024E-007 -4.7860104E-007 0.0
  1.2796009E-007 -4.8005916E-007 0.0
  1.2232446E-007 -4.8158578E-007 0.0
  1.1671039E-007 -4.8316876E-007 0.0
  1.1111725E-007 -4.8479645E-007 0.0
  1.0553660E-007 -4.8645707E-007 0.0
  9.9952991E-008 -4.8813880E-007 0.0
  9.4345391E-008 -4.8983002E-007 0.0
  8.8689062E-008 -4.9151957E-007 0.0
  8.2957350E-008 -4.9319690E-007 0.0
  7.7123275E-008 -4.9485238E-007 0.0
  7.1160933E-008 -4.9647776E-007 0.0
  6.5046763E-008 -4.9806646E-007 0.0
  5.8760666E-008 -4.9961382E-007 0.0
  5.2286822E-008 -5.0111699E-007 0.0
  4.5614036E-008 -5.0257459E-007 0.0
  3.8735505E-008 -5.0398634E-007 0.0
  3.1648037E-008 -5.0535265E-007 0.0
  2.4350830E-008 -5.0667440E-007 0.0
  1.6843975E-008 -5.0795284E-007 0.0
  9.1268169E-009 -5.0918937E-007 0.0
  1.1963377E-009 -5.1038522E-007 0.0
 -6.9541565E-009 -5.1154077E-007 0.0
 -1.5335592E-008 -5.1265457E-007 0.0
 -2.3962262E-008 -5.1372231E-007 0.0
 -3.2849669E-008 -5.1473678E-007 0.0
 -4.2011545E-008 -5.1568917E-007 0.0
 -5.1459800E-008 -5.1657329E-007 0.0
 -6.1202978E-008 -5.1738804E-007 0.0
 -7.1263293E-008 -5.1815952E-007 0.0
 -8.1683278E-008 -5.1892676E-007 0.0
 -9.1557567E-008 -5.2024714E-007 0.0
 -1.0199061E-007 -5.2105313E-007 0.0
 -1.1278227E-007 -5.2166712E-007 0.0
 -1.2391929E-007 -5.2196639E-007 0.0
 -1.3542639E-007 -5.2223864E-007 0.0
 -1.4722814E-007 -5.2248094E-007 0.0
 -1.5924260E-007 -5.2269677E-007 0.0
 -1.7140706E-007 -5.2289790E-007 0.0
 -1.8367099E-007 -5.2309467E-007 0.0
 -1.9599405E-007 -5.2330241E-007 0.0
 -2.0835113E-007 -5.2353874E-007 0.0
 -2.2073422E-007 -5.2381958E-007 0.0
 -2.3314877E-007 -5.2415440E-007 0.0
 -2.4560657E-007 -5.2454528E-007 0.0
 -2.5812063E-007 -5.2498890E-007 0.0
 -2.7070381E-007 -5.2547998E-007 0.0
 -2.8337063E-007 -5.2601436E-007 0.0
 -2.9614094E-007 -5.2659198E-007 0.0
 -3.0904679E-007 -5.2722120E-007 0.0
 -3.2214307E-007 -5.2792406E-007 0.0
 -3.3553235E-007 -5.2874813E-007 0.0
 -3.4938265E-007 -5.2972756E-007 0.0
 -3.6359917E-007 -5.3083166E-007 0.0
 -3.7717724E-007 -5.3179360E-007 0.0
  1.6697236E-007 -4.6990296E-007 0.0
  1.6823350E-007 -4.7145280E-007 0.0
  1.7077023E-007 -4.7314186E-007 0.0
  1.7330552E-007 -4.7449322E-007 0.0
  1.7558583E-007 -4.7529087E-007 0.0
  1.7758623E-007 -4.7561054E-007 0.0
  1.7925193E-007 -4.7557871E-007 0.0
  1.8050880E-007 -4.7528526E-007 0.0
  1.8127930E-007 -4.7479779E-007 0.0
  1.8148635E-007 -4.7417185E-007 0.0
  1.8106022E-007 -4.7345985E-007 0.0
  1.7994664E-007 -4.7271670E-007 0.0
  1.7811582E-007 -4.7200142E-007 0.0
  1.7557031E-007 -4.7137469E-007 0.0
  1.7234872E-007 -4.7089284E-007 0.0
  1.6852310E-007 -4.7060045E-007 0.0
  1.6418965E-007 -4.7052446E-007 0.0
  1.5945533E-007 -4.7067212E-007 0.0
  1.5442435E-007 -4.7103358E-007 0.0
  1.4918807E-007 -4.7158766E-007 0.0
  1.4381997E-007 -4.7230858E-007 0.0
  1.3837521E-007 -4.7317132E-007 0.0
  1.3289295E-007 -4.7415462E-007 0.0
  1.2739938E-007 -4.7524159E-007 0.0
  1.2191011E-007 -4.7641857E-007 0.0
  1.1643152E-007 -4.7767365E-007 0.0
  1.1096146E-007 -4.7899536E-007 0.0
  1.0549005E-007 -4.8037193E-007 0.0
  1.0000078E-007 -4.8179106E-007 0.0
  9.4472130E-008 -4.8324001E-007 0.0
  8.8879445E-008 -4.8470589E-007 0.0
  8.3196753E-008 -4.8617600E-007 0.0
  7.7398407E-008 -4.8763833E-007 0.0
  7.1460453E-008 -4.8908205E-007 0.0
  6.5361714E-008 -4.9049794E-007 0.0
  5.9084600E-008 -4.9187854E-007 0.0
  5.2615623E-008 -4.9321822E-007 0.0
  4.5945540E-008 -4.9451294E-007 0.0
  3.9069099E-008 -4.9575999E-007 0.0
  3.1984338E-008 -4.9695781E-007 0.0
  2.4691466E-008 -4.9810582E-007 0.0
  1.7191356E-008 -4.9920441E-007 0.0
  9.4837356E-009 -5.0025472E-007 0.0
  1.5652057E-009 -5.0125840E-007 0.0
 -6.5727390E-009 -5.0221678E-007 0.0
 -1.4944920E-008 -5.0312925E-007 0.0
 -2.3571756E-008 -5.0399103E-007 0.0
 -3.2474819E-008 -5.0479115E-007 0.0
 -4.1672126E-008 -5.0551436E-007 0.0
 -5.1173953E-008 -5.0614169E-007 0.0
 -6.0996260E-008 -5.0665595E-007 0.0
 -7.1148413E-008 -5.0700677E-007 0.0
 -8.1878672E-008 -5.0706458E-007 0.0
 -1.1276063E-007 -5.1078705E-007 0.0
 -1.2387214E-007 -5.1071138E-007 0.0
 -1.3539718E-007 -5.1072682E-007 0.0
 -1.4723280E-007 -5.1078744E-007 0.0
 -1.5926043E-007 -5.1087704E-007 0.0
 -1.7142123E-007 -5.1097390E-007 0.0
 -1.8364997E-007 -5.1107599E-007 0.0
 -1.9589985E-007 -5.1119371E-007 0.0
 -2.0814285E-007 -5.1134528E-007 0.0
 -2.2037834E-007 -5.1154921E-007 0.0
 -2.3262576E-007 -5.1181623E-007 0.0
 -2.4490865E-007 -5.1214485E-007 0.0
 -2.5724520E-007 -5.1252782E-007 0.0
 -2.6964878E-007 -5.1295705E-007 0.0
 -2.8213086E-007 -5.1342602E-007 0.0
 -2.9470422E-007 -5.1393261E-007 0.0
 -3.0738721E-007 -5.1448370E-007 0.0
 -3.2021623E-007 -5.1510546E-007 0.0
 -3.3325770E-007 -5.1585385E-007 0.0
 -3.4672642E-007 -5.1688254E-007 0.0
 -3.6105434E-007 -5.1814808E-007 0.0
 -3.7560074E-007 -5.1907450E-007 0.0
  1.6954328E-007 -4.6968096E-007 0.0
  1.7199969E-007 -4.7107635E-007 0.0
  1.7441170E-007 -4.7284059E-007 0.0
  1.7598276E-007 -4.7406970E-007 0.0
  1.7727817E-007 -4.7469227E-007 0.0
  1.7842653E-007 -4.7489105E-007 0.0
  1.7935459E-007 -4.7475923E-007 0.0
  1.7997787E-007 -4.7437347E-007 0.0
  1.8020825E-007 -4.7379499E-007 0.0
  1.7996530E-007 -4.7307625E-007 0.0
  1.7918133E-007 -4.7226654E-007 0.0
  1.7780674E-007 -4.7141570E-007 0.0
  1.7581522E-007 -4.7057506E-007 0.0
  1.7320775E-007 -4.6979575E-007 0.0
  1.7001389E-007 -4.6912479E-007 0.0
  1.6628908E-007 -4.6860048E-007 0.0
  1.6210817E-007 -4.6824869E-007 0.0
  1.5755631E-007 -4.6808143E-007 0.0
  1.5271951E-007 -4.6809813E-007 0.0
  1.4767692E-007 -4.6828905E-007 0.0
  1.4249590E-007 -4.6863952E-007 0.0
  1.3723001E-007 -4.6913366E-007 0.0
  1.3191906E-007 -4.6975681E-007 0.0
  1.2659016E-007 -4.7049638E-007 0.0
  1.2125892E-007 -4.7134160E-007 0.0
  1.1593065E-007 -4.7228254E-007 0.0
  1.1060133E-007 -4.7330914E-007 0.0
  1.0525891E-007 -4.7441048E-007 0.0
  9.9884850E-008 -4.7557438E-007 0.0
  9.4456055E-008 -4.7678741E-007 0.0
  8.8946966E-008 -4.7803522E-007 0.0
  8.3331522E-008 -4.7930309E-007 0.0
  7.7584851E-008 -4.8057661E-007 0.0
  7.1684544E-008 -4.8184236E-007 0.0
  6.5611523E-008 -4.8308848E-007 0.0
  5.9350553E-008 -4.8430491E-007 0.0
  5.2890470E-008 -4.8548350E-007 0.0
  4.6224178E-008 -4.8661777E-007 0.0
  3.9348379E-008 -4.8770278E-007 0.0
  3.2262960E-008 -4.8873499E-007 0.0
  2.4969951E-008 -4.8971224E-007 0.0
  1.7471975E-008 -4.9063383E-007 0.0
  9.7701818E-009 -4.9150048E-007 0.0
  1.8618397E-009 -4.9231399E-007 0.0
 -6.2623387E-009 -4.9307663E-007 0.0
 -1.4621404E-008 -4.9378969E-007 0.0
 -2.3244706E-008 -4.9444870E-007 0.0
 -3.2166436E-008 -4.9503918E-007 0.0
 -4.1409738E-008 -4.9553443E-007 0.0
 -5.0989303E-008 -4.9590987E-007 0.0
 -6.0908562E-008 -4.9612788E-007 0.0
 -7.1253221E-008 -4.9616429E-007 0.0
 -1.3540300E-007 -4.9898779E-007 0.0
 -1.4724936E-007 -4.9898674E-007 0.0
 -1.5929616E-007 -4.9902005E-007 0.0
 -1.7146810E-007 -4.9906748E-007 0.0
 -1.8367001E-007 -4.9912592E-007 0.0
 -1.9585967E-007 -4.9919764E-007 0.0
 -2.0798480E-007 -4.9929529E-007 0.0
 -2.2005692E-007 -4.9945682E-007 0.0
 -2.3212548E-007 -4.9969022E-007 0.0
 -2.4422689E-007 -4.9998752E-007 0.0
 -2.5638255E-007 -5.0033890E-007 0.0
 -2.6860516E-007 -5.0073452E-007 0.0
 -2.8090250E-007 -5.0116600E-007 0.0
 -2.9327984E-007 -5.0162720E-007 0.0
 -3.0574236E-007 -5.0211677E-007 0.0
 -3.1829645E-007 -5.0264267E-007 0.0
 -3.3099311E-007 -5.0323357E-007 0.0
 -3.4391395E-007 -5.0387891E-007 0.0
 -3.5832224E-007 -5.0459518E-007 0.0
 -3.7578730E-007 -5.0421114E-007 0.0
  1.6937857E-007 -4.7236549E-007 0.0
  1.7588530E-007 -4.7170656E-007 0.0
  1.7799420E-007 -4.7248703E-007 0.0
  1.7846861E-007 -4.7305558E-007 0.0
  1.7889580E-007 -4.7339143E-007 0.0
  1.7924945E-007 -4.7342866E-007 0.0
  1.7948654E-007 -4.7319732E-007 0.0
  1.7951099E-007 -4.7274310E-007 0.0
  1.7922831E-007 -4.7211074E-007 0.0
  1.7855486E-007 -4.7134272E-007 0.0
  1.7742341E-007 -4.7048090E-007 0.0
  1.7578640E-007 -4.6956799E-007 0.0
  1.7361851E-007 -4.6864763E-007 0.0
  1.7091835E-007 -4.6776280E-007 0.0
  1.6770825E-007 -4.6695316E-007 0.0
  1.6403179E-007 -4.6625198E-007 0.0
  1.5994879E-007 -4.6568372E-007 0.0
  1.5552886E-007 -4.6526300E-007 0.0
  1.5084440E-007 -4.6499528E-007 0.0
  1.4596452E-007 -4.6487894E-007 0.0
  1.4095048E-007 -4.6490797E-007 0.0
  1.3585291E-007 -4.6507450E-007 0.0
  1.3071049E-007 -4.6537064E-007 0.0
  1.2554974E-007 -4.6578927E-007 0.0
  1.2038525E-007 -4.6632391E-007 0.0
  1.1522041E-007 -4.6696802E-007 0.0
  1.1004851E-007 -4.6771411E-007 0.0
  1.0485429E-007 -4.6855289E-007 0.0
  9.9615938E-008 -4.6947283E-007 0.0
  9.4307517E-008 -4.7046010E-007 0.0
  8.8901413E-008 -4.7149899E-007 0.0
  8.3370599E-008 -4.7257269E-007 0.0
  7.7690418E-008 -4.7366429E-007 0.0
  7.1839729E-008 -4.7475777E-007 0.0
  6.5801475E-008 -4.7583878E-007 0.0
  5.9562796E-008 -4.7689496E-007 0.0
  5.3114940E-008 -4.7791603E-007 0.0
  4.6453104E-008 -4.7889351E-007 0.0
  3.9576211E-008 -4.7982051E-007 0.0
  3.2486468E-008 -4.8069163E-007 0.0
  2.5188455E-008 -4.8150308E-007 0.0
  1.7687550E-008 -4.8225295E-007 0.0
  9.9875645E-009 -4.8294139E-007 0.0
  2.0875557E-009 -4.8357032E-007 0.0
 -6.0213130E-009 -4.8414220E-007 0.0
 -1.4359650E-008 -4.8465995E-007 0.0
 -2.2969240E-008 -4.8512487E-007 0.0
 -3.1906950E-008 -4.8551831E-007 0.0
 -4.1214638E-008 -4.8580437E-007 0.0
 -5.0876177E-008 -4.8593910E-007 0.0
 -6.0938612E-008 -4.8591750E-007 0.0
 -1.4726159E-007 -4.8701525E-007 0.0
 -1.5929331E-007 -4.8702183E-007 0.0
 -1.7150723E-007 -4.8713076E-007 0.0
 -1.8369398E-007 -4.8723795E-007 0.0
 -1.9587484E-007 -4.8730006E-007 0.0
 -2.0785943E-007 -4.8739211E-007 0.0
 -2.1974727E-007 -4.8755680E-007 0.0
 -2.3162631E-007 -4.8778963E-007 0.0
 -2.4354054E-007 -4.8808487E-007 0.0
 -2.5551280E-007 -4.8843221E-007 0.0
 -2.6755299E-007 -4.8882363E-007 0.0
 -2.7966574E-007 -4.8925148E-007 0.0
 -2.9185109E-007 -4.8970777E-007 0.0
 -3.0410222E-007 -4.9018470E-007 0.0
 -3.1640820E-007 -4.9067825E-007 0.0
 -3.2873316E-007 -4.9120212E-007 0.0
 -3.4121773E-007 -4.9188248E-007 0.0
 -3.5338000E-007 -4.9332775E-007 0.0
  1.8259937E-007 -4.6857168E-007 0.0
  1.8122522E-007 -4.7040186E-007 0.0
  1.8084166E-007 -4.7101616E-007 0.0
  1.8040926E-007 -4.7125132E-007 0.0
  1.8003928E-007 -4.7119892E-007 0.0
  1.7964069E-007 -4.7091517E-007 0.0
  1.7910972E-007 -4.7043564E-007 0.0
  1.7834520E-007 -4.6979266E-007 0.0
  1.7726157E-007 -4.6901849E-007 0.0
  1.7579207E-007 -4.6814685E-007 0.0
  1.7389034E-007 -4.6721319E-007 0.0
  1.7153126E-007 -4.6625406E-007 0.0
  1.6871122E-007 -4.6530559E-007 0.0
  1.6544713E-007 -4.6440149E-007 0.0
  1.6177406E-007 -4.6357086E-007 0.0
  1.5774128E-007 -4.6283658E-007 0.0
  1.5340736E-007 -4.6221456E-007 0.0
  1.4883481E-007 -4.6171419E-007 0.0
  1.4408498E-007 -4.6133959E-007 0.0
  1.3921397E-007 -4.6109150E-007 0.0
  1.3426936E-007 -4.6096897E-007 0.0
  1.2928816E-007 -4.6097072E-007 0.0
  1.2429547E-007 -4.6109559E-007 0.0
  1.1930403E-007 -4.6134239E-007 0.0
  1.1431445E-007 -4.6170909E-007 0.0
  1.0931616E-007 -4.6219172E-007 0.0
  1.0428930E-007 -4.6278340E-007 0.0
  9.9207242E-008 -4.6347367E-007 0.0
  9.4039601E-008 -4.6424842E-007 0.0
  8.8755345E-008 -4.6509045E-007 0.0
  8.3325518E-008 -4.6598060E-007 0.0
  7.7725195E-008 -4.6689921E-007 0.0
  7.1934458E-008 -4.6782760E-007 0.0
  6.5938484E-008 -4.6874911E-007 0.0
  5.9727066E-008 -4.6964961E-007 0.0
  5.3294039E-008 -4.7051733E-007 0.0
  4.6636956E-008 -4.7134244E-007 0.0
  3.9757041E-008 -4.7211657E-007 0.0
  3.2659100E-008 -4.7283272E-007 0.0
  2.5350897E-008 -4.7348555E-007 0.0
  1.7841607E-008 -4.7407194E-007 0.0
  1.0139180E-008 -4.7459140E-007 0.0
  2.2463805E-009 -4.7504633E-007 0.0
 -5.8451321E-009 -4.7544061E-007 0.0
 -1.4156288E-008 -4.7577362E-007 0.0
 -2.2727088E-008 -4.7604816E-007 0.0
 -3.1666983E-008 -4.7626880E-007 0.0
 -4.1060520E-008 -4.7635821E-007 0.0
 -5.0847848E-008 -4.7628483E-007 0.0
 -1.7156645E-007 -4.7522564E-007 0.0
 -1.8363877E-007 -4.7525954E-007 0.0
 -1.9593483E-007 -4.7554151E-007 0.0
 -2.0774344E-007 -4.7569967E-007 0.0
 -2.1943193E-007 -4.7588500E-007 0.0
 -2.3110865E-007 -4.7613888E-007 0.0
 -2.4283280E-007 -4.7644948E-007 0.0
 -2.5461805E-007 -4.7681244E-007 0.0
 -2.6647156E-007 -4.7722515E-007 0.0
 -2.7839595E-007 -4.7768321E-007 0.0
 -2.9038732E-007 -4.7818124E-007 0.0
 -3.0243216E-007 -4.7871366E-007 0.0
 -3.1449268E-007 -4.7927752E-007 0.0
 -3.2650363E-007 -4.7988597E-007 0.0
 -3.3812564E-007 -4.8066654E-007 0.0
 -3.4925383E-007 -4.8202800E-007 0.0
  1.8762796E-007 -4.6552979E-007 0.0
  1.8494269E-007 -4.6706765E-007 0.0
  1.8316006E-007 -4.6797811E-007 0.0
  1.8187155E-007 -4.6824764E-007 0.0
  1.8081512E-007 -4.6820671E-007 0.0
  1.7983133E-007 -4.6794232E-007 0.0
  1.7878574E-007 -4.6749417E-007 0.0
  1.7756895E-007 -4.6688858E-007 0.0
  1.7609360E-007 -4.6615106E-007 0.0
  1.7429369E-007 -4.6530902E-007 0.0
  1.7212397E-007 -4.6439197E-007 0.0
  1.6955951E-007 -4.6343064E-007 0.0
  1.6659505E-007 -4.6245567E-007 0.0
  1.6324360E-007 -4.6149595E-007 0.0
  1.5953427E-007 -4.6057712E-007 0.0
  1.5550902E-007 -4.5972039E-007 0.0
  1.5121878E-007 -4.5894209E-007 0.0
  1.4671910E-007 -4.5825403E-007 0.0
  1.4206591E-007 -4.5766440E-007 0.0
  1.3731151E-007 -4.5717915E-007 0.0
  1.3250123E-007 -4.5680328E-007 0.0
  1.2767059E-007 -4.5654170E-007 0.0
  1.2284320E-007 -4.5639953E-007 0.0
  1.1802948E-007 -4.5638158E-007 0.0
  1.1322634E-007 -4.5649124E-007 0.0
  1.0841807E-007 -4.5672898E-007 0.0
  1.0357844E-007 -4.5709099E-007 0.0
  9.8673979E-008 -4.5756821E-007 0.0
  9.3667834E-008 -4.5814618E-007 0.0
  8.8523880E-008 -4.5880582E-007 0.0
  8.3210163E-008 -4.5952507E-007 0.0
  7.7701166E-008 -4.6028104E-007 0.0
  7.1978533E-008 -4.6105217E-007 0.0
  6.6030377E-008 -4.6181980E-007 0.0
  5.9849807E-008 -4.6256876E-007 0.0
  5.3433549E-008 -4.6328685E-007 0.0
  4.6781408E-008 -4.6396388E-007 0.0
  3.9896659E-008 -4.6459073E-007 0.0
  3.2786720E-008 -4.6515919E-007 0.0
  2.5463076E-008 -4.6566260E-007 0.0
  1.7939811E-008 -4.6609677E-007 0.0
  1.0230670E-008 -4.6646081E-007 0.0
  2.3448177E-009 -4.6675771E-007 0.0
 -5.7206122E-009 -4.6699580E-007 0.0
 -1.3997188E-008 -4.6718328E-007 0.0
 -2.2519939E-008 -4.6729315E-007 0.0
 -3.1385390E-008 -4.6730539E-007 0.0
 -4.1000038E-008 -4.6718704E-007 0.0
 -1.9604706E-007 -4.6423182E-007 0.0
 -2.0767441E-007 -4.6430861E-007 0.0
 -2.1909646E-007 -4.6449947E-007 0.0
 -2.3056720E-007 -4.6476241E-007 0.0
 -2.4209549E-007 -4.6508558E-007 0.0
 -2.5368555E-007 -4.6547327E-007 0.0
 -2.6534357E-007 -4.6592483E-007 0.0
 -2.7707026E-007 -4.6643858E-007 0.0
 -2.8885803E-007 -4.6701434E-007 0.0
 -3.0068534E-007 -4.6765608E-007 0.0
 -3.1250696E-007 -4.6837260E-007 0.0
 -3.2418990E-007 -4.6918068E-007 0.0
 -3.3548082E-007 -4.7003940E-007 0.0
 -3.4506323E-007 -4.7087502E-007 0.0
  1.9206232E-007 -4.6201802E-007 0.0
  1.8835987E-007 -4.6351496E-007 0.0
  1.8538599E-007 -4.6416763E-007 0.0
  1.8329314E-007 -4.6447789E-007 0.0
  1.8160654E-007 -4.6451463E-007 0.0
  1.8008201E-007 -4.6433778E-007 0.0
  1.7855667E-007 -4.6397673E-007 0.0
  1.7691225E-007 -4.6345420E-007 0.0
  1.7506001E-007 -4.6279224E-007 0.0
  1.7293486E-007 -4.6201456E-007 0.0
  1.7049276E-007 -4.6114661E-007 0.0
  1.6770915E-007 -4.6021487E-007 0.0
  1.6457771E-007 -4.5924574E-007 0.0
  1.6110880E-007 -4.5826432E-007 0.0
  1.5732748E-007 -4.5729328E-007 0.0
  1.5327078E-007 -4.5635213E-007 0.0
  1.4898457E-007 -4.5545699E-007 0.0
  1.4451995E-007 -4.5462095E-007 0.0
  1.3992950E-007 -4.5385493E-007 0.0
  1.3526355E-007 -4.5316882E-007 0.0
  1.3056644E-007 -4.5257258E-007 0.0
  1.2587316E-007 -4.5207693E-007 0.0
  1.2120634E-007 -4.5169339E-007 0.0
  1.1657403E-007 -4.5143339E-007 0.0
  1.1196873E-007 -4.5130661E-007 0.0
  1.0736803E-007 -4.5131887E-007 0.0
  1.0273717E-007 -4.5147007E-007 0.0
  9.8033155E-008 -4.5175273E-007 0.0
  9.3210092E-008 -4.5215176E-007 0.0
  8.8224619E-008 -4.5264547E-007 0.0
  8.3040562E-008 -4.5320797E-007 0.0
  7.7631739E-008 -4.5381228E-007 0.0
  7.1982308E-008 -4.5443360E-007 0.0
  6.6084820E-008 -4.5505164E-007 0.0
  5.9937011E-008 -4.5565128E-007 0.0
  5.3539002E-008 -4.5622152E-007 0.0
  4.6892391E-008 -4.5675329E-007 0.0
  4.0001649E-008 -4.5723773E-007 0.0
  3.2876395E-008 -4.5766592E-007 0.0
  2.5532367E-008 -4.5803017E-007 0.0
  1.7989861E-008 -4.5832578E-007 0.0
  1.0270227E-008 -4.5855206E-007 0.0
  2.3912839E-009 -4.5871291E-007 0.0
 -5.6368882E-009 -4.5881813E-007 0.0
 -1.3830663E-008 -4.5889919E-007 0.0
 -2.2299602E-008 -4.5900220E-007 0.0
 -3.0851780E-008 -4.5917944E-007 0.0
 -2.0766066E-007 -4.5334170E-007 0.0
 -2.1876009E-007 -4.5342584E-007 0.0
 -2.3001180E-007 -4.5365131E-007 0.0
 -2.4132689E-007 -4.5397817E-007 0.0
 -2.5270769E-007 -4.5439485E-007 0.0
 -2.6415805E-007 -4.5489500E-007 0.0
 -2.7567562E-007 -4.5547611E-007 0.0
 -2.8724719E-007 -4.5614153E-007 0.0
 -2.9884422E-007 -4.5690355E-007 0.0
 -3.1041022E-007 -4.5778787E-007 0.0
 -3.2184490E-007 -4.5882117E-007 0.0
 -3.3286741E-007 -4.6003406E-007 0.0
 -3.4296431E-007 -4.6120471E-007 0.0
 -3.5239804E-007 -4.6185763E-007 0.0
 -3.5212654E-007 -4.7071733E-007 0.0
  1.9675903E-007 -4.5860023E-007 0.0
  1.9095276E-007 -4.5915093E-007 0.0
  1.8739761E-007 -4.5967176E-007 0.0
  1.8467277E-007 -4.6005693E-007 0.0
  1.8243484E-007 -4.6022982E-007 0.0
  1.8041402E-007 -4.6019122E-007 0.0
  1.7843854E-007 -4.5995974E-007 0.0
  1.7638626E-007 -4.5955547E-007 0.0
  1.7416834E-007 -4.5899938E-007 0.0
  1.7172093E-007 -4.5831346E-007 0.0
  1.6900122E-007 -4.5752074E-007 0.0
  1.6598519E-007 -4.5664475E-007 0.0
  1.6266594E-007 -4.5570870E-007 0.0
  1.5905215E-007 -4.5473466E-007 0.0
  1.5516619E-007 -4.5374273E-007 0.0
  1.5104196E-007 -4.5275067E-007 0.0
  1.4672224E-007 -4.5177380E-007 0.0
  1.4225573E-007 -4.5082556E-007 0.0
  1.3769373E-007 -4.4991841E-007 0.0
  1.3308644E-007 -4.4906496E-007 0.0
  1.2847908E-007 -4.4827920E-007 0.0
  1.2390771E-007 -4.4757715E-007 0.0
  1.1939517E-007 -4.4697679E-007 0.0
  1.1494765E-007 -4.4649679E-007 0.0
  1.1055266E-007 -4.4615414E-007 0.0
  1.0617938E-007 -4.4596095E-007 0.0
  1.0178164E-007 -4.4592143E-007 0.0
  9.7303555E-008 -4.4602973E-007 0.0
  9.2686705E-008 -4.4626949E-007 0.0
  8.7877718E-008 -4.4661533E-007 0.0
  8.2834735E-008 -4.4703608E-007 0.0
  7.7531181E-008 -4.4749943E-007 0.0
  7.1955624E-008 -4.4797671E-007 0.0
  6.6107809E-008 -4.4844641E-007 0.0
  5.9992547E-008 -4.4889506E-007 0.0
  5.3614196E-008 -4.4931524E-007 0.0
  4.6975005E-008 -4.4970125E-007 0.0
  4.0078528E-008 -4.5004584E-007 0.0
  3.2935501E-008 -4.5033958E-007 0.0
  2.5566682E-008 -4.5057414E-007 0.0
  1.8000625E-008 -4.5074518E-007 0.0
  1.0268217E-008 -4.5085413E-007 0.0
  2.3978190E-009 -4.5090718E-007 0.0
 -5.5889279E-009 -4.5091471E-007 0.0
 -1.3666695E-008 -4.5088703E-007 0.0
 -2.1930884E-008 -4.5087967E-007 0.0
 -3.0805001E-008 -4.5074774E-007 0.0
 -2.0752320E-007 -4.4242007E-007 0.0
 -2.1843543E-007 -4.4253549E-007 0.0
 -2.2944103E-007 -4.4275088E-007 0.0
 -2.4052241E-007 -4.4309434E-007 0.0
 -2.5167842E-007 -4.4354899E-007 0.0
 -2.6291037E-007 -4.4410286E-007 0.0
 -2.7421144E-007 -4.4475035E-007 0.0
 -2.8556258E-007 -4.4549281E-007 0.0
 -2.9692743E-007 -4.4634122E-007 0.0
 -3.0824798E-007 -4.4731817E-007 0.0
 -3.1944289E-007 -4.4846048E-007 0.0
 -3.3042749E-007 -4.4972888E-007 0.0
 -3.4117052E-007 -4.5084572E-007 0.0
 -3.5175784E-007 -4.5144194E-007 0.0
  2.1259664E-007 -4.5900323E-007 0.0
  2.1260973E-007 -4.5245772E-007 0.0
  2.0592900E-007 -4.5235551E-007 0.0
  2.0597829E-007 -4.5901377E-007 0.0
  1.9889677E-007 -4.5281672E-007 0.0
  1.9329516E-007 -4.5373190E-007 0.0
  1.8921991E-007 -4.5456875E-007 0.0
  1.8603017E-007 -4.5514432E-007 0.0
  1.8331257E-007 -4.5549042E-007 0.0
  1.8083824E-007 -4.5561427E-007 0.0
  1.7843937E-007 -4.5553273E-007 0.0
  1.7599634E-007 -4.5526553E-007 0.0
  1.7342200E-007 -4.5483323E-007 0.0
  1.7065426E-007 -4.5425686E-007 0.0
  1.6765169E-007 -4.5355779E-007 0.0
  1.6439093E-007 -4.5275731E-007 0.0
  1.6086494E-007 -4.5187614E-007 0.0
  1.5708135E-007 -4.5093377E-007 0.0
  1.5306087E-007 -4.4994802E-007 0.0
  1.4883554E-007 -4.4893471E-007 0.0
  1.4444655E-007 -4.4790791E-007 0.0
  1.3994191E-007 -4.4688050E-007 0.0
  1.3537344E-007 -4.4586530E-007 0.0
  1.3079333E-007 -4.4487646E-007 0.0
  1.2624989E-007 -4.4393088E-007 0.0
  1.2178259E-007 -4.4304924E-007 0.0
  1.1741656E-007 -4.4225596E-007 0.0
  1.1315734E-007 -4.4157770E-007 0.0
  1.0898724E-007 -4.4103993E-007 0.0
  1.0486486E-007 -4.4066225E-007 0.0
  1.0072891E-007 -4.4045370E-007 0.0
  9.6506024E-008 -4.4040972E-007 0.0
  9.2120750E-008 -4.4051161E-007 0.0
  8.7506051E-008 -4.4072860E-007 0.0
  8.2612520E-008 -4.4102248E-007 0.0
  7.7413941E-008 -4.4135393E-007 0.0
  7.1906498E-008 -4.4168969E-007 0.0
  6.6101756E-008 -4.4200740E-007 0.0
  6.0015857E-008 -4.4229730E-007 0.0
  5.3659227E-008 -4.4255867E-007 0.0
  4.7032137E-008 -4.4279298E-007 0.0
  4.0132613E-008 -4.4299547E-007 0.0
  3.2970241E-008 -4.4315670E-007 0.0
  2.5572447E-008 -4.4326697E-007 0.0
  1.7979717E-008 -4.4332434E-007 0.0
  1.0235671E-008 -4.4333471E-007 0.0
  2.3792825E-009 -4.4331152E-007 0.0
 -5.5520509E-009 -4.4327337E-007 0.0
 -1.3522662E-008 -4.4325391E-007 0.0
 -2.1305576E-008 -4.4338108E-007 0.0
 -2.0732970E-007 -4.3163079E-007 0.0
 -2.1807438E-007 -4.3175458E-007 0.0
 -2.2883308E-007 -4.3201530E-007 0.0
 -2.3966828E-007 -4.3240509E-007 0.0
 -2.5059068E-007 -4.3291099E-007 0.0
 -2.6159942E-007 -4.3352149E-007 0.0
 -2.7268532E-007 -4.3422800E-007 0.0
 -2.8382636E-007 -4.3502470E-007 0.0
 -2.9498331E-007 -4.3590845E-007 0.0
 -3.0610027E-007 -4.3687915E-007 0.0
 -3.1711643E-007 -4.3793115E-007 0.0
 -3.2810815E-007 -4.3906914E-007 0.0
 -3.3946223E-007 -4.4013387E-007 0.0
 -3.5111152E-007 -4.4073803E-007 0.0
  2.1843450E-007 -4.5245470E-007 0.0
  2.1842392E-007 -4.4669593E-007 0.0
  2.1266428E-007 -4.4668986E-007 0.0
  2.0658253E-007 -4.4687748E-007 0.0
  2.0056315E-007 -4.4743676E-007 0.0
  1.9527854E-007 -4.4831886E-007 0.0
  1.9095147E-007 -4.4922466E-007 0.0
  1.8736555E-007 -4.4995233E-007 0.0
  1.8423615E-007 -4.5044980E-007 0.0
  1.8135015E-007 -4.5072385E-007 0.0
  1.7855577E-007 -4.5078747E-007 0.0
  1.7573967E-007 -4.5065783E-007 0.0
  1.7281861E-007 -4.5035360E-007 0.0
  1.6973311E-007 -4.4989408E-007 0.0
  1.6644352E-007 -4.4929873E-007 0.0
  1.6292747E-007 -4.4858674E-007 0.0
  1.5917809E-007 -4.4777656E-007 0.0
  1.5520249E-007 -4.4688542E-007 0.0
  1.5102042E-007 -4.4592887E-007 0.0
  1.4666289E-007 -4.4492073E-007 0.0
  1.4217064E-007 -4.4387327E-007 0.0
  1.3759222E-007 -4.4279800E-007 0.0
  1.3298167E-007 -4.4170695E-007 0.0
  1.2839524E-007 -4.4061442E-007 0.0
  1.2388700E-007 -4.3953895E-007 0.0
  1.1950299E-007 -4.3850488E-007 0.0
  1.1527388E-007 -4.3754298E-007 0.0
  1.1120697E-007 -4.3668874E-007 0.0
  1.0727960E-007 -4.3597783E-007 0.0
  1.0343705E-007 -4.3543884E-007 0.0
  9.9597581E-008 -4.3508593E-007 0.0
  9.5664071E-008 -4.3491452E-007 0.0
  9.1538425E-008 -4.3490137E-007 0.0
  8.7135208E-008 -4.3500839E-007 0.0
  8.2394999E-008 -4.3518785E-007 0.0
  7.7293590E-008 -4.3539235E-007 0.0
  7.1839796E-008 -4.3558375E-007 0.0
  6.6063431E-008 -4.3573975E-007 0.0
  5.9999316E-008 -4.3585517E-007 0.0
  5.3667721E-008 -4.3594076E-007 0.0
  4.7063121E-008 -4.3600815E-007 0.0
  4.0166409E-008 -4.3605959E-007 0.0
  3.2983214E-008 -4.3608064E-007 0.0
  2.5551785E-008 -4.3606485E-007 0.0
  1.7929862E-008 -4.3601127E-007 0.0
  1.0179048E-008 -4.3593527E-007 0.0
  2.3492211E-009 -4.3585721E-007 0.0
 -5.5152096E-009 -4.3580318E-007 0.0
 -1.3333747E-008 -4.3581187E-007 0.0
 -2.0962130E-008 -4.3588250E-007 0.0
 -2.0714729E-007 -4.2085883E-007 0.0
 -2.1764801E-007 -4.2109688E-007 0.0
 -2.2815815E-007 -4.2144541E-007 0.0
 -2.3874936E-007 -4.2190293E-007 0.0
 -2.4943724E-007 -4.2246884E-007 0.0
 -2.6022455E-007 -4.2313631E-007 0.0
 -2.7110412E-007 -4.2389497E-007 0.0
 -2.8205700E-007 -4.2473039E-007 0.0
 -2.9304908E-007 -4.2562144E-007 0.0
 -3.0403075E-007 -4.2653577E-007 0.0
 -3.1497050E-007 -4.2742416E-007 0.0
 -3.2587602E-007 -4.2820214E-007 0.0
 -3.3763317E-007 -4.2884596E-007 0.0
 -3.5131031E-007 -4.2866527E-007 0.0
  2.1843743E-007 -4.4123626E-007 0.0
  2.1298203E-007 -4.4134827E-007 0.0
  2.0738350E-007 -4.4165558E-007 0.0
  2.0192280E-007 -4.4223440E-007 0.0
  1.9691514E-007 -4.4303218E-007 0.0
  1.9251132E-007 -4.4388924E-007 0.0
  1.8865280E-007 -4.4465120E-007 0.0
  1.8518008E-007 -4.4523688E-007 0.0
  1.8193109E-007 -4.4562133E-007 0.0
  1.7877356E-007 -4.4580520E-007 0.0
  1.7560546E-007 -4.4579814E-007 0.0
  1.7234988E-007 -4.4561408E-007 0.0
  1.6895136E-007 -4.4526892E-007 0.0
  1.6537281E-007 -4.4477935E-007 0.0
  1.6159338E-007 -4.4416215E-007 0.0
  1.5760679E-007 -4.4343347E-007 0.0
  1.5342005E-007 -4.4260834E-007 0.0
  1.4905240E-007 -4.4170019E-007 0.0
  1.4453438E-007 -4.4072066E-007 0.0
  1.3990685E-007 -4.3967986E-007 0.0
  1.3521986E-007 -4.3858717E-007 0.0
  1.3053095E-007 -4.3745268E-007 0.0
  1.2590244E-007 -4.3628942E-007 0.0
  1.2139713E-007 -4.3511591E-007 0.0
  1.1707170E-007 -4.3395887E-007 0.0
  1.1296721E-007 -4.3285478E-007 0.0
  1.0909713E-007 -4.3184902E-007 0.0
  1.0543539E-007 -4.3098996E-007 0.0
  1.0190998E-007 -4.3031801E-007 0.0
  9.8409863E-008 -4.2985197E-007 0.0
  9.4805241E-008 -4.2958308E-007 0.0
  9.0969065E-008 -4.2947936E-007 0.0
  8.6792832E-008 -4.2949170E-007 0.0
  8.2202434E-008 -4.2956245E-007 0.0
  7.7179925E-008 -4.2963386E-007 0.0
  7.1755999E-008 -4.2966888E-007 0.0
  6.5984302E-008 -4.2964840E-007 0.0
  5.9925174E-008 -4.2956977E-007 0.0
  5.3624506E-008 -4.2945096E-007 0.0
  4.7061979E-008 -4.2932989E-007 0.0
  4.0176117E-008 -4.2920037E-007 0.0
  3.2968740E-008 -4.2906153E-007 0.0
  2.5498796E-008 -4.2889707E-007 0.0
  1.7847620E-008 -4.2873143E-007 0.0
  1.0097714E-008 -4.2857381E-007 0.0
  2.3080982E-009 -4.2845283E-007 0.0
 -5.4798510E-009 -4.2838651E-007 0.0
 -1.3204834E-008 -4.2838038E-007 0.0
 -2.0781412E-008 -4.2841864E-007 0.0
 -1.9677125E-007 -4.2078324E-007 0.0
 -1.9690335E-007 -4.1019833E-007 0.0
 -2.0696222E-007 -4.1037559E-007 0.0
 -2.1714705E-007 -4.1066545E-007 0.0
 -2.2740902E-007 -4.1107924E-007 0.0
 -2.3775796E-007 -4.1159957E-007 0.0
 -2.4821395E-007 -4.1222303E-007 0.0
 -2.5878406E-007 -4.1294368E-007 0.0
 -2.6946751E-007 -4.1375040E-007 0.0
 -2.8025448E-007 -4.1462368E-007 0.0
 -2.9112205E-007 -4.1553116E-007 0.0
 -3.0203328E-007 -4.1642467E-007 0.0
 -3.1293392E-007 -4.1724887E-007 0.0
 -3.2384772E-007 -4.1798092E-007 0.0
 -3.3435026E-007 -4.1901242E-007 0.0
  2.1860445E-007 -4.3604837E-007 0.0
  2.1341272E-007 -4.3620738E-007 0.0
  2.0818607E-007 -4.3654418E-007 0.0
  2.0309033E-007 -4.3709385E-007 0.0
  1.9829063E-007 -4.3780839E-007 0.0
  1.9388199E-007 -4.3858601E-007 0.0
  1.8985194E-007 -4.3931921E-007 0.0
  1.8611353E-007 -4.3993008E-007 0.0
  1.8255525E-007 -4.4037770E-007 0.0
  1.7907225E-007 -4.4064722E-007 0.0
  1.7557742E-007 -4.4073821E-007 0.0
  1.7200297E-007 -4.4065765E-007 0.0
  1.6829916E-007 -4.4041652E-007 0.0
  1.6443261E-007 -4.4002787E-007 0.0
  1.6038474E-007 -4.3950560E-007 0.0
  1.5615040E-007 -4.3886349E-007 0.0
  1.5173690E-007 -4.3811448E-007 0.0
  1.4716326E-007 -4.3726998E-007 0.0
  1.4245972E-007 -4.3633955E-007 0.0
  1.3766751E-007 -4.3533095E-007 0.0
  1.3283851E-007 -4.3425083E-007 0.0
  1.2803462E-007 -4.3310640E-007 0.0
  1.2332596E-007 -4.3190791E-007 0.0
  1.1878713E-007 -4.3067210E-007 0.0
  1.1449033E-007 -4.2942620E-007 0.0
  1.1049387E-007 -4.2821131E-007 0.0
  1.0682522E-007 -4.2708320E-007 0.0
  1.0345940E-007 -4.2610709E-007 0.0
  1.0030278E-007 -4.2534005E-007 0.0
  9.7197755E-008 -4.2480753E-007 0.0
  9.3963534E-008 -4.2448415E-007 0.0
  9.0444485E-008 -4.2431421E-007 0.0
  8.6506053E-008 -4.2424042E-007 0.0
  8.2047961E-008 -4.2418595E-007 0.0
  7.7070801E-008 -4.2409511E-007 0.0
  7.1646934E-008 -4.2393786E-007 0.0
  6.5857732E-008 -4.2372411E-007 0.0
  5.9775869E-008 -4.2345013E-007 0.0
  5.3492140E-008 -4.2310925E-007 0.0
  4.7028460E-008 -4.2274360E-007 0.0
  4.0132586E-008 -4.2240575E-007 0.0
  3.2892351E-008 -4.2198850E-007 0.0
  2.5411022E-008 -4.2166214E-007 0.0
  1.7722035E-008 -4.2137330E-007 0.0
  9.9945559E-009 -4.2115739E-007 0.0
  2.2568508E-009 -4.2101652E-007 0.0
 -5.4664202E-009 -4.2094177E-007 0.0
 -1.3133916E-008 -4.2092265E-007 0.0
 -2.0699820E-008 -4.2093479E-007 0.0
 -1.8717732E-007 -4.1007500E-007 0.0
 -1.8730260E-007 -3.9995433E-007 0.0
 -1.9694701E-007 -4.0001042E-007 0.0
 -2.0671165E-007 -4.0017136E-007 0.0
 -2.1659916E-007 -4.0048983E-007 0.0
 -2.2659268E-007 -4.0094255E-007 0.0
 -2.3669647E-007 -4.0151022E-007 0.0
 -2.4692110E-007 -4.0218014E-007 0.0
 -2.5727635E-007 -4.0294483E-007 0.0
 -2.6776868E-007 -4.0379446E-007 0.0
 -2.7840071E-007 -4.0471112E-007 0.0
 -2.8916610E-007 -4.0566264E-007 0.0
 -3.0003422E-007 -4.0660129E-007 0.0
 -3.1093272E-007 -4.0748033E-007 0.0
 -3.2164763E-007 -4.0834410E-007 0.0
 -3.3176997E-007 -4.0924209E-007 0.0
  2.1885043E-007 -4.3098089E-007 0.0
  2.1387151E-007 -4.3114716E-007 0.0
  2.0894676E-007 -4.3147768E-007 0.0
  2.0411467E-007 -4.3197697E-007 0.0
  1.9947445E-007 -4.3260317E-007 0.0
  1.9508749E-007 -4.3329202E-007 0.0
  1.9095084E-007 -4.3396715E-007 0.0
  1.8701308E-007 -4.3456201E-007 0.0
  1.8319913E-007 -4.3503174E-007 0.0
  1.7943052E-007 -4.3535194E-007 0.0
  1.7563723E-007 -4.3551288E-007 0.0
  1.7176254E-007 -4.3551422E-007 0.0
  1.6776411E-007 -4.3536137E-007 0.0
  1.6361350E-007 -4.3506324E-007 0.0
  1.5929531E-007 -4.3463062E-007 0.0
  1.5480621E-007 -4.3407496E-007 0.0
  1.5015420E-007 -4.3340734E-007 0.0
  1.4535821E-007 -4.3263751E-007 0.0
  1.4044811E-007 -4.3177329E-007 0.0
  1.3546521E-007 -4.3082022E-007 0.0
  1.3046301E-007 -4.2978207E-007 0.0
  1.2550795E-007 -4.2866233E-007 0.0
  1.2067915E-007 -4.2746728E-007 0.0
  1.1606588E-007 -4.2621029E-007 0.0
  1.1176130E-007 -4.2491700E-007 0.0
  1.0784996E-007 -4.2363153E-007 0.0
  1.0438521E-007 -4.2242013E-007 0.0
  1.0135610E-007 -4.2136766E-007 0.0
  9.8644420E-008 -4.2056079E-007 0.0
  9.6017482E-008 -4.2003415E-007 0.0
  9.3194716E-008 -4.1973820E-007 0.0
  8.9987498E-008 -4.1954018E-007 0.0
  8.6299717E-008 -4.1934844E-007 0.0
  8.1920270E-008 -4.1912557E-007 0.0
  7.6925630E-008 -4.1875945E-007 0.0
  7.1490244E-008 -4.1833965E-007 0.0
  6.5684167E-008 -4.1790468E-007 0.0
  5.9570828E-008 -4.1747045E-007 0.0
  5.3259938E-008 -4.1700816E-007 0.0
  4.6946902E-008 -4.1647882E-007 0.0
  3.9886557E-008 -4.1550561E-007 0.0
  3.2681614E-008 -4.1475481E-007 0.0
  2.5294484E-008 -4.1408009E-007 0.0
  1.7582644E-008 -4.1380130E-007 0.0
  9.8952063E-009 -4.1361701E-007 0.0
  2.2057995E-009 -4.1350111E-007 0.0
 -5.4708100E-009 -4.1343741E-007 0.0
 -1.3104937E-008 -4.1341365E-007 0.0
 -2.0676271E-008 -4.1341182E-007 0.0
 -1.7779573E-007 -3.9985906E-007 0.0
 -1.7784443E-007 -3.9004342E-007 0.0
 -1.8751103E-007 -3.8995330E-007 0.0
 -1.9694123E-007 -3.8996652E-007 0.0
 -2.0640294E-007 -3.9018076E-007 0.0
 -2.1599246E-007 -3.9054762E-007 0.0
 -2.2571474E-007 -3.9104297E-007 0.0
 -2.3556991E-007 -3.9164721E-007 0.0
 -2.4556307E-007 -3.9234918E-007 0.0
 -2.5570302E-007 -3.9314242E-007 0.0
 -2.6600172E-007 -3.9402148E-007 0.0
 -2.7647461E-007 -3.9497674E-007 0.0
 -2.8713581E-007 -3.9598637E-007 0.0
 -2.9797518E-007 -3.9700734E-007 0.0
 -3.0889359E-007 -3.9798428E-007 0.0
 -3.1961451E-007 -3.9886311E-007 0.0
 -3.2967287E-007 -3.9965840E-007 0.0
  2.1904298E-007 -4.2599382E-007 0.0
  2.1432972E-007 -4.2614714E-007 0.0
  2.0965328E-007 -4.2644678E-007 0.0
  2.0501683E-007 -4.2686385E-007 0.0
  2.0050880E-007 -4.2738924E-007 0.0
  1.9615756E-007 -4.2798323E-007 0.0
  1.9195536E-007 -4.2858448E-007 0.0
  1.8786876E-007 -4.2913695E-007 0.0
  1.8384616E-007 -4.2959751E-007 0.0
  1.7983027E-007 -4.2993747E-007 0.0
  1.7576741E-007 -4.3014063E-007 0.0
  1.7161275E-007 -4.3020031E-007 0.0
  1.6733247E-007 -4.3011666E-007 0.0
  1.6290422E-007 -4.2989445E-007 0.0
  1.5831678E-007 -4.2954148E-007 0.0
  1.5356933E-007 -4.2906711E-007 0.0
  1.4867102E-007 -4.2848102E-007 0.0
  1.4364078E-007 -4.2779195E-007 0.0
  1.3850778E-007 -4.2700665E-007 0.0
  1.3331268E-007 -4.2612911E-007 0.0
  1.2810954E-007 -4.2516049E-007 0.0
  1.2296855E-007 -4.2410027E-007 0.0
  1.1797843E-007 -4.2294953E-007 0.0
  1.1324591E-007 -4.2171735E-007 0.0
  1.0888999E-007 -4.2042727E-007 0.0
  1.0503215E-007 -4.1912372E-007 0.0
  1.0177095E-007 -4.1788514E-007 0.0
  9.9127595E-008 -4.1682224E-007 0.0
  9.6979760E-008 -4.1604986E-007 0.0
  9.4968968E-008 -4.1565277E-007 0.0
  9.2610473E-008 -4.1550880E-007 0.0
  8.9645824E-008 -4.1541221E-007 0.0
  8.6162731E-008 -4.1514129E-007 0.0
  8.1672879E-008 -4.1434034E-007 0.0
  7.6677541E-008 -4.1353505E-007 0.0
  7.1242112E-008 -4.1276071E-007 0.0
  6.5447480E-008 -4.1204255E-007 0.0
  5.9355842E-008 -4.1142874E-007 0.0
  5.3052446E-008 -4.1101660E-007 0.0
  4.7057084E-008 -4.1102134E-007 0.0
  2.5285423E-008 -4.0601775E-007 0.0
  1.7513187E-008 -4.0602196E-007 0.0
  9.8385265E-009 -4.0596383E-007 0.0
  2.1714917E-009 -4.0590588E-007 0.0
 -5.4804381E-009 -4.0586965E-007 0.0
 -1.3101918E-008 -4.0585517E-007 0.0
 -2.0673621E-008 -4.0585234E-007 0.0
 -1.7827338E-007 -3.8003355E-007 0.0
 -1.8777464E-007 -3.7986121E-007 0.0
 -1.9683289E-007 -3.8006336E-007 0.0
 -2.0600011E-007 -3.8040404E-007 0.0
 -2.1530944E-007 -3.8085117E-007 0.0
 -2.2477135E-007 -3.8139415E-007 0.0
 -2.3438346E-007 -3.8202657E-007 0.0
 -2.4414767E-007 -3.8274388E-007 0.0
 -2.5407207E-007 -3.8354389E-007 0.0
 -2.6417130E-007 -3.8442568E-007 0.0
 -2.7446941E-007 -3.8539000E-007 0.0
 -2.8500515E-007 -3.8643369E-007 0.0
 -2.9581479E-007 -3.8752604E-007 0.0
 -3.0684629E-007 -3.8857881E-007 0.0
 -3.1781317E-007 -3.8946703E-007 0.0
 -3.2807035E-007 -3.9010916E-007 0.0
  2.1901011E-007 -4.2134945E-007 0.0
  2.1476100E-007 -4.2129114E-007 0.0
  2.1027113E-007 -4.2143596E-007 0.0
  2.0580316E-007 -4.2172693E-007 0.0
  2.0142348E-007 -4.2214791E-007 0.0
  1.9711673E-007 -4.2264111E-007 0.0
  1.9287688E-007 -4.2315585E-007 0.0
  1.8867937E-007 -4.2364620E-007 0.0
  1.8448700E-007 -4.2407315E-007 0.0
  1.8025802E-007 -4.2440652E-007 0.0
  1.7595296E-007 -4.2462604E-007 0.0
  1.7153856E-007 -4.2472029E-007 0.0
  1.6699009E-007 -4.2468488E-007 0.0
  1.6229220E-007 -4.2452084E-007 0.0
  1.5743878E-007 -4.2423331E-007 0.0
  1.5243238E-007 -4.2383005E-007 0.0
  1.4728376E-007 -4.2332000E-007 0.0
  1.4201196E-007 -4.2271176E-007 0.0
  1.3664500E-007 -4.2201207E-007 0.0
  1.3122172E-007 -4.2122457E-007 0.0
  1.2579496E-007 -4.2034890E-007 0.0
  1.2043629E-007 -4.1938090E-007 0.0
  1.1524249E-007 -4.1831516E-007 0.0
  1.1034162E-007 -4.1715330E-007 0.0
  1.0588692E-007 -4.1592062E-007 0.0
  1.0203995E-007 -4.1466882E-007 0.0
  9.8972618E-008 -4.1347601E-007 0.0
  9.6796448E-008 -4.1250913E-007 0.0
  9.5364904E-008 -4.1195323E-007 0.0
  9.4235054E-008 -4.1182655E-007 0.0
  9.2369585E-008 -4.1204388E-007 0.0
  8.9497622E-008 -4.1204537E-007 0.0
  8.6213979E-008 -4.1205949E-007 0.0
  2.5249197E-008 -3.9828183E-007 0.0
  1.7527471E-008 -3.9827512E-007 0.0
  9.8264400E-009 -3.9827425E-007 0.0
  2.1592186E-009 -3.9826138E-007 0.0
 -5.4871414E-009 -3.9824942E-007 0.0
 -1.3114783E-008 -3.9824206E-007 0.0
 -1.7932041E-007 -3.6963839E-007 0.0
 -1.8780947E-007 -3.7000987E-007 0.0
 -1.9658515E-007 -3.7045678E-007 0.0
 -2.0548201E-007 -3.7092609E-007 0.0
 -2.1454164E-007 -3.7144607E-007 0.0
 -2.2376274E-007 -3.7202694E-007 0.0
 -2.3314371E-007 -3.7267314E-007 0.0
 -2.4268570E-007 -3.7338670E-007 0.0
 -2.5239721E-007 -3.7416874E-007 0.0
 -2.6229584E-007 -3.7501932E-007 0.0
 -2.7240741E-007 -3.7593781E-007 0.0
 -2.8278164E-007 -3.7693743E-007 0.0
 -2.9353370E-007 -3.7802556E-007 0.0
 -3.0477340E-007 -3.7909734E-007 0.0
 -3.1625532E-007 -3.7992183E-007 0.0
 -3.2713395E-007 -3.8039235E-007 0.0
  2.1531375E-007 -4.1614145E-007 0.0
  2.1077169E-007 -4.1633367E-007 0.0
  2.0650129E-007 -4.1655728E-007 0.0
  2.0223839E-007 -4.1687365E-007 0.0
  1.9798144E-007 -4.1725325E-007 0.0
  1.9372542E-007 -4.1766456E-007 0.0
  1.8944777E-007 -4.1807498E-007 0.0
  1.8511727E-007 -4.1844755E-007 0.0
  1.8070434E-007 -4.1875085E-007 0.0
  1.7618171E-007 -4.1896276E-007 0.0
  1.7152647E-007 -4.1906837E-007 0.0
  1.6672301E-007 -4.1905927E-007 0.0
  1.6176380E-007 -4.1893316E-007 0.0
  1.5664888E-007 -4.1869302E-007 0.0
  1.5138505E-007 -4.1834560E-007 0.0
  1.4598532E-007 -4.1789987E-007 0.0
  1.4046895E-007 -4.1736523E-007 0.0
  1.3486238E-007 -4.1674975E-007 0.0
  1.2920137E-007 -4.1605830E-007 0.0
  1.2353501E-007 -4.1529090E-007 0.0
  1.1793233E-007 -4.1444144E-007 0.0
  1.1249267E-007 -4.1349818E-007 0.0
  1.0736213E-007 -4.1244831E-007 0.0
  1.0275175E-007 -4.1130378E-007 0.0
  9.8889014E-008 -4.1016247E-007 0.0
  9.5969489E-008 -4.0914602E-007 0.0
  9.4357880E-008 -4.0837086E-007 0.0
  9.4035109E-008 -4.0831356E-007 0.0
  9.4282784E-008 -4.0945508E-007 0.0
  9.2239258E-008 -4.0954406E-007 0.0
  3.2933336E-008 -3.9828186E-007 0.0
  3.2935733E-008 -3.9058926E-007 0.0
  2.5237439E-008 -3.9058581E-007 0.0
  1.7531897E-008 -3.9058517E-007 0.0
  9.8340636E-009 -3.9058906E-007 0.0
  2.1607250E-009 -3.9059430E-007 0.0
 -5.4925203E-009 -3.9060018E-007 0.0
 -1.3119199E-008 -3.9060658E-007 0.0
 -1.7186859E-007 -3.6930457E-007 0.0
 -1.7219455E-007 -3.6021492E-007 0.0
 -1.7970073E-007 -3.6054487E-007 0.0
 -1.8776386E-007 -3.6087985E-007 0.0
 -1.9621329E-007 -3.6132275E-007 0.0
 -2.0486987E-007 -3.6183361E-007 0.0
 -2.1369921E-007 -3.6238438E-007 0.0
 -2.2269756E-007 -3.6297802E-007 0.0
 -2.3186061E-007 -3.6361842E-007 0.0
 -2.4118910E-007 -3.6430896E-007 0.0
 -2.5069275E-007 -3.6505215E-007 0.0
 -2.6039430E-007 -3.6584637E-007 0.0
 -2.7033133E-007 -3.6667828E-007 0.0
 -2.8053574E-007 -3.6751804E-007 0.0
 -2.9113680E-007 -3.6841117E-007 0.0
 -3.0261789E-007 -3.6934641E-007 0.0
 -3.1509073E-007 -3.6987149E-007 0.0
 -3.2711492E-007 -3.6959745E-007 0.0
  2.1535940E-007 -4.1147037E-007 0.0
  2.1120053E-007 -4.1132787E-007 0.0
  2.0711648E-007 -4.1140736E-007 0.0
  2.0295624E-007 -4.1157772E-007 0.0
  1.9875336E-007 -4.1180275E-007 0.0
  1.9451045E-007 -4.1209080E-007 0.0
  1.9017846E-007 -4.1240643E-007 0.0
  1.8573428E-007 -4.1270341E-007 0.0
  1.8116263E-007 -4.1295389E-007 0.0
  1.7644435E-007 -4.1313595E-007 0.0
  1.7156475E-007 -4.1323072E-007 0.0
  1.6651764E-007 -4.1322552E-007 0.0
  1.6130442E-007 -4.1311515E-007 0.0
  1.5593243E-007 -4.1290088E-007 0.0
  1.5041368E-007 -4.1258902E-007 0.0
  1.4476414E-007 -4.1218922E-007 0.0
  1.3900363E-007 -4.1171258E-007 0.0
  1.3315670E-007 -4.1116962E-007 0.0
  1.2725489E-007 -4.1056815E-007 0.0
  1.2134089E-007 -4.0991091E-007 0.0
  1.1547609E-007 -4.0919303E-007 0.0
  1.0975400E-007 -4.0839945E-007 0.0
  1.0432150E-007 -4.0750424E-007 0.0
  9.9431180E-008 -4.0646775E-007 0.0
  9.5519031E-008 -4.0533388E-007 0.0
  9.2837045E-008 -4.0451489E-007 0.0
  9.1681713E-008 -4.0439407E-007 0.0
  9.3566738E-008 -4.0528876E-007 0.0
  3.2935132E-008 -3.8289032E-007 0.0
  2.5234412E-008 -3.8289193E-007 0.0
  1.7535788E-008 -3.8289524E-007 0.0
  9.8392615E-009 -3.8290330E-007 0.0
  2.1671887E-009 -3.8292025E-007 0.0
 -5.4985902E-009 -3.8292440E-007 0.0
 -1.6511537E-007 -3.5985308E-007 0.0
 -1.6549412E-007 -3.5112857E-007 0.0
 -1.7246615E-007 -3.5150855E-007 0.0
 -1.7983844E-007 -3.5185845E-007 0.0
 -1.8763644E-007 -3.5222808E-007 0.0
 -1.9578641E-007 -3.5265691E-007 0.0
 -2.0419410E-007 -3.5315220E-007 0.0
 -2.1280209E-007 -3.5369581E-007 0.0
 -2.2158879E-007 -3.5427707E-007 0.0
 -2.3054504E-007 -3.5489379E-007 0.0
 -2.3966850E-007 -3.5554660E-007 0.0
 -2.4896729E-007 -3.5623814E-007 0.0
 -2.5847014E-007 -3.5697164E-007 0.0
 -2.6823551E-007 -3.5773455E-007 0.0
 -2.7835244E-007 -3.5845516E-007 0.0
 -2.8877028E-007 -3.5894083E-007 0.0
 -3.0027602E-007 -3.5919036E-007 0.0
 -3.1489455E-007 -3.5854705E-007 0.0
  2.1136174E-007 -4.0657210E-007 0.0
  2.0765206E-007 -4.0631496E-007 0.0
  2.0352270E-007 -4.0621319E-007 0.0
  1.9944182E-007 -4.0625076E-007 0.0
  1.9524896E-007 -4.0642485E-007 0.0
  1.9087002E-007 -4.0662243E-007 0.0
  1.8633420E-007 -4.0681512E-007 0.0
  1.8162947E-007 -4.0699155E-007 0.0
  1.7673468E-007 -4.0712454E-007 0.0
  1.7164342E-007 -4.0718745E-007 0.0
  1.6636087E-007 -4.0716359E-007 0.0
  1.6089862E-007 -4.0704529E-007 0.0
  1.5527254E-007 -4.0683246E-007 0.0
  1.4950097E-007 -4.0653134E-007 0.0
  1.4360364E-007 -4.0615265E-007 0.0
  1.3760135E-007 -4.0570959E-007 0.0
  1.3151675E-007 -4.0521581E-007 0.0
  1.2537630E-007 -4.0468311E-007 0.0
  1.1921415E-007 -4.0411886E-007 0.0
  1.1307938E-007 -4.0352259E-007 0.0
  1.0704900E-007 -4.0288192E-007 0.0
  1.0125593E-007 -4.0216707E-007 0.0
  9.5919843E-008 -4.0132516E-007 0.0
  9.1568230E-008 -4.0016594E-007 0.0
  8.9351188E-008 -3.9869244E-007 0.0
  8.7282798E-008 -3.9697306E-007 0.0
  2.5233287E-008 -3.7519930E-007 0.0
  1.7538531E-008 -3.7519948E-007 0.0
  9.8390278E-009 -3.7519803E-007 0.0
 -1.5892738E-007 -3.5074558E-007 0.0
 -1.5932946E-007 -3.4242869E-007 0.0
 -1.6578053E-007 -3.4283751E-007 0.0
 -1.7260731E-007 -3.4321454E-007 0.0
 -1.7981924E-007 -3.4358349E-007 0.0
 -1.8739812E-007 -3.4396664E-007 0.0
 -1.9530182E-007 -3.4439120E-007 0.0
 -2.0347246E-007 -3.4486600E-007 0.0
 -2.1186357E-007 -3.4538594E-007 0.0
 -2.2044626E-007 -3.4594143E-007 0.0
 -2.2920458E-007 -3.4652541E-007 0.0
 -2.3813061E-007 -3.4713441E-007 0.0
 -2.4722636E-007 -3.4776990E-007 0.0
 -2.5651157E-007 -3.4844238E-007 0.0
 -2.6605985E-007 -3.4918299E-007 0.0
 -2.7602060E-007 -3.5000548E-007 0.0
 -2.8654615E-007 -3.5081294E-007 0.0
 -2.9606436E-007 -3.5202260E-007 0.0
  2.0828454E-007 -4.0067395E-007 0.0
  2.0389861E-007 -4.0066069E-007 0.0
  2.0012821E-007 -4.0065230E-007 0.0
  1.9592934E-007 -4.0067389E-007 0.0
  1.9150335E-007 -4.0068183E-007 0.0
  1.8691812E-007 -4.0074412E-007 0.0
  1.8210740E-007 -4.0083606E-007 0.0
  1.7704916E-007 -4.0090315E-007 0.0
  1.7175419E-007 -4.0091373E-007 0.0
  1.6624027E-007 -4.0084893E-007 0.0
  1.6053035E-007 -4.0069842E-007 0.0
  1.5465036E-007 -4.0046076E-007 0.0
  1.4862622E-007 -4.0014218E-007 0.0
  1.4248219E-007 -3.9975446E-007 0.0
  1.3624048E-007 -3.9931274E-007 0.0
  1.2992197E-007 -3.9883349E-007 0.0
  1.2354769E-007 -3.9833238E-007 0.0
  1.1714172E-007 -3.9782163E-007 0.0
  1.1073672E-007 -3.9730614E-007 0.0
  1.0438592E-007 -3.9677803E-007 0.0
  9.8184335E-008 -3.9621021E-007 0.0
  9.2339564E-008 -3.9556153E-007 0.0
  8.7114697E-008 -3.9484724E-007 0.0
  8.4555257E-008 -3.9388100E-007 0.0
  8.7367154E-008 -3.9481279E-007 0.0
 -1.5326956E-007 -3.4202476E-007 0.0
 -1.5369646E-007 -3.3409191E-007 0.0
 -1.5963152E-007 -3.3454129E-007 0.0
 -1.6594520E-007 -3.3494871E-007 0.0
 -1.7263387E-007 -3.3532918E-007 0.0
 -1.7967941E-007 -3.3569865E-007 0.0
 -1.8706240E-007 -3.3608148E-007 0.0
 -1.9474997E-007 -3.3649611E-007 0.0
 -2.0270332E-007 -3.3695188E-007 0.0
 -2.1088643E-007 -3.3744777E-007 0.0
 -2.1927175E-007 -3.3797702E-007 0.0
 -2.2783968E-007 -3.3853120E-007 0.0
 -2.3657651E-007 -3.3910276E-007 0.0
 -2.4547315E-007 -3.3968779E-007 0.0
 -2.5453257E-007 -3.4029406E-007 0.0
 -2.6377334E-007 -3.4095915E-007 0.0
 -2.7338041E-007 -3.4184565E-007 0.0
 -2.8371256E-007 -3.4309511E-007 0.0
 -2.9390206E-007 -3.4410403E-007 0.0
  2.0837978E-007 -3.9597076E-007 0.0
  2.0390994E-007 -3.9587581E-007 0.0
  2.0080987E-007 -3.9509941E-007 0.0
  1.9644842E-007 -3.9470731E-007 0.0
  1.9208110E-007 -3.9449501E-007 0.0
  1.8750990E-007 -3.9446244E-007 0.0
  1.8260042E-007 -3.9446097E-007 0.0
  1.7738544E-007 -3.9444113E-007 0.0
  1.7189079E-007 -3.9437967E-007 0.0
  1.6614466E-007 -3.9425306E-007 0.0
  1.6018359E-007 -3.9404691E-007 0.0
  1.5404586E-007 -3.9375795E-007 0.0
  1.4776629E-007 -3.9339241E-007 0.0
  1.4137416E-007 -3.9296269E-007 0.0
  1.3489335E-007 -3.9248495E-007 0.0
  1.2834311E-007 -3.9197716E-007 0.0
  1.2173896E-007 -3.9145735E-007 0.0
  1.1509398E-007 -3.9094090E-007 0.0
  1.0842142E-007 -3.9043607E-007 0.0
  1.0174057E-007 -3.8993533E-007 0.0
  9.5093904E-008 -3.8939892E-007 0.0
  8.8573593E-008 -3.8871119E-007 0.0
  8.2532114E-008 -3.8765865E-007 0.0
  7.5873574E-008 -3.8514569E-007 0.0
 -1.4806226E-007 -3.3370423E-007 0.0
 -1.4850969E-007 -3.2593132E-007 0.0
 -1.5397919E-007 -3.2659713E-007 0.0
 -1.5980890E-007 -3.2707920E-007 0.0
 -1.6600955E-007 -3.2747604E-007 0.0
 -1.7255961E-007 -3.2783536E-007 0.0
 -1.7944395E-007 -3.2818811E-007 0.0
 -1.8664269E-007 -3.2855583E-007 0.0
 -1.9413137E-007 -3.2895433E-007 0.0
 -2.0188160E-007 -3.2939156E-007 0.0
 -2.0986560E-007 -3.2986821E-007 0.0
 -2.1805914E-007 -3.3037952E-007 0.0
 -2.2644211E-007 -3.3091748E-007 0.0
 -2.3499676E-007 -3.3147236E-007 0.0
 -2.4370555E-007 -3.3203400E-007 0.0
 -2.5254560E-007 -3.3259453E-007 0.0
 -2.6151231E-007 -3.3315457E-007 0.0
 -2.7055083E-007 -3.3370207E-007 0.0
 -2.8074742E-007 -3.3430757E-007 0.0
 -2.9402578E-007 -3.3381149E-007 0.0
  2.0174925E-007 -3.8826852E-007 0.0
  1.9679605E-007 -3.8826413E-007 0.0
  1.9271357E-007 -3.8811829E-007 0.0
  1.8811515E-007 -3.8797467E-007 0.0
  1.8310391E-007 -3.8782762E-007 0.0
  1.7774400E-007 -3.8769803E-007 0.0
  1.7205066E-007 -3.8754873E-007 0.0
  1.6606530E-007 -3.8734370E-007 0.0
  1.5984323E-007 -3.8706113E-007 0.0
  1.5343910E-007 -3.8669652E-007 0.0
  1.4689747E-007 -3.8625631E-007 0.0
  1.4025228E-007 -3.8575269E-007 0.0
  1.3352887E-007 -3.8520098E-007 0.0
  1.2674508E-007 -3.8461859E-007 0.0
  1.1991111E-007 -3.8402347E-007 0.0
  1.1302872E-007 -3.8343140E-007 0.0
  1.0608998E-007 -3.8285113E-007 0.0
  9.9074528E-008 -3.8227486E-007 0.0
  9.1943723E-008 -3.8165276E-007 0.0
  8.4630685E-008 -3.8083542E-007 0.0
  7.7010289E-008 -3.7929788E-007 0.0
  6.8937384E-008 -3.7701170E-007 0.0
 -1.3948871E-007 -3.2441852E-007 0.0
 -1.3977893E-007 -3.1840699E-007 0.0
 -1.4434750E-007 -3.1899716E-007 0.0
 -1.4464336E-007 -3.2457055E-007 0.0
 -1.4888859E-007 -3.1938096E-007 0.0
 -1.5416909E-007 -3.1973139E-007 0.0
 -1.5991355E-007 -3.2008565E-007 0.0
 -1.6599807E-007 -3.2040660E-007 0.0
 -1.7240880E-007 -3.2071430E-007 0.0
 -1.7913137E-007 -3.2102964E-007 0.0
 -1.8615084E-007 -3.2136967E-007 0.0
 -1.9344863E-007 -3.2174610E-007 0.0
 -2.0100351E-007 -3.2216529E-007 0.0
 -2.0879349E-007 -3.2262850E-007 0.0
 -2.1679761E-007 -3.2313301E-007 0.0
 -2.2499648E-007 -3.2367336E-007 0.0
 -2.3337089E-007 -3.2424195E-007 0.0
 -2.4189686E-007 -3.2482914E-007 0.0
 -2.5054024E-007 -3.2542448E-007 0.0
 -2.5922526E-007 -3.2602934E-007 0.0
 -2.6793461E-007 -3.2670024E-007 0.0
 -2.7570299E-007 -3.2811381E-007 0.0
  2.0188689E-007 -3.8287277E-007 0.0
  1.9681487E-007 -3.8273287E-007 0.0
  1.9335275E-007 -3.8169497E-007 0.0
  1.8868124E-007 -3.8119151E-007 0.0
  1.8362053E-007 -3.8086542E-007 0.0
  1.7813433E-007 -3.8061780E-007 0.0
  1.7223928E-007 -3.8037784E-007 0.0
  1.6599669E-007 -3.8008405E-007 0.0
  1.5949589E-007 -3.7970880E-007 0.0
  1.5281230E-007 -3.7924921E-007 0.0
  1.4599852E-007 -3.7871307E-007 0.0
  1.3909099E-007 -3.7810981E-007 0.0
  1.3211645E-007 -3.7745127E-007 0.0
  1.2509192E-007 -3.7675220E-007 0.0
  1.1802260E-007 -3.7602824E-007 0.0
  1.1089936E-007 -3.7529265E-007 0.0
  1.0369411E-007 -3.7455205E-007 0.0
  9.6349892E-008 -3.7379983E-007 0.0
  8.8754836E-008 -3.7300553E-007 0.0
  8.0695787E-008 -3.7208261E-007 0.0
  7.1628396E-008 -3.7089892E-007 0.0
  6.2225045E-008 -3.6849281E-007 0.0
 -1.3493818E-007 -3.1813698E-007 0.0
 -1.3528588E-007 -3.1185010E-007 0.0
 -1.3982940E-007 -3.1239878E-007 0.0
 -1.4442881E-007 -3.1281582E-007 0.0
 -1.4920758E-007 -3.1310838E-007 0.0
 -1.5438840E-007 -3.1329479E-007 0.0
 -1.5999392E-007 -3.1348520E-007 0.0
 -1.6594339E-007 -3.1369761E-007 0.0
 -1.7220226E-007 -3.1393088E-007 0.0
 -1.7875713E-007 -3.1419421E-007 0.0
 -1.8559587E-007 -3.1449726E-007 0.0
 -1.9270453E-007 -3.1484736E-007 0.0
 -2.0006650E-007 -3.1524871E-007 0.0
 -2.0766344E-007 -3.1570277E-007 0.0
 -2.1547652E-007 -3.1620917E-007 0.0
 -2.2348676E-007 -3.1676676E-007 0.0
 -2.3167368E-007 -3.1737453E-007 0.0
 -2.4001097E-007 -3.1803213E-007 0.0
 -2.4844884E-007 -3.1874157E-007 0.0
 -2.5688677E-007 -3.1951821E-007 0.0
 -2.6498132E-007 -3.2049322E-007 0.0
 -2.7207011E-007 -3.2167123E-007 0.0
  1.9389035E-007 -3.7448547E-007 0.0
  1.8925481E-007 -3.7393694E-007 0.0
  1.8416975E-007 -3.7348046E-007 0.0
  1.7858940E-007 -3.7313924E-007 0.0
  1.7247198E-007 -3.7281765E-007 0.0
  1.6593502E-007 -3.7243122E-007 0.0
  1.5913038E-007 -3.7195046E-007 0.0
  1.5215412E-007 -3.7138836E-007 0.0
  1.4505486E-007 -3.7074854E-007 0.0
  1.3787021E-007 -3.7003130E-007 0.0
  1.3063029E-007 -3.6924338E-007 0.0
  1.2335242E-007 -3.6839638E-007 0.0
  1.1603721E-007 -3.6750277E-007 0.0
  1.0866505E-007 -3.6657133E-007 0.0
  1.0119068E-007 -3.6560320E-007 0.0
  9.3530429E-008 -3.6458921E-007 0.0
  8.5537819E-008 -3.6351099E-007 0.0
  7.6925294E-008 -3.6236484E-007 0.0
  6.7305432E-008 -3.6125702E-007 0.0
  5.4438396E-008 -3.6027737E-007 0.0
 -1.2738629E-007 -3.1076373E-007 0.0
 -1.2758776E-007 -3.0575794E-007 0.0
 -1.3160683E-007 -3.0614970E-007 0.0
 -1.3180032E-007 -3.1087392E-007 0.0
 -1.3556268E-007 -3.0640171E-007 0.0
 -1.3996622E-007 -3.0663851E-007 0.0
 -1.4460237E-007 -3.0686316E-007 0.0
 -1.4944527E-007 -3.0700728E-007 0.0
 -1.5458763E-007 -3.0709569E-007 0.0
 -1.6006387E-007 -3.0717575E-007 0.0
 -1.6586016E-007 -3.0728636E-007 0.0
 -1.7195346E-007 -3.0744134E-007 0.0
 -1.7833102E-007 -3.0764711E-007 0.0
 -1.8498383E-007 -3.0790902E-007 0.0
 -1.9190125E-007 -3.0823056E-007 0.0
 -1.9906952E-007 -3.0861367E-007 0.0
 -2.0647197E-007 -3.0905960E-007 0.0
 -2.1409015E-007 -3.0957008E-007 0.0
 -2.2190433E-007 -3.1014838E-007 0.0
 -2.2989200E-007 -3.1080053E-007 0.0
 -2.3802327E-007 -3.1153820E-007 0.0
 -2.4625064E-007 -3.1237717E-007 0.0
 -2.5444909E-007 -3.1332944E-007 0.0
 -2.6229603E-007 -3.1435209E-007 0.0
 -2.6922252E-007 -3.1539723E-007 0.0
  1.8982941E-007 -3.6623350E-007 0.0
  1.8478377E-007 -3.6563434E-007 0.0
  1.7917328E-007 -3.6519606E-007 0.0
  1.7276857E-007 -3.6481801E-007 0.0
  1.6586619E-007 -3.6431284E-007 0.0
  1.5874770E-007 -3.6373343E-007 0.0
  1.5146767E-007 -3.6309079E-007 0.0
  1.4406214E-007 -3.6235858E-007 0.0
  1.3657795E-007 -3.6152728E-007 0.0
  1.2905248E-007 -3.6060071E-007 0.0
  1.2150500E-007 -3.5959010E-007 0.0
  1.1393123E-007 -3.5850639E-007 0.0
  1.0630081E-007 -3.5735406E-007 0.0
  9.8553157E-008 -3.5612686E-007 0.0
  9.0587738E-008 -3.5480577E-007 0.0
  8.2238679E-008 -3.5335914E-007 0.0
  7.3249570E-008 -3.5174719E-007 0.0
  6.3045962E-008 -3.4984315E-007 0.0
  5.0546836E-008 -3.4780124E-007 0.0
  3.5721467E-008 -3.4640305E-007 0.0
  3.5683049E-008 -3.6106396E-007 0.0
 -1.2338120E-007 -3.0556731E-007 0.0
 -1.2360790E-007 -3.0042953E-007 0.0
 -1.2765724E-007 -3.0073027E-007 0.0
 -1.3171951E-007 -3.0094272E-007 0.0
 -1.3586204E-007 -3.0106914E-007 0.0
 -1.4022846E-007 -3.0111328E-007 0.0
 -1.4483895E-007 -3.0113445E-007 0.0
 -1.4967184E-007 -3.0113204E-007 0.0
 -1.5475375E-007 -3.0110951E-007 0.0
 -1.6011123E-007 -3.0109618E-007 0.0
 -1.6575007E-007 -3.0112106E-007 0.0
 -1.7166682E-007 -3.0120369E-007 0.0
 -1.7785724E-007 -3.0135363E-007 0.0
 -1.8431735E-007 -3.0157466E-007 0.0
 -1.9104005E-007 -3.0186737E-007 0.0
 -1.9801320E-007 -3.0223113E-007 0.0
 -2.0521993E-007 -3.0266617E-007 0.0
 -2.1264033E-007 -3.0317527E-007 0.0
 -2.2025293E-007 -3.0376451E-007 0.0
 -2.2803390E-007 -3.0444323E-007 0.0
 -2.3595021E-007 -3.0522454E-007 0.0
 -2.4395676E-007 -3.0613543E-007 0.0
 -2.5200037E-007 -3.0718620E-007 0.0
 -2.5991054E-007 -3.0826290E-007 0.0
 -2.6702186E-007 -3.0913821E-007 0.0
  1.8533593E-007 -3.5738067E-007 0.0
  1.8002346E-007 -3.5676428E-007 0.0
  1.7307714E-007 -3.5618166E-007 0.0
  1.6580582E-007 -3.5559586E-007 0.0
  1.5838637E-007 -3.5501959E-007 0.0
  1.5077314E-007 -3.5435096E-007 0.0
  1.4302648E-007 -3.5355430E-007 0.0
  1.3520970E-007 -3.5262007E-007 0.0
  1.2737367E-007 -3.5155804E-007 0.0
  1.1954018E-007 -3.5038507E-007 0.0
  1.1169833E-007 -3.4911482E-007 0.0
  1.0380522E-007 -3.4775014E-007 0.0
  9.5785963E-008 -3.4627972E-007 0.0
  8.7526636E-008 -3.4467738E-007 0.0
  7.8859433E-008 -3.4290359E-007 0.0
  6.9515228E-008 -3.4090209E-007 0.0
  5.9077720E-008 -3.3867910E-007 0.0
  4.7185939E-008 -3.3647689E-007 0.0
  3.4205219E-008 -3.3474040E-007 0.0
  2.1543288E-008 -3.3360004E-007 0.0
  2.2100718E-008 -3.4531689E-007 0.0
  1.0104577E-008 -3.3262923E-007 0.0
  1.0689710E-008 -3.4384691E-007 0.0
 -4.9341964E-010 -3.3140634E-007 0.0
  7.5587140E-011 -3.4277501E-007 0.0
 -1.1061986E-008 -3.2991005E-007 0.0
 -1.1344265E-008 -3.4281484E-007 0.0
 -1.1617274E-007 -2.9980543E-007 0.0
 -1.1627961E-007 -2.9551601E-007 0.0
 -1.2008142E-007 -2.9568635E-007 0.0
 -1.2016838E-007 -2.9987218E-007 0.0
 -1.2383376E-007 -2.9575572E-007 0.0
 -1.2783200E-007 -2.9580434E-007 0.0
 -1.3194832E-007 -2.9583531E-007 0.0
 -1.3616740E-007 -2.9580208E-007 0.0
 -1.4055026E-007 -2.9571306E-007 0.0
 -1.4512720E-007 -2.9559050E-007 0.0
 -1.4990856E-007 -2.9545591E-007 0.0
 -1.5490605E-007 -2.9532553E-007 0.0
 -1.6013610E-007 -2.9522116E-007 0.0
 -1.6561180E-007 -2.9516764E-007 0.0
 -1.7134250E-007 -2.9518461E-007 0.0
 -1.7733580E-007 -2.9528324E-007 0.0
 -1.8359609E-007 -2.9546646E-007 0.0
 -1.9012100E-007 -2.9573170E-007 0.0
 -1.9689937E-007 -2.9607471E-007 0.0
 -2.0391213E-007 -2.9649328E-007 0.0
 -2.1113581E-007 -2.9698973E-007 0.0
 -2.1854661E-007 -2.9757140E-007 0.0
 -2.2612232E-007 -2.9824729E-007 0.0
 -2.3383887E-007 -2.9902072E-007 0.0
 -2.4164566E-007 -2.9988254E-007 0.0
 -2.4953355E-007 -3.0087439E-007 0.0
 -2.5768844E-007 -3.0196069E-007 0.0
 -2.6567796E-007 -3.0272831E-007 0.0
  1.8182508E-007 -3.4614815E-007 0.0
  1.7345385E-007 -3.4651301E-007 0.0
  1.6589389E-007 -3.4628796E-007 0.0
  1.5810155E-007 -3.4583598E-007 0.0
  1.5010118E-007 -3.4519703E-007 0.0
  1.4195701E-007 -3.4436217E-007 0.0
  1.3376430E-007 -3.4333967E-007 0.0
  1.2559087E-007 -3.4215394E-007 0.0
  1.1746027E-007 -3.4083543E-007 0.0
  1.0935022E-007 -3.3940532E-007 0.0
  1.0120206E-007 -3.3786842E-007 0.0
  9.2927223E-008 -3.3621316E-007 0.0
  8.4406014E-008 -3.3441646E-007 0.0
  7.5476887E-008 -3.3245181E-007 0.0
  6.5927390E-008 -3.3031658E-007 0.0
  5.5535172E-008 -3.2808993E-007 0.0
  4.4232972E-008 -3.2598113E-007 0.0
  3.2350353E-008 -3.2424348E-007 0.0
  2.0566246E-008 -3.2292541E-007 0.0
  9.3710872E-009 -3.2179105E-007 0.0
 -1.2504614E-009 -3.2057184E-007 0.0
 -1.1401979E-008 -3.1925638E-007 0.0
 -2.0459426E-008 -3.1799207E-007 0.0
 -1.9666935E-008 -3.2710623E-007 0.0
 -2.8675873E-008 -3.1647234E-007 0.0
 -2.7996868E-008 -3.2495991E-007 0.0
 -3.6521823E-008 -3.1505133E-007 0.0
 -3.5917475E-008 -3.2323241E-007 0.0
 -4.4077294E-008 -3.1378803E-007 0.0
 -4.3587507E-008 -3.2190398E-007 0.0
 -5.1549792E-008 -3.1268188E-007 0.0
 -5.1181464E-008 -3.2110632E-007 0.0
 -5.9246950E-008 -3.1182759E-007 0.0
 -5.9480732E-008 -3.2106322E-007 0.0
 -1.1243668E-007 -2.9540330E-007 0.0
 -1.1253358E-007 -2.9122383E-007 0.0
 -1.1637380E-007 -2.9121662E-007 0.0
 -1.2023078E-007 -2.9117644E-007 0.0
 -1.2412328E-007 -2.9109881E-007 0.0
 -1.2813044E-007 -2.9097439E-007 0.0
 -1.3226497E-007 -2.9082870E-007 0.0
 -1.3651596E-007 -2.9065251E-007 0.0
 -1.4090261E-007 -2.9043953E-007 0.0
 -1.4544663E-007 -2.9020196E-007 0.0
 -1.5016094E-007 -2.8995760E-007 0.0
 -1.5505662E-007 -2.8972727E-007 0.0
 -1.6014685E-007 -2.8953468E-007 0.0
 -1.6544813E-007 -2.8940491E-007 0.0
 -1.7098025E-007 -2.8935958E-007 0.0
 -1.7676433E-007 -2.8941119E-007 0.0
 -1.8281687E-007 -2.8956108E-007 0.0
 -1.8914240E-007 -2.8980177E-007 0.0
 -1.9572992E-007 -2.9012326E-007 0.0
 -2.0255567E-007 -2.9051896E-007 0.0
 -2.0958972E-007 -2.9098929E-007 0.0
 -2.1680351E-007 -2.9154191E-007 0.0
 -2.2417898E-007 -2.9218883E-007 0.0
 -2.3171369E-007 -2.9292990E-007 0.0
 -2.3941570E-007 -2.9371351E-007 0.0
 -2.4716850E-007 -2.9438566E-007 0.0
 -2.5550943E-007 -2.9491166E-007 0.0
 -2.6579069E-007 -2.9456482E-007 0.0
  1.8203878E-007 -3.3719489E-007 0.0
  1.7414915E-007 -3.3681585E-007 0.0
  1.6613228E-007 -3.3665400E-007 0.0
  1.5793472E-007 -3.3628396E-007 0.0
  1.4946864E-007 -3.3567311E-007 0.0
  1.4085781E-007 -3.3481255E-007 0.0
  1.3223728E-007 -3.3371301E-007 0.0
  1.2370403E-007 -3.3242128E-007 0.0
  1.1527735E-007 -3.3098777E-007 0.0
  1.0691405E-007 -3.2944457E-007 0.0
  9.8534099E-008 -3.2779885E-007 0.0
  9.0037394E-008 -3.2604136E-007 0.0
  8.1306561E-008 -3.2415834E-007 0.0
  7.2206045E-008 -3.2214711E-007 0.0
  6.2593853E-008 -3.2003917E-007 0.0
  5.2369018E-008 -3.1792613E-007 0.0
  4.1561648E-008 -3.1595712E-007 0.0
  3.0403239E-008 -3.1426964E-007 0.0
  1.9259603E-008 -3.1288930E-007 0.0
  8.4284732E-009 -3.1171471E-007 0.0
 -1.9608908E-009 -3.1063736E-007 0.0
 -1.1773687E-008 -3.0964016E-007 0.0
 -2.0840683E-008 -3.0863458E-007 0.0
 -2.9212015E-008 -3.0756615E-007 0.0
 -3.7088531E-008 -3.0639478E-007 0.0
 -4.4669594E-008 -3.0516919E-007 0.0
 -5.2115420E-008 -3.0388145E-007 0.0
 -5.9581107E-008 -3.0249195E-007 0.0
 -6.7149541E-008 -3.0089044E-007 0.0
 -6.7630036E-008 -3.1164898E-007 0.0
 -1.0520130E-007 -2.9110820E-007 0.0
 -1.0520280E-007 -2.8774097E-007 0.0
 -1.0894490E-007 -2.8736951E-007 0.0
 -1.0883953E-007 -2.9118407E-007 0.0
 -1.1273707E-007 -2.8708415E-007 0.0
 -1.1659814E-007 -2.8684885E-007 0.0
 -1.2050318E-007 -2.8663739E-007 0.0
 -1.2445971E-007 -2.8641469E-007 0.0
 -1.2850225E-007 -2.8617051E-007 0.0
 -1.3264908E-007 -2.8590324E-007 0.0
 -1.3690710E-007 -2.8561267E-007 0.0
 -1.4128362E-007 -2.8529778E-007 0.0
 -1.4578841E-007 -2.8496462E-007 0.0
 -1.5042951E-007 -2.8462743E-007 0.0
 -1.5521438E-007 -2.8430650E-007 0.0
 -1.6015380E-007 -2.8402745E-007 0.0
 -1.6526629E-007 -2.8381981E-007 0.0
 -1.7058165E-007 -2.8371100E-007 0.0
 -1.7613885E-007 -2.8371797E-007 0.0
 -1.8197327E-007 -2.8383963E-007 0.0
 -1.8809961E-007 -2.8406058E-007 0.0
 -1.9450537E-007 -2.8436143E-007 0.0
 -2.0115772E-007 -2.8472938E-007 0.0
 -2.0801608E-007 -2.8516177E-007 0.0
 -2.1504372E-007 -2.8566583E-007 0.0
 -2.2221759E-007 -2.8625745E-007 0.0
 -2.2955728E-007 -2.8696466E-007 0.0
 -2.3714298E-007 -2.8778702E-007 0.0
 -2.4505445E-007 -2.8860140E-007 0.0
 -2.5210698E-007 -2.8962040E-007 0.0
  1.7454081E-007 -3.2721614E-007 0.0
  1.6649242E-007 -3.2679355E-007 0.0
  1.5786929E-007 -3.2638027E-007 0.0
  1.4888910E-007 -3.2579301E-007 0.0
  1.3972185E-007 -3.2491353E-007 0.0
  1.3061671E-007 -3.2375096E-007 0.0
  1.2171349E-007 -3.2237775E-007 0.0
  1.1301292E-007 -3.2087640E-007 0.0
  1.0442888E-007 -3.1928529E-007 0.0
  9.5853574E-008 -3.1760796E-007 0.0
  8.7179340E-008 -3.1583533E-007 0.0
  7.8299770E-008 -3.1396345E-007 0.0
  6.9110663E-008 -3.1200612E-007 0.0
  5.9524257E-008 -3.1000754E-007 0.0
  4.9501683E-008 -3.0804843E-007 0.0
  3.9094190E-008 -3.0623146E-007 0.0
  2.8459959E-008 -3.0464130E-007 0.0
  1.7822432E-008 -3.0330289E-007 0.0
  7.3908680E-009 -3.0218088E-007 0.0
 -2.6747612E-009 -3.0122065E-007 0.0
 -1.2248150E-008 -3.0036118E-007 0.0
 -2.1240843E-008 -2.9953486E-007 0.0
 -2.9667827E-008 -2.9865735E-007 0.0
 -3.7637895E-008 -2.9768270E-007 0.0
 -4.5290919E-008 -2.9658829E-007 0.0
 -5.2759427E-008 -2.9537193E-007 0.0
 -6.0130198E-008 -2.9404232E-007 0.0
 -6.7218233E-008 -2.9270308E-007 0.0
 -7.3132140E-008 -2.9144574E-007 0.0
 -7.2310606E-008 -2.9771689E-007 0.0
 -7.8325134E-008 -2.8985920E-007 0.0
 -7.7659777E-008 -2.9548184E-007 0.0
 -8.3345097E-008 -2.8841973E-007 0.0
 -8.2743466E-008 -2.9369426E-007 0.0
 -8.8153967E-008 -2.8715499E-007 0.0
 -8.7628154E-008 -2.9216267E-007 0.0
 -9.2766075E-008 -2.8605274E-007 0.0
 -9.2306364E-008 -2.9083108E-007 0.0
 -9.7188022E-008 -2.8510168E-007 0.0
 -9.6792383E-008 -2.8966954E-007 0.0
 -1.0142849E-007 -2.8430264E-007 0.0
 -1.0108605E-007 -2.8865048E-007 0.0
 -1.0542445E-007 -2.8369672E-007 0.0
 -1.0923037E-007 -2.8317011E-007 0.0
 -1.1305403E-007 -2.8273785E-007 0.0
 -1.1692758E-007 -2.8237099E-007 0.0
 -1.2085572E-007 -2.8203997E-007 0.0
 -1.2484545E-007 -2.8171867E-007 0.0
 -1.2891259E-007 -2.8138875E-007 0.0
 -1.3307088E-007 -2.8104230E-007 0.0
 -1.3732749E-007 -2.8067531E-007 0.0
 -1.4168617E-007 -2.8028698E-007 0.0
 -1.4614861E-007 -2.7988124E-007 0.0
 -1.5071555E-007 -2.7946872E-007 0.0
 -1.5538789E-007 -2.7906673E-007 0.0
 -1.6017078E-007 -2.7870162E-007 0.0
 -1.6507955E-007 -2.7840790E-007 0.0
 -1.7015198E-007 -2.7822731E-007 0.0
 -1.7545367E-007 -2.7818739E-007 0.0
 -1.8105396E-007 -2.7828670E-007 0.0
 -1.8698398E-007 -2.7849436E-007 0.0
 -1.9322372E-007 -2.7877736E-007 0.0
 -1.9972327E-007 -2.7911562E-007 0.0
 -2.0642661E-007 -2.7950451E-007 0.0
 -2.1328501E-007 -2.7994869E-007 0.0
 -2.2026704E-007 -2.8046104E-007 0.0
 -2.2736181E-007 -2.8106969E-007 0.0
 -2.3470494E-007 -2.8188790E-007 0.0
 -2.4259851E-007 -2.8297886E-007 0.0
 -2.5033684E-007 -2.8383275E-007 0.0
  1.6689963E-007 -3.1637530E-007 0.0
  1.5796827E-007 -3.1601711E-007 0.0
  1.4839063E-007 -3.1548225E-007 0.0
  1.3854062E-007 -3.1463919E-007 0.0
  1.2887590E-007 -3.1343237E-007 0.0
  1.1962587E-007 -3.1202457E-007 0.0
  1.1070252E-007 -3.1053046E-007 0.0
  1.0194344E-007 -3.0897589E-007 0.0
  9.3212902E-008 -3.0734779E-007 0.0
  8.4405176E-008 -3.0563764E-007 0.0
  7.5429835E-008 -3.0384977E-007 0.0
  6.6210930E-008 -3.0200786E-007 0.0
  5.6696223E-008 -3.0015861E-007 0.0
  4.6875492E-008 -2.9836935E-007 0.0
  3.6798326E-008 -2.9671480E-007 0.0
  2.6576278E-008 -2.9525453E-007 0.0
  1.6360333E-008 -2.9401366E-007 0.0
  6.3059959E-009 -2.9298031E-007 0.0
 -3.4518538E-009 -2.9211584E-007 0.0
 -1.2807811E-008 -2.9136624E-007 0.0
 -2.1700080E-008 -2.9066370E-007 0.0
 -3.0128551E-008 -2.8994146E-007 0.0
 -3.8150353E-008 -2.8914847E-007 0.0
 -4.5851179E-008 -2.8826509E-007 0.0
 -5.3306536E-008 -2.8730631E-007 0.0
 -6.0515017E-008 -2.8634113E-007 0.0
 -6.7267262E-008 -2.8546332E-007 0.0
 -7.3315263E-008 -2.8458667E-007 0.0
 -7.8738078E-008 -2.8365955E-007 0.0
 -8.3766553E-008 -2.8267332E-007 0.0
 -8.8549832E-008 -2.8174541E-007 0.0
 -9.3118750E-008 -2.8091230E-007 0.0
 -9.7493419E-008 -2.8018722E-007 0.0
 -1.0167524E-007 -2.7957646E-007 0.0
 -1.0567636E-007 -2.7905177E-007 0.0
 -1.0955614E-007 -2.7858509E-007 0.0
 -1.1341082E-007 -2.7814910E-007 0.0
 -1.1730170E-007 -2.7774780E-007 0.0
 -1.2124638E-007 -2.7737083E-007 0.0
 -1.2525531E-007 -2.7700276E-007 0.0
 -1.2933857E-007 -2.7663011E-007 0.0
 -1.3350456E-007 -2.7624355E-007 0.0
 -1.3775770E-007 -2.7583752E-007 0.0
 -1.4209784E-007 -2.7540922E-007 0.0
 -1.4652050E-007 -2.7495935E-007 0.0
 -1.5101811E-007 -2.7449416E-007 0.0
 -1.5558526E-007 -2.7402725E-007 0.0
 -1.6021663E-007 -2.7357574E-007 0.0
 -1.6491373E-007 -2.7318099E-007 0.0
 -1.6970584E-007 -2.7290165E-007 0.0
 -1.7469963E-007 -2.7280596E-007 0.0
 -1.8004010E-007 -2.7288704E-007 0.0
 -1.8578242E-007 -2.7308963E-007 0.0
 -1.9188161E-007 -2.7335597E-007 0.0
 -1.9825392E-007 -2.7366524E-007 0.0
 -2.0482504E-007 -2.7401559E-007 0.0
 -2.1153720E-007 -2.7440967E-007 0.0
 -2.1834445E-007 -2.7484898E-007 0.0
 -2.2523349E-007 -2.7533311E-007 0.0
 -2.3216669E-007 -2.7583328E-007 0.0
 -2.4006905E-007 -2.7637632E-007 0.0
 -2.5045703E-007 -2.7596883E-007 0.0
  1.5832127E-007 -3.0485012E-007 0.0
  1.4812593E-007 -3.0462182E-007 0.0
  1.3726988E-007 -3.0388189E-007 0.0
  1.2698475E-007 -3.0270462E-007 0.0
  1.1747590E-007 -3.0137138E-007 0.0
  1.0840375E-007 -3.0000750E-007 0.0
  9.9509436E-008 -2.9857903E-007 0.0
  9.0656793E-008 -2.9707097E-007 0.0
  8.1749588E-008 -2.9548081E-007 0.0
  7.2716504E-008 -2.9382331E-007 0.0
  6.3504086E-008 -2.9212978E-007 0.0
  5.4081933E-008 -2.9044713E-007 0.0
  4.4452120E-008 -2.8883306E-007 0.0
  3.4656787E-008 -2.8734617E-007 0.0
  2.4776907E-008 -2.8603270E-007 0.0
  1.4919787E-008 -2.8491563E-007 0.0
  5.2000989E-009 -2.8399095E-007 0.0
 -4.2770318E-009 -2.8323111E-007 0.0
 -1.3428492E-008 -2.8259064E-007 0.0
 -2.2203474E-008 -2.8201427E-007 0.0
 -3.0590231E-008 -2.8144749E-007 0.0
 -3.8611323E-008 -2.8085123E-007 0.0
 -4.6304970E-008 -2.8021323E-007 0.0
 -5.3693436E-008 -2.7955606E-007 0.0
 -6.0737662E-008 -2.7892849E-007 0.0
 -6.7332084E-008 -2.7835412E-007 0.0
 -7.3377721E-008 -2.7781102E-007 0.0
 -7.8896660E-008 -2.7724254E-007 0.0
 -8.4001039E-008 -2.7664561E-007 0.0
 -8.8798141E-008 -2.7604658E-007 0.0
 -9.3356381E-008 -2.7548534E-007 0.0
 -9.7709965E-008 -2.7498081E-007 0.0
 -1.0188479E-007 -2.7453266E-007 0.0
 -1.0591293E-007 -2.7412724E-007 0.0
 -1.0984638E-007 -2.7374265E-007 0.0
 -1.1374825E-007 -2.7336779E-007 0.0
 -1.1766765E-007 -2.7299883E-007 0.0
 -1.2163299E-007 -2.7263460E-007 0.0
 -1.2565887E-007 -2.7226935E-007 0.0
 -1.2975476E-007 -2.7189581E-007 0.0
 -1.3392661E-007 -2.7150759E-007 0.0
 -1.3817634E-007 -2.7109969E-007 0.0
 -1.4250095E-007 -2.7066821E-007 0.0
 -1.4689131E-007 -2.7021009E-007 0.0
 -1.5133156E-007 -2.6972464E-007 0.0
 -1.5580411E-007 -2.6921855E-007 0.0
 -1.6031264E-007 -2.6870549E-007 0.0
 -1.6482028E-007 -2.6817235E-007 0.0
 -1.6928378E-007 -2.6774697E-007 0.0
 -1.7386017E-007 -2.6755135E-007 0.0
 -1.7889718E-007 -2.6762831E-007 0.0
 -1.8448395E-007 -2.6782330E-007 0.0
 -1.9047814E-007 -2.6806568E-007 0.0
 -1.9674722E-007 -2.6834844E-007 0.0
 -2.0320424E-007 -2.6867820E-007 0.0
 -2.0978619E-007 -2.6905631E-007 0.0
 -2.1644164E-007 -2.6948458E-007 0.0
 -2.2311192E-007 -2.6997176E-007 0.0
 -2.2981804E-007 -2.7055866E-007 0.0
 -2.3579305E-007 -2.7177510E-007 0.0
  1.4848495E-007 -2.9247078E-007 0.0
  1.3588045E-007 -2.9244385E-007 0.0
  1.2495018E-007 -2.9158621E-007 0.0
  1.1535758E-007 -2.9056388E-007 0.0
  1.0617288E-007 -2.8942749E-007 0.0
  9.7169665E-008 -2.8818753E-007 0.0
  8.8212596E-008 -2.8683946E-007 0.0
  7.9227418E-008 -2.8539796E-007 0.0
  7.0160478E-008 -2.8389069E-007 0.0
  6.0975139E-008 -2.8235636E-007 0.0
  5.1653698E-008 -2.8084238E-007 0.0
  4.2202411E-008 -2.7940056E-007 0.0
  3.2654714E-008 -2.7808015E-007 0.0
  2.3069503E-008 -2.7691955E-007 0.0
  1.3523563E-008 -2.7593944E-007 0.0
  4.1003624E-009 -2.7513960E-007 0.0
 -5.1213357E-009 -2.7449990E-007 0.0
 -1.4076764E-008 -2.7398465E-007 0.0
 -2.2721655E-008 -2.7354961E-007 0.0
 -3.1034400E-008 -2.7315202E-007 0.0
 -3.9011555E-008 -2.7276157E-007 0.0
 -4.6655768E-008 -2.7236956E-007 0.0
 -5.3957456E-008 -2.7198968E-007 0.0
 -6.0880909E-008 -2.7164414E-007 0.0
 -6.7369624E-008 -2.7134275E-007 0.0
 -7.3383378E-008 -2.7106674E-007 0.0
 -7.8935298E-008 -2.7078770E-007 0.0
 -8.4087106E-008 -2.7048860E-007 0.0
 -8.8915388E-008 -2.7017659E-007 0.0
 -9.3485132E-008 -2.6986739E-007 0.0
 -9.7845839E-008 -2.6957327E-007 0.0
 -1.0203773E-007 -2.6929516E-007 0.0
 -1.0610189E-007 -2.6902427E-007 0.0
 -1.1008474E-007 -2.6874958E-007 0.0
 -1.1403425E-007 -2.6846355E-007 0.0
 -1.1799102E-007 -2.6816463E-007 0.0
 -1.2198324E-007 -2.6785322E-007 0.0
 -1.2602853E-007 -2.6752906E-007 0.0
 -1.3013718E-007 -2.6719033E-007 0.0
 -1.3431450E-007 -2.6683472E-007 0.0
 -1.3856123E-007 -2.6645995E-007 0.0
 -1.4287301E-007 -2.6606348E-007 0.0
 -1.4723903E-007 -2.6564129E-007 0.0
 -1.5163820E-007 -2.6518557E-007 0.0
 -1.5603762E-007 -2.6468728E-007 0.0
 -1.6042542E-007 -2.6414722E-007 0.0
 -1.6490503E-007 -2.6355185E-007 0.0
 -1.6902542E-007 -2.6275088E-007 0.0
 -1.7286028E-007 -2.6243709E-007 0.0
 -1.7759181E-007 -2.6247853E-007 0.0
 -1.8309248E-007 -2.6263220E-007 0.0
 -1.8901534E-007 -2.6283515E-007 0.0
 -1.9519352E-007 -2.6310915E-007 0.0
 -2.0154748E-007 -2.6344755E-007 0.0
 -2.0800737E-007 -2.6385152E-007 0.0
 -2.1450472E-007 -2.6433314E-007 0.0
 -2.2096444E-007 -2.6492599E-007 0.0
 -2.2716640E-007 -2.6575435E-007 0.0
 -2.3267285E-007 -2.6678908E-007 0.0
  1.3318552E-007 -2.8170989E-007 0.0
  1.2291110E-007 -2.8071934E-007 0.0
  1.1328433E-007 -2.7988602E-007 0.0
  1.0404432E-007 -2.7897287E-007 0.0
  9.4935024E-008 -2.7791288E-007 0.0
  8.5882724E-008 -2.7671881E-007 0.0
  7.6832492E-008 -2.7542137E-007 0.0
  6.7746989E-008 -2.7405945E-007 0.0
  5.8600898E-008 -2.7267721E-007 0.0
  4.9383303E-008 -2.7132227E-007 0.0
  4.0100360E-008 -2.7004255E-007 0.0
  3.0776677E-008 -2.6888156E-007 0.0
  2.1453758E-008 -2.6787295E-007 0.0
  1.2185250E-008 -2.6703594E-007 0.0
  3.0300709E-009 -2.6637282E-007 0.0
 -5.9547310E-009 -2.6586936E-007 0.0
 -1.4719657E-008 -2.6549775E-007 0.0
 -2.3225711E-008 -2.6522229E-007 0.0
 -3.1443846E-008 -2.6500738E-007 0.0
 -3.9351201E-008 -2.6482672E-007 0.0
 -4.6925581E-008 -2.6466989E-007 0.0
 -5.4140931E-008 -2.6454143E-007 0.0
 -6.0966272E-008 -2.6445081E-007 0.0
 -6.7372223E-008 -2.6439829E-007 0.0
 -7.3344844E-008 -2.6436924E-007 0.0
 -7.8898181E-008 -2.6434097E-007 0.0
 -8.4073491E-008 -2.6429694E-007 0.0
 -8.8927054E-008 -2.6423260E-007 0.0
 -9.3517620E-008 -2.6415204E-007 0.0
 -9.7899294E-008 -2.6405924E-007 0.0
 -1.0212048E-007 -2.6395310E-007 0.0
 -1.0622565E-007 -2.6382785E-007 0.0
 -1.1025725E-007 -2.6367696E-007 0.0
 -1.1425490E-007 -2.6349702E-007 0.0
 -1.1825255E-007 -2.6328849E-007 0.0
 -1.2227624E-007 -2.6305416E-007 0.0
 -1.2634392E-007 -2.6279699E-007 0.0
 -1.3046653E-007 -2.6251930E-007 0.0
 -1.3464918E-007 -2.6222293E-007 0.0
 -1.3889191E-007 -2.6190986E-007 0.0
 -1.4318989E-007 -2.6158208E-007 0.0
 -1.4753203E-007 -2.6124074E-007 0.0
 -1.5189848E-007 -2.6088393E-007 0.0
 -1.5624499E-007 -2.6049753E-007 0.0
 -1.6050654E-007 -2.6006430E-007 0.0
 -1.6514644E-007 -2.5923916E-007 0.0
 -1.6934520E-007 -2.5853345E-007 0.0
 -1.7160279E-007 -2.5735625E-007 0.0
 -1.7610578E-007 -2.5725198E-007 0.0
 -1.8162065E-007 -2.5733352E-007 0.0
 -1.8747032E-007 -2.5756184E-007 0.0
 -1.9357444E-007 -2.5787378E-007 0.0
 -1.9983657E-007 -2.5825731E-007 0.0
 -2.0618062E-007 -2.5871745E-007 0.0
 -2.1252615E-007 -2.5927292E-007 0.0
 -2.1875704E-007 -2.5996279E-007 0.0
 -2.2469148E-007 -2.6080767E-007 0.0
 -2.3010100E-007 -2.6176523E-007 0.0
  1.3028183E-007 -2.7138527E-007 0.0
  1.2061526E-007 -2.7030404E-007 0.0
  1.1128518E-007 -2.6959963E-007 0.0
  1.0198223E-007 -2.6880072E-007 0.0
  9.2780592E-008 -2.6784663E-007 0.0
  8.3642161E-008 -2.6675834E-007 0.0
  7.4540063E-008 -2.6557283E-007 0.0
  6.5449171E-008 -2.6433248E-007 0.0
  5.6352130E-008 -2.6308231E-007 0.0
  4.7241280E-008 -2.6186827E-007 0.0
  3.8120587E-008 -2.6073484E-007 0.0
  2.9006178E-008 -2.5972152E-007 0.0
  1.9925132E-008 -2.5885896E-007 0.0
  1.0912520E-008 -2.5816569E-007 0.0
  2.0073556E-009 -2.5764625E-007 0.0
 -6.7515291E-009 -2.5729124E-007 0.0
 -1.5328311E-008 -2.5707914E-007 0.0
 -2.3690161E-008 -2.5697981E-007 0.0
 -3.1803985E-008 -2.5696048E-007 0.0
 -3.9632003E-008 -2.5699375E-007 0.0
 -4.7131934E-008 -2.5706562E-007 0.0
 -5.4264247E-008 -2.5717576E-007 0.0
 -6.1001713E-008 -2.5732861E-007 0.0
 -6.7332816E-008 -2.5751981E-007 0.0
 -7.3260463E-008 -2.5773222E-007 0.0
 -7.8801053E-008 -2.5794224E-007 0.0
 -8.3984658E-008 -2.5813132E-007 0.0
 -8.8854616E-008 -2.5829115E-007 0.0
 -9.3464293E-008 -2.5842085E-007 0.0
 -9.7870509E-008 -2.5851971E-007 0.0
 -1.0212590E-007 -2.5858372E-007 0.0
 -1.0627536E-007 -2.5860686E-007 0.0
 -1.1035682E-007 -2.5858499E-007 0.0
 -1.1440333E-007 -2.5851789E-007 0.0
 -1.1844351E-007 -2.5840908E-007 0.0
 -1.2250085E-007 -2.5826401E-007 0.0
 -1.2659284E-007 -2.5808841E-007 0.0
 -1.3073037E-007 -2.5788760E-007 0.0
 -1.3491794E-007 -2.5766701E-007 0.0
 -1.3915429E-007 -2.5743313E-007 0.0
 -1.4343340E-007 -2.5719426E-007 0.0
 -1.4774353E-007 -2.5696083E-007 0.0
 -1.5206074E-007 -2.5674878E-007 0.0
 -1.5634132E-007 -2.5659279E-007 0.0
 -1.6036420E-007 -2.5660582E-007 0.0
 -1.6871471E-007 -2.5042591E-007 0.0
 -1.7443041E-007 -2.5134451E-007 0.0
 -1.7994780E-007 -2.5177874E-007 0.0
 -1.8580230E-007 -2.5217044E-007 0.0
 -1.9186440E-007 -2.5258323E-007 0.0
 -1.9805922E-007 -2.5304323E-007 0.0
 -2.0430688E-007 -2.5357154E-007 0.0
 -2.1052227E-007 -2.5419056E-007 0.0
 -2.1659936E-007 -2.5491692E-007 0.0
 -2.2240743E-007 -2.5574626E-007 0.0
 -2.2782159E-007 -2.5662634E-007 0.0
  1.2680085E-007 -2.6113546E-007 0.0
  1.1853007E-007 -2.6051460E-007 0.0
  1.0924978E-007 -2.5980400E-007 0.0
  9.9929632E-008 -2.5896682E-007 0.0
  9.0651688E-008 -2.5801857E-007 0.0
  8.1449061E-008 -2.5697119E-007 0.0
  7.2313661E-008 -2.5585355E-007 0.0
  6.3233078E-008 -2.5470217E-007 0.0
  5.4196199E-008 -2.5355764E-007 0.0
  4.5197313E-008 -2.5246187E-007 0.0
  3.6237641E-008 -2.5145549E-007 0.0
  2.7325592E-008 -2.5057473E-007 0.0
  1.8475912E-008 -2.4984824E-007 0.0
  9.7080812E-009 -2.4929436E-007 0.0
  1.0443526E-009 -2.4891962E-007 0.0
 -7.4921614E-009 -2.4871887E-007 0.0
 -1.5878761E-008 -2.4867636E-007 0.0
 -2.4091764E-008 -2.4876668E-007 0.0
 -3.2099161E-008 -2.4895654E-007 0.0
 -3.9851562E-008 -2.4921310E-007 0.0
 -4.7282756E-008 -2.4951565E-007 0.0
 -5.4334276E-008 -2.4986508E-007 0.0
 -6.0982685E-008 -2.5026680E-007 0.0
 -6.7237546E-008 -2.5071427E-007 0.0
 -7.3119197E-008 -2.5117988E-007 0.0
 -7.8644695E-008 -2.5163193E-007 0.0
 -8.3831740E-008 -2.5204681E-007 0.0
 -8.8710693E-008 -2.5241761E-007 0.0
 -9.3332526E-008 -2.5274467E-007 0.0
 -9.7760460E-008 -2.5302654E-007 0.0
 -1.0205195E-007 -2.5325491E-007 0.0
 -1.0624917E-007 -2.5342199E-007 0.0
 -1.1038302E-007 -2.5352525E-007 0.0
 -1.1447941E-007 -2.5356853E-007 0.0
 -1.1856246E-007 -2.5355925E-007 0.0
 -1.2265375E-007 -2.5350593E-007 0.0
 -1.2677052E-007 -2.5341670E-007 0.0
 -1.3092370E-007 -2.5329885E-007 0.0
 -1.3511635E-007 -2.5315979E-007 0.0
 -1.3934447E-007 -2.5300948E-007 0.0
 -1.4359970E-007 -2.5286106E-007 0.0
 -1.4786940E-007 -2.5273098E-007 0.0
 -1.5212789E-007 -2.5263863E-007 0.0
 -1.5631403E-007 -2.5261289E-007 0.0
 -1.6035802E-007 -2.5260042E-007 0.0
 -1.6638715E-007 -2.4446934E-007 0.0
 -1.7222291E-007 -2.4533616E-007 0.0
 -1.7804224E-007 -2.4609473E-007 0.0
 -1.8397325E-007 -2.4668086E-007 0.0
 -1.9005230E-007 -2.4721646E-007 0.0
 -1.9621502E-007 -2.4776219E-007 0.0
 -2.0239735E-007 -2.4835616E-007 0.0
 -2.0852623E-007 -2.4901985E-007 0.0
 -2.1451701E-007 -2.4976009E-007 0.0
 -2.2027968E-007 -2.5056219E-007 0.0
 -2.2574020E-007 -2.5138464E-007 0.0
  1.3301245E-007 -2.6092371E-007 0.0
  1.3319257E-007 -2.5298638E-007 0.0
  1.2490615E-007 -2.5236854E-007 0.0
  1.1632323E-007 -2.5137812E-007 0.0
  1.0715644E-007 -2.5036920E-007 0.0
  9.7814400E-008 -2.4939483E-007 0.0
  8.8498386E-008 -2.4838400E-007 0.0
  7.9260058E-008 -2.4732845E-007 0.0
  7.0115526E-008 -2.4624110E-007 0.0
  6.1063825E-008 -2.4514838E-007 0.0
  5.2100386E-008 -2.4408356E-007 0.0
  4.3221525E-008 -2.4308307E-007 0.0
  3.4426239E-008 -2.4218347E-007 0.0
  2.5716303E-008 -2.4141827E-007 0.0
  1.7095685E-008 -2.4081481E-007 0.0
  8.5700329E-009 -2.4039146E-007 0.0
  1.4676463E-010 -2.4015609E-007 0.0
 -8.1646823E-009 -2.4010679E-007 0.0
 -1.6353396E-008 -2.4023384E-007 0.0
 -2.4407858E-008 -2.4052007E-007 0.0
 -3.2308710E-008 -2.4093456E-007 0.0
 -4.0000212E-008 -2.4143056E-007 0.0
 -4.7380082E-008 -2.4197877E-007 0.0
 -5.4347246E-008 -2.4258001E-007 0.0
 -6.0889561E-008 -2.4325961E-007 0.0
 -6.7058720E-008 -2.4399679E-007 0.0
 -7.2898577E-008 -2.4474806E-007 0.0
 -7.8421049E-008 -2.4545865E-007 0.0
 -8.3619633E-008 -2.4610282E-007 0.0
 -8.8503786E-008 -2.4667594E-007 0.0
 -9.3125953E-008 -2.4719191E-007 0.0
 -9.7569940E-008 -2.4764759E-007 0.0
 -1.0190082E-007 -2.4803011E-007 0.0
 -1.0615240E-007 -2.4832745E-007 0.0
 -1.1034243E-007 -2.4854218E-007 0.0
 -1.1448934E-007 -2.4868457E-007 0.0
 -1.1861416E-007 -2.4876651E-007 0.0
 -1.2273790E-007 -2.4879925E-007 0.0
 -1.2687848E-007 -2.4879282E-007 0.0
 -1.3104787E-007 -2.4875578E-007 0.0
 -1.3524827E-007 -2.4869532E-007 0.0
 -1.3946935E-007 -2.4862118E-007 0.0
 -1.4369903E-007 -2.4855143E-007 0.0
 -1.4793068E-007 -2.4849996E-007 0.0
 -1.5214352E-007 -2.4847852E-007 0.0
 -1.5630527E-007 -2.4847622E-007 0.0
 -1.6413547E-007 -2.3869935E-007 0.0
 -1.6994828E-007 -2.3962407E-007 0.0
 -1.7593555E-007 -2.4044995E-007 0.0
 -1.8201587E-007 -2.4115109E-007 0.0
 -1.8815225E-007 -2.4177444E-007 0.0
 -1.9431592E-007 -2.4239187E-007 0.0
 -2.0046674E-007 -2.4304069E-007 0.0
 -2.0655196E-007 -2.4373761E-007 0.0
 -2.1250895E-007 -2.4448255E-007 0.0
 -2.1827462E-007 -2.4525959E-007 0.0
 -2.2380184E-007 -2.4603707E-007 0.0
  1.3232546E-007 -2.4358699E-007 0.0
  1.2318634E-007 -2.4296541E-007 0.0
  1.1419006E-007 -2.4204981E-007 0.0
  1.0497470E-007 -2.4099681E-007 0.0
  9.5627737E-008 -2.3992512E-007 0.0
  8.6292763E-008 -2.3885199E-007 0.0
  7.7045672E-008 -2.3777241E-007 0.0
  6.7915212E-008 -2.3669579E-007 0.0
  5.8911095E-008 -2.3564145E-007 0.0
  5.0035000E-008 -2.3463612E-007 0.0
  4.1285968E-008 -2.3371104E-007 0.0
  3.2661842E-008 -2.3289917E-007 0.0
  2.4159033E-008 -2.3223211E-007 0.0
  1.5771862E-008 -2.3173667E-007 0.0
  7.4926777E-009 -2.3143154E-007 0.0
 -6.8589680E-010 -2.3132473E-007 0.0
 -8.7666294E-009 -2.3141443E-007 0.0
 -1.6746377E-008 -2.3169518E-007 0.0
 -2.4622205E-008 -2.3216263E-007 0.0
 -3.2399792E-008 -2.3280721E-007 0.0
 -4.0058537E-008 -2.3357863E-007 0.0
 -4.7425087E-008 -2.3439082E-007 0.0
 -5.4285860E-008 -2.3529478E-007 0.0
 -6.0678260E-008 -2.3630477E-007 0.0
 -6.6747318E-008 -2.3740603E-007 0.0
 -7.2565503E-008 -2.3848177E-007 0.0
 -7.8114758E-008 -2.3948374E-007 0.0
 -8.3351826E-008 -2.4036576E-007 0.0
 -8.8243585E-008 -2.4114415E-007 0.0
 -9.2844886E-008 -2.4183544E-007 0.0
 -9.7298440E-008 -2.4245750E-007 0.0
 -1.0168309E-007 -2.4297005E-007 0.0
 -1.0599956E-007 -2.4336913E-007 0.0
 -1.1024879E-007 -2.4367148E-007 0.0
 -1.1444480E-007 -2.4389494E-007 0.0
 -1.1860845E-007 -2.4405387E-007 0.0
 -1.2276155E-007 -2.4416045E-007 0.0
 -1.2692365E-007 -2.4422570E-007 0.0
 -1.3110888E-007 -2.4425927E-007 0.0
 -1.3532173E-007 -2.4426927E-007 0.0
 -1.3954567E-007 -2.4426081E-007 0.0
 -1.4374576E-007 -2.4424903E-007 0.0
 -1.4795125E-007 -2.4425821E-007 0.0
 -1.5214735E-007 -2.4426859E-007 0.0
 -1.6174981E-007 -2.3309463E-007 0.0
 -1.6760355E-007 -2.3405287E-007 0.0
 -1.7377230E-007 -2.3488689E-007 0.0
 -1.7999682E-007 -2.3558542E-007 0.0
 -1.8619786E-007 -2.3624952E-007 0.0
 -1.9237937E-007 -2.3691781E-007 0.0
 -1.9852514E-007 -2.3761184E-007 0.0
 -2.0460232E-007 -2.3833690E-007 0.0
 -2.1056547E-007 -2.3908598E-007 0.0
 -2.1636681E-007 -2.3984281E-007 0.0
 -2.2197197E-007 -2.4058507E-007 0.0
  1.3101606E-007 -2.3402035E-007 0.0
  1.2154698E-007 -2.3336538E-007 0.0
  1.1218649E-007 -2.3252807E-007 0.0
  1.0279779E-007 -2.3152078E-007 0.0
  9.3389744E-008 -2.3043532E-007 0.0
  8.4035383E-008 -2.2933254E-007 0.0
  7.4792980E-008 -2.2823964E-007 0.0
  6.5693640E-008 -2.2717241E-007 0.0
  5.6752096E-008 -2.2614855E-007 0.0
  4.7975355E-008 -2.2519068E-007 0.0
  3.9365748E-008 -2.2432636E-007 0.0
  3.0921214E-008 -2.2358612E-007 0.0
  2.2634209E-008 -2.2300068E-007 0.0
  1.4490316E-008 -2.2259745E-007 0.0
  6.4680796E-009 -2.2239621E-007 0.0
 -1.4575422E-009 -2.2240468E-007 0.0
 -9.3048194E-009 -2.2261572E-007 0.0
 -1.7071348E-008 -2.2301609E-007 0.0
 -2.4746060E-008 -2.2361225E-007 0.0
 -3.2349842E-008 -2.2443026E-007 0.0
 -3.9953844E-008 -2.2548843E-007 0.0
 -4.7447579E-008 -2.2669198E-007 0.0
 -5.4090639E-008 -2.2792437E-007 0.0
 -6.0232323E-008 -2.2950696E-007 0.0
 -6.6266405E-008 -2.3101356E-007 0.0
 -7.2093290E-008 -2.3242234E-007 0.0
 -7.7682442E-008 -2.3373870E-007 0.0
 -8.3026952E-008 -2.3494889E-007 0.0
 -8.7955451E-008 -2.3590909E-007 0.0
 -9.2470930E-008 -2.3680002E-007 0.0
 -9.6963031E-008 -2.3754134E-007 0.0
 -1.0142744E-007 -2.3812066E-007 0.0
 -1.0581514E-007 -2.3857529E-007 0.0
 -1.1012025E-007 -2.3893693E-007 0.0
 -1.1436025E-007 -2.3922227E-007 0.0
 -1.1855831E-007 -2.3944204E-007 0.0
 -1.2273734E-007 -2.3960584E-007 0.0
 -1.2691815E-007 -2.3972437E-007 0.0
 -1.3111866E-007 -2.3980853E-007 0.0
 -1.3534645E-007 -2.3986775E-007 0.0
 -1.3958931E-007 -2.3991552E-007 0.0
 -1.4373985E-007 -2.3999376E-007 0.0
 -1.4796427E-007 -2.4000443E-007 0.0
 -1.5904287E-007 -2.2752871E-007 0.0
 -1.6520241E-007 -2.2859000E-007 0.0
 -1.7166299E-007 -2.2926000E-007 0.0
 -1.7797009E-007 -2.2992788E-007 0.0
 -1.8421707E-007 -2.3061487E-007 0.0
 -1.9041786E-007 -2.3132665E-007 0.0
 -1.9657566E-007 -2.3206376E-007 0.0
 -2.0267279E-007 -2.3281902E-007 0.0
 -2.0867491E-007 -2.3357707E-007 0.0
 -2.1453858E-007 -2.3431979E-007 0.0
 -2.2022879E-007 -2.3503313E-007 0.0
  1.2955941E-007 -2.2440221E-007 0.0
  1.1990284E-007 -2.2374436E-007 0.0
  1.1024538E-007 -2.2292805E-007 0.0
  1.0063767E-007 -2.2194461E-007 0.0
  9.1122446E-008 -2.2086564E-007 0.0
  8.1734711E-008 -2.1976291E-007 0.0
  7.2501210E-008 -2.1867745E-007 0.0
  6.3441852E-008 -2.1763080E-007 0.0
  5.4571802E-008 -2.1664004E-007 0.0
  4.5902283E-008 -2.1572575E-007 0.0
  3.7439567E-008 -2.1491366E-007 0.0
  2.9182934E-008 -2.1423330E-007 0.0
  2.1122326E-008 -2.1371551E-007 0.0
  1.3235868E-008 -2.1338911E-007 0.0
  5.4875073E-009 -2.1327664E-007 0.0
 -2.1705281E-009 -2.1338673E-007 0.0
 -9.7840553E-009 -2.1370674E-007 0.0
 -1.7361901E-008 -2.1419724E-007 0.0
 -2.4839958E-008 -2.1482932E-007 0.0
 -3.2214468E-008 -2.1567210E-007 0.0
 -3.9680720E-008 -2.1676393E-007 0.0
 -4.7411051E-008 -2.1816162E-007 0.0
 -5.3325363E-008 -2.2100552E-007 0.0
 -5.9568318E-008 -2.2309716E-007 0.0
 -6.5623447E-008 -2.2489922E-007 0.0
 -7.1485747E-008 -2.2657861E-007 0.0
 -7.7113283E-008 -2.2817963E-007 0.0
 -8.2474909E-008 -2.2975982E-007 0.0
 -8.7660517E-008 -2.3144814E-007 0.0
 -9.2056894E-008 -2.3227314E-007 0.0
 -9.6633777E-008 -2.3293089E-007 0.0
 -1.0118034E-007 -2.3347309E-007 0.0
 -1.0562354E-007 -2.3394503E-007 0.0
 -1.0997206E-007 -2.3435003E-007 0.0
 -1.1424826E-007 -2.3468609E-007 0.0
 -1.1847698E-007 -2.3495376E-007 0.0
 -1.2268103E-007 -2.3515725E-007 0.0
 -1.2688018E-007 -2.3530423E-007 0.0
 -1.3109590E-007 -2.3540702E-007 0.0
 -1.3534922E-007 -2.3547372E-007 0.0
 -1.3962559E-007 -2.3550298E-007 0.0
 -1.5562000E-007 -2.2219087E-007 0.0
 -1.6308334E-007 -2.2276930E-007 0.0
 -1.6958337E-007 -2.2340900E-007 0.0
 -1.7594746E-007 -2.2411287E-007 0.0
 -1.8221636E-007 -2.2484747E-007 0.0
 -1.8843371E-007 -2.2560991E-007 0.0
 -1.9461341E-007 -2.2639513E-007 0.0
 -2.0075245E-007 -2.2718858E-007 0.0
 -2.0682444E-007 -2.2796568E-007 0.0
 -2.1277947E-007 -2.2870169E-007 0.0
 -2.1856310E-007 -2.2938895E-007 0.0
  1.2812778E-007 -2.1474221E-007 0.0
  1.1826043E-007 -2.1410030E-007 0.0
  1.0828997E-007 -2.1326717E-007 0.0
  9.8450870E-008 -2.1226254E-007 0.0
  8.8821217E-008 -2.1118460E-007 0.0
  7.9398344E-008 -2.1010249E-007 0.0
  7.0175206E-008 -2.0904923E-007 0.0
  6.1157978E-008 -2.0804132E-007 0.0
  5.2361314E-008 -2.0709362E-007 0.0
  4.3801401E-008 -2.0622558E-007 0.0
  3.5489858E-008 -2.0546322E-007 0.0
  2.7428183E-008 -2.0483701E-007 0.0
  1.9604883E-008 -2.0437804E-007 0.0
  1.1992525E-008 -2.0411638E-007 0.0
  4.5418967E-009 -2.0407747E-007 0.0
 -2.8241799E-009 -2.0427457E-007 0.0
 -1.0193434E-008 -2.0469178E-007 0.0
 -1.7621738E-008 -2.0528180E-007 0.0
 -2.5015391E-008 -2.0594074E-007 0.0
 -3.2095713E-008 -2.0662413E-007 0.0
 -3.9492941E-008 -2.0740446E-007 0.0
 -4.7835201E-008 -2.0758133E-007 0.0
 -8.7747254E-008 -2.2814772E-007 0.0
 -9.1788487E-008 -2.2806392E-007 0.0
 -9.6394283E-008 -2.2842852E-007 0.0
 -1.0095680E-007 -2.2893834E-007 0.0
 -1.0542721E-007 -2.2945578E-007 0.0
 -1.0980670E-007 -2.2992109E-007 0.0
 -1.1411535E-007 -2.3031113E-007 0.0
 -1.1837547E-007 -2.3061928E-007 0.0
 -1.2260810E-007 -2.3084730E-007 0.0
 -1.2683251E-007 -2.3100011E-007 0.0
 -1.3106693E-007 -2.3108148E-007 0.0
 -1.3537126E-007 -2.3108860E-007 0.0
 -1.4622952E-007 -2.2243084E-007 0.0
 -1.4639075E-007 -2.1484850E-007 0.0
 -1.5368307E-007 -2.1548392E-007 0.0
 -1.6086120E-007 -2.1643779E-007 0.0
 -1.6750570E-007 -2.1734101E-007 0.0
 -1.7390225E-007 -2.1815191E-007 0.0
 -1.8019266E-007 -2.1895445E-007 0.0
 -1.8642355E-007 -2.1977104E-007 0.0
 -1.9262813E-007 -2.2060699E-007 0.0
 -1.9882347E-007 -2.2144856E-007 0.0
 -2.0499727E-007 -2.2226046E-007 0.0
 -2.1108569E-007 -2.2300110E-007 0.0
 -2.1698249E-007 -2.2366070E-007 0.0
  1.2688561E-007 -2.0497097E-007 0.0
  1.1662535E-007 -2.0437290E-007 0.0
  1.0624287E-007 -2.0346721E-007 0.0
  9.6190432E-008 -2.0241665E-007 0.0
  8.6479013E-008 -2.0135632E-007 0.0
  7.7034712E-008 -2.0032634E-007 0.0
  6.7823080E-008 -1.9933340E-007 0.0
  5.8844378E-008 -1.9838597E-007 0.0
  5.0115570E-008 -1.9749533E-007 0.0
  4.1661306E-008 -1.9668034E-007 0.0
  3.3502219E-008 -1.9596990E-007 0.0
  2.5642931E-008 -1.9539976E-007 0.0
  1.8067219E-008 -1.9500248E-007 0.0
  1.0745121E-008 -1.9480231E-007 0.0
  3.6214400E-009 -1.9482826E-007 0.0
 -3.4147810E-009 -1.9509550E-007 0.0
 -1.0525111E-008 -1.9558264E-007 0.0
 -1.7809846E-008 -1.9622286E-007 0.0
 -2.5276800E-008 -1.9698473E-007 0.0
 -3.1762998E-008 -1.9829714E-007 0.0
 -3.9770468E-008 -1.9840107E-007 0.0
 -1.4538880E-007 -2.0885300E-007 0.0
 -1.5184653E-007 -2.0952076E-007 0.0
 -1.5872358E-007 -2.1038257E-007 0.0
 -1.6540451E-007 -2.1126838E-007 0.0
 -1.7184546E-007 -2.1212915E-007 0.0
 -1.7815139E-007 -2.1297292E-007 0.0
 -1.8439040E-007 -2.1382527E-007 0.0
 -1.9061147E-007 -2.1469897E-007 0.0
 -1.9686098E-007 -2.1559004E-007 0.0
 -2.0316504E-007 -2.1645857E-007 0.0
 -2.0945700E-007 -2.1722415E-007 0.0
 -2.1552291E-007 -2.1785144E-007 0.0
  1.2609866E-007 -1.9491913E-007 0.0
  1.1491753E-007 -1.9433653E-007 0.0
  1.0402933E-007 -1.9335828E-007 0.0
  9.3853403E-008 -1.9233299E-007 0.0
  8.4111419E-008 -1.9136619E-007 0.0
  7.4655871E-008 -1.9042717E-007 0.0
  6.5454905E-008 -1.8952180E-007 0.0
  5.6505633E-008 -1.8865603E-007 0.0
  4.7831277E-008 -1.8783790E-007 0.0
  3.9470771E-008 -1.8708442E-007 0.0
  3.1462422E-008 -1.8642937E-007 0.0
  2.3819125E-008 -1.8592205E-007 0.0
  1.6510447E-008 -1.8560877E-007 0.0
  9.4839836E-009 -1.8550170E-007 0.0
  2.7173905E-009 -1.8559392E-007 0.0
 -3.9221687E-009 -1.8594499E-007 0.0
 -1.0777418E-008 -1.8646972E-007 0.0
 -1.8009633E-008 -1.8700306E-007 0.0
 -2.5670884E-008 -1.8730948E-007 0.0
 -1.4367955E-007 -2.0307966E-007 0.0
 -1.5003294E-007 -2.0386490E-007 0.0
 -1.5678667E-007 -2.0451183E-007 0.0
 -1.6338090E-007 -2.0528053E-007 0.0
 -1.6981147E-007 -2.0610461E-007 0.0
 -1.7611583E-007 -2.0694508E-007 0.0
 -1.8235096E-007 -2.0779751E-007 0.0
 -1.8857007E-007 -2.0867143E-007 0.0
 -1.9484359E-007 -2.0958215E-007 0.0
 -2.0127269E-007 -2.1051452E-007 0.0
 -2.0788111E-007 -2.1135161E-007 0.0
 -2.1428244E-007 -2.1192920E-007 0.0
  1.2629976E-007 -1.8334995E-007 0.0
  1.1305261E-007 -1.8353058E-007 0.0
  1.0166687E-007 -1.8286074E-007 0.0
  9.1507220E-008 -1.8208648E-007 0.0
  8.1731006E-008 -1.8125095E-007 0.0
  7.2271799E-008 -1.8041838E-007 0.0
  6.3078801E-008 -1.7961340E-007 0.0
  5.4147728E-008 -1.7884535E-007 0.0
  4.5506540E-008 -1.7811603E-007 0.0
  3.7215854E-008 -1.7743401E-007 0.0
  2.9349405E-008 -1.7683506E-007 0.0
  2.1946327E-008 -1.7639139E-007 0.0
  1.4959145E-008 -1.7618861E-007 0.0
  8.2575799E-009 -1.7626823E-007 0.0
  1.8024100E-009 -1.7655635E-007 0.0
 -4.2563229E-009 -1.7699467E-007 0.0
 -1.0884614E-008 -1.7767194E-007 0.0
 -1.8372978E-008 -1.7796882E-007 0.0
 -1.4123769E-007 -1.9754713E-007 0.0
 -1.4839610E-007 -1.9800325E-007 0.0
 -1.5496534E-007 -1.9859067E-007 0.0
 -1.6145381E-007 -1.9931066E-007 0.0
 -1.6782859E-007 -2.0009624E-007 0.0
 -1.7410990E-007 -2.0090754E-007 0.0
 -1.8033012E-007 -2.0172753E-007 0.0
 -1.8653602E-007 -2.0255510E-007 0.0
 -1.9278974E-007 -2.0339907E-007 0.0
 -1.9925989E-007 -2.0430969E-007 0.0
 -2.0626567E-007 -2.0521378E-007 0.0
 -2.1349111E-007 -2.0577484E-007 0.0
  1.0961643E-007 -1.7381688E-007 0.0
  9.9306078E-008 -1.7267317E-007 0.0
  8.9092402E-008 -1.7186692E-007 0.0
  7.9326231E-008 -1.7107595E-007 0.0
  6.9874494E-008 -1.7031463E-007 0.0
  6.0697363E-008 -1.6959966E-007 0.0
  5.1779095E-008 -1.6893693E-007 0.0
  4.3145360E-008 -1.6831690E-007 0.0
  3.4880463E-008 -1.6772469E-007 0.0
  2.7125549E-008 -1.6718077E-007 0.0
  1.9993350E-008 -1.6678608E-007 0.0
  1.3427102E-008 -1.6668782E-007 0.0
  7.1791850E-009 -1.6699091E-007 0.0
  9.8445449E-010 -1.6770713E-007 0.0
 -3.9810486E-009 -1.6934241E-007 0.0
 -1.1176150E-008 -1.6948539E-007 0.0
 -1.3278586E-007 -1.9771709E-007 0.0
 -1.3291323E-007 -1.9059457E-007 0.0
 -1.3979999E-007 -1.9106322E-007 0.0
 -1.4664402E-007 -1.9181226E-007 0.0
 -1.5317581E-007 -1.9258626E-007 0.0
 -1.5957372E-007 -1.9334474E-007 0.0
 -1.6589477E-007 -1.9411923E-007 0.0
 -1.7214493E-007 -1.9490018E-007 0.0
 -1.7834700E-007 -1.9567612E-007 0.0
 -1.8453635E-007 -1.9643643E-007 0.0
 -1.9078121E-007 -1.9716764E-007 0.0
 -1.9716446E-007 -1.9782884E-007 0.0
 -2.0451802E-007 -1.9841048E-007 0.0
 -2.1366238E-007 -1.9822168E-007 0.0
  1.0666561E-007 -1.6379572E-007 0.0
  9.6550466E-008 -1.6268048E-007 0.0
  8.6554230E-008 -1.6168416E-007 0.0
  7.6844823E-008 -1.6084617E-007 0.0
  6.7442359E-008 -1.6010299E-007 0.0
  5.8303875E-008 -1.5944879E-007 0.0
  4.9410392E-008 -1.5888316E-007 0.0
  4.0769473E-008 -1.5839639E-007 0.0
  3.2461745E-008 -1.5794173E-007 0.0
  2.4727818E-008 -1.5747199E-007 0.0
  1.7890858E-008 -1.5709861E-007 0.0
  1.1910033E-008 -1.5709899E-007 0.0
  6.2333779E-009 -1.5753779E-007 0.0
  3.4132679E-010 -1.5821673E-007 0.0
 -1.3221527E-007 -1.8466393E-007 0.0
 -1.3840353E-007 -1.8516981E-007 0.0
 -1.4490742E-007 -1.8588226E-007 0.0
 -1.5136164E-007 -1.8666762E-007 0.0
 -1.5771776E-007 -1.8744545E-007 0.0
 -1.6399788E-007 -1.8820939E-007 0.0
 -1.7021869E-007 -1.8896513E-007 0.0
 -1.7639910E-007 -1.8970805E-007 0.0
 -1.8257156E-007 -1.9043011E-007 0.0
 -1.8877761E-007 -1.9112456E-007 0.0
 -1.9514289E-007 -1.9180291E-007 0.0
 -2.0134162E-007 -1.9281741E-007 0.0
  1.0380902E-007 -1.5362629E-007 0.0
  9.3681779E-008 -1.5246256E-007 0.0
  8.3836780E-008 -1.5140691E-007 0.0
  7.4261531E-008 -1.5050506E-007 0.0
  6.4947111E-008 -1.4974422E-007 0.0
  5.5879505E-008 -1.4910575E-007 0.0
  4.7039331E-008 -1.4859815E-007 0.0
  3.8416014E-008 -1.4822931E-007 0.0
  3.0021345E-008 -1.4798856E-007 0.0
  2.2095933E-008 -1.4772748E-007 0.0
  1.5475368E-008 -1.4739077E-007 0.0
  1.0522825E-008 -1.4753497E-007 0.0
  5.5062917E-009 -1.4840998E-007 0.0
 -1.3107945E-007 -1.7897409E-007 0.0
 -1.3697840E-007 -1.7954925E-007 0.0
 -1.4323815E-007 -1.8020855E-007 0.0
 -1.4958600E-007 -1.8092638E-007 0.0
 -1.5589306E-007 -1.8166059E-007 0.0
 -1.6213506E-007 -1.8239713E-007 0.0
 -1.6832208E-007 -1.8313105E-007 0.0
 -1.7447103E-007 -1.8386015E-007 0.0
 -1.8060224E-007 -1.8458589E-007 0.0
 -1.8674283E-007 -1.8532377E-007 0.0
 -1.9284402E-007 -1.8615714E-007 0.0
 -1.9871798E-007 -1.8710133E-007 0.0
  1.0082646E-007 -1.4324672E-007 0.0
  9.0697626E-008 -1.4203402E-007 0.0
  8.1007235E-008 -1.4094473E-007 0.0
  7.1570648E-008 -1.4001758E-007 0.0
  6.2358802E-008 -1.3920294E-007 0.0
  5.3386154E-008 -1.3851797E-007 0.0
  4.4632371E-008 -1.3798443E-007 0.0
  3.6061731E-008 -1.3762843E-007 0.0
  2.7661904E-008 -1.3747973E-007 0.0
  1.9353867E-008 -1.3761745E-007 0.0
  1.2477721E-008 -1.3785844E-007 0.0
  9.8800185E-009 -1.3894628E-007 0.0
 -1.2965649E-007 -1.7342934E-007 0.0
 -1.3544822E-007 -1.7405416E-007 0.0
 -1.4161213E-007 -1.7467967E-007 0.0
 -1.4787710E-007 -1.7531140E-007 0.0
 -1.5411602E-007 -1.7598450E-007 0.0
 -1.6030614E-007 -1.7668527E-007 0.0
 -1.6644716E-007 -1.7740204E-007 0.0
 -1.7254745E-007 -1.7813081E-007 0.0
 -1.7861509E-007 -1.7887763E-007 0.0
 -1.8463994E-007 -1.7966709E-007 0.0
 -1.9057271E-007 -1.8052443E-007 0.0
 -1.9632647E-007 -1.8145158E-007 0.0
  9.7493133E-008 -1.3274247E-007 0.0
  8.7600264E-008 -1.3139993E-007 0.0
  7.8123090E-008 -1.3039714E-007 0.0
  6.8752647E-008 -1.2939784E-007 0.0
  5.9638457E-008 -1.2847290E-007 0.0
  5.0772027E-008 -1.2767026E-007 0.0
  4.2115786E-008 -1.2700839E-007 0.0
  3.3616327E-008 -1.2648786E-007 0.0
  2.5163218E-008 -1.2608646E-007 0.0
  1.6675340E-008 -1.2565711E-007 0.0
  6.3457703E-009 -1.2408371E-007 0.0
 -1.2792273E-007 -1.6795844E-007 0.0
 -1.3382643E-007 -1.6867045E-007 0.0
 -1.4004163E-007 -1.6917641E-007 0.0
 -1.4622163E-007 -1.6974551E-007 0.0
 -1.5238280E-007 -1.7037797E-007 0.0
 -1.5850642E-007 -1.7105546E-007 0.0
 -1.6458809E-007 -1.7176353E-007 0.0
 -1.7062617E-007 -1.7249717E-007 0.0
 -1.7661543E-007 -1.7326169E-007 0.0
 -1.8253831E-007 -1.7406866E-007 0.0
 -1.8835963E-007 -1.7492748E-007 0.0
 -1.9403955E-007 -1.7582922E-007 0.0
  9.3420247E-008 -1.2201657E-007 0.0
  8.4678946E-008 -1.2103997E-007 0.0
  7.5074348E-008 -1.1987189E-007 0.0
  6.5755183E-008 -1.1866754E-007 0.0
  5.6743395E-008 -1.1756531E-007 0.0
  4.7995750E-008 -1.1660137E-007 0.0
  3.9431296E-008 -1.1575644E-007 0.0
  3.0958859E-008 -1.1497442E-007 0.0
  2.2443565E-008 -1.1416834E-007 0.0
  1.3338253E-008 -1.1312407E-007 0.0
  2.5703098E-009 -1.1194762E-007 0.0
 -1.2565453E-007 -1.6269299E-007 0.0
 -1.3234931E-007 -1.6310287E-007 0.0
 -1.3848265E-007 -1.6359461E-007 0.0
 -1.4459093E-007 -1.6417424E-007 0.0
 -1.5067162E-007 -1.6480996E-007 0.0
 -1.5672499E-007 -1.6548726E-007 0.0
 -1.6274108E-007 -1.6619711E-007 0.0
 -1.6871127E-007 -1.6693684E-007 0.0
 -1.7462411E-007 -1.6770914E-007 0.0
 -1.8046186E-007 -1.6851908E-007 0.0
 -1.8620120E-007 -1.6936804E-007 0.0
 -1.9182156E-007 -1.7024935E-007 0.0
  1.0029016E-007 -1.2191267E-007 0.0
  1.0066175E-007 -1.1317053E-007 0.0
  9.1082972E-008 -1.1245903E-007 0.0
  8.1386282E-008 -1.1093607E-007 0.0
  7.1751171E-008 -1.0925752E-007 0.0
  6.2512365E-008 -1.0777152E-007 0.0
  5.3659713E-008 -1.0648999E-007 0.0
  4.5060701E-008 -1.0538336E-007 0.0
  3.6588119E-008 -1.0439490E-007 0.0
  2.8116813E-008 -1.0342234E-007 0.0
  1.9500710E-008 -1.0233694E-007 0.0
  1.0428642E-008 -1.0117811E-007 0.0
  6.1216080E-011 -1.0019991E-007 0.0
 -1.1775847E-007 -1.6284552E-007 0.0
 -1.1787658E-007 -1.5615933E-007 0.0
 -1.2434417E-007 -1.5658426E-007 0.0
 -1.3076428E-007 -1.5726039E-007 0.0
 -1.3690042E-007 -1.5794724E-007 0.0
 -1.4294305E-007 -1.5860599E-007 0.0
 -1.4896096E-007 -1.5927846E-007 0.0
 -1.5495069E-007 -1.5997250E-007 0.0
 -1.6090375E-007 -1.6069112E-007 0.0
 -1.6680864E-007 -1.6143623E-007 0.0
 -1.7265212E-007 -1.6221044E-007 0.0
 -1.7841842E-007 -1.6301592E-007 0.0
 -1.8409094E-007 -1.6385224E-007 0.0
 -1.8965696E-007 -1.6471498E-007 0.0
  1.0041995E-007 -1.0250516E-007 0.0
  8.8664411E-008 -1.0172970E-007 0.0
  7.7802251E-008 -1.0006224E-007 0.0
  6.8088288E-008 -9.8231914E-008 0.0
  5.9053973E-008 -9.6637631E-008 0.0
  5.0417579E-008 -9.5267417E-008 0.0
  4.2019044E-008 -9.4091105E-008 0.0
  3.3685133E-008 -9.3059224E-008 0.0
  2.5233817E-008 -9.2092310E-008 0.0
  1.6572559E-008 -9.1040410E-008 0.0
  7.8529229E-009 -8.9882737E-008 0.0
 -1.3603573E-009 -8.9072917E-008 0.0
 -1.1724501E-007 -1.5055967E-007 0.0
 -1.2307602E-007 -1.5101942E-007 0.0
 -1.2918750E-007 -1.5167008E-007 0.0
 -1.3526154E-007 -1.5238921E-007 0.0
 -1.4127101E-007 -1.5310087E-007 0.0
 -1.4724178E-007 -1.5380404E-007 0.0
 -1.5317931E-007 -1.5451474E-007 0.0
 -1.5907628E-007 -1.5524174E-007 0.0
 -1.6492227E-007 -1.5598996E-007 0.0
 -1.7070469E-007 -1.5676225E-007 0.0
 -1.7640978E-007 -1.5755996E-007 0.0
 -1.8202442E-007 -1.5838267E-007 0.0
 -1.8753902E-007 -1.5922812E-007 0.0
  1.0091072E-007 -8.9669045E-008 0.0
  8.5916810E-008 -8.9727742E-008 0.0
  7.3898213E-008 -8.8379840E-008 0.0
  6.4288733E-008 -8.6851371E-008 0.0
  5.5444223E-008 -8.5337891E-008 0.0
  4.7075305E-008 -8.3973474E-008 0.0
  3.8938864E-008 -8.2793292E-008 0.0
  3.0824509E-008 -8.1791775E-008 0.0
  2.2534691E-008 -8.0950004E-008 0.0
  1.3852441E-008 -8.0281554E-008 0.0
  5.4594426E-009 -7.9728043E-008 0.0
 -1.2142036E-009 -8.0081487E-008 0.0
 -1.1621909E-007 -1.4517597E-007 0.0
 -1.2178213E-007 -1.4569859E-007 0.0
 -1.2765764E-007 -1.4631506E-007 0.0
 -1.3362924E-007 -1.4699658E-007 0.0
 -1.3959289E-007 -1.4769782E-007 0.0
 -1.4552296E-007 -1.4840387E-007 0.0
 -1.5141432E-007 -1.4911865E-007 0.0
 -1.5726140E-007 -1.4984815E-007 0.0
 -1.6305517E-007 -1.5059588E-007 0.0
 -1.6878426E-007 -1.5136356E-007 0.0
 -1.7443616E-007 -1.5215181E-007 0.0
 -1.7999919E-007 -1.5296054E-007 0.0
 -1.8546466E-007 -1.5378926E-007 0.0
  8.0359173E-008 -7.9146040E-008 0.0
  6.9859921E-008 -7.7137363E-008 0.0
  6.0305112E-008 -7.5589612E-008 0.0
  5.1721872E-008 -7.4101179E-008 0.0
  4.3662243E-008 -7.2748164E-008 0.0
  3.5856679E-008 -7.1576221E-008 0.0
  2.8057536E-008 -7.0598650E-008 0.0
  2.0017036E-008 -6.9804973E-008 0.0
  1.1559759E-008 -6.9145300E-008 0.0
  1.7855740E-009 -6.8112530E-008 0.0
 -1.1494929E-007 -1.3990606E-007 0.0
 -1.2039035E-007 -1.4048250E-007 0.0
 -1.2614230E-007 -1.4108874E-007 0.0
 -1.3202845E-007 -1.4172543E-007 0.0
 -1.3793552E-007 -1.4238797E-007 0.0
 -1.4381778E-007 -1.4307434E-007 0.0
 -1.4966253E-007 -1.4378126E-007 0.0
 -1.5546259E-007 -1.4450741E-007 0.0
 -1.6120943E-007 -1.4525182E-007 0.0
 -1.6689195E-007 -1.4601344E-007 0.0
 -1.7249758E-007 -1.4679153E-007 0.0
 -1.7801430E-007 -1.4758610E-007 0.0
 -1.8343290E-007 -1.4839814E-007 0.0
  7.4900839E-008 -6.8722451E-008 0.0
  6.5054283E-008 -6.6599181E-008 0.0
  5.6045050E-008 -6.4739482E-008 0.0
  4.7828145E-008 -6.3145980E-008 0.0
  4.0171633E-008 -6.1754052E-008 0.0
  3.2776060E-008 -6.0569685E-008 0.0
  2.5364905E-008 -5.9584261E-008 0.0
  1.7662251E-008 -5.8762505E-008 0.0
  9.2588058E-009 -5.7980428E-008 0.0
 -4.6680070E-010 -5.7244935E-008 0.0
 -1.1348065E-007 -1.3471726E-007 0.0
 -1.1889118E-007 -1.3533674E-007 0.0
 -1.2462341E-007 -1.3592882E-007 0.0
 -1.3046275E-007 -1.3650942E-007 0.0
 -1.3630757E-007 -1.3713146E-007 0.0
 -1.4213354E-007 -1.3779471E-007 0.0
 -1.4792746E-007 -1.3849114E-007 0.0
 -1.5368125E-007 -1.3921300E-007 0.0
 -1.5938544E-007 -1.3995423E-007 0.0
 -1.6502783E-007 -1.4071031E-007 0.0
 -1.7059411E-007 -1.4147862E-007 0.0
 -1.7607001E-007 -1.4225903E-007 0.0
 -1.8144426E-007 -1.4305402E-007 0.0
  6.9178639E-008 -5.8675424E-008 0.0
  5.9819918E-008 -5.6368243E-008 0.0
  5.1386847E-008 -5.4330283E-008 0.0
  4.3722067E-008 -5.2592111E-008 0.0
  3.6586317E-008 -5.1140552E-008 0.0
  2.9695536E-008 -4.9939582E-008 0.0
  2.2756478E-008 -4.8952288E-008 0.0
  1.5452701E-008 -4.8128585E-008 0.0
  7.4036126E-009 -4.7440325E-008 0.0
 -1.8341264E-009 -4.6917045E-008 0.0
 -1.1174918E-007 -1.2956255E-007 0.0
 -1.1731159E-007 -1.3026052E-007 0.0
 -1.2313736E-007 -1.3074643E-007 0.0
 -1.2892241E-007 -1.3128508E-007 0.0
 -1.3470255E-007 -1.3188618E-007 0.0
 -1.4046612E-007 -1.3253992E-007 0.0
 -1.4620633E-007 -1.3323378E-007 0.0
 -1.5191480E-007 -1.3395652E-007 0.0
 -1.5758099E-007 -1.3469854E-007 0.0
 -1.6319058E-007 -1.3545210E-007 0.0
 -1.6872575E-007 -1.3621239E-007 0.0
 -1.7416765E-007 -1.3697889E-007 0.0
 -1.7950077E-007 -1.3775598E-007 0.0
  6.3024027E-008 -4.9019396E-008 0.0
  5.4181975E-008 -4.6531361E-008 0.0
  4.6389142E-008 -4.4342423E-008 0.0
  3.9401843E-008 -4.2515687E-008 0.0
  3.2921475E-008 -4.1040781E-008 0.0
  2.6640779E-008 -3.9863251E-008 0.0
  2.0265697E-008 -3.8919783E-008 0.0
  1.3500356E-008 -3.8170060E-008 0.0
  6.0187607E-009 -3.7615005E-008 0.0
 -2.5324144E-009 -3.7309382E-008 0.0
 -1.0952937E-007 -1.2456997E-007 0.0
 -1.1588237E-007 -1.2497174E-007 0.0
 -1.2165448E-007 -1.2544900E-007 0.0
 -1.2738932E-007 -1.2600925E-007 0.0
 -1.3310189E-007 -1.2662729E-007 0.0
 -1.3880374E-007 -1.2729329E-007 0.0
 -1.4449084E-007 -1.2799768E-007 0.0
 -1.5015676E-007 -1.2873024E-007 0.0
 -1.5579096E-007 -1.2948006E-007 0.0
 -1.6137709E-007 -1.3023662E-007 0.0
 -1.6689231E-007 -1.3099224E-007 0.0
 -1.7230996E-007 -1.3174542E-007 0.0
 -1.7760648E-007 -1.3250309E-007 0.0
  5.6360659E-008 -3.9829202E-008 0.0
  4.8107497E-008 -3.7141924E-008 0.0
  4.1082151E-008 -3.4834736E-008 0.0
  3.4926228E-008 -3.2995033E-008 0.0
  2.9235979E-008 -3.1590529E-008 0.0
  2.3665943E-008 -3.0518738E-008 0.0
  1.7945388E-008 -2.9685357E-008 0.0
  1.1834282E-008 -2.9051358E-008 0.0
  5.0736629E-009 -2.8642333E-008 0.0
 -2.6407918E-009 -2.8536647E-008 0.0
 -1.0197332E-007 -1.2471532E-007 0.0
 -1.0208936E-007 -1.1832407E-007 0.0
 -1.0826363E-007 -1.1873432E-007 0.0
 -1.1435934E-007 -1.1938868E-007 0.0
 -1.2014880E-007 -1.2005441E-007 0.0
 -1.2583054E-007 -1.2069597E-007 0.0
 -1.3148815E-007 -1.2135848E-007 0.0
 -1.3713363E-007 -1.2205196E-007 0.0
 -1.4277104E-007 -1.2277717E-007 0.0
 -1.4839826E-007 -1.2352809E-007 0.0
 -1.5400750E-007 -1.2429395E-007 0.0
 -1.5958201E-007 -1.2506124E-007 0.0
 -1.6509303E-007 -1.2581762E-007 0.0
 -1.7050155E-007 -1.2655872E-007 0.0
 -1.7576885E-007 -1.2729429E-007 0.0
  4.9096549E-008 -3.1133978E-008 0.0
  4.1537025E-008 -2.8226768E-008 0.0
  3.5507572E-008 -2.5854173E-008 0.0
  3.0399715E-008 -2.4137451E-008 0.0
  2.5636784E-008 -2.2948251E-008 0.0
  2.0849917E-008 -2.2097806E-008 0.0
  1.5829481E-008 -2.1443397E-008 0.0
  1.0443076E-008 -2.0940000E-008 0.0
  4.5198954E-009 -2.0665111E-008 0.0
 -2.2182442E-009 -2.0728009E-008 0.0
 -1.0148729E-007 -1.1296971E-007 0.0
 -1.0705495E-007 -1.1340646E-007 0.0
 -1.1285907E-007 -1.1402699E-007 0.0
 -1.1859438E-007 -1.1471636E-007 0.0
 -1.2424535E-007 -1.1540729E-007 0.0
 -1.2985535E-007 -1.1610361E-007 0.0
 -1.3544957E-007 -1.1682276E-007 0.0
 -1.4103935E-007 -1.1757049E-007 0.0
 -1.4663009E-007 -1.1834415E-007 0.0
 -1.5222027E-007 -1.1913345E-007 0.0
 -1.5779652E-007 -1.1992115E-007 0.0
 -1.6332548E-007 -1.2068698E-007 0.0
 -1.6874966E-007 -1.2141869E-007 0.0
 -1.7400129E-007 -1.2212782E-007 0.0
  4.1037262E-008 -2.2924661E-008 0.0
  3.4384922E-008 -1.9740842E-008 0.0
  2.9780227E-008 -1.7461174E-008 0.0
  2.6006732E-008 -1.6099638E-008 0.0
  2.2275607E-008 -1.5331874E-008 0.0
  1.8277729E-008 -1.4814045E-008 0.0
  1.3946956E-008 -1.4399342E-008 0.0
  9.2650733E-009 -1.4045522E-008 0.0
  4.2748305E-009 -1.3807426E-008 0.0
 -1.2894533E-009 -1.4040282E-008 0.0
 -1.0051855E-007 -1.0780964E-007 0.0
 -1.0583859E-007 -1.0829933E-007 0.0
 -1.1142391E-007 -1.0887165E-007 0.0
 -1.1705928E-007 -1.0951061E-007 0.0
 -1.2265632E-007 -1.1018311E-007 0.0
 -1.2821400E-007 -1.1088262E-007 0.0
 -1.3375360E-007 -1.1161250E-007 0.0
 -1.3929292E-007 -1.1237578E-007 0.0
 -1.4484483E-007 -1.1317014E-007 0.0
 -1.5041700E-007 -1.1398642E-007 0.0
 -1.5600640E-007 -1.1480511E-007 0.0
 -1.6158239E-007 -1.1559416E-007 0.0
 -1.6706452E-007 -1.1632347E-007 0.0
 -1.7232846E-007 -1.1699910E-007 0.0
  3.1711020E-008 -1.5031129E-008 0.0
  2.6595680E-008 -1.1648804E-008 0.0
  2.4217224E-008 -9.7829921E-009 0.0
  2.2052642E-008 -9.2429994E-009 0.0
  1.9288248E-008 -9.0245595E-009 0.0
  1.6017138E-008 -8.8819955E-009 0.0
  1.2313703E-008 -8.7301865E-009 0.0
  8.2874298E-009 -8.5666472E-009 0.0
  4.0586289E-009 -8.4215276E-009 0.0
  1.9002955E-010 -8.4046889E-009 0.0
 -9.9326904E-008 -1.0275996E-007 0.0
 -1.0455013E-007 -1.0328331E-007 0.0
 -1.1003305E-007 -1.0382334E-007 0.0
 -1.1557544E-007 -1.0439175E-007 0.0
 -1.2109129E-007 -1.0501884E-007 0.0
 -1.2657853E-007 -1.0569762E-007 0.0
 -1.3205261E-007 -1.0642247E-007 0.0
 -1.3753353E-007 -1.0718983E-007 0.0
 -1.4303941E-007 -1.0799545E-007 0.0
 -1.4858674E-007 -1.0883280E-007 0.0
 -1.5419027E-007 -1.0968716E-007 0.0
 -1.5984439E-007 -1.1051968E-007 0.0
 -1.6545700E-007 -1.1126270E-007 0.0
 -1.7079777E-007 -1.1189607E-007 0.0
  1.9468517E-008 -7.8354876E-009 0.0
  1.8556880E-008 -3.7217778E-009 0.0
  1.9661622E-008 -3.8231881E-009 0.0
  1.8676175E-008 -4.0928532E-009 0.0
  1.6733974E-008 -4.3169973E-009 0.0
  1.4069972E-008 -4.4464157E-009 0.0
  1.0927160E-008 -4.5033589E-009 0.0
  7.4923691E-009 -4.5400095E-009 0.0
  4.0122602E-009 -4.6712889E-009 0.0
  9.3918668E-010 -5.0160042E-009 0.0
 -1.6882329E-009 -5.3957526E-009 0.0
 -1.7561326E-009 -8.1607213E-009 0.0
 -9.7911118E-008 -9.7768584E-008 0.0
 -1.0320369E-007 -9.8350458E-008 0.0
 -1.0869628E-007 -9.8789933E-008 0.0
 -1.1413903E-007 -9.9300292E-008 0.0
 -1.1955850E-007 -9.9887003E-008 0.0
 -1.2495740E-007 -1.0054053E-007 0.0
 -1.3035269E-007 -1.0125139E-007 0.0
 -1.3576537E-007 -1.0201192E-007 0.0
 -1.4121738E-007 -1.0281444E-007 0.0
 -1.4672895E-007 -1.0365105E-007 0.0
 -1.5232872E-007 -1.0451995E-007 0.0
 -1.5806639E-007 -1.0540319E-007 0.0
 -1.6392443E-007 -1.0620088E-007 0.0
 -1.6951143E-007 -1.0677227E-007 0.0
  1.8684755E-051  1.8684755E-051 0.0
  1.3784735E-008 -6.1400606E-011 0.0
  1.5794119E-008 -6.5994872E-010 0.0
  1.5851823E-008 -1.0487064E-009 0.0
  1.4504663E-008 -1.3183472E-009 0.0
  1.2366386E-008 -1.4996740E-009 0.0
  9.7269794E-009 -1.6327463E-009 0.0
  6.8417783E-009 -1.7711392E-009 0.0
  3.9902681E-009 -1.9726160E-009 0.0
  1.4338663E-009 -2.2367126E-009 0.0
 -8.9528419E-010 -2.5586894E-009 0.0
 -9.6109482E-008 -9.2945220E-008 0.0
 -1.0198549E-007 -9.3286635E-008 0.0
 -1.0738427E-007 -9.3701755E-008 0.0
 -1.1273494E-007 -9.4201930E-008 0.0
 -1.1804979E-007 -9.4772186E-008 0.0
 -1.2335044E-007 -9.5407661E-008 0.0
 -1.2865603E-007 -9.6102582E-008 0.0
 -1.3399154E-007 -9.6849678E-008 0.0
 -1.3938422E-007 -9.7637465E-008 0.0
 -1.4486038E-007 -9.8448652E-008 0.0
 -1.5043793E-007 -9.9265330E-008 0.0
 -1.5620192E-007 -1.0011747E-007 0.0
 -1.6238642E-007 -1.0096016E-007 0.0
 -1.6869228E-007 -1.0149980E-007 0.0
  1.8684755E-051  1.8684755E-051 0.0
  8.7275882E-009 -6.8736569E-010 0.0
  1.2594339E-008  1.4043983E-011 0.0
  1.3227988E-008  1.6950166E-010 0.0
  1.2455455E-008  1.9340243E-010 0.0
  1.0796723E-008  1.5363368E-010 0.0
  8.6266633E-009  7.3382898E-011 0.0
  6.2214699E-009 -5.0679905E-011 0.0
  3.8382415E-009 -2.1185008E-010 0.0
  1.7169003E-009 -3.8040713E-010 0.0
  3.5294378E-011 -6.4450342E-010 0.0
 -8.9315978E-008 -9.3054347E-008 0.0
 -8.9417694E-008 -8.7201759E-008 0.0
 -9.5081536E-008 -8.7525694E-008 0.0
 -1.0070739E-007 -8.8046473E-008 0.0
 -1.0608031E-007 -8.8583141E-008 0.0
 -1.1133935E-007 -8.9114196E-008 0.0
 -1.1655532E-007 -8.9685657E-008 0.0
 -1.2175381E-007 -9.0309278E-008 0.0
 -1.2696165E-007 -9.0988156E-008 0.0
 -1.3221010E-007 -9.1719725E-008 0.0
 -1.3753765E-007 -9.2493401E-008 0.0
 -1.4298353E-007 -9.3281370E-008 0.0
 -1.4858159E-007 -9.4029452E-008 0.0
 -1.5430962E-007 -9.4653502E-008 0.0
 -1.6076703E-007 -9.5151301E-008 0.0
 -1.6882521E-007 -9.4947508E-008 0.0
  1.8684755E-051  1.8684755E-051 0.0
  5.9888190E-009 -5.3295807E-010 0.0
  9.5384784E-009 -1.5091571E-010 0.0
  1.0784085E-008  3.8236874E-010 0.0
  1.0491528E-008  6.9133829E-010 0.0
  9.2961944E-009  8.3952186E-010 0.0
  7.5627682E-009  8.6360568E-010 0.0
  5.5759121E-009  7.9173131E-010 0.0
  3.5816319E-009  6.5191807E-010 0.0
  1.8185931E-009  4.7706008E-010 0.0
  7.5081510E-010  3.0431011E-010 0.0
 -8.8944053E-008 -8.2236096E-008 0.0
 -9.4094891E-008 -8.2576625E-008 0.0
 -9.9476784E-008 -8.3046449E-008 0.0
 -1.0477290E-007 -8.3558393E-008 0.0
 -1.0995381E-007 -8.4093572E-008 0.0
 -1.1507218E-007 -8.4659046E-008 0.0
 -1.2016641E-007 -8.5268484E-008 0.0
 -1.2526871E-007 -8.5928250E-008 0.0
 -1.3041625E-007 -8.6641539E-008 0.0
 -1.3565873E-007 -8.7408156E-008 0.0
 -1.4106455E-007 -8.8213004E-008 0.0
 -1.4668781E-007 -8.9001897E-008 0.0
 -1.5253595E-007 -8.9690419E-008 0.0
 -1.5797341E-007 -9.0574878E-008 0.0
  1.8684755E-051  1.8684755E-051 0.0
  4.3144342E-009 -4.7531113E-010 0.0
  7.2330483E-009 -2.4310952E-010 0.0
  8.5852517E-009  2.2471352E-010 0.0
  8.6638211E-009  6.4198250E-010 0.0
  7.8643757E-009  9.0107038E-010 0.0
  6.5265876E-009  1.0031629E-009 0.0
  4.9161644E-009  9.6621574E-010 0.0
  3.2666213E-009  8.1383045E-010 0.0
  1.8267359E-009  5.6860461E-010 0.0
  8.7545508E-010  3.1144569E-010 0.0
  6.8421387E-010  2.6134094E-010 0.0
  7.4852271E-010  2.6725503E-010 0.0
 -8.8108579E-008 -7.7493933E-008 0.0
 -9.3113522E-008 -7.7896322E-008 0.0
 -9.8354144E-008 -7.8244862E-008 0.0
 -1.0351606E-007 -7.8681013E-008 0.0
 -1.0859279E-007 -7.9180460E-008 0.0
 -1.1360646E-007 -7.9726113E-008 0.0
 -1.1859115E-007 -8.0314874E-008 0.0
 -1.2357989E-007 -8.0949496E-008 0.0
 -1.2861057E-007 -8.1635639E-008 0.0
 -1.3373460E-007 -8.2383841E-008 0.0
 -1.3903666E-007 -8.3216903E-008 0.0
 -1.4465124E-007 -8.4136613E-008 0.0
 -1.5054135E-007 -8.5076541E-008 0.0
 -1.5599794E-007 -8.5832820E-008 0.0
  1.8684755E-051  1.8684755E-051 0.0
  3.2016163E-009 -4.4142477E-010 0.0
  5.5342401E-009 -3.6204981E-010 0.0
  6.7836587E-009 -2.8031561E-011 0.0
  7.0424071E-009  3.4097115E-010 0.0
  6.5455561E-009  6.1265469E-010 0.0
  5.5430196E-009  7.3545375E-010 0.0
  4.2648863E-009  7.0412633E-010 0.0
  2.9230380E-009  5.3266966E-010 0.0
  1.7225838E-009  2.5678382E-010 0.0
  8.5206690E-010 -5.6825207E-011 0.0
  3.6602972E-010 -3.0308148E-010 0.0
 -8.6868135E-008 -7.3011285E-008 0.0
 -9.2230065E-008 -7.3225596E-008 0.0
 -9.7302766E-008 -7.3519114E-008 0.0
 -1.0231851E-007 -7.3916821E-008 0.0
 -1.0726596E-007 -7.4388661E-008 0.0
 -1.1216257E-007 -7.4913616E-008 0.0
 -1.1703153E-007 -7.5480697E-008 0.0
 -1.2190078E-007 -7.6086875E-008 0.0
 -1.2680326E-007 -7.6734724E-008 0.0
 -1.3178503E-007 -7.7434535E-008 0.0
 -1.3691156E-007 -7.8210376E-008 0.0
 -1.4236435E-007 -7.9155180E-008 0.0
 -1.4849616E-007 -8.0213964E-008 0.0
 -1.5482439E-007 -8.0943079E-008 0.0
  1.8684755E-051  1.8684755E-051 0.0
  2.4526874E-009 -4.4860923E-010 0.0
  4.3002896E-009 -5.2757591E-010 0.0
  5.3549474E-009 -3.3251241E-010 0.0
  5.6731306E-009 -6.0836634E-011 0.0
  5.3783408E-009  1.5631798E-010 0.0
  4.6415316E-009  2.5074520E-010 0.0
  3.6418479E-009  1.9901255E-010 0.0
  2.5528004E-009  9.3454217E-012 0.0
  1.5342981E-009 -2.8157297E-010 0.0
  7.1127303E-010 -5.9914922E-010 0.0
  1.1945029E-010 -8.4056488E-010 0.0
 -2.0491831E-010 -9.3689483E-010 0.0
 -3.4136815E-011 -4.9729638E-010 0.0
 -8.0904107E-008 -7.3122503E-008 0.0
 -8.0946979E-008 -6.7888406E-008 0.0
 -8.6125991E-008 -6.8134254E-008 0.0
 -9.1312541E-008 -6.8458355E-008 0.0
 -9.6279748E-008 -6.8834979E-008 0.0
 -1.0114950E-007 -6.9254013E-008 0.0
 -1.0596413E-007 -6.9727745E-008 0.0
 -1.1073727E-007 -7.0246054E-008 0.0
 -1.1548667E-007 -7.0799843E-008 0.0
 -1.2023368E-007 -7.1383817E-008 0.0
 -1.2500560E-007 -7.1996131E-008 0.0
 -1.2983769E-007 -7.2636333E-008 0.0
 -1.3479725E-007 -7.3301939E-008 0.0
 -1.3995481E-007 -7.3953906E-008 0.0
 -1.4630001E-007 -7.4588490E-008 0.0
 -1.5499768E-007 -7.4305550E-008 0.0
 -6.0864549E-035  1.5256038E-051 0.0
  2.0215898E-009 -6.2573030E-010 0.0
  3.3796790E-009 -7.5540600E-010 0.0
  4.2340857E-009 -6.5873597E-010 0.0
  4.5466933E-009 -4.9068231E-010 0.0
  4.3798901E-009 -3.5646313E-010 0.0
  3.8419355E-009 -3.2102472E-010 0.0
  3.0632205E-009 -4.1362932E-010 0.0
  2.1756379E-009 -6.3347012E-010 0.0
  1.2971747E-009 -9.5171369E-010 0.0
  5.1233077E-010 -1.3139603E-009 0.0
 -1.2721095E-010 -1.6523654E-009 0.0
 -5.8203367E-010 -1.8790589E-009 0.0
 -2.4578704E-010 -1.7234851E-009 0.0
 -1.5747683E-010 -1.1082850E-009 0.0
 -8.0425178E-008 -6.3402391E-008 0.0
 -8.5479123E-008 -6.3549463E-008 0.0
 -9.0413497E-008 -6.3855393E-008 0.0
 -9.5243855E-008 -6.4265079E-008 0.0
 -9.9984267E-008 -6.4724585E-008 0.0
 -1.0467036E-007 -6.5220918E-008 0.0
 -1.0932080E-007 -6.5749592E-008 0.0
 -1.1394951E-007 -6.6305022E-008 0.0
 -1.1857274E-007 -6.6883584E-008 0.0
 -1.2321099E-007 -6.7484112E-008 0.0
 -1.2789474E-007 -6.8107363E-008 0.0
 -1.3265840E-007 -6.8757800E-008 0.0
 -1.3763219E-007 -6.9462526E-008 0.0
 -1.4234320E-007 -7.0675499E-008 0.0
  2.6424233E-051  2.6424233E-051 0.0
 -5.7839887E-011 -4.8985141E-010 0.0
  4.2615963E-010 -6.8435613E-010 0.0
  1.6246322E-009 -9.1369345E-010 0.0
  2.6708411E-009 -9.8993960E-010 0.0
  3.3498703E-009 -9.6689412E-010 0.0
  3.6351394E-009 -8.9992157E-010 0.0
  3.5467528E-009 -8.5908163E-010 0.0
  3.1529392E-009 -8.9747580E-010 0.0
  2.5445158E-009 -1.0450682E-009 0.0
  1.8176421E-009 -1.3085084E-009 0.0
  1.0584724E-009 -1.6743869E-009 0.0
  3.3323271E-010 -2.1170424E-009 0.0
 -3.1594237E-010 -2.6106411E-009 0.0
 -8.1450651E-010 -3.1538065E-009 0.0
 -1.2144723E-009 -3.6652048E-009 0.0
 -7.5154547E-008 -6.3470040E-008 0.0
 -7.5176164E-008 -5.8585070E-008 0.0
 -8.0011843E-008 -5.8744087E-008 0.0
 -8.4811796E-008 -5.9037129E-008 0.0
 -8.9537705E-008 -5.9419357E-008 0.0
 -9.4202002E-008 -5.9869981E-008 0.0
 -9.8809631E-008 -6.0368370E-008 0.0
 -1.0337201E-007 -6.0897287E-008 0.0
 -1.0790202E-007 -6.1449510E-008 0.0
 -1.1240980E-007 -6.2022093E-008 0.0
 -1.1690556E-007 -6.2615239E-008 0.0
 -1.2140204E-007 -6.3234041E-008 0.0
 -1.2591310E-007 -6.3892684E-008 0.0
 -1.3045762E-007 -6.4624031E-008 0.0
 -1.3495205E-007 -6.5543125E-008 0.0
 -1.3913679E-007 -6.6661172E-008 0.0
 -7.4543544E-035  1.8684755E-051 0.0
  4.9827249E-010 -5.6545185E-010 0.0
  1.3270743E-009 -9.4748491E-010 0.0
  2.1150519E-009 -1.1392271E-009 0.0
  2.6610006E-009 -1.2190202E-009 0.0
  2.9086856E-009 -1.2580975E-009 0.0
  2.8659527E-009 -1.3127529E-009 0.0
  2.5740245E-009 -1.4289530E-009 0.0
  2.0950833E-009 -1.6364115E-009 0.0
  1.4980427E-009 -1.9480533E-009 0.0
  8.4746183E-010 -2.3630739E-009 0.0
  1.9560555E-010 -2.8728683E-009 0.0
 -4.1516957E-010 -3.4690872E-009 0.0
 -9.6954103E-010 -4.1256555E-009 0.0
 -1.5688623E-009 -4.8190470E-009 0.0
 -2.3111914E-009 -5.6570346E-009 0.0
 -1.9066262E-009 -3.9943465E-009 0.0
 -7.0516491E-008 -5.8584373E-008 0.0
 -7.0572433E-008 -5.3870566E-008 0.0
 -7.4996918E-008 -5.4045548E-008 0.0
 -7.9531206E-008 -5.4323542E-008 0.0
 -8.4096765E-008 -5.4707065E-008 0.0
 -8.8639502E-008 -5.5164909E-008 0.0
 -9.3147694E-008 -5.5672293E-008 0.0
 -9.7620791E-008 -5.6214405E-008 0.0
 -1.0206106E-007 -5.6780717E-008 0.0
 -1.0647246E-007 -5.7365063E-008 0.0
 -1.1085877E-007 -5.7966250E-008 0.0
 -1.1522270E-007 -5.8588202E-008 0.0
 -1.1956542E-007 -5.9242521E-008 0.0
 -1.2388504E-007 -5.9952987E-008 0.0
 -1.2815722E-007 -6.0765925E-008 0.0
 -1.3231196E-007 -6.1721544E-008 0.0
 -1.3623865E-007 -6.2818705E-008 0.0
  1.8684755E-051  1.8684755E-051 0.0
  5.3418033E-010 -4.8990824E-010 0.0
  1.1374506E-009 -9.2375886E-010 0.0
  1.7172897E-009 -1.2246102E-009 0.0
  2.1376442E-009 -1.4156804E-009 0.0
  2.3408088E-009 -1.5559327E-009 0.0
  2.3194905E-009 -1.6994582E-009 0.0
  2.0972594E-009 -1.8881271E-009 0.0
  1.7152424E-009 -2.1510197E-009 0.0
  1.2222606E-009 -2.5043543E-009 0.0
  6.6606996E-010 -2.9534724E-009 0.0
  8.7235726E-011 -3.4959536E-009 0.0
 -4.8866944E-010 -4.1210377E-009 0.0
 -1.0710862E-009 -4.8119920E-009 0.0
 -1.7102404E-009 -5.5655317E-009 0.0
 -2.5621049E-009 -6.3536907E-009 0.0
 -3.9107967E-009 -7.2289113E-009 0.0
 -4.3750188E-009 -7.2179271E-009 0.0
 -4.9367092E-009 -8.4201627E-009 0.0
 -4.6129393E-009 -7.2835039E-009 0.0
 -6.6281845E-008 -5.3812852E-008 0.0
 -6.6395715E-008 -4.9139187E-008 0.0
 -7.0468592E-008 -4.9395405E-008 0.0
 -7.4670714E-008 -4.9727110E-008 0.0
 -7.8976426E-008 -5.0131781E-008 0.0
 -8.3335236E-008 -5.0603175E-008 0.0
 -8.7706985E-008 -5.1128469E-008 0.0
 -9.2069291E-008 -5.1691382E-008 0.0
 -9.6412735E-008 -5.2279852E-008 0.0
 -1.0073302E-007 -5.2886366E-008 0.0
 -1.0502739E-007 -5.3507244E-008 0.0
 -1.0929263E-007 -5.4142905E-008 0.0
 -1.1352301E-007 -5.4799026E-008 0.0
 -1.1770804E-007 -5.5488830E-008 0.0
 -1.2182872E-007 -5.6237527E-008 0.0
 -1.2585448E-007 -5.7078017E-008 0.0
 -1.2974562E-007 -5.8037059E-008 0.0
 -1.3347035E-007 -5.9103885E-008 0.0
 -7.4543544E-035  1.8684755E-051 0.0
  5.1248202E-010 -4.9906455E-010 0.0
  1.0113891E-009 -9.5564972E-010 0.0
  1.4366406E-009 -1.3115641E-009 0.0
  1.7479526E-009 -1.5790676E-009 0.0
  1.9022079E-009 -1.7990846E-009 0.0
  1.8858128E-009 -2.0151110E-009 0.0
  1.7090051E-009 -2.2634763E-009 0.0
  1.3976070E-009 -2.5705783E-009 0.0
  9.8502722E-010 -2.9527319E-009 0.0
  5.0526516E-010 -3.4169925E-009 0.0
 -1.3912415E-011 -3.9620783E-009 0.0
 -5.5956428E-010 -4.5796776E-009 0.0
 -1.1423448E-009 -5.2583417E-009 0.0
 -1.8122446E-009 -5.9835372E-009 0.0
 -2.6716757E-009 -6.7699457E-009 0.0
 -3.7099136E-009 -7.7290821E-009 0.0
 -4.8086788E-009 -8.8165655E-009 0.0
 -6.1509015E-009 -1.0035300E-008 0.0
 -6.7164070E-009 -9.9755167E-009 0.0
 -7.0738366E-009 -1.1619569E-008 0.0
 -6.7477897E-009 -9.9662776E-009 0.0
 -6.2326335E-008 -4.9058557E-008 0.0
 -6.2507356E-008 -4.4124149E-008 0.0
 -6.6296009E-008 -4.4668130E-008 0.0
 -7.0192765E-008 -4.5165029E-008 0.0
 -7.4214176E-008 -4.5660499E-008 0.0
 -7.8334970E-008 -4.6181812E-008 0.0
 -8.2520013E-008 -4.6738224E-008 0.0
 -8.6736797E-008 -4.7327221E-008 0.0
 -9.0962336E-008 -4.7941754E-008 0.0
 -9.5181903E-008 -4.8574687E-008 0.0
 -9.9385699E-008 -4.9221250E-008 0.0
 -1.0356552E-007 -4.9879611E-008 0.0
 -1.0771218E-007 -5.0551141E-008 0.0
 -1.1181279E-007 -5.1240953E-008 0.0
 -1.1584736E-007 -5.1959158E-008 0.0
 -1.1978467E-007 -5.2722361E-008 0.0
 -1.2358985E-007 -5.3559698E-008 0.0
 -1.2724539E-007 -5.4497916E-008 0.0
 -1.3077454E-007 -5.5543055E-008 0.0
  1.5256038E-051 -6.0864549E-035 0.0
  5.2940680E-010 -5.9839483E-010 0.0
  9.0957232E-010 -1.0553171E-009 0.0
  1.2254308E-009 -1.4201416E-009 0.0
  1.4517767E-009 -1.7243309E-009 0.0
  1.5617975E-009 -1.9949788E-009 0.0
  1.5412439E-009 -2.2622638E-009 0.0
  1.3925554E-009 -2.5537316E-009 0.0
  1.1306723E-009 -2.8909026E-009 0.0
  7.7736307E-010 -3.2879202E-009 0.0
  3.5533713E-010 -3.7514341E-009 0.0
 -1.1781993E-010 -4.2812840E-009 0.0
 -6.3588355E-010 -4.8723073E-009 0.0
 -1.2108837E-009 -5.5173948E-009 0.0
 -1.8774224E-009 -6.2177360E-009 0.0
 -2.6678670E-009 -7.0019223E-009 0.0
 -3.5839760E-009 -7.8997988E-009 0.0
 -4.6168594E-009 -8.9422115E-009 0.0
 -5.7059605E-009 -1.0203396E-008 0.0
 -6.8043857E-009 -1.1612433E-008 0.0
 -8.5218133E-009 -1.3024552E-008 0.0
 -9.3000396E-009 -1.4376275E-008 0.0
 -1.0643930E-008 -1.4697137E-008 0.0
 -1.1327586E-008 -1.6384497E-008 0.0
 -1.2823760E-008 -1.6305194E-008 0.0
 -1.3456513E-008 -1.7944585E-008 0.0
 -1.4953471E-008 -1.7935275E-008 0.0
 -1.5565160E-008 -1.8944113E-008 0.0
 -1.6616173E-008 -1.9704635E-008 0.0
 -1.6363077E-008 -1.8825852E-008 0.0
 -5.5779687E-008 -4.3221972E-008 0.0
 -5.5981091E-008 -3.8390798E-008 0.0
 -5.9262309E-008 -3.9336221E-008 0.0
 -5.9617498E-008 -4.3220528E-008 0.0
 -6.2442839E-008 -4.0020892E-008 0.0
 -6.6006737E-008 -4.0648176E-008 0.0
 -6.9767200E-008 -4.1272666E-008 0.0
 -7.3642488E-008 -4.1883621E-008 0.0
 -7.7611898E-008 -4.2497428E-008 0.0
 -8.1648811E-008 -4.3125020E-008 0.0
 -8.5727412E-008 -4.3769614E-008 0.0
 -8.9826009E-008 -4.4429696E-008 0.0
 -9.3927777E-008 -4.5102456E-008 0.0
 -9.8019222E-008 -4.5785868E-008 0.0
 -1.0208800E-007 -4.6479706E-008 0.0
 -1.0612056E-007 -4.7185824E-008 0.0
 -1.1009944E-007 -4.7907966E-008 0.0
 -1.1399938E-007 -4.8650910E-008 0.0
 -1.1778359E-007 -4.9420045E-008 0.0
 -1.2139341E-007 -5.0224248E-008 0.0
 -1.2480685E-007 -5.1122599E-008 0.0
 -1.2811170E-007 -5.2139278E-008 0.0
  2.6424233E-051 -1.0542049E-034 0.0
  1.8684755E-051  1.8684755E-051 0.0
  1.2743767E-010 -4.2809397E-010 0.0
  5.1562714E-010 -8.2245418E-010 0.0
  8.0882431E-010 -1.1915799E-009 0.0
  1.0479631E-009 -1.5340927E-009 0.0
  1.2153672E-009 -1.8481156E-009 0.0
  1.2911070E-009 -2.1459464E-009 0.0
  1.2633888E-009 -2.4449054E-009 0.0
  1.1311262E-009 -2.7633497E-009 0.0
  9.0236526E-010 -3.1169573E-009 0.0
  5.9053676E-010 -3.5167005E-009 0.0
  2.1000202E-010 -3.9681813E-009 0.0
 -2.2856104E-010 -4.4721450E-009 0.0
 -7.2260199E-010 -5.0262513E-009 0.0
 -1.2807868E-009 -5.6291444E-009 0.0
 -1.9197994E-009 -6.2871370E-009 0.0
 -2.6551743E-009 -7.0153815E-009 0.0
 -3.4922338E-009 -7.8362544E-009 0.0
 -4.4193538E-009 -8.7733554E-009 0.0
 -5.4295884E-009 -9.8176499E-009 0.0
 -6.6219427E-009 -1.0917025E-008 0.0
 -8.1613040E-009 -1.2118778E-008 0.0
 -1.0028643E-008 -1.3463646E-008 0.0
 -1.2067041E-008 -1.5009188E-008 0.0
 -1.4094161E-008 -1.6727334E-008 0.0
 -1.6144695E-008 -1.8514896E-008 0.0
 -1.9040281E-008 -2.0190737E-008 0.0
 -1.9973507E-008 -2.2878568E-008 0.0
 -2.2635128E-008 -2.2101154E-008 0.0
 -2.3441702E-008 -2.5326962E-008 0.0
 -2.6452305E-008 -2.3886688E-008 0.0
 -2.7175427E-008 -2.7349423E-008 0.0
 -3.0397163E-008 -2.5498644E-008 0.0
 -3.1018963E-008 -2.9049968E-008 0.0
 -3.4325812E-008 -2.6937199E-008 0.0
 -3.4854132E-008 -3.0461681E-008 0.0
 -3.8101338E-008 -2.8221870E-008 0.0
 -3.8554150E-008 -3.1632496E-008 0.0
 -4.1618382E-008 -2.9389995E-008 0.0
 -4.2025015E-008 -3.2634458E-008 0.0
 -4.4834545E-008 -3.0488773E-008 0.0
 -4.5226649E-008 -3.3555937E-008 0.0
 -4.7772231E-008 -3.1565149E-008 0.0
 -4.8175689E-008 -3.4483969E-008 0.0
 -5.0496038E-008 -3.2652083E-008 0.0
 -5.0918217E-008 -3.5498670E-008 0.0
 -5.3065150E-008 -3.3752124E-008 0.0
 -5.3549476E-008 -3.6719823E-008 0.0
 -5.5795899E-008 -3.4664845E-008 0.0
 -5.8933533E-008 -3.5555816E-008 0.0
 -6.2187438E-008 -3.6359329E-008 0.0
 -6.5620997E-008 -3.7061207E-008 0.0
 -6.9239151E-008 -3.7741115E-008 0.0
 -7.2983228E-008 -3.8417109E-008 0.0
 -7.6820379E-008 -3.9092007E-008 0.0
 -8.0727217E-008 -3.9771512E-008 0.0
 -8.4681275E-008 -4.0459018E-008 0.0
 -8.8662236E-008 -4.1155515E-008 0.0
 -9.2652378E-008 -4.1860888E-008 0.0
 -9.6635941E-008 -4.2575271E-008 0.0
 -1.0059771E-007 -4.3299868E-008 0.0
 -1.0452128E-007 -4.4037232E-008 0.0
 -1.0838690E-007 -4.4790776E-008 0.0
 -1.1216904E-007 -4.5563013E-008 0.0
 -1.1582951E-007 -4.6351046E-008 0.0
 -1.1931251E-007 -4.7141493E-008 0.0
 -1.2245874E-007 -4.7915169E-008 0.0
 -1.2539634E-007 -4.8938183E-008 0.0
 -7.4543544E-035  1.8684755E-051 0.0
  2.5029688E-010 -5.7381335E-010 0.0
  4.5456390E-010 -9.6368348E-010 0.0
  6.9635383E-010 -1.2969792E-009 0.0
  8.8878006E-010 -1.6212157E-009 0.0
  1.0179481E-009 -1.9379257E-009 0.0
  1.0692810E-009 -2.2502355E-009 0.0
  1.0340519E-009 -2.5670624E-009 0.0
  9.1030502E-010 -2.8996587E-009 0.0
  7.0215970E-010 -3.2585994E-009 0.0
  4.1755281E-010 -3.6517604E-009 0.0
  6.5202553E-011 -4.0834973E-009 0.0
 -3.4857611E-010 -4.5549688E-009 0.0
 -8.2252398E-010 -5.0657043E-009 0.0
 -1.3612539E-009 -5.6163799E-009 0.0
 -1.9733645E-009 -6.2113355E-009 0.0
 -2.6671835E-009 -6.8596592E-009 0.0
 -3.4466742E-009 -7.5724889E-009 0.0
 -4.3156607E-009 -8.3542529E-009 0.0
 -5.3000553E-009 -9.1969784E-009 0.0
 -6.4613864E-009 -1.0102788E-008 0.0
 -7.8702371E-009 -1.1099236E-008 0.0
 -9.5286302E-009 -1.2244173E-008 0.0
 -1.1373972E-008 -1.3557293E-008 0.0
 -1.3367994E-008 -1.4991160E-008 0.0
 -1.5664185E-008 -1.6420792E-008 0.0
 -1.8528046E-008 -1.7864170E-008 0.0
 -2.1976266E-008 -1.9339848E-008 0.0
 -2.5811927E-008 -2.0866975E-008 0.0
 -2.9812214E-008 -2.2354970E-008 0.0
 -3.3813546E-008 -2.3766365E-008 0.0
 -3.7658537E-008 -2.5085453E-008 0.0
 -4.1217315E-008 -2.6314563E-008 0.0
 -4.4442155E-008 -2.7484484E-008 0.0
 -4.7383326E-008 -2.8608166E-008 0.0
 -5.0125999E-008 -2.9675972E-008 0.0
 -5.2808957E-008 -3.0637974E-008 0.0
 -5.5603174E-008 -3.1505718E-008 0.0
 -5.8611993E-008 -3.2306386E-008 0.0
 -6.1804165E-008 -3.3083225E-008 0.0
 -6.5149203E-008 -3.3825810E-008 0.0
 -6.8642145E-008 -3.4543989E-008 0.0
 -7.2260721E-008 -3.5255346E-008 0.0
 -7.5976217E-008 -3.5965631E-008 0.0
 -7.9764596E-008 -3.6677449E-008 0.0
 -8.3604356E-008 -3.7393207E-008 0.0
 -8.7475583E-008 -3.8114642E-008 0.0
 -9.1359959E-008 -3.8843094E-008 0.0
 -9.5240244E-008 -3.9580088E-008 0.0
 -9.9099257E-008 -4.0327913E-008 0.0
 -1.0291857E-007 -4.1090020E-008 0.0
 -1.0667723E-007 -4.1871105E-008 0.0
 -1.1035006E-007 -4.2676364E-008 0.0
 -1.1390701E-007 -4.3508673E-008 0.0
 -1.1729246E-007 -4.4357365E-008 0.0
 -1.2041846E-007 -4.5164272E-008 0.0
 -1.2243591E-007 -4.5855567E-008 0.0
  6.5310476E-011 -8.1352495E-010 0.0
  1.8184548E-010 -7.6426067E-010 0.0
  3.8633939E-010 -1.0126831E-009 0.0
  5.8567278E-010 -1.3351988E-009 0.0
  7.4817484E-010 -1.6611688E-009 0.0
  8.5082929E-010 -1.9847686E-009 0.0
  8.8362915E-010 -2.3071909E-009 0.0
  8.4035527E-010 -2.6337430E-009 0.0
  7.1913269E-010 -2.9716268E-009 0.0
  5.2193209E-010 -3.3278975E-009 0.0
  2.5324433E-010 -3.7079956E-009 0.0
 -8.1836830E-011 -4.1150642E-009 0.0
 -4.7961200E-010 -4.5501360E-009 0.0
 -9.3924181E-010 -5.0131390E-009 0.0
 -1.4631157E-009 -5.5043440E-009 0.0
 -2.0558584E-009 -6.0256231E-009 0.0
 -2.7226146E-009 -6.5804585E-009 0.0
 -3.4689718E-009 -7.1719793E-009 0.0
 -4.3057686E-009 -7.8008002E-009 0.0
 -5.2562714E-009 -8.4684010E-009 0.0
 -6.3580021E-009 -9.1853394E-009 0.0
 -7.6470422E-009 -9.9807790E-009 0.0
 -9.1392980E-009 -1.0887828E-008 0.0
 -1.0843009E-008 -1.1917878E-008 0.0
 -1.2810555E-008 -1.3035931E-008 0.0
 -1.5162650E-008 -1.4198451E-008 0.0
 -1.8029447E-008 -1.5389792E-008 0.0
 -2.1431867E-008 -1.6644367E-008 0.0
 -2.5245421E-008 -1.7958162E-008 0.0
 -2.9268886E-008 -1.9335460E-008 0.0
 -3.3333026E-008 -2.0743059E-008 0.0
 -3.7265283E-008 -2.2107077E-008 0.0
 -4.0878052E-008 -2.3402070E-008 0.0
 -4.4092662E-008 -2.4622177E-008 0.0
 -4.7036082E-008 -2.5788453E-008 0.0
 -4.9829467E-008 -2.6841750E-008 0.0
 -5.2562373E-008 -2.7775678E-008 0.0
 -5.5351312E-008 -2.8618969E-008 0.0
 -5.8280940E-008 -2.9409540E-008 0.0
 -6.1369436E-008 -3.0171776E-008 0.0
 -6.4609980E-008 -3.0918527E-008 0.0
 -6.7989654E-008 -3.1653835E-008 0.0
 -7.1491373E-008 -3.2382566E-008 0.0
 -7.5092983E-008 -3.3109027E-008 0.0
 -7.8771286E-008 -3.3835703E-008 0.0
 -8.2504548E-008 -3.4564750E-008 0.0
 -8.6272615E-008 -3.5298355E-008 0.0
 -9.0056614E-008 -3.6038647E-008 0.0
 -9.3838339E-008 -3.6787861E-008 0.0
 -9.7599254E-008 -3.7548694E-008 0.0
 -1.0131933E-007 -3.8324854E-008 0.0
 -1.0497590E-007 -3.9121906E-008 0.0
 -1.0854333E-007 -3.9948661E-008 0.0
 -1.1199070E-007 -4.0819538E-008 0.0
 -1.1529047E-007 -4.1758129E-008 0.0
 -1.1834522E-007 -4.2794122E-008 0.0
 -1.2090937E-007 -4.3742451E-008 0.0
 -1.2305645E-007 -4.4199875E-008 0.0
 -1.2280885E-007 -4.5793737E-008 0.0
 -7.4543544E-035  1.8684755E-051 0.0
  1.1214499E-010 -5.5732480E-010 0.0
  3.2141602E-010 -9.5124504E-010 0.0
  4.9764104E-010 -1.3087236E-009 0.0
  6.3197968E-010 -1.6539749E-009 0.0
  7.1142604E-010 -1.9896702E-009 0.0
  7.2701627E-010 -2.3206320E-009 0.0
  6.7383586E-010 -2.6520373E-009 0.0
  5.4994572E-010 -2.9893830E-009 0.0
  3.5595378E-010 -3.3376871E-009 0.0
  9.4135316E-011 -3.7007107E-009 0.0
 -2.3275500E-010 -4.0805422E-009 0.0
 -6.2268812E-010 -4.4776863E-009 0.0
 -1.0752219E-009 -4.8915972E-009 0.0
 -1.5917382E-009 -5.3214184E-009 0.0
 -2.1750762E-009 -5.7665044E-009 0.0
 -2.8291475E-009 -6.2263482E-009 0.0
 -3.5596299E-009 -6.7001366E-009 0.0
 -4.3760984E-009 -7.1873364E-009 0.0
 -5.2943183E-009 -7.6905164E-009 0.0
 -6.3352325E-009 -8.2204750E-009 0.0
 -7.5213807E-009 -8.7979581E-009 0.0
 -8.8797590E-009 -9.4476496E-009 0.0
 -1.0459307E-008 -1.0181689E-008 0.0
 -1.2352996E-008 -1.0994501E-008 0.0
 -1.4689100E-008 -1.1861898E-008 0.0
 -1.7551148E-008 -1.2765094E-008 0.0
 -2.0919170E-008 -1.3742389E-008 0.0
 -2.4745664E-008 -1.4868126E-008 0.0
 -2.8755573E-008 -1.6113776E-008 0.0
 -3.2786949E-008 -1.7600878E-008 0.0
 -3.6879374E-008 -1.9231529E-008 0.0
 -4.0619955E-008 -2.0642971E-008 0.0
 -4.3727182E-008 -2.2048173E-008 0.0
 -4.6734170E-008 -2.3288586E-008 0.0
 -4.9582584E-008 -2.4304152E-008 0.0
 -5.2311129E-008 -2.5209907E-008 0.0
 -5.5060622E-008 -2.6041521E-008 0.0
 -5.7910436E-008 -2.6821360E-008 0.0
 -6.0895164E-008 -2.7575559E-008 0.0
 -6.4024731E-008 -2.8317783E-008 0.0
 -6.7293666E-008 -2.9052962E-008 0.0
 -7.0686408E-008 -2.9782789E-008 0.0
 -7.4181931E-008 -3.0509194E-008 0.0
 -7.7757394E-008 -3.1234738E-008 0.0
 -8.1390645E-008 -3.1962257E-008 0.0
 -8.5061128E-008 -3.2694640E-008 0.0
 -8.8749664E-008 -3.3434584E-008 0.0
 -9.2437663E-008 -3.4184486E-008 0.0
 -9.6105987E-008 -3.4946558E-008 0.0
 -9.9733588E-008 -3.5723236E-008 0.0
 -1.0329628E-007 -3.6518041E-008 0.0
 -1.0676553E-007 -3.7337220E-008 0.0
 -1.1011095E-007 -3.8192469E-008 0.0
 -1.1329472E-007 -3.9105070E-008 0.0
 -1.1635011E-007 -4.0098928E-008 0.0
 -1.1951340E-007 -4.1007610E-008 0.0
 -1.2286655E-007 -4.1448574E-008 0.0
 -7.4543544E-035  1.8684755E-051 0.0
  1.5776115E-010 -4.3109946E-010 0.0
  2.9697239E-010 -8.6418764E-010 0.0
  4.3790302E-010 -1.2532969E-009 0.0
  5.4231735E-010 -1.6158006E-009 0.0
  5.9742113E-010 -1.9621225E-009 0.0
  5.9456725E-010 -2.2986844E-009 0.0
  5.2874021E-010 -2.6309661E-009 0.0
  3.9754662E-010 -2.9636894E-009 0.0
  2.0049090E-010 -3.3006972E-009 0.0
 -6.1717643E-011 -3.6446267E-009 0.0
 -3.8794842E-010 -3.9967041E-009 0.0
 -7.7740088E-010 -4.3567801E-009 0.0
 -1.2301398E-009 -4.7235875E-009 0.0
 -1.7472959E-009 -5.0950768E-009 0.0
 -2.3309977E-009 -5.4686470E-009 0.0
 -2.9843313E-009 -5.8412094E-009 0.0
 -3.7116365E-009 -6.2093750E-009 0.0
 -4.5191057E-009 -6.5703136E-009 0.0
 -5.4149783E-009 -6.9237557E-009 0.0
 -6.4091552E-009 -7.2744008E-009 0.0
 -7.5141872E-009 -7.6334867E-009 0.0
 -8.7561337E-009 -8.0199560E-009 0.0
 -1.0205396E-008 -8.4559411E-009 0.0
 -1.1989521E-008 -8.9393780E-009 0.0
 -1.4275467E-008 -9.4569706E-009 0.0
 -1.7182645E-008 -9.9662261E-009 0.0
 -2.0543882E-008 -1.0456527E-008 0.0
 -2.4340502E-008 -1.1070273E-008 0.0
 -2.8189240E-008 -1.2430740E-008 0.0
 -3.2153053E-008 -1.3981866E-008 0.0
 -3.6121889E-008 -1.5903993E-008 0.0
 -4.0335092E-008 -1.8571481E-008 0.0
 -4.3296011E-008 -2.0105874E-008 0.0
 -4.6575762E-008 -2.1195034E-008 0.0
 -4.9394438E-008 -2.2137341E-008 0.0
 -5.2068758E-008 -2.3007197E-008 0.0
 -5.4755109E-008 -2.3796866E-008 0.0
 -5.7511050E-008 -2.4544891E-008 0.0
 -6.0385350E-008 -2.5277992E-008 0.0
 -6.3403089E-008 -2.6005307E-008 0.0
 -6.6565160E-008 -2.6726824E-008 0.0
 -6.9856207E-008 -2.7441866E-008 0.0
 -7.3253543E-008 -2.8151929E-008 0.0
 -7.6733048E-008 -2.8860422E-008 0.0
 -8.0271948E-008 -2.9571451E-008 0.0
 -8.3849544E-008 -3.0288932E-008 0.0
 -8.7446883E-008 -3.1016094E-008 0.0
 -9.1045822E-008 -3.1755167E-008 0.0
 -9.4627713E-008 -3.2507182E-008 0.0
 -9.8171847E-008 -3.3271916E-008 0.0
 -1.0165384E-007 -3.4047984E-008 0.0
 -1.0504521E-007 -3.4832822E-008 0.0
 -1.0831364E-007 -3.5621459E-008 0.0
 -1.1144565E-007 -3.6397381E-008 0.0
 -1.1446437E-007 -3.7103112E-008 0.0
 -1.1810188E-007 -3.7686623E-008 0.0
 -1.2308001E-007 -3.7611161E-008 0.0
  1.8684755E-051 -2.2948749E-034 0.0
  1.6154363E-010 -4.0780540E-010 0.0
  2.9163554E-010 -8.0853551E-010 0.0
  3.9829325E-010 -1.1971186E-009 0.0
  4.7387040E-010 -1.5643270E-009 0.0
  5.0435222E-010 -1.9140506E-009 0.0
  4.8166179E-010 -2.2511664E-009 0.0
  4.0064282E-010 -2.5802161E-009 0.0
  2.5834207E-010 -2.9051080E-009 0.0
  5.3315893E-011 -3.2288095E-009 0.0
 -2.1493287E-010 -3.5531421E-009 0.0
 -5.4650601E-010 -3.8786581E-009 0.0
 -9.4160655E-010 -4.2046412E-009 0.0
 -1.4008953E-009 -4.5292073E-009 0.0
 -1.9256520E-009 -4.8494393E-009 0.0
 -2.5177687E-009 -5.1614854E-009 0.0
 -3.1796608E-009 -5.4606352E-009 0.0
 -3.9141471E-009 -5.7415146E-009 0.0
 -4.7241721E-009 -5.9986168E-009 0.0
 -5.6122425E-009 -6.2272125E-009 0.0
 -6.5799387E-009 -6.4244865E-009 0.0
 -7.6301473E-009 -6.5908442E-009 0.0
 -8.7741793E-009 -6.7316701E-009 0.0
 -1.0069278E-008 -6.8735987E-009 0.0
 -1.1723273E-008 -7.0428237E-009 0.0
 -1.3972770E-008 -7.1164550E-009 0.0
 -1.7098670E-008 -6.9435080E-009 0.0
 -2.0409570E-008 -6.8843698E-009 0.0
 -2.4306290E-008 -6.7334881E-009 0.0
 -4.0653731E-008 -1.8108732E-008 0.0
 -4.2736394E-008 -1.8100782E-008 0.0
 -4.6641628E-008 -1.9617751E-008 0.0
 -4.9272964E-008 -2.0483487E-008 0.0
 -5.1886023E-008 -2.1218199E-008 0.0
 -5.4472330E-008 -2.1898552E-008 0.0
 -5.7101286E-008 -2.2578962E-008 0.0
 -5.9848187E-008 -2.3272893E-008 0.0
 -6.2752296E-008 -2.3971143E-008 0.0
 -6.5813885E-008 -2.4663354E-008 0.0
 -6.9011938E-008 -2.5345954E-008 0.0
 -7.2319072E-008 -2.6021806E-008 0.0
 -7.5708955E-008 -2.6696431E-008 0.0
 -7.9158227E-008 -2.7375626E-008 0.0
 -8.2646520E-008 -2.8064454E-008 0.0
 -8.6155823E-008 -2.8766686E-008 0.0
 -8.9669428E-008 -2.9484345E-008 0.0
 -9.3170534E-008 -3.0217204E-008 0.0
 -9.6640524E-008 -3.0962198E-008 0.0
 -1.0005728E-007 -3.1712777E-008 0.0
 -1.0339410E-007 -3.2458157E-008 0.0
 -1.0662430E-007 -3.3181682E-008 0.0
 -1.0972787E-007 -3.3860873E-008 0.0
 -1.1277598E-007 -3.4480315E-008 0.0
 -1.1556470E-007 -3.5306844E-008 0.0
  1.8684755E-051  1.8684755E-051 0.0
  1.5665152E-010 -3.8982941E-010 0.0
  2.7885571E-010 -7.7422868E-010 0.0
  3.6754907E-010 -1.1488758E-009 0.0
  4.1892048E-010 -1.5096590E-009 0.0
  4.2643857E-010 -1.8549572E-009 0.0
  3.8361616E-010 -2.1868988E-009 0.0
  2.8582472E-010 -2.5086363E-009 0.0
  1.2977665E-010 -2.8230770E-009 0.0
 -8.6707195E-011 -3.1323799E-009 0.0
 -3.6506461E-010 -3.4377103E-009 0.0
 -7.0636708E-010 -3.7391252E-009 0.0
 -1.1116608E-009 -4.0355399E-009 0.0
 -1.5822124E-009 -4.3247465E-009 0.0
 -2.1196183E-009 -4.6034484E-009 0.0
 -2.7257650E-009 -4.8672803E-009 0.0
 -3.4026320E-009 -5.1108155E-009 0.0
 -4.1518893E-009 -5.3276061E-009 0.0
 -4.9741822E-009 -5.5102966E-009 0.0
 -5.8680342E-009 -5.6508416E-009 0.0
 -6.8287605E-009 -5.7409061E-009 0.0
 -7.8482653E-009 -5.7730404E-009 0.0
 -8.9230178E-009 -5.7430426E-009 0.0
 -1.0054340E-008 -5.6457162E-009 0.0
 -1.1443036E-008 -5.5252317E-009 0.0
 -1.3838687E-008 -5.3359585E-009 0.0
 -4.6999184E-008 -1.9142888E-008 0.0
 -4.9352875E-008 -1.9377884E-008 0.0
 -5.1839190E-008 -1.9811442E-008 0.0
 -5.4250217E-008 -2.0322386E-008 0.0
 -5.6692649E-008 -2.0913650E-008 0.0
 -5.9288032E-008 -2.1555514E-008 0.0
 -6.2079909E-008 -2.2209254E-008 0.0
 -6.5051751E-008 -2.2850980E-008 0.0
 -6.8166847E-008 -2.3479089E-008 0.0
 -7.1391246E-008 -2.4100651E-008 0.0
 -7.4696668E-008 -2.4723712E-008 0.0
 -7.8059639E-008 -2.5355594E-008 0.0
 -8.1460692E-008 -2.6002266E-008 0.0
 -8.4883438E-008 -2.6667985E-008 0.0
 -8.8313510E-008 -2.7354801E-008 0.0
 -9.1737213E-008 -2.8061826E-008 0.0
 -9.5139740E-008 -2.8784265E-008 0.0
 -9.8502912E-008 -2.9512496E-008 0.0
 -1.0180335E-007 -3.0231839E-008 0.0
 -1.0501084E-007 -3.0925509E-008 0.0
 -1.0809585E-007 -3.1585043E-008 0.0
 -1.1097896E-007 -3.2263785E-008 0.0
 -1.1347915E-007 -3.3001333E-008 0.0
  1.8684755E-051  1.8684755E-051 0.0
  1.5057786E-010 -3.7533151E-010 0.0
  2.6503151E-010 -7.4557038E-010 0.0
  3.3962065E-010 -1.1069813E-009 0.0
  3.7167707E-010 -1.4559187E-009 0.0
  3.5834405E-010 -1.7906049E-009 0.0
  2.9618016E-010 -2.1123369E-009 0.0
  1.8121129E-010 -2.4232187E-009 0.0
  1.0070992E-011 -2.7252169E-009 0.0
 -2.1992572E-010 -3.0197322E-009 0.0
 -5.1090582E-010 -3.3073904E-009 0.0
 -8.6467588E-010 -3.5879282E-009 0.0
 -1.2829534E-009 -3.8601369E-009 0.0
 -1.7675327E-009 -4.1218420E-009 0.0
 -2.3203408E-009 -4.3698961E-009 0.0
 -2.9433494E-009 -4.6001638E-009 0.0
 -3.6382952E-009 -4.8074878E-009 0.0
 -4.4061259E-009 -4.9856298E-009 0.0
 -5.2460325E-009 -5.1271882E-009 0.0
 -6.1538813E-009 -5.2235363E-009 0.0
 -7.1197778E-009 -5.2651795E-009 0.0
 -8.1247717E-009 -5.2437786E-009 0.0
 -9.1345750E-009 -5.1624523E-009 0.0
 -1.0116267E-008 -5.0632127E-009 0.0
 -1.0802740E-008 -5.1579394E-009 0.0
 -4.9657319E-008 -1.8401879E-008 0.0
 -5.1961414E-008 -1.8657766E-008 0.0
 -5.4099081E-008 -1.9035451E-008 0.0
 -5.6274228E-008 -1.9541374E-008 0.0
 -5.8701071E-008 -2.0130217E-008 0.0
 -6.1398796E-008 -2.0712640E-008 0.0
 -6.4295753E-008 -2.1271848E-008 0.0
 -6.7336766E-008 -2.1819284E-008 0.0
 -7.0483985E-008 -2.2365488E-008 0.0
 -7.3708153E-008 -2.2919711E-008 0.0
 -7.6986376E-008 -2.3489627E-008 0.0
 -8.0300496E-008 -2.4081434E-008 0.0
 -8.3636142E-008 -2.4699698E-008 0.0
 -8.6981850E-008 -2.5346866E-008 0.0
 -9.0327929E-008 -2.6022381E-008 0.0
 -9.3664655E-008 -2.6721459E-008 0.0
 -9.6979342E-008 -2.7433888E-008 0.0
 -1.0025152E-007 -2.8144167E-008 0.0
 -1.0344643E-007 -2.8835412E-008 0.0
 -1.0649865E-007 -2.9503959E-008 0.0
 -1.0929489E-007 -3.0162199E-008 0.0
 -1.1167797E-007 -3.0837260E-008 0.0
  1.8684755E-051 -7.4543544E-035 0.0
  1.4615320E-010 -3.6420414E-010 0.0
  2.5416721E-010 -7.2249161E-010 0.0
  3.1480932E-010 -1.0716751E-009 0.0
  3.2796786E-010 -1.4044908E-009 0.0
  2.9596677E-010 -1.7237427E-009 0.0
  2.1597220E-010 -2.0313441E-009 0.0
  8.4497244E-011 -2.3287350E-009 0.0
 -1.0187773E-010 -2.6170245E-009 0.0
 -3.4612405E-010 -2.8969302E-009 0.0
 -6.5080755E-010 -3.1686585E-009 0.0
 -1.0182272E-009 -3.4318004E-009 0.0
 -1.4505663E-009 -3.6852660E-009 0.0
 -1.9499926E-009 -3.9272527E-009 0.0
 -2.5186634E-009 -4.1552371E-009 0.0
 -3.1585914E-009 -4.3659753E-009 0.0
 -3.8713123E-009 -4.5554975E-009 0.0
 -4.6572491E-009 -4.7190848E-009 0.0
 -5.5145904E-009 -4.8512210E-009 0.0
 -6.4373177E-009 -4.9455772E-009 0.0
 -7.4114996E-009 -4.9952629E-009 0.0
 -8.4077663E-009 -4.9948175E-009 0.0
 -9.3635045E-009 -4.9462102E-009 0.0
 -1.0135678E-008 -4.9028594E-009 0.0
 -1.0509758E-008 -4.9142059E-009 0.0
 -5.2256471E-008 -1.7837175E-008 0.0
 -5.4018910E-008 -1.8060823E-008 0.0
 -5.5792465E-008 -1.8513125E-008 0.0
 -5.8100642E-008 -1.9004956E-008 0.0
 -6.0735329E-008 -1.9453164E-008 0.0
 -6.3566476E-008 -1.9892515E-008 0.0
 -6.6538349E-008 -2.0334270E-008 0.0
 -6.9610695E-008 -2.0787135E-008 0.0
 -7.2754611E-008 -2.1258267E-008 0.0
 -7.5947978E-008 -2.1753981E-008 0.0
 -7.9173967E-008 -2.2279816E-008 0.0
 -8.2420173E-008 -2.2840376E-008 0.0
 -8.5678097E-008 -2.3438833E-008 0.0
 -8.8942418E-008 -2.4075960E-008 0.0
 -9.2209462E-008 -2.4748670E-008 0.0
 -9.5473771E-008 -2.5448224E-008 0.0
 -9.8721105E-008 -2.6158913E-008 0.0
 -1.0191481E-007 -2.6859607E-008 0.0
 -1.0497603E-007 -2.7528247E-008 0.0
 -1.0776820E-007 -2.8154005E-008 0.0
 -1.1011295E-007 -2.8749648E-008 0.0
  1.8684755E-051  1.8684755E-051 0.0
  1.5015800E-010 -3.5776591E-010 0.0
  2.5146090E-010 -7.1870278E-010 0.0
  2.8851774E-010 -1.0446785E-009 0.0
  2.8447703E-010 -1.3547774E-009 0.0
  2.3624718E-010 -1.6545829E-009 0.0
  1.4071837E-010 -1.9454870E-009 0.0
 -5.7623088E-012 -2.2278725E-009 0.0
 -2.0655929E-010 -2.5019529E-009 0.0
 -4.6471882E-010 -2.7678554E-009 0.0
 -7.8299030E-010 -3.0255092E-009 0.0
 -1.1639167E-009 -3.2745321E-009 0.0
 -1.6099192E-009 -3.5141590E-009 0.0
 -2.1233361E-009 -3.7432184E-009 0.0
 -2.7063768E-009 -3.9601499E-009 0.0
 -3.3609430E-009 -4.1630554E-009 0.0
 -4.0882531E-009 -4.3497772E-009 0.0
 -4.8881582E-009 -4.5179997E-009 0.0
 -5.7579468E-009 -4.6653767E-009 0.0
 -6.6901834E-009 -4.7896708E-009 0.0
 -7.6686573E-009 -4.8888785E-009 0.0
 -8.6591909E-009 -4.9605639E-009 0.0
 -9.5912101E-009 -5.0000045E-009 0.0
 -1.0284734E-008 -4.9720301E-009 0.0
 -1.0473584E-008 -4.9324539E-009 0.0
 -5.3837948E-008 -1.7664877E-008 0.0
 -5.5259852E-008 -1.7875320E-008 0.0
 -5.7546361E-008 -1.8092584E-008 0.0
 -6.0113812E-008 -1.8360058E-008 0.0
 -6.2881708E-008 -1.8657599E-008 0.0
 -6.5784140E-008 -1.8980986E-008 0.0
 -6.8781531E-008 -1.9331081E-008 0.0
 -7.1844790E-008 -1.9710934E-008 0.0
 -7.4952404E-008 -2.0124406E-008 0.0
 -7.8088448E-008 -2.0575740E-008 0.0
 -8.1241990E-008 -2.1069307E-008 0.0
 -8.4407044E-008 -2.1609147E-008 0.0
 -8.7582497E-008 -2.2197990E-008 0.0
 -9.0771255E-008 -2.2835643E-008 0.0
 -9.3977435E-008 -2.3516569E-008 0.0
 -9.7198875E-008 -2.4226205E-008 0.0
 -1.0041058E-007 -2.4936867E-008 0.0
 -1.0353682E-007 -2.5607836E-008 0.0
 -1.0641753E-007 -2.6196978E-008 0.0
 -1.0880792E-007 -2.6703620E-008 0.0
  1.8684755E-051  1.8684755E-051 0.0
  1.9070142E-010 -4.3949549E-010 0.0
  2.3195945E-010 -7.3771093E-010 0.0
  2.5475715E-010 -1.0204995E-009 0.0
  2.3804658E-010 -1.3023583E-009 0.0
  1.7766412E-010 -1.5810763E-009 0.0
  6.9379241E-011 -1.8546126E-009 0.0
 -9.0131403E-011 -2.1217207E-009 0.0
 -3.0395334E-010 -2.3817896E-009 0.0
 -5.7495369E-010 -2.6345416E-009 0.0
 -9.0582773E-010 -2.8798130E-009 0.0
 -1.2991312E-009 -3.1174100E-009 0.0
 -1.7573018E-009 -3.3470394E-009 0.0
 -2.2826379E-009 -3.5683035E-009 0.0
 -2.8771991E-009 -3.7807533E-009 0.0
 -3.5425822E-009 -3.9839968E-009 0.0
 -4.2795084E-009 -4.1778631E-009 0.0
 -5.0871147E-009 -4.3626274E-009 0.0
 -5.9617584E-009 -4.5392985E-009 0.0
 -6.8950070E-009 -4.7099318E-009 0.0
 -7.8699584E-009 -4.8777033E-009 0.0
 -8.8554028E-009 -5.0458013E-009 0.0
 -9.7895372E-009 -5.2096629E-009 0.0
 -1.0586930E-008 -5.3291863E-009 0.0
 -1.0755835E-008 -5.1768179E-009 0.0
 -5.2852457E-008 -1.7083156E-008 0.0
 -5.4826455E-008 -1.7144167E-008 0.0
 -5.7024034E-008 -1.7202311E-008 0.0
 -5.9540515E-008 -1.7328263E-008 0.0
 -6.2244386E-008 -1.7500137E-008 0.0
 -6.5078299E-008 -1.7711771E-008 0.0
 -6.8000843E-008 -1.7961492E-008 0.0
 -7.0983504E-008 -1.8249830E-008 0.0
 -7.4005096E-008 -1.8578547E-008 0.0
 -7.7050126E-008 -1.8950451E-008 0.0
 -8.0108366E-008 -1.9369390E-008 0.0
 -8.3175410E-008 -1.9840107E-008 0.0
 -8.6253729E-008 -2.0367436E-008 0.0
 -8.9352983E-008 -2.0954266E-008 0.0
 -9.2488380E-008 -2.1598960E-008 0.0
 -9.5676449E-008 -2.2291166E-008 0.0
 -9.8920293E-008 -2.3001296E-008 0.0
 -1.0216914E-007 -2.3671632E-008 0.0
 -1.0525547E-007 -2.4228960E-008 0.0
 -1.0782475E-007 -2.4625622E-008 0.0
  5.3549027E-011 -6.0208642E-010 0.0
  1.1718144E-010 -5.5873662E-010 0.0
  1.8730984E-010 -7.3651811E-010 0.0
  2.1072105E-010 -9.8096868E-010 0.0
  1.8954350E-010 -1.2396724E-009 0.0
  1.2074753E-010 -1.5002562E-009 0.0
  2.2320388E-012 -1.7578827E-009 0.0
 -1.6842758E-010 -2.0105061E-009 0.0
 -3.9370775E-010 -2.2572143E-009 0.0
 -6.7610628E-010 -2.4976702E-009 0.0
 -1.0180845E-009 -2.7318386E-009 0.0
 -1.4220323E-009 -2.9598511E-009 0.0
 -1.8902248E-009 -3.1819589E-009 0.0
 -2.4247448E-009 -3.3985528E-009 0.0
 -3.0273350E-009 -3.6102468E-009 0.0
 -3.6991370E-009 -3.8180197E-009 0.0
 -4.4402575E-009 -4.0234170E-009 0.0
 -5.2490730E-009 -4.2288096E-009 0.0
 -6.1211419E-009 -4.4376937E-009 0.0
 -7.0474948E-009 -4.6549620E-009 0.0
 -8.0122175E-009 -4.8869284E-009 0.0
 -8.9882766E-009 -5.1406288E-009 0.0
 -9.9386493E-009 -5.4214210E-009 0.0
 -1.0790373E-008 -5.7394517E-009 0.0
 -1.1655779E-008 -6.0310341E-009 0.0
 -5.0396221E-008 -1.7243675E-008 0.0
 -5.0392952E-008 -1.5600000E-008 0.0
 -5.2107018E-008 -1.5862811E-008 0.0
 -5.4208308E-008 -1.6117690E-008 0.0
 -5.6497504E-008 -1.6221717E-008 0.0
 -5.8987885E-008 -1.6281509E-008 0.0
 -6.1644484E-008 -1.6364484E-008 0.0
 -6.4415643E-008 -1.6484903E-008 0.0
 -6.7266651E-008 -1.6646781E-008 0.0
 -7.0170930E-008 -1.6851100E-008 0.0
 -7.3108258E-008 -1.7098579E-008 0.0
 -7.6063347E-008 -1.7390695E-008 0.0
 -7.9025879E-008 -1.7730337E-008 0.0
 -8.1991713E-008 -1.8122274E-008 0.0
 -8.4965421E-008 -1.8573038E-008 0.0
 -8.7963656E-008 -1.9088744E-008 0.0
 -9.1014619E-008 -1.9669107E-008 0.0
 -9.4153997E-008 -2.0305987E-008 0.0
 -9.7428006E-008 -2.0979476E-008 0.0
 -1.0085627E-007 -2.1618453E-008 0.0
 -1.0428360E-007 -2.2104887E-008 0.0
 -1.0726449E-007 -2.2383169E-008 0.0
  1.8684755E-051  1.8684755E-051 0.0
  5.7386915E-011 -3.9044964E-010 0.0
  1.4256313E-010 -6.6141894E-010 0.0
  1.6925248E-010 -9.1264146E-010 0.0
  1.4399128E-010 -1.1629423E-009 0.0
  6.7934853E-011 -1.4109244E-009 0.0
 -5.9588376E-011 -1.6550637E-009 0.0
 -2.4006785E-010 -1.8943532E-009 0.0
 -4.7540742E-010 -2.1283693E-009 0.0
 -7.6769716E-010 -2.3570988E-009 0.0
 -1.1190904E-009 -2.5808327E-009 0.0
 -1.5317104E-009 -2.8001102E-009 0.0
 -2.0075583E-009 -3.0157181E-009 0.0
 -2.5483930E-009 -3.2287386E-009 0.0
 -3.1555520E-009 -3.4406444E-009 0.0
 -3.8296750E-009 -3.6534374E-009 0.0
 -4.5702856E-009 -3.8698180E-009 0.0
 -5.3751766E-009 -4.0933629E-009 0.0
 -6.2395324E-009 -4.3286479E-009 0.0
 -7.1547857E-009 -4.5811644E-009 0.0
 -8.1071884E-009 -4.8567183E-009 0.0
 -9.0776336E-009 -5.1593943E-009 0.0
 -1.0041000E-008 -5.4876130E-009 0.0
 -1.0998023E-008 -5.8076145E-009 0.0
 -1.2070281E-008 -6.0710468E-009 0.0
 -1.3383903E-008 -6.3363875E-009 0.0
 -1.3120082E-008 -6.3181183E-009 0.0
 -4.9691170E-008 -1.4665845E-008 0.0
 -5.1267911E-008 -1.5032904E-008 0.0
 -5.3534834E-008 -1.5142748E-008 0.0
 -5.5925748E-008 -1.5185277E-008 0.0
 -5.8439478E-008 -1.5197474E-008 0.0
 -6.1066740E-008 -1.5218524E-008 0.0
 -6.3785989E-008 -1.5271364E-008 0.0
 -6.6571934E-008 -1.5363644E-008 0.0
 -6.9402864E-008 -1.5497478E-008 0.0
 -7.2260402E-008 -1.5673055E-008 0.0
 -7.5129637E-008 -1.5890521E-008 0.0
 -7.7999597E-008 -1.6151132E-008 0.0
 -8.0864923E-008 -1.6458373E-008 0.0
 -8.3729591E-008 -1.6819014E-008 0.0
 -8.6614415E-008 -1.7243013E-008 0.0
 -8.9567901E-008 -1.7735068E-008 0.0
 -9.2652290E-008 -1.8269503E-008 0.0
 -9.5933009E-008 -1.8814440E-008 0.0
 -9.9574548E-008 -1.9335904E-008 0.0
 -1.0358258E-007 -1.9614242E-008 0.0
 -1.0725507E-007 -1.9452087E-008 0.0
  1.8684755E-051  1.8684755E-051 0.0
  8.7070711E-011 -2.8508263E-010 0.0
  1.2776535E-010 -5.7225860E-010 0.0
  1.4102667E-010 -8.3169651E-010 0.0
  1.0634989E-010 -1.0773072E-009 0.0
  2.1498829E-011 -1.3152401E-009 0.0
 -1.1500971E-010 -1.5471821E-009 0.0
 -3.0458917E-010 -1.7737258E-009 0.0
 -5.4887571E-010 -1.9952659E-009 0.0
 -8.4966788E-010 -2.2123069E-009 0.0
 -1.2088328E-009 -2.4255511E-009 0.0
 -1.6282042E-009 -2.6359442E-009 0.0
 -2.1094704E-009 -2.8447238E-009 0.0
 -2.6540363E-009 -3.0534863E-009 0.0
 -3.2628375E-009 -3.2642754E-009 0.0
 -3.9360806E-009 -3.4796814E-009 0.0
 -4.6728896E-009 -3.7029300E-009 0.0
 -5.4708417E-009 -3.9379089E-009 0.0
 -6.3254207E-009 -4.1890305E-009 0.0
 -7.2294968E-009 -4.4607296E-009 0.0
 -8.1733700E-009 -4.7561624E-009 0.0
 -9.1460927E-009 -5.0745783E-009 0.0
 -1.0143882E-008 -5.4046404E-009 0.0
 -1.1192333E-008 -5.7243396E-009 0.0
 -1.2350792E-008 -6.0274151E-009 0.0
 -1.3657836E-008 -6.3338234E-009 0.0
 -1.5078813E-008 -6.6554223E-009 0.0
 -1.4777213E-008 -6.6305530E-009 0.0
 -4.8140812E-008 -1.4178747E-008 0.0
 -5.0548826E-008 -1.4208295E-008 0.0
 -5.2893917E-008 -1.4150640E-008 0.0
 -5.5354631E-008 -1.4105836E-008 0.0
 -5.7889976E-008 -1.4067467E-008 0.0
 -6.0500526E-008 -1.4046476E-008 0.0
 -6.3177572E-008 -1.4054412E-008 0.0
 -6.5906686E-008 -1.4097907E-008 0.0
 -6.8671452E-008 -1.4178933E-008 0.0
 -7.1456112E-008 -1.4297144E-008 0.0
 -7.4246492E-008 -1.4451319E-008 0.0
 -7.7030878E-008 -1.4640472E-008 0.0
 -7.9801562E-008 -1.4865116E-008 0.0
 -8.2558675E-008 -1.5129380E-008 0.0
 -8.5319157E-008 -1.5444246E-008 0.0
 -8.8141619E-008 -1.5831219E-008 0.0
 -9.1169946E-008 -1.6285657E-008 0.0
 -9.4498925E-008 -1.6649488E-008 0.0
 -9.8305160E-008 -1.6756522E-008 0.0
 -1.0343421E-007 -1.6366759E-008 0.0
  1.8684755E-051  1.8684755E-051 0.0
  8.8457195E-011 -2.5682887E-010 0.0
  1.2680185E-010 -5.0917119E-010 0.0
  1.2326522E-010 -7.5569625E-010 0.0
  7.6791524E-011 -9.9080884E-010 0.0
 -1.8148203E-011 -1.2169318E-009 0.0
 -1.6385733E-010 -1.4360304E-009 0.0
 -3.6207248E-010 -1.6493736E-009 0.0
 -6.1439930E-010 -1.8579466E-009 0.0
 -9.2247807E-010 -2.0626950E-009 0.0
 -1.2879542E-009 -2.2646756E-009 0.0
 -1.7124004E-009 -2.4651519E-009 0.0
 -2.1972114E-009 -2.6656696E-009 0.0
 -2.7434734E-009 -2.8681265E-009 0.0
 -3.3517967E-009 -3.0748364E-009 0.0
 -4.0221066E-009 -3.2885740E-009 0.0
 -4.7533907E-009 -3.5125704E-009 0.0
 -5.5434337E-009 -3.7504000E-009 0.0
 -6.3886228E-009 -4.0056576E-009 0.0
 -7.2840675E-009 -4.2812555E-009 0.0
 -8.2244909E-009 -4.5781584E-009 0.0
 -9.2072381E-009 -4.8932907E-009 0.0
 -1.0238891E-008 -5.2186727E-009 0.0
 -1.1341300E-008 -5.5464003E-009 0.0
 -1.2546755E-008 -5.8769684E-009 0.0
 -1.3877359E-008 -6.2207222E-009 0.0
 -1.5333196E-008 -6.5822639E-009 0.0
 -1.6901653E-008 -6.9504406E-009 0.0
 -1.6578333E-008 -6.9609938E-009 0.0
 -4.4921741E-008 -1.4482613E-008 0.0
 -4.4847029E-008 -1.2504338E-008 0.0
 -4.7088837E-008 -1.2921646E-008 0.0
 -4.9782325E-008 -1.3030672E-008 0.0
 -5.2283691E-008 -1.3008261E-008 0.0
 -5.4790023E-008 -1.2939950E-008 0.0
 -5.7339382E-008 -1.2880304E-008 0.0
 -5.9936044E-008 -1.2840269E-008 0.0
 -6.2578696E-008 -1.2826529E-008 0.0
 -6.5259280E-008 -1.2843115E-008 0.0
 -6.7966117E-008 -1.2891492E-008 0.0
 -7.0686144E-008 -1.2970979E-008 0.0
 -7.3406361E-008 -1.3079426E-008 0.0
 -7.6114719E-008 -1.3213760E-008 0.0
 -7.8801162E-008 -1.3370705E-008 0.0
 -8.1459804E-008 -1.3548440E-008 0.0
 -8.4096140E-008 -1.3751372E-008 0.0
 -8.6745111E-008 -1.4002368E-008 0.0
 -8.9572373E-008 -1.4388666E-008 0.0
 -9.3043192E-008 -1.4938486E-008 0.0
 -9.6404050E-008 -1.5639393E-008 0.0
 -7.4543544E-035  1.8684755E-051 0.0
  8.4481860E-011 -2.3347925E-010 0.0
  1.2003091E-010 -4.6364493E-010 0.0
  1.0923297E-010 -6.8899119E-010 0.0
  5.2331973E-011 -9.0772292E-010 0.0
 -5.2341460E-011 -1.1188285E-009 0.0
 -2.0697568E-010 -1.3231852E-009 0.0
 -4.1325790E-010 -1.5220059E-009 0.0
 -6.7278226E-010 -1.7164697E-009 0.0
 -9.8708890E-010 -1.9077475E-009 0.0
 -1.3576572E-009 -2.0970963E-009 0.0
 -1.7858459E-009 -2.2859505E-009 0.0
 -2.2728085E-009 -2.4759944E-009 0.0
 -2.8193862E-009 -2.6692168E-009 0.0
 -3.4259807E-009 -2.8679420E-009 0.0
 -4.0924128E-009 -3.0748222E-009 0.0
 -4.8177872E-009 -3.2927619E-009 0.0
 -5.6004178E-009 -3.5247280E-009 0.0
 -6.4379282E-009 -3.7733799E-009 0.0
 -7.3277438E-009 -4.0404686E-009 0.0
 -8.2683787E-009 -4.3260195E-009 0.0
 -9.2619388E-009 -4.6278215E-009 0.0
 -1.0317246E-008 -4.9424326E-009 0.0
 -1.1451194E-008 -5.2682817E-009 0.0
 -1.2685072E-008 -5.6093025E-009 0.0
 -1.4037312E-008 -5.9745187E-009 0.0
 -1.5519618E-008 -6.3732058E-009 0.0
 -1.7142459E-008 -6.8060616E-009 0.0
 -1.8914445E-008 -7.2518162E-009 0.0
 -1.8556900E-008 -7.2760213E-009 0.0
 -4.3378945E-008 -1.2144446E-008 0.0
 -4.6346981E-008 -1.1905965E-008 0.0
 -4.9048632E-008 -1.1779615E-008 0.0
 -5.1661307E-008 -1.1729260E-008 0.0
 -5.4216466E-008 -1.1678772E-008 0.0
 -5.6777018E-008 -1.1632026E-008 0.0
 -5.9362770E-008 -1.1599680E-008 0.0
 -6.1977538E-008 -1.1587311E-008 0.0
 -6.4617601E-008 -1.1598506E-008 0.0
 -6.7274700E-008 -1.1634970E-008 0.0
 -6.9938234E-008 -1.1696587E-008 0.0
 -7.2596638E-008 -1.1781488E-008 0.0
 -7.5238177E-008 -1.1886073E-008 0.0
 -7.7851320E-008 -1.2004950E-008 0.0
 -8.0425181E-008 -1.2131139E-008 0.0
 -8.2950218E-008 -1.2257659E-008 0.0
 -8.5430385E-008 -1.2383862E-008 0.0
 -8.7899311E-008 -1.2533695E-008 0.0
 -9.1136682E-008 -1.2817168E-008 0.0
 -9.6401295E-008 -1.2407752E-008 0.0
  1.8684755E-051  1.8684755E-051 0.0
  7.9892863E-011 -2.1324140E-010 0.0
  1.1180199E-010 -4.2319554E-010 0.0
  9.5213980E-011 -6.2880497E-010 0.0
  3.0331982E-011 -8.2865145E-010 0.0
 -8.3053235E-011 -1.0220059E-009 0.0
 -2.4580105E-010 -1.2094556E-009 0.0
 -4.5936457E-010 -1.3920317E-009 0.0
 -7.2522943E-010 -1.5708597E-009 0.0
 -1.0448400E-009 -1.7471162E-009 0.0
 -1.4195378E-009 -1.9220800E-009 0.0
 -1.8505119E-009 -2.0971952E-009 0.0
 -2.3387350E-009 -2.2741208E-009 0.0
 -2.8848899E-009 -2.4547584E-009 0.0
 -3.4892886E-009 -2.6412501E-009 0.0
 -4.1518027E-009 -2.8359316E-009 0.0
 -4.8718340E-009 -3.0412208E-009 0.0
 -5.6483836E-009 -3.2594150E-009 0.0
 -6.4803207E-009 -3.4923843E-009 0.0
 -7.3670013E-009 -3.7411866E-009 0.0
 -8.3093885E-009 -4.0057769E-009 0.0
 -9.3116039E-009 -4.2851912E-009 0.0
 -1.0382324E-008 -4.5786203E-009 0.0
 -1.1534875E-008 -4.8873532E-009 0.0
 -1.2785349E-008 -5.2165658E-009 0.0
 -1.4149810E-008 -5.5759400E-009 0.0
 -1.5643844E-008 -5.9794313E-009 0.0
 -1.7285021E-008 -6.4489685E-009 0.0
 -1.9094879E-008 -7.0331751E-009 0.0
 -2.1068884E-008 -7.8346746E-009 0.0
 -2.0671192E-008 -7.5526443E-009 0.0
 -3.9315349E-008 -1.2553341E-008 0.0
 -3.9004727E-008 -1.0568646E-008 0.0
 -4.2566154E-008 -1.0385954E-008 0.0
 -4.5637694E-008 -1.0375980E-008 0.0
 -4.8388717E-008 -1.0360394E-008 0.0
 -5.1028354E-008 -1.0347035E-008 0.0
 -5.3617525E-008 -1.0341042E-008 0.0
 -5.6190293E-008 -1.0334769E-008 0.0
 -5.8769645E-008 -1.0333116E-008 0.0
 -6.1363264E-008 -1.0342276E-008 0.0
 -6.3970336E-008 -1.0366993E-008 0.0
 -6.6585103E-008 -1.0410499E-008 0.0
 -6.9198928E-008 -1.0474471E-008 0.0
 -7.1801597E-008 -1.0559045E-008 0.0
 -7.4381933E-008 -1.0662753E-008 0.0
 -7.6927688E-008 -1.0782372E-008 0.0
 -7.9424077E-008 -1.0912842E-008 0.0
 -8.1850480E-008 -1.1048109E-008 0.0
 -8.4166765E-008 -1.1189321E-008 0.0
 -8.6306901E-008 -1.1383796E-008 0.0
 -8.7789949E-008 -1.2278194E-008 0.0
 -7.4543544E-035  1.8684755E-051 0.0
  7.6085805E-011 -1.9513681E-010 0.0
  1.0440054E-010 -3.8657034E-010 0.0
  8.1679061E-011 -5.7339647E-010 0.0
  8.9007256E-012 -7.5278903E-010 0.0
 -1.1206053E-010 -9.2626809E-010 0.0
 -2.8188901E-010 -1.0948775E-009 0.0
 -5.0178654E-010 -1.2595186E-009 0.0
 -7.7313463E-010 -1.4211144E-009 0.0
 -1.0972629E-009 -1.5806786E-009 0.0
 -1.4753844E-009 -1.7393597E-009 0.0
 -1.9085499E-009 -1.8984735E-009 0.0
 -2.3976068E-009 -2.0595208E-009 0.0
 -2.9431562E-009 -2.2241862E-009 0.0
 -3.5455188E-009 -2.3943072E-009 0.0
 -4.2047259E-009 -2.5718050E-009 0.0
 -4.9205673E-009 -2.7585644E-009 0.0
 -5.6927451E-009 -2.9562587E-009 0.0
 -6.5211995E-009 -3.1661354E-009 0.0
 -7.4066740E-009 -3.3888263E-009 0.0
 -8.3515271E-009 -3.6243204E-009 0.0
 -9.3606387E-009 -3.8722893E-009 0.0
 -1.0442035E-008 -4.1328793E-009 0.0
 -1.1606791E-008 -4.4077986E-009 0.0
 -1.2868120E-008 -4.7012577E-009 0.0
 -1.4240381E-008 -5.0203535E-009 0.0
 -1.5739056E-008 -5.3752963E-009 0.0
 -1.7383010E-008 -5.7798868E-009 0.0
 -1.9197521E-008 -6.2453588E-009 0.0
 -2.1332868E-008 -6.7203973E-009 0.0
 -2.4266892E-008 -7.1598914E-009 0.0
 -2.4633860E-008 -9.5868075E-009 0.0
 -2.7569177E-008 -7.7600533E-009 0.0
 -2.7786637E-008 -1.0544724E-008 0.0
 -3.0950043E-008 -8.1207238E-009 0.0
 -3.1098373E-008 -1.1083134E-008 0.0
 -3.4628620E-008 -8.2138252E-009 0.0
 -3.4625463E-008 -1.1212351E-008 0.0
 -3.8430841E-008 -8.3629506E-009 0.0
 -4.1828842E-008 -8.5245914E-009 0.0
 -4.4880319E-008 -8.6769641E-009 0.0
 -4.7692498E-008 -8.8053411E-009 0.0
 -5.0369351E-008 -8.8954716E-009 0.0
 -5.2983470E-008 -8.9609375E-009 0.0
 -5.5570087E-008 -9.0121192E-009 0.0
 -5.8148495E-008 -9.0562669E-009 0.0
 -6.0727679E-008 -9.1010766E-009 0.0
 -6.3308643E-008 -9.1533322E-009 0.0
 -6.5887291E-008 -9.2185818E-009 0.0
 -6.8456312E-008 -9.3012590E-009 0.0
 -7.1006301E-008 -9.4049163E-009 0.0
 -7.3526153E-008 -9.5325798E-009 0.0
 -7.6002386E-008 -9.6873409E-009 0.0
 -7.8416353E-008 -9.8735213E-009 0.0
 -8.0735267E-008 -1.0100018E-008 0.0
 -8.2887515E-008 -1.0388467E-008 0.0
 -8.4657975E-008 -1.0810731E-008 0.0
 -8.5112400E-008 -1.1306346E-008 0.0
  1.8684755E-051  1.8684755E-051 0.0
  7.6084884E-011 -1.7944964E-010 0.0
  1.0022692E-010 -3.5918075E-010 0.0
  6.6703890E-011 -5.2258964E-010 0.0
 -1.3373221E-011 -6.7881970E-010 0.0
 -1.4083894E-010 -8.3063821E-010 0.0
 -3.1656373E-010 -9.7896526E-010 0.0
 -5.4181633E-010 -1.1243233E-009 0.0
 -8.1785798E-010 -1.2672879E-009 0.0
 -1.1458864E-009 -1.4085988E-009 0.0
 -1.5269815E-009 -1.5491747E-009 0.0
 -1.9620765E-009 -1.6901103E-009 0.0
 -2.4519351E-009 -1.8326615E-009 0.0
 -2.9971364E-009 -1.9782178E-009 0.0
 -3.5980771E-009 -2.1282517E-009 0.0
 -4.2550073E-009 -2.2842386E-009 0.0
 -4.9681264E-009 -2.4475455E-009 0.0
 -5.7377705E-009 -2.6192922E-009 0.0
 -6.5647281E-009 -2.8002125E-009 0.0
 -7.4506980E-009 -2.9905681E-009 0.0
 -8.3988535E-009 -3.1901950E-009 0.0
 -9.4143926E-009 -3.3987529E-009 0.0
 -1.0504883E-008 -3.6161613E-009 0.0
 -1.1680255E-008 -3.8430603E-009 0.0
 -1.2952564E-008 -4.0809720E-009 0.0
 -1.4335991E-008 -4.3317990E-009 0.0
 -1.5848229E-008 -4.5960221E-009 0.0
 -1.7515156E-008 -4.8676364E-009 0.0
 -1.9395327E-008 -5.1191595E-009 0.0
 -2.1636991E-008 -5.3161422E-009 0.0
 -2.4357776E-008 -5.5231315E-009 0.0
 -2.7457953E-008 -5.7506190E-009 0.0
 -3.0802687E-008 -5.9818230E-009 0.0
 -3.4290382E-008 -6.2034086E-009 0.0
 -3.7779371E-008 -6.4551518E-009 0.0
 -4.1070302E-008 -6.7512527E-009 0.0
 -4.4108203E-008 -7.0263975E-009 0.0
 -4.6951814E-008 -7.2558636E-009 0.0
 -4.9668282E-008 -7.4379574E-009 0.0
 -5.2310710E-008 -7.5796630E-009 0.0
 -5.4913684E-008 -7.6927843E-009 0.0
 -5.7496116E-008 -7.7881130E-009 0.0
 -6.0066835E-008 -7.8751356E-009 0.0
 -6.2627612E-008 -7.9625268E-009 0.0
 -6.5175179E-008 -8.0581708E-009 0.0
 -6.7702791E-008 -8.1694214E-009 0.0
 -7.0201079E-008 -8.3035944E-009 0.0
 -7.2658107E-008 -8.4687799E-009 0.0
 -7.5058143E-008 -8.6751899E-009 0.0
 -7.7377797E-008 -8.9374630E-009 0.0
 -7.9575516E-008 -9.2779692E-009 0.0
 -8.1561985E-008 -9.7322447E-009 0.0
 -8.3111029E-008 -1.0333925E-008 0.0
 -8.3909540E-008 -1.0950816E-008 0.0
 -8.4231678E-008 -1.1291416E-008 0.0
 -8.4051191E-008 -1.1246111E-008 0.0
 -7.4543544E-035  1.8684755E-051 0.0
  9.2349004E-011 -2.0307989E-010 0.0
  8.7988775E-011 -3.4189574E-010 0.0
  4.7713731E-011 -4.7346747E-010 0.0
 -3.7941905E-011 -6.0424120E-010 0.0
 -1.7025424E-010 -7.3361559E-010 0.0
 -3.5070685E-010 -8.6103660E-010 0.0
 -5.8043985E-010 -9.8631845E-010 0.0
 -8.6055349E-010 -1.1096250E-009 0.0
 -1.1920771E-009 -1.2313930E-009 0.0
 -1.5759509E-009 -1.3522793E-009 0.0
 -2.0130049E-009 -1.4731182E-009 0.0
 -2.5039498E-009 -1.5948821E-009 0.0
 -3.0493819E-009 -1.7186352E-009 0.0
 -3.6498122E-009 -1.8454713E-009 0.0
 -4.3057302E-009 -1.9764338E-009 0.0
 -5.0177234E-009 -2.1124165E-009 0.0
 -5.7866694E-009 -2.2540562E-009 0.0
 -6.6140158E-009 -2.4016380E-009 0.0
 -7.5021438E-009 -2.5550453E-009 0.0
 -8.4547780E-009 -2.7137915E-009 0.0
 -9.4773738E-009 -2.8771376E-009 0.0
 -1.0577406E-008 -3.0442434E-009 0.0
 -1.1764563E-008 -3.2142024E-009 0.0
 -1.3051020E-008 -3.3857227E-009 0.0
 -1.4452335E-008 -3.5561297E-009 0.0
 -1.5989973E-008 -3.7193145E-009 0.0
 -1.7698511E-008 -3.8624381E-009 0.0
 -1.9639473E-008 -3.9690918E-009 0.0
 -2.1891585E-008 -4.0440584E-009 0.0
 -2.4502940E-008 -4.1150876E-009 0.0
 -2.7436286E-008 -4.2220984E-009 0.0
 -3.0598580E-008 -4.3791316E-009 0.0
 -3.3882038E-008 -4.5949524E-009 0.0
 -3.7162999E-008 -4.8719578E-009 0.0
 -4.0330913E-008 -5.1877126E-009 0.0
 -4.3336993E-008 -5.5051067E-009 0.0
 -4.6192544E-008 -5.7912496E-009 0.0
 -4.8935975E-008 -6.0343895E-009 0.0
 -5.1604355E-008 -6.2360389E-009 0.0
 -5.4225024E-008 -6.4036027E-009 0.0
 -5.6814771E-008 -6.5467027E-009 0.0
 -5.9381600E-008 -6.6751898E-009 0.0
 -6.1927009E-008 -6.7987162E-009 0.0
 -6.4447709E-008 -6.9267951E-009 0.0
 -6.6936800E-008 -7.0690297E-009 0.0
 -6.9384335E-008 -7.2356035E-009 0.0
 -7.1777035E-008 -7.4381245E-009 0.0
 -7.4096768E-008 -7.6909550E-009 0.0
 -7.6316853E-008 -8.0128265E-009 0.0
 -7.8394813E-008 -8.4274375E-009 0.0
 -8.0256517E-008 -8.9531281E-009 0.0
 -8.1793033E-008 -9.5531478E-009 0.0
 -8.2940209E-008 -1.0082087E-008 0.0
 -8.3896405E-008 -1.0387135E-008 0.0
  3.1202197E-011 -2.6106909E-010 0.0
  5.7008487E-011 -2.4129288E-010 0.0
  6.4506133E-011 -3.1574881E-010 0.0
  2.3367448E-011 -4.1794188E-010 0.0
 -6.4521331E-011 -5.2560617E-010 0.0
 -2.0030533E-010 -6.3376912E-010 0.0
 -3.8460731E-010 -7.4065571E-010 0.0
 -6.1824797E-010 -8.4566644E-010 0.0
 -9.0207640E-010 -9.4870597E-010 0.0
 -1.2369408E-009 -1.0499847E-009 0.0
 -1.6236464E-009 -1.1499270E-009 0.0
 -2.0629361E-009 -1.2491148E-009 0.0
 -2.5554905E-009 -1.3482388E-009 0.0
 -3.1019467E-009 -1.4480447E-009 0.0
 -3.7029450E-009 -1.5492693E-009 0.0
 -4.3592086E-009 -1.6525649E-009 0.0
 -5.0716715E-009 -1.7584141E-009 0.0
 -5.8416611E-009 -1.8670445E-009 0.0
 -6.6711426E-009 -1.9783556E-009 0.0
 -7.5630163E-009 -2.0918758E-009 0.0
 -8.5214444E-009 -2.2067580E-009 0.0
 -9.5521781E-009 -2.3217982E-009 0.0
 -1.0662875E-008 -2.4354255E-009 0.0
 -1.1863463E-008 -2.5455646E-009 0.0
 -1.3166751E-008 -2.6492537E-009 0.0
 -1.4589660E-008 -2.7419684E-009 0.0
 -1.6155751E-008 -2.8169143E-009 0.0
 -1.7899204E-008 -2.8661384E-009 0.0
 -1.9864952E-008 -2.8870492E-009 0.0
 -2.2098073E-008 -2.8898870E-009 0.0
 -2.4618591E-008 -2.9018123E-009 0.0
 -2.7401491E-008 -2.9537552E-009 0.0
 -3.0382216E-008 -3.0694673E-009 0.0
 -3.3473816E-008 -3.2584910E-009 0.0
 -3.6584432E-008 -3.5152596E-009 0.0
 -3.9637055E-008 -3.8182715E-009 0.0
 -4.2589422E-008 -4.1360978E-009 0.0
 -4.5435376E-008 -4.4410647E-009 0.0
 -4.8190531E-008 -4.7163546E-009 0.0
 -5.0876831E-008 -4.9567240E-009 0.0
 -5.3512958E-008 -5.1644701E-009 0.0
 -5.6111155E-008 -5.3459356E-009 0.0
 -5.8677121E-008 -5.5095052E-009 0.0
 -6.1211037E-008 -5.6646034E-009 0.0
 -6.3708763E-008 -5.8213300E-009 0.0
 -6.6162726E-008 -5.9903988E-009 0.0
 -6.8562255E-008 -6.1832695E-009 0.0
 -7.0893145E-008 -6.4124681E-009 0.0
 -7.3136281E-008 -6.6919972E-009 0.0
 -7.5265531E-008 -7.0373472E-009 0.0
 -7.7245542E-008 -7.4628515E-009 0.0
 -7.9041188E-008 -7.9716446E-009 0.0
 -8.0648998E-008 -8.5223254E-009 0.0
 -8.2116142E-008 -8.9942320E-009 0.0
 -8.3433609E-008 -9.2749796E-009 0.0
  1.8684755E-051  1.8684755E-051 0.0
  2.9239998E-011 -1.5504373E-010 0.0
  4.0128781E-011 -2.5792272E-010 0.0
 -7.3424139E-013 -3.5042372E-010 0.0
 -9.1061487E-011 -4.4146790E-010 0.0
 -2.3010980E-010 -5.3083714E-010 0.0
 -4.1807652E-010 -6.1812601E-010 0.0
 -6.5547791E-010 -7.0305429E-010 0.0
 -9.4298060E-010 -7.8555243E-010 0.0
 -1.2812896E-009 -8.6572572E-010 0.0
 -1.6711044E-009 -9.4382583E-010 0.0
 -2.1131040E-009 -1.0202172E-009 0.0
 -2.6079569E-009 -1.0953364E-009 0.0
 -3.1563527E-009 -1.1696432E-009 0.0
 -3.7590597E-009 -1.2435607E-009 0.0
 -4.4170130E-009 -1.3174089E-009 0.0
 -5.1314415E-009 -1.3913334E-009 0.0
 -5.9040379E-009 -1.4652358E-009 0.0
 -6.7371735E-009 -1.5387151E-009 0.0
 -7.6341522E-009 -1.6110264E-009 0.0
 -8.5994926E-009 -1.6810567E-009 0.0
 -9.6392324E-009 -1.7473037E-009 0.0
 -1.0761268E-008 -1.8078278E-009 0.0
 -1.1975793E-008 -1.8601459E-009 0.0
 -1.3295946E-008 -1.9010717E-009 0.0
 -1.4738835E-008 -1.9266589E-009 0.0
 -1.6326884E-008 -1.9327914E-009 0.0
 -1.8088292E-008 -1.9174160E-009 0.0
 -2.0054302E-008 -1.8843067E-009 0.0
 -2.2250493E-008 -1.8469856E-009 0.0
 -2.4684007E-008 -1.8278729E-009 0.0
 -2.7334221E-008 -1.8524786E-009 0.0
 -3.0153911E-008 -1.9406240E-009 0.0
 -3.3079098E-008 -2.1008600E-009 0.0
 -3.6042242E-008 -2.3279526E-009 0.0
 -3.8986281E-008 -2.6042603E-009 0.0
 -4.1874899E-008 -2.9053525E-009 0.0
 -4.4694208E-008 -3.2074632E-009 0.0
 -4.7446481E-008 -3.4933087E-009 0.0
 -5.0141257E-008 -3.7536798E-009 0.0
 -5.2788426E-008 -3.9863714E-009 0.0
 -5.5394511E-008 -4.1941432E-009 0.0
 -5.7961541E-008 -4.3830453E-009 0.0
 -6.0487294E-008 -4.5613308E-009 0.0
 -6.2966046E-008 -4.7387630E-009 0.0
 -6.5389262E-008 -4.9261129E-009 0.0
 -6.7745871E-008 -5.1346949E-009 0.0
 -7.0021949E-008 -5.3758194E-009 0.0
 -7.2199903E-008 -5.6599516E-009 0.0
 -7.4257789E-008 -5.9950294E-009 0.0
 -7.6172695E-008 -6.3832181E-009 0.0
 -7.7931029E-008 -6.8160006E-009 0.0
 -7.9589641E-008 -7.2875298E-009 0.0
 -8.1327386E-008 -7.7357270E-009 0.0
 -8.3098390E-008 -7.9986755E-009 0.0
  1.8684755E-051  1.8684755E-051 0.0
  3.7915206E-011 -9.8222755E-011 0.0
  2.8147472E-011 -1.9492185E-010 0.0
 -2.0199396E-011 -2.7831837E-010 0.0
 -1.1546106E-010 -3.5447146E-010 0.0
 -2.5874835E-010 -4.2631886E-010 0.0
 -4.5077015E-010 -4.9467730E-010 0.0
 -6.9216416E-010 -5.5976562E-010 0.0
 -9.8357765E-010 -6.2163984E-010 0.0
 -1.3256566E-009 -6.8036492E-010 0.0
 -1.7190390E-009 -7.3606440E-010 0.0
 -2.1643651E-009 -7.8892300E-010 0.0
 -2.6623047E-009 -8.3916256E-010 0.0
 -3.2136015E-009 -8.8700186E-010 0.0
 -3.8191390E-009 -9.3260636E-010 0.0
 -4.4800316E-009 -9.7603219E-010 0.0
 -5.1977464E-009 -1.0171687E-009 0.0
 -5.9742594E-009 -1.0556850E-009 0.0
 -6.8122463E-009 -1.0909849E-009 0.0
 -7.7153048E-009 -1.1221753E-009 0.0
 -8.6882047E-009 -1.1480470E-009 0.0
 -9.7371674E-009 -1.1670638E-009 0.0
 -1.0870186E-008 -1.1773573E-009 0.0
 -1.2097418E-008 -1.1767424E-009 0.0
 -1.3431665E-008 -1.1628259E-009 0.0
 -1.4888904E-008 -1.1333972E-009 0.0
 -1.6488489E-008 -1.0874241E-009 0.0
 -1.8252237E-008 -1.0268198E-009 0.0
 -2.0201234E-008 -9.5868011E-010 0.0
 -2.2349962E-008 -8.9653086E-010 0.0
 -2.4699254E-008 -8.5917194E-010 0.0
 -2.7231676E-008 -8.6644670E-010 0.0
 -2.9912239E-008 -9.3387099E-010 0.0
 -3.2694298E-008 -1.0681833E-009 0.0
 -3.5528400E-008 -1.2655178E-009 0.0
 -3.8371281E-008 -1.5125359E-009 0.0
 -4.1192218E-008 -1.7901957E-009 0.0
 -4.3974579E-008 -2.0787165E-009 0.0
 -4.6712918E-008 -2.3616437E-009 0.0
 -4.9407926E-008 -2.6279582E-009 0.0
 -5.2061716E-008 -2.8723091E-009 0.0
 -5.4674748E-008 -3.0942945E-009 0.0
 -5.7244496E-008 -3.2974941E-009 0.0
 -5.9765411E-008 -3.4885795E-009 0.0
 -6.2229519E-008 -3.6764846E-009 0.0
 -6.4627143E-008 -3.8715081E-009 0.0
 -6.6947337E-008 -4.0842255E-009 0.0
 -6.9177875E-008 -4.3240921E-009 0.0
 -7.1304956E-008 -4.5975685E-009 0.0
 -7.3313782E-008 -4.9055466E-009 0.0
 -7.5191271E-008 -5.2400104E-009 0.0
 -7.6941946E-008 -5.5811933E-009 0.0
 -7.8590253E-008 -5.8906343E-009 0.0
 -8.0518976E-008 -6.1529277E-009 0.0
 -8.3179330E-008 -6.0667754E-009 0.0
  1.8684755E-051  1.8684755E-051 0.0
  3.4325182E-011 -7.4332363E-011 0.0
  2.0935801E-011 -1.4409033E-010 0.0
 -3.6201655E-011 -2.0949191E-010 0.0
 -1.3758921E-010 -2.6862930E-010 0.0
 -2.8590972E-010 -3.2261119E-010 0.0
 -4.8249129E-010 -3.7215894E-010 0.0
 -7.2827560E-010 -4.1753802E-010 0.0
 -1.0240059E-009 -4.5880738E-010 0.0
 -1.3703322E-009 -4.9596279E-010 0.0
 -1.7678641E-009 -5.2901005E-010 0.0
 -2.2172192E-009 -5.5798292E-010 0.0
 -2.7190731E-009 -5.8292847E-010 0.0
 -3.2742168E-009 -6.0387445E-010 0.0
 -3.8836273E-009 -6.2078815E-010 0.0
 -4.5485578E-009 -6.3353234E-010 0.0
 -5.2706526E-009 -6.4182260E-010 0.0
 -6.0520878E-009 -6.4519031E-010 0.0
 -6.8957399E-009 -6.4295544E-010 0.0
 -7.8053799E-009 -6.3421307E-010 0.0
 -8.7858895E-009 -6.1783710E-010 0.0
 -9.8435000E-009 -5.9250677E-010 0.0
 -1.0986051E-008 -5.5676957E-010 0.0
 -1.2223265E-008 -5.0917578E-010 0.0
 -1.3566992E-008 -4.4855897E-010 0.0
 -1.5031282E-008 -3.7457961E-010 0.0
 -1.6631999E-008 -2.8862742E-010 0.0
 -1.8385473E-008 -1.9502844E-010 0.0
 -2.0305837E-008 -1.0212769E-010 0.0
 -2.2401150E-008 -2.2528345E-011 0.0
 -2.4669426E-008  2.8253307E-011 0.0
 -2.7096293E-008  3.4690489E-011 0.0
 -2.9655683E-008 -1.5121401E-011 0.0
 -3.2313585E-008 -1.2646811E-010 0.0
 -3.5033672E-008 -2.9664484E-010 0.0
 -3.7783021E-008 -5.1563673E-010 0.0
 -4.0536153E-008 -7.6853865E-010 0.0
 -4.3276275E-008 -1.0388037E-009 0.0
 -4.5993832E-008 -1.3112399E-009 0.0
 -4.8683499E-008 -1.5740229E-009 0.0
 -5.1341042E-008 -1.8196507E-009 0.0
 -5.3961037E-008 -2.0451370E-009 0.0
 -5.6535862E-008 -2.2517882E-009 0.0
 -5.9055831E-008 -2.4447114E-009 0.0
 -6.1510030E-008 -2.6320278E-009 0.0
 -6.3887370E-008 -2.8237085E-009 0.0
 -6.6177377E-008 -3.0299884E-009 0.0
 -6.8370531E-008 -3.2593679E-009 0.0
 -7.0458302E-008 -3.5162507E-009 0.0
 -7.2433272E-008 -3.7984788E-009 0.0
 -7.4291663E-008 -4.0956779E-009 0.0
 -7.6033572E-008 -4.3916113E-009 0.0
 -7.7699852E-008 -4.6774932E-009 0.0
 -7.9125542E-008 -5.1072033E-009 0.0
  1.8684755E-051  1.8684755E-051 0.0
  2.7915571E-011 -5.2983513E-011 0.0
  1.0372233E-011 -1.0155185E-010 0.0
 -5.1530467E-011 -1.4613431E-010 0.0
 -1.5841142E-010 -1.8642459E-010 0.0
 -3.1178443E-010 -2.2190570E-010 0.0
 -5.1319890E-010 -2.5254874E-010 0.0
 -7.6374926E-010 -2.7832288E-010 0.0
 -1.0642641E-009 -2.9911173E-010 0.0
 -1.4153963E-009 -3.1477511E-010 0.0
 -1.8177262E-009 -3.2519341E-010 0.0
 -2.2718462E-009 -3.3027272E-010 0.0
 -2.7784315E-009 -3.2992404E-010 0.0
 -3.3383053E-009 -3.2403273E-010 0.0
 -3.9525100E-009 -3.1242525E-010 0.0
 -4.6223928E-009 -2.9483722E-010 0.0
 -5.3497101E-009 -2.7088621E-010 0.0
 -6.1367524E-009 -2.4005262E-010 0.0
 -6.9864904E-009 -2.0167253E-010 0.0
 -7.9027387E-009 -1.5494745E-010 0.0
 -8.8903341E-009 -9.8977567E-011 0.0
 -9.9553199E-009 -3.2829094E-011 0.0
 -1.1105124E-008  4.4345363E-011 0.0
 -1.2348700E-008  1.3310075E-010 0.0
 -1.3696565E-008  2.3336102E-010 0.0
 -1.5160603E-008  3.4390505E-010 0.0
 -1.6753431E-008  4.6168398E-010 0.0
 -1.8487117E-008  5.8110579E-010 0.0
 -2.0371151E-008  6.9358825E-010 0.0
 -2.2409952E-008  7.8779573E-010 0.0
 -2.4600575E-008  8.5084445E-010 0.0
 -2.6931562E-008  8.7040398E-010 0.0
 -2.9383587E-008  8.3715329E-010 0.0
 -3.1931909E-008  7.4684016E-010 0.0
 -3.4549938E-008  6.0129161E-010 0.0
 -3.7212826E-008  4.0810440E-010 0.0
 -3.9900005E-008  1.7917775E-010 0.0
 -4.2595991E-008 -7.1404874E-011 0.0
 -4.5289469E-008 -3.2954389E-010 0.0
 -4.7971269E-008 -5.8292686E-010 0.0
 -5.0632131E-008 -8.2233920E-010 0.0
 -5.3261090E-008 -1.0425475E-009 0.0
 -5.5844970E-008 -1.2428031E-009 0.0
 -5.8369057E-008 -1.4268864E-009 0.0
 -6.0818594E-008 -1.6025232E-009 0.0
 -6.3180517E-008 -1.7800661E-009 0.0
 -6.5444779E-008 -1.9705196E-009 0.0
 -6.7604977E-008 -2.1831661E-009 0.0
 -6.9658197E-008 -2.4231316E-009 0.0
 -7.1604331E-008 -2.6894093E-009 0.0
 -7.3443299E-008 -2.9750732E-009 0.0
 -7.5173369E-008 -3.2730511E-009 0.0
 -7.6750525E-008 -3.6067435E-009 0.0
 -7.8061814E-008 -3.9755851E-009 0.0
  1.8684755E-051  1.8684755E-051 0.0
  2.0342680E-011 -3.3444735E-011 0.0
 -1.6261922E-012 -6.2205752E-011 0.0
 -6.7301740E-011 -8.7481035E-011 0.0
 -1.7846041E-010 -1.0894197E-010 0.0
 -3.3653651E-010 -1.2582289E-010 0.0
 -5.4280674E-010 -1.3768181E-010 0.0
 -7.9842624E-010 -1.4410431E-010 0.0
 -1.1042086E-009 -1.4469445E-010 0.0
 -1.4607424E-009 -1.3913577E-010 0.0
 -1.8685402E-009 -1.2719296E-010 0.0
 -2.3281509E-009 -1.0867324E-010 0.0
 -2.8402342E-009 -8.3390101E-011 0.0
 -3.4056253E-009 -5.1131187E-011 0.0
 -4.0254003E-009 -1.1632367E-011 0.0
 -4.7009527E-009  3.5441574E-011 0.0
 -5.4340854E-009  9.0508269E-011 0.0
 -6.2271175E-009  1.5406876E-010 0.0
 -7.0830077E-009  2.2669442E-010 0.0
 -8.0054869E-009  3.0899435E-010 0.0
 -8.9991943E-009  4.0155566E-010 0.0
 -1.0069806E-008  5.0484534E-010 0.0
 -1.1224132E-008  6.1905746E-010 0.0
 -1.2470148E-008  7.4388531E-010 0.0
 -1.3816899E-008  8.7819944E-010 0.0
 -1.5274174E-008  1.0196320E-009 0.0
 -1.6851849E-008  1.1641164E-009 0.0
 -1.8558814E-008  1.3055071E-009 0.0
 -2.0401525E-008  1.4354831E-009 0.0
 -2.2382405E-008  1.5439506E-009 0.0
 -2.4498532E-008  1.6200619E-009 0.0
 -2.6741117E-008  1.6537477E-009 0.0
 -2.9096076E-008  1.6374351E-009 0.0
 -3.1545675E-008  1.5674961E-009 0.0
 -3.4070799E-008  1.4450418E-009 0.0
 -3.6653188E-008  1.2758790E-009 0.0
 -3.9276941E-008  1.0697054E-009 0.0
 -4.1928857E-008  8.3880407E-010 0.0
 -4.4597550E-008  5.9653439E-010 0.0
 -4.7271723E-008  3.5580722E-010 0.0
 -4.9938252E-008  1.2758320E-010 0.0
 -5.2580898E-008 -8.0603143E-011 0.0
 -5.5180289E-008 -2.6595084E-010 0.0
 -5.7715432E-008 -4.3116226E-010 0.0
 -6.0166367E-008 -5.8422121E-010 0.0
 -6.2517062E-008 -7.3694131E-010 0.0
 -6.4757516E-008 -9.0251054E-010 0.0
 -6.6884451E-008 -1.0926787E-009 0.0
 -6.8900676E-008 -1.3153563E-009 0.0
 -7.0812949E-008 -1.5729866E-009 0.0
 -7.2627201E-008 -1.8618163E-009 0.0
 -7.4332213E-008 -2.1755178E-009 0.0
 -7.5879073E-008 -2.5039610E-009 0.0
 -7.7182240E-008 -2.8372265E-009 0.0
  1.8684755E-051  1.8684755E-051 0.0
  1.1369007E-011 -1.5347947E-011 0.0
 -1.3757932E-011 -2.5785053E-011 0.0
 -8.2532388E-011 -3.3586244E-011 0.0
 -1.9765467E-010 -3.6875506E-011 0.0
 -3.5992079E-010 -3.5635307E-011 0.0
 -5.7097582E-010 -2.9260315E-011 0.0
 -8.3197544E-010 -1.6849389E-011 0.0
 -1.1435491E-009  2.3056012E-012 0.0
 -1.5061005E-009  2.8643842E-011 0.0
 -1.9200269E-009  6.2471123E-011 0.0
 -2.3858094E-009  1.0403764E-010 0.0
 -2.9040765E-009  1.5358961E-010 0.0
 -3.4756547E-009  2.1139962E-010 0.0
 -4.1016215E-009  2.7778314E-010 0.0
 -4.7833699E-009  3.5310400E-010 0.0
 -5.5226844E-009  4.3776969E-010 0.0
 -6.3218318E-009  5.3221516E-010 0.0
 -7.1836598E-009  6.3687186E-010 0.0
 -8.1116999E-009  7.5211665E-010 0.0
 -9.1102647E-009  8.7819371E-010 0.0
 -1.0184524E-008  1.0151002E-009 0.0
 -1.1340538E-008  1.1624255E-009 0.0
 -1.2585217E-008  1.3191353E-009 0.0
 -1.3926148E-008  1.4833006E-009 0.0
 -1.5371251E-008  1.6517913E-009 0.0
 -1.6928186E-008  1.8199913E-009 0.0
 -1.8603532E-008  1.9816290E-009 0.0
 -2.0401773E-008  2.1288537E-009 0.0
 -2.2324310E-008  2.2526664E-009 0.0
 -2.4368723E-008  2.3437467E-009 0.0
 -2.6528598E-008  2.3935871E-009 0.0
 -2.8794026E-008  2.3957266E-009 0.0
 -3.1152749E-008  2.3468164E-009 0.0
 -3.3591632E-008  2.2472851E-009 0.0
 -3.6098039E-008  2.1014940E-009 0.0
 -3.8660640E-008  1.9174123E-009 0.0
 -4.1269317E-008  1.7059427E-009 0.0
 -4.3914054E-008  1.4800104E-009 0.0
 -4.6583008E-008  1.2534044E-009 0.0
 -4.9260329E-008  1.0392248E-009 0.0
 -5.1924668E-008  8.4782170E-010 0.0
 -5.4549420E-008  6.8445840E-010 0.0
 -5.7105345E-008  5.4744538E-010 0.0
 -5.9565117E-008  4.2776037E-010 0.0
 -6.1908219E-008  3.1074710E-010 0.0
 -6.4124224E-008  1.7951049E-010 0.0
 -6.6213346E-008  1.8700192E-011 0.0
 -6.8184442E-008 -1.8278112E-010 0.0
 -7.0052059E-008 -4.3093230E-010 0.0
 -7.1831675E-008 -7.2512671E-010 0.0
 -7.3526611E-008 -1.0507023E-009 0.0
 -7.5096012E-008 -1.3741145E-009 0.0
 -7.6437414E-008 -1.6685325E-009 0.0
  2.6424233E-051  2.6424233E-051 0.0
  1.5256038E-051  1.5256038E-051 0.0
 -2.3719249E-011  4.1739927E-012 0.0
 -9.7278434E-011  1.4632123E-011 0.0
 -2.1536650E-010  2.9257644E-011 0.0
 -3.8109231E-010  4.7399891E-011 0.0
 -5.9701960E-010  7.0917843E-011 0.0
 -8.6391018E-010  1.0147301E-010 0.0
 -1.1818772E-009  1.3981121E-010 0.0
 -1.5510749E-009  1.8636581E-010 0.0
 -1.9717517E-009  2.4143447E-010 0.0
 -2.4443121E-009  3.0527996E-010 0.0
 -2.9693445E-009  3.7817692E-010 0.0
 -3.5476502E-009  4.6043260E-010 0.0
 -4.1802789E-009  5.5238920E-010 0.0
 -4.8685776E-009  6.5441362E-010 0.0
 -5.6142534E-009  7.6687702E-010 0.0
 -6.4194460E-009  8.9012359E-010 0.0
 -7.2868056E-009  1.0244257E-009 0.0
 -8.2195690E-009  1.1699207E-009 0.0
 -9.2216231E-009  1.3265240E-009 0.0
 -1.0297540E-008  1.4938118E-009 0.0
 -1.1452569E-008  1.6708698E-009 0.0
 -1.2692546E-008  1.8561067E-009 0.0
 -1.4023712E-008  2.0470430E-009 0.0
 -1.5452380E-008  2.2401000E-009 0.0
 -1.6984461E-008  2.4304375E-009 0.0
 -1.8624855E-008  2.6119083E-009 0.0
 -2.0376774E-008  2.7772054E-009 0.0
 -2.2241148E-008  2.9182583E-009 0.0
 -2.4216252E-008  3.0268870E-009 0.0
 -2.6297729E-008  3.0956462E-009 0.0
 -2.8479056E-008  3.1187342E-009 0.0
 -3.0752383E-008  3.0928073E-009 0.0
 -3.3109540E-008  3.0175686E-009 0.0
 -3.5542890E-008  2.8960643E-009 0.0
 -3.8045697E-008  2.7347126E-009 0.0
 -4.0611709E-008  2.5431467E-009 0.0
 -4.3233731E-008  2.3339120E-009 0.0
 -4.5901162E-008  2.1218679E-009 0.0
 -4.8596889E-008  1.9228406E-009 0.0
 -5.1294712E-008  1.7510306E-009 0.0
 -5.3959215E-008  1.6152216E-009 0.0
 -5.6549712E-008  1.5150767E-009 0.0
 -5.9027964E-008  1.4396271E-009 0.0
 -6.1366691E-008  1.3694808E-009 0.0
 -6.3554930E-008  1.2821474E-009 0.0
 -6.5597967E-008  1.1580078E-009 0.0
 -6.7512872E-008  9.8411645E-010 0.0
 -6.9322256E-008  7.5445900E-010 0.0
 -7.1053551E-008  4.6625677E-010 0.0
 -7.2741355E-008  1.2890879E-010 0.0
 -7.4389493E-008 -2.0589926E-010 0.0
 -7.5842569E-008 -4.5992889E-010 0.0
  1.8684755E-051  1.8684755E-051 0.0
 -3.6057897E-011  2.6738209E-011 0.0
 -1.1201178E-010  5.9202090E-011 0.0
 -2.2956854E-010  8.9026140E-011 0.0
 -3.9844751E-010  1.2116256E-010 0.0
 -6.2016754E-010  1.6080827E-010 0.0
 -8.9369434E-010  2.0890349E-010 0.0
 -1.2187407E-009  2.6589462E-010 0.0
 -1.5951883E-009  3.3204482E-010 0.0
 -2.0231612E-009  4.0758332E-010 0.0
 -2.5029987E-009  4.9275485E-010 0.0
 -3.0352545E-009  5.8784876E-010 0.0
 -3.6206945E-009  6.9319898E-010 0.0
 -4.2603149E-009  8.0916725E-010 0.0
 -4.9553760E-009  9.3611546E-010 0.0
 -5.7074524E-009  1.0743704E-009 0.0
 -6.5184917E-009  1.2241810E-009 0.0
 -7.3908749E-009  1.3856643E-009 0.0
 -8.3274711E-009  1.5587375E-009 0.0
 -9.3316741E-009  1.7430301E-009 0.0
 -1.0407411E-008  1.9377744E-009 0.0
 -1.1559104E-008  2.1416726E-009 0.0
 -1.2791571E-008  2.3527468E-009 0.0
 -1.4109843E-008  2.5681830E-009 0.0
 -1.5518887E-008  2.7841946E-009 0.0
 -1.7023239E-008  2.9959419E-009 0.0
 -1.8626571E-008  3.1975519E-009 0.0
 -2.0331266E-008  3.3822832E-009 0.0
 -2.2138076E-008  3.5428616E-009 0.0
 -2.4045994E-008  3.6719836E-009 0.0
 -2.6052404E-008  3.7629422E-009 0.0
 -2.8153535E-008  3.8103025E-009 0.0
 -3.0345159E-008  3.8105415E-009 0.0
 -3.2623337E-008  3.7625812E-009 0.0
 -3.4984995E-008  3.6681777E-009 0.0
 -3.7428054E-008  3.5321814E-009 0.0
 -3.9950865E-008  3.3627575E-009 0.0
 -4.2550610E-008  3.1716909E-009 0.0
 -4.5220237E-008  2.9746398E-009 0.0
 -4.7943749E-008  2.7906174E-009 0.0
 -5.0691061E-008  2.6392142E-009 0.0
 -5.3415844E-008  2.5348389E-009 0.0
 -5.6060686E-008  2.4795998E-009 0.0
 -5.8570321E-008  2.4594669E-009 0.0
 -6.0907146E-008  2.4473249E-009 0.0
 -6.3060399E-008  2.4121689E-009 0.0
 -6.5044599E-008  2.3292070E-009 0.0
 -6.6889891E-008  2.1860150E-009 0.0
 -6.8631301E-008  1.9828026E-009 0.0
 -7.0299820E-008  1.7273519E-009 0.0
 -7.1952861E-008  1.4123598E-009 0.0
 -7.3712075E-008  1.0668928E-009 0.0
 -7.5473902E-008  8.3420128E-010 0.0
  1.8684755E-051  1.8684755E-051 0.0
 -5.7771043E-011  6.1891351E-011 0.0
 -1.2021261E-010  1.0389255E-010 0.0
 -2.3553656E-010  1.3718860E-010 0.0
 -4.1113830E-010  1.8257828E-010 0.0
 -6.3985666E-010  2.3822805E-010 0.0
 -9.2094248E-010  3.0369381E-010 0.0
 -1.2537121E-009  3.7892753E-010 0.0
 -1.6379202E-009  4.6403008E-010 0.0
 -2.0736034E-009  5.5914786E-010 0.0
 -2.5610767E-009  6.6451473E-010 0.0
 -3.1008749E-009  7.8044729E-010 0.0
 -3.6937255E-009  9.0732014E-010 0.0
 -4.3405475E-009  1.0455258E-009 0.0
 -5.0424754E-009  1.1954289E-009 0.0
 -5.8009016E-009  1.3573187E-009 0.0
 -6.6175257E-009  1.5313588E-009 0.0
 -7.4944029E-009  1.7175305E-009 0.0
 -8.4339821E-009  1.9155657E-009 0.0
 -9.4391251E-009  2.1248659E-009 0.0
 -1.0513097E-008  2.3444052E-009 0.0
 -1.1659519E-008  2.5726216E-009 0.0
 -1.2882265E-008  2.8073016E-009 0.0
 -1.4185306E-008  3.0454717E-009 0.0
 -1.5572489E-008  3.2833173E-009 0.0
 -1.7047263E-008  3.5161544E-009 0.0
 -1.8612395E-008  3.7384813E-009 0.0
 -2.0269702E-008  3.9441352E-009 0.0
 -2.2019903E-008  4.1265613E-009 0.0
 -2.3862634E-008  4.2791876E-009 0.0
 -2.5796695E-008  4.3958763E-009 0.0
 -2.7820536E-008  4.4714182E-009 0.0
 -2.9932912E-008  4.5020358E-009 0.0
 -3.2133541E-008  4.4858726E-009 0.0
 -3.4423566E-008  4.4234441E-009 0.0
 -3.6805575E-008  4.3180257E-009 0.0
 -3.9283035E-008  4.1760052E-009 0.0
 -4.1858932E-008  4.0075085E-009 0.0
 -4.4532637E-008  3.8277616E-009 0.0
 -4.7293467E-008  3.6584349E-009 0.0
 -5.0110559E-008  3.5263366E-009 0.0
 -5.2924631E-008  3.4551484E-009 0.0
 -5.5652682E-008  3.4521655E-009 0.0
 -5.8211257E-008  3.4987450E-009 0.0
 -6.0546471E-008  3.5549960E-009 0.0
 -6.2650464E-008  3.5765776E-009 0.0
 -6.4555130E-008  3.5321385E-009 0.0
 -6.6312848E-008  3.4114796E-009 0.0
 -6.7977035E-008  3.2256831E-009 0.0
 -6.9593263E-008  3.0037605E-009 0.0
 -7.1179775E-008  2.7902505E-009 0.0
 -7.3018680E-008  2.5979632E-009 0.0
 -7.5526454E-008  2.6898459E-009 0.0
  1.0256596E-012  1.2895315E-010 0.0
 -6.5628584E-011  1.1910054E-010 0.0
 -1.0363694E-010  1.1964365E-010 0.0
 -2.3589999E-010  1.6641418E-010 0.0
 -4.1926187E-010  2.2879172E-010 0.0
 -6.5617198E-010  3.0168188E-010 0.0
 -9.4543493E-010  3.8464111E-010 0.0
 -1.2864226E-009  4.7779334E-010 0.0
 -1.6787033E-009  5.8113296E-010 0.0
 -2.1223225E-009  6.9478489E-010 0.0
 -2.6176172E-009  8.1901410E-010 0.0
 -3.1651307E-009  9.5420729E-010 0.0
 -3.7655497E-009  1.1008165E-009 0.0
 -4.4196906E-009  1.2592930E-009 0.0
 -5.1285218E-009  1.4300234E-009 0.0
 -5.8932060E-009  1.6132747E-009 0.0
 -6.7151470E-009  1.8091429E-009 0.0
 -7.5960306E-009  2.0175002E-009 0.0
 -8.5378520E-009  2.2379349E-009 0.0
 -9.5429237E-009  2.4696805E-009 0.0
 -1.0613857E-008  2.7115361E-009 0.0
 -1.1753511E-008  2.9617808E-009 0.0
 -1.2964907E-008  3.2180898E-009 0.0
 -1.4251095E-008  3.4774642E-009 0.0
 -1.5614991E-008  3.7361909E-009 0.0
 -1.7059182E-008  3.9898483E-009 0.0
 -1.8585747E-008  4.2333739E-009 0.0
 -2.0196111E-008  4.4612041E-009 0.0
 -2.1891005E-008  4.6674836E-009 0.0
 -2.3670585E-008  4.8463331E-009 0.0
 -2.5534750E-008  4.9921564E-009 0.0
 -2.7483682E-008  5.0999763E-009 0.0
 -2.9518551E-008  5.1658125E-009 0.0
 -3.1642243E-008  5.1871336E-009 0.0
 -3.3859849E-008  5.1633940E-009 0.0
 -3.6178619E-008  5.0965512E-009 0.0
 -3.8607287E-008  4.9913703E-009 0.0
 -4.1155124E-008  4.8555123E-009 0.0
 -4.3830576E-008  4.7009738E-009 0.0
 -4.6634906E-008  4.5491145E-009 0.0
 -4.9545094E-008  4.4340619E-009 0.0
 -5.2489376E-008  4.3952640E-009 0.0
 -5.5343958E-008  4.4507171E-009 0.0
 -5.7975644E-008  4.5755852E-009 0.0
 -6.0303658E-008  4.7078937E-009 0.0
 -6.2331223E-008  4.7828252E-009 0.0
 -6.4123313E-008  4.7628499E-009 0.0
 -6.5765155E-008  4.6430826E-009 0.0
 -6.7336960E-008  4.4421480E-009 0.0
 -6.8896242E-008  4.1973392E-009 0.0
 -7.0475061E-008  3.9538254E-009 0.0
 -7.1836660E-008  3.5938316E-009 0.0
  1.8684755E-051  1.8684755E-051 0.0
 -9.8656490E-011  9.4472223E-011 0.0
 -2.3351674E-010  1.7754678E-010 0.0
 -4.2424310E-010  2.6051019E-010 0.0
 -6.6913710E-010  3.5092909E-010 0.0
 -9.6710575E-010  4.5145271E-010 0.0
 -1.3164752E-009  5.6205171E-010 0.0
 -1.7168794E-009  6.8272625E-010 0.0
 -2.1684169E-009  8.1362916E-010 0.0
 -2.6715253E-009  9.5512961E-010 0.0
 -3.2267871E-009  1.1077544E-009 0.0
 -3.8348404E-009  1.2720922E-009 0.0
 -4.4963629E-009  1.4486916E-009 0.0
 -5.2121090E-009  1.6379838E-009 0.0
 -5.9829643E-009  1.8402285E-009 0.0
 -6.8099952E-009  2.0554715E-009 0.0
 -7.6944864E-009  2.2835022E-009 0.0
 -8.6379610E-009  2.5238046E-009 0.0
 -9.6421805E-009  2.7755005E-009 0.0
 -1.0709124E-008  3.0372861E-009 0.0
 -1.1840943E-008  3.3073671E-009 0.0
 -1.3039888E-008  3.5834022E-009 0.0
 -1.4308215E-008  3.8624630E-009 0.0
 -1.5648062E-008  4.1410239E-009 0.0
 -1.7061330E-008  4.4149930E-009 0.0
 -1.8549571E-008  4.6797908E-009 0.0
 -2.0113924E-008  4.9304778E-009 0.0
 -2.1755147E-008  5.1619204E-009 0.0
 -2.3473786E-008  5.3689781E-009 0.0
 -2.5270535E-008  5.5466923E-009 0.0
 -2.7146835E-008  5.6904726E-009 0.0
 -2.9105710E-008  5.7963257E-009 0.0
 -3.1152729E-008  5.8612483E-009 0.0
 -3.3296771E-008  5.8839104E-009 0.0
 -3.5549998E-008  5.8655647E-009 0.0
 -3.7926694E-008  5.8105639E-009 0.0
 -4.0441528E-008  5.7255656E-009 0.0
 -4.3110563E-008  5.6171711E-009 0.0
 -4.5954752E-008  5.4965867E-009 0.0
 -4.8978718E-008  5.4007771E-009 0.0
 -5.2110564E-008  5.3903861E-009 0.0
 -5.5159098E-008  5.5088529E-009 0.0
 -5.7897095E-008  5.7210924E-009 0.0
 -6.0197644E-008  5.9280540E-009 0.0
 -6.2099138E-008  6.0351507E-009 0.0
 -6.3731610E-008  6.0078288E-009 0.0
 -6.5222765E-008  5.8604787E-009 0.0
 -6.6670030E-008  5.6170840E-009 0.0
 -6.8157254E-008  5.3000951E-009 0.0
 -6.9687841E-008  4.9449174E-009 0.0
 -7.1001991E-008  4.6377560E-009 0.0
  1.8684755E-051  1.8684755E-051 0.0
 -9.3339701E-011  9.2154986E-011 0.0
 -2.2827475E-010  1.8404838E-010 0.0
 -4.2427668E-010  2.7945227E-010 0.0
 -6.7903718E-010  3.8708679E-010 0.0
 -9.8570432E-010  5.0473949E-010 0.0
 -1.3433678E-009  6.3200233E-010 0.0
 -1.7516058E-009  7.6877320E-010 0.0
 -2.2107665E-009  9.1529685E-010 0.0
 -2.7214842E-009  1.0721343E-009 0.0
 -3.2844201E-009  1.2400652E-009 0.0
 -3.9001303E-009  1.4198924E-009 0.0
 -4.5690927E-009  1.6122985E-009 0.0
 -5.2917867E-009  1.8177707E-009 0.0
 -6.0687711E-009  2.0365654E-009 0.0
 -6.9007405E-009  2.2686867E-009 0.0
 -7.7885580E-009  2.5138607E-009 0.0
 -8.7332683E-009  2.7715009E-009 0.0
 -9.7360923E-009  3.0406639E-009 0.0
 -1.0798407E-008  3.3200003E-009 0.0
 -1.1921706E-008  3.6077079E-009 0.0
 -1.3107552E-008  3.9014944E-009 0.0
 -1.4357507E-008  4.1985608E-009 0.0
 -1.5673059E-008  4.4956149E-009 0.0
 -1.7055557E-008  4.7889227E-009 0.0
 -1.8506149E-008  5.0744001E-009 0.0
 -2.0025778E-008  5.3477416E-009 0.0
 -2.1615240E-008  5.6045681E-009 0.0
 -2.3275371E-008  5.8405690E-009 0.0
 -2.5007402E-008  6.0516090E-009 0.0
 -2.6813589E-008  6.2337840E-009 0.0
 -2.8698178E-008  6.3834511E-009 0.0
 -3.0668797E-008  6.4974220E-009 0.0
 -3.2737939E-008  6.5737623E-009 0.0
 -3.4923551E-008  6.6134886E-009 0.0
 -3.7247073E-008  6.6225852E-009 0.0
 -3.9729004E-008  6.6116433E-009 0.0
 -4.2385741E-008  6.5899935E-009 0.0
 -4.5246718E-008  6.5511004E-009 0.0
 -4.8385120E-008  6.4958556E-009 0.0
 -5.1783895E-008  6.5204208E-009 0.0
 -5.5129392E-008  6.6977246E-009 0.0
 -5.8021053E-008  6.9920371E-009 0.0
 -6.0235838E-008  7.2406277E-009 0.0
 -6.1927123E-008  7.3162700E-009 0.0
 -6.3347804E-008  7.2240420E-009 0.0
 -6.4664673E-008  7.0190257E-009 0.0
 -6.5965691E-008  6.7427403E-009 0.0
 -6.7328887E-008  6.3908028E-009 0.0
 -6.8890705E-008  5.9808120E-009 0.0
 -7.0494100E-008  5.6828937E-009 0.0
  1.8684755E-051  1.8684755E-051 0.0
 -7.1069520E-011  9.4394831E-011 0.0
 -2.0690308E-010  1.7293828E-010 0.0
 -4.2148939E-010  2.8672364E-010 0.0
 -6.8542667E-010  4.1184091E-010 0.0
 -1.0009156E-009  5.4592649E-010 0.0
 -1.3663596E-009  6.8861645E-010 0.0
 -1.7817594E-009  8.3981474E-010 0.0
 -2.2479119E-009  9.9982056E-010 0.0
 -2.7658777E-009  1.1696052E-009 0.0
 -3.3363855E-009  1.3503788E-009 0.0
 -3.9598118E-009  1.5432346E-009 0.0
 -4.6363315E-009  1.7489955E-009 0.0
 -5.3660726E-009  1.9681842E-009 0.0
 -6.1492203E-009  2.2010351E-009 0.0
 -6.9860725E-009  2.4475047E-009 0.0
 -7.8770631E-009  2.7072661E-009 0.0
 -8.8227641E-009  2.9796873E-009 0.0
 -9.8238741E-009  3.2637966E-009 0.0
 -1.0881199E-008  3.5582430E-009 0.0
 -1.1995625E-008  3.8612606E-009 0.0
 -1.3168087E-008  4.1706453E-009 0.0
 -1.4399537E-008  4.4837534E-009 0.0
 -1.5690911E-008  4.7975324E-009 0.0
 -1.7043102E-008  5.1085902E-009 0.0
 -1.8456962E-008  5.4133049E-009 0.0
 -1.9933317E-008  5.7079702E-009 0.0
 -2.1473045E-008  5.9889561E-009 0.0
 -2.3077232E-008  6.2528530E-009 0.0
 -2.4747488E-008  6.4965540E-009 0.0
 -2.6486521E-008  6.7172300E-009 0.0
 -2.8299128E-008  6.9121903E-009 0.0
 -3.0193948E-008  7.0786260E-009 0.0
 -3.2186353E-008  7.2138992E-009 0.0
 -3.4301192E-008  7.3181454E-009 0.0
 -3.6571606E-008  7.3994140E-009 0.0
 -3.9029164E-008  7.4782519E-009 0.0
 -4.1691324E-008  7.5830195E-009 0.0
 -4.4559547E-008  7.7316535E-009 0.0
 -4.7737452E-008  7.8709920E-009 0.0
 -5.1511185E-008  7.9801907E-009 0.0
 -5.5277827E-008  8.2158599E-009 0.0
 -5.8388810E-008  8.4885031E-009 0.0
 -6.0371788E-008  8.6230023E-009 0.0
 -6.1749813E-008  8.5310687E-009 0.0
 -6.2932977E-008  8.3129314E-009 0.0
 -6.4070905E-008  8.0316433E-009 0.0
 -6.5246806E-008  7.7245497E-009 0.0
 -6.6477316E-008  7.4565566E-009 0.0
 -6.8046991E-008  7.2362224E-009 0.0
 -7.0541681E-008  7.3666935E-009 0.0
  2.6424233E-051 -1.0542049E-034 0.0
  1.5256038E-051  1.5256038E-051 0.0
 -1.9541657E-010  1.4751856E-010 0.0
 -4.1465089E-010  2.8666802E-010 0.0
 -6.8816458E-010  4.2804120E-010 0.0
 -1.0121377E-009  5.7691666E-010 0.0
 -1.3845632E-009  7.3365639E-010 0.0
 -1.8056942E-009  8.9690390E-010 0.0
 -2.2778737E-009  1.0674634E-009 0.0
 -2.8027112E-009  1.2472300E-009 0.0
 -3.3808173E-009  1.4380555E-009 0.0
 -4.0121686E-009  1.6413237E-009 0.0
 -4.6964894E-009  1.8579241E-009 0.0
 -5.4334782E-009  2.0883419E-009 0.0
 -6.2229138E-009  2.3327409E-009 0.0
 -7.0646917E-009  2.5910093E-009 0.0
 -7.9588249E-009  2.8627702E-009 0.0
 -8.9054296E-009  3.1473655E-009 0.0
 -9.9047058E-009  3.4438243E-009 0.0
 -1.0956919E-008  3.7508266E-009 0.0
 -1.2062384E-008  4.0666714E-009 0.0
 -1.3221458E-008  4.3892591E-009 0.0
 -1.4434535E-008  4.7160983E-009 0.0
 -1.5702058E-008  5.0443455E-009 0.0
 -1.7024542E-008  5.3708872E-009 0.0
 -1.8402610E-008  5.6924698E-009 0.0
 -1.9837055E-008  6.0058740E-009 0.0
 -2.1328909E-008  6.3081182E-009 0.0
 -2.2879567E-008  6.5966551E-009 0.0
 -2.4490994E-008  6.8695047E-009 0.0
 -2.6166152E-008  7.1252499E-009 0.0
 -2.7909909E-008  7.3628224E-009 0.0
 -2.9730631E-008  7.5810888E-009 0.0
 -3.1643862E-008  7.7774979E-009 0.0
 -3.3680573E-008  7.9484708E-009 0.0
 -3.5892417E-008  8.0998886E-009 0.0
 -3.8337618E-008  8.2613266E-009 0.0
 -4.1042069E-008  8.4886253E-009 0.0
 -4.3990337E-008  8.8475656E-009 0.0
 -4.7149261E-008  9.4237293E-009 0.0
 -5.1678925E-008  1.0694778E-008 0.0
 -5.5191823E-008  1.0820250E-008 0.0
 -5.8951536E-008  1.0087879E-008 0.0
 -6.0470791E-008  9.7643097E-009 0.0
 -6.1514383E-008  9.4444427E-009 0.0
 -6.2474027E-008  9.1333824E-009 0.0
 -6.3427820E-008  8.7970380E-009 0.0
 -6.4469680E-008  8.4311737E-009 0.0
 -6.5680983E-008  8.0798984E-009 0.0
 -6.6632964E-008  7.6462499E-009 0.0
 -7.4543544E-035 -7.4543544E-035 0.0
 -1.7628494E-010  1.4463510E-010 0.0
 -4.0079371E-010  2.8624341E-010 0.0
 -6.8579409E-010  4.3643581E-010 0.0
 -1.0201004E-009  6.0112729E-010 0.0
 -1.3963619E-009  7.6997184E-010 0.0
 -1.8207494E-009  9.4128406E-010 0.0
 -2.2979274E-009  1.1182760E-009 0.0
 -2.8296088E-009  1.3044899E-009 0.0
 -3.4157075E-009  1.5024072E-009 0.0
 -4.0554642E-009  1.7134808E-009 0.0
 -4.7480040E-009  1.9384684E-009 0.0
 -5.4925500E-009  2.1776853E-009 0.0
 -6.2884784E-009  2.4311539E-009 0.0
 -7.1353054E-009  2.6986686E-009 0.0
 -8.0326512E-009  2.9798051E-009 0.0
 -8.9802046E-009  3.2738989E-009 0.0
 -9.9776932E-009  3.5800068E-009 0.0
 -1.1024868E-008  3.8968655E-009 0.0
 -1.2121497E-008  4.2228565E-009 0.0
 -1.3267381E-008  4.5559862E-009 0.0
 -1.4462382E-008  4.8938906E-009 0.0
 -1.5706473E-008  5.2338744E-009 0.0
 -1.6999811E-008  5.5729964E-009 0.0
 -1.8342834E-008  5.9082108E-009 0.0
 -1.9736353E-008  6.2365730E-009 0.0
 -2.1181652E-008  6.5555031E-009 0.0
 -2.2680557E-008  6.8630752E-009 0.0
 -2.4235519E-008  7.1582687E-009 0.0
 -2.5849812E-008  7.4410983E-009 0.0
 -2.7528105E-008  7.7124961E-009 0.0
 -2.9278137E-008  7.9739413E-009 0.0
 -3.1112498E-008  8.2272871E-009 0.0
 -3.3057667E-008  8.4672791E-009 0.0
 -3.5186916E-008  8.6810199E-009 0.0
 -3.7618818E-008  8.8982874E-009 0.0
 -4.0409352E-008  9.2002331E-009 0.0
 -4.3465311E-008  9.6354288E-009 0.0
 -4.6655688E-008  1.0121026E-008 0.0
 -6.0202505E-008  9.7739778E-009 0.0
 -6.0559435E-008  1.0017095E-008 0.0
 -6.1286571E-008  9.8375963E-009 0.0
 -6.2001676E-008  9.5614255E-009 0.0
 -6.2753205E-008  9.2557723E-009 0.0
 -6.3602396E-008  8.8922275E-009 0.0
 -6.4708706E-008  8.4199419E-009 0.0
 -6.5826079E-008  8.0346957E-009 0.0
 -7.4543544E-035  1.8684755E-051 0.0
 -1.3155568E-010  1.4264147E-010 0.0
 -3.6922555E-010  2.6336358E-010 0.0
 -6.8825697E-010  4.4217180E-010 0.0
 -1.0248499E-009  6.2637481E-010 0.0
 -1.3977055E-009  8.0100750E-010 0.0
 -1.8224833E-009  9.7319595E-010 0.0
 -2.3046072E-009  1.1512883E-009 0.0
 -2.8440346E-009  1.3402952E-009 0.0
 -3.4391257E-009  1.5425819E-009 0.0
 -4.0881022E-009  1.7591460E-009 0.0
 -4.7894376E-009  1.9902991E-009 0.0
 -5.5419191E-009  2.2360311E-009 0.0
 -6.3445821E-009  2.4961600E-009 0.0
 -7.1966222E-009  2.7703746E-009 0.0
 -8.0973161E-009  3.0582198E-009 0.0
 -9.0459616E-009  3.3590521E-009 0.0
 -1.0041841E-008  3.6719860E-009 0.0
 -1.1084207E-008  3.9958395E-009 0.0
 -1.2172290E-008  4.3290896E-009 0.0
 -1.3305336E-008  4.6698426E-009 0.0
 -1.4482658E-008  5.0158274E-009 0.0
 -1.5703736E-008  5.3644213E-009 0.0
 -1.6968340E-008  5.7127208E-009 0.0
 -1.8276686E-008  6.0576751E-009 0.0
 -1.9629609E-008  6.3963051E-009 0.0
 -2.1028702E-008  6.7260200E-009 0.0
 -2.2476375E-008  7.0450185E-009 0.0
 -2.3975790E-008  7.3526934E-009 0.0
 -2.5530778E-008  7.6499199E-009 0.0
 -2.7145937E-008  7.9391692E-009 0.0
 -2.8827514E-008  8.2240940E-009 0.0
 -3.0588321E-008  8.5099262E-009 0.0
 -3.2441436E-008  8.8113140E-009 0.0
 -3.4430291E-008  9.1092169E-009 0.0
 -3.6801911E-008  9.3555067E-009 0.0
 -3.9773053E-008  9.7167893E-009 0.0
 -4.2948110E-008  1.0265355E-008 0.0
 -6.0973631E-008  9.6126335E-009 0.0
 -6.0858903E-008  9.7723773E-009 0.0
 -6.1104378E-008  9.7387584E-009 0.0
 -6.1555710E-008  9.5594110E-009 0.0
 -6.2109168E-008  9.3311466E-009 0.0
 -6.2715648E-008  9.1284296E-009 0.0
 -6.3673707E-008  8.9437303E-009 0.0
 -6.5843875E-008  9.1474406E-009 0.0
  2.6424233E-051  2.1701921E-034 0.0
  1.5256038E-051  1.5256038E-051 0.0
 -3.8015463E-010  2.3648529E-010 0.0
 -7.0455282E-010  4.7607387E-010 0.0
 -1.0182486E-009  6.6371315E-010 0.0
 -1.3792122E-009  8.2654107E-010 0.0
 -1.8048564E-009  9.8941962E-010 0.0
 -2.2944280E-009  1.1637026E-009 0.0
 -2.8438623E-009  1.3528402E-009 0.0
 -3.4495863E-009  1.5576702E-009 0.0
 -4.1088275E-009  1.7780290E-009 0.0
 -4.8195767E-009  2.0135067E-009 0.0
 -5.5803403E-009  2.2636732E-009 0.0
 -6.3899384E-009  2.5281335E-009 0.0
 -7.2473390E-009  2.8064998E-009 0.0
 -8.1515383E-009  3.0983274E-009 0.0
 -9.1014839E-009  3.4030370E-009 0.0
 -1.0096034E-008  3.7198380E-009 0.0
 -1.1133951E-008  4.0476572E-009 0.0
 -1.2213919E-008  4.3850810E-009 0.0
 -1.3334600E-008  4.7303107E-009 0.0
 -1.4494716E-008  5.0811372E-009 0.0
 -1.5693178E-008  5.4349400E-009 0.0
 -1.6929265E-008  5.7887230E-009 0.0
 -1.8202852E-008  6.1392063E-009 0.0
 -1.9514678E-008  6.4830132E-009 0.0
 -2.0866605E-008  6.8169980E-009 0.0
 -2.2261732E-008  7.1387440E-009 0.0
 -2.3704191E-008  7.4471587E-009 0.0
 -2.5198610E-008  7.7428842E-009 0.0
 -2.6749685E-008  8.0282644E-009 0.0
 -2.8361810E-008  8.3072601E-009 0.0
 -3.0040798E-008  8.5815804E-009 0.0
 -3.1819705E-008  8.8550919E-009 0.0
 -3.3669571E-008  9.2119456E-009 0.0
 -3.5778151E-008  9.6554516E-009 0.0
 -3.9284590E-008  1.0247236E-008 0.0
 -6.1554684E-008  9.1936097E-009 0.0
 -6.1028451E-008  9.2654720E-009 0.0
 -6.0966639E-008  9.2645280E-009 0.0
 -6.1130470E-008  9.1651368E-009 0.0
 -6.1455879E-008  8.9643378E-009 0.0
 -6.1935055E-008  8.7108047E-009 0.0
 -6.1991832E-008  8.2568365E-009 0.0
 -7.4543544E-035  1.8684755E-051 0.0
 -4.6123918E-010  3.6942199E-010 0.0
 -7.0609783E-010  5.7550844E-010 0.0
 -9.7375615E-010  7.0643473E-010 0.0
 -1.3284650E-009  8.3383306E-010 0.0
 -1.7630993E-009  9.8176721E-010 0.0
 -2.2654401E-009  1.1510149E-009 0.0
 -2.8282227E-009  1.3401735E-009 0.0
 -3.4464189E-009  1.5471785E-009 0.0
 -4.1168826E-009  1.7704446E-009 0.0
 -4.8374796E-009  2.0088203E-009 0.0
 -5.6066888E-009  2.2615207E-009 0.0
 -6.4232835E-009  2.5280253E-009 0.0
 -7.2861116E-009  2.8079553E-009 0.0
 -8.1939544E-009  3.1009507E-009 0.0
 -9.1454436E-009  3.4065566E-009 0.0
 -1.0139026E-008  3.7241218E-009 0.0
 -1.1172967E-008  4.0527132E-009 0.0
 -1.2245380E-008  4.3910436E-009 0.0
 -1.3354298E-008  4.7374118E-009 0.0
 -1.4497775E-008  5.0896554E-009 0.0
 -1.5674038E-008  5.4451147E-009 0.0
 -1.6881703E-008  5.8006144E-009 0.0
 -1.8120071E-008  6.1524776E-009 0.0
 -1.9389512E-008  6.4966103E-009 0.0
 -2.0691911E-008  6.8287423E-009 0.0
 -2.2030996E-008  7.1449505E-009 0.0
 -2.3412166E-008  7.4424934E-009 0.0
 -2.4841266E-008  7.7206076E-009 0.0
 -2.6322568E-008  7.9799940E-009 0.0
 -2.7858583E-008  8.2208421E-009 0.0
 -2.9443968E-008  8.4436653E-009 0.0
 -3.1065445E-008  8.6082374E-009 0.0
 -3.2844790E-008  8.5954766E-009 0.0
 -3.3845776E-008  8.1032239E-009 0.0
 -6.2697664E-008  9.2217198E-009 0.0
 -6.2682208E-008  8.2523426E-009 0.0
 -6.1754803E-008  8.3315581E-009 0.0
 -6.1117636E-008  8.4353456E-009 0.0
 -6.0814190E-008  8.4932894E-009 0.0
 -6.0712588E-008  8.4644411E-009 0.0
 -6.0752819E-008  8.3017679E-009 0.0
 -6.0988528E-008  7.9366742E-009 0.0
 -6.1098214E-008  7.5751844E-009 0.0
 -3.2302151E-011  7.7071231E-010 0.0
 -4.9969610E-010  6.7479602E-010 0.0
 -6.1065834E-010  6.6637808E-010 0.0
 -8.6667653E-010  6.9832712E-010 0.0
 -1.2427473E-009  7.9927735E-010 0.0
 -1.6976630E-009  9.3965025E-010 0.0
 -2.2190939E-009  1.1095910E-009 0.0
 -2.7979722E-009  1.3016347E-009 0.0
 -3.4299050E-009  1.5118447E-009 0.0
 -4.1119919E-009  1.7377653E-009 0.0
 -4.8424144E-009  1.9778537E-009 0.0
 -5.6198921E-009  2.2312294E-009 0.0
 -6.4433145E-009  2.4974331E-009 0.0
 -7.3115063E-009  2.7762330E-009 0.0
 -8.2230833E-009  3.0674546E-009 0.0
 -9.1763801E-009  3.3708377E-009 0.0
 -1.0169429E-008  3.6859191E-009 0.0
 -1.1199978E-008  4.0119362E-009 0.0
 -1.2265533E-008  4.3477463E-009 0.0
 -1.3363440E-008  4.6917565E-009 0.0
 -1.4490992E-008  5.0418562E-009 0.0
 -1.5645593E-008  5.3953477E-009 0.0
 -1.6824983E-008  5.7488701E-009 0.0
 -1.8027571E-008  6.0983121E-009 0.0
 -1.9252901E-008  6.4387316E-009 0.0
 -2.0502322E-008  6.7643521E-009 0.0
 -2.1779782E-008  7.0688801E-009 0.0
 -2.3092162E-008  7.3465541E-009 0.0
 -2.4447820E-008  7.5938660E-009 0.0
 -2.5851350E-008  7.8104557E-009 0.0
 -2.7297713E-008  7.9928650E-009 0.0
 -2.8783604E-008  8.1286901E-009 0.0
 -3.0245866E-008  8.2454938E-009 0.0
 -3.1652264E-008  8.2844774E-009 0.0
 -3.3713453E-008  8.6795639E-009 0.0
 -6.2773136E-008  7.2948718E-009 0.0
 -6.1818032E-008  7.3309878E-009 0.0
 -6.1112205E-008  7.3989585E-009 0.0
 -6.0637993E-008  7.4602078E-009 0.0
 -6.0324293E-008  7.4813281E-009 0.0
 -6.0048911E-008  7.4635969E-009 0.0
 -6.0033616E-008  7.3786743E-009 0.0
 -6.1085429E-008  7.5967699E-009 0.0
 -3.7930407E-010  6.0943620E-010 0.0
 -4.0264413E-010  5.2227013E-010 0.0
 -7.2571691E-010  5.9048770E-010 0.0
 -1.1328978E-009  7.0527030E-010 0.0
 -1.6174071E-009  8.6067589E-010 0.0
 -2.1595207E-009  1.0405525E-009 0.0
 -2.7553559E-009  1.2395666E-009 0.0
 -3.4009340E-009  1.4544414E-009 0.0
 -4.0940977E-009  1.6827824E-009 0.0
 -4.8336667E-009  1.9232643E-009 0.0
 -5.6187902E-009  2.1752635E-009 0.0
 -6.4485935E-009  2.4386193E-009 0.0
 -7.3219372E-009  2.7134082E-009 0.0
 -8.2372906E-009  2.9997496E-009 0.0
 -9.1926836E-009  3.2976466E-009 0.0
 -1.0185712E-008  3.6068635E-009 0.0
 -1.1213571E-008  3.9268302E-009 0.0
 -1.2273117E-008  4.2565623E-009 0.0
 -1.3360944E-008  4.5945872E-009 0.0
 -1.4473495E-008  4.9388656E-009 0.0
 -1.5607215E-008  5.2867016E-009 0.0
 -1.6758762E-008  5.6346247E-009 0.0
 -1.7925314E-008  5.9782230E-009 0.0
 -1.9105043E-008  6.3118914E-009 0.0
 -2.0297884E-008  6.6284872E-009 0.0
 -2.1506858E-008  6.9189964E-009 0.0
 -2.2739924E-008  7.1730950E-009 0.0
 -2.4009984E-008  7.3822665E-009 0.0
 -2.5328327E-008  7.5446976E-009 0.0
 -2.6682686E-008  7.6664194E-009 0.0
 -2.8028276E-008  7.7199880E-009 0.0
 -2.9405106E-008  7.6152814E-009 0.0
 -3.0157320E-008  7.2221494E-009 0.0
 -6.2777690E-008  6.0961577E-009 0.0
 -6.1784145E-008  6.1235153E-009 0.0
 -6.1010887E-008  6.1610120E-009 0.0
 -6.0415734E-008  6.1893329E-009 0.0
 -5.9926501E-008  6.1818691E-009 0.0
 -5.9456312E-008  6.1115765E-009 0.0
 -5.8518627E-008  5.7515220E-009 0.0
  1.8684755E-051  1.8684755E-051 0.0
 -2.5790546E-010  2.5752861E-010 0.0
 -5.7275680E-010  3.9893173E-010 0.0
 -1.0263162E-009  5.7463458E-010 0.0
 -1.5298350E-009  7.5701612E-010 0.0
 -2.0913223E-009  9.5154538E-010 0.0
 -2.7026896E-009  1.1601204E-009 0.0
 -3.3602383E-009  1.3799771E-009 0.0
 -4.0629171E-009  1.6097368E-009 0.0
 -4.8102574E-009  1.8487092E-009 0.0
 -5.6019567E-009  2.0968287E-009 0.0
 -6.4374361E-009  2.3544425E-009 0.0
 -7.3156055E-009  2.6220853E-009 0.0
 -8.2347624E-009  2.9002614E-009 0.0
 -9.1925918E-009  3.1892830E-009 0.0
 -1.0186209E-008  3.4891589E-009 0.0
 -1.1212215E-008  3.7995148E-009 0.0
 -1.2266765E-008  4.1195241E-009 0.0
 -1.3345645E-008  4.4478379E-009 0.0
 -1.4444372E-008  4.7825059E-009 0.0
 -1.5558326E-008  5.1208819E-009 0.0
 -1.6682928E-008  5.4595002E-009 0.0
 -1.7813885E-008  5.7938933E-009 0.0
 -1.8947544E-008  6.1182840E-009 0.0
 -2.0081548E-008  6.4250020E-009 0.0
 -2.1216126E-008  6.7034725E-009 0.0
 -2.2357478E-008  6.9385666E-009 0.0
 -2.3523980E-008  7.1122099E-009 0.0
 -2.4743698E-008  7.2155343E-009 0.0
 -2.6027501E-008  7.2645920E-009 0.0
 -2.7273725E-008  7.3148430E-009 0.0
 -2.8412006E-008  7.3360809E-009 0.0
 -3.0062024E-008  7.6475783E-009 0.0
 -6.3953862E-008  6.0716759E-009 0.0
 -6.3947365E-008  4.7849599E-009 0.0
 -6.2690668E-008  4.7566700E-009 0.0
 -6.1664167E-008  4.7411929E-009 0.0
 -6.0831748E-008  4.7452561E-009 0.0
 -6.0129864E-008  4.7348964E-009 0.0
 -5.9493201E-008  4.6613074E-009 0.0
 -5.8778691E-008  4.4733812E-009 0.0
 -5.7632732E-008  4.2270598E-009 0.0
  2.6424233E-051  2.1701921E-034 0.0
 -6.0864549E-035  1.5256038E-051 0.0
 -4.7611795E-010  2.4593616E-010 0.0
 -9.1438671E-010  4.5238160E-010 0.0
 -1.4373170E-009  6.4582029E-010 0.0
 -2.0172048E-009  8.5527104E-010 0.0
 -2.6407670E-009  1.0719885E-009 0.0
 -3.3076710E-009  1.2950540E-009 0.0
 -4.0174992E-009  1.5238983E-009 0.0
 -4.7706720E-009  1.7585643E-009 0.0
 -5.5675230E-009  1.9996539E-009 0.0
 -6.4078167E-009  2.2481910E-009 0.0
 -7.2904625E-009  2.5052823E-009 0.0
 -8.2135067E-009  2.7718635E-009 0.0
 -9.1742129E-009  3.0485559E-009 0.0
 -1.0169155E-008  3.3355921E-009 0.0
 -1.1194291E-008  3.6327678E-009 0.0
 -1.2245033E-008  3.9393928E-009 0.0
 -1.3316307E-008  4.2542283E-009 0.0
 -1.4402644E-008  4.5754099E-009 0.0
 -1.5498290E-008  4.9003577E-009 0.0
 -1.6597350E-008  5.2256751E-009 0.0
 -1.7693969E-008  5.5470267E-009 0.0
 -1.8782550E-008  5.8589510E-009 0.0
 -1.9858031E-008  6.1544714E-009 0.0
 -2.0916706E-008  6.4240047E-009 0.0
 -2.1958090E-008  6.6528342E-009 0.0
 -2.2996316E-008  6.8131024E-009 0.0
 -2.4087115E-008  6.8703745E-009 0.0
 -2.5298166E-008  6.8306837E-009 0.0
 -2.6583694E-008  6.7341529E-009 0.0
 -2.7192153E-008  6.4372826E-009 0.0
 -6.3837271E-008  3.3225313E-009 0.0
 -6.2501054E-008  3.2520625E-009 0.0
 -6.1465429E-008  3.2063810E-009 0.0
 -6.0600247E-008  3.1987635E-009 0.0
 -5.9807826E-008  3.1815589E-009 0.0
 -5.9016020E-008  3.0944319E-009 0.0
 -5.8193465E-008  2.9004022E-009 0.0
 -5.7171481E-008  2.7044449E-009 0.0
  1.8684755E-051  1.8684755E-051 0.0
 -3.1487549E-010  2.0177180E-010 0.0
 -7.7911605E-010  3.3279730E-010 0.0
 -1.3437317E-009  5.4621726E-010 0.0
 -1.9354323E-009  7.6393137E-010 0.0
 -2.5686252E-009  9.8414972E-010 0.0
 -3.2418588E-009  1.2065662E-009 0.0
 -3.9560283E-009  1.4309151E-009 0.0
 -4.7126502E-009  1.6574570E-009 0.0
 -5.5130576E-009  1.8876341E-009 0.0
 -6.3573288E-009  2.1233240E-009 0.0
 -7.2442285E-009  2.3662631E-009 0.0
 -8.1714023E-009  2.6177856E-009 0.0
 -9.1355853E-009  2.8787512E-009 0.0
 -1.0132744E-008  3.1495442E-009 0.0
 -1.1158154E-008  3.4300722E-009 0.0
 -1.2206449E-008  3.7197397E-009 0.0
 -1.3271657E-008  4.0173878E-009 0.0
 -1.4347272E-008  4.3212096E-009 0.0
 -1.5426345E-008  4.6286524E-009 0.0
 -1.6501624E-008  4.9363318E-009 0.0
 -1.7565712E-008  5.2399817E-009 0.0
 -1.8611215E-008  5.5344718E-009 0.0
 -1.9630866E-008  5.8139179E-009 0.0
 -2.0617263E-008  6.0718464E-009 0.0
 -2.1563858E-008  6.3002051E-009 0.0
 -2.2463742E-008  6.4858591E-009 0.0
 -2.3361932E-008  6.5718233E-009 0.0
 -2.4485160E-008  6.5102561E-009 0.0
 -2.5895740E-008  6.4446735E-009 0.0
 -2.7081488E-008  6.7089346E-009 0.0
 -6.3534215E-008  1.7264990E-009 0.0
 -6.2208005E-008  1.5842777E-009 0.0
 -6.1225430E-008  1.5666652E-009 0.0
 -6.0344184E-008  1.5690644E-009 0.0
 -5.9497754E-008  1.5674201E-009 0.0
 -5.8589963E-008  1.5573387E-009 0.0
 -5.7679349E-008  1.5211109E-009 0.0
 -5.7165124E-008  1.6382138E-009 0.0
  2.6424233E-051  2.6424233E-051 0.0
  1.5256038E-051  1.5256038E-051 0.0
 -6.7615952E-010  2.4723096E-010 0.0
 -1.2389079E-009  4.7053877E-010 0.0
 -1.8431022E-009  6.8604821E-010 0.0
 -2.4839332E-009  9.0316693E-010 0.0
 -3.1608364E-009  1.1209953E-009 0.0
 -3.8756496E-009  1.3361819E-009 0.0
 -4.6330421E-009  1.5496791E-009 0.0
 -5.4355274E-009  1.7643595E-009 0.0
 -6.2832447E-009  1.9831506E-009 0.0
 -7.1744972E-009  2.2083504E-009 0.0
 -8.1063125E-009  2.4415251E-009 0.0
 -9.0747833E-009  2.6836094E-009 0.0
 -1.0075222E-008  2.9350121E-009 0.0
 -1.1102209E-008  3.1956684E-009 0.0
 -1.2149587E-008  3.4650277E-009 0.0
 -1.3210464E-008  3.7419807E-009 0.0
 -1.4277238E-008  4.0247433E-009 0.0
 -1.5341684E-008  4.3107187E-009 0.0
 -1.6395102E-008  4.5963723E-009 0.0
 -1.7428502E-008  4.8771677E-009 0.0
 -1.8432825E-008  5.1476386E-009 0.0
 -1.9399053E-008  5.4017297E-009 0.0
 -2.0318364E-008  5.6338403E-009 0.0
 -2.1179647E-008  5.8415770E-009 0.0
 -2.1973358E-008  6.0292242E-009 0.0
 -2.2653379E-008  6.2250994E-009 0.0
 -2.3550825E-008  6.3814557E-009 0.0
 -2.5668033E-008  6.7651125E-009 0.0
 -6.2879153E-008 -6.4041364E-011 0.0
 -6.1906892E-008 -9.5615857E-011 0.0
 -6.0954571E-008 -9.8554164E-011 0.0
 -6.0082671E-008 -9.4833354E-011 0.0
 -5.9205130E-008 -9.8919985E-011 0.0
 -5.8262368E-008 -1.3185192E-010 0.0
 -5.6965963E-008 -2.9014951E-010 0.0
 -7.4543544E-035  1.8684755E-051 0.0
 -5.4265152E-010  2.3228707E-010 0.0
 -1.1160671E-009  4.1948175E-010 0.0
 -1.7361109E-009  6.1945436E-010 0.0
 -2.3875333E-009  8.3519500E-010 0.0
 -3.0616134E-009  1.0446027E-009 0.0
 -3.7721174E-009  1.2441587E-009 0.0
 -4.5276844E-009  1.4384059E-009 0.0
 -5.3314222E-009  1.6325476E-009 0.0
 -6.1827314E-009  1.8305081E-009 0.0
 -7.0789541E-009  2.0347766E-009 0.0
 -8.0162719E-009  2.2468031E-009 0.0
 -8.9900647E-009  2.4673381E-009 0.0
 -9.9950032E-009  2.6966492E-009 0.0
 -1.1025008E-008  2.9346089E-009 0.0
 -1.2073163E-008  3.1806754E-009 0.0
 -1.3131648E-008  3.4337860E-009 0.0
 -1.4191707E-008  3.6921832E-009 0.0
 -1.5243712E-008  3.9531932E-009 0.0
 -1.6277309E-008  4.2129905E-009 0.0
 -1.7281665E-008  4.4663919E-009 0.0
 -1.8245734E-008  4.7067168E-009 0.0
 -1.9158504E-008  4.9257322E-009 0.0
 -2.0008962E-008  5.1135232E-009 0.0
 -2.0786819E-008  5.2593510E-009 0.0
 -2.1466054E-008  5.3525681E-009 0.0
 -2.2014247E-008  5.3599641E-009 0.0
 -2.1822518E-008  4.9715419E-009 0.0
 -6.3510279E-008 -1.7013810E-010 0.0
 -6.3505758E-008 -1.3089012E-009 0.0
 -6.2406057E-008 -1.4870861E-009 0.0
 -6.1508584E-008 -1.6617554E-009 0.0
 -6.0658799E-008 -1.7343864E-009 0.0
 -5.9822335E-008 -1.7400334E-009 0.0
 -5.8931931E-008 -1.7460490E-009 0.0
 -5.7921281E-008 -1.8137633E-009 0.0
 -5.6662808E-008 -1.9029676E-009 0.0
 -7.4543544E-035  1.8684755E-051 0.0
 -3.6629545E-010  2.0680196E-010 0.0
 -9.5999408E-010  3.4320110E-010 0.0
 -1.6347870E-009  5.7111690E-010 0.0
 -2.2791699E-009  7.9139222E-010 0.0
 -2.9382845E-009  9.8290918E-010 0.0
 -3.6390106E-009  1.1568646E-009 0.0
 -4.3915695E-009  1.3245730E-009 0.0
 -5.1972022E-009  1.4935067E-009 0.0
 -6.0532790E-009  1.6675660E-009 0.0
 -6.9557170E-009  1.8486636E-009 0.0
 -7.8997322E-009  2.0376165E-009 0.0
 -8.8800427E-009  2.2346865E-009 0.0
 -9.8907855E-009  2.4398386E-009 0.0
 -1.0925335E-008  2.6528177E-009 0.0
 -1.1976105E-008  2.8730934E-009 0.0
 -1.3034378E-008  3.0997029E-009 0.0
 -1.4090200E-008  3.3310022E-009 0.0
 -1.5132379E-008  3.5643328E-009 0.0
 -1.6148615E-008  3.7956271E-009 0.0
 -1.7125770E-008  4.0189810E-009 0.0
 -1.8050170E-008  4.2262232E-009 0.0
 -1.8907694E-008  4.4063226E-009 0.0
 -1.9683128E-008  4.5440829E-009 0.0
 -2.0358421E-008  4.6149631E-009 0.0
 -2.0913387E-008  4.5832064E-009 0.0
 -2.1217186E-008  4.3946033E-009 0.0
 -2.0927923E-008  4.1498294E-009 0.0
 -6.3084091E-008 -2.8810919E-009 0.0
 -6.1859237E-008 -3.1087236E-009 0.0
 -6.1057987E-008 -3.2805512E-009 0.0
 -6.0348884E-008 -3.3396188E-009 0.0
 -5.9589453E-008 -3.3334889E-009 0.0
 -5.8703077E-008 -3.3049647E-009 0.0
 -5.7666713E-008 -3.2896231E-009 0.0
 -5.6649827E-008 -3.2230259E-009 0.0
  2.6424233E-051  2.6424233E-051 0.0
  1.5256038E-051 -6.0864549E-035 0.0
 -8.9018380E-010  2.9446368E-010 0.0
 -1.5483397E-009  5.8700317E-010 0.0
 -2.1476515E-009  7.8450207E-010 0.0
 -2.7784650E-009  9.3567360E-010 0.0
 -3.4679833E-009  1.0707104E-009 0.0
 -4.2199486E-009  1.2058835E-009 0.0
 -5.0301881E-009  1.3469541E-009 0.0
 -5.8933416E-009  1.4959675E-009 0.0
 -6.8037472E-009  1.6532320E-009 0.0
 -7.7558202E-009  1.8184290E-009 0.0
 -8.7438449E-009  1.9910941E-009 0.0
 -9.7616517E-009  2.1708002E-009 0.0
 -1.0802267E-008  2.3571570E-009 0.0
 -1.1857589E-008  2.5497014E-009 0.0
 -1.2918102E-008  2.7476898E-009 0.0
 -1.3972661E-008  2.9497825E-009 0.0
 -1.5008381E-008  3.1536033E-009 0.0
 -1.6010705E-008  3.3551738E-009 0.0
 -1.6963677E-008  3.5482671E-009 0.0
 -1.7850362E-008  3.7237585E-009 0.0
 -1.8652966E-008  3.8691529E-009 0.0
 -1.9351764E-008  3.9680206E-009 0.0
 -1.9919345E-008  3.9987880E-009 0.0
 -2.0323048E-008  3.9174670E-009 0.0
 -2.0559787E-008  3.7141024E-009 0.0
 -2.0502085E-008  3.5195349E-009 0.0
 -6.2261559E-008 -4.4786710E-009 0.0
 -6.1216559E-008 -4.8163167E-009 0.0
 -6.0641376E-008 -4.8792147E-009 0.0
 -6.0070099E-008 -4.8785510E-009 0.0
 -5.9405178E-008 -4.8402816E-009 0.0
 -5.8561728E-008 -4.8011173E-009 0.0
 -5.7406062E-008 -4.8314785E-009 0.0
  1.8684755E-051  1.8684755E-051 0.0
 -9.1577487E-010  4.9554217E-010 0.0
 -1.4339301E-009  6.9735838E-010 0.0
 -1.9611367E-009  8.0421378E-010 0.0
 -2.5654300E-009  8.8504018E-010 0.0
 -3.2527254E-009  9.7488289E-010 0.0
 -4.0103718E-009  1.0770611E-009 0.0
 -4.8298292E-009  1.1917957E-009 0.0
 -5.7030035E-009  1.3175066E-009 0.0
 -6.6232068E-009  1.4522942E-009 0.0
 -7.5845250E-009  1.5944898E-009 0.0
 -8.5812163E-009  1.7428916E-009 0.0
 -9.6071197E-009  1.8967171E-009 0.0
 -1.0655179E-008  2.0555033E-009 0.0
 -1.1717006E-008  2.2189519E-009 0.0
 -1.2782471E-008  2.3866998E-009 0.0
 -1.3839348E-008  2.5579799E-009 0.0
 -1.4873040E-008  2.7311181E-009 0.0
 -1.5866503E-008  2.9028276E-009 0.0
 -1.6800517E-008  3.0673302E-009 0.0
 -1.7654331E-008  3.2155342E-009 0.0
 -1.8406685E-008  3.3346575E-009 0.0
 -1.9035903E-008  3.4099088E-009 0.0
 -1.9518909E-008  3.4306356E-009 0.0
 -1.9807517E-008  3.4091740E-009 0.0
 -2.0009173E-008  3.3495451E-009 0.0
 -2.0513737E-008  3.4541149E-009 0.0
 -6.0833118E-008 -6.2087034E-009 0.0
 -6.0648271E-008 -6.2830212E-009 0.0
 -6.0254176E-008 -6.2860112E-009 0.0
 -5.9845105E-008 -6.2552180E-009 0.0
 -5.9295482E-008 -6.1951435E-009 0.0
 -5.8484063E-008 -6.1357522E-009 0.0
 -5.7369026E-008 -6.1045341E-009 0.0
 -3.8958257E-010  8.5537749E-010 0.0
 -8.4709098E-010  8.4725560E-010 0.0
 -1.2105761E-009  8.1443528E-010 0.0
 -1.6845468E-009  7.7483698E-010 0.0
 -2.2963576E-009  7.9959195E-010 0.0
 -2.9933066E-009  8.5501231E-010 0.0
 -3.7651625E-009  9.3305026E-010 0.0
 -4.5986091E-009  1.0280971E-009 0.0
 -5.4843521E-009  1.1353594E-009 0.0
 -6.4155568E-009  1.2509148E-009 0.0
 -7.3867316E-009  1.3721841E-009 0.0
 -8.3925310E-009  1.4974853E-009 0.0
 -9.4271441E-009  1.6258404E-009 0.0
 -1.0483726E-008  1.7568217E-009 0.0
 -1.1553882E-008  1.8903906E-009 0.0
 -1.2627155E-008  2.0267035E-009 0.0
 -1.3690503E-008  2.1658268E-009 0.0
 -1.4727802E-008  2.3072666E-009 0.0
 -1.5719492E-008  2.4492035E-009 0.0
 -1.6642675E-008  2.5873719E-009 0.0
 -1.7472152E-008  2.7137535E-009 0.0
 -1.8182336E-008  2.8159230E-009 0.0
 -1.8751301E-008  2.8772513E-009 0.0
 -1.9163044E-008  2.8823577E-009 0.0
 -1.9413509E-008  2.8313427E-009 0.0
 -1.9260309E-008  2.6551981E-009 0.0
 -6.0070606E-008 -6.4148751E-009 0.0
 -6.0059422E-008 -6.6495928E-009 0.0
 -5.9918363E-008 -6.9850511E-009 0.0
 -5.9981736E-008 -7.2993475E-009 0.0
 -5.9891498E-008 -7.3939370E-009 0.0
 -5.9663051E-008 -7.3754581E-009 0.0
 -5.9263950E-008 -7.3266187E-009 0.0
 -5.8540897E-008 -7.2679695E-009 0.0
 -5.7355953E-008 -7.2686293E-009 0.0
 -5.2214627E-010  9.7749756E-010 0.0
 -6.7065156E-010  8.7371866E-010 0.0
 -8.1789121E-010  6.4621658E-010 0.0
 -1.3633606E-009  6.3474666E-010 0.0
 -1.9818345E-009  6.5810646E-010 0.0
 -2.6993680E-009  7.0474411E-010 0.0
 -3.4915400E-009  7.7398025E-010 0.0
 -4.3420065E-009  8.5996889E-010 0.0
 -5.2410312E-009  9.5526857E-010 0.0
 -6.1833008E-009  1.0559233E-009 0.0
 -7.1640612E-009  1.1592295E-009 0.0
 -8.1787166E-009  1.2634117E-009 0.0
 -9.2220922E-009  1.3675043E-009 0.0
 -1.0287827E-008  1.4712056E-009 0.0
 -1.1367820E-008  1.5747628E-009 0.0
 -1.2451654E-008  1.6788739E-009 0.0
 -1.3525928E-008  1.7845550E-009 0.0
 -1.4573469E-008  1.8928544E-009 0.0
 -1.5572527E-008  2.0041980E-009 0.0
 -1.6496373E-008  2.1171285E-009 0.0
 -1.7314048E-008  2.2263061E-009 0.0
 -1.7994193E-008  2.3202968E-009 0.0
 -1.8509294E-008  2.3820450E-009 0.0
 -1.8848433E-008  2.3846003E-009 0.0
 -1.9016953E-008  2.2925961E-009 0.0
 -1.8930084E-008  2.1812671E-009 0.0
 -5.9176735E-008 -7.6199305E-009 0.0
 -5.8995137E-008 -8.0549072E-009 0.0
 -5.9363526E-008 -8.1817276E-009 0.0
 -5.9554406E-008 -8.2133585E-009 0.0
 -5.9538065E-008 -8.1742755E-009 0.0
 -5.9300904E-008 -8.1096598E-009 0.0
 -5.8849690E-008 -7.9989974E-009 0.0
  1.8684755E-051  1.8684755E-051 0.0
 -5.7100923E-010  3.0256180E-010 0.0
 -1.0178048E-009  4.3093788E-010 0.0
 -1.6396080E-009  4.7660227E-010 0.0
 -2.3840893E-009  5.3207376E-010 0.0
 -3.2004703E-009  6.1121178E-010 0.0
 -4.0659380E-009  6.9674166E-010 0.0
 -4.9772787E-009  7.8582364E-010 0.0
 -5.9294236E-009  8.7588479E-010 0.0
 -6.9185875E-009  9.6451405E-010 0.0
 -7.9411403E-009  1.0501503E-009 0.0
 -8.9927429E-009  1.1319721E-009 0.0
 -1.0067728E-008  1.2098186E-009 0.0
 -1.1158553E-008  1.2841249E-009 0.0
 -1.2255237E-008  1.3559403E-009 0.0
 -1.3344633E-008  1.4270392E-009 0.0
 -1.4409365E-008  1.4999971E-009 0.0
 -1.5426405E-008  1.5779596E-009 0.0
 -1.6365620E-008  1.6635491E-009 0.0
 -1.7189423E-008  1.7564180E-009 0.0
 -1.7855528E-008  1.8488396E-009 0.0
 -1.8331374E-008  1.9219670E-009 0.0
 -1.8595158E-008  1.9623775E-009 0.0
 -1.8703075E-008  1.9673655E-009 0.0
 -1.8921294E-008  2.0424718E-009 0.0
 -5.7366739E-008 -8.8248689E-009 0.0
 -5.8298367E-008 -8.8564505E-009 0.0
 -5.8884745E-008 -8.7864148E-009 0.0
 -5.9314823E-008 -8.7162604E-009 0.0
 -5.9502570E-008 -8.6152189E-009 0.0
 -5.9435275E-008 -8.4920495E-009 0.0
 -5.9228947E-008 -8.3567934E-009 0.0
  1.8684755E-051  1.8684755E-051 0.0
 -3.1091469E-010  2.1743137E-010 0.0
 -6.0878286E-010  2.5453068E-010 0.0
 -1.2726289E-009  2.7197910E-010 0.0
 -2.0693264E-009  3.7353971E-010 0.0
 -2.8961056E-009  4.6363626E-010 0.0
 -3.7750534E-009  5.5078999E-010 0.0
 -4.6968291E-009  6.3739462E-010 0.0
 -5.6568337E-009  7.2029089E-010 0.0
 -6.6525808E-009  7.9749896E-010 0.0
 -7.6815294E-009  8.6763600E-010 0.0
 -8.7403611E-009  9.3003839E-010 0.0
 -9.8242181E-009  9.8464730E-010 0.0
 -1.0926245E-008  1.0318488E-009 0.0
 -1.2037214E-008  1.0725930E-009 0.0
 -1.3144890E-008  1.1087860E-009 0.0
 -1.4232837E-008  1.1438671E-009 0.0
 -1.5278434E-008  1.1833183E-009 0.0
 -1.6249836E-008  1.2345547E-009 0.0
 -1.7103001E-008  1.3044257E-009 0.0
 -1.7781572E-008  1.3937992E-009 0.0
 -1.8225055E-008  1.4840160E-009 0.0
 -1.8432590E-008  1.5235115E-009 0.0
 -1.8341256E-008  1.4544138E-009 0.0
 -5.5167907E-008 -9.1724696E-009 0.0
 -5.5072886E-008 -8.3196929E-009 0.0
 -5.6225457E-008 -8.7978948E-009 0.0
 -5.7618878E-008 -8.9377917E-009 0.0
 -5.8526193E-008 -8.9161820E-009 0.0
 -5.9173702E-008 -8.8289144E-009 0.0
 -5.9582090E-008 -8.7095783E-009 0.0
 -5.9673130E-008 -8.5348488E-009 0.0
 -5.9540879E-008 -8.3754716E-009 0.0
  2.6424233E-051 -1.0542049E-034 0.0
  1.8684755E-051  1.8684755E-051 0.0
  1.5256038E-051 -1.2808683E-034 0.0
 -9.7024205E-010  1.6121522E-010 0.0
 -1.7342761E-009  2.6281840E-010 0.0
 -2.5789202E-009  3.4440816E-010 0.0
 -3.4723047E-009  4.3432220E-010 0.0
 -4.4023548E-009  5.1975894E-010 0.0
 -5.3682377E-009  5.9824927E-010 0.0
 -6.3683864E-009  6.6733633E-010 0.0
 -7.4019420E-009  7.2546902E-010 0.0
 -8.4668700E-009  7.7233618E-010 0.0
 -9.5590164E-009  8.0795412E-010 0.0
 -1.0672094E-008  8.3233405E-010 0.0
 -1.1797704E-008  8.4565184E-010 0.0
 -1.2925020E-008  8.4889977E-010 0.0
 -1.4039738E-008  8.4493864E-010 0.0
 -1.5121815E-008  8.3990623E-010 0.0
 -1.6141390E-008  8.4461502E-010 0.0
 -1.7050963E-008  8.7497098E-010 0.0
 -1.7778794E-008  9.4384897E-010 0.0
 -1.8227969E-008  1.0514084E-009 0.0
 -1.8305306E-008  1.1440490E-009 0.0
 -1.8291090E-008  1.2248428E-009 0.0
 -5.3459711E-008 -9.0452032E-009 0.0
 -5.5521023E-008 -8.7816096E-009 0.0
 -5.7055736E-008 -8.6345472E-009 0.0
 -5.8235569E-008 -8.5652102E-009 0.0
 -5.9092747E-008 -8.4951301E-009 0.0
 -5.9723413E-008 -8.4424619E-009 0.0
 -6.0025212E-008 -8.3907286E-009 0.0
 -5.9552967E-008 -8.4825856E-009 0.0
  1.8684755E-051  1.8684755E-051 0.0
 -5.7120214E-010  1.6358111E-010 0.0
 -1.3687088E-009  1.7005172E-010 0.0
 -2.2546180E-009  2.6490381E-010 0.0
 -3.1577765E-009  3.5433872E-010 0.0
 -4.0968004E-009  4.3993040E-010 0.0
 -5.0664283E-009  5.1762927E-010 0.0
 -6.0682491E-009  5.8181788E-010 0.0
 -7.1047622E-009  6.3186728E-010 0.0
 -8.1750951E-009  6.6831395E-010 0.0
 -9.2753259E-009  6.9135031E-010 0.0
 -1.0399212E-008  7.0022667E-010 0.0
 -1.1538913E-008  6.9358190E-010 0.0
 -1.2685130E-008  6.7027779E-010 0.0
 -1.3826457E-008  6.3068778E-010 0.0
 -1.4947527E-008  5.7861763E-010 0.0
 -1.6024525E-008  5.2427582E-010 0.0
 -1.7016788E-008  4.8799285E-010 0.0
 -1.7840042E-008  5.0404652E-010 0.0
 -1.8354107E-008  5.7909712E-010 0.0
 -1.8319187E-008  6.5837485E-010 0.0
 -4.9940137E-008 -9.4940230E-009 0.0
 -4.9588344E-008 -8.1709157E-009 0.0
 -5.2638851E-008 -7.9721741E-009 0.0
 -5.4952211E-008 -7.9161571E-009 0.0
 -5.6678856E-008 -7.8369620E-009 0.0
 -5.8031330E-008 -7.7573022E-009 0.0
 -5.9075455E-008 -7.6848290E-009 0.0
 -5.9870680E-008 -7.6125606E-009 0.0
 -6.0708153E-008 -7.4401358E-009 0.0
  2.6424233E-051  2.6424233E-051 0.0
  1.5256038E-051 -6.0864549E-035 0.0
 -1.0435418E-009  1.3705761E-010 0.0
 -1.9087024E-009  2.2436948E-010 0.0
 -2.8363380E-009  3.0888208E-010 0.0
 -3.7856975E-009  4.0435809E-010 0.0
 -4.7535776E-009  4.8429978E-010 0.0
 -5.7539760E-009  5.4624680E-010 0.0
 -6.7926035E-009  5.9227263E-010 0.0
 -7.8690904E-009  6.2493655E-010 0.0
 -8.9784502E-009  6.4452319E-010 0.0
 -1.0113593E-008  6.4905167E-010 0.0
 -1.1266640E-008  6.3498240E-010 0.0
 -1.2429494E-008  5.9812885E-010 0.0
 -1.3593693E-008  5.3481070E-010 0.0
 -1.4749277E-008  4.4353283E-010 0.0
 -1.5882143E-008  3.2792534E-010 0.0
 -1.6965174E-008  2.0312047E-010 0.0
 -1.7944653E-008  1.0883902E-010 0.0
 -1.8617722E-008  1.4728285E-010 0.0
 -1.8668364E-008  2.9482298E-010 0.0
 -4.6144364E-008 -8.5758632E-009 0.0
 -4.5776715E-008 -6.9050718E-009 0.0
 -4.9107492E-008 -6.6633704E-009 0.0
 -5.2036866E-008 -6.5670349E-009 0.0
 -5.4451274E-008 -6.5581830E-009 0.0
 -5.6379037E-008 -6.5600371E-009 0.0
 -5.7913831E-008 -6.5320839E-009 0.0
 -5.9131566E-008 -6.4742010E-009 0.0
 -6.0115156E-008 -6.3649992E-009 0.0
 -6.1115558E-008 -6.2331070E-009 0.0
  1.8684755E-051  1.8684755E-051 0.0
 -6.2341932E-010  1.6391383E-010 0.0
 -1.5483607E-009  1.7823082E-010 0.0
 -2.5303573E-009  3.0909367E-010 0.0
 -3.4721671E-009  4.1895686E-010 0.0
 -4.4301189E-009  5.0161485E-010 0.0
 -5.4258431E-009  5.6126727E-010 0.0
 -6.4684910E-009  6.0768130E-010 0.0
 -7.5545799E-009  6.4536091E-010 0.0
 -8.6763476E-009  6.7387092E-010 0.0
 -9.8248302E-009  6.8943296E-010 0.0
 -1.0991430E-008  6.8602441E-010 0.0
 -1.2168685E-008  6.5627737E-010 0.0
 -1.3350461E-008  5.9225578E-010 0.0
 -1.4531678E-008  4.8628292E-010 0.0
 -1.5706975E-008  3.3219031E-010 0.0
 -1.6869608E-008  1.2849960E-010 0.0
 -1.7995065E-008 -1.1052075E-010 0.0
 -1.9064233E-008 -2.9960691E-010 0.0
 -1.9411013E-008  4.4545536E-012 0.0
 -4.2088175E-008 -7.2710076E-009 0.0
 -4.1751952E-008 -5.1617372E-009 0.0
 -4.5365289E-008 -4.9408227E-009 0.0
 -4.8653138E-008 -4.8357969E-009 0.0
 -5.1563247E-008 -4.8222251E-009 0.0
 -5.4057571E-008 -4.8679396E-009 0.0
 -5.6140920E-008 -4.9254193E-009 0.0
 -5.7856461E-008 -4.9648834E-009 0.0
 -5.9241150E-008 -4.9706431E-009 0.0
 -6.0349883E-008 -4.9791638E-009 0.0
 -6.1172583E-008 -5.0933680E-009 0.0
  2.6424233E-051  2.6424233E-051 0.0
  1.5256038E-051  1.5256038E-051 0.0
 -1.2902268E-009  2.0033044E-010 0.0
 -2.2418239E-009  3.6949231E-010 0.0
 -3.1562621E-009  4.9156425E-010 0.0
 -4.0891523E-009  5.6429268E-010 0.0
 -5.0831868E-009  6.1969083E-010 0.0
 -6.1366917E-009  6.7332977E-010 0.0
 -7.2395989E-009  7.2816593E-010 0.0
 -8.3799424E-009  7.8156178E-010 0.0
 -9.5462114E-009  8.2741179E-010 0.0
 -1.0728661E-008  8.5743811E-010 0.0
 -1.1920044E-008  8.6190060E-010 0.0
 -1.3116022E-008  8.3017265E-010 0.0
 -1.4315179E-008  7.5101479E-010 0.0
 -1.5519340E-008  6.1238631E-010 0.0
 -1.6733055E-008  4.0017112E-010 0.0
 -1.7974389E-008  9.6099635E-011 0.0
 -1.9247455E-008 -3.5285655E-010 0.0
 -2.0901407E-008 -9.5104365E-010 0.0
 -3.7803777E-008 -5.4902991E-009 0.0
 -3.7506567E-008 -2.9479579E-009 0.0
 -4.1370282E-008 -2.7673079E-009 0.0
 -4.4955992E-008 -2.7034903E-009 0.0
 -4.8235749E-008 -2.7100270E-009 0.0
 -5.1177124E-008 -2.7708411E-009 0.0
 -5.3752208E-008 -2.8673276E-009 0.0
 -5.5969203E-008 -2.9804584E-009 0.0
 -5.7840558E-008 -3.0856620E-009 0.0
 -5.9377940E-008 -3.2018337E-009 0.0
 -6.0488939E-008 -3.3608941E-009 0.0
 -7.4543544E-035  1.8684755E-051 0.0
 -1.0764246E-009  3.0224005E-010 0.0
 -1.9881680E-009  5.2683631E-010 0.0
 -2.8056906E-009  6.0493351E-010 0.0
 -3.7214525E-009  6.4848974E-010 0.0
 -4.7274734E-009  7.0516582E-010 0.0
 -5.8045426E-009  7.7911395E-010 0.0
 -6.9351548E-009  8.6803575E-010 0.0
 -8.1029517E-009  9.6558173E-010 0.0
 -9.2939670E-009  1.0635841E-009 0.0
 -1.0497188E-008  1.1522251E-009 0.0
 -1.1705638E-008  1.2207660E-009 0.0
 -1.2916951E-008  1.2584134E-009 0.0
 -1.4133634E-008  1.2551041E-009 0.0
 -1.5363510E-008  1.2019385E-009 0.0
 -1.6623794E-008  1.0923533E-009 0.0
 -1.7947361E-008  9.2491230E-010 0.0
 -1.9443068E-008  7.4573831E-010 0.0
 -2.1529837E-008  6.5462393E-010 0.0
 -2.4866874E-008  5.6204428E-010 0.0
 -2.5158598E-008 -2.4315144E-009 0.0
 -2.8750422E-008  2.2549431E-010 0.0
 -2.8888197E-008 -3.1602556E-009 0.0
 -3.2856408E-008  1.0590161E-010 0.0
 -3.2877081E-008 -3.3928918E-009 0.0
 -3.7077431E-008 -3.2481205E-011 0.0
 -4.0952475E-008 -1.4488338E-010 0.0
 -4.4543556E-008 -2.3233412E-010 0.0
 -4.7865871E-008 -3.2911717E-010 0.0
 -5.0868801E-008 -4.3733655E-010 0.0
 -5.3525635E-008 -5.7066772E-010 0.0
 -5.5857504E-008 -7.1883000E-010 0.0
 -5.7888182E-008 -8.8005399E-010 0.0
 -5.9532862E-008 -1.0242856E-009 0.0
  2.1701921E-034 -1.0542049E-034 0.0
 -1.0960757E-009  6.7765342E-010 0.0
 -1.6286871E-009  7.1629139E-010 0.0
 -2.3933505E-009  6.7973383E-010 0.0
 -3.3282691E-009  7.1575468E-010 0.0
 -4.3675245E-009  7.9630304E-010 0.0
 -5.4843866E-009  9.1393767E-010 0.0
 -6.6550841E-009  1.0581300E-009 0.0
 -7.8610815E-009  1.2210776E-009 0.0
 -9.0857492E-009  1.3936093E-009 0.0
 -1.0316839E-008  1.5653117E-009 0.0
 -1.1548059E-008  1.7255590E-009 0.0
 -1.2780161E-008  1.8653277E-009 0.0
 -1.4021224E-008  1.9791663E-009 0.0
 -1.5287653E-008  2.0672771E-009 0.0
 -1.6609100E-008  2.1382623E-009 0.0
 -1.8049406E-008  2.2188673E-009 0.0
 -1.9763252E-008  2.3597139E-009 0.0
 -2.2038653E-008  2.5782576E-009 0.0
 -2.5068482E-008  2.7535132E-009 0.0
 -2.8693544E-008  2.8315137E-009 0.0
 -3.2637302E-008  2.7886013E-009 0.0
 -3.6643955E-008  2.6907067E-009 0.0
 -4.0512433E-008  2.5482461E-009 0.0
 -4.4155112E-008  2.4104746E-009 0.0
 -4.7555902E-008  2.2776263E-009 0.0
 -5.0659488E-008  2.1507491E-009 0.0
 -5.3371738E-008  2.0209917E-009 0.0
 -5.5822604E-008  1.8453457E-009 0.0
 -5.8023247E-008  1.7408686E-009 0.0
 -8.1738262E-010  8.4277590E-010 0.0
 -1.1178052E-009  6.1466698E-010 0.0
 -1.9507778E-009  6.4374211E-010 0.0
 -2.9291964E-009  7.3185625E-010 0.0
 -4.0238340E-009  8.8311613E-010 0.0
 -5.1915592E-009  1.0716194E-009 0.0
 -6.4149060E-009  1.2934884E-009 0.0
 -7.6705747E-009  1.5426401E-009 0.0
 -8.9387847E-009  1.8102077E-009 0.0
 -1.0205666E-008  2.0855782E-009 0.0
 -1.1465979E-008  2.3585672E-009 0.0
 -1.2725107E-008  2.6219774E-009 0.0
 -1.3999398E-008  2.8754222E-009 0.0
 -1.5315365E-008  3.1277142E-009 0.0
 -1.6714338E-008  3.3975169E-009 0.0
 -1.8270330E-008  3.7102188E-009 0.0
 -2.0114833E-008  4.0796660E-009 0.0
 -2.2419538E-008  4.4735453E-009 0.0
 -2.5302956E-008  4.8294460E-009 0.0
 -2.8713985E-008  5.0883700E-009 0.0
 -3.2455491E-008  5.2442553E-009 0.0
 -3.6322812E-008  5.2890369E-009 0.0
 -4.0159627E-008  5.2765570E-009 0.0
 -4.3842836E-008  5.2225482E-009 0.0
 -4.7331799E-008  5.1440615E-009 0.0
 -5.0564100E-008  5.0284804E-009 0.0
 -5.3255191E-008  4.7638122E-009 0.0
 -5.5911728E-008  4.7202595E-009 0.0
 -7.4543544E-035  1.8684755E-051 0.0
 -6.8509090E-010  3.3937650E-010 0.0
 -1.5058992E-009  4.8536392E-010 0.0
 -2.5739456E-009  7.2538938E-010 0.0
 -3.7118484E-009  9.7464271E-010 0.0
 -4.9412010E-009  1.2545113E-009 0.0
 -6.2296888E-009  1.5732575E-009 0.0
 -7.5468481E-009  1.9273053E-009 0.0
 -8.8680764E-009  2.3062433E-009 0.0
 -1.0177911E-008  2.6996029E-009 0.0
 -1.1471485E-008  3.0973008E-009 0.0
 -1.2759504E-008  3.4922916E-009 0.0
 -1.4070287E-008  3.8861761E-009 0.0
 -1.5442464E-008  4.2950532E-009 0.0
 -1.6919299E-008  4.7414680E-009 0.0
 -1.8562456E-008  5.2414657E-009 0.0
 -2.0461494E-008  5.7936567E-009 0.0
 -2.2725921E-008  6.3540728E-009 0.0
 -2.5483244E-008  6.8467950E-009 0.0
 -2.8777365E-008  7.2801574E-009 0.0
 -3.2397307E-008  7.6608168E-009 0.0
 -3.6118370E-008  7.9454515E-009 0.0
 -3.9973847E-008  8.1023066E-009 0.0
 -4.3677185E-008  8.2691150E-009 0.0
 -4.7264624E-008  8.3758442E-009 0.0
 -5.0574394E-008  8.3940532E-009 0.0
  2.6424233E-051  2.6424233E-051 0.0
  1.5256038E-051  1.5256038E-051 0.0
 -1.2141135E-009  4.0508626E-010 0.0
 -2.2476241E-009  7.5243348E-010 0.0
 -3.4372378E-009  1.0888044E-009 0.0
 -4.7441211E-009  1.4672705E-009 0.0
 -6.1152877E-009  1.9031500E-009 0.0
 -7.5032253E-009  2.3785745E-009 0.0
 -8.8844261E-009  2.8788327E-009 0.0
 -1.0242856E-008  3.3952518E-009 0.0
 -1.1570233E-008  3.9201544E-009 0.0
 -1.2879996E-008  4.4424986E-009 0.0
 -1.4217633E-008  4.9612189E-009 0.0
 -1.5644602E-008  5.4957394E-009 0.0
 -1.7196073E-008  6.0831481E-009 0.0
 -1.8894160E-008  6.7299782E-009 0.0
 -2.0815000E-008  7.4193692E-009 0.0
 -2.3024475E-008  8.1681925E-009 0.0
 -2.5582881E-008  8.8814203E-009 0.0
 -2.8887617E-008  9.4724991E-009 0.0
 -3.2546942E-008  1.0150842E-008 0.0
 -3.6026411E-008  1.0709082E-008 0.0
 -4.0054410E-008  1.1353534E-008 0.0
 -4.3554748E-008  1.1437390E-008 0.0
  1.8684755E-051  1.8684755E-051 0.0
 -8.9185434E-010  4.6852750E-010 0.0
 -1.9209731E-009  8.2424674E-010 0.0
 -3.1857803E-009  1.2100166E-009 0.0
 -4.6226037E-009  1.7173747E-009 0.0
 -6.0912488E-009  2.2996874E-009 0.0
 -7.5505081E-009  2.9141133E-009 0.0
 -8.9904764E-009  3.5355539E-009 0.0
 -1.0401721E-008  4.1643086E-009 0.0
 -1.1765156E-008  4.8054957E-009 0.0
 -1.3077284E-008  5.4471444E-009 0.0
 -1.4410526E-008  6.0628378E-009 0.0
 -1.5883058E-008  6.6856997E-009 0.0
 -1.7521805E-008  7.3603998E-009 0.0
 -1.9260251E-008  8.1231261E-009 0.0
 -2.1119127E-008  8.8972548E-009 0.0
 -2.3380662E-008  9.6741849E-009 0.0
 -2.5679576E-008  1.0658380E-008 0.0
 -2.9257513E-008  1.2233799E-008 0.0
 -3.2781119E-008  1.3005991E-008 0.0
 -3.5838405E-008  1.3070408E-008 0.0
  1.8684755E-051  1.8684755E-051 0.0
 -5.4863976E-010  5.1527704E-010 0.0
 -1.4968221E-009  7.9582145E-010 0.0
 -2.9913245E-009  1.3245687E-009 0.0
 -4.6237788E-009  2.0144739E-009 0.0
 -6.1925667E-009  2.8119555E-009 0.0
 -7.6880065E-009  3.5756620E-009 0.0
 -9.1775005E-009  4.2994241E-009 0.0
 -1.0641755E-008  5.0155910E-009 0.0
 -1.2045607E-008  5.7265722E-009 0.0
 -1.3357816E-008  6.4542941E-009 0.0
 -1.4605418E-008  7.1790800E-009 0.0
 -1.6117463E-008  7.8451389E-009 0.0
 -1.7869591E-008  8.5966881E-009 0.0
 -1.9654799E-008  9.3479725E-009 0.0
 -2.1301474E-008  1.0104722E-008 0.0
 -2.3788030E-008  1.1167402E-008 0.0
 -2.5420735E-008  1.1209210E-008 0.0
  2.6424233E-051  2.6424233E-051 0.0
  1.5256038E-051  1.5256038E-051 0.0
 -1.0138522E-009  7.6048844E-010 0.0
 -2.8940472E-009  1.3367348E-009 0.0
 -4.9222711E-009  2.4914962E-009 0.0
 -6.4079615E-009  3.5379297E-009 0.0
 -7.8996087E-009  4.3887076E-009 0.0
 -9.4470318E-009  5.2440590E-009 0.0
 -1.0924681E-008  6.0062396E-009 0.0
 -1.2354465E-008  6.6869804E-009 0.0
 -1.3689465E-008  7.3420919E-009 0.0
 -1.4790889E-008  8.0240055E-009 0.0
 -1.6475132E-008  9.2084230E-009 0.0
 -1.8175644E-008  1.0059888E-008 0.0
 -1.9942164E-008  1.0586491E-008 0.0
 -2.1157923E-008  1.0567198E-008 0.0
  2.6424233E-051 -1.0542049E-034 0.0
  1.5256038E-051  1.5256038E-051 0.0
 -3.5100345E-009  2.0997038E-009 0.0
 -5.4092316E-009  3.3487801E-009 0.0
 -6.6818468E-009  4.2304445E-009 0.0
 -8.2841727E-009  5.5520588E-009 0.0
 -9.7674783E-009  6.5039111E-009 0.0
 -1.1209539E-008  7.2535901E-009 0.0
 -1.2601075E-008  7.8429741E-009 0.0
 -1.3920144E-008  8.2107184E-009 0.0
 -1.4698813E-008  8.1604640E-009 0.0
 -1.7752793E-010  5.2237073E-009 0.0
 -3.8595859E-009  4.6641854E-009 0.0
 -5.7063456E-009  4.6173567E-009 0.0
 -6.6352089E-009  4.4801484E-009 0.0
SCALARS Stress_xx double
LOOKUP_TABLE default
  2.6265593E+004
  7.3174189E+004
 -1.4818605E+004
 -3.6732597E+004
 -1.5700771E+004
 -5.1713694E+003
 -1.6339584E+004
 -5.0683546E+003
 -1.5897274E+004
 -3.6744803E+004
  7.1175739E+004
  2.8757578E+004
 -2.2773292E+003
  6.2583871E+003
  2.9657582E+003
  1.2693938E+003
  2.4513724E+003
 -9.3480330E+002
  1.5725604E+003
 -9.0209555E+001
  1.2229916E+003
  4.0625459E+002
  9.1830598E+002
  1.0694246E+003
  6.8430352E+002
  1.7301472E+003
  4.5452793E+002
  2.5104960E+003
  5.1415008E+002
  3.2272407E+003
  4.8401346E+002
  4.8935420E+003
  3.6062126E+003
  6.1862347E+003
  2.1824453E+003
  1.8776249E+004
  1.5663101E+004
 -2.4869323E+004
 -3.1450188E+004
 -3.3285086E+004
 -2.9879393E+004
  7.6253783E+003
 -6.7463385E+003
  1.2355241E+004
 -4.6456396E+003
 -3.4013045E+004
  8.3658249E+004
  4.4983859E+004
  1.5026469E+004
  7.9118916E+003
  5.5824344E+003
  4.3659655E+003
  3.8094740E+003
  3.4779297E+003
  3.2594183E+003
  3.1702647E+003
  3.2280764E+003
  4.2191252E+003
  5.4880589E+003
  1.3983991E+004
  2.7471843E+003
 -2.2491583E+004
 -3.8713903E+004
 -4.2669231E+004
 -3.3784237E+004
 -1.5470351E+004
 -9.3509620E+003
 -1.4172472E+004
  2.7356855E+004
  9.2613566E+003
  2.9864674E+003
  9.8725505E+004
  2.6533621E+004
  1.0867737E+003
  6.2595960E+003
  1.7553420E+004
  1.2964264E+004
  1.0514074E+004
  8.7248469E+003
  7.6373320E+003
  6.8080992E+003
  6.1224466E+003
  5.4875131E+003
  4.9632405E+003
  4.3555945E+003
  4.2108953E+003
 -1.5324429E+003
 -1.2066999E+004
 -2.8200799E+004
 -4.3018121E+004
 -4.9444046E+004
 -4.6936225E+004
 -4.0863665E+004
 -3.4628191E+004
 -1.8759700E+004
  1.0977010E+003
  2.8984390E+004
  4.7077345E+004
  1.6691025E+005
 -1.8294549E+004
  3.9908398E+004
  2.0906676E+004
  1.8929638E+004
  1.5770033E+004
  1.3941466E+004
  1.2306030E+004
  1.0933097E+004
  9.6408283E+003
  8.2826468E+003
  6.5723869E+003
  4.1813227E+003
 -3.6671164E+002
 -7.7613428E+003
 -2.0212921E+004
 -3.5550475E+004
 -4.9349196E+004
 -5.8294135E+004
 -6.1201120E+004
 -5.8736568E+004
 -5.1960981E+004
 -4.0489191E+004
 -2.3633832E+004
  5.9055158E+003
  6.0334764E+004
  3.4869083E+005
  4.7029098E+004
  2.7551327E+004
  2.4279781E+004
  2.1968656E+004
  1.9689920E+004
  1.7441541E+004
  1.5359058E+004
  1.3349126E+004
  1.1106233E+004
  8.1440758E+003
  3.6742880E+003
 -3.1280557E+003
 -1.3390261E+004
 -2.6844612E+004
 -4.2250417E+004
 -5.7058770E+004
 -6.8493442E+004
 -7.4874907E+004
 -7.5653196E+004
 -7.0528390E+004
 -5.8800507E+004
 -3.9691933E+004
 -7.9583410E+003
  4.3340209E+004
  1.3025220E+005
  2.2662803E+004
 -4.8074108E+004
  1.7632244E+005
  9.1302662E+004
 -7.5928281E+003
  1.3719124E+004
  2.7767263E+004
  3.2860969E+004
  3.1047062E+004
  2.8799035E+004
  2.5728063E+004
  2.2600732E+004
  1.9763115E+004
  1.7112406E+004
  1.4165807E+004
  1.0201801E+004
  4.3868009E+003
 -4.1676955E+003
 -1.5959199E+004
 -3.0941941E+004
 -4.7898796E+004
 -6.4702138E+004
 -7.8893496E+004
 -8.8277247E+004
 -9.1231761E+004
 -8.6722882E+004
 -7.3869275E+004
 -5.1133896E+004
 -1.4902081E+004
  4.0241123E+004
  8.6660217E+004
  7.7376177E+004
  8.3003123E+004
  2.2199178E+004
 -1.9237134E+004
  1.3008562E+005
  6.3500201E+004
  2.4361946E+004
  3.1847050E+004
  3.8434059E+004
  3.9058849E+004
  3.5918616E+004
  3.1483392E+004
  2.7217860E+004
  2.3750673E+004
  2.0765357E+004
  1.7512521E+004
  1.3092065E+004
  6.5562573E+003
 -2.9510116E+003
 -1.6023918E+004
 -3.2597299E+004
 -5.1730153E+004
 -7.1436017E+004
 -8.8981104E+004
 -1.0139780E+005
 -1.0627716E+005
 -1.0201188E+005
 -8.7346033E+004
 -6.1566242E+004
 -2.4384987E+004
  1.7609734E+004
  4.8819465E+004
  6.9377316E+004
  8.4074680E+004
  6.9089491E+004
  7.1035714E+004
  2.2610177E+004
 -5.4603530E+003
  7.8730053E+004
  3.8184832E+004
 -6.2487959E+003
 -5.6668951E+003
  1.5051783E+004
  3.3067847E+004
  4.4049623E+004
  4.7267294E+004
  4.2640855E+004
  3.5940000E+004
  3.0606795E+004
  2.6985166E+004
  2.4189846E+004
  2.1165378E+004
  1.6870364E+004
  1.0299774E+004
  5.0220815E+002
 -1.3281871E+004
 -3.1368327E+004
 -5.3133448E+004
 -7.6650827E+004
 -9.8458034E+004
 -1.1463778E+005
 -1.2162957E+005
 -1.1724419E+005
 -1.0155851E+005
 -7.4225170E+004
 -3.8060897E+004
  8.3167264E+002
  3.6029466E+004
  6.0556802E+004
  7.0997659E+004
  7.7418304E+004
  8.0879559E+004
  6.4406272E+004
  5.2862345E+004
  1.9544927E+004
  4.3843224E+003
  2.9274423E+004
  1.3821131E+004
  1.2571410E+003
  8.2301482E+003
  3.4585314E+004
  5.7800781E+004
  5.7828412E+004
  4.7296358E+004
  3.7813049E+004
  3.2340421E+004
  2.9390019E+004
  2.7378502E+004
  2.5053183E+004
  2.1371901E+004
  1.5348805E+004
  5.9698675E+003
 -7.8173766E+003
 -2.6902590E+004
 -5.1469804E+004
 -7.9687700E+004
 -1.0741388E+005
 -1.2791131E+005
 -1.3674085E+005
 -1.3342731E+005
 -1.1593951E+005
 -8.8056484E+004
 -5.1668101E+004
 -1.1926721E+004
  2.3782192E+004
  5.1348022E+004
  7.0368199E+004
  7.9954502E+004
  8.0043154E+004
  7.6087180E+004
  6.9433555E+004
  5.0782331E+004
  3.0435324E+004
  1.0919051E+004
  6.6959371E+003
  1.1314122E+003
 -6.8134762E+003
  8.8258531E+003
  2.6808658E+004
  6.6007951E+004
  6.6081091E+004
  4.7012130E+004
  3.6829902E+004
  3.2892249E+004
  3.1384278E+004
  3.0489365E+004
  2.9041630E+004
  2.6185296E+004
  2.1076250E+004
  1.2724517E+004
 -1.2823643E+002
 -1.9121906E+004
 -4.5815912E+004
 -8.0087425E+004
 -1.1554385E+005
 -1.4353939E+005
 -1.5429046E+005
 -1.4585560E+005
 -1.3188870E+005
 -1.0277341E+005
 -6.3000813E+004
 -2.1346058E+004
  1.6569032E+004
  4.6006982E+004
  6.6442962E+004
  7.9221605E+004
  8.5536776E+004
  8.4853968E+004
  7.6795549E+004
  6.4050796E+004
  4.8516628E+004
  2.8432830E+004
  6.6731365E+003
 -1.7824386E+004
 -1.6715590E+004
 -1.4476593E+004
  1.5236703E+005
  7.4119282E+004
  4.1835404E+004
  3.5692009E+004
  3.3778723E+004
  3.3822428E+004
  3.3732935E+004
  3.2880983E+004
  3.0652983E+004
  2.6437600E+004
  1.9404145E+004
  8.2783330E+003
 -8.9286438E+003
 -3.5638058E+004
 -7.5404668E+004
 -1.2527196E+005
 -1.5757730E+005
 -1.5949757E+005
 -1.5793772E+005
 -1.3398869E+005
 -1.1295844E+005
 -7.4478597E+004
 -2.6325905E+004
  1.2507169E+004
  4.1448473E+004
  6.2513543E+004
  7.7261706E+004
  8.6605151E+004
  9.0115975E+004
  8.7296365E+004
  7.7418596E+004
  6.1325780E+004
  4.1083228E+004
  1.6514816E+004
 -8.0616272E+003
 -4.3022287E+004
 -2.0512163E+004
  1.9406367E+005
  4.6855587E+004
  4.3528917E+004
  3.6415440E+004
  3.7207123E+004
  3.7218352E+004
  3.7144119E+004
  3.6131307E+004
  3.3940220E+004
  3.0119509E+004
  2.4060124E+004
  1.4763264E+004
  3.0830275E+002
 -2.2793999E+004
 -6.3013748E+004
 -1.3153190E+005
 -2.0430847E+005
 -1.8810156E+005
 -1.1594724E+005
 -1.5536769E+005
 -1.4372119E+005
 -7.2492750E+004
 -2.4218256E+004
  8.9050834E+003
  3.5191699E+004
  5.4857158E+004
  7.1228843E+004
  8.4988020E+004
  9.3909992E+004
  9.5312325E+004
  8.8865271E+004
  7.5006393E+004
  5.4222607E+004
  2.7798421E+004
 -4.8165393E+003
 -3.3707716E+004
 -6.8180666E+004
  3.4518467E+003
  8.0457700E+004
  6.0659245E+004
  4.4801354E+004
  4.3942958E+004
  4.2343770E+004
  4.1531231E+004
  4.0197295E+004
  3.8213553E+004
  3.5227851E+004
  3.0913830E+004
  2.4787999E+004
  1.6117774E+004
  3.3982066E+003
 -1.6065690E+004
 -5.0733976E+004
 -1.1698857E+005
 -2.4307542E+005
 -6.9735194E+004
 -7.2709514E+004
 -5.4011120E+004
 -1.5167142E+005
 -5.9691176E+004
 -4.1760591E+004
 -1.5388268E+003
  2.9706680E+004
  4.0506154E+004
  5.7842743E+004
  7.9666490E+004
  9.5373134E+004
  1.0216635E+005
  9.9403476E+004
  8.7549871E+004
  6.7231043E+004
  3.9983346E+004
  3.5358475E+003
 -3.6527635E+004
 -1.5461518E+005
 -6.9243622E+004
  5.0655811E+004
  5.1291995E+004
  5.1076853E+004
  4.7855263E+004
  4.5175061E+004
  4.2102525E+004
  3.8514495E+004
  3.4018969E+004
  2.8252450E+004
  2.0671172E+004
  1.0621548E+004
 -3.7355478E+003
 -2.3716885E+004
 -6.4254679E+004
 -1.3289500E+005
 -5.8245840E+005
 -4.3472058E+004
 -2.4375498E+004
 -6.8271054E+004
 -3.6036749E+005
 -1.4144764E+003
 -9.9717749E+004
  1.9818978E+004
  5.4171695E+003
  1.9320813E+003
  3.6471099E+004
  7.1818818E+004
  9.4021334E+004
  1.0641156E+005
  1.0861120E+005
  9.9066519E+004
  7.9715923E+004
  5.1518733E+004
  1.6197539E+004
 -3.5755383E+004
 -7.5494687E+004
 -1.5436321E+005
  2.9161270E+004
 -2.0868942E+003
 -1.4777476E+004
  4.0162567E+003
  2.2601215E+004
 -4.6204005E+003
  1.4751672E+004
 -2.1611734E+003
 -9.8940200E+003
  3.0897911E+004
  1.6879038E+004
 -4.9675479E+004
 -1.0103377E+005
  2.7193087E+003
  4.6421372E+004
  1.6062701E+003
 -2.0536461E+004
 -1.6115859E+004
  4.1917221E+004
  5.3087442E+004
  5.3863941E+004
  5.0634775E+004
  4.6631736E+004
  4.2013278E+004
  3.6708312E+004
  3.0367772E+004
  2.2553366E+004
  1.2555452E+004
 -4.0067500E+002
 -1.8862062E+004
 -4.2987274E+004
 -9.1070733E+004
 -1.3320682E+005
 -3.0108904E+005
 -1.6096258E+005
  1.1264691E+005
 -2.8724375E+005
  1.0601357E+004
  5.9508131E+003
 -5.8590384E+004
  2.6547626E+004
  5.6550191E+004
  8.4295372E+004
  1.0985655E+005
  1.1649781E+005
  1.0883588E+005
  9.0210816E+004
  6.2500851E+004
  2.5546967E+004
 -2.3258385E+004
 -8.7105154E+004
 -2.6077932E+005
 -1.0131669E+004
 -1.1530695E+003
 -2.9854055E+004
 -8.6985854E+003
 -1.6817208E+003
 -3.2971919E+003
  9.8425535E+003
  1.9819732E+003
  9.7626150E+003
  3.5401920E+003
  4.7248803E+003
  6.0605079E+003
  8.3277665E+003
 -6.7067629E+004
 -1.4208420E+005
  3.5540675E+003
  4.6242296E+004
 -2.9989479E+004
  8.9422952E+003
 -6.1530471E+003
  1.3710321E+003
  2.9104514E+004
  4.7131327E+004
  5.1023993E+004
  4.9324787E+004
  4.5124888E+004
  3.9596836E+004
  3.2923756E+004
  2.4912194E+004
  1.5097292E+004
  2.8307068E+003
 -1.3134505E+004
 -3.3682647E+004
 -6.3876379E+004
 -9.6221021E+004
 -1.6635169E+005
 -2.5553604E+004
 -1.7964960E+005
  1.1527612E+005
  6.6042548E+003
 -2.0688673E+005
  1.5382544E+004
  5.6002946E+003
  7.7351409E+004
  1.0855264E+005
  1.2214950E+005
  1.1651540E+005
  9.8154646E+004
  7.1399923E+004
  3.5702347E+004
 -8.2807427E+003
 -7.0903156E+004
 -1.2045731E+005
 -1.8395197E+005
 -5.3738927E+004
 -4.7642305E+004
 -2.7953018E+004
 -2.0841540E+004
 -1.3161285E+004
 -3.3446348E+003
  5.5847124E+003
  9.7307016E+003
  8.4674341E+003
  7.8524909E+003
  5.6823686E+003
  4.6802533E+003
  7.2710189E+003
  7.4224919E+003
  1.0430404E+004
  3.2820995E+004
 -5.1131894E+004
 -1.0469462E+004
 -7.7676027E+004
 -2.1191086E+005
  4.8805334E+003
  7.4838648E+004
 -4.3541368E+004
 -7.4403632E+003
 -8.5312263E+003
  1.4936334E+003
  1.0754777E+004
  1.6248381E+004
  2.7869734E+004
  3.9847551E+004
  4.5163026E+004
  4.4743045E+004
  4.1004839E+004
  3.5183373E+004
  2.7729742E+004
  1.8619559E+004
  7.5468894E+003
 -6.0267561E+003
 -2.2706462E+004
 -4.3313238E+004
 -6.6485459E+004
 -9.0186571E+004
 -7.2212136E+004
  4.0655885E+003
 -1.5618522E+005
  9.6266280E+004
 -7.6863131E+004
  5.7330596E+004
  1.1513980E+005
  1.3117807E+005
  1.2045305E+005
  1.0380441E+005
  7.8766567E+004
  4.5451138E+004
  1.8005308E+003
 -5.1008630E+004
 -1.1162426E+005
 -1.3059352E+005
 -2.1714499E+005
  5.3026947E+003
  1.0884047E+003
 -2.7373800E+004
 -5.4793799E+004
 -3.6294778E+004
 -3.0708647E+004
 -2.0736722E+004
 -1.0976659E+004
 -1.3946167E+003
  5.3396066E+003
  1.0531542E+004
  1.1732982E+004
  1.3024916E+004
  1.6973828E+004
  1.7974007E+004
 -1.0538052E+004
 -2.7338128E+003
 -1.3466031E+004
 -2.9023061E+003
 -4.1321226E+003
  3.6411536E+002
 -4.3300424E+003
  1.1308364E+003
 -4.1432157E+003
  1.6641892E+003
 -4.6768729E+003
  1.6908266E+003
 -5.1122682E+003
  1.5229732E+003
 -5.5952514E+003
  1.3708477E+003
 -6.0729896E+003
  1.4494466E+003
 -6.5685241E+003
  1.7071443E+003
 -7.0579940E+003
  1.9034265E+003
 -7.4931938E+003
  1.7691926E+003
 -8.0470875E+003
  1.2295716E+002
 -8.2294006E+003
 -2.4774477E+003
 -1.0670767E+004
 -1.5597682E+004
 -1.2458945E+004
 -2.0959645E+004
 -4.4551179E+004
 -7.7192058E+004
 -1.9269019E+004
 -2.1216374E+004
 -5.9071071E+003
  3.9620750E+003
  8.6448301E+003
  1.3507001E+004
  2.0045780E+004
  2.7920417E+004
  3.4814453E+004
  3.8682549E+004
  3.8591348E+004
  3.5261274E+004
  2.9542798E+004
  2.1900450E+004
  1.2467263E+004
  1.1598266E+003
 -1.2155450E+004
 -2.7514240E+004
 -4.3957900E+004
 -5.9332525E+004
 -6.1973428E+004
 -4.5032326E+004
  2.8502890E+004
 -4.8058333E+004
  3.7239412E+004
  1.1046075E+005
  1.2478297E+005
  1.2368854E+005
  1.0992085E+005
  8.5889443E+004
  5.4443546E+004
  1.5435701E+004
 -2.7566304E+004
 -7.5294671E+004
 -1.3525204E+005
 -4.4720682E+005
 -4.0700537E+004
 -4.5543275E+004
 -4.9697566E+004
 -4.0805772E+004
 -3.1556257E+004
 -1.9217154E+004
 -7.4490199E+003
  2.2439779E+003
  8.6391625E+003
  1.3035189E+004
  1.6110018E+004
  1.7182748E+004
  1.1696455E+004
 -4.2503508E+003
 -1.2239422E+004
 -4.2178837E+003
 -1.6548670E+003
  3.5423045E+002
  9.8446788E+002
  6.6369741E+002
 -2.3720597E+002
 -1.0440017E+003
 -1.3622226E+003
 -1.0674730E+003
 -7.8990268E+002
 -1.6034544E+003
 -4.4840194E+003
 -1.2644413E+004
 -2.5828723E+004
 -6.5962212E+004
 -6.7256367E+004
 -3.0616996E+004
 -1.0698898E+004
 -3.1439562E+003
  4.5851330E+003
  1.0697867E+004
  1.5709923E+004
  2.0753560E+004
  2.5881181E+004
  3.0250721E+004
  3.2496167E+004
  3.2040345E+004
  2.8910553E+004
  2.3494490E+004
  1.6154759E+004
  7.1233224E+003
 -3.4324723E+003
 -1.5261538E+004
 -2.7691278E+004
 -3.9221387E+004
 -4.6036080E+004
 -4.3330703E+004
 -2.3462570E+004
  6.2829220E+003
  2.2315065E+004
  1.2676955E+004
 -4.7319679E+004
  2.3237426E+005
  1.5380973E+005
  1.3891308E+005
  1.1738628E+005
  9.4184304E+004
  6.4325570E+004
  2.7742736E+004
 -1.3196607E+004
 -5.8993324E+004
 -1.1653649E+005
 -1.8730870E+005
 -4.5996638E+004
 -1.0662452E+004
 -2.9216686E+004
 -9.8365137E+003
 -1.0402193E+004
 -9.5923463E+002
 -7.0757583E+003
 -4.8418518E+002
 -4.5644515E+003
  4.8430762E+001
 -3.6731232E+003
  3.2650823E+002
 -3.0252460E+003
  5.1084780E+002
 -2.5626115E+003
  5.6470477E+002
 -2.1167617E+003
  5.1174062E+002
 -1.5924953E+003
 -1.7379595E+002
  3.6424358E+002
  4.6316570E+002
 -5.3405573E+004
 -5.1743759E+004
 -5.4298480E+004
 -5.4658622E+004
 -4.2318566E+004
 -2.7525928E+004
 -1.3387435E+004
 -1.9524975E+003
  6.5052126E+003
  1.2020341E+004
  1.4913337E+004
  1.4511559E+004
  8.9019856E+003
  1.7531728E+003
 -2.3545069E+003
 -3.4784874E+003
 -2.1238724E+002
  2.1949637E+003
  3.3841438E+003
  2.7890389E+003
  7.1482704E+002
 -1.2994838E+003
 -1.6063291E+003
 -9.0519661E+002
 -8.2888074E+001
 -5.9024304E+002
 -4.7661449E+003
 -1.3558656E+004
 -2.9953670E+004
 -3.9206903E+004
 -4.1528894E+004
 -3.1183195E+004
 -1.5028402E+004
 -3.5376204E+003
  3.8797596E+003
  9.6748871E+003
  1.4470977E+004
  1.8744581E+004
  2.2546170E+004
  2.5335890E+004
  2.6520701E+004
  2.5648253E+004
  2.2641116E+004
  1.7660444E+004
  1.0974366E+004
  2.8780623E+003
 -6.2737909E+003
 -1.5927247E+004
 -2.5114384E+004
 -3.2058583E+004
 -3.4212388E+004
 -2.8252051E+004
 -1.3175138E+004
  5.1405672E+003
  1.5538610E+004
  1.8228340E+004
  2.2968401E+003
  7.5009281E+004
  1.4791802E+005
  1.4497969E+005
  1.2848680E+005
  1.0679013E+005
  7.5501105E+004
  3.7536282E+004
 -5.2082770E+003
 -5.3987094E+004
 -1.1277872E+005
 -1.5259454E+005
 -1.1611546E+005
 -4.8402639E+004
 -2.9132203E+004
 -1.7639122E+004
 -1.2756002E+004
 -9.8433042E+003
 -8.0246471E+003
 -6.5863470E+003
 -5.2727981E+003
 -3.9343582E+003
 -1.9346550E+003
 -1.0276592E+003
  3.2615866E+002
 -3.1071339E+002
 -1.3371291E+002
  1.1006707E+003
  8.1656850E+002
 -6.2799229E+004
 -5.4817456E+004
 -7.6350489E+004
 -6.8341294E+004
 -5.2318998E+004
 -3.3911426E+004
 -1.7917027E+004
 -5.4220013E+003
  3.5925797E+003
  9.4464907E+003
  1.2145740E+004
  1.1418862E+004
  7.9218234E+003
  2.9311195E+003
 -5.5428303E+002
 -5.5440385E+002
  1.4160679E+003
  4.7134476E+003
  6.8920322E+003
  5.5935803E+003
  1.5043962E+003
 -1.8651809E+003
 -3.3995476E+003
 -1.7307941E+003
  3.2133979E+002
  2.5965972E+002
 -2.7989284E+003
 -1.1085645E+004
 -2.0573623E+004
 -2.9698096E+004
 -3.0804585E+004
 -2.4081618E+004
 -1.4916102E+004
 -5.9183668E+003
  1.3201021E+003
  6.9645519E+003
  1.1555191E+004
  1.5329848E+004
  1.8288370E+004
  2.0213289E+004
  2.0750100E+004
  1.9649519E+004
  1.6832236E+004
  1.2399736E+004
  6.5809235E+003
 -2.9278423E+002
 -7.7598975E+003
 -1.5144923E+004
 -2.1425403E+004
 -2.5178620E+004
 -2.4665864E+004
 -1.8627708E+004
 -7.8494391E+003
  4.4257863E+003
  1.4239130E+004
  3.0280522E+004
 -4.2973351E+004
  3.1561753E+005
  1.6530634E+005
  1.4757120E+005
  1.2404222E+005
  8.9282324E+004
  4.6810165E+004
  1.9981403E+003
 -4.4863712E+004
 -8.6704501E+004
 -1.0445207E+005
 -9.2923965E+004
 -7.0811181E+004
 -4.5190965E+004
 -3.2043311E+004
 -2.4012009E+004
 -1.9249061E+004
 -1.5891682E+004
 -1.3093927E+004
 -1.0354061E+004
 -7.4217588E+003
 -4.5204635E+003
 -2.1931149E+003
 -6.8673428E+002
  6.6161361E+002
  1.0392613E+003
  3.3789150E+002
 -8.3427145E+004
 -3.3390532E+004
 -9.1243213E+004
 -8.0004980E+004
 -5.8429527E+004
 -3.6881580E+004
 -2.0662637E+004
 -8.5118344E+003
  3.9034073E+002
  6.2055369E+003
  8.8868061E+003
  8.6548478E+003
  6.1525603E+003
  2.9552772E+003
  6.9483866E+002
  4.6405884E+002
  2.9084710E+003
  7.3163863E+003
  1.2345196E+004
  1.2693960E+004
  3.6740918E+003
 -5.7878984E+003
 -3.3115892E+003
 -9.8523945E+002
  1.1754437E+003
  5.4853615E+003
  3.6480868E+003
 -4.1666231E+003
 -1.3194103E+004
 -1.7272276E+004
 -1.9363599E+004
 -1.8241600E+004
 -1.3449658E+004
 -7.2525856E+003
 -1.3402251E+003
  3.7257093E+003
  7.9221492E+003
  1.1276151E+004
  1.3733682E+004
  1.5148851E+004
  1.5349417E+004
  1.4200394E+004
  1.1674641E+004
  7.8692231E+003
  3.0054040E+003
 -2.5725479E+003
 -8.3778988E+003
 -1.3741597E+004
 -1.7786003E+004
 -1.9463228E+004
 -1.7797886E+004
 -1.2402911E+004
 -3.9881535E+003
  5.2761468E+003
  1.3005758E+004
  1.4821738E+004
  4.4813843E+003
 -4.6636779E+003
  9.5309483E+004
  1.5810522E+005
  1.8412784E+005
  1.5171150E+005
  1.0263852E+005
  5.7262181E+004
  1.3070340E+004
 -2.9255331E+004
 -6.3618486E+004
 -8.3372396E+004
 -8.3828040E+004
 -7.0571720E+004
 -5.6262657E+004
 -4.3626391E+004
 -3.5175933E+004
 -2.9257073E+004
 -2.4736946E+004
 -2.0611643E+004
 -1.6318979E+004
 -1.1764351E+004
 -7.3853509E+003
 -3.8235035E+003
 -1.1612134E+003
  6.0180137E+002
  2.6209986E+003
  5.3740423E+004
 -7.5322622E+004
 -1.2850745E+005
 -8.7180097E+004
 -5.7553810E+004
 -3.5995960E+004
 -2.2889343E+004
 -1.2117266E+004
 -3.5127846E+003
  2.4708763E+003
  5.3974928E+003
  5.5566191E+003
  3.8359042E+003
  1.4379890E+003
 -2.5798953E+002
 -6.5604355E+001
  2.6710434E+003
  8.4151866E+003
  1.6549708E+004
  2.4878442E+004
  6.0805658E+003
 -2.0448519E+003
 -4.3334692E+003
 -2.6849671E+003
 -1.0349959E+003
 -1.2199442E+003
  8.8390020E+003
 -4.3472599E+003
 -1.8192805E+003
 -3.8062097E+003
 -1.1048285E+004
 -1.3461558E+004
 -1.1049884E+004
 -7.4548562E+003
 -3.3272432E+003
  8.4730898E+002
  4.4778328E+003
  7.3654589E+003
  9.4092289E+003
  1.0490943E+004
  1.0516839E+004
  9.4379609E+003
  7.2672134E+003
  4.1112745E+003
  1.8571367E+002
 -4.1762568E+003
 -8.5166698E+003
 -1.2250898E+004
 -1.4689384E+004
 -1.5124592E+004
 -1.3021458E+004
 -8.2642312E+003
 -1.4220100E+003
  6.5203398E+003
  1.3558702E+004
  1.5504069E+004
  1.4178418E+004
  1.7413884E+004
  1.7967708E+005
  1.9193845E+005
  1.6098211E+005
  1.1503086E+005
  7.1843869E+004
  2.7889969E+004
 -1.1583652E+004
 -4.3449143E+004
 -6.3428245E+004
 -7.0610324E+004
 -6.8058968E+004
 -6.0021070E+004
 -5.1560495E+004
 -4.4280791E+004
 -3.8575400E+004
 -3.3660316E+004
 -2.8618294E+004
 -2.2794073E+004
 -1.6342862E+004
 -1.0032120E+004
 -4.8302890E+003
 -1.5273996E+003
  5.6893849E+002
  2.8573875E+003
 -1.6531827E+005
 -1.5703018E+005
 -8.0975523E+004
 -4.9292811E+004
 -3.6916781E+004
 -2.8209087E+004
 -1.8331762E+004
 -8.6869277E+003
 -1.8628568E+003
  1.4995192E+003
  2.0309548E+003
  7.6172506E+002
 -1.1293793E+003
 -2.4691974E+003
 -2.1251485E+003
  7.4622811E+002
  7.5564214E+003
  1.7048338E+004
  3.7056639E+004
  2.5833940E+004
 -1.2888063E+004
  6.5411509E+003
  5.9647957E+003
  8.1649290E+003
  1.2124699E+004
  3.3387739E+004
 -3.9044193E+003
 -4.5557020E+003
  5.9862889E+003
 -6.5945358E+003
 -6.2931307E+003
 -7.9259934E+003
 -7.0909949E+003
 -3.9533119E+003
 -9.6056013E+002
  1.7877451E+003
  4.1628358E+003
  5.7774182E+003
  6.5387082E+003
  6.4425340E+003
  5.4740878E+003
  3.6660434E+003
  1.1216057E+003
 -1.9603483E+003
 -5.2744907E+003
 -8.4188114E+003
 -1.0915429E+004
 -1.2252660E+004
 -1.1964952E+004
 -9.7506162E+003
 -5.6016769E+003
  1.6676820E+002
  6.9109411E+003
  1.3578715E+004
  1.4577785E+004
  4.2423648E+003
  2.5641606E+004
  3.9913222E+005
  2.0251682E+005
  1.4210823E+005
  8.9648574E+004
  4.5969581E+004
  7.1282307E+003
 -2.5165919E+004
 -4.7758693E+004
 -5.9655203E+004
 -6.2612438E+004
 -6.0224975E+004
 -5.5487658E+004
 -5.0583692E+004
 -4.6168286E+004
 -4.1861215E+004
 -3.6651366E+004
 -2.9634078E+004
 -2.0643724E+004
 -1.1489697E+004
 -4.9227193E+003
 -9.5984251E+002
  5.2238191E+002
  2.2073293E+003
 -1.9694123E+005
 -1.6806500E+005
 -6.5689923E+004
 -4.2830673E+004
 -4.5350232E+004
 -4.2489443E+004
 -2.8457460E+004
 -1.5115312E+004
 -6.8796387E+003
 -3.0207123E+003
 -2.1209223E+003
 -2.9915192E+003
 -4.5034987E+003
 -5.5501277E+003
 -5.0567422E+003
 -1.8237766E+003
  5.1846952E+003
  1.9081137E+004
  4.0723955E+004
  1.1874470E+005
  2.0043259E+004
 -6.7784042E+003
  1.2595750E+004
  4.0660303E+004
 -6.9249460E+003
  2.5163172E+003
 -5.6836164E+003
 -3.2196640E+003
 -3.1803151E+003
 -1.8697065E+003
  5.1050898E+002
  2.1462631E+003
  3.1329367E+003
  3.5357158E+003
  3.2698526E+003
  2.3880572E+003
  9.0856599E+002
 -1.1127429E+003
 -3.4983254E+003
 -5.9738160E+003
 -8.1977460E+003
 -9.7934651E+003
 -1.0391565E+004
 -9.6879540E+003
 -7.5102391E+003
 -3.8777560E+003
  1.0452743E+003
  6.9450090E+003
  1.4589207E+004
  2.9033786E+004
 -4.7694453E+003
  1.7503871E+005
  1.8625509E+005
  1.5970369E+005
  1.1024713E+005
  6.8230701E+004
  2.6502183E+004
 -8.6589175E+003
 -3.4208067E+004
 -4.9452346E+004
 -5.6347543E+004
 -5.7679043E+004
 -5.6218003E+004
 -5.3849513E+004
 -5.1499098E+004
 -4.8896780E+004
 -4.4307201E+004
 -3.5746350E+004
 -2.4204697E+004
 -1.2506622E+004
 -2.4574512E+003
 -7.6979860E+002
  3.2164433E+002
  8.7527104E+002
 -4.7828905E+005
 -2.7904738E+005
 -5.3436352E+004
 -6.3317267E+004
 -8.7092935E+004
 -6.8815616E+004
 -3.9598683E+004
 -2.2112239E+004
 -1.2910004E+004
 -8.4625969E+003
 -7.0306657E+003
 -7.3478289E+003
 -8.3468168E+003
 -8.9624690E+003
 -8.0829590E+003
 -4.2996159E+003
  3.9407342E+003
  2.0707105E+004
  4.9218253E+004
  1.2199357E+005
  1.8560466E+004
 -1.1123414E+004
  2.9328743E+004
 -5.3330169E+003
  2.5976870E+003
 -2.2978968E+003
  3.7318431E+002
  5.2961672E+002
  1.2196377E+003
  1.8343584E+003
  1.5745943E+003
  1.0325396E+003
  2.5575670E+002
 -9.6947919E+002
 -2.6000607E+003
 -4.4705105E+003
 -6.3293359E+003
 -7.8851683E+003
 -8.8480874E+003
 -8.9573680E+003
 -8.0116937E+003
 -5.9215488E+003
 -2.6520759E+003
  1.5592820E+003
  7.3994697E+003
  1.3377515E+004
  3.3217237E+004
 -6.4692769E+004
  3.8936785E+005
  1.8066829E+005
  1.3934497E+005
  9.2973741E+004
  4.5624596E+004
  4.8532365E+003
 -2.3226421E+004
 -4.0311391E+004
 -4.9297767E+004
 -5.3050734E+004
 -5.4058532E+004
 -5.4166724E+004
 -5.4163680E+004
 -5.4140528E+004
 -5.2779644E+004
 -4.5004443E+004
 -2.6109503E+004
 -5.1727876E+003
 -3.2147930E+001
  6.3531336E+002
  2.2280732E+002
  2.4219128E+002
 -1.6144335E+005
 -6.5643439E+004
 -3.3231159E+004
 -1.3454060E+005
 -8.5546850E+004
 -4.9437021E+004
 -3.0714231E+004
 -2.0605565E+004
 -1.5125996E+004
 -1.2703509E+004
 -1.2129170E+004
 -1.2357818E+004
 -1.2322232E+004
 -1.0821288E+004
 -6.2798810E+003
  3.4929894E+003
  2.2558234E+004
  5.6667733E+004
  1.1308124E+005
  1.4206497E+004
 -8.6916847E+003
  2.1730465E+004
 -2.9949699E+003
  3.7695313E+003
  1.2546998E+003
  3.0466389E+003
  1.8531824E+003
  4.8389565E+002
 -1.2383517E+002
 -8.7976799E+002
 -1.9366473E+003
 -3.3460755E+003
 -4.9128002E+003
 -6.3688318E+003
 -7.4747724E+003
 -8.0116428E+003
 -7.8033284E+003
 -6.7255089E+003
 -4.7087936E+003
 -1.7625229E+003
  2.1755380E+003
  7.0502914E+003
  1.4446296E+004
  2.0206356E+004
  1.1961268E+005
  1.7625143E+005
  1.8176488E+005
  1.2205362E+005
  5.8728287E+004
  1.3845240E+004
 -1.4371525E+004
 -3.1637771E+004
 -4.1378717E+004
 -4.6471441E+004
 -4.9224176E+004
 -5.1567183E+004
 -5.4512624E+004
 -5.6852014E+004
 -5.7896497E+004
 -4.7704630E+004
 -2.1731746E+004
 -3.5715627E+003
  2.4484277E+003
 -1.3496223E+005
  5.4185227E+004
 -3.4475723E+005
 -1.0485659E+005
 -6.5762009E+004
 -4.2483706E+004
 -3.0333232E+004
 -2.2751950E+004
 -1.8818330E+004
 -1.6992647E+004
 -1.6224809E+004
 -1.5394598E+004
 -1.3262827E+004
 -8.1754791E+003
  2.0715640E+003
  2.1353493E+004
  5.1006341E+004
  9.7849786E+004
  1.0537733E+004
 -6.3141412E+003
  1.8156291E+004
 -1.2815241E+003
  7.3910534E+003
  1.9173455E+003
  3.3430855E+002
 -3.6627887E+002
 -8.0353179E+002
 -1.9531434E+003
 -3.4048642E+003
 -4.8557930E+003
 -6.1181829E+003
 -6.9518847E+003
 -7.2149162E+003
 -6.8168180E+003
 -5.6823963E+003
 -3.7708415E+003
 -1.0583138E+003
  2.4000138E+003
  6.7886377E+003
  1.1280364E+004
  1.6484922E+004
  1.4229361E+004
  1.9831322E+005
  1.9536417E+005
  1.3442671E+005
  6.2121379E+004
  2.0242962E+004
 -6.2382956E+003
 -2.2437115E+004
 -3.2239934E+004
 -3.8068266E+004
 -4.2021754E+004
 -4.6004395E+004
 -5.2426013E+004
 -6.0862192E+004
 -6.8003553E+004
 -9.5685023E+004
  3.5236495E+003
 -2.1480789E+005
 -1.0510948E+005
 -8.4162519E+004
 -5.5151500E+004
 -4.0197909E+004
 -3.0190398E+004
 -2.4573726E+004
 -2.1398724E+004
 -1.9596756E+004
 -1.8027124E+004
 -1.5509727E+004
 -1.0545014E+004
 -1.3484186E+003
  1.5029691E+004
  3.9631179E+004
  7.9219661E+004
  8.5597719E+003
 -4.2328365E+003
  1.9637023E+004
  2.7357628E+003
  1.5212266E+003
  1.6194868E+003
  1.3824048E+002
 -1.3387354E+003
 -2.7346024E+003
 -4.3843822E+003
 -5.6318859E+003
 -6.2916465E+003
 -6.3936222E+003
 -5.9097401E+003
 -4.8033815E+003
 -3.0414749E+003
 -6.2391530E+002
  2.4009397E+003
  5.7315913E+003
  8.9040862E+003
  1.1681650E+004
  3.1879228E+004
  4.3007888E+005
  1.4960396E+005
  6.8457864E+004
  2.7853125E+004
  3.5544025E+003
 -1.1814694E+004
 -2.1735147E+004
 -2.8264310E+004
 -3.3099462E+004
 -3.8284631E+004
 -4.5981163E+004
 -6.2836897E+004
 -6.6537063E+004
 -5.6357444E+004
 -4.5023076E+003
 -1.1883441E+005
 -8.6144504E+004
 -6.4165061E+004
 -4.6475498E+004
 -3.5789548E+004
 -2.8871983E+004
 -2.4704420E+004
 -2.2088640E+004
 -2.0048976E+004
 -1.7551314E+004
 -1.3469602E+004
 -6.4995581E+003
  4.7454732E+003
  2.3362121E+004
  5.4548915E+004
  1.0794901E+004
  7.4002764E+003
  2.9056569E+002
  3.7693636E+003
  1.2408276E+003
  8.7223939E+002
 -1.4848152E+003
 -3.7078010E+003
 -4.8826145E+003
 -5.4480787E+003
 -5.4861695E+003
 -5.0200774E+003
 -4.0265775E+003
 -2.4946031E+003
 -4.2826452E+002
  2.0961327E+003
  4.8123367E+003
  6.8569376E+003
  7.7527649E+003
  3.3203068E+005
  1.2426122E+005
  7.9369060E+004
  3.6978971E+004
  1.5779428E+004
  1.1417068E+002
 -1.0301272E+004
 -1.7832208E+004
 -2.3735031E+004
 -2.9630800E+004
 -3.8853359E+004
 -5.7864566E+004
 -1.3683050E+005
  2.4108453E+004
  1.1895183E+004
 -1.0724909E+005
 -8.1567697E+004
 -6.1796366E+004
 -4.8125036E+004
 -3.7850454E+004
 -3.0898658E+004
 -2.6313195E+004
 -2.3358256E+004
 -2.1250892E+004
 -1.9252836E+004
 -1.6535046E+004
 -1.2705192E+004
 -6.1342011E+003
 -6.3822280E+002
  2.7984531E+004
  9.8348785E+003
 -2.5908780E+003
  1.3566906E+004
 -5.1512798E+002
  4.5034213E+003
 -6.4939612E+002
 -2.7310715E+003
 -3.8766274E+003
 -4.3326792E+003
 -4.4322105E+003
 -4.0868860E+003
 -3.3018764E+003
 -2.0712014E+003
 -4.1762182E+002
  1.5890206E+003
  3.7822983E+003
  5.0794349E+003
  2.2159593E+003
  9.7847311E+004
  1.2662236E+005
  7.4322739E+004
  4.8672461E+004
  2.7260423E+004
  1.2321403E+004
  9.3152705E+002
 -7.7052854E+003
 -1.4995716E+004
 -2.1490482E+004
 -3.2413269E+004
 -4.2552488E+004
 -1.2069541E+005
 -8.7467024E+004
 -5.8401256E+004
 -5.4633715E+004
 -4.4038827E+004
 -3.6355817E+004
 -3.0154279E+004
 -2.5919515E+004
 -2.3155994E+004
 -2.1466316E+004
 -2.0359090E+004
 -1.9547724E+004
 -1.8479335E+004
 -1.8688287E+004
 -1.6230587E+004
 -3.5091284E+004
  6.4595927E+003
 -3.1770113E+003
  1.3391853E+004
  6.7244729E+002
 -1.1502897E+003
 -2.0561144E+003
 -2.9174575E+003
 -3.3653616E+003
 -3.0837073E+003
 -2.5606966E+003
 -1.7255657E+003
 -4.7448449E+002
  1.0975444E+003
  2.8353649E+003
  6.7789641E+003
 -4.9627241E+002
 -8.0348164E+002
  6.2553741E+004
  6.7375132E+004
  5.2500873E+004
  3.6487383E+004
  2.2462893E+004
  1.0872989E+004
  1.2534118E+003
 -6.9042320E+003
 -1.5210306E+004
 -2.2219293E+004
 -3.9154882E+004
 -9.2678983E+003
 -2.4459815E+004
 -4.7539634E+004
 -4.1387202E+004
 -3.7104995E+004
 -3.1399449E+004
 -2.6835741E+004
 -2.3448430E+004
 -2.1402210E+004
 -2.0554668E+004
 -2.0756962E+004
 -2.1976332E+004
 -2.4371993E+004
 -2.9118501E+004
 -3.7983243E+004
 -7.4121692E+004
  7.1551901E+003
  3.4648935E+003
 -5.1953315E+002
  1.5903365E+002
 -2.1881495E+003
 -1.8716642E+003
 -1.7521704E+003
 -1.8742777E+003
 -1.4246107E+003
 -4.9428905E+002
  7.5739292E+002
  1.7965220E+003
  4.7107388E+003
 -6.4438047E+004
  3.2671745E+004
  5.2176634E+004
  5.1189451E+004
  4.0849806E+004
  2.9400024E+004
  1.8536841E+004
  8.8784413E+003
  2.0464004E+002
 -7.4551969E+003
 -1.4773890E+004
 -1.3811276E+004
  1.4067199E+003
  4.2603006E+004
  9.1407797E+003
 -1.1754455E+004
 -2.5728809E+004
 -2.9086861E+004
 -2.7079763E+004
 -2.4187289E+004
 -2.1237017E+004
 -1.9102082E+004
 -1.8124929E+004
 -1.8472088E+004
 -2.0240798E+004
 -2.3688060E+004
 -2.9225816E+004
 -3.8487479E+004
 -5.2050012E+004
 -7.1357077E+004
 -1.9646378E+004
  1.6386487E+003
  5.9330306E+003
 -1.9743516E+003
  4.9635260E+003
 -1.0317782E+003
 -9.2833403E+002
 -4.6803094E+002
 -1.4812211E+003
 -1.0750719E+003
 -3.6578945E+002
  3.9769173E+002
  1.4389010E+003
  4.4575185E+002
 -6.5615508E+004
 -1.2076807E+005
 -2.5208005E+004
  1.7089151E+004
  4.1452450E+004
  4.5312011E+004
  4.0955205E+004
  3.2722012E+004
  2.3707333E+004
  1.4980410E+004
  7.0823142E+003
  4.3765549E+002
 -3.2458367E+003
 -1.2317655E+002
  1.4892597E+004
  6.2699723E+004
 -1.0039311E+003
 -1.1907069E+004
 -1.5086226E+004
 -1.6251735E+004
 -1.5283997E+004
 -1.3945522E+004
 -1.3146743E+004
 -1.3457418E+004
 -1.5202582E+004
 -1.8689170E+004
 -2.4268545E+004
 -3.2785782E+004
 -4.4700481E+004
 -6.3939286E+004
 -7.8989771E+004
 -1.4599010E+005
  2.3637255E+003
 -2.3123785E+003
  3.1753108E+002
  2.0545271E+003
 -7.2121377E+002
 -4.7639207E+002
 -1.6658635E+002
  2.2880560E+002
  6.3245736E+002
  1.8834636E+002
 -4.0949412E+004
 -1.0585291E+005
 -7.1623474E+003
  2.5743746E+004
 -5.9511507E+004
 -1.9782042E+004
  8.8028253E+003
  3.0201854E+004
  3.8100976E+004
  3.7806885E+004
  3.3131845E+004
  2.6586954E+004
  1.9677172E+004
  1.3351675E+004
  8.5963973E+003
  6.9746761E+003
  1.0386208E+004
  2.1240245E+004
  3.2428139E+004
  3.4735079E+004
  1.8893077E+004
 -2.3012845E+003
  1.2401378E+003
 -2.2436837E+003
 -5.3178801E+003
 -5.4570030E+003
 -5.4110675E+003
 -5.9089772E+003
 -7.5698127E+003
 -1.0788929E+004
 -1.5974313E+004
 -2.3577835E+004
 -3.4346647E+004
 -4.8705368E+004
 -6.8505846E+004
 -9.3402331E+004
 -1.8888084E+005
  6.3805524E+002
 -1.3531648E+003
 -2.1721783E+002
 -1.2682563E+002
 -1.2985185E+002
  2.8882253E+002
 -1.2599243E+004
 -3.1952917E+004
  3.1352849E+003
  1.6433488E+004
  2.3544078E+003
  2.5381781E+003
  1.8231044E+003
  1.3508883E+003
  7.1528191E+002
  1.1081234E+002
  1.6078210E+001
 -1.8361376E+002
 -7.2779969E+002
 -4.8500970E+002
 -2.0150875E+003
 -5.8225286E+002
 -3.7031965E+003
 -1.7125423E+003
 -1.0539278E+004
 -2.8903889E+003
 -1.4927191E+004
 -1.7702645E+004
 -4.6855172E+004
 -3.4673024E+004
 -3.6887872E+004
 -1.8671395E+004
  4.7628953E+003
  2.1270685E+004
  3.0529217E+004
  3.3205940E+004
  3.1599061E+004
  2.7717588E+004
  2.3031651E+004
  1.8685646E+004
  1.5770602E+004
  1.5434452E+004
  1.8995185E+004
  2.6505081E+004
  3.3904245E+004
  3.2207465E+004
  2.9846328E+004
  1.9857426E+004
  1.8207799E+004
  6.9046514E+003
  5.5734705E+003
  4.8512243E+003
  3.9832750E+003
  2.2925302E+003
 -6.5429925E+002
 -5.3093312E+003
 -1.2076935E+004
 -2.1485285E+004
 -3.4082941E+004
 -5.0901191E+004
 -7.1888824E+004
 -1.0350169E+005
 -1.0972798E+005
 -1.0208918E+005
  3.4402220E+004
 -1.6592902E+004
 -3.5389722E+004
  3.1718788E+002
  1.6270599E+004
 -1.0079388E+003
 -3.6109048E+003
 -8.9761006E+003
  4.9654622E+003
  5.3638097E+003
  3.2721387E+003
  1.2791628E+003
 -4.9468220E+002
 -2.4775915E+003
 -5.1473001E+003
 -1.0139200E+004
 -1.7878998E+004
 -3.9760815E+004
 -4.7651417E+004
 -3.5498608E+004
 -2.6524941E+004
 -1.5126928E+004
  7.8705343E+002
  1.4806105E+004
  2.3920222E+004
  2.8347692E+004
  2.9137950E+004
  2.7667190E+004
  2.5189996E+004
  2.2784537E+004
  2.1406030E+004
  2.1913721E+004
  2.4727773E+004
  2.8951726E+004
  3.2366824E+004
  3.3964266E+004
  3.0185910E+004
  2.7858482E+004
  1.6085052E+003
  2.2514063E+004
  1.6806040E+004
  1.6698379E+004
  1.5434060E+004
  1.3825114E+004
  1.1213033E+004
  7.0779437E+003
  1.1159753E+003
 -7.0573627E+003
 -1.7916791E+004
 -3.2130140E+004
 -5.0473167E+004
 -7.4638649E+004
 -1.0338766E+005
 -1.3297191E+005
 -1.9308002E+005
 -2.2032618E+004
 -5.2112179E+004
 -6.1146039E+002
  1.7005536E+004
 -1.2009201E+004
  1.3972838E+003
 -4.2839501E+003
 -4.5342862E+003
  1.4420883E+003
  4.2789214E+003
  3.3137694E+003
  1.1076189E+003
 -1.4700709E+003
 -4.5601948E+003
 -8.7929471E+003
 -1.4793186E+004
 -2.4507528E+004
 -3.1968311E+004
 -3.6343255E+004
 -3.3935508E+004
 -2.4777959E+004
 -1.3375947E+004
 -1.2159941E+003
  1.0108745E+004
  1.8697128E+004
  2.3990644E+004
  2.6453693E+004
  2.6932080E+004
  2.6364282E+004
  2.5625573E+004
  2.5465799E+004
  2.6406373E+004
  2.8495006E+004
  3.1208578E+004
  3.3332290E+004
  3.4131178E+004
  3.4116414E+004
  5.4764806E+004
  6.7602788E+003
  2.2289423E+004
  2.5594390E+004
  2.5537822E+004
  2.4043022E+004
  2.0601452E+004
  1.5424046E+004
  8.3180930E+003
 -1.0342128E+003
 -1.3014191E+004
 -2.8122287E+004
 -4.7260293E+004
 -7.0597625E+004
 -9.9122941E+004
 -1.2805369E+005
 -1.6515211E+005
 -3.0653818E+004
  1.4265531E+004
 -1.9612113E+004
 -4.6798379E+004
 -9.7372336E+002
  2.1616308E+004
 -3.7721471E+003
 -5.6999978E+003
 -1.9272463E+004
 -7.3334976E+003
 -6.5371800E+003
 -2.9931775E+003
 -4.1176147E+002
 -1.0625231E+002
  1.3251047E+003
  2.7243520E+003
  2.1420876E+003
  8.6272936E+001
 -2.8499088E+003
 -6.5698308E+003
 -1.1282377E+004
 -1.7383384E+004
 -2.3885907E+004
 -3.0006675E+004
 -3.1970182E+004
 -2.8672073E+004
 -2.1913049E+004
 -1.2663245E+004
 -2.5496879E+003
  6.9506996E+003
  1.4781644E+004
  2.0418646E+004
  2.3954200E+004
  2.5872807E+004
  2.6810410E+004
  2.7403585E+004
  2.8179578E+004
  2.9445076E+004
  3.1191128E+004
  3.3004574E+004
  3.4373454E+004
  3.4813837E+004
  3.5841092E+004
  3.1421456E+004
  2.3364026E+004
 -9.0152009E+003
 -7.5513081E+003
  4.5777738E+004
  3.6935357E+004
  3.7011877E+004
  3.4469904E+004
  3.0236726E+004
  2.4253667E+004
  1.6094716E+004
  5.7267032E+003
 -7.0433285E+003
 -2.2588480E+004
 -4.1178171E+004
 -6.3883709E+004
 -8.9777813E+004
 -1.3003247E+005
 -1.5313961E+005
 -3.2496091E+005
 -1.9042552E+004
 -5.0600008E+004
 -3.0829038E+002
  2.3552510E+004
 -3.1086419E+003
 -5.4706270E+003
 -1.7283429E+004
 -1.9670355E+003
 -1.1580544E+004
 -1.5614309E+004
 -8.7055968E+003
 -4.1860281E+003
 -2.0588070E+003
 -6.4568436E+002
  4.3022685E+002
  1.3109846E+003
  1.5255130E+003
  7.2312776E+002
 -1.2767539E+003
 -4.2411623E+003
 -8.0158358E+003
 -1.2560888E+004
 -1.7601389E+004
 -2.2601770E+004
 -2.6049174E+004
 -2.6947478E+004
 -2.4587192E+004
 -1.9072347E+004
 -1.1586256E+004
 -3.2518609E+003
  4.8737431E+003
  1.1981479E+004
  1.7644261E+004
  2.1811328E+004
  2.4723701E+004
  2.6776405E+004
  2.8390796E+004
  2.9911307E+004
  3.1522568E+004
  3.3190192E+004
  3.4699399E+004
  3.5749131E+004
  3.6380352E+004
  3.6665740E+004
  3.5648763E+004
  4.3484539E+004
  2.5613742E+004
  3.9857560E+004
  4.6355047E+004
  4.4246904E+004
  4.0399170E+004
  3.3425054E+004
  2.4232872E+004
  1.2896485E+004
 -5.9768597E+002
 -1.6298044E+004
 -3.4423975E+004
 -5.5330457E+004
 -8.0391887E+004
 -1.1016155E+005
 -1.6598709E+005
 -3.5345385E+005
 -1.2250116E+004
 -3.4379565E+004
  2.7818663E+003
  1.7484861E+004
  1.2325661E+003
  2.8474041E+003
  7.1309517E+001
  9.0190443E+002
 -4.2868441E+003
 -8.3219095E+002
 -5.8961375E+003
 -9.8649526E+003
 -2.0103898E+004
 -1.9002312E+003
 -1.0812725E+004
 -1.4001507E+004
 -9.9148778E+003
 -7.9900829E+003
 -8.9964139E+003
 -7.8262922E+003
 -4.5752494E+003
 -2.0922600E+003
 -5.2742516E+002
  3.9893752E+002
  7.7840594E+002
  5.4442907E+002
 -5.4915736E+002
 -2.5411472E+003
 -5.3615902E+003
 -8.8554539E+003
 -1.2807499E+004
 -1.6883654E+004
 -2.0446119E+004
 -2.2769044E+004
 -2.3001430E+004
 -2.0781139E+004
 -1.6356276E+004
 -1.0281993E+004
 -3.3670030E+003
  3.6127780E+003
  1.0046446E+004
  1.5565541E+004
  2.0057612E+004
  2.3616645E+004
  2.6461861E+004
  2.8847462E+004
  3.0981825E+004
  3.2964965E+004
  3.4761836E+004
  3.6218164E+004
  3.7168040E+004
  3.7448584E+004
  3.6600357E+004
  3.4704454E+004
  2.8224976E+004
  7.1698979E+003
 -6.6880249E+003
 -1.4541636E+004
  8.1468784E+004
  5.8967618E+004
  5.7025289E+004
  5.0960521E+004
  4.2852516E+004
  3.2620235E+004
  2.0118686E+004
  5.7464724E+003
 -1.0343967E+004
 -2.8227407E+004
 -4.8230533E+004
 -7.1367409E+004
 -1.0019090E+005
 -1.4543075E+005
 -1.7268678E+005
 -1.4979672E+005
 -1.0082856E+005
 -1.2971422E+004
 -3.3454107E+004
  1.9479836E+003
  1.6965508E+004
 -1.1281899E+003
  2.2417682E+003
 -2.1821763E+003
 -5.0483293E+003
 -1.1403954E+004
  3.3053182E+003
  2.8194112E+003
 -1.2644322E+003
 -6.2168825E+003
 -1.7439374E+004
 -1.8157638E+004
 -1.1645587E+004
 -8.6405112E+003
 -9.8496158E+003
 -9.5689121E+003
 -8.6620055E+003
 -7.8133684E+003
 -6.1769516E+003
 -4.1940166E+003
 -2.2450154E+003
 -8.5916150E+002
 -8.2325603E+001
  1.0091746E+002
 -3.8432203E+002
 -1.5874354E+003
 -3.5227678E+003
 -6.1017557E+003
 -9.1588513E+003
 -1.2448839E+004
 -1.5613631E+004
 -1.8191997E+004
 -1.9626101E+004
 -1.9479939E+004
 -1.7530554E+004
 -1.3861608E+004
 -8.8688823E+003
 -3.0827259E+003
  2.9457651E+003
  8.7557788E+003
  1.4038932E+004
  1.8655418E+004
  2.2610560E+004
  2.6004477E+004
  2.8971378E+004
  3.1621086E+004
  3.3993318E+004
  3.6034032E+004
  3.7600883E+004
  3.8499609E+004
  3.8454345E+004
  3.7492814E+004
  3.5280095E+004
  3.2103516E+004
  2.6406010E+004
  4.3886059E+004
  6.0576736E+004
  6.7055249E+004
  6.0988715E+004
  5.3040000E+004
  4.1155021E+004
  2.7136599E+004
  1.1542549E+004
 -5.3231542E+003
 -2.3443241E+004
 -4.3301608E+004
 -6.5714739E+004
 -9.3925925E+004
 -1.2568843E+005
 -1.5071978E+005
 -1.3682401E+005
 -2.3753759E+005
 -1.3780216E+005
 -1.4874151E+004
 -4.4652691E+004
  9.3033030E+002
  2.2610089E+004
 -1.4958216E+003
 -2.5091033E+003
 -1.0660866E+004
  1.9318032E+003
  2.1627107E+002
 -8.2865308E+003
 -8.5626068E+003
 -2.4003770E+003
 -4.4107770E+002
 -3.1367932E+003
 -8.5522570E+003
 -1.1992737E+004
 -1.3858558E+004
 -1.2474730E+004
 -1.0732643E+004
 -9.8217943E+003
 -8.9990952E+003
 -8.0023750E+003
 -6.8220377E+003
 -5.4711592E+003
 -3.8579236E+003
 -2.3550881E+003
 -1.2122766E+003
 -5.9690675E+002
 -5.6936156E+002
 -1.1571870E+003
 -2.3775083E+003
 -4.1877384E+003
 -6.4790248E+003
 -9.0722547E+003
 -1.1723427E+004
 -1.4130999E+004
 -1.5942857E+004
 -1.6807944E+004
 -1.6432705E+004
 -1.4679602E+004
 -1.1610607E+004
 -7.4569861E+003
 -2.5698374E+003
  2.6685591E+003
  7.9163135E+003
  1.2920736E+004
  1.7536675E+004
  2.1717367E+004
  2.5485303E+004
  2.8892644E+004
  3.1980296E+004
  3.4743176E+004
  3.7103270E+004
  3.8899067E+004
  3.9862568E+004
  3.9740872E+004
  3.8109202E+004
  3.5250404E+004
  3.0215664E+004
  3.9607535E+004
 -2.0722586E+004
  1.1922872E+005
  8.1381466E+004
  7.5596635E+004
  6.3870993E+004
  4.9814609E+004
  3.3844367E+004
  1.6569841E+004
 -1.3795910E+003
 -2.0046472E+004
 -3.9861969E+004
 -6.1587890E+004
 -8.5073278E+004
 -1.0613257E+005
 -1.1979039E+005
 -1.2685086E+005
 -1.5443103E+005
 -3.6428959E+004
 -3.7276771E+004
 -2.7117216E+004
  3.7249414E+002
 -9.6723675E+003
 -1.1541175E+003
 -6.6233132E+003
  1.1321044E+003
 -4.4891619E+003
  5.3487005E+002
 -4.1265866E+003
 -3.4187021E+001
 -6.4167533E+003
 -6.0048087E+002
 -6.8947258E+003
 -8.7506847E+003
 -1.7801642E+004
  1.0031061E+002
 -6.1391616E+003
 -7.9968650E+003
 -3.4580937E+003
 -2.9516398E+003
 -4.3413992E+003
 -5.3397913E+003
 -4.2979107E+003
 -3.5083209E+003
 -5.2632356E+003
 -8.2463256E+003
 -1.1380472E+004
 -1.2494541E+004
 -1.1919090E+004
 -1.0734580E+004
 -9.6029744E+003
 -8.6076749E+003
 -7.5305847E+003
 -6.3337669E+003
 -4.9941798E+003
 -3.6463214E+003
 -2.4208680E+003
 -1.5079181E+003
 -1.0405544E+003
 -1.1013195E+003
 -1.7262230E+003
 -2.9023207E+003
 -4.5600647E+003
 -6.5644789E+003
 -8.7216087E+003
 -1.0806668E+004
 -1.2580240E+004
 -1.3800608E+004
 -1.4246218E+004
 -1.3738778E+004
 -1.2185234E+004
 -9.6015753E+003
 -6.1217103E+003
 -1.9635348E+003
  2.6149691E+003
  7.3646309E+003
  1.2081617E+004
  1.6626213E+004
  2.0922785E+004
  2.4944623E+004
  2.8689442E+004
  3.2151693E+004
  3.5295436E+004
  3.8030199E+004
  4.0173848E+004
  4.1427558E+004
  4.1329263E+004
  3.9488059E+004
  3.5684359E+004
  3.2164725E+004
  3.0180860E+004
  6.3171514E+004
  8.1533972E+004
  8.7097470E+004
  7.4683611E+004
  5.9119115E+004
  4.0068089E+004
  2.0722955E+004
  1.6479185E+003
 -1.7500528E+004
 -3.7159765E+004
 -5.7472091E+004
 -7.7675603E+004
 -9.6079311E+004
 -1.1121875E+005
 -1.2536084E+005
 -1.3170272E+005
 -1.0164922E+005
 -4.3901016E+004
 -2.6244105E+004
 -1.5821639E+004
 -1.1818051E+004
 -1.0891963E+004
 -1.2145406E+004
 -1.9876937E+004
 -1.7987815E+004
 -9.9234504E+003
 -6.1236736E+003
 -6.1222687E+003
 -5.5847529E+003
 -4.7564613E+003
 -5.3694201E+003
 -5.6326717E+003
 -5.3603531E+003
 -5.5449779E+003
 -6.6238495E+003
 -8.5290102E+003
 -1.0199269E+004
 -1.1133381E+004
 -1.1065224E+004
 -1.0322230E+004
 -9.3276761E+003
 -8.2410167E+003
 -7.1122944E+003
 -5.9186491E+003
 -4.6936122E+003
 -3.4973827E+003
 -2.4559371E+003
 -1.6950483E+003
 -1.3290631E+003
 -1.4364697E+003
 -2.0536928E+003
 -3.1631011E+003
 -4.6790135E+003
 -6.4349429E+003
 -8.2219206E+003
 -9.8160965E+003
 -1.1039450E+004
 -1.1775192E+004
 -1.1904828E+004
 -1.1335224E+004
 -9.9834709E+003
 -7.8279979E+003
 -4.9158171E+003
 -1.3663315E+003
  2.6554194E+003
  6.9701119E+003
  1.1413479E+004
  1.5854812E+004
  2.0202844E+004
  2.4400093E+004
  2.8408832E+004
  3.2192541E+004
  3.5697265E+004
  3.8830170E+004
  4.1436240E+004
  4.3199118E+004
  4.3529483E+004
  4.1645039E+004
  3.7139191E+004
  3.0740510E+004
  1.5542326E+004
 -5.5500023E+003
 -8.7368377E+003
 -2.7390705E+004
  1.5788752E+005
  1.0571855E+005
  9.1422539E+004
  6.8561588E+004
  4.5205438E+004
  2.4068268E+004
  4.1121661E+003
 -1.5287595E+004
 -3.4573175E+004
 -5.3737392E+004
 -7.2252961E+004
 -8.9189322E+004
 -1.0383879E+005
 -1.1438523E+005
 -1.1047769E+005
 -8.8877435E+004
 -6.5846304E+004
 -4.1771766E+004
 -2.9164279E+004
 -2.2226142E+004
 -1.9389054E+004
 -1.9745824E+004
 -1.9160571E+004
 -1.7820773E+004
 -1.4167833E+004
 -1.0732859E+004
 -8.8532607E+003
 -7.6075472E+003
 -6.9751675E+003
 -6.6232060E+003
 -6.5804373E+003
 -6.6106557E+003
 -6.8645769E+003
 -7.6198810E+003
 -8.6917586E+003
 -9.7370680E+003
 -1.0292914E+004
 -1.0241358E+004
 -9.6950741E+003
 -8.8411315E+003
 -7.8331263E+003
 -6.7359699E+003
 -5.5932801E+003
 -4.4446971E+003
 -3.3620261E+003
 -2.4338293E+003
 -1.7626606E+003
 -1.4426994E+003
 -1.5490048E+003
 -2.1248687E+003
 -3.1651676E+003
 -4.5759403E+003
 -6.1723939E+003
 -7.6572467E+003
 -8.8132684E+003
 -9.5510619E+003
 -9.8348794E+003
 -9.7230830E+003
 -9.1470074E+003
 -8.0331654E+003
 -6.2867963E+003
 -3.8815168E+003
 -8.5618913E+002
  2.6916132E+003
  6.6330348E+003
  1.0832580E+004
  1.5167077E+004
  1.9535966E+004
  2.3862324E+004
  2.8085736E+004
  3.2149720E+004
  3.5986325E+004
  3.9508754E+004
  4.2589409E+004
  4.5067968E+004
  4.6313234E+004
  4.4817628E+004
  3.8526719E+004
  2.8992692E+004
  2.2636074E+004
 -5.3892001E+003
  8.1467073E+004
  1.0889332E+005
  1.0837113E+005
  7.4773595E+004
  4.9342831E+004
  2.6901005E+004
  6.5310882E+003
 -1.2923672E+004
 -3.1802890E+004
 -5.0085238E+004
 -6.7365371E+004
 -8.2939801E+004
 -9.5573565E+004
 -1.0222836E+005
 -1.0051330E+005
 -8.8850751E+004
 -7.0004617E+004
 -5.3465330E+004
 -4.0334785E+004
 -3.2216677E+004
 -2.7695109E+004
 -2.5186893E+004
 -2.3676258E+004
 -2.1109868E+004
 -1.7742440E+004
 -1.4580058E+004
 -1.2114483E+004
 -1.0455678E+004
 -9.2944542E+003
 -8.5937928E+003
 -8.1569593E+003
 -7.9558966E+003
 -8.0314835E+003
 -8.3850945E+003
 -8.9307282E+003
 -9.4301047E+003
 -9.6797245E+003
 -9.5561470E+003
 -9.0727732E+003
 -8.3209486E+003
 -7.3939145E+003
 -6.3661179E+003
 -5.2892659E+003
 -4.2162985E+003
 -3.2090779E+003
 -2.3454051E+003
 -1.7096851E+003
 -1.3851169E+003
 -1.4434526E+003
 -1.9403750E+003
 -2.8999790E+003
 -4.2789292E+003
 -5.8136039E+003
 -7.1759104E+003
 -7.9407788E+003
 -8.0596062E+003
 -7.9366216E+003
 -7.6013245E+003
 -7.1297416E+003
 -6.3078543E+003
 -4.9893271E+003
 -3.0575087E+003
 -4.9412091E+002
  2.6510408E+003
  6.2818489E+003
  1.0280227E+004
  1.4525994E+004
  1.8910845E+004
  2.3345170E+004
  2.7755885E+004
  3.2075601E+004
  3.6227742E+004
  4.0108661E+004
  4.3620052E+004
  4.6635490E+004
  4.9309236E+004
  4.9782992E+004
  4.3926321E+004
  2.5892636E+004
  1.0094587E+004
 -4.5780554E+004
  2.2699520E+005
  1.2207063E+005
  8.0939383E+004
  5.3042223E+004
  3.0104946E+004
  9.4273808E+003
 -1.0033604E+004
 -2.8573061E+004
 -4.6112515E+004
 -6.2268899E+004
 -7.6313898E+004
 -8.6960074E+004
 -9.2645803E+004
 -9.1561454E+004
 -8.3931977E+004
 -7.2471024E+004
 -5.9646224E+004
 -4.8757503E+004
 -4.0529462E+004
 -3.4890840E+004
 -3.1038907E+004
 -2.7837443E+004
 -2.4762403E+004
 -2.1527403E+004
 -1.8382608E+004
 -1.5699153E+004
 -1.3556103E+004
 -1.1955533E+004
 -1.0772250E+004
 -9.9441586E+003
 -9.4083278E+003
 -9.1366831E+003
 -9.0965234E+003
 -9.1936341E+003
 -9.2960885E+003
 -9.2614487E+003
 -9.0056977E+003
 -8.5116398E+003
 -7.8114522E+003
 -6.9585091E+003
 -6.0044266E+003
 -4.9975707E+003
 -3.9867003E+003
 -3.0292412E+003
 -2.1924402E+003
 -1.5515211E+003
 -1.1817530E+003
 -1.1537065E+003
 -1.5266465E+003
 -2.3660568E+003
 -3.7179003E+003
 -5.4863425E+003
 -6.7427844E+003
 -6.9675706E+003
 -6.6537460E+003
 -5.8900949E+003
 -5.5361899E+003
 -5.2322157E+003
 -4.8295330E+003
 -3.9644964E+003
 -2.4821991E+003
 -3.2476218E+002
  2.4849650E+003
  5.8709148E+003
  9.7225897E+003
  1.3915200E+004
  1.8330607E+004
  2.2870321E+004
  2.7458049E+004
  3.2029850E+004
  3.6511996E+004
  4.0792288E+004
  4.4688573E+004
  4.8125529E+004
  5.1100912E+004
  5.5226096E+004
  4.4828229E+004
  1.9224542E+004
  2.2151802E+003
  2.4417973E+005
  1.1952778E+005
  8.8007441E+004
  5.7024359E+004
  3.4367533E+004
  1.3094196E+004
 -6.4698022E+003
 -2.4801094E+004
 -4.1709080E+004
 -5.6870251E+004
 -6.9647440E+004
 -7.9157472E+004
 -8.4343363E+004
 -8.4618745E+004
 -8.0175317E+004
 -7.2269382E+004
 -6.3115556E+004
 -5.4271176E+004
 -4.6824427E+004
 -4.0948503E+004
 -3.6317779E+004
 -3.2449594E+004
 -2.8855621E+004
 -2.5391733E+004
 -2.2134823E+004
 -1.9216461E+004
 -1.6740865E+004
 -1.4707720E+004
 -1.3091048E+004
 -1.1833349E+004
 -1.0892030E+004
 -1.0226736E+004
 -9.7844947E+003
 -9.4905420E+003
 -9.2472194E+003
 -8.9613418E+003
 -8.5638123E+003
 -8.0238840E+003
 -7.3439550E+003
 -6.5454520E+003
 -5.6581048E+003
 -4.7148888E+003
 -3.7544651E+003
 -2.8248974E+003
 -1.9868342E+003
 -1.3108875E+003
 -8.7260069E+002
 -7.3829981E+002
 -9.7130224E+002
 -1.6208032E+003
 -2.8368731E+003
 -4.8705377E+003
 -7.2044018E+003
 -6.9187917E+003
 -4.5017926E+003
 -3.7846918E+003
 -3.3566437E+003
 -3.6029101E+003
 -3.6571712E+003
 -3.2445521E+003
 -2.1772330E+003
 -3.7339540E+002
  2.1670986E+003
  5.3795105E+003
  9.1499067E+003
  1.3339949E+004
  1.7814606E+004
  2.2467694E+004
  2.7229054E+004
  3.2058210E+004
  3.6913384E+004
  4.1730245E+004
  4.6254805E+004
  5.0286951E+004
  5.3507872E+004
  6.1196714E+004
  9.0236993E+004
 -7.2811648E+003
  1.5024900E+005
  1.2986400E+005
  8.9045577E+004
  6.3082853E+004
  3.9058011E+004
  1.7449060E+004
 -2.4834892E+003
 -2.0652934E+004
 -3.7037709E+004
 -5.1383088E+004
 -6.3256159E+004
 -7.2069279E+004
 -7.7272771E+004
 -7.8567886E+004
 -7.6245361E+004
 -7.1215082E+004
 -6.4646971E+004
 -5.7772055E+004
 -5.1371128E+004
 -4.5792857E+004
 -4.1004859E+004
 -3.6776796E+004
 -3.2897626E+004
 -2.9240902E+004
 -2.5805332E+004
 -2.2659233E+004
 -1.9861134E+004
 -1.7443612E+004
 -1.5400775E+004
 -1.3713266E+004
 -1.2350586E+004
 -1.1276435E+004
 -1.0443731E+004
 -9.7899668E+003
 -9.2426327E+003
 -8.7293024E+003
 -8.1918775E+003
 -7.5932118E+003
 -6.9165986E+003
 -6.1603359E+003
 -5.3318261E+003
 -4.4454360E+003
 -3.5241691E+003
 -2.6046141E+003
 -1.7412379E+003
 -1.0085328E+003
 -4.8856925E+002
 -2.6441283E+002
 -3.8454973E+002
 -9.0601461E+002
 -1.8913639E+003
 -3.6260432E+003
 -7.7371060E+003
 -2.8859596E+003
 -2.6315715E+003
 -1.8011896E+003
 -1.7044920E+003
 -2.3183741E+003
 -2.8213065E+003
 -2.8505766E+003
 -2.1338206E+003
 -6.2355656E+002
  1.7011164E+003
  4.8074113E+003
  8.5751559E+003
  1.2827251E+004
  1.7399279E+004
  2.2175282E+004
  2.7100533E+004
  3.2169620E+004
  3.7430255E+004
  4.2867473E+004
  4.8603967E+004
  5.3581875E+004
  5.8889435E+004
  5.8844408E+004
  1.0119996E+005
  1.2731202E+005
  1.0802572E+005
  9.1838671E+004
  6.7568306E+004
  4.3860698E+004
  2.1530579E+004
  1.4706945E+003
 -1.6498932E+004
 -3.2371971E+004
 -4.6047843E+004
 -5.7269690E+004
 -6.5706357E+004
 -7.1065420E+004
 -7.3270014E+004
 -7.2566402E+004
 -6.9544377E+004
 -6.5032964E+004
 -5.9828363E+004
 -5.4559370E+004
 -4.9573950E+004
 -4.4978133E+004
 -4.0729522E+004
 -3.6734219E+004
 -3.2934832E+004
 -2.9328768E+004
 -2.5951840E+004
 -2.2852807E+004
 -2.0068075E+004
 -1.7618344E+004
 -1.5506601E+004
 -1.3723298E+004
 -1.2246096E+004
 -1.1039142E+004
 -1.0053714E+004
 -9.2319132E+003
 -8.5144910E+003
 -7.8483305E+003
 -7.1915673E+003
 -6.5142660E+003
 -5.7961043E+003
 -5.0239225E+003
 -4.1914063E+003
 -3.3022269E+003
 -2.3769431E+003
 -1.4643484E+003
 -6.4508091E+002
 -4.1145822E+001
  2.5574940E+002
  1.2130641E+002
 -3.2436295E+002
 -1.6545532E+003
 -2.8612739E+003
 -1.3750040E+004
 -1.4854539E+003
  3.3458879E+002
 -9.3897753E+002
 -7.9948888E+002
 -1.5089630E+003
 -2.3792550E+003
 -2.5809707E+003
 -2.2216735E+003
 -1.0531965E+003
  1.0897819E+003
  4.1737531E+003
  8.0307061E+003
  1.2425473E+004
  1.7138366E+004
  2.2040652E+004
  2.7100736E+004
  3.2363081E+004
  3.7931654E+004
  4.4036565E+004
  5.0748373E+004
  5.8655548E+004
  6.4467529E+004
  6.9132972E+004
  5.3755573E+004
  9.1920941E+004
  1.0132521E+005
  9.2608502E+004
  7.1196368E+004
  4.6774488E+004
  2.4637264E+004
  4.8072881E+003
 -1.2684994E+004
 -2.7968963E+004
 -4.1029454E+004
 -5.1751976E+004
 -5.9967319E+004
 -6.5547381E+004
 -6.8498248E+004
 -6.9034432E+004
 -6.7578554E+004
 -6.4679592E+004
 -6.0909194E+004
 -5.6736999E+004
 -5.2478232E+004
 -4.8290545E+004
 -4.4218731E+004
 -4.0257361E+004
 -3.6397024E+004
 -3.2651070E+004
 -2.9057228E+004
 -2.5665169E+004
 -2.2524882E+004
 -1.9676987E+004
 -1.7149295E+004
 -1.4954024E+004
 -1.3086789E+004
 -1.1526214E+004
 -1.0235600E+004
 -9.1674125E+003
 -8.2693723E+003
 -7.4905238E+003
 -6.7849013E+003
 -6.1122295E+003
 -5.4366585E+003
 -4.7255322E+003
 -3.9504601E+003
 -3.0923920E+003
 -2.1499481E+003
 -1.1555415E+003
 -2.0826374E+002
  5.4623234E+002
  8.8407037E+002
  7.2600284E+002
 -3.2922598E+001
 -1.2937624E+003
 -2.6409232E+003
 -6.1858404E+003
  7.5522733E+002
  1.2518934E+003
 -3.2092285E+002
 -1.5255707E+003
 -2.3771121E+003
 -2.4445012E+003
 -1.4656485E+003
  4.1365459E+002
  3.4760141E+003
  7.5637524E+003
  1.2210781E+004
  1.7092575E+004
  2.2116478E+004
  2.7274118E+004
  3.2641288E+004
  3.8388689E+004
  4.4788135E+004
  5.2395672E+004
  6.1342334E+004
  7.2092003E+004
  6.1706670E+004
  1.3844531E+004
  2.3241464E+004
  9.0465563E+004
  9.4705670E+004
  7.0973314E+004
  4.7626518E+004
  2.6271523E+004
  7.2912823E+003
 -9.4127946E+003
 -2.3965356E+004
 -3.6407119E+004
 -4.6699082E+004
 -5.4767653E+004
 -6.0567570E+004
 -6.4144428E+004
 -6.5671771E+004
 -6.5450681E+004
 -6.3869033E+004
 -6.1329201E+004
 -5.8185201E+004
 -5.4698700E+004
 -5.1032176E+004
 -4.7269304E+004
 -4.3448381E+004
 -3.9595639E+004
 -3.5745753E+004
 -3.1949054E+004
 -2.8268972E+004
 -2.4774006E+004
 -2.1529405E+004
 -1.8589213E+004
 -1.5990351E+004
 -1.3748491E+004
 -1.1856914E+004
 -1.0288825E+004
 -9.0026986E+003
 -7.9492117E+003
 -7.0772779E+003
 -6.3372262E+003
 -5.6808047E+003
 -5.0590575E+003
 -4.4207584E+003
 -3.7138474E+003
 -2.8918992E+003
 -1.9281010E+003
 -8.2444486E+002
  3.4975922E+002
  1.2992107E+003
  1.7407240E+003
  1.4403429E+003
  6.5349698E+002
 -6.2766857E+002
 -5.0379339E+003
 -3.3150024E+002
 -7.2465927E+002
 -1.1636497E+003
 -2.0982144E+003
 -1.9503949E+003
 -6.4016958E+002
  2.7042994E+003
  7.3165342E+003
  1.2237239E+004
  1.7317205E+004
  2.2444610E+004
  2.7669973E+004
  3.3081113E+004
  3.8849803E+004
  4.5279945E+004
  5.3021496E+004
  6.3118412E+004
  7.8290726E+004
  1.0980402E+005
 -2.2835717E+004
 -2.7809616E+004
  1.5432980E+005
  9.8776224E+004
  6.9596647E+004
  4.7072035E+004
  2.6791607E+004
  9.0332047E+003
 -6.6532539E+003
 -2.0364454E+004
 -3.2172139E+004
 -4.2066120E+004
 -5.0017756E+004
 -5.6018797E+004
 -6.0121686E+004
 -6.2461989E+004
 -6.3256637E+004
 -6.2777513E+004
 -6.1311787E+004
 -5.9119847E+004
 -5.6407808E+004
 -5.3318722E+004
 -4.9942109E+004
 -4.6334478E+004
 -4.2541435E+004
 -3.8615163E+004
 -3.4623439E+004
 -3.0650233E+004
 -2.6790102E+004
 -2.3138574E+004
 -1.9781221E+004
 -1.6783201E+004
 -1.4181906E+004
 -1.1984215E+004
 -1.0169351E+004
 -8.6966535E+003
 -7.5152092E+003
 -6.5717298E+003
 -5.8139566E+003
 -5.1883921E+003
 -4.6358382E+003
 -4.0876558E+003
 -3.4661339E+003
 -2.6913256E+003
 -1.6989637E+003
 -4.7742266E+002
  9.7790187E+002
  2.5853914E+003
  3.3833178E+003
  2.6745285E+003
  1.6773980E+003
 -1.1241987E+003
 -1.7779035E+002
 -2.6341198E+002
 -2.9664218E+003
 -6.4847225E+002
 -2.1228683E+003
  2.2457574E+003
  7.1801859E+003
  1.2579620E+004
  1.7802201E+004
  2.3030976E+004
  2.8322932E+004
  3.3776059E+004
  3.9504978E+004
  4.5879613E+004
  5.3154474E+004
  6.4184733E+004
  7.8805242E+004
  1.3025692E+005
  1.7616980E+005
  9.2345415E+004
  7.0382628E+004
  4.5398115E+004
  2.6977119E+004
  1.0309723E+004
 -4.2238985E+003
 -1.7079372E+004
 -2.8259237E+004
 -3.7784336E+004
 -4.5635318E+004
 -5.1815620E+004
 -5.6369546E+004
 -5.9397222E+004
 -6.1051860E+004
 -6.1523400E+004
 -6.1012608E+004
 -5.9705214E+004
 -5.7752963E+004
 -5.5266911E+004
 -5.2322860E+004
 -4.8975487E+004
 -4.5275966E+004
 -4.1287611E+004
 -3.7095772E+004
 -3.2809949E+004
 -2.8558079E+004
 -2.4474438E+004
 -2.0683617E+004
 -1.7284783E+004
 -1.4338989E+004
 -1.1864198E+004
 -9.8395898E+003
 -8.2173641E+003
 -6.9385151E+003
 -5.9454740E+003
 -5.1851822E+003
 -4.6043285E+003
 -4.1376986E+003
 -3.7002539E+003
 -3.1866781E+003
 -2.4775861E+003
 -1.4486089E+003
 -3.3026357E+001
  1.6508145E+003
  3.6431655E+003
  4.9620919E+003
  3.9946164E+003
  1.6109628E+003
 -1.5807981E+003
  6.2035494E+001
 -5.5259905E+003
  1.2528042E+003
  7.4631682E+003
  1.3100731E+004
  1.8475422E+004
  2.3822699E+004
  2.9223581E+004
  3.4753365E+004
  4.0517974E+004
  4.6777230E+004
  5.3845224E+004
  6.3631701E+004
  7.8325253E+004
  1.1587104E+005
  1.1262900E+005
  1.0230139E+005
  6.5262190E+004
  4.4698963E+004
  2.6660201E+004
  1.1535352E+004
 -1.9859274E+003
 -1.3991740E+004
 -2.4594217E+004
 -3.3784072E+004
 -4.1550763E+004
 -4.7893268E+004
 -5.2842451E+004
 -5.6467211E+004
 -5.8872061E+004
 -6.0185259E+004
 -6.0541711E+004
 -6.0065363E+004
 -5.8856466E+004
 -5.6987039E+004
 -5.4505632E+004
 -5.1449896E+004
 -4.7863484E+004
 -4.3812857E+004
 -3.9399185E+004
 -3.4761734E+004
 -3.0070536E+004
 -2.5509563E+004
 -2.1254159E+004
 -1.7445371E+004
 -1.4171214E+004
 -1.1457270E+004
 -9.2718272E+003
 -7.5473295E+003
 -6.2064842E+003
 -5.1834017E+003
 -4.4312469E+003
 -3.9041721E+003
 -3.5378346E+003
 -3.2333498E+003
 -2.8539939E+003
 -2.2339263E+003
 -1.1936093E+003
  5.2185485E+002
  2.9172205E+003
  5.8657623E+003
  1.3796990E+004
  8.3807652E+002
 -3.7938540E+003
 -9.2562428E+002
  7.7169813E+003
  1.3619438E+004
  1.9214561E+004
  2.4749455E+004
  3.0303709E+004
  3.5943599E+004
  4.1783109E+004
  4.7971058E+004
  5.4799453E+004
  6.2392475E+004
  7.2033107E+004
  8.5622930E+004
  1.3548632E+005
  7.9169573E+004
  6.2324690E+004
  4.1867822E+004
  2.6592536E+004
  1.2625256E+004
  2.0198614E+002
 -1.1049933E+004
 -2.1121308E+004
 -3.0017096E+004
 -3.7714257E+004
 -4.4206161E+004
 -4.9508276E+004
 -5.3663572E+004
 -5.6738754E+004
 -5.8815130E+004
 -5.9975768E+004
 -6.0292648E+004
 -5.9817319E+004
 -5.8578147E+004
 -5.6585836E+004
 -5.3847140E+004
 -5.0384688E+004
 -4.6258348E+004
 -4.1582118E+004
 -3.6529329E+004
 -3.1323769E+004
 -2.6215548E+004
 -2.1444971E+004
 -1.7209720E+004
 -1.3628998E+004
 -1.0728669E+004
 -8.4528408E+003
 -6.6914017E+003
 -5.3300351E+003
 -4.2923315E+003
 -3.5421506E+003
 -3.0672169E+003
 -2.8162173E+003
 -2.6687337E+003
 -2.4519057E+003
 -1.9542890E+003
 -9.1431343E+002
  8.9921277E+002
  4.3029620E+003
  6.5657422E+003
  9.0179677E+003
  1.0976167E+003
  8.4736880E+003
  1.4058660E+004
  2.0026467E+004
  2.5765396E+004
  3.1479192E+004
  3.7191596E+004
  4.3021618E+004
  4.9050966E+004
  5.5381406E+004
  6.0909197E+004
  6.3496638E+004
  4.3763578E+004
  2.2093035E+003
 -2.1224509E+004
  9.5063979E+004
  7.1484158E+004
  5.3334739E+004
  3.9684273E+004
  2.6068998E+004
  1.3736466E+004
  2.2787105E+003
 -8.2405853E+003
 -1.7833327E+004
 -2.6462371E+004
 -3.4099444E+004
 -4.0726747E+004
 -4.6346121E+004
 -5.0979277E+004
 -5.4663914E+004
 -5.7445353E+004
 -5.9365684E+004
 -6.0452796E+004
 -6.0712304E+004
 -6.0125362E+004
 -5.8654967E+004
 -5.6262375E+004
 -5.2932835E+004
 -4.8706590E+004
 -4.3705132E+004
 -3.8143716E+004
 -3.2315512E+004
 -2.6555578E+004
 -2.1198546E+004
 -1.6509871E+004
 -1.2651628E+004
 -9.6486967E+003
 -7.3861703E+003
 -5.6832654E+003
 -4.3583049E+003
 -3.3036765E+003
 -2.5395583E+003
 -2.1017051E+003
 -1.9699009E+003
 -2.0170744E+003
 -1.9888791E+003
 -1.6240188E+003
 -6.4584885E+002
  1.3910156E+003
  5.0989399E+003
  1.6546281E+004
 -2.6205213E+003
  4.6855302E+003
  8.5809114E+003
  1.4865069E+004
  2.0943412E+004
  2.6903562E+004
  3.2689016E+004
  3.8363801E+004
  4.3971704E+004
  4.9590872E+004
  5.4957355E+004
  5.9700402E+004
  5.8466214E+004
  4.5399320E+004
  1.9880119E+004
  1.9246841E+003
  1.2467993E+003
  1.0019376E+004
 -9.6304340E+003
  4.4405722E+004
  5.6032513E+004
  4.7300951E+004
  3.6686456E+004
  2.5560143E+004
  1.4633555E+004
  4.1984236E+003
 -5.6241500E+003
 -1.4752600E+004
 -2.3126399E+004
 -3.0699446E+004
 -3.7442470E+004
 -4.3343948E+004
 -4.8408537E+004
 -5.2651951E+004
 -5.6092555E+004
 -5.8740664E+004
 -6.0587400E+004
 -6.1595725E+004
 -6.1696940E+004
 -6.0796467E+004
 -5.8792766E+004
 -5.5611939E+004
 -5.1254213E+004
 -4.5841913E+004
 -3.9636633E+004
 -3.3030675E+004
 -2.6486443E+004
 -2.0437272E+004
 -1.5269415E+004
 -1.1191710E+004
 -8.1925642E+003
 -6.1043130E+003
 -4.6023880E+003
 -3.3838994E+003
 -2.3057063E+003
 -1.4095864E+003
 -9.5743382E+002
 -1.0066697E+003
 -1.2958398E+003
 -1.5405643E+003
 -1.2948654E+003
 -4.0246272E+002
  1.7748565E+003
  4.6622835E+003
  1.4922229E+004
  4.6979029E+003
  1.0029516E+004
  1.5900454E+004
  2.2168994E+004
  2.8169181E+004
  3.3941203E+004
  3.9433604E+004
  4.4628858E+004
  4.9448423E+004
  5.3764819E+004
  5.6758764E+004
  5.6972258E+004
  4.0276207E+004
  3.0617003E+003
 -1.0516748E+003
 -4.5534059E+001
  4.9744671E+003
  2.0663895E+004
  3.8618918E+004
  4.4835462E+004
  4.1584881E+004
  3.3763464E+004
  2.4732893E+004
  1.5257566E+004
  5.8459441E+003
 -3.2631869E+003
 -1.1920269E+004
 -2.0028274E+004
 -2.7519725E+004
 -3.4350443E+004
 -4.0495659E+004
 -4.5945976E+004
 -5.0700995E+004
 -5.4760084E+004
 -5.8110600E+004
 -6.0714815E+004
 -6.2497865E+004
 -6.3340332E+004
 -6.3080656E+004
 -6.1534096E+004
 -5.8535807E+004
 -5.4012586E+004
 -4.8063285E+004
 -4.1035270E+004
 -3.3453367E+004
 -2.5918795E+004
 -1.9078073E+004
 -1.3372548E+004
 -9.1263789E+003
 -6.3549312E+003
 -4.6299985E+003
 -3.5468643E+003
 -2.5818504E+003
 -1.3973373E+003
 -3.3464181E+002
  1.4163786E+002
 -1.7410032E+001
 -6.8172814E+002
 -1.1583967E+003
 -1.1296666E+003
 -1.8334679E+002
  1.5694112E+003
  4.8684113E+003
  6.0736319E+003
  3.2862328E+003
  1.0917439E+004
  1.7334795E+004
  2.3575227E+004
  2.9584985E+004
  3.5268425E+004
  4.0522775E+004
  4.5219967E+004
  4.9173080E+004
  5.2330645E+004
  5.4407482E+004
  5.8353575E+004
  7.1642604E+004
 -1.5822152E+004
  1.6488570E+003
  1.0385078E+004
  1.9793194E+004
  3.0049829E+004
  3.6070893E+004
  3.5548739E+004
  3.0657514E+004
  2.3554529E+004
  1.5534886E+004
  7.1655362E+003
 -1.2041963E+003
 -9.3672241E+003
 -1.7186179E+004
 -2.4568448E+004
 -3.1452027E+004
 -3.7798399E+004
 -4.3586333E+004
 -4.8804362E+004
 -5.3440443E+004
 -5.7468291E+004
 -6.0830848E+004
 -6.3423060E+004
 -6.5077329E+004
 -6.5557929E+004
 -6.4574897E+004
 -6.1830180E+004
 -5.7117633E+004
 -5.0486189E+004
 -4.2313587E+004
 -3.3435075E+004
 -2.4805197E+004
 -1.6978953E+004
 -1.0780738E+004
 -6.6490844E+003
 -4.1971338E+003
 -3.1199494E+003
 -2.6102396E+003
 -2.1712998E+003
 -8.9121631E+002
  1.2055359E+003
  1.8713278E+003
  9.6255035E+002
 -1.5315583E+001
 -1.1350186E+003
 -1.1285713E+003
 -2.5157827E+002
  1.2962918E+003
  2.7210831E+003
  3.4785094E+003
 -5.4774302E+003
 -4.3657566E+003
  3.8352016E+003
  1.2081215E+004
  1.8740294E+004
  2.5093603E+004
  3.1098183E+004
  3.6716322E+004
  4.1795937E+004
  4.6093355E+004
  4.9450247E+004
  5.1430801E+004
  5.4035690E+004
  5.5139348E+004
  8.7063181E+004
  5.5644063E+003
  1.1226190E+004
  1.9115387E+004
  2.6256012E+004
  3.0313766E+004
  3.0611574E+004
  2.7529863E+004
  2.2179208E+004
  1.5512721E+004
  8.1743220E+003
  5.5153362E+002
 -7.0991879E+003
 -1.4605856E+004
 -2.1849461E+004
 -2.8748814E+004
 -3.5251228E+004
 -4.1325399E+004
 -4.6953287E+004
 -5.2118955E+004
 -5.6792903E+004
 -6.0911045E+004
 -6.4349323E+004
 -6.6899710E+004
 -6.8251214E+004
 -6.7986733E+004
 -6.5627033E+004
 -6.0727095E+004
 -5.3114684E+004
 -4.3451242E+004
 -3.2893440E+004
 -2.2734254E+004
 -1.4171628E+004
 -7.1415408E+003
 -3.0295179E+003
 -2.0093345E+003
 -1.5131255E+003
 -1.5430874E+003
 -1.7976568E+003
 -1.5754806E+003
  2.2432372E+003
  4.6597115E+002
  3.6779301E+002
  4.2541459E+002
 -1.2938730E+003
 -1.1066435E+003
 -3.2860007E+002
  6.4671302E+002
  1.4946627E+003
  1.1835023E+003
 -4.3515383E+003
 -5.8821949E+003
 -1.7424812E+003
  5.7101928E+003
  1.3103027E+004
  2.0167835E+004
  2.6610161E+004
  3.2666079E+004
  3.8286864E+004
  4.3328637E+004
  4.7529436E+004
  5.0484884E+004
  5.2162887E+004
  5.2631453E+004
  5.7373526E+004
  5.8962318E+004
  6.1951714E+003
  1.1824832E+004
  1.7863224E+004
  2.2998376E+004
  2.6237018E+004
  2.6862529E+004
  2.4881636E+004
  2.0828635E+004
  1.5342312E+004
  8.9524720E+003
  2.0489580E+003
 -5.0932983E+003
 -1.2276677E+004
 -1.9359399E+004
 -2.6241363E+004
 -3.2855815E+004
 -3.9162800E+004
 -4.5141587E+004
 -5.0779675E+004
 -5.6055924E+004
 -6.0915332E+004
 -6.5232989E+004
 -6.8770337E+004
 -7.1148326E+004
 -7.1819913E+004
 -7.0048844E+004
 -6.5113392E+004
 -5.6521160E+004
 -4.4142464E+004
 -3.0458215E+004
 -1.9563573E+004
 -1.0846473E+004
 -2.9333640E+003
 -1.8895345E+003
 -1.0019787E+003
 -9.2034086E+002
 -9.9283641E+002
 -1.0488413E+003
 -1.2234388E+003
  8.2502078E+003
  2.2160184E+003
  1.5364610E+003
  2.9187247E+003
 -8.9556739E+002
 -6.6812439E+002
 -2.9746779E+002
  2.5861084E+002
  5.4621193E+002
  2.3089712E+002
 -1.9425922E+003
 -2.7100099E+003
 -7.9505721E+003
  6.6843592E+001
  7.1503142E+003
  1.4719658E+004
  2.1637981E+004
  2.8149526E+004
  3.4233954E+004
  3.9910581E+004
  4.5069477E+004
  4.9430760E+004
  5.2504787E+004
  5.3530687E+004
  5.2812101E+004
  4.9723905E+004
  4.9465583E+004
  1.2653244E+003
  1.0581123E+004
  1.6406153E+004
  2.0542822E+004
  2.3335022E+004
  2.4126759E+004
  2.2834964E+004
  1.9720333E+004
  1.5179594E+004
  9.6125321E+003
  3.3602197E+003
 -3.3051529E+003
 -1.0174626E+004
 -1.7088961E+004
 -2.3930633E+004
 -3.0619032E+004
 -3.7106436E+004
 -4.3372337E+004
 -4.9414020E+004
 -5.5230648E+004
 -6.0795858E+004
 -6.6013337E+004
 -7.0643331E+004
 -7.4215635E+004
 -7.6068257E+004
 -7.5273786E+004
 -7.0200193E+004
 -5.9661008E+004
 -4.4877379E+004
 -2.7869891E+004
 -1.1491634E+004
 -5.5945620E+003
  4.0507529E+003
  2.1693033E+003
  1.4661267E+003
  1.2350535E+003
  7.5045376E+002
  3.1046886E+002
 -3.5222673E+003
  3.2833648E+003
 -8.9019385E+002
 -8.1738284E+001
 -1.4505128E+002
 -9.6405901E+001
  2.1251238E+001
 -9.7475158E+001
  6.6717881E+001
 -2.5083804E+004
 -5.0397514E+003
  1.5195630E+003
  9.5620950E+003
  1.6502137E+004
  2.3293653E+004
  2.9679762E+004
  3.5755993E+004
  4.1488834E+004
  4.6789297E+004
  5.1527643E+004
  5.5097557E+004
  5.6024615E+004
  5.1657448E+004
  4.3664991E+004
  3.4603277E+004
 -2.7089590E+003
  1.5490368E+004
  1.4930656E+004
  1.8527990E+004
  2.1222786E+004
  2.2163281E+004
  2.1357021E+004
  1.8945129E+004
  1.5149223E+004
  1.0257657E+004
  4.5645659E+003
 -1.6805712E+003
 -8.2684143E+003
 -1.5026671E+004
 -2.1820908E+004
 -2.8556355E+004
 -3.5177557E+004
 -4.1665596E+004
 -4.8031885E+004
 -5.4305623E+004
 -6.0510472E+004
 -6.6615584E+004
 -7.2453343E+004
 -7.7516619E+004
 -8.0750198E+004
 -8.1201632E+004
 -7.7921229E+004
 -6.6740175E+004
 -4.4274847E+004
 -1.1236584E+004
 -7.4197062E+003
 -2.5458271E+003
  1.9130335E+003
 -7.2658027E+002
  5.4290096E+002
  1.7306603E+002
  7.1924790E+001
 -5.2688220E+001
 -2.6207020E+002
 -2.6502290E+004
 -5.3486664E+003
  4.3887131E+003
  1.1651941E+004
  1.8466477E+004
  2.4932025E+004
  3.1170450E+004
  3.7184371E+004
  4.2947857E+004
  4.8373057E+004
  5.3247287E+004
  5.7715467E+004
  6.0003491E+004
  5.5221940E+004
  3.6658927E+004
  7.5199092E+003
  7.9713639E+003
  1.2469825E+004
  1.7602602E+004
  1.9862663E+004
  2.0771903E+004
  2.0386025E+004
  1.8549635E+004
  1.5315358E+004
  1.0965156E+004
  5.7350596E+003
 -1.6356839E+002
 -6.5255047E+003
 -1.3162744E+004
 -1.9922407E+004
 -2.6694393E+004
 -3.3414490E+004
 -4.0065071E+004
 -4.6672783E+004
 -5.3302617E+004
 -6.0041980E+004
 -6.6970540E+004
 -7.4061996E+004
 -8.1056925E+004
 -8.6671556E+004
 -8.7768727E+004
 -8.3851616E+004
 -6.6057146E+004
 -4.1913827E+004
 -4.8706789E+003
  7.4843489E+001
  2.4282500E+002
  3.0657252E+001
 -1.0480610E+002
  1.7103209E+001
  1.8938420E+002
  8.8921572E+001
 -2.5501130E+002
 -1.1814158E+002
 -1.0813370E+004
 -1.4908951E+004
 -1.0509069E+004
 -2.2242235E+003
  6.4759750E+003
  1.3656843E+004
  2.0218321E+004
  2.6478454E+004
  3.2552652E+004
  3.8497124E+004
  4.4326513E+004
  4.9886346E+004
  5.4918370E+004
  5.8890909E+004
  6.4032075E+004
  5.3924258E+004
  2.4696335E+004
  4.0023652E+003
  6.7240210E+002
  1.0918567E+004
  1.5249964E+004
  1.7842847E+004
  1.9388588E+004
  1.9947040E+004
  1.8504577E+004
  1.5678349E+004
  1.1793343E+004
  6.9451348E+003
  1.2996760E+003
 -4.9159945E+003
 -1.1491044E+004
 -1.8251904E+004
 -2.5070610E+004
 -3.1872673E+004
 -3.8640084E+004
 -4.5413282E+004
 -5.2291207E+004
 -5.9433628E+004
 -6.7036837E+004
 -7.5342728E+004
 -8.4320565E+004
 -9.4142794E+004
 -1.0024423E+005
 -9.9240873E+004
 -1.2062341E+005
 -4.6852951E+003
 -4.1383523E+001
 -9.1740717E+001
  6.7066761E+001
 -8.5895261E+001
  7.4191219E+001
 -2.0369237E+002
 -1.7010573E+004
 -1.5603967E+004
 -1.1327587E+004
 -6.3849909E+003
  5.8296469E+002
  8.3484636E+003
  1.5377033E+004
  2.1792022E+004
  2.7891438E+004
  3.3824742E+004
  3.9708140E+004
  4.5633122E+004
  5.1635450E+004
  5.7346003E+004
  6.1469310E+004
  6.6847137E+004
  1.0131199E+005
 -4.2593568E+003
  4.5410325E+003
  2.1497461E+004
  1.6448612E+004
  2.0161602E+004
  2.0376537E+004
  1.8549576E+004
  1.6232059E+004
  1.2845967E+004
  8.2653431E+003
  2.7562786E+003
 -3.4122411E+003
 -1.0008472E+004
 -1.6830111E+004
 -2.3729018E+004
 -3.0618730E+004
 -3.7479771E+004
 -4.4362439E+004
 -5.1396035E+004
 -5.8798173E+004
 -6.6912290E+004
 -7.6149982E+004
 -8.7230181E+004
 -9.9885872E+004
 -1.1702509E+005
 -9.8749744E+004
 -6.5836790E+004
 -2.8783391E+001
  6.8036861E+001
 -3.8790245E+000
 -1.8089900E+004
 -1.6527470E+004
 -1.2363431E+004
 -7.2567263E+003
 -2.0807963E+003
  4.0225615E+003
  1.0558120E+004
  1.7100704E+004
  2.3314171E+004
  2.9253121E+004
  3.5047033E+004
  4.0848358E+004
  4.6838902E+004
  5.3395926E+004
  6.0496827E+004
  6.8558350E+004
  6.7337277E+004
  1.0163501E+005
  1.2793839E+004
  6.2809262E+003
  2.0580602E+004
  1.8705013E+004
  1.8469356E+004
  1.7286331E+004
  1.4242407E+004
  9.7467648E+003
  4.2581118E+003
 -1.9875191E+003
 -8.7100193E+003
 -1.5676618E+004
 -2.2711356E+004
 -2.9718207E+004
 -3.6676795E+004
 -4.3644482E+004
 -5.0771109E+004
 -5.8323106E+004
 -6.6757885E+004
 -7.6732376E+004
 -8.9528907E+004
 -1.0624266E+005
 -1.3274618E+005
 -2.0034166E+005
  4.6634128E+004
 -1.9501678E+004
 -1.7050138E+004
 -1.3212083E+004
 -8.4539555E+003
 -3.9768013E+003
  1.2251061E+003
  6.8792850E+003
  1.2907933E+004
  1.8973724E+004
  2.4915769E+004
  3.0680440E+004
  3.6330065E+004
  4.1997173E+004
  4.7957566E+004
  5.4626276E+004
  6.3099322E+004
  7.3386231E+004
  7.2794786E+004
  1.4130447E+004
 -2.7973812E+003
  3.1697643E+003
  3.4054091E+004
  1.8612404E+004
  2.0087788E+004
  1.9142067E+004
  1.5863365E+004
  1.1431397E+004
  5.8490295E+003
 -5.9706918E+002
 -7.5876981E+003
 -1.4801972E+004
 -2.2045069E+004
 -2.9217930E+004
 -3.6304049E+004
 -4.3366732E+004
 -5.0558721E+004
 -5.8200373E+004
 -6.6730923E+004
 -7.7357546E+004
 -9.0570194E+004
 -1.1362822E+005
 -1.3548603E+005
 -2.3132171E+005
 -1.6805317E+004
 -2.6472587E+004
 -1.3296396E+004
 -9.8005296E+003
 -5.4556512E+003
 -8.5988042E+002
  4.1487595E+003
  9.5490955E+003
  1.5202272E+004
  2.0952734E+004
  2.6658010E+004
  3.2263387E+004
  3.7784057E+004
  4.3328444E+004
  4.9083655E+004
  5.5734974E+004
  6.4014170E+004
  7.9509031E+004
  1.1642706E+005
 -1.9183148E+004
  1.8824433E+004
  6.4187828E+003
  2.3118631E+004
  2.0300593E+004
  1.7902423E+004
  1.3472673E+004
  7.7057535E+003
  7.9535488E+002
 -6.6223245E+003
 -1.4202633E+004
 -2.1727460E+004
 -2.9126082E+004
 -3.6392156E+004
 -4.3581948E+004
 -5.0856042E+004
 -5.8498991E+004
 -6.7103127E+004
 -7.7385843E+004
 -9.1988586E+004
 -1.1125363E+005
 -1.5567175E+005
 -1.6238500E+005
 -9.5994369E+003
 -1.0686868E+004
 -3.5232092E+003
  8.2361290E+002
 -1.5855211E+004
 -1.0768008E+004
 -7.1834870E+003
 -2.7978616E+003
  1.7514384E+003
  6.7277310E+003
  1.1982699E+004
  1.7444030E+004
  2.2989008E+004
  2.8532869E+004
  3.4025011E+004
  3.9482541E+004
  4.4919755E+004
  5.0654559E+004
  5.6491400E+004
  6.5968216E+004
  7.4087549E+004
  1.2998445E+005
 -5.1519249E+003
  7.7272981E+003
  2.9403502E+004
  2.2315140E+004
  2.0355844E+004
  1.5917485E+004
  9.8383500E+003
  2.2784594E+003
 -5.8224661E+003
 -1.3839677E+004
 -2.1701663E+004
 -2.9400877E+004
 -3.6912322E+004
 -4.4279022E+004
 -5.1636954E+004
 -5.9288274E+004
 -6.7626156E+004
 -7.7731322E+004
 -8.9824790E+004
 -1.1055584E+005
 -1.2789127E+005
 -2.1566983E+005
 -1.1119782E+004
 -1.9823609E+004
 -7.4473701E+003
 -9.9992883E+003
 -1.1431937E+004
 -9.2544199E+003
 -5.0027013E+003
 -6.5962646E+002
  4.0627836E+003
  9.0512789E+003
  1.4269825E+004
  1.9628337E+004
  2.5055051E+004
  3.0494308E+004
  3.5924802E+004
  4.1347556E+004
  4.6829129E+004
  5.2360215E+004
  5.8401980E+004
  6.4564888E+004
  7.8026631E+004
  7.9988294E+004
  2.1756638E+004
  2.5144260E+004
  2.3384936E+004
  2.0650920E+004
  1.3016649E+004
  3.6156985E+003
 -5.1593506E+003
 -1.3563783E+004
 -2.1854397E+004
 -2.9952105E+004
 -3.7789169E+004
 -4.5365961E+004
 -5.2811799E+004
 -6.0372799E+004
 -6.8463284E+004
 -7.7499195E+004
 -8.8569948E+004
 -1.0102063E+005
 -1.2225590E+005
 -1.6630486E+005
 -6.4669795E+003
 -7.7711546E+003
 -3.1547275E+003
  4.8741818E+002
 -1.2012431E+004
 -9.6962441E+003
 -8.7593079E+003
 -8.4407149E+003
 -6.6745944E+003
 -3.0833713E+003
  1.3512540E+003
  6.1559334E+003
  1.1227255E+004
  1.6458775E+004
  2.1774465E+004
  2.7121574E+004
  3.2480039E+004
  3.7851475E+004
  4.3256294E+004
  4.8696604E+004
  5.4271261E+004
  5.9630070E+004
  6.4641764E+004
  6.5467637E+004
  6.7563813E+004
  2.5928786E+004
  2.7004633E+004
  2.4047554E+004
  1.5009488E+004
  4.7207443E+003
 -4.2259015E+003
 -1.3144516E+004
 -2.2025306E+004
 -3.0685618E+004
 -3.8925334E+004
 -4.6715952E+004
 -5.4179761E+004
 -6.1561740E+004
 -6.9172026E+004
 -7.7304767E+004
 -8.6167518E+004
 -9.5221002E+004
 -1.0421796E+005
 -8.0335599E+004
 -2.0110753E+004
  2.1121202E+004
 -7.2493837E+003
 -1.2753664E+004
 -5.9864256E+003
 -8.5695393E+003
 -1.0494040E+004
 -9.8881054E+003
 -8.5917341E+003
 -7.0954319E+003
 -4.6436352E+003
 -1.1289562E+003
  3.2634793E+003
  8.1688274E+003
  1.3337195E+004
  1.8614514E+004
  2.3904142E+004
  2.9168587E+004
  3.4420233E+004
  3.9697071E+004
  4.5012389E+004
  5.0349456E+004
  5.5536097E+004
  6.0703470E+004
  6.3607350E+004
  6.0605587E+004
  4.8181506E+004
  1.7657063E+004
  5.0745353E+004
  1.8457399E+004
  6.9126520E+003
 -2.5574873E+003
 -1.2330371E+004
 -2.2150295E+004
 -3.1552846E+004
 -4.0258674E+004
 -4.8194566E+004
 -5.5530166E+004
 -6.2533473E+004
 -6.9455558E+004
 -7.6445803E+004
 -8.3238400E+004
 -8.9331261E+004
 -8.9536432E+004
 -7.5749524E+004
 -3.8026710E+004
 -1.0168109E+004
 -1.1831882E+003
 -6.5085036E+003
  1.9551620E+003
 -4.2453169E+003
 -9.8692484E+003
  2.1591888E+004
  8.8179155E+003
 -2.8568044E+003
 -4.7473372E+003
 -2.4196401E+003
 -2.3012259E+002
 -8.7364547E+003
 -8.3277651E+003
 -8.5994297E+003
 -9.3496154E+003
 -9.2886459E+003
 -7.9805168E+003
 -5.9674920E+003
 -3.1696532E+003
  5.5582527E+002
  5.0710305E+003
  1.0125034E+004
  1.5440905E+004
  2.0795550E+004
  2.6052606E+004
  3.1191127E+004
  3.6267282E+004
  4.1365974E+004
  4.6538742E+004
  5.1667241E+004
  5.6407214E+004
  6.0148299E+004
  6.3242671E+004
  5.2789727E+004
  1.1244428E+004
  3.2248003E+004
  1.6639651E+004
  1.0595835E+004
 -2.8898510E+002
 -1.1148848E+004
 -2.2231570E+004
 -3.2634423E+004
 -4.1789567E+004
 -4.9709460E+004
 -5.6670447E+004
 -6.3027404E+004
 -6.8999343E+004
 -7.4529587E+004
 -7.9172327E+004
 -8.1176962E+004
 -7.7041738E+004
 -6.2352213E+004
 -4.1129485E+004
 -2.2323136E+004
 -1.1764014E+004
 -7.6476934E+003
  4.5478531E+003
  1.3791740E+002
  5.3110936E+003
  1.9101257E+002
  1.5720211E+003
 -1.2179175E+003
  5.5104075E+002
 -1.8510921E+003
 -1.9656280E+002
 -8.3150741E+002
 -5.8156209E+003
  4.7509574E+003
  1.2204751E+004
 -3.0104564E+003
 -5.0233123E+003
 -4.1934561E+003
 -6.6113786E+003
 -8.6028412E+003
 -9.0730088E+003
 -9.2121005E+003
 -9.2452657E+003
 -8.6608052E+003
 -7.3274631E+003
 -5.1212553E+003
 -2.0464104E+003
  1.9184994E+003
  6.6807019E+003
  1.2022642E+004
  1.7598035E+004
  2.3070086E+004
  2.8277587E+004
  3.3210016E+004
  3.8001463E+004
  4.2816591E+004
  4.7767520E+004
  5.2840131E+004
  5.7486221E+004
  6.0316950E+004
  6.2124967E+004
  8.2763923E+004
 -1.4584708E+004
 -1.5826603E+003
  2.3470973E+004
  1.2135286E+004
  2.8196315E+003
 -9.7639586E+003
 -2.2651759E+004
 -3.4107086E+004
 -4.3625218E+004
 -5.1194631E+004
 -5.7460410E+004
 -6.2901818E+004
 -6.7707755E+004
 -7.1688651E+004
 -7.4128495E+004
 -7.3643586E+004
 -6.8335757E+004
 -5.7373960E+004
 -4.2226520E+004
 -2.7933469E+004
 -1.7468049E+004
 -8.4900304E+003
 -2.2705226E+002
  2.6865939E+003
 -5.9686909E+002
 -2.0500104E+003
 -3.6225213E+003
 -2.8881771E+003
  1.7244561E+003
  3.2651472E+004
  1.4709357E+004
  2.0743674E+002
  2.5565021E+003
 -2.1401817E+003
 -2.7850625E+003
 -5.0251685E+003
 -6.3459265E+003
 -7.2326928E+003
 -8.4468731E+003
 -9.2003007E+003
 -9.2860666E+003
 -9.0019429E+003
 -8.2363360E+003
 -6.7556312E+003
 -4.4649322E+003
 -1.2517921E+003
  2.9050092E+003
  8.0253060E+003
  1.3806339E+004
  1.9810181E+004
  2.5546162E+004
  3.0660945E+004
  3.5275030E+004
  3.9638312E+004
  4.4039096E+004
  4.8675503E+004
  5.3730111E+004
  5.8979690E+004
  6.3921218E+004
  6.0478056E+004
  8.1053666E+004
  1.3086447E+004
  1.8038796E+004
  5.9771227E+003
 -8.1017034E+003
 -2.2932687E+004
 -3.6428093E+004
 -4.5839438E+004
 -5.2579368E+004
 -5.7769934E+004
 -6.2138710E+004
 -6.5743438E+004
 -6.8294704E+004
 -6.9141776E+004
 -6.7338985E+004
 -6.2007790E+004
 -5.3019764E+004
 -4.1811397E+004
 -3.0431179E+004
 -2.0344504E+004
 -1.1925888E+004
 -5.8723323E+003
 -3.0624435E+003
 -2.4006524E+003
 -3.5678612E+003
 -4.1691768E+003
 -2.8543460E+003
  1.4442017E+003
  1.3730935E+004
  2.9446631E+003
  6.4438547E+003
  2.5514300E+003
  1.5262054E+003
  6.1687219E+002
  1.3192102E+003
  3.3965782E+002
  8.7141064E+002
  7.8777291E+001
  8.6311470E+002
  8.1181421E+001
  7.6399184E+002
 -2.8601040E+002
  1.3087097E+003
 -6.5371208E+002
 -4.4188063E+003
 -5.9747223E+003
 -6.9726995E+003
 -7.8448070E+003
 -8.5734400E+003
 -8.9897182E+003
 -9.0533256E+003
 -8.6803329E+003
 -7.8088872E+003
 -6.3104798E+003
 -4.0140437E+003
 -8.2763171E+002
  3.4954950E+003
  8.8790664E+003
  1.5462667E+004
  2.2362805E+004
  2.8370398E+004
  3.3338658E+004
  3.7431146E+004
  4.1219607E+004
  4.5082781E+004
  4.9307206E+004
  5.4103001E+004
  5.9982926E+004
  6.6607797E+004
  6.2099495E+004
  1.1745021E+004
  1.5754116E+004
  1.2678860E+004
 -4.5474004E+003
 -2.6132490E+004
 -3.9994347E+004
 -4.8525408E+004
 -5.3518031E+004
 -5.7527069E+004
 -6.0814249E+004
 -6.3366035E+004
 -6.4813179E+004
 -6.4632492E+004
 -6.2246972E+004
 -5.7278453E+004
 -4.9885474E+004
 -4.0854272E+004
 -3.1425714E+004
 -2.2635490E+004
 -1.5185476E+004
 -9.5568130E+003
 -6.1988831E+003
 -4.9932956E+003
 -4.6303957E+003
 -4.1466298E+003
 -2.1409039E+003
  2.9468892E+003
  9.4929146E+003
  9.9549417E+003
  4.0516641E+003
  2.3811308E+003
  1.2735216E+003
  8.1636650E+002
  4.4574360E+002
  2.3074406E+002
 -1.5777423E+003
 -4.0311040E+003
 -5.8003327E+003
 -6.9461605E+003
 -7.7054778E+003
 -8.2565379E+003
 -8.5641000E+003
 -8.5423652E+003
 -8.1513233E+003
 -7.3126525E+003
 -5.8995239E+003
 -3.7416009E+003
 -6.1956268E+002
  3.2956524E+003
  9.0944557E+003
  1.6432768E+004
  2.4737874E+004
  3.1903457E+004
  3.6376737E+004
  3.9694933E+004
  4.2770122E+004
  4.6085401E+004
  4.9806387E+004
  5.4376343E+004
  6.0068287E+004
  7.0961538E+004
  9.8677134E+004
 -1.6821864E+004
  1.2692137E+004
  4.3523191E+003
 -2.5582656E+004
 -4.5762299E+004
 -5.0427937E+004
 -5.3923150E+004
 -5.6688266E+004
 -5.9126066E+004
 -6.0866809E+004
 -6.1550471E+004
 -6.0764026E+004
 -5.8163340E+004
 -5.3602341E+004
 -4.7271721E+004
 -3.9744004E+004
 -3.1793983E+004
 -2.4210693E+004
 -1.7625517E+004
 -1.2520256E+004
 -9.0600955E+003
 -6.9616807E+003
 -5.6615222E+003
 -4.1744673E+003
 -1.6174045E+003
  2.2210603E+003
  5.2427924E+003
  5.7242657E+003
  4.9821384E+003
  2.9823808E+003
  1.9000329E+003
  1.1497598E+003
  5.6754633E+002
 -4.2996395E+002
 -1.7989855E+003
 -3.5473036E+003
 -5.1674374E+003
 -6.3061330E+003
 -7.0963389E+003
 -7.5993340E+003
 -7.8358778E+003
 -7.7867912E+003
 -7.4074714E+003
 -6.6438740E+003
 -5.4110800E+003
 -3.5135652E+003
 -6.5121936E+002
  3.3653597E+003
  7.0397062E+003
  1.6877874E+004
  3.0078055E+004
  3.6617290E+004
  3.9761108E+004
  4.1909651E+004
  4.4373143E+004
  4.7136845E+004
  5.0540653E+004
  5.4398140E+004
  6.1374420E+004
  6.6817215E+004
  1.1021683E+005
  2.1965410E+004
 -5.1959355E+004
 -5.2182885E+004
 -5.2175076E+004
 -5.3650435E+004
 -5.5553449E+004
 -5.7362731E+004
 -5.8545018E+004
 -5.8725553E+004
 -5.7591530E+004
 -5.4940111E+004
 -5.0737741E+004
 -4.5179285E+004
 -3.8682319E+004
 -3.1819656E+004
 -2.5186917E+004
 -1.9307407E+004
 -1.4537151E+004
 -1.1005124E+004
 -8.5357394E+003
 -6.6247300E+003
 -4.6651161E+003
 -2.1856708E+003
  6.0563477E+002
  3.0542381E+003
  4.1826645E+003
  3.7902042E+003
  3.0407182E+003
  2.1421021E+003
  1.4311400E+003
  6.8323161E+002
 -2.3806368E+002
 -1.5067064E+003
 -2.9427162E+003
 -4.2825797E+003
 -5.3763187E+003
 -6.1506405E+003
 -6.6407778E+003
 -6.8600161E+003
 -6.7986649E+003
 -6.4357681E+003
 -5.7365871E+003
 -4.6591958E+003
 -3.0750889E+003
 -7.0878410E+002
  3.3434573E+003
  3.9063063E+003
  8.1580039E+003
  3.2890511E+004
  4.2088154E+004
  4.2858134E+004
  4.4271582E+004
  4.6078480E+004
  4.8386709E+004
  5.1252609E+004
  5.5234276E+004
  6.0061787E+004
  7.1026688E+004
  6.9847434E+004
 -7.6744949E+004
 -5.7760152E+004
 -5.3336771E+004
 -5.3227502E+004
 -5.4565795E+004
 -5.5907712E+004
 -5.6680865E+004
 -5.6505744E+004
 -5.5149761E+004
 -5.2493329E+004
 -4.8558604E+004
 -4.3528938E+004
 -3.7741702E+004
 -3.1636899E+004
 -2.5686869E+004
 -2.0315611E+004
 -1.5830390E+004
 -1.2344724E+004
 -9.7308943E+003
 -7.6317350E+003
 -5.6035779E+003
 -3.3628018E+003
 -9.8285807E+002
  9.9984464E+002
  2.2026306E+003
  2.6168322E+003
  2.3976685E+003
  1.9954066E+003
  1.4994577E+003
  8.9140443E+002
  5.7243215E+001
 -9.9927731E+002
 -2.1875198E+003
 -3.3420150E+003
 -4.3127385E+003
 -5.0410342E+003
 -5.5079210E+003
 -5.7137661E+003
 -5.6469755E+003
 -5.2843227E+003
 -4.5976247E+003
 -3.5838189E+003
 -2.0648725E+003
 -2.0172115E+001
  7.8792426E+003
  1.3113381E+003
 -5.1357152E+003
  6.6599647E+004
  4.9782835E+004
  4.6730110E+004
  4.7056283E+004
  4.8014701E+004
  4.9695635E+004
  5.2061004E+004
  5.5154745E+004
  5.9583630E+004
  6.2788546E+004
  6.4405402E+004
 -9.2744626E+004
 -5.8273033E+004
 -5.4564593E+004
 -5.3202301E+004
 -5.4203457E+004
 -5.5081482E+004
 -5.5486597E+004
 -5.5001561E+004
 -5.3457386E+004
 -5.0774954E+004
 -4.7000570E+004
 -4.2302731E+004
 -3.6963221E+004
 -3.1343299E+004
 -2.5831468E+004
 -2.0788543E+004
 -1.6498615E+004
 -1.3115577E+004
 -1.0586747E+004
 -8.6406811E+003
 -6.7798024E+003
 -4.7174284E+003
 -2.5777952E+003
 -6.1827799E+002
  7.1462253E+002
  1.3717415E+003
  1.6121979E+003
  1.6071620E+003
  1.4729067E+003
  1.1378990E+003
  5.0952243E+002
 -3.7690477E+002
 -1.3946413E+003
 -2.3867851E+003
 -3.2385095E+003
 -3.8858111E+003
 -4.3103782E+003
 -4.5023913E+003
 -4.4351468E+003
 -4.0785457E+003
 -3.3765219E+003
 -2.3847119E+003
 -8.4687146E+002
  3.0036280E+002
  2.5686493E+003
  7.7171402E+004
  5.2898752E+004
  5.2132847E+004
  4.9966156E+004
  5.0150961E+004
  5.0948234E+004
  5.2532111E+004
  5.4722305E+004
  5.6908667E+004
  5.8532075E+004
  5.6844400E+004
 -7.5494887E+004
 -5.9731437E+004
 -5.4790766E+004
 -5.4185941E+004
 -5.4540564E+004
 -5.5036758E+004
 -5.5034581E+004
 -5.4246554E+004
 -5.2501731E+004
 -4.9745055E+004
 -4.6023081E+004
 -4.1486592E+004
 -3.6380978E+004
 -3.1018865E+004
 -2.5737795E+004
 -2.0857423E+004
 -1.6649551E+004
 -1.3349070E+004
 -1.1068959E+004
 -9.5013243E+003
 -8.1617184E+003
 -6.3061738E+003
 -3.8600741E+003
 -1.8521792E+003
 -4.2823269E+002
  3.3010868E+002
  6.6914698E+002
  1.0668668E+003
  1.4248489E+003
  1.4337868E+003
  1.0198742E+003
  2.5038880E+002
 -6.5091435E+002
 -1.5129441E+003
 -2.2357718E+003
 -2.7804186E+003
 -3.1414024E+003
 -3.3237578E+003
 -3.2931235E+003
 -2.9468682E+003
 -2.2830650E+003
 -1.3098145E+003
 -3.7400351E+002
  1.3649942E+003
 -9.8595688E+002
  5.5972037E+004
  6.2157127E+004
  5.5308096E+004
  5.3197148E+004
  5.1930096E+004
  5.1982760E+004
  5.2695716E+004
  5.3740223E+004
  5.4621822E+004
  5.4587201E+004
  5.2753743E+004
  1.6691335E+004
 -5.8045139E+003
 -4.2209721E+004
 -5.5645498E+004
 -5.5333399E+004
 -5.5308554E+004
 -5.5506335E+004
 -5.5629769E+004
 -5.5269615E+004
 -5.4186055E+004
 -5.2232861E+004
 -4.9356841E+004
 -4.5594407E+004
 -4.1076598E+004
 -3.6024519E+004
 -3.0731755E+004
 -2.5517642E+004
 -2.0665723E+004
 -1.6423685E+004
 -1.3030511E+004
 -1.0911982E+004
 -1.0280606E+004
 -9.4439202E+003
 -7.2702758E+003
 -4.9085837E+003
 -2.2207052E+003
 -9.4131201E+002
 -5.5363272E+002
 -7.1931538E+001
  5.0294938E+002
  1.3721957E+003
  1.8714112E+003
  1.5233167E+003
  7.6065545E+002
 -7.2050992E+001
 -8.0493803E+002
 -1.3832201E+003
 -1.7989135E+003
 -2.0736599E+003
 -2.2353281E+003
 -2.3069642E+003
 -2.1306119E+003
 -1.4907633E+003
 -6.5989783E+002
 -3.3942371E+001
 -2.3339446E+002
  6.1988005E+004
  6.0673177E+004
  5.8540265E+004
  5.4818866E+004
  5.3243060E+004
  5.2608067E+004
  5.2588037E+004
  5.2712650E+004
  5.2524320E+004
  5.1685606E+004
  4.9393822E+004
 -3.0199630E+004
 -4.3824553E+004
 -5.2167698E+004
 -5.5444276E+004
 -5.6266714E+004
 -5.6701070E+004
 -5.6643252E+004
 -5.6033039E+004
 -5.4711123E+004
 -5.2570684E+004
 -4.9555655E+004
 -4.5686567E+004
 -4.1071465E+004
 -3.5918322E+004
 -3.0524057E+004
 -2.5244791E+004
 -2.0386272E+004
 -1.6049028E+004
 -1.2425565E+004
 -9.9813956E+003
 -1.0019253E+004
 -1.2240027E+004
 -1.0241415E+004
 -3.8624998E+003
 -1.8994795E+003
 -9.1708596E+002
 -7.9510089E+002
 -1.9777020E+003
 -7.7017928E+002
  1.7003318E+003
  2.4187762E+003
  1.8452854E+003
  9.9421500E+002
  2.5360719E+002
 -3.2121246E+002
 -7.3284153E+002
 -1.0012501E+003
 -1.1673396E+003
 -1.3157044E+003
 -1.4598616E+003
 -1.6069381E+003
 -4.9985285E+002
 -5.9059485E+002
 -1.8526865E+002
  6.3148147E+004
  6.5076856E+004
  5.7956716E+004
  5.5549791E+004
  5.3750328E+004
  5.2910428E+004
  5.2349008E+004
  5.1751411E+004
  5.0781055E+004
  4.9300463E+004
  4.6882165E+004
 -3.6659539E+004
 -4.1954765E+004
 -4.9834967E+004
 -5.4731971E+004
 -5.7064039E+004
 -5.7894931E+004
 -5.7885828E+004
 -5.7157353E+004
 -5.5697075E+004
 -5.3425933E+004
 -5.0285671E+004
 -4.6274070E+004
 -4.1476598E+004
 -3.6079663E+004
 -3.0415054E+004
 -2.4924449E+004
 -2.0060021E+004
 -1.5969299E+004
 -1.1936817E+004
 -8.5622296E+003
 -8.1268787E+003
 -1.4528928E+004
 -3.3512886E+003
 -2.4053369E+003
 -4.6475875E+002
 -1.5328668E+002
 -3.8959678E+002
 -2.6504994E+002
 -1.9378968E+003
  2.8587473E+003
  2.5377826E+003
  1.5678246E+003
  7.8839222E+002
  2.5939006E+002
 -9.4710649E+001
 -3.1895696E+002
 -4.4325937E+002
 -4.7824413E+002
 -5.7149997E+002
 -8.2465049E+002
 -2.0106612E+003
 -1.4255018E+002
 -2.8205687E+002
  9.0546706E+004
  5.9787367E+004
  5.8140538E+004
  5.5033092E+004
  5.3966619E+004
  5.3000159E+004
  5.2145801E+004
  5.0988124E+004
  4.9338387E+004
  4.7303732E+004
  4.4765865E+004
 -3.8486932E+004
 -4.2942086E+004
 -4.9498760E+004
 -5.4964724E+004
 -5.7958866E+004
 -5.9164920E+004
 -5.9242327E+004
 -5.8522426E+004
 -5.7037346E+004
 -5.4721308E+004
 -5.1496389E+004
 -4.7338946E+004
 -4.2295741E+004
 -3.6542079E+004
 -3.0382956E+004
 -2.4430102E+004
 -1.9480581E+004
 -1.6134735E+004
 -1.3187613E+004
 -9.1469295E+003
 -5.7302503E+003
 -2.9347134E+004
 -5.4204427E+003
 -1.1585758E+003
 -1.1708879E+003
 -1.0283177E+003
 -1.1239769E+003
 -2.7126293E+003
 -9.3036504E+003
  1.8676042E+003
  1.2987024E+003
  9.2298266E+002
  4.5637104E+002
  2.1243177E+002
  4.2995074E+001
 -6.0207993E+001
 -1.1490780E+002
 -1.3780972E+002
 -1.9445352E+002
 -8.7403972E+002
 -1.1677740E+003
  7.5967954E+004
  6.1021116E+004
  5.6445136E+004
  5.4995368E+004
  5.3935251E+004
  5.3134659E+004
  5.2118235E+004
  5.0549322E+004
  4.8220124E+004
  4.5416963E+004
  4.2670827E+004
 -3.5337089E+004
 -4.1983677E+004
 -5.0771091E+004
 -5.6481864E+004
 -5.9387660E+004
 -6.0531902E+004
 -6.0677023E+004
 -6.0047588E+004
 -5.8664115E+004
 -5.6408067E+004
 -5.3149373E+004
 -4.8838658E+004
 -4.3540701E+004
 -3.7310761E+004
 -3.0509519E+004
 -2.3824469E+004
 -1.8308066E+004
 -1.5287522E+004
 -1.5562922E+004
 -3.7787429E+003
 -7.6573263E+003
 -1.2697953E+004
 -2.5295183E+003
  5.1948633E+003
  5.8158620E+002
  1.3053713E+002
 -1.9517022E+002
 -2.0301912E+002
 -1.7711341E+002
 -1.2562180E+002
 -4.4552032E+001
 -7.8991272E-001
  4.4347994E+002
 -8.7848513E+002
 -1.6230828E+004
  7.7807124E+003
  4.4565936E+004
  5.7099402E+004
  5.5630376E+004
  5.4657590E+004
  5.3926723E+004
  5.3302273E+004
  5.2368742E+004
  5.0622441E+004
  4.7545667E+004
  4.3663168E+004
  4.0133117E+004
 -2.7870587E+004
 -4.3808032E+004
 -5.4064592E+004
 -5.9146687E+004
 -6.1046875E+004
 -6.1978262E+004
 -6.2134812E+004
 -6.1687606E+004
 -6.0545324E+004
 -5.8486014E+004
 -5.5248374E+004
 -5.0735231E+004
 -4.5094107E+004
 -3.8498974E+004
 -3.0600569E+004
 -2.2160519E+004
 -1.7330977E+004
 -1.3613370E+004
 -2.4072313E+004
  2.1815811E+003
 -1.1163720E+004
  3.4453522E+004
  4.9517490E+004
  5.2836837E+004
  5.4365231E+004
  5.3917000E+004
  5.3694828E+004
  5.3378687E+004
  5.2837731E+004
  5.1364589E+004
  4.7779544E+004
  4.1248622E+004
  3.5572160E+004
 -4.5352701E+003
 -4.2067154E+004
 -5.9027720E+004
 -6.1475513E+004
 -6.2777893E+004
 -6.3397709E+004
 -6.3594084E+004
 -6.3398525E+004
 -6.2672022E+004
 -6.1017187E+004
 -5.7891862E+004
 -5.2936896E+004
 -4.6594087E+004
 -3.9762603E+004
 -3.1670289E+004
 -2.1398741E+004
 -1.2149222E+004
 -1.4610569E+004
 -1.4004319E+004
  6.1890408E+004
  4.4550301E+004
  5.0072078E+004
  5.1755607E+004
  5.2825674E+004
  5.3070487E+004
  5.3214841E+004
  5.3125360E+004
  5.2696922E+004
  4.9771827E+004
  4.1796323E+004
  2.7928263E+004
  1.6878309E+004
 -7.3283158E+004
 -6.5578323E+004
 -6.4001285E+004
 -6.4685134E+004
 -6.4887290E+004
 -6.5053407E+004
 -6.5114653E+004
 -6.4990414E+004
 -6.4111448E+004
 -6.1416589E+004
 -5.6070026E+004
 -4.7976810E+004
 -3.9166319E+004
 -3.3005818E+004
 -8.7106083E+003
 -1.2151038E+004
 -1.4278232E+004
  5.5388488E+004
  4.7184566E+004
  4.7888267E+004
  5.0165301E+004
  5.1483311E+004
  5.2257099E+004
  5.2726384E+004
  5.3103828E+004
  5.3320503E+004
  5.3016603E+004
  3.9573258E+004
  5.0596516E+003
 -9.3354351E+004
 -6.7569337E+004
 -6.8255972E+004
 -6.6785425E+004
 -6.6705551E+004
 -6.6531516E+004
 -6.6697392E+004
 -6.7279680E+004
 -6.7792288E+004
 -6.6266495E+004
 -5.9392479E+004
 -4.9890734E+004
 -3.7620925E+004
 -3.9180959E+004
 -9.6007748E+002
 -7.8980422E+003
 -1.1670011E+004
  4.7220326E+003
  3.3696566E+004
  4.5273303E+004
  4.7359801E+004
  4.9132117E+004
  5.0455322E+004
  5.1414213E+004
  5.2135679E+004
  5.2938884E+004
  5.3770678E+004
  5.7359838E+004
  6.8801081E+004
 -1.5275582E+004
 -7.2470002E+004
 -7.6615208E+004
 -7.1286601E+004
 -6.9926248E+004
 -6.8714334E+004
 -6.8162160E+004
 -6.8119447E+004
 -6.8942857E+004
 -7.1489486E+004
 -7.3763451E+004
 -6.9604418E+004
 -5.0007219E+004
 -3.4760535E+004
 -2.6655275E+004
  2.4850771E+004
  3.7167504E+004
  4.3846746E+004
  4.6923039E+004
  4.8348128E+004
  4.9637120E+004
  5.0690574E+004
  5.1753272E+004
  5.2720042E+004
  5.5403997E+004
  5.6930329E+004
  8.5402687E+004
 -7.7735878E+004
 -7.7227532E+004
 -7.5594400E+004
 -7.2661910E+004
 -7.1177272E+004
 -7.0077541E+004
 -6.9579629E+004
 -7.0262372E+004
 -7.3052030E+004
 -8.1167009E+004
 -7.3454566E+004
 -4.5320550E+004
 -3.6051656E+004
  3.3993432E+004
  3.8160483E+004
  4.3069083E+004
  4.5666348E+004
  4.7483429E+004
  4.8858778E+004
  5.0151272E+004
  5.1451562E+004
  5.3223517E+004
  5.5518773E+004
  6.2218240E+004
  6.2940662E+004
 -7.8727616E+004
 -8.2781846E+004
 -7.7168703E+004
 -7.5743498E+004
 -7.3948701E+004
 -7.2576497E+004
 -7.1606025E+004
 -7.2008181E+004
 -7.4868026E+004
 -8.9160593E+004
 -1.4519124E+005
 -1.0441868E+004
  3.9219782E+004
  4.3008957E+004
  4.2409486E+004
  4.4689355E+004
  4.6503102E+004
  4.8163251E+004
  4.9677572E+004
  5.1311412E+004
  5.3255532E+004
  5.6231650E+004
  5.9012838E+004
  6.2205432E+004
 -1.0887404E+005
 -7.8843580E+004
 -8.0776621E+004
 -7.8803498E+004
 -7.7446824E+004
 -7.5590276E+004
 -7.4559340E+004
 -7.4091283E+004
 -7.9156184E+004
 -8.2892821E+004
 -1.5322886E+005
  5.9200543E+004
  4.0915626E+004
  4.2779350E+004
  4.3840656E+004
  4.5863984E+004
  4.7580210E+004
  4.9274998E+004
  5.1029748E+004
  5.3078621E+004
  5.5346003E+004
  5.7738350E+004
  5.9172854E+004
 -8.6332163E+004
 -8.4044631E+004
 -8.3970988E+004
 -8.3573493E+004
 -8.1194077E+004
 -7.8890667E+004
 -7.7304653E+004
 -7.7611870E+004
 -7.8342134E+004
 -8.8106828E+004
 -7.2674318E+004
  5.0676135E+004
  4.2800103E+004
  4.2246697E+004
  4.3839247E+004
  4.5499644E+004
  4.7208828E+004
  4.8886503E+004
  5.0634285E+004
  5.2490660E+004
  5.4458002E+004
  5.6226216E+004
  5.7825172E+004
  2.2660903E+004
  3.3573882E+003
 -5.6406384E+004
 -8.6367707E+004
 -9.0514753E+004
 -8.8420548E+004
 -8.4965457E+004
 -8.1489274E+004
 -7.9092873E+004
 -7.8553176E+004
 -7.9169773E+004
 -7.2014522E+004
 -5.4319950E+004
 -1.0790224E+004
  4.2093355E+003
  3.0647462E+004
  4.1103424E+004
  4.2564778E+004
  4.3963829E+004
  4.5421226E+004
  4.6943504E+004
  4.8506483E+004
  5.0121375E+004
  5.1790883E+004
  5.3467058E+004
  5.5024563E+004
  5.6464968E+004
  4.6831598E+003
 -5.9842853E+004
 -9.4053573E+004
 -9.6528611E+004
 -9.2997646E+004
 -8.8014901E+004
 -8.2975602E+004
 -7.8860052E+004
 -7.6441456E+004
 -7.5279417E+004
 -6.0639255E+004
 -1.0446718E+004
  2.2634638E+004
  3.3647846E+004
  3.9946403E+004
  4.2711864E+004
  4.4012249E+004
  4.5327235E+004
  4.6676618E+004
  4.8090695E+004
  4.9547369E+004
  5.1025771E+004
  5.2503990E+004
  5.3887932E+004
  5.5299556E+004
  3.1136381E+004
 -1.0805747E+005
 -1.0733330E+005
 -1.0183966E+005
 -9.7267253E+004
 -9.0369354E+004
 -8.3472269E+004
 -7.7183928E+004
 -7.2239878E+004
 -7.1517824E+004
 -8.9251405E+004
  1.6171661E+004
  3.0009227E+004
  3.4817908E+004
  3.9419228E+004
  4.2171586E+004
  4.3748803E+004
  4.5039440E+004
  4.6320542E+004
  4.7618170E+004
  4.8929095E+004
  5.0239492E+004
  5.1548839E+004
  5.2809314E+004
  5.4164227E+004
 -1.5973127E+005
 -1.1525895E+005
 -1.1079083E+005
 -1.0135273E+005
 -9.2742825E+004
 -8.3568868E+004
 -7.4665441E+004
 -6.8414327E+004
 -6.1607079E+004
 -8.8876327E+004
  3.6488876E+004
  3.7977636E+004
  4.0058382E+004
  4.1649899E+004
  4.3230220E+004
  4.4597332E+004
  4.5878947E+004
  4.7106031E+004
  4.8292043E+004
  4.9445951E+004
  5.0598915E+004
  5.1738665E+004
  5.3038593E+004
 -1.4313078E+005
 -1.3473899E+005
 -1.1865244E+005
 -1.0715956E+005
 -9.5193801E+004
 -8.3472877E+004
 -7.2499264E+004
 -6.2219795E+004
 -5.8039205E+004
 -4.2356350E+004
  3.9809143E+004
  4.1973887E+004
  4.0067649E+004
  4.1349064E+004
  4.2717583E+004
  4.4152153E+004
  4.5440942E+004
  4.6611333E+004
  4.7674667E+004
  4.8663909E+004
  4.9643985E+004
  5.0646666E+004
  5.1878320E+004
 -1.5789795E+005
 -1.4301716E+005
 -1.2871402E+005
 -1.1282387E+005
 -9.7783014E+004
 -8.3179574E+004
 -6.9296800E+004
 -5.6468612E+004
 -4.3000720E+004
 -2.6713396E+004
  5.8405351E+004
  3.9730485E+004
  4.0627943E+004
  4.0955921E+004
  4.2479187E+004
  4.3840543E+004
  4.5117537E+004
  4.6206281E+004
  4.7127696E+004
  4.7917988E+004
  4.8678105E+004
  4.9498380E+004
  5.0641114E+004
 -1.6894056E+005
 -1.5452006E+005
 -1.3706732E+005
 -1.1826578E+005
 -9.9663514E+004
 -8.2113075E+004
 -6.5450707E+004
 -4.8642420E+004
 -3.1306413E+004
 -9.0455771E+003
  4.9212121E+004
  4.1219216E+004
  4.0108113E+004
  4.1179457E+004
  4.2431965E+004
  4.3768625E+004
  4.4964572E+004
  4.5955553E+004
  4.6705439E+004
  4.7242931E+004
  4.7698498E+004
  4.8243966E+004
  4.9254643E+004
 -1.8455452E+005
 -1.6652574E+005
 -1.4573231E+005
 -1.2221242E+005
 -1.0014643E+005
 -7.9850475E+004
 -6.0868427E+004
 -4.1137987E+004
 -2.0437432E+004
  6.0504606E+003
 -1.0588332E+004
  4.0254689E+003
  2.9308636E+004
  3.9221636E+004
  4.0296538E+004
  4.1394480E+004
  4.2603275E+004
  4.3855894E+004
  4.4993256E+004
  4.5893626E+004
  4.6466538E+004
  4.6694271E+004
  4.6713679E+004
  4.6830887E+004
  4.7608642E+004
 -1.9959734E+005
 -1.8248877E+005
 -1.5295713E+005
 -1.2410392E+005
 -9.8072809E+004
 -7.6128844E+004
 -5.5845249E+004
 -3.5035416E+004
 -1.0101147E+004
  1.8022521E+004
  2.1358565E+004
  3.1895710E+004
  3.7655852E+004
  4.0221860E+004
  4.1428917E+004
  4.2731924E+004
  4.4000317E+004
  4.5153509E+004
  4.6030554E+004
  4.6478428E+004
  4.6366115E+004
  4.5775652E+004
  4.5117526E+004
  4.5449020E+004
 -2.3594677E+005
 -1.9692807E+005
 -1.5966744E+005
 -1.2030954E+005
 -9.3243703E+004
 -7.0736689E+004
 -5.0818749E+004
 -2.9483928E+004
 -7.1234004E+003
  3.8812221E+004
  2.8721907E+004
  3.2284876E+004
  3.6742789E+004
  3.9264607E+004
  4.1118544E+004
  4.2655659E+004
  4.4108446E+004
  4.5379577E+004
  4.6345115E+004
  4.6794090E+004
  4.6436617E+004
  4.5039426E+004
  4.3198892E+004
  4.2469761E+004
 -2.4515142E+005
 -2.3172102E+005
 -1.4775349E+005
 -1.1295843E+005
 -8.5268898E+004
 -6.4569266E+004
 -4.5483012E+004
 -2.5918487E+004
 -2.7010288E+003
  3.5029857E+004
  3.2548349E+004
  3.5814391E+004
  3.5980629E+004
  3.8431207E+004
  4.0509161E+004
  4.2441758E+004
  4.4151092E+004
  4.5629889E+004
  4.6757020E+004
  4.7390170E+004
  4.7076934E+004
  4.4958109E+004
  4.0403206E+004
  3.7246566E+004
 -5.2744417E+005
 -1.7520182E+005
 -1.4120005E+005
 -9.8545981E+004
 -7.7581381E+004
 -5.8189446E+004
 -4.0967252E+004
 -2.3046628E+004
 -3.3654951E+003
  1.2921273E+004
  1.0016110E+004
 -3.7163768E+003
  4.7431464E+004
  3.3827788E+004
  3.5979773E+004
  3.7604131E+004
  4.0023227E+004
  4.2188650E+004
  4.4189884E+004
  4.5895768E+004
  4.7216570E+004
  4.7988038E+004
  4.8207998E+004
  4.6366192E+004
  4.0156115E+004
  2.9013611E+004
 -3.3422251E+005
 -1.5506266E+005
 -1.1722938E+005
 -8.8710272E+004
 -6.9866514E+004
 -5.3146876E+004
 -3.7553532E+004
 -2.1705181E+004
 -5.4094654E+003
  8.7542638E+003
  2.5645272E+004
  3.9788923E+004
  3.4826677E+004
  3.5149422E+004
  3.7302666E+004
  3.9639431E+004
  4.2033761E+004
  4.4276891E+004
  4.6247263E+004
  4.7755398E+004
  4.8608856E+004
  4.8749398E+004
  4.8390684E+004
  3.7320459E+004
  5.9153292E+003
  7.5706178E+004
 -1.3048197E+005
 -9.1234539E+004
 -8.0727176E+004
 -6.3220789E+004
 -4.9255786E+004
 -3.5299498E+004
 -2.1887450E+004
 -8.7708774E+003
  2.7042948E+003
  2.5055291E+004
 -8.9316323E+003
  3.1831511E+003
  2.3908578E+004
  3.2938381E+004
  3.4733163E+004
  3.6954335E+004
  3.9390031E+004
  4.1939246E+004
  4.4440152E+004
  4.6757558E+004
  4.8606860E+004
  4.9679093E+004
  4.9504920E+004
  5.1084074E+004
  6.3141371E+004
 -1.3035790E+004
 -3.3878510E+004
 -6.1624090E+004
 -7.9194310E+004
 -6.8546378E+004
 -5.7594801E+004
 -4.5447146E+004
 -3.3659687E+004
 -2.2154020E+004
 -1.1497108E+004
 -2.0537752E+002
  8.8123377E+003
  1.6331811E+004
  2.6827237E+004
  3.0732527E+004
  3.4019166E+004
  3.6426860E+004
  3.9098738E+004
  4.1838614E+004
  4.4636641E+004
  4.7366313E+004
  4.9971021E+004
  5.1547454E+004
  5.2308842E+004
  4.8486640E+004
  7.1261649E+004
 -2.1741165E+003
 -4.5392757E+004
 -5.6110343E+004
 -5.7647985E+004
 -5.0393301E+004
 -4.1458953E+004
 -3.1715952E+004
 -2.2134559E+004
 -1.3032707E+004
 -5.3655163E+003
 -1.5360623E+003
 -6.1035458E+003
 -2.2680394E+003
  3.0769402E+004
  2.4391998E+004
  2.9245507E+004
  3.2550115E+004
  3.5748220E+004
  3.8681825E+004
  4.1687744E+004
  4.4762748E+004
  4.7975958E+004
  5.1236449E+004
  5.4763123E+004
  5.5952462E+004
  5.4752756E+004
  4.0266883E+004
 -8.0307695E+003
 -3.1443558E+004
 -4.2326618E+004
 -4.5845957E+004
 -4.3039265E+004
 -3.6866901E+004
 -2.9363819E+004
 -2.1598260E+004
 -1.4328896E+004
 -8.7785588E+003
 -6.4166305E+003
 -1.2299781E+004
  2.9164057E+004
  2.5386936E+004
  2.7962644E+004
  3.1591748E+004
  3.5004871E+004
  3.8263091E+004
  4.1487582E+004
  4.4815067E+004
  4.8350635E+004
  5.2273309E+004
  5.6593654E+004
  6.1439709E+004
  4.9852104E+004
  9.4956364E+003
 -1.0033172E+004
 -2.1017075E+004
 -3.2219950E+004
 -3.6537287E+004
 -3.5972955E+004
 -3.2165014E+004
 -2.6682854E+004
 -2.0689141E+004
 -1.5182689E+004
 -1.1063702E+004
 -9.7790576E+003
 -9.1984045E+003
 -1.2107853E+004
 -4.1418514E+003
 -6.7432899E+003
  6.6784556E+003
  1.6653217E+004
  2.4251493E+004
  2.7414614E+004
  3.1034205E+004
  3.4526138E+004
  3.7934365E+004
  4.1325653E+004
  4.4844775E+004
  4.8616774E+004
  5.2983276E+004
  5.8004135E+004
  6.6748643E+004
  8.7153208E+004
 -1.8501957E+004
  3.9116699E+003
 -1.8818676E+004
 -2.4491005E+004
 -2.9585305E+004
 -2.9884339E+004
 -2.7726468E+004
 -2.3893087E+004
 -1.9473874E+004
 -1.5311785E+004
 -1.2309190E+004
 -1.0822273E+004
 -1.1705280E+004
 -1.0575882E+004
 -1.7848427E+004
  2.6753920E+003
  1.4757771E+004
  1.7917732E+004
  2.3083625E+004
  2.7210783E+004
  3.0774414E+004
  3.4301642E+004
  3.7762907E+004
  4.1271359E+004
  4.4927699E+004
  4.9035289E+004
  5.3468400E+004
  6.0476372E+004
  6.6126694E+004
  1.0581861E+005
  3.3095073E+003
 -2.8390704E+003
  6.5349051E+003
 -1.3621816E+004
 -2.0065954E+004
 -2.4005668E+004
 -2.4909477E+004
 -2.3751127E+004
 -2.1185740E+004
 -1.7997036E+004
 -1.4892809E+004
 -1.2459401E+004
 -1.1128149E+004
 -1.0880463E+004
 -1.3561407E+004
 -2.7659789E+004
 -2.4407466E+003
  2.1499190E+003
  1.0139779E+004
  1.7285544E+004
  2.2462511E+004
  2.6898057E+004
  3.0687932E+004
  3.4233836E+004
  3.7734616E+004
  4.1309645E+004
  4.5137110E+004
  4.9395329E+004
  5.4652545E+004
  6.0883462E+004
  7.2736009E+004
  7.6492335E+004
 -6.2512468E+003
 -6.2432317E+003
 -1.1089192E+004
 -1.6600300E+004
 -1.9648461E+004
 -2.0816300E+004
 -2.0320122E+004
 -1.8678415E+004
 -1.6431862E+004
 -1.4115062E+004
 -1.2162390E+004
 -1.0943715E+004
 -1.0647614E+004
 -1.2624212E+004
 -1.4265419E+004
 -2.6864899E+004
 -1.1261951E+004
 -2.0721432E+003
 -7.4627743E+002
  5.0373157E+003
  1.2296159E+004
  1.7853229E+004
  2.2662908E+004
  2.6873292E+004
  3.0696442E+004
  3.4270475E+004
  3.7783036E+004
  4.1398105E+004
  4.5291293E+004
  4.9751347E+004
  5.5007504E+004
  6.1922328E+004
  6.8484223E+004
  7.5529080E+004
 -6.5107868E+003
 -5.7946651E+003
 -9.5532290E+003
 -1.3507776E+004
 -1.6254124E+004
 -1.7480472E+004
 -1.7445138E+004
 -1.6462623E+004
 -1.4932462E+004
 -1.3249636E+004
 -1.1769622E+004
 -1.0808600E+004
 -1.0720475E+004
 -1.2039927E+004
 -1.3559573E+004
 -1.6387887E+004
 -2.6167735E+003
  4.1586892E+003
 -1.9992782E+004
 -8.5872328E+003
 -5.3122338E+003
 -2.6917762E+003
  1.9696743E+003
  7.7744860E+003
  1.3115842E+004
  1.8419825E+004
  2.3006663E+004
  2.7087216E+004
  3.0822299E+004
  3.4365595E+004
  3.7854984E+004
  4.1441254E+004
  4.5306827E+004
  4.9661646E+004
  5.4857549E+004
  6.0720558E+004
  6.7015877E+004
  7.1725143E+004
 -7.7017354E+003
 -6.4222660E+003
 -8.8085000E+003
 -1.1485370E+004
 -1.3695334E+004
 -1.4882536E+004
 -1.5112465E+004
 -1.4593152E+004
 -1.3604963E+004
 -1.2445962E+004
 -1.1400696E+004
 -1.0742849E+004
 -1.0697025E+004
 -1.1212620E+004
 -1.2250498E+004
 -1.2396231E+004
 -8.8896295E+003
 -8.8425991E+003
 -1.2271354E+003
  7.8487126E+003
 -2.3890137E+004
 -8.8945836E+003
 -6.1896477E+003
 -1.1154170E+004
  2.3488485E+002
  4.9312091E+003
  9.8473400E+003
  1.4695861E+004
  1.9269858E+004
  2.3512843E+004
  2.7402859E+004
  3.1025122E+004
  3.4488025E+004
  3.7905106E+004
  4.1398359E+004
  4.5095840E+004
  4.9186818E+004
  5.3773062E+004
  5.9429537E+004
  6.4930370E+004
  7.1356223E+004
 -3.3264774E+003
 -7.2061268E+003
 -8.0516908E+003
 -1.0343187E+004
 -1.1906865E+004
 -1.2944663E+004
 -1.3286385E+004
 -1.3075018E+004
 -1.2488967E+004
 -1.1746600E+004
 -1.1064685E+004
 -1.0632170E+004
 -1.0555294E+004
 -1.0835865E+004
 -1.1050353E+004
 -1.0152322E+004
 -8.8927254E+003
 -8.3905008E+003
 -5.7682043E+003
 -9.9034849E+003
 -2.4593877E+003
 -4.3560149E+003
 -6.6119841E+002
 -1.8531831E+001
  1.5396362E+003
  1.0261879E+003
  2.8384655E+003
  1.1326291E+004
 -2.2251600E+004
 -7.5940507E+003
 -5.5897018E+003
 -1.4295271E+004
  6.2386726E+002
  4.6425286E+003
 -3.1359094E+003
  3.0432465E+003
  7.2874385E+003
  1.1759923E+004
  1.6013863E+004
  2.0175165E+004
  2.4092383E+004
  2.7772281E+004
  3.1251429E+004
  3.4603021E+004
  3.7910510E+004
  4.1256797E+004
  4.4733635E+004
  4.8380701E+004
  5.2426752E+004
  5.6735115E+004
  6.4454993E+004
  6.8532051E+004
  3.7294893E+003
 -6.4551697E+003
  1.4684624E+002
 -6.3234185E+003
 -7.9650052E+003
 -9.5239131E+003
 -1.0700590E+004
 -1.1515553E+004
 -1.1887058E+004
 -1.1869157E+004
 -1.1573474E+004
 -1.1148240E+004
 -1.0743003E+004
 -1.0477347E+004
 -1.0403892E+004
 -1.0431436E+004
 -1.0279550E+004
 -9.8535896E+003
 -9.0456546E+003
 -7.7738922E+003
 -7.8542151E+003
 -9.7329424E+003
 -7.4109086E+003
 -8.9805849E+002
  2.6696803E+003
  3.9652907E+003
 -5.9874778E+003
 -9.5768089E+002
 -5.1983120E+003
 -9.8697663E+002
 -1.2044699E+003
 -1.2617740E+002
 -7.1249097E+002
 -5.2769686E+002
 -6.7161531E+001
 -8.8715329E+002
  1.8335114E+002
 -1.4909512E+003
  5.0078636E+002
 -1.6098021E+003
  5.9300522E+002
 -1.3757498E+003
  5.5957143E+002
 -1.1789595E+003
  3.2754901E+002
 -1.6686018E+003
 -6.3197721E+000
 -1.6826005E+003
 -2.3290389E+003
 -5.0840131E+003
 -7.1510373E+002
  9.4237434E+002
  4.7406298E+003
  9.1525639E+003
  1.3238017E+004
  1.7208696E+004
  2.1021810E+004
  2.4668989E+004
  2.8139980E+004
  3.1461075E+004
  3.4679276E+004
  3.7850649E+004
  4.1038052E+004
  4.4262652E+004
  4.7616594E+004
  5.0769939E+004
  5.4903823E+004
  5.7093499E+004
  8.3014226E+004
 -6.2349794E+003
 -5.4518346E+003
 -6.5371733E+003
 -7.8875487E+003
 -8.9013652E+003
 -9.7898083E+003
 -1.0433395E+004
 -1.0803779E+004
 -1.0911459E+004
 -1.0823018E+004
 -1.0632274E+004
 -1.0436010E+004
 -1.0305991E+004
 -1.0257163E+004
 -1.0222964E+004
 -1.0098477E+004
 -9.7549413E+003
 -9.2217451E+003
 -8.8445411E+003
 -8.6876507E+003
 -7.6861092E+003
 -5.1561930E+003
 -1.8113518E+003
  1.5072882E+003
  1.0603305E+003
 -3.1188301E+003
 -4.3464860E+003
 -1.0023087E+003
 -6.6894390E+002
 -8.9916002E+002
 -2.2028063E+003
 -2.8297724E+003
 -3.3174114E+003
 -3.0733982E+003
 -2.5738619E+003
 -2.6956593E+003
 -4.6891809E+003
 -3.9217244E+003
 -4.6782067E+001
  3.3421988E+003
  6.7388307E+003
  1.0604080E+004
  1.4482932E+004
  1.8197719E+004
  2.1765510E+004
  2.5183417E+004
  2.8461329E+004
  3.1618897E+004
  3.4687905E+004
  3.7708331E+004
  4.0716739E+004
  4.3754352E+004
  4.6773540E+004
  4.9856877E+004
  5.2153093E+004
  5.5547723E+004
  5.9471000E+004
  1.5714568E+003
 -4.7581915E+003
 -6.4087197E+003
 -7.4111556E+003
 -8.2924295E+003
 -9.0003023E+003
 -9.5600490E+003
 -9.9345912E+003
 -1.0134004E+004
 -1.0195880E+004
 -1.0179088E+004
 -1.0143910E+004
 -1.0132286E+004
 -1.0149869E+004
 -1.0163420E+004
 -1.0110502E+004
 -9.9522297E+003
 -9.6990542E+003
 -9.3582991E+003
 -8.7766215E+003
 -7.6371563E+003
 -5.3529825E+003
 -2.1862790E+003
  3.4927679E+002
  1.0888355E+003
  5.7016175E+002
  2.2824099E+002
  6.6392949E+001
 -5.2727829E+002
 -1.7187976E+003
 -2.2813671E+003
 -6.4748886E+003
 -7.3630412E+003
 -4.5843519E+003
 -3.9284501E+003
 -4.2227442E+003
 -3.3411233E+003
 -1.6925878E+003
  1.0525092E+003
  4.6356297E+003
  8.2930324E+003
  1.1941694E+004
  1.5555381E+004
  1.9046349E+004
  2.2393169E+004
  2.5608613E+004
  2.8705363E+004
  3.1698921E+004
  3.4608402E+004
  3.7457088E+004
  4.0272142E+004
  4.3078160E+004
  4.5892928E+004
  4.8634180E+004
  5.1005765E+004
  5.0767338E+004
  3.3876814E+004
 -1.5482557E+003
 -1.6202884E+004
 -9.3859097E+003
 -6.1469251E+003
 -6.0959545E+003
 -6.8824041E+003
 -7.6277936E+003
 -8.2855272E+003
 -8.8121880E+003
 -9.2086203E+003
 -9.4806795E+003
 -9.6547901E+003
 -9.7683891E+003
 -9.8597046E+003
 -9.9549970E+003
 -1.0059717E+004
 -1.0156135E+004
 -1.0213800E+004
 -1.0200935E+004
 -1.0087975E+004
 -9.8007123E+003
 -9.1608817E+003
 -7.8449745E+003
 -5.6856881E+003
 -2.8517697E+003
 -2.9604939E+001
  2.1032826E+003
  2.7857279E+003
  2.3367113E+003
  1.5869751E+003
 -4.8909856E+002
 -6.9374374E+002
 -1.9080842E+003
 -2.3358287E+003
 -8.7568781E+003
 -4.9261236E+003
 -6.5426889E+003
 -5.3987688E+003
 -3.2668310E+003
 -7.8980835E+002
  2.4179708E+003
  5.9528791E+003
  9.5849950E+003
  1.3117864E+004
  1.6510712E+004
  1.9769503E+004
  2.2904266E+004
  2.5928926E+004
  2.8854739E+004
  3.1687971E+004
  3.4432585E+004
  3.7092601E+004
  3.9675866E+004
  4.2192048E+004
  4.4658118E+004
  4.7000093E+004
  4.8993565E+004
  4.8377513E+004
  3.2903061E+004
 -1.1859181E+003
 -5.0829424E+003
 -4.4010099E+003
 -5.6239189E+003
 -6.3119821E+003
 -7.0273180E+003
 -7.6419984E+003
 -8.1636179E+003
 -8.5837776E+003
 -8.9131023E+003
 -9.1701138E+003
 -9.3805526E+003
 -9.5698912E+003
 -9.7563240E+003
 -9.9453327E+003
 -1.0128708E+004
 -1.0286711E+004
 -1.0389998E+004
 -1.0387526E+004
 -1.0184848E+004
 -9.6170180E+003
 -8.4742677E+003
 -6.5231671E+003
 -3.5968678E+003
  2.3822469E+002
  3.3897942E+003
  4.8822495E+003
  6.0586290E+002
  1.0358714E+003
 -2.6122388E+003
 -8.4661281E+002
 -4.4164728E+002
 -3.9786724E+003
 -2.3119219E+004
 -6.3721995E+002
 -1.1392507E+004
 -6.1577354E+003
 -3.6400980E+003
 -2.9120132E+002
  3.3421130E+003
  7.1712214E+003
  1.0796709E+004
  1.4174465E+004
  1.7341263E+004
  2.0364888E+004
  2.3289035E+004
  2.6132915E+004
  2.8900646E+004
  3.1585412E+004
  3.4171987E+004
  3.6640773E+004
  3.8967701E+004
  4.1143622E+004
  4.3117694E+004
  4.4982171E+004
  4.6142048E+004
  4.8236961E+004
  5.3394304E+004
 -1.3787340E+004
 -5.4055376E+003
 -5.5342100E+003
 -5.3623011E+003
 -5.9495723E+003
 -6.5305338E+003
 -7.0992680E+003
 -7.6042958E+003
 -8.0387919E+003
 -8.4061432E+003
 -8.7199770E+003
 -8.9981230E+003
 -9.2584297E+003
 -9.5141110E+003
 -9.7704566E+003
 -1.0023174E+004
 -1.0257692E+004
 -1.0445828E+004
 -1.0538125E+004
 -1.0449008E+004
 -1.0044279E+004
 -9.1263496E+003
 -7.4261137E+003
 -4.5634541E+003
  1.8583803E+002
  4.9634565E+003
  8.3228798E+003
  2.6423291E+003
  3.2267905E+003
  1.2198181E+003
 -8.2890909E+003
  6.9117372E+003
 -2.2189879E+004
 -8.3308142E+003
 -5.1741723E+003
 -5.5495299E+002
  4.0787592E+003
  8.3331554E+003
  1.1969751E+004
  1.5126283E+004
  1.8025424E+004
  2.0807967E+004
  2.3529747E+004
  2.6208868E+004
  2.8839314E+004
  3.1399243E+004
  3.3853794E+004
  3.6154636E+004
  3.8252722E+004
  4.0076440E+004
  4.1669244E+004
  4.2792419E+004
  4.4732812E+004
  4.5320613E+004
  6.8360116E+004
 -5.0087868E+003
 -5.1594217E+003
 -5.3732240E+003
 -5.6763626E+003
 -6.1494508E+003
 -6.6508822E+003
 -7.1272537E+003
 -7.5582953E+003
 -7.9426889E+003
 -8.2883406E+003
 -8.6072384E+003
 -8.9116483E+003
 -9.2109721E+003
 -9.5092962E+003
 -9.8036622E+003
 -1.0082246E+004
 -1.0321399E+004
 -1.0479402E+004
 -1.0488553E+004
 -1.0237835E+004
 -9.5568529E+003
 -8.0998377E+003
 -5.3041154E+003
  5.1039439E+002
  1.5862791E+004
  2.6268170E+003
 -1.3141141E+004
 -1.0953596E+004
 -7.4436940E+003
 -1.2119533E+003
  4.8203548E+003
  9.6792803E+003
  1.3113847E+004
  1.5916524E+004
  1.8522614E+004
  2.1068499E+004
  2.3607992E+004
  2.6147105E+004
  2.8669265E+004
  3.1139707E+004
  3.3505719E+004
  3.5696874E+004
  3.7625300E+004
  3.9216660E+004
  4.0407173E+004
  4.1450769E+004
  4.2522459E+004
  4.7107846E+004
  4.9087769E+004
 -4.8944626E+003
 -4.9672195E+003
 -5.1634005E+003
 -5.4212065E+003
 -5.8347811E+003
 -6.2789651E+003
 -6.7167304E+003
 -7.1277653E+003
 -7.5089054E+003
 -7.8634785E+003
 -8.1984837E+003
 -8.5214311E+003
 -8.8380789E+003
 -9.1504960E+003
 -9.4554138E+003
 -9.7426431E+003
 -9.9923225E+003
 -1.0172563E+004
 -1.0228022E+004
 -1.0085090E+004
 -9.5488723E+003
 -8.4660871E+003
 -5.5092467E+003
 -1.1490895E+003
  1.5747888E+004
 -1.3875777E+004
 -1.0568679E+004
 -1.9486133E+003
  6.7046175E+003
  1.1319511E+004
  1.4056630E+004
  1.6473550E+004
  1.8788841E+004
  2.1129514E+004
  2.3516022E+004
  2.5944693E+004
  2.8390475E+004
  3.0811292E+004
  3.3143897E+004
  3.5298823E+004
  3.7162749E+004
  3.8607864E+004
  3.9579988E+004
  4.0128913E+004
  4.1035835E+004
  4.2077497E+004
  4.4979300E+004
 -4.6196033E+003
 -4.9493928E+003
 -4.7416106E+003
 -5.1868540E+003
 -5.5627723E+003
 -5.9637446E+003
 -6.3534400E+003
 -6.7316360E+003
 -7.0926517E+003
 -7.4370658E+003
 -7.7672252E+003
 -8.0863398E+003
 -8.3965111E+003
 -8.6972119E+003
 -8.9838801E+003
 -9.2464830E+003
 -9.4681301E+003
 -9.6220477E+003
 -9.6706343E+003
 -9.5460953E+003
 -9.1686271E+003
 -8.2326737E+003
 -6.6015861E+003
 -1.4133286E+003
  3.3500910E+003
 -1.2289383E+004
 -4.0511970E+003
  1.0327574E+004
  1.2371356E+004
  1.4752930E+004
  1.6739155E+004
  1.8838020E+004
  2.1004480E+004
  2.3268357E+004
  2.5609947E+004
  2.8004590E+004
  3.0409826E+004
  3.2760212E+004
  3.4957093E+004
  3.6858759E+004
  3.8285857E+004
  3.9044514E+004
  3.9072570E+004
  3.8408940E+004
  3.7808600E+004
  3.7886382E+004
 -4.9464314E+003
 -3.4946382E+003
 -4.6847854E+003
 -4.9765738E+003
 -5.3532367E+003
 -5.6793555E+003
 -6.0183944E+003
 -6.3536380E+003
 -6.6835991E+003
 -7.0039535E+003
 -7.3134737E+003
 -7.6113799E+003
 -7.8963853E+003
 -8.1652639E+003
 -8.4116680E+003
 -8.6251525E+003
 -8.7898992E+003
 -8.8850037E+003
 -8.8792395E+003
 -8.7468621E+003
 -8.4076608E+003
 -7.9681617E+003
 -6.9093255E+003
 -7.6928194E+003
 -6.1281481E+002
  1.7339527E+004
  1.2029862E+004
  1.3749869E+004
  1.5121019E+004
  1.6876130E+004
  1.8734411E+004
  2.0754237E+004
  2.2902500E+004
  2.5165038E+004
  2.7516683E+004
  2.9923096E+004
  3.2326357E+004
  3.4626095E+004
  3.6663481E+004
  3.8192950E+004
  3.8863313E+004
  3.8255455E+004
  3.6162630E+004
  3.2739195E+004
  3.0160501E+004
 -4.7901160E+003
 -5.0509934E+003
 -4.5896831E+003
 -4.9424782E+003
 -5.1349529E+003
 -5.4077245E+003
 -5.6869284E+003
 -5.9801027E+003
 -6.2736987E+003
 -6.5624423E+003
 -6.8413550E+003
 -7.1067613E+003
 -7.3545780E+003
 -7.5793507E+003
 -7.7733180E+003
 -7.9256420E+003
 -8.0225547E+003
 -8.0463296E+003
 -7.9833525E+003
 -7.8098208E+003
 -7.5930168E+003
 -7.2562789E+003
 -7.8890770E+003
 -8.0842303E+003
 -1.9715272E+004
  2.7895185E+004
  1.5606666E+004
  1.5094900E+004
  1.5699089E+004
  1.7006545E+004
  1.8612137E+004
  2.0455303E+004
  2.2475039E+004
  2.4643493E+004
  2.6938446E+004
  2.9337713E+004
  3.1801713E+004
  3.4244371E+004
  3.6484518E+004
  3.8244901E+004
  3.9040115E+004
  3.7970578E+004
  3.3927555E+004
  2.7802870E+004
  2.0969263E+004
  1.2667901E+003
 -3.8938208E+003
 -4.6688492E+003
 -4.6980482E+003
 -4.8948889E+003
 -5.1007698E+003
 -5.3445629E+003
 -5.5998494E+003
 -5.8593703E+003
 -6.1142322E+003
 -6.3583363E+003
 -6.5860287E+003
 -6.7915682E+003
 -6.9682350E+003
 -7.1078015E+003
 -7.2004057E+003
 -7.2350712E+003
 -7.2020603E+003
 -7.0969821E+003
 -6.9374499E+003
 -6.7782563E+003
 -6.8437442E+003
 -7.5346995E+003
 -1.0740254E+004
 -2.4354510E+004
 -3.1875363E+003
  4.8380826E+003
  2.0879717E+004
  1.8843011E+004
  1.6678272E+004
  1.6480657E+004
  1.7253982E+004
  1.8553499E+004
  2.0183326E+004
  2.2044165E+004
  2.4087945E+004
  2.6292600E+004
  2.8649889E+004
  3.1149395E+004
  3.3745185E+004
  3.6273225E+004
  3.8314401E+004
  3.9432189E+004
  3.8882518E+004
  3.4219102E+004
  2.2551129E+004
  4.4098366E+003
 -6.7998779E+003
 -4.4164217E+003
 -4.1646263E+003
 -4.3806693E+003
 -4.5472789E+003
 -4.7594560E+003
 -4.9807868E+003
 -5.2114280E+003
 -5.4414767E+003
 -5.6644964E+003
 -5.8739951E+003
 -6.0639570E+003
 -6.2281325E+003
 -6.3597497E+003
 -6.4514378E+003
 -6.4957414E+003
 -6.4866653E+003
 -6.4232137E+003
 -6.3167149E+003
 -6.2061729E+003
 -6.1875776E+003
 -6.4787078E+003
 -7.4881762E+003
 -1.0204318E+004
 -1.2734875E+004
 -1.2962151E+004
 -8.6358077E+003
  3.4826822E+004
  2.1965277E+004
  2.0372217E+004
  1.7919056E+004
  1.7239819E+004
  1.7583453E+004
  1.8586293E+004
  1.9986195E+004
  2.1661380E+004
  2.3546848E+004
  2.5618644E+004
  2.7880109E+004
  3.0355687E+004
  3.3068309E+004
  3.5973064E+004
  3.8651810E+004
  3.9779094E+004
  3.8953720E+004
  3.1244340E+004
  1.5044493E+004
  2.1541448E+003
 -3.2872879E+003
 -2.9034737E+003
 -3.6589466E+003
 -3.9165962E+003
 -4.1721127E+003
 -4.3896283E+003
 -4.6070841E+003
 -4.8197417E+003
 -5.0259839E+003
 -5.2206555E+003
 -5.3986568E+003
 -5.5544950E+003
 -5.6825080E+003
 -5.7769353E+003
 -5.8323906E+003
 -5.8449816E+003
 -5.8146637E+003
 -5.7496208E+003
 -5.6747022E+003
 -5.6447964E+003
 -5.7730800E+003
 -6.2505819E+003
 -7.4481663E+003
 -9.5333666E+003
 -1.1533597E+004
 -1.2006378E+004
 -1.2928681E+004
 -1.3671144E+004
  4.3219012E+004
  2.3452418E+004
  2.0296265E+004
  1.8417056E+004
  1.7787876E+004
  1.7927789E+004
  1.8703965E+004
  1.9888282E+004
  2.1367390E+004
  2.3071837E+004
  2.4975443E+004
  2.7087750E+004
  2.9457312E+004
  3.2193239E+004
  3.5418869E+004
  3.9292557E+004
  4.2354587E+004
  4.2515588E+004
  5.3296356E+004
  1.8359279E+001
 -3.4286353E+003
 -3.5357988E+003
 -3.3211670E+003
 -3.5865426E+003
 -3.8086802E+003
 -4.0304577E+003
 -4.2380215E+003
 -4.4356996E+003
 -4.6209219E+003
 -4.7909368E+003
 -4.9417827E+003
 -5.0691234E+003
 -5.1684964E+003
 -5.2358385E+003
 -5.2683368E+003
 -5.2659745E+003
 -5.2341911E+003
 -5.1884017E+003
 -5.1608694E+003
 -5.2117881E+003
 -5.4384991E+003
 -5.9901711E+003
 -6.9798454E+003
 -8.2434589E+003
 -9.4332580E+003
 -1.0501297E+004
 -1.1911002E+004
 -1.3471144E+004
 -1.4679273E+004
 -9.1709692E+003
  2.4357021E+004
  2.2886897E+004
  2.4121896E+004
  2.0111845E+004
  1.8796237E+004
  1.8179218E+004
  1.8292209E+004
  1.8900190E+004
  1.9900691E+004
  2.1190241E+004
  2.2710675E+004
  2.4434483E+004
  2.6369187E+004
  2.8575923E+004
  3.1191161E+004
  3.4573129E+004
  3.9150965E+004
  4.6087002E+004
  4.0658743E+004
  2.8413633E+004
 -2.9936974E+003
 -3.1099551E+003
 -3.2119972E+003
 -3.3105880E+003
 -3.4988218E+003
 -3.6964732E+003
 -3.8886787E+003
 -4.0686105E+003
 -4.2339965E+003
 -4.3823141E+003
 -4.5106494E+003
 -4.6157786E+003
 -4.6946557E+003
 -4.7450965E+003
 -4.7668375E+003
 -4.7631733E+003
 -4.7434589E+003
 -4.7266694E+003
 -4.7461750E+003
 -4.8539003E+003
 -5.1220631E+003
 -5.6214466E+003
 -6.3664657E+003
 -7.2863588E+003
 -8.2252591E+003
 -9.1407153E+003
 -1.0116898E+004
 -1.1950214E+004
 -1.3677240E+004
 -1.6735892E+004
  4.1280042E+004
  2.5401820E+004
  2.2442685E+004
  2.0477001E+004
  1.9121448E+004
  1.8637291E+004
  1.8686758E+004
  1.9179722E+004
  2.0019498E+004
  2.1140355E+004
  2.2493633E+004
  2.4055933E+004
  2.5830855E+004
  2.7878258E+004
  3.0325284E+004
  3.3654637E+004
  3.8588291E+004
  4.9791793E+004
  7.8116980E+004
 -1.6939438E+004
 -2.7850465E+003
 -2.8638272E+003
 -2.9505577E+003
 -3.0559905E+003
 -3.2180533E+003
 -3.3928743E+003
 -3.5640418E+003
 -3.7240527E+003
 -3.8699040E+003
 -3.9991636E+003
 -4.1094572E+003
 -4.1984732E+003
 -4.2644382E+003
 -4.3068362E+003
 -4.3274529E+003
 -4.3318347E+003
 -4.3312182E+003
 -4.3448474E+003
 -4.4019670E+003
 -4.5421413E+003
 -4.8087998E+003
 -5.2328631E+003
 -5.8097345E+003
 -6.4874246E+003
 -7.1979922E+003
 -7.9611735E+003
 -8.7779408E+003
 -1.0171678E+004
 -1.1510803E+004
 -2.5374405E+004
 -1.4333230E+004
  6.7769582E+003
  2.1659001E+004
  2.1828774E+004
  2.2979459E+004
  2.1324477E+004
  2.0399245E+004
  1.9539225E+004
  1.9116917E+004
  1.9131891E+004
  1.9519056E+004
  2.0224167E+004
  2.1201010E+004
  2.2417665E+004
  2.3855020E+004
  2.5532004E+004
  2.7456283E+004
  2.9917916E+004
  3.2700097E+004
  3.8959025E+004
  4.3779799E+004
  9.4801500E+004
 -2.4717307E+003
 -2.6807687E+003
 -2.6050380E+003
 -2.8042154E+003
 -2.9575084E+003
 -3.1149529E+003
 -3.2630610E+003
 -3.4024442E+003
 -3.5296734E+003
 -3.6426321E+003
 -3.7391364E+003
 -3.8175239E+003
 -3.8769838E+003
 -3.9182355E+003
 -3.9444039E+003
 -3.9621343E+003
 -3.9828500E+003
 -4.0238438E+003
 -4.1085353E+003
 -4.2644092E+003
 -4.5171160E+003
 -4.8808493E+003
 -5.3485876E+003
 -5.8965060E+003
 -6.4944320E+003
 -7.1566963E+003
 -7.8974840E+003
 -9.0461236E+003
 -1.0467374E+004
 -1.4906010E+004
 -2.7794127E+003
 -4.5194909E+003
 -1.5198045E+003
 -5.1076775E+002
  2.1339414E+003
 -9.6921299E+002
  3.9758832E+003
  2.5391859E+003
  1.8074242E+004
  2.2070498E+004
  2.2596227E+004
  2.1430171E+004
  2.0526550E+004
  1.9925900E+004
  1.9590254E+004
  1.9575723E+004
  1.9876914E+004
  2.0468627E+004
  2.1327064E+004
  2.2434767E+004
  2.3788973E+004
  2.5399737E+004
  2.7337498E+004
  2.9636366E+004
  3.2844935E+004
  3.6485768E+004
  4.6481760E+004
  4.7844347E+004
 -2.5163268E+003
 -1.8602386E+003
 -2.4300692E+003
 -2.5644084E+003
 -2.7258475E+003
 -2.8539477E+003
 -2.9808192E+003
 -3.1000587E+003
 -3.2110539E+003
 -3.3109155E+003
 -3.3977472E+003
 -3.4702376E+003
 -3.5282318E+003
 -3.5731999E+003
 -3.6089122E+003
 -3.6421745E+003
 -3.6834954E+003
 -3.7473704E+003
 -3.8516383E+003
 -4.0152742E+003
 -4.2543284E+003
 -4.5769912E+003
 -4.9811772E+003
 -5.4574599E+003
 -6.0036568E+003
 -6.6388251E+003
 -7.4441616E+003
 -8.5435495E+003
 -1.0394932E+004
 -1.1595991E+004
 -8.4625822E+003
 -1.3567239E+003
  2.6084082E+003
  1.0232213E+004
  1.6676229E+004
  2.0007030E+004
  2.1185717E+004
  2.1196553E+004
  2.0688955E+004
  2.0236880E+004
  1.9978586E+004
  1.9955191E+004
  2.0191747E+004
  2.0691091E+004
  2.1449510E+004
  2.2465468E+004
  2.3745152E+004
  2.5311116E+004
  2.7199594E+004
  2.9494472E+004
  3.2171412E+004
  3.5352749E+004
  3.6411944E+004
  2.5421000E+004
  4.6156510E+002
 -1.2673341E+004
 -2.0456154E+003
 -2.4151911E+003
 -2.2299518E+003
 -2.4083772E+003
 -2.4930301E+003
 -2.6034190E+003
 -2.7075366E+003
 -2.8112814E+003
 -2.9094864E+003
 -3.0001698E+003
 -3.0812690E+003
 -3.1518375E+003
 -3.2120833E+003
 -3.2638255E+003
 -3.3109236E+003
 -3.3597094E+003
 -3.4192434E+003
 -3.5011690E+003
 -3.6188766E+003
 -3.7857788E+003
 -4.0128966E+003
 -4.3067305E+003
 -4.6690112E+003
 -5.1004836E+003
 -5.6079185E+003
 -6.2153341E+003
 -6.9648966E+003
 -7.9077550E+003
 -8.7380646E+003
 -8.0889372E+003
 -5.1220699E+003
 -1.1685879E+003
  4.4641244E+003
  9.6786998E+003
  1.4941764E+004
  1.8562546E+004
  2.0177691E+004
  2.0643092E+004
  2.0594285E+004
  2.0379148E+004
  2.0217582E+004
  2.0209241E+004
  2.0402958E+004
  2.0826067E+004
  2.1493534E+004
  2.2415936E+004
  2.3604773E+004
  2.5074775E+004
  2.6842097E+004
  2.8887344E+004
  3.1064474E+004
  3.2574135E+004
  3.0800902E+004
  2.2948904E+004
  1.1171028E+004
  5.5713370E+002
 -1.7494822E+003
 -2.1244433E+003
 -2.1618708E+003
 -2.2558669E+003
 -2.3421861E+003
 -2.4362722E+003
 -2.5293222E+003
 -2.6199361E+003
 -2.7055076E+003
 -2.7845730E+003
 -2.8564069E+003
 -2.9214450E+003
 -2.9815374E+003
 -3.0402491E+003
 -3.1030641E+003
 -3.1774040E+003
 -3.2723157E+003
 -3.3977106E+003
 -3.5631582E+003
 -3.7765002E+003
 -4.0428719E+003
 -4.3649262E+003
 -4.7444764E+003
 -5.1848101E+003
 -5.6883933E+003
 -6.2389346E+003
 -6.7162978E+003
 -6.7164367E+003
 -5.7431295E+003
 -3.3282266E+003
  5.7596217E+002
  5.0104735E+003
  9.8447707E+003
  1.4034214E+004
  1.7136830E+004
  1.9056393E+004
  1.9972064E+004
  2.0281933E+004
  2.0313400E+004
  2.0275494E+004
  2.0299619E+004
  2.0464567E+004
  2.0819353E+004
  2.1395098E+004
  2.2210356E+004
  2.3273362E+004
  2.4581056E+004
  2.6104699E+004
  2.7757778E+004
  2.9239895E+004
  2.9838062E+004
  2.7514587E+004
  2.0518713E+004
  1.1089219E+004
 -2.9670053E+003
 -1.8176917E+003
 -1.7718771E+003
 -1.8887027E+003
 -1.9760974E+003
 -2.0697607E+003
 -2.1601898E+003
 -2.2500714E+003
 -2.3377003E+003
 -2.4220968E+003
 -2.5022308E+003
 -2.5777184E+003
 -2.6490576E+003
 -2.7179141E+003
 -2.7873023E+003
 -2.8616570E+003
 -2.9467221E+003
 -3.0491925E+003
 -3.1760713E+003
 -3.3337920E+003
 -3.5272784E+003
 -3.7591978E+003
 -4.0295182E+003
 -4.3349147E+003
 -4.6659881E+003
 -4.9976405E+003
 -5.2620584E+003
 -5.2963579E+003
 -4.8381821E+003
 -3.5375330E+003
 -1.2164397E+003
  1.9801672E+003
  5.8358729E+003
  9.7528007E+003
  1.3344346E+004
  1.6189754E+004
  1.8131323E+004
  1.9282859E+004
  1.9857802E+004
  2.0087504E+004
  2.0161272E+004
  2.0216980E+004
  2.0352622E+004
  2.0636401E+004
  2.1113086E+004
  2.1805994E+004
  2.2715626E+004
  2.3814421E+004
  2.5034175E+004
  2.6235547E+004
  2.7155884E+004
  2.7343549E+004
  2.6321276E+004
  1.8865219E+004
  1.9764268E+003
 -1.0505702E+003
 -1.0597656E+003
 -1.4110181E+003
 -1.5605528E+003
 -1.6860229E+003
 -1.7865182E+003
 -1.8807346E+003
 -1.9711127E+003
 -2.0594601E+003
 -2.1455997E+003
 -2.2291277E+003
 -2.3098188E+003
 -2.3880908E+003
 -2.4652428E+003
 -2.5435744E+003
 -2.6263633E+003
 -2.7176830E+003
 -2.8220311E+003
 -2.9437584E+003
 -3.0863294E+003
 -3.2514717E+003
 -3.4382268E+003
 -3.6416950E+003
 -3.8507129E+003
 -4.0427952E+003
 -4.1735346E+003
 -4.1585041E+003
 -3.8603835E+003
 -3.0886411E+003
 -1.6689771E+003
  4.8976488E+002
  3.3258296E+003
  6.5683264E+003
  9.9169859E+003
  1.2995504E+004
  1.5544282E+004
  1.7437883E+004
  1.8688244E+004
  1.9413988E+004
  1.9771397E+004
  1.9914336E+004
  1.9975803E+004
  2.0064056E+004
  2.0262779E+004
  2.0629740E+004
  2.1193082E+004
  2.1946546E+004
  2.2841847E+004
  2.3786710E+004
  2.4622548E+004
  2.5220465E+004
  2.5363499E+004
  2.6198778E+004
  3.1041729E+004
 -6.7694883E+003
 -1.0305046E+003
 -1.1738145E+003
 -1.1434756E+003
 -1.2892603E+003
 -1.4017461E+003
 -1.5051013E+003
 -1.5999524E+003
 -1.6919748E+003
 -1.7826522E+003
 -1.8723638E+003
 -1.9607189E+003
 -2.0473906E+003
 -2.1325084E+003
 -2.2168586E+003
 -2.3019183E+003
 -2.3897584E+003
 -2.4828069E+003
 -2.5834633E+003
 -2.6935503E+003
 -2.8136014E+003
 -2.9419614E+003
 -3.0736035E+003
 -3.1983787E+003
 -3.2981216E+003
 -3.3417709E+003
 -3.2780069E+003
 -3.0280365E+003
 -2.4831059E+003
 -1.5213417E+003
 -3.9245896E+001
  1.9940202E+003
  4.5024997E+003
  7.3206927E+003
  1.0198095E+004
  1.2890982E+004
  1.5191713E+004
  1.6981673E+004
  1.8240640E+004
  1.9023209E+004
  1.9430600E+004
  1.9583391E+004
  1.9604679E+004
  1.9609790E+004
  1.9697828E+004
  1.9941885E+004
  2.0379288E+004
  2.1001489E+004
  2.1753247E+004
  2.2517240E+004
  2.3197771E+004
  2.3556383E+004
  2.4295909E+004
  2.4263783E+004
  3.6401415E+004
 -6.8010575E+002
 -8.6881309E+002
 -9.6999151E+002
 -1.0429441E+003
 -1.1349934E+003
 -1.2275074E+003
 -1.3191706E+003
 -1.4114662E+003
 -1.5049889E+003
 -1.5992161E+003
 -1.6931198E+003
 -1.7859116E+003
 -1.8772480E+003
 -1.9672983E+003
 -2.0566658E+003
 -2.1462119E+003
 -2.2367725E+003
 -2.3287534E+003
 -2.4215862E+003
 -2.5130147E+003
 -2.5981620E+003
 -2.6682682E+003
 -2.7089038E+003
 -2.6974043E+003
 -2.5994194E+003
 -2.3652996E+003
 -1.9282157E+003
 -1.2085008E+003
 -1.2673630E+002
  1.3712022E+003
  3.2889830E+003
  5.5621215E+003
  8.0553687E+003
  1.0593430E+004
  1.2986341E+004
  1.5073566E+004
  1.6747224E+004
  1.7962332E+004
  1.8733200E+004
  1.9120150E+004
  1.9216461E+004
  1.9137012E+004
  1.9006666E+004
  1.8945029E+004
  1.9048196E+004
  1.9369226E+004
  1.9906152E+004
  2.0596761E+004
  2.1334748E+004
  2.1968841E+004
  2.2498343E+004
  2.2838602E+004
  2.4890689E+004
  2.4127270E+004
 -4.5498207E+002
 -6.5429618E+002
 -7.3794630E+002
 -7.9827576E+002
 -8.7130414E+002
 -9.5008472E+002
 -1.0353068E+003
 -1.1270382E+003
 -1.2240107E+003
 -1.3233865E+003
 -1.4231145E+003
 -1.5217004E+003
 -1.6182557E+003
 -1.7123050E+003
 -1.8035897E+003
 -1.8918094E+003
 -1.9763015E+003
 -2.0556287E+003
 -2.1270476E+003
 -2.1858217E+003
 -2.2243323E+003
 -2.2309214E+003
 -2.1883975E+003
 -2.0722087E+003
 -1.8485624E+003
 -1.4732704E+003
 -8.9294486E+002
 -5.0328644E+001
  1.1045266E+003
  2.5991203E+003
  4.4224068E+003
  6.5154297E+003
  8.7743681E+003
  1.1062014E+004
  1.3232106E+004
  1.5150450E+004
  1.6714215E+004
  1.7862127E+004
  1.8577141E+004
  1.8886141E+004
  1.8859105E+004
  1.8606533E+004
  1.8270361E+004
  1.8003638E+004
  1.7937491E+004
  1.8151798E+004
  1.8653599E+004
  1.9378164E+004
  2.0204525E+004
  2.0985614E+004
  2.1533138E+004
  2.1918652E+004
  2.1751299E+004
  2.1661851E+004
 -1.9312883E+002
 -5.2913268E+002
 -4.6885594E+002
 -5.4588857E+002
 -6.0075271E+002
 -6.6458355E+002
 -7.4172312E+002
 -8.3562171E+002
 -9.3734755E+002
 -1.0426598E+003
 -1.1481759E+003
 -1.2518859E+003
 -1.3524093E+003
 -1.4487084E+003
 -1.5397342E+003
 -1.6241184E+003
 -1.6998348E+003
 -1.7638041E+003
 -1.8114031E+003
 -1.8358494E+003
 -1.8274343E+003
 -1.7725916E+003
 -1.6528326E+003
 -1.4436869E+003
 -1.1140002E+003
 -6.2626429E+002
  6.1105855E+001
  9.8858814E+002
  2.1873548E+003
  3.6689827E+003
  5.4161376E+003
  7.3772913E+003
  9.4678155E+003
  1.1578983E+004
  1.3590470E+004
  1.5385326E+004
  1.6861975E+004
  1.7942962E+004
  1.8581836E+004
  1.8771777E+004
  1.8557600E+004
  1.8047982E+004
  1.7413880E+004
  1.6860071E+004
  1.6580712E+004
  1.6693669E+004
  1.7213676E+004
  1.8056253E+004
  1.9071666E+004
  2.0083666E+004
  2.0823883E+004
  2.0717137E+004
  1.9337971E+004
  1.7517827E+004
 -8.2403839E+001
 -2.1414697E+002
 -1.9774623E+002
 -3.0014944E+002
 -3.1741639E+002
 -3.5220726E+002
 -4.3495188E+002
 -5.3458901E+002
 -6.4377078E+002
 -7.5553215E+002
 -8.6649344E+002
 -9.7429182E+002
 -1.0773505E+003
 -1.1742080E+003
 -1.2631468E+003
 -1.3418487E+003
 -1.4070825E+003
 -1.4543574E+003
 -1.4775067E+003
 -1.4681821E+003
 -1.4152547E+003
 -1.3041528E+003
 -1.1162182E+003
 -8.2825869E+002
 -4.1260906E+002
  1.6184284E+002
  9.2714271E+002
  1.9119362E+003
  3.1354301E+003
  4.6006167E+003
  6.2882777E+003
  8.1536912E+003
  1.0127356E+004
  1.2119490E+004
  1.4027733E+004
  1.5745424E+004
  1.7169041E+004
  1.8204044E+004
  1.8771753E+004
  1.8822945E+004
  1.8366099E+004
  1.7501022E+004
  1.6440603E+004
  1.5488654E+004
  1.4926355E+004
  1.4941888E+004
  1.5547032E+004
  1.6600001E+004
  1.7882336E+004
  1.9152576E+004
  2.0239569E+004
  2.0328029E+004
  1.8151066E+004
  1.3195921E+004
  3.5450619E+002
 -1.5092737E+002
 -6.1572409E+001
  5.5182960E+001
 -1.9442644E+001
 -1.1246111E+002
 -2.2555308E+002
 -3.4307564E+002
 -4.6145622E+002
 -5.7678570E+002
 -6.8723233E+002
 -7.9122429E+002
 -8.8709085E+002
 -9.7255792E+002
 -1.0444713E+003
 -1.0985454E+003
 -1.1291053E+003
 -1.1287720E+003
 -1.0880852E+003
 -9.9508166E+002
 -8.3488559E+002
 -5.8940785E+002
 -2.3731929E+002
  2.4546970E+002
  8.8454009E+002
  1.7046557E+003
  2.7263244E+003
  3.9614701E+003
  5.4088271E+003
  7.0500071E+003
  8.8471379E+003
  1.0742622E+004
  1.2661078E+004
  1.4512753E+004
  1.6197688E+004
  1.7609481E+004
  1.8637065E+004
  1.9166215E+004
  1.9091836E+004
  1.8354494E+004
  1.7025033E+004
  1.5372904E+004
  1.3820663E+004
  1.2882362E+004
  1.2821172E+004
  1.3624915E+004
  1.5031610E+004
  1.6677217E+004
  1.8229573E+004
  1.9476450E+004
  2.0327133E+004
  1.6274653E+004
  2.7451745E+003
  9.8089823E+002
 -9.4198198E+001
  6.1559822E+002
  4.1290454E+002
  3.3816672E+002
  2.1220752E+002
  9.0317200E+001
 -3.6988234E+001
 -1.6012573E+002
 -2.7804448E+002
 -3.8914001E+002
 -4.9235920E+002
 -5.8591385E+002
 -6.6705924E+002
 -7.3186073E+002
 -7.7509000E+002
 -7.9008276E+002
 -7.6853932E+002
 -7.0027180E+002
 -5.7294034E+002
 -3.7184564E+002
 -7.9874898E+001
  3.2226904E+002
  8.5539916E+002
  1.5405819E+003
  2.3971821E+003
  3.4402457E+003
  4.6774378E+003
  6.1059393E+003
  7.7097754E+003
  9.4579376E+003
  1.1303370E+004
  1.3182591E+004
  1.5015798E+004
  1.6707714E+004
  1.8148987E+004
  1.9217446E+004
  1.9769476E+004
  1.9628024E+004
  1.8623172E+004
  1.6703395E+004
  1.4165745E+004
  1.1818265E+004
  1.0325249E+004
  1.0237500E+004
  1.1441635E+004
  1.3441137E+004
  1.5637395E+004
  1.7580344E+004
  1.8928728E+004
  2.0800434E+004
  2.6959646E+004
 -5.4423508E+003
 -5.5066922E+002
  7.0946947E+002
  8.5161345E+002
  7.9171709E+002
  6.6401897E+002
  5.4517612E+002
  4.0640421E+002
  2.7434878E+002
  1.4859025E+002
  3.1191459E+001
 -7.8175686E+001
 -1.7889211E+002
 -2.6920896E+002
 -3.4583345E+002
 -4.0401782E+002
 -4.3763440E+002
 -4.3917891E+002
 -3.9967106E+002
 -3.0849940E+002
 -1.5327351E+002
  8.0240883E+001
  4.0801841E+002
  8.4740770E+002
  1.4164089E+003
  2.1325253E+003
  3.0111796E+003
  4.0637762E+003
  5.2955973E+003
  6.7037856E+003
  8.2756148E+003
  9.9870512E+003
  1.1801192E+004
  1.3665930E+004
  1.5510585E+004
  1.7242549E+004
  1.8748073E+004
  1.9895084E+004
  2.0537325E+004
  2.0457325E+004
  1.9286394E+004
  1.6737041E+004
  1.3078674E+004
  9.1238683E+003
  6.9490648E+003
  7.0504606E+003
  9.0553490E+003
  1.1965905E+004
  1.4998016E+004
  1.7446329E+004
  1.9388464E+004
  1.9256364E+004
  3.0160118E+004
  2.6938417E+003
  1.1938995E+003
  1.1024487E+003
  1.0298705E+003
  8.6920002E+002
  7.2596457E+002
  5.8970707E+002
  4.6645770E+002
  3.5313868E+002
  2.4834276E+002
  1.5154691E+002
  6.4735730E+001
 -8.0016879E+000
 -6.0919778E+001
 -8.6975553E+001
 -7.7941241E+001
 -2.4358545E+001
  8.4571390E+001
  2.6107230E+002
  5.1877412E+002
  8.7252106E+002
  1.3379433E+003
  1.9307450E+003
  2.6656929E+003
  3.5553479E+003
  4.6086490E+003
  5.8295266E+003
  7.2157257E+003
  8.7579239E+003
  1.0438913E+004
  1.2232223E+004
  1.4098448E+004
  1.5977682E+004
  1.7779552E+004
  1.9376091E+004
  2.0620179E+004
  2.1361211E+004
  2.1467193E+004
  2.0481107E+004
  1.7290871E+004
  1.1404160E+004
  6.2251005E+003
  2.6312041E+003
  3.2381862E+003
  6.6622346E+003
  1.0876714E+004
  1.4721603E+004
  1.8109230E+004
  2.0293218E+004
  2.1456541E+004
  1.7274879E+004
  8.2580780E+002
  1.4157543E+003
  1.6577454E+003
  1.3539878E+003
  1.2031617E+003
  1.0433862E+003
  9.1238983E+002
  7.9577014E+002
  6.9189252E+002
  5.9433811E+002
  5.0207316E+002
  4.1789480E+002
  3.4734954E+002
  2.9746861E+002
  2.7623731E+002
  2.9247180E+002
  3.5590818E+002
  4.7733613E+002
  6.6867417E+002
  9.4291664E+002
  1.3139012E+003
  1.7958602E+003
  2.4027373E+003
  3.1472889E+003
  4.0400352E+003
  5.0881973E+003
  6.2948053E+003
  7.6581731E+003
  9.1718183E+003
  1.0824646E+004
  1.2600411E+004
  1.4475296E+004
  1.6407185E+004
  1.8312120E+004
  2.0042903E+004
  2.1376853E+004
  2.2136067E+004
  2.2253047E+004
  2.1920429E+004
  1.9368903E+004
  1.2295101E+004
  8.0852632E+001
 -4.3197863E+003
 -1.1883867E+003
  4.9201468E+003
  1.0419986E+004
  1.4941667E+004
  1.8550967E+004
  2.1865206E+004
  1.9322212E+004
  4.5081745E+003
  1.3335571E+003
  2.7013668E+003
  1.8046169E+003
  1.7387360E+003
  1.5127536E+003
  1.3717680E+003
  1.2403256E+003
  1.1426183E+003
  1.0540018E+003
  9.6552129E+002
  8.7637569E+002
  7.9220942E+002
  7.2089613E+002
  6.7101994E+002
  6.5140857E+002
  6.7123442E+002
  7.4026796E+002
  8.6910361E+002
  1.0692679E+003
  1.3531652E+003
  1.7338337E+003
  2.2244951E+003
  2.8378977E+003
  3.5854813E+003
  4.4764409E+003
  5.5168330E+003
  6.7089450E+003
  8.0511887E+003
  9.5387400E+003
  1.1164852E+004
  1.2922434E+004
  1.4803019E+004
  1.6794753E+004
  1.8849106E+004
  2.0793667E+004
  2.2340092E+004
  2.3066389E+004
  2.2895878E+004
  2.1850353E+004
  2.1839290E+004
  3.9984963E+003
  1.3003205E+003
 -1.0560005E+004
 -3.7119883E+003
  4.2567442E+003
  1.0584101E+004
  1.5636374E+004
  1.9398484E+004
  2.2637325E+004
  3.3099482E+004
 -6.2389023E+003
 -2.6872565E+002
  3.0532593E+003
  2.3254106E+003
  2.0239418E+003
  1.8840877E+003
  1.6782150E+003
  1.5809089E+003
  1.5175512E+003
  1.4508316E+003
  1.3688590E+003
  1.2778873E+003
  1.1888067E+003
  1.1125638E+003
  1.0591541E+003
  1.0378456E+003
  1.0577586E+003
  1.1283810E+003
  1.2599212E+003
  1.4634639E+003
  1.7509264E+003
  2.1348165E+003
  2.6277909E+003
  3.2420169E+003
  3.9883610E+003
  4.8754624E+003
  5.9088277E+003
  7.0901920E+003
  8.4175347E+003
  9.8861473E+003
  1.1491165E+004
  1.3231069E+004
  1.5112595E+004
  1.7144461E+004
  1.9367270E+004
  2.1710119E+004
  2.3608957E+004
  2.4137488E+004
  2.3909909E+004
  2.1887607E+004
  2.9400520E+004
  3.0407283E+003
 -1.8043242E+002
 -3.3638732E+004
 -6.3559298E+003
  3.7716807E+003
  1.0840547E+004
  1.6467280E+004
  2.1561655E+004
  2.2915166E+004
  3.5086028E+004
  1.6196532E+003
  2.4587840E+003
  2.6734294E+003
  2.1226062E+003
  1.9581487E+003
  1.9509682E+003
  1.9468722E+003
  1.8970053E+003
  1.8103462E+003
  1.7077955E+003
  1.6067929E+003
  1.5209085E+003
  1.4605671E+003
  1.4346554E+003
  1.4516399E+003
  1.5203503E+003
  1.6504265E+003
  1.8524992E+003
  2.1381485E+003
  2.5196659E+003
  3.0096313E+003
  3.6203025E+003
  4.3628149E+003
  5.2462073E+003
  6.2763534E+003
  7.4550333E+003
  8.7796301E+003
  1.0244289E+004
  1.1843227E+004
  1.3576715E+004
  1.5459580E+004
  1.7531286E+004
  1.9819947E+004
  2.2611540E+004
  2.5976340E+004
  2.7758212E+004
  2.4882500E+004
  2.2891260E+004
  1.9236837E+004
 -3.1001546E+004
 -6.1527209E+003
  2.9849753E+003
  1.0904112E+004
  1.6886012E+004
  2.2762451E+004
  2.4667670E+004
  6.3239637E+003
  1.9064621E+003
  4.6830057E+003
  2.6938291E+003
  2.1290130E+003
  2.2520047E+003
  2.4255329E+003
  2.4671409E+003
  2.4026409E+003
  2.2898585E+003
  2.1621908E+003
  2.0420954E+003
  1.9427265E+003
  1.8731925E+003
  1.8408131E+003
  1.8527186E+003
  1.9167207E+003
  2.0417614E+003
  2.2380603E+003
  2.5170500E+003
  2.8911411E+003
  3.3733358E+003
  3.9766755E+003
  4.7134915E+003
  5.5944069E+003
  6.6270502E+003
  7.8145863E+003
  9.1545557E+003
  1.0639311E+004
  1.2259963E+004
  1.4015614E+004
  1.5922677E+004
  1.8051952E+004
  2.0499770E+004
  2.3181575E+004
  2.7105914E+004
  2.9120717E+004
  2.5729875E+004
  2.3937744E+004
 -1.7681969E+004
 -7.5356269E+003
  3.2214253E+003
  1.0873337E+004
  1.7149900E+004
  2.3703077E+004
  4.0788307E+004
 -5.8048960E+003
 -2.8555241E+002
  5.3271059E+003
  1.4504206E+003
  2.2047844E+003
  2.7986802E+003
  3.1178899E+003
  3.0857421E+003
  2.9611823E+003
  2.7937188E+003
  2.6305253E+003
  2.4871732E+003
  2.3733924E+003
  2.2946072E+003
  2.2554974E+003
  2.2612926E+003
  2.3185702E+003
  2.4355583E+003
  2.6221855E+003
  2.8899601E+003
  3.2517386E+003
  3.7213978E+003
  4.3133951E+003
  5.0421601E+003
  5.9211991E+003
  6.9617401E+003
  8.1706497E+003
  9.5478610E+003
  1.1084428E+004
  1.2766189E+004
  1.4585043E+004
  1.6572372E+004
  1.8763345E+004
  2.1550219E+004
  2.5109342E+004
  3.0740987E+004
  5.4679861E+004
  1.4931601E+004
 -1.0479960E+004
 -3.3774240E+003
  3.8813358E+003
  1.1275670E+004
  1.8745603E+004
  2.2627939E+004
  4.0830621E+004
  4.2522279E+003
  1.3756050E+003
  2.8926074E+003
  4.0120476E+003
  3.9287962E+003
  3.7759273E+003
  3.5254576E+003
  3.2974000E+003
  3.0964254E+003
  2.9329035E+003
  2.8081595E+003
  2.7229725E+003
  2.6786814E+003
  2.6784538E+003
  2.7276600E+003
  2.8339673E+003
  3.0072238E+003
  3.2592605E+003
  3.6036606E+003
  4.0555171E+003
  4.6311591E+003
  5.3477919E+003
  6.2229305E+003
  7.2732920E+003
  8.5127113E+003
  9.9476564E+003
  1.1571731E+004
  1.3360244E+004
  1.5292553E+004
  1.7371846E+004
  1.9806882E+004
  2.2278920E+004
  2.6948879E+004
  2.6629046E+004
  3.3019560E+004
  2.5765625E+003
 -1.1727363E+003
 -2.1624586E+003
 -1.8955671E+002
  5.3404201E+003
  1.1794291E+004
  1.9107097E+004
  2.4028656E+004
  7.2647334E+003
 -2.8413549E+003
 -7.0525447E+002
  5.8271555E+003
  4.8688298E+003
  4.8442937E+003
  4.3680297E+003
  4.0525703E+003
  3.7689720E+003
  3.5453011E+003
  3.3718515E+003
  3.2443830E+003
  3.1582579E+003
  3.1118327E+003
  3.1064342E+003
  3.1465640E+003
  3.2396615E+003
  3.3957968E+003
  3.6273731E+003
  3.9489068E+003
  4.3768858E+003
  4.9296914E+003
  5.6275612E+003
  6.4925065E+003
  7.5480276E+003
  8.8176701E+003
  1.0321462E+004
  1.2063370E+004
  1.4014976E+004
  1.6102012E+004
  1.8290663E+004
  2.0692492E+004
  2.4186500E+004
  2.7402976E+004
  4.8541347E+004
 -9.9913184E+003
 -1.7969471E+003
  2.3715915E+002
  2.6705906E+003
  6.7449468E+003
  1.2124062E+004
  1.9927944E+004
  3.7671255E+004
 -4.4969970E+003
  8.5908912E+003
  5.1665264E+003
  6.3269551E+003
  5.2367620E+003
  4.8767461E+003
  4.4921190E+003
  4.1961391E+003
  3.9696511E+003
  3.8028313E+003
  3.6834151E+003
  3.6033547E+003
  3.5584372E+003
  3.5488013E+003
  3.5786615E+003
  3.6557394E+003
  3.7906906E+003
  3.9967175E+003
  4.2893795E+003
  4.6865678E+003
  5.2086119E+003
  5.8785232E+003
  6.7224341E+003
  7.7701992E+003
  9.0561341E+003
  1.0617519E+004
  1.2487786E+004
  1.4658373E+004
  1.6991619E+004
  1.9301550E+004
  2.1339108E+004
  2.4417332E+004
  2.4238373E+004
  2.2633297E+004
  1.9622108E+003
  2.8376422E+003
  5.0820637E+003
  8.1297007E+003
  1.2946277E+004
  1.6978207E+004
  3.6714334E+004
  1.0797211E+004
  9.0155315E+003
  5.9180884E+003
  5.6576065E+003
  5.2767098E+003
  4.8624219E+003
  4.5829014E+003
  4.3762299E+003
  4.2319660E+003
  4.1316196E+003
  4.0644906E+003
  4.0241224E+003
  4.0103252E+003
  4.0278847E+003
  4.0854448E+003
  4.1946176E+003
  4.3695583E+003
  4.6268712E+003
  4.9857287E+003
  5.4681237E+003
  6.0992728E+003
  6.9082680E+003
  7.9293956E+003
  9.2041436E+003
  1.0786156E+004
  1.2740124E+004
  1.5142153E+004
  1.7916841E+004
  2.0436640E+004
  2.2119637E+004
  2.3228134E+004
  3.9221300E+004
 -6.6860099E+003
  6.9629483E+001
  1.1360961E+003
  3.8145470E+003
  5.1398879E+003
  6.6865835E+003
  9.4621142E+003
  1.2949756E+004
  1.8036062E+004
  1.6234882E+004
 -3.2720047E+003
  8.4622902E+003
  5.8171681E+003
  6.5938007E+003
  5.5081492E+003
  5.2264528E+003
  4.9455068E+003
  4.7830174E+003
  4.6703735E+003
  4.5999932E+003
  4.5509169E+003
  4.5162033E+003
  4.4963957E+003
  4.4981362E+003
  4.5316673E+003
  4.6098257E+003
  4.7477162E+003
  4.9628550E+003
  5.2754997E+003
  5.7090395E+003
  6.2903842E+003
  7.0505726E+003
  8.0255679E+003
  9.2596059E+003
  1.0807377E+004
  1.2762159E+004
  1.5228839E+004
  1.8532479E+004
  2.2079516E+004
  2.4319783E+004
  2.0095248E+004
  1.8372121E+004
  4.2392972E+003
  7.2724019E+003
  6.7775379E+003
  7.8061883E+003
  9.6588241E+003
  1.2847684E+004
  1.3412199E+004
  4.9225459E+003
  1.0368751E+003
  1.0608031E+004
  5.9678747E+003
  6.0250390E+003
  5.5154614E+003
  5.3421776E+003
  5.1930189E+003
  5.1353929E+003
  5.1025054E+003
  5.0743011E+003
  5.0424923E+003
  5.0119054E+003
  4.9923522E+003
  4.9962503E+003
  5.0376088E+003
  5.1322000E+003
  5.2981237E+003
  5.5564754E+003
  5.9319113E+003
  6.4530522E+003
  7.1526222E+003
  8.0680374E+003
  9.2412705E+003
  1.0726575E+004
  1.2584759E+004
  1.4997588E+004
  1.8110117E+004
  2.3254173E+004
  2.3240453E+004
  1.8734133E+004
  2.3301383E+002
  1.4619161E+004
  8.3219985E+003
  8.2187428E+003
  8.2307793E+003
  9.4143863E+003
  1.1408832E+004
  1.9320817E+004
 -2.6091394E+003
  1.5181266E+003
  9.4682006E+003
  6.5065437E+003
  6.2979959E+003
  5.9649899E+003
  5.6930591E+003
  5.6278101E+003
  5.6440275E+003
  5.6585369E+003
  5.6465363E+003
  5.6093683E+003
  5.5595064E+003
  5.5112989E+003
  5.4792206E+003
  5.4778497E+003
  5.5229139E+003
  5.6324885E+003
  5.8281332E+003
  6.1357664E+003
  6.5861877E+003
  7.2150173E+003
  8.0627046E+003
  9.1731603E+003
  1.0599323E+004
  1.2391744E+004
  1.4676475E+004
  1.7735517E+004
  2.3624889E+004
  4.4126306E+004
  2.5188121E+003
  1.7723436E+004
  1.0723239E+004
  8.9942394E+003
  8.3366168E+003
  8.9653954E+003
  9.3403926E+003
  1.5871577E+004
  1.5813324E+003
  6.8585445E+003
  7.0487444E+003
  6.1703105E+003
  5.9886933E+003
  6.1097175E+003
  6.2321443E+003
  6.2892565E+003
  6.2763752E+003
  6.2184420E+003
  6.1374731E+003
  6.0523302E+003
  5.9781676E+003
  5.9287842E+003
  5.9186384E+003
  5.9648229E+003
  6.0887146E+003
  6.3173686E+003
  6.6842061E+003
  7.2298372E+003
  7.9991671E+003
  9.0497528E+003
  1.0421197E+004
  1.2265027E+004
  1.4398247E+004
  1.7942479E+004
  2.0207609E+004
  4.0861824E+004
 -2.4535756E+003
  4.4768636E+003
  1.2471698E+004
  1.2156689E+004
  9.4067174E+003
  8.0256783E+003
  7.6966299E+003
  8.3499880E+003
  2.0922057E+003
  3.1313079E+003
  1.1203957E+004
  6.6016796E+003
  5.9630315E+003
  6.3240460E+003
  6.7240127E+003
  6.9517607E+003
  7.0069872E+003
  6.9627853E+003
  6.8623280E+003
  6.7377931E+003
  6.6085695E+003
  6.4880754E+003
  6.3871565E+003
  6.3174198E+003
  6.2936547E+003
  6.3360255E+003
  6.4719681E+003
  6.7378233E+003
  7.1790328E+003
  7.8512014E+003
  8.8122147E+003
  1.0144958E+004
  1.1886043E+004
  1.4371916E+004
  1.6940924E+004
  2.1431546E+004
  1.4626778E+004
  1.4867706E+004
  1.7042487E+004
  1.2438074E+004
  9.3197950E+003
  7.0271734E+003
  6.2188355E+003
  8.5668446E+003
 -3.3741081E+002
  5.7243153E+001
  1.2534126E+004
  3.7614334E+003
  6.1311297E+003
  6.8923708E+003
  7.6498197E+003
  7.8056960E+003
  7.8044956E+003
  7.6841518E+003
  7.5225871E+003
  7.3453130E+003
  7.1692903E+003
  7.0018310E+003
  6.8488293E+003
  6.7173120E+003
  6.6182676E+003
  6.5690839E+003
  6.5961527E+003
  6.7372939E+003
  7.0435675E+003
  7.5776411E+003
  8.4120321E+003
  9.6082766E+003
  1.1237109E+004
  1.3258947E+004
  1.6008538E+004
  1.4801674E+004
  4.2592161E+003
  3.4419488E+004
  1.6274002E+004
  1.2649213E+004
  8.1666676E+003
  5.4135392E+003
  3.5762741E+003
  4.4628328E+003
 -1.8849999E+003
  4.9900515E+003
  6.2167427E+003
  8.5226519E+003
  8.6949299E+003
  8.7821286E+003
  8.6157622E+003
  8.4038868E+003
  8.1686975E+003
  7.9407469E+003
  7.7215369E+003
  7.5115250E+003
  7.3096475E+003
  7.1171899E+003
  6.9398307E+003
  6.7902503E+003
  6.6912587E+003
  6.6796471E+003
  6.8095166E+003
  7.1535245E+003
  7.7917745E+003
  8.8025000E+003
  1.0177520E+004
  1.1843383E+004
  1.3552897E+004
  2.0094166E+004
 -3.2294799E+003
  3.5732498E+004
  1.9252037E+004
  1.1908749E+004
  7.0387518E+003
  3.0977219E+003
  1.4356054E+003
 -2.1850319E+002
 -8.9168841E+003
  2.1967647E+003
  9.9367482E+003
  9.5821419E+003
  9.9202525E+003
  9.6684720E+003
  9.3890943E+003
  9.0610957E+003
  8.7724620E+003
  8.5044832E+003
  8.2534640E+003
  8.0099321E+003
  7.7662030E+003
  7.5170829E+003
  7.2618965E+003
  7.0065279E+003
  6.7667957E+003
  6.5739479E+003
  6.4807627E+003
  6.5692962E+003
  6.9385037E+003
  7.7003102E+003
  8.8294112E+003
  1.0477936E+004
  1.0963231E+004
  1.6756752E+004
 -4.2227234E+003
  6.7680100E+003
  2.3773721E+004
  1.8238536E+004
  1.1189871E+004
  5.5362072E+003
  4.9614066E+002
 -4.5104946E+003
  1.5673942E+003
 -5.5265338E+003
  1.0485925E+004
  9.8291427E+003
  1.0929352E+004
  1.0793534E+004
  1.0507830E+004
  9.9937089E+003
  9.6343660E+003
  9.3113573E+003
  9.0246201E+003
  8.7565828E+003
  8.4918343E+003
  8.2158634E+003
  7.9175364E+003
  7.5893993E+003
  7.2289354E+003
  6.8413136E+003
  6.4453099E+003
  6.0853382E+003
  5.8431579E+003
  5.8577830E+003
  6.2817557E+003
  7.2411804E+003
  8.4996980E+003
  9.6191361E+003
  2.2760486E+003
  4.2119073E+004
  2.2345398E+004
  1.6922152E+004
  9.4219872E+003
  3.4559290E+003
 -1.3691826E+003
 -1.0419531E+004
  1.7693952E+004
  9.8460964E+003
  1.1639227E+004
  1.2058117E+004
  1.0898758E+004
  1.0499695E+004
  1.0114806E+004
  9.7851406E+003
  9.4969789E+003
  9.2276262E+003
  8.9538077E+003
  8.6560300E+003
  8.3176537E+003
  7.9256181E+003
  7.4688258E+003
  6.9387392E+003
  6.3348660E+003
  5.6773229E+003
  5.0380505E+003
  4.5674342E+003
  4.5490830E+003
  5.3298180E+003
  6.8241921E+003
  1.1085873E+004
 -8.4775815E+002
  4.8761846E+004
  2.1785165E+004
  1.3818076E+004
  6.9108812E+003
  7.1115900E+002
 -4.3679712E+003
 -1.0205800E+004
 -1.7004796E+002
  1.0455006E+004
  1.7743077E+004
  1.1663266E+004
  1.1397106E+004
  1.0957235E+004
  1.0527023E+004
  1.0201734E+004
  9.9256801E+003
  9.6655825E+003
  9.3940376E+003
  9.0824824E+003
  8.7121671E+003
  8.2672947E+003
  7.7304912E+003
  7.0796246E+003
  6.2882523E+003
  5.3409464E+003
  4.2507689E+003
  3.1902975E+003
  2.4155986E+003
  2.8734188E+003
  4.1753127E+003
  6.0119131E+003
 -9.9979286E+003
  2.7182647E+004
  2.2813503E+004
  2.0029112E+004
  1.1056997E+004
  4.6539064E+003
 -1.8701881E+003
 -6.3367757E+003
 -3.6834170E+003
  1.1532822E+003
  1.1596846E+004
  1.5564504E+004
  1.0676464E+004
  1.2551723E+004
  1.1208199E+004
  1.0921040E+004
  1.0568565E+004
  1.0308463E+004
  1.0073531E+004
  9.8111139E+003
  9.4881925E+003
  9.0881888E+003
  8.5989412E+003
  8.0021218E+003
  7.2649772E+003
  6.3389374E+003
  5.1518159E+003
  3.6659829E+003
  1.8177762E+003
  2.9856379E+002
 -8.5747637E+002
  4.3807830E+003
  5.4246330E+001
  4.4103191E+004
  2.3089713E+004
  1.5547795E+004
  8.8333394E+003
  2.5218206E+003
 -3.9806927E+003
 -1.5722927E+004
  2.1277331E+003
 -1.8209074E+003
  1.8378562E+004
  1.1561135E+004
  1.1820256E+004
  1.1233639E+004
  1.0854241E+004
  1.0648963E+004
  1.0458334E+004
  1.0206447E+004
  9.8619043E+003
  9.4228092E+003
  8.8889579E+003
  8.2473346E+003
  7.4631620E+003
  6.4689538E+003
  5.1624370E+003
  3.3705391E+003
  9.7585823E+002
 -2.3323863E+003
 -4.4060795E+003
 -4.8495570E+003
  1.0038320E+004
  1.8921542E+004
  2.0904992E+004
  1.7335304E+004
  1.1453009E+004
  5.9801671E+003
  1.1683647E+002
 -4.5178958E+003
 -1.7712420E+004
  4.4272789E+003
  1.4041282E+004
  1.1136026E+004
  1.2795931E+004
  1.1136352E+004
  1.1080621E+004
  1.0952995E+004
  1.0847944E+004
  1.0582660E+004
  1.0186597E+004
  9.6824108E+003
  9.0895143E+003
  8.4055904E+003
  7.5990826E+003
  6.6030322E+003
  5.2818192E+003
  3.4588225E+003
  6.2402316E+002
 -3.3217007E+003
 -1.1435199E+004
 -1.2157626E+004
  1.7021374E+004
  1.6530275E+004
  1.7135451E+004
  1.7790342E+004
  1.4242385E+004
  8.7045107E+003
  3.1365264E+003
 -1.6989023E+003
 -6.7061305E+003
 -4.1507211E+003
 -1.5653735E+003
  1.9631186E+004
  1.0694881E+004
  1.1326087E+004
  1.1065236E+004
  1.1367448E+004
  1.1268703E+004
  1.0940098E+004
  1.0435298E+004
  9.8243210E+003
  9.1432544E+003
  8.4007783E+003
  7.5741929E+003
  6.5934180E+003
  5.3541132E+003
  3.5660913E+003
  1.0754039E+003
 -3.9680603E+003
 -9.9992094E+003
 -3.4851422E+004
  1.5319417E+004
  1.5143156E+004
  1.5122025E+004
  1.4509848E+004
  1.3003196E+004
  1.0139421E+004
  5.7803421E+003
  8.6746423E+002
 -3.8271126E+003
 -6.8245496E+003
 -2.0429181E+003
  4.4302248E+003
  1.5636903E+004
  9.7824610E+003
  1.0408290E+004
  1.1470506E+004
  1.1958478E+004
  1.1747869E+004
  1.1252297E+004
  1.0568693E+004
  9.8017247E+003
  8.9942909E+003
  8.1639545E+003
  7.2909367E+003
  6.3108609E+003
  5.1084309E+003
  3.4630892E+003
  1.0355011E+003
 -3.2697994E+003
 -1.1378891E+004
 -4.3917126E+004
  1.2003412E+004
  1.6545369E+004
  1.3673996E+004
  1.3422465E+004
  1.2036278E+004
  1.0015497E+004
  6.9882812E+003
  3.0805867E+003
 -1.7010587E+003
 -6.4694081E+003
 -5.4008884E+003
  3.9827674E+002
  6.9315853E+003
  1.0419861E+004
  1.2727921E+004
  1.2668326E+004
  1.2249777E+004
  1.1449126E+004
  1.0542331E+004
  9.5718115E+003
  8.6020181E+003
  7.6522391E+003
  6.7022037E+003
  5.6806349E+003
  4.4571607E+003
  2.8219846E+003
  4.4525599E+002
 -3.3659712E+003
 -9.7501049E+003
 -1.6577195E+004
 -2.7693787E+003
 -6.3183119E+002
  1.6608579E+002
 -1.6541274E+003
  2.6956492E+003
  1.8222502E+003
  1.2774750E+004
  1.2714112E+004
  1.1705268E+004
  9.4565659E+003
  6.7743804E+003
  4.1302077E+003
  3.9734847E+002
 -4.8674032E+003
 -6.3044207E+003
  1.2495949E+004
  2.3264992E+003
  1.4421695E+004
  1.3495942E+004
  1.3591294E+004
  1.2510871E+004
  1.1494998E+004
  1.0305581E+004
  9.1093721E+003
  7.9488760E+003
  6.8613333E+003
  5.8259041E+003
  4.7504418E+003
  3.4840540E+003
  1.8061144E+003
 -5.5542227E+002
 -4.0368839E+003
 -8.7636116E+003
 -1.1717016E+004
 -7.0807396E+003
  5.5978109E+002
  6.4742001E+003
  1.0547120E+004
  1.1154994E+004
  9.8105988E+003
  7.2102312E+003
  3.1672140E+003
  1.8412877E+003
 -2.5438551E+003
 -5.5588136E+003
  1.8080720E+004
  1.2772190E+004
  1.5758344E+004
  1.3532482E+004
  1.2703835E+004
  1.1292419E+004
  9.8715361E+003
  8.4041147E+003
  7.0409712E+003
  5.8217136E+003
  4.7282037E+003
  3.6663277E+003
  2.4167517E+003
  7.8205438E+002
 -1.3486061E+003
 -3.9131325E+003
 -5.9169503E+003
 -5.3979155E+003
 -2.5632040E+003
  1.0772060E+003
  5.4613812E+003
  8.4801476E+003
  8.7318579E+003
  6.5256185E+003
  3.3172656E+003
 -1.0434820E+003
  1.3704625E+003
 -3.8823838E+003
  2.0110110E+004
  2.1749159E+004
  1.3962010E+004
  1.4004686E+004
  1.2503158E+004
  1.1046547E+004
  9.1708482E+003
  7.4634272E+003
  5.9132199E+003
  4.5715782E+003
  3.5021784E+003
  2.5815458E+003
  1.5752231E+003
  1.3819263E+002
 -1.6659831E+003
 -3.1589077E+003
 -3.8364332E+003
 -2.2593752E+003
  1.7630284E+003
  3.4311651E+003
  2.8607991E+003
  6.9197937E+003
  3.2992634E+003
  6.1347737E+003
  1.6158255E+003
 -7.7746920E+002
 -5.6655625E+003
  1.9418938E+004
  1.3616839E+004
  1.4151462E+004
  1.3035562E+004
  1.0398272E+004
  8.2950350E+003
  6.3351610E+003
  4.6128190E+003
  3.1875527E+003
  2.1395822E+003
  1.6524072E+003
  1.0979715E+003
 -1.5001173E+002
 -1.6127642E+003
 -2.2699018E+003
 -1.3956920E+003
 -6.2251932E+002
  4.8019949E+003
  9.1128909E+002
  1.2650002E+003
  1.1204814E+004
  5.1437240E+002
  2.9882719E+003
  2.8488368E+003
  1.5052084E+004
  1.6671211E+004
  1.2364109E+004
  9.7545853E+003
  6.6475387E+003
  4.9147044E+003
  3.4159772E+003
  1.7633049E+003
  6.8096237E+002
  6.8291850E+002
  1.7190153E+003
  1.1339724E+003
 -1.5721786E+003
 -2.6357501E+003
  1.6945266E+003
 -1.2131809E+003
  1.6795696E+004
  2.8838028E+003
 -3.5019791E+003
  5.8522469E+003
  8.0432199E+003
  1.9877675E+004
  1.7007052E+004
  1.5564782E+004
  5.7277042E+003
  5.2084974E+003
  4.3483305E+003
  2.0077950E+003
  6.6047842E+002
 -5.3786543E+002
 -9.8905134E+002
  2.4209185E+003
 -2.6255897E+001
 -5.3203702E+002
 -1.5608767E+003
  1.0275325E+004
 -5.3444574E+003
  7.5383160E+003
 -8.6489657E+002
  1.9755739E+004
  3.3126159E+004
  2.2443647E+003
  9.4706915E+002
  3.1758336E+003
  1.5866454E+003
  1.0370617E+003
  8.7873088E+001
 -3.3126154E+002
 -8.6378826E+002
  8.3120107E+003
  1.5537093E+003
 -2.4258239E+002
 -4.8764099E+003
  4.6416734E+003
 -8.4457901E+003
  4.3398945E+004
  4.1254708E+003
 -1.1601948E+003
  7.6894789E+003
  1.7350158E+003
  8.3538718E+001
 -2.6280193E+002
 -6.6350057E+002
 -4.3085981E+003
  2.7430545E+003
 -2.4324103E+004
 -1.1236313E+004
 -7.5530773E+003
  1.2699857E+003
SCALARS Stress_yy double
LOOKUP_TABLE default
 -4.3238221E+004
  2.2646890E+005
  1.2219532E+005
  2.7919141E+004
  1.2135883E+005
  1.0482368E+005
  1.2128886E+005
  1.0555189E+005
  1.2241793E+005
  2.8322067E+004
  2.1896549E+005
 -3.8960984E+004
 -1.0055343E+003
  1.8768776E+003
  6.5779811E+003
  2.0388758E+003
  1.6318643E+004
  9.5137297E+003
  2.5615006E+004
  2.3873635E+004
  3.7401915E+004
  3.9965929E+004
  5.0791086E+004
  5.8264799E+004
  6.5778292E+004
  7.8268287E+004
  8.1998942E+004
  1.0032580E+005
  9.9946936E+004
  1.2337482E+005
  1.1717591E+005
  1.5259601E+005
  1.4078299E+005
  1.7387826E+005
  1.3318047E+005
  2.6689576E+005
  1.4347302E+005
  1.3609105E+005
  1.3209637E+005
  1.3344921E+005
  1.3920208E+005
  1.4305984E+005
  1.3674263E+005
  2.2967009E+005
  1.3896269E+005
  4.4365736E+004
  1.9227411E+005
 -1.3353351E+004
  1.0016383E+004
  1.0176870E+004
  1.6184169E+004
  2.3017430E+004
  3.1316783E+004
  4.0801281E+004
  5.1375035E+004
  6.2842338E+004
  7.4480781E+004
  8.6376797E+004
  9.2630074E+004
  1.0062908E+005
  1.0351686E+005
  1.1066908E+005
  1.1783034E+005
  1.2193981E+005
  1.2311639E+005
  1.2495596E+005
  1.3355981E+005
  1.2861977E+005
  1.2471630E+005
  7.8743978E+004
  1.0996441E+005
  9.1212770E+004
 -5.5141173E+003
  5.2436915E+003
 -2.5400753E+003
  3.4826797E+003
  7.5100368E+003
  1.3005209E+004
  1.7272189E+004
  2.2465375E+004
  2.8354291E+004
  3.4925844E+004
  4.1878792E+004
  4.8945577E+004
  5.5025565E+004
  6.0851076E+004
  6.5707925E+004
  7.4001347E+004
  8.3213600E+004
  9.2457981E+004
  9.9579809E+004
  1.0478448E+005
  1.1059706E+005
  1.1624487E+005
  1.2257252E+005
  1.2369542E+005
  1.3186988E+005
  5.3448035E+004
 -1.9731353E+004
  4.4314798E+004
  3.0444290E+003
  2.6107890E+003
  7.3953941E+003
  7.4050989E+003
  9.4592058E+003
  1.1679198E+004
  1.4456006E+004
  1.7530827E+004
  2.0825821E+004
  2.4154118E+004
  2.7667534E+004
  3.1569009E+004
  3.7232609E+004
  4.4601942E+004
  5.3997746E+004
  6.3852202E+004
  7.3016723E+004
  8.1465890E+004
  9.0215068E+004
  9.9944572E+004
  1.1276151E+005
  1.2691279E+005
  1.6559660E+005
  1.9619044E+005
  4.3615718E+005
  1.8522846E+004
  5.5647464E+003
  3.1250720E+003
  4.9115660E+002
  1.9220560E+001
 -2.0339248E+002
 -2.1720771E+002
 -2.2096656E+002
 -1.4759367E+002
  2.0778647E+002
  1.1986663E+003
  3.4899511E+003
  7.6180560E+003
  1.4140828E+004
  2.2595254E+004
  3.2236030E+004
  4.2243812E+004
  5.2353321E+004
  6.2946584E+004
  7.4829140E+004
  8.9560269E+004
  1.0835182E+005
  1.3596728E+005
  1.4364249E+005
  1.7296898E+005
  1.6313379E+005
  2.3575612E+005
  3.4774354E+005
 -5.6706785E+004
  8.4638302E+003
 -7.3970009E+003
 -3.0391037E+003
 -4.9501734E+003
 -6.0728154E+003
 -8.1482690E+003
 -1.0247808E+004
 -1.2397011E+004
 -1.4955937E+004
 -1.7858489E+004
 -2.0834957E+004
 -2.3452569E+004
 -2.5139580E+004
 -2.5263660E+004
 -2.3192557E+004
 -1.8666678E+004
 -1.1786515E+004
 -3.1441773E+003
  6.5513279E+003
  1.6782878E+004
  2.7429817E+004
  3.8749809E+004
  5.1056920E+004
  6.4127662E+004
  7.3914861E+004
  7.9155008E+004
  9.6660109E+004
  1.1450014E+005
  1.2898469E+005
  1.2320518E+005
  1.7325029E+005
  2.3532969E+005
 -3.3271135E+004
  2.5693601E+003
 -4.7761740E+003
 -1.0728462E+004
 -1.4458053E+004
 -1.6956291E+004
 -1.9965206E+004
 -2.3981105E+004
 -2.9101876E+004
 -3.5009469E+004
 -4.1172273E+004
 -4.7000546E+004
 -5.1864095E+004
 -5.5086720E+004
 -5.6050543E+004
 -5.4318089E+004
 -4.9867951E+004
 -4.3114595E+004
 -3.4832225E+004
 -2.5849089E+004
 -1.6742248E+004
 -7.9133959E+003
  3.9258320E+002
  7.0610581E+003
  1.1268971E+004
  1.5628229E+004
  2.3499502E+004
  3.2753220E+004
  5.3941064E+004
  6.5109620E+004
  7.1031860E+004
  6.4112860E+004
  1.1830538E+005
  1.2300176E+005
 -1.6505834E+004
  5.1155680E+002
 -5.6286286E+003
 -2.8628654E+003
 -1.0284992E+004
 -1.5498292E+004
 -1.9964875E+004
 -2.3387255E+004
 -2.7673560E+004
 -3.3992269E+004
 -4.2171364E+004
 -5.1407662E+004
 -6.0976773E+004
 -7.0300130E+004
 -7.8813120E+004
 -8.5889840E+004
 -9.0831908E+004
 -9.3011869E+004
 -9.2087463E+004
 -8.8329090E+004
 -8.2611158E+004
 -7.6107197E+004
 -6.9864564E+004
 -6.4091639E+004
 -5.9482263E+004
 -5.5936157E+004
 -5.3192524E+004
 -4.9669174E+004
 -4.3534821E+004
 -3.2937798E+004
 -2.0637496E+004
 -9.0696034E+003
  6.0331935E+003
  1.4091475E+004
  1.5398729E+004
  1.3269670E+004
  5.8213439E+004
  2.6956237E+004
 -2.9739709E+003
  4.3914589E+003
 -3.4684404E+003
 -5.7483056E+003
 -1.4338953E+004
 -2.0723836E+004
 -2.5487564E+004
 -3.1983054E+004
 -4.2104313E+004
 -5.4194452E+004
 -6.7007829E+004
 -7.9999212E+004
 -9.2857750E+004
 -1.0529013E+005
 -1.1684938E+005
 -1.2684569E+005
 -1.3433665E+005
 -1.3852560E+005
 -1.3923114E+005
 -1.3753216E+005
 -1.3511220E+005
 -1.3260105E+005
 -1.3093404E+005
 -1.2818164E+005
 -1.2559942E+005
 -1.2206447E+005
 -1.1680136E+005
 -1.0851577E+005
 -9.6868909E+004
 -8.2742119E+004
 -6.7848217E+004
 -5.4296306E+004
 -4.3065371E+004
 -3.1464295E+004
 -2.4197105E+004
 -2.0902798E+004
 -1.6997341E+004
  8.6202202E+003
 -1.0231459E+004
 -3.8628647E+003
  2.0298179E+004
  2.0587842E+003
 -6.3950962E+003
 -1.5168947E+004
 -2.0209686E+004
 -3.3472292E+004
 -4.9699175E+004
 -6.6028817E+004
 -8.2058762E+004
 -9.7900735E+004
 -1.1381324E+005
 -1.2995419E+005
 -1.4626676E+005
 -1.6228355E+005
 -1.7694662E+005
 -1.8849116E+005
 -1.9609141E+005
 -2.0057813E+005
 -2.0441008E+005
 -2.0984416E+005
 -2.1093439E+005
 -2.1085905E+005
 -2.0466531E+005
 -1.9692016E+005
 -1.8673782E+005
 -1.7277152E+005
 -1.5576471E+005
 -1.3707952E+005
 -1.1865102E+005
 -1.0162403E+005
 -8.6505513E+004
 -7.3518456E+004
 -6.1865330E+004
 -5.0583789E+004
 -4.1885476E+004
 -3.2590424E+004
 -2.9064759E+004
 -1.0214245E+004
  2.1700561E+004
  6.0532484E+004
  1.0876114E+004
 -1.2474112E+004
 -3.8368707E+004
 -6.0113515E+004
 -7.9246926E+004
 -9.6888270E+004
 -1.1417346E+005
 -1.3193299E+005
 -1.5083419E+005
 -1.7135739E+005
 -1.9371598E+005
 -2.1731292E+005
 -2.4015076E+005
 -2.5807622E+005
 -2.7243567E+005
 -2.8886968E+005
 -3.0188688E+005
 -3.1786279E+005
 -3.0895374E+005
 -2.9854457E+005
 -2.8058056E+005
 -2.5964375E+005
 -2.3574586E+005
 -2.0857860E+005
 -1.8240280E+005
 -1.5879488E+005
 -1.3836052E+005
 -1.2082306E+005
 -1.0524146E+005
 -9.1129549E+004
 -7.8271820E+004
 -6.5274959E+004
 -5.3248513E+004
 -3.4242770E+004
 -3.4115422E+004
 -2.0210079E+004
  1.3217100E+004
 -1.5951694E+004
 -2.1103051E+004
 -5.7270418E+004
 -7.6608780E+004
 -9.5043441E+004
 -1.1139387E+005
 -1.2801766E+005
 -1.4573449E+005
 -1.6556396E+005
 -1.8851338E+005
 -2.1566202E+005
 -2.4824393E+005
 -2.8601634E+005
 -3.2455555E+005
 -3.5381388E+005
 -3.8895212E+005
 -4.4573441E+005
 -4.5022130E+005
 -4.5725639E+005
 -4.0976938E+005
 -3.7132437E+005
 -3.3697108E+005
 -2.9151076E+005
 -2.5120085E+005
 -2.1596841E+005
 -1.8650514E+005
 -1.6315634E+005
 -1.4418121E+005
 -1.2783023E+005
 -1.1293374E+005
 -9.8937068E+004
 -8.5655809E+004
 -7.1111991E+004
 -5.7424326E+004
 -2.3275903E+004
 -1.2299004E+003
 -2.1119957E+004
  2.8660890E+004
 -3.4021464E+004
 -7.5233062E+004
 -8.6885862E+004
 -1.0044918E+005
 -1.1219414E+005
 -1.2471292E+005
 -1.3830822E+005
 -1.5381450E+005
 -1.7206140E+005
 -1.9421386E+005
 -2.2205151E+005
 -2.5823323E+005
 -3.0735472E+005
 -3.7687157E+005
 -4.4522947E+005
 -5.4294235E+005
 -5.7024072E+005
 -7.1640953E+005
 -5.8696283E+005
 -5.6590662E+005
 -4.8364390E+005
 -3.9847751E+005
 -3.2868183E+005
 -2.7764782E+005
 -2.3341916E+005
 -1.9856341E+005
 -1.7438683E+005
 -1.5576027E+005
 -1.3934923E+005
 -1.2496467E+005
 -1.1197017E+005
 -1.0040521E+005
 -8.8138097E+004
 -8.1460481E+004
 -6.2104245E+004
 -9.3842457E+004
 -2.6821274E+005
 -1.4233687E+005
 -1.3610858E+005
 -1.2292124E+005
 -1.2442381E+005
 -1.2809594E+005
 -1.3495628E+005
 -1.4395676E+005
 -1.5533390E+005
 -1.6937085E+005
 -1.8701776E+005
 -2.0883820E+005
 -2.3984103E+005
 -2.7495483E+005
 -3.6131716E+005
 -4.2264155E+005
 -9.3152263E+005
 -1.0603843E+006
 -7.1827248E+005
 -1.0605214E+006
 -9.3350340E+005
 -4.3519838E+005
 -4.2906464E+005
 -3.3117934E+005
 -2.8925273E+005
 -2.2692617E+005
 -1.9333741E+005
 -1.7258959E+005
 -1.5306351E+005
 -1.3730870E+005
 -1.2496693E+005
 -1.1465283E+005
 -1.0577789E+005
 -9.9377947E+004
 -9.1280918E+004
 -8.4477031E+004
 -2.8547036E+004
  2.7457388E+003
 -4.1616725E+004
 -2.4959329E+004
  3.5207330E+003
  9.4361958E+003
  6.1806412E+004
  1.2019893E+004
  9.5707420E+004
  2.6274527E+004
  1.9963841E+004
  5.2545550E+004
  1.1019673E+003
  3.2908882E+004
 -2.7246189E+005
 -1.8817879E+005
 -4.4067589E+004
 -1.8205804E+005
 -2.8309347E+005
 -1.8674942E+005
 -1.7782966E+005
 -1.6383932E+005
 -1.4844973E+005
 -1.4138197E+005
 -1.3905319E+005
 -1.4036185E+005
 -1.4429559E+005
 -1.5041866E+005
 -1.5846112E+005
 -1.6842913E+005
 -1.7974992E+005
 -1.9353280E+005
 -2.0147585E+005
 -2.1724704E+005
 -9.9428654E+004
  6.2375704E+004
  1.6405844E+005
 -3.2029234E+005
 -5.4146286E+005
 -2.7532049E+005
 -2.4549129E+005
 -2.0843153E+005
 -1.7887421E+005
 -1.5412378E+005
 -1.2966386E+005
 -1.1801229E+005
 -1.1041605E+005
 -1.0391215E+005
 -9.9588773E+004
 -9.8118826E+004
 -9.6835069E+004
 -1.0495416E+005
 -1.1568268E+005
 -1.8423556E+005
 -6.9760117E+003
 -2.2548489E+004
 -2.8017771E+004
 -2.0505184E+004
 -1.6578987E+004
 -1.4760100E+004
 -1.3117568E+004
 -1.9971702E+004
  4.8235071E+004
 -1.7438514E+004
  1.4582929E+004
 -3.6289155E+004
  1.9294390E+004
  6.9204922E+004
 -3.7163307E+005
 -2.0887643E+005
 -1.4192099E+005
 -2.2602358E+005
 -2.0205739E+005
 -1.9646656E+005
 -1.7864426E+005
 -1.7260462E+005
 -1.6688704E+005
 -1.5712407E+005
 -1.4846000E+005
 -1.4291803E+005
 -1.4011915E+005
 -1.3945842E+005
 -1.4025987E+005
 -1.4186065E+005
 -1.4324135E+005
 -1.4337880E+005
 -1.3790317E+005
 -1.2696613E+005
 -7.7461232E+004
 -4.7652957E+004
 -6.2005855E+003
  2.0236670E+005
  7.5564257E+004
 -2.8484359E+005
 -3.1910451E+005
 -1.1241984E+005
 -1.0536236E+005
 -7.5926428E+004
 -8.1967546E+004
 -7.7792129E+004
 -7.7524794E+004
 -7.9456754E+004
 -8.3734235E+004
 -9.0935218E+004
 -9.7464481E+004
 -9.6573660E+004
 -7.2803593E+004
 -1.0223593E+005
 -1.0468528E+005
 -5.5570111E+004
 -6.2536962E+004
 -5.0793663E+004
 -5.1290725E+004
 -5.1690678E+004
 -5.4804860E+004
 -5.8545486E+004
 -6.7714860E+004
 -7.8829970E+004
 -8.6899931E+004
 -6.6121481E+004
 -1.0671412E+005
 -5.6661404E+004
 -1.1352868E+005
 -6.0653551E+003
 -2.1917936E+005
  5.6244202E+004
  1.3266175E+005
 -6.0238478E+005
 -2.9761651E+005
 -1.8166486E+005
 -2.9306356E+005
 -2.5160827E+005
 -2.3064767E+005
 -2.0614452E+005
 -1.9025894E+005
 -1.7812124E+005
 -1.6892678E+005
 -1.6190574E+005
 -1.5459784E+005
 -1.4680496E+005
 -1.3999746E+005
 -1.3461626E+005
 -1.3038818E+005
 -1.2671086E+005
 -1.2270487E+005
 -1.1718072E+005
 -1.0818439E+005
 -9.3461652E+004
 -6.7969434E+004
 -3.4853919E+004
 -1.4082619E+004
  1.6052681E+004
  1.6704368E+005
  9.6779463E+004
 -4.6025703E+004
  5.2063247E+003
 -1.6727540E+004
 -2.2834135E+004
 -3.5052043E+004
 -4.4890741E+004
 -5.7953864E+004
 -7.0549313E+004
 -8.2305493E+004
 -9.0168900E+004
 -1.0808103E+005
 -4.4423200E+004
  5.0159203E+004
 -1.0743298E+005
  1.8499848E+004
 -7.1246233E+004
 -7.0317109E+004
 -6.9951425E+004
 -7.9777132E+004
 -8.0293028E+004
 -8.4695869E+004
 -8.9293302E+004
 -9.5485344E+004
 -1.0188611E+005
 -1.1023776E+005
 -1.2297026E+005
 -1.4149001E+005
 -1.6718381E+005
 -1.9858463E+005
 -2.1428347E+005
 -3.1049663E+005
 -2.4990775E+005
 -2.6931369E+005
 -2.5969337E+005
 -2.9192205E+005
 -2.7401577E+005
 -3.0537506E+005
 -2.8660524E+005
 -3.2245682E+005
 -2.9917727E+005
 -3.3816373E+005
 -3.1129751E+005
 -3.5366990E+005
 -3.2334156E+005
 -3.6912702E+005
 -3.3550278E+005
 -3.8500597E+005
 -3.4791915E+005
 -4.0139593E+005
 -3.6073166E+005
 -4.1785236E+005
 -3.7365343E+005
 -4.3499186E+005
 -3.8885358E+005
 -4.5048645E+005
 -4.0146716E+005
 -4.7916035E+005
 -4.3299874E+005
 -4.8848985E+005
 -3.8731953E+005
 -6.9425605E+005
 -3.8042705E+005
 -3.3414873E+005
 -2.8619895E+005
 -2.4497625E+005
 -2.2147619E+005
 -2.0024796E+005
 -1.8376023E+005
 -1.7103223E+005
 -1.6147023E+005
 -1.5375516E+005
 -1.4647316E+005
 -1.3915171E+005
 -1.3193010E+005
 -1.2507905E+005
 -1.1847405E+005
 -1.1163401E+005
 -1.0379832E+005
 -9.3872892E+004
 -8.0670119E+004
 -6.2404312E+004
 -4.0264046E+004
 -1.4502659E+004
  3.0061409E+003
  2.8013516E+004
  2.0369107E+005
  1.3090384E+005
  7.9248922E+004
  4.3226137E+004
  2.5430914E+004
 -2.0595103E+003
 -2.2963385E+004
 -4.1850684E+004
 -6.2542054E+004
 -8.3620974E+004
 -1.3607701E+005
 -1.8815148E+005
 -4.8194270E+005
 -9.8570801E+004
 -1.0065137E+005
 -1.0098397E+005
 -1.0347968E+005
 -1.0917718E+005
 -1.1424536E+005
 -1.1997472E+005
 -1.2533789E+005
 -1.3116693E+005
 -1.3825865E+005
 -1.4776554E+005
 -1.6081883E+005
 -1.7308715E+005
 -1.8569793E+005
 -2.0350423E+005
 -2.1705378E+005
 -2.3316253E+005
 -2.4436805E+005
 -2.5486316E+005
 -2.6419732E+005
 -2.7289787E+005
 -2.8127039E+005
 -2.8980311E+005
 -2.9856118E+005
 -3.0739720E+005
 -3.1617562E+005
 -3.2338532E+005
 -3.2989520E+005
 -3.2042520E+005
 -3.1202878E+005
 -2.8741100E+005
 -2.6737379E+005
 -2.4842063E+005
 -2.2351925E+005
 -2.0192172E+005
 -1.8472978E+005
 -1.7032239E+005
 -1.5889065E+005
 -1.4976365E+005
 -1.4205879E+005
 -1.3493033E+005
 -1.2779324E+005
 -1.2048437E+005
 -1.1295689E+005
 -1.0507512E+005
 -9.6499387E+004
 -8.6701548E+004
 -7.5068476E+004
 -6.1012196E+004
 -4.4648414E+004
 -2.7062888E+004
 -1.1504772E+004
 -3.0273010E+003
  1.4769428E+003
  1.0477119E+004
  1.6091054E+004
  2.0415401E+005
  2.6497049E+005
  1.4525796E+005
  7.6512849E+004
  4.2117546E+004
  1.7316858E+004
 -6.8935423E+003
 -3.0204760E+004
 -5.7234555E+004
 -9.2950579E+004
 -1.1280185E+005
 -1.4078537E+005
 -1.3485140E+005
 -3.9544458E+005
 -1.6472289E+005
 -1.5019191E+005
 -1.0055841E+005
 -1.1547035E+005
 -7.4045497E+004
 -7.1979978E+004
 -4.9332070E+004
 -4.7765385E+004
 -3.2833868E+004
 -2.8495318E+004
 -2.0462402E+004
 -1.5140072E+004
 -1.1866295E+004
 -6.1050124E+003
 -5.9768357E+003
 -8.3525403E+002
 -2.0403285E+003
  4.8147338E+002
  1.4552778E+003
 -1.1914449E+002
 -1.3082532E+005
 -1.2746111E+005
 -1.2894200E+005
 -1.3223235E+005
 -1.3728655E+005
 -1.4391257E+005
 -1.4876372E+005
 -1.5245412E+005
 -1.5554852E+005
 -1.5908713E+005
 -1.6378344E+005
 -1.6890509E+005
 -1.7432776E+005
 -1.8040089E+005
 -1.8705126E+005
 -1.9701951E+005
 -2.0645321E+005
 -2.1561851E+005
 -2.2313230E+005
 -2.2921885E+005
 -2.3406064E+005
 -2.3852231E+005
 -2.4287685E+005
 -2.4761804E+005
 -2.5225973E+005
 -2.5589173E+005
 -2.5772188E+005
 -2.5442986E+005
 -2.4714090E+005
 -2.3303768E+005
 -2.2278833E+005
 -2.1232545E+005
 -2.0102904E+005
 -1.8830498E+005
 -1.7464168E+005
 -1.6210644E+005
 -1.5131633E+005
 -1.4212222E+005
 -1.3432564E+005
 -1.2742138E+005
 -1.2083195E+005
 -1.1413054E+005
 -1.0705882E+005
 -9.9477710E+004
 -9.1244312E+004
 -8.2153864E+004
 -7.1956714E+004
 -6.0450046E+004
 -4.7708866E+004
 -3.4333389E+004
 -2.1796072E+004
 -1.2354223E+004
 -6.7975245E+003
 -3.5871889E+003
 -2.5327813E+003
 -4.8806513E+003
  1.3501956E+004
  1.9784389E+004
  9.0558743E+004
  1.0885769E+005
  8.8707856E+004
  5.7562597E+004
  3.2899031E+004
  1.1671884E+004
 -8.3377398E+003
 -2.3621658E+004
 -3.1684600E+004
 -4.4974970E+004
 -6.5808550E+004
 -6.9653983E+004
 -6.9852741E+004
 -5.2328217E+004
 -3.8777818E+004
 -2.6841667E+004
 -1.7810881E+004
 -1.1072994E+004
 -6.2501597E+003
 -3.1166357E+003
 -1.1169528E+003
 -2.2830753E+002
  3.1496493E+003
  4.8633823E+002
  1.1842999E+003
  1.0282147E+003
  4.2534306E+002
 -1.5453020E+005
 -1.5922160E+005
 -1.5975063E+005
 -1.6051734E+005
 -1.7081057E+005
 -1.7568896E+005
 -1.7768434E+005
 -1.7733986E+005
 -1.7610846E+005
 -1.7486221E+005
 -1.7387435E+005
 -1.7316143E+005
 -1.7258076E+005
 -1.7266355E+005
 -1.7446324E+005
 -1.7765999E+005
 -1.8260781E+005
 -1.8805460E+005
 -1.9284751E+005
 -1.9589361E+005
 -1.9701538E+005
 -1.9660180E+005
 -1.9706060E+005
 -1.9730176E+005
 -1.9740011E+005
 -1.9684716E+005
 -1.9402452E+005
 -1.8895690E+005
 -1.8113894E+005
 -1.7377082E+005
 -1.6638566E+005
 -1.6072293E+005
 -1.5552345E+005
 -1.4939004E+005
 -1.4244317E+005
 -1.3520793E+005
 -1.2830086E+005
 -1.2197300E+005
 -1.1614974E+005
 -1.1059937E+005
 -1.0500981E+005
 -9.9090263E+004
 -9.2638091E+004
 -8.5521865E+004
 -7.7648438E+004
 -6.8942274E+004
 -5.9372152E+004
 -4.9037457E+004
 -3.8294760E+004
 -2.7884555E+004
 -1.8949682E+004
 -1.2389775E+004
 -8.5337783E+003
 -4.9043010E+003
 -6.1344051E+002
  1.0729812E+004
  2.6273328E+005
  3.1348938E+005
  1.7700249E+005
  1.2521872E+005
  9.3189128E+004
  7.4637089E+004
  5.7684424E+004
  4.3976705E+004
  3.3982335E+004
  2.6058044E+004
  1.4997820E+004
  4.7351337E+002
 -1.7058334E+004
 -2.3828853E+004
 -2.4549375E+004
 -1.9985038E+004
 -1.4938498E+004
 -1.0227105E+004
 -6.5099275E+003
 -3.8793149E+003
 -2.2536035E+003
 -1.3639640E+003
 -7.3958327E+002
 -4.5261552E+002
 -2.2091106E+002
 -2.1601439E+002
  7.4631067E+002
 -2.0105747E+005
 -1.4259203E+005
 -1.8447593E+005
 -2.0680598E+005
 -2.1283214E+005
 -2.1210639E+005
 -2.0716836E+005
 -2.0018571E+005
 -1.9310971E+005
 -1.8642749E+005
 -1.8014947E+005
 -1.7413811E+005
 -1.6852505E+005
 -1.6369734E+005
 -1.6010498E+005
 -1.5833225E+005
 -1.5832501E+005
 -1.6025705E+005
 -1.6338977E+005
 -1.6393897E+005
 -1.6114664E+005
 -1.5846188E+005
 -1.5235965E+005
 -1.4763400E+005
 -1.4203897E+005
 -1.3596739E+005
 -1.3089087E+005
 -1.2526326E+005
 -1.2065443E+005
 -1.1649724E+005
 -1.1412017E+005
 -1.1255219E+005
 -1.1163800E+005
 -1.1064373E+005
 -1.0885839E+005
 -1.0629772E+005
 -1.0324123E+005
 -9.9899078E+004
 -9.6339220E+004
 -9.2498207E+004
 -8.8239959E+004
 -8.3418820E+004
 -7.7918670E+004
 -7.1670435E+004
 -6.4652029E+004
 -5.6895113E+004
 -4.8512579E+004
 -3.9749334E+004
 -3.1039276E+004
 -2.3019826E+004
 -1.6389516E+004
 -1.1650480E+004
 -8.6233358E+003
 -6.5647949E+003
 -5.9524634E+003
 -3.4675166E+003
 -5.4140836E+003
  4.6610933E+003
  2.8922737E+004
  1.1420660E+005
  1.4854952E+005
  1.3113862E+005
  1.1715993E+005
  1.0358732E+005
  8.9758911E+004
  7.8746924E+004
  6.8564120E+004
  5.6129021E+004
  4.0388393E+004
  2.5011957E+004
  1.1875810E+004
  4.2564795E+003
  6.9168015E+002
 -1.5625349E+002
  2.7202802E+001
  3.9222103E+002
  4.5230457E+002
  1.2954954E+002
 -3.2016891E+002
 -6.6824605E+002
 -5.9046370E+002
 -3.9177624E+002
  2.1453790E+002
  1.1957095E+005
 -2.2600685E+005
 -3.3181824E+005
 -2.6616232E+005
 -2.6820640E+005
 -2.5157732E+005
 -2.3507095E+005
 -2.1929442E+005
 -2.0591848E+005
 -1.9400703E+005
 -1.8291509E+005
 -1.7230775E+005
 -1.6221884E+005
 -1.5289355E+005
 -1.4468405E+005
 -1.3782570E+005
 -1.3273400E+005
 -1.2964329E+005
 -1.3074069E+005
 -1.3424125E+005
 -1.3426742E+005
 -1.2135940E+005
 -1.1682553E+005
 -1.0107450E+005
 -8.4016786E+004
 -7.5543020E+004
 -6.4529648E+004
 -6.0280374E+004
 -5.7289194E+004
 -6.1237721E+004
 -6.3439624E+004
 -6.5904673E+004
 -6.9878145E+004
 -7.3517301E+004
 -7.5988920E+004
 -7.7396623E+004
 -7.7784922E+004
 -7.7281114E+004
 -7.6005790E+004
 -7.3999267E+004
 -7.1252513E+004
 -6.7735147E+004
 -6.3419484E+004
 -5.8305225E+004
 -5.2438138E+004
 -4.5925291E+004
 -3.8954372E+004
 -3.1814699E+004
 -2.4905869E+004
 -1.8698270E+004
 -1.3638900E+004
 -9.9668883E+003
 -7.7145621E+003
 -6.7789752E+003
 -5.7722306E+003
 -2.9358853E+003
 -5.4433985E+002
  3.0438261E+005
  2.4947877E+005
  1.8868967E+005
  1.7753368E+005
  1.6711486E+005
  1.4323361E+005
  1.2641915E+005
  1.1333017E+005
  1.0080722E+005
  8.7050820E+004
  7.1366966E+004
  5.4691197E+004
  3.9758546E+004
  2.7854131E+004
  1.9557357E+004
  1.4121657E+004
  1.0561601E+004
  7.8825789E+003
  5.4432082E+003
  3.0782524E+003
  1.0060577E+003
 -2.2848255E+002
 -6.1715196E+002
 -4.5766708E+002
  1.9401641E+002
 -3.9919995E+005
 -3.6116889E+005
 -3.5247229E+005
 -3.2596700E+005
 -2.8658047E+005
 -2.5526147E+005
 -2.3154945E+005
 -2.1316911E+005
 -1.9714215E+005
 -1.8205914E+005
 -1.6759668E+005
 -1.5376747E+005
 -1.4063834E+005
 -1.2830314E+005
 -1.1676093E+005
 -1.0628808E+005
 -9.6038978E+004
 -9.0030917E+004
 -7.8896023E+004
 -1.1037202E+005
 -1.3898365E+005
 -7.3486546E+004
 -5.0553382E+004
 -2.4984496E+004
  1.2662500E+004
  3.3141439E+004
  1.1112681E+004
 -1.2794433E+003
 -3.6577443E+003
 -1.1400189E+004
 -2.1316944E+004
 -3.1943642E+004
 -3.9036536E+004
 -4.5244374E+004
 -5.0041900E+004
 -5.3297746E+004
 -5.5292468E+004
 -5.6130239E+004
 -5.5896086E+004
 -5.4687413E+004
 -5.2556558E+004
 -4.9540137E+004
 -4.5692501E+004
 -4.1108615E+004
 -3.5941259E+004
 -3.0407251E+004
 -2.4786453E+004
 -1.9405449E+004
 -1.4597169E+004
 -1.0619089E+004
 -7.6066144E+003
 -5.4838102E+003
 -4.2039478E+003
 -4.2689213E+003
 -2.6586027E+003
 -5.0161620E+003
  2.9305742E+005
  4.0850895E+005
  2.6235636E+005
  1.9809139E+005
  1.6866897E+005
  1.5357218E+005
  1.3827413E+005
  1.2460366E+005
  1.0985835E+005
  9.3444401E+004
  7.6234634E+004
  5.9719480E+004
  4.5458277E+004
  3.4122322E+004
  2.5660106E+004
  1.9388063E+004
  1.4344427E+004
  9.7756408E+003
  5.4707045E+003
  2.1090427E+003
 -1.7489472E+002
 -5.7012300E+002
 -4.8295632E+002
  1.6181516E+002
 -4.6274929E+005
 -5.2148035E+005
 -4.4787486E+005
 -3.6037738E+005
 -3.0029531E+005
 -2.5989559E+005
 -2.3401554E+005
 -2.1403742E+005
 -1.9527587E+005
 -1.7714566E+005
 -1.5983303E+005
 -1.4328976E+005
 -1.2736581E+005
 -1.1189189E+005
 -9.6701436E+004
 -8.1315229E+004
 -6.5641217E+004
 -4.6110045E+004
 -2.3607197E+004
  2.2397921E+004
  9.6800183E+003
  2.8642854E+004
  9.6295194E+004
  8.6842914E+004
  2.6255351E+004
  1.5921650E+004
  1.7225914E+003
 -8.1156139E+003
 -1.8454857E+004
 -2.5198957E+004
 -3.0789850E+004
 -3.4911618E+004
 -3.7491678E+004
 -3.8836182E+004
 -3.9076672E+004
 -3.8303807E+004
 -3.6597883E+004
 -3.4034557E+004
 -3.0739158E+004
 -2.6892587E+004
 -2.2716781E+004
 -1.8461032E+004
 -1.4381808E+004
 -1.0700524E+004
 -7.5738927E+003
 -4.9689270E+003
 -2.8776933E+003
 -3.0005269E+002
  1.8488705E+003
  1.0210094E+004
  4.1100794E+003
  2.6883027E+004
  1.2195352E+005
  1.9326361E+005
  1.8599385E+005
  1.6936014E+005
  1.5467709E+005
  1.4139187E+005
  1.2611240E+005
  1.0880372E+005
  9.0433610E+004
  7.2614368E+004
  5.6628469E+004
  4.3296732E+004
  3.2848617E+004
  2.4841592E+004
  1.8359652E+004
  1.2263384E+004
  6.6217894E+003
  1.5845094E+003
  2.3098175E+002
 -6.3628573E+002
  1.7677507E+002
  7.2733876E+001
 -1.2541970E+006
 -7.2174859E+005
 -3.8109207E+005
 -3.4517178E+005
 -2.7776679E+005
 -2.4812152E+005
 -2.2818718E+005
 -2.0867026E+005
 -1.8744480E+005
 -1.6746618E+005
 -1.4877244E+005
 -1.3094637E+005
 -1.1361907E+005
 -9.6452204E+004
 -7.9205135E+004
 -6.1363650E+004
 -4.3276365E+004
 -2.1937484E+004
 -1.1607648E+004
  6.7712257E+003
 -1.3252999E+004
  4.1436293E+004
  6.7802720E+004
  2.3111150E+004
  1.5917061E+004
  4.5714849E+003
 -3.3044387E+003
 -1.1514690E+004
 -1.6616506E+004
 -2.0655838E+004
 -2.3343085E+004
 -2.4815021E+004
 -2.5315900E+004
 -2.4854179E+004
 -2.3492199E+004
 -2.1396799E+004
 -1.8768542E+004
 -1.5824463E+004
 -1.2779187E+004
 -9.8312081E+003
 -7.1294938E+003
 -4.7812960E+003
 -2.6783808E+003
 -1.0336254E+003
  1.5337168E+003
  7.5402204E+001
  2.7551325E+003
  2.7909018E+005
  3.6254158E+005
  2.2109082E+005
  1.9355495E+005
  1.7358043E+005
  1.6556746E+005
  1.5285246E+005
  1.3683519E+005
  1.1774212E+005
  9.7885637E+004
  7.8727746E+004
  6.1411357E+004
  4.6601456E+004
  3.4578481E+004
  2.5492390E+004
  1.7783210E+004
  1.0248333E+004
  2.9859822E+003
  1.2949815E+003
  9.0399389E+002
  3.8800349E+003
  8.6567139E+002
  2.9707476E+002
  2.5147474E+004
 -2.1169751E+005
 -2.3131583E+005
 -2.4717035E+005
 -2.3127092E+005
 -2.2040708E+005
 -1.9392557E+005
 -1.7172032E+005
 -1.5228058E+005
 -1.3429939E+005
 -1.1700840E+005
 -9.9907207E+004
 -8.2703621E+004
 -6.5244032E+004
 -4.7502397E+004
 -3.0099073E+004
 -1.4121117E+004
 -6.5976312E+003
  8.2468154E+003
 -1.0858299E+004
  3.0075855E+004
  5.0795182E+004
  1.8573850E+004
  1.3498252E+004
  5.3396416E+003
 -6.9768442E+002
 -6.3030330E+003
 -9.5719192E+003
 -1.2210768E+004
 -1.3914938E+004
 -1.4510804E+004
 -1.4184412E+004
 -1.3132015E+004
 -1.1577617E+004
 -9.7231978E+003
 -7.7459840E+003
 -5.7978142E+003
 -3.9965870E+003
 -2.4027809E+003
 -1.0659541E+003
  1.0838579E+002
  5.8288047E+002
  3.9840952E+002
  1.0019764E+003
  2.7823915E+004
  1.2987704E+005
  1.8371280E+005
  1.7933627E+005
  1.7448294E+005
  1.6145794E+005
  1.4154273E+005
  1.1985410E+005
  9.8486614E+004
  7.8316670E+004
  6.0050313E+004
  4.4297376E+004
  3.0874851E+004
  1.9444949E+004
  1.2206431E+004
  3.4913195E+003
 -5.8955990E+003
 -9.1781023E+003
  3.8983158E+003
 -4.7752407E+003
 -1.9759464E+005
 -4.1335661E+005
 -2.0979842E+005
 -1.9520972E+005
 -1.6105902E+005
 -1.4720411E+005
 -1.3140963E+005
 -1.1693967E+005
 -1.0198058E+005
 -8.6714470E+004
 -7.0974033E+004
 -5.4893672E+004
 -3.8740845E+004
 -2.3800830E+004
 -1.0700134E+004
 -5.2479080E+003
  5.9891153E+003
 -8.3871213E+003
  2.2890819E+004
  4.0675708E+004
  1.5081677E+004
  1.2474621E+004
  6.1617661E+003
  2.2538978E+003
 -1.8544557E+003
 -4.2949083E+003
 -5.7076748E+003
 -6.1505210E+003
 -5.9624715E+003
 -5.3319364E+003
 -4.4245847E+003
 -3.3867292E+003
 -2.3248620E+003
 -1.3329089E+003
 -4.9691992E+002
  1.4757315E+002
  4.5440153E+002
  5.4616954E+002
  4.7899589E+001
  7.2604264E+002
  3.1357256E+005
  2.5523774E+005
  2.0021709E+005
  1.9741331E+005
  1.8899220E+005
  1.6292447E+005
  1.3709463E+005
  1.1371411E+005
  9.1951411E+004
  7.1855815E+004
  5.3389021E+004
  3.6908456E+004
  2.3722210E+004
  9.6678476E+003
 -7.3575610E+003
 -3.9898557E+004
 -1.8849118E+004
  1.0714100E+004
 -5.2746068E+004
 -1.1969660E+005
 -1.1568913E+005
 -1.1507983E+005
 -1.0732704E+005
 -9.7929911E+004
 -8.6781333E+004
 -7.4521617E+004
 -6.1369446E+004
 -4.7682919E+004
 -3.3885639E+004
 -2.1110644E+004
 -9.7947498E+003
 -4.8144014E+003
  5.1718746E+003
 -7.2356940E+003
  2.1851998E+004
  3.4670183E+004
  1.3688156E+004
  1.0753548E+004
  6.1039593E+003
  3.3275960E+003
  1.7366555E+003
  6.5690362E+002
  9.9376535E+001
 -2.4324416E+001
  4.2011117E+001
  2.6157170E+002
  5.6526862E+002
  8.5914342E+002
  1.0522776E+003
  1.0566363E+003
  8.3342787E+002
  4.9427396E+002
  6.8702162E+001
  3.4649289E+002
  3.1753760E+005
  4.0253384E+005
  2.3318248E+005
  1.8304213E+005
  1.4309244E+005
  1.1960631E+005
  9.7701524E+004
  7.8561849E+004
  6.0431821E+004
  4.3210925E+004
  2.6332007E+004
  1.2207396E+004
  3.7566948E+003
  5.0419016E+003
  1.7643855E+004
  1.3932355E+004
 -2.6845718E+004
 -4.6340713E+004
 -7.7560260E+004
 -8.3231289E+004
 -8.3635616E+004
 -7.9321554E+004
 -7.2510816E+004
 -6.3837771E+004
 -5.3897200E+004
 -4.3139120E+004
 -3.2049717E+004
 -2.1158376E+004
 -1.0876111E+004
 -5.0468428E+003
  3.8668624E+003
  3.4322982E+003
  1.5614774E+004
  1.2959693E+004
  1.2106301E+004
  1.0253553E+004
  8.1282897E+003
  6.0971174E+003
  5.1941959E+003
  4.3011114E+003
  3.5998801E+003
  3.1498828E+003
  2.8535786E+003
  2.6036863E+003
  2.3048025E+003
  1.8767366E+003
  1.2416980E+003
  5.3911905E+002
  1.2072351E+002
  1.4873772E+002
  1.5163082E+004
  4.5629826E+004
  1.1974769E+005
  9.7528026E+004
  8.7418034E+004
  7.2883531E+004
  5.9636821E+004
  4.6062889E+004
  3.1873689E+004
  1.7569622E+004
 -1.7482992E+003
 -1.4322433E+004
 -5.7651369E+004
 -2.5426142E+004
 -1.2564159E+004
 -4.3998710E+004
 -3.6523141E+004
 -5.0565410E+004
 -5.8855518E+004
 -6.3044966E+004
 -6.3041033E+004
 -6.0147343E+004
 -5.5092758E+004
 -4.8495563E+004
 -4.0902317E+004
 -3.2562984E+004
 -2.4396234E+004
 -1.4063551E+004
 -7.7644961E+003
  2.8203913E+003
  1.2827487E+003
  1.5491686E+004
  2.9407009E+004
  1.3424552E+004
  1.3555587E+004
  1.0709888E+004
  9.2564177E+003
  7.3448754E+003
  6.1374382E+003
  5.2412203E+003
  4.5363519E+003
  3.9033328E+003
  3.2805422E+003
  2.6152507E+003
  1.8852536E+003
  7.8516195E+002
  1.5431719E+002
 -1.1655325E+003
  3.1139210E+003
  2.0211904E+004
  3.0857270E+004
  4.6814098E+004
  4.6159951E+004
  4.3468386E+004
  3.7825077E+004
  3.0845435E+004
  2.2214888E+004
  1.3559172E+004
 -6.1742876E+002
  1.8486747E+003
 -1.0622116E+004
 -6.3097611E+003
 -1.3818148E+004
 -3.3414794E+004
 -4.0316548E+004
 -4.7167263E+004
 -4.9986796E+004
 -5.0338108E+004
 -4.8484187E+004
 -4.5047471E+004
 -4.0408997E+004
 -3.5168363E+004
 -2.8837903E+004
 -2.4302636E+004
 -1.0053608E+004
 -4.1698912E+003
 -4.8982215E+003
  1.5915325E+004
  2.6168054E+004
  1.2144919E+004
  1.1239751E+004
  8.7838066E+003
  7.6276667E+003
  6.5725460E+003
  5.6441709E+003
  4.7463142E+003
  3.9373167E+003
  3.1106104E+003
  2.5274768E+003
  1.9485093E+003
  3.3781296E+003
  1.6301159E+003
 -1.2999973E+004
 -8.4784073E+003
 -2.0269137E+004
 -3.2550205E+003
  7.8079936E+003
  1.3980924E+004
  1.6431781E+004
  1.6311272E+004
  1.4923233E+004
  1.2201491E+004
  1.3672097E+004
  1.1029044E+004
  1.6417946E+004
  1.9488382E+003
 -9.2295162E+003
 -1.7349233E+004
 -2.8596685E+004
 -3.5473164E+004
 -4.0534059E+004
 -4.3196713E+004
 -4.3997315E+004
 -4.3245119E+004
 -4.1267084E+004
 -3.8468374E+004
 -3.4591562E+004
 -3.1619352E+004
 -2.5748817E+004
 -3.8886494E+004
  1.2690558E+003
  9.4109358E+003
  9.1401633E+003
  9.2898852E+003
  8.3097031E+003
  7.4816288E+003
  6.1161390E+003
  5.1675614E+003
  4.2506598E+003
  3.1923220E+003
  2.4240812E+003
  9.3077648E+002
  5.4292535E+002
 -9.6157391E+004
 -7.5959670E+004
 -6.0291549E+004
 -3.9109708E+004
 -2.3291875E+004
 -1.0757495E+004
 -2.3240011E+003
  3.5608414E+003
  7.8727357E+003
  1.2299069E+004
  1.6971652E+004
  2.1970674E+004
  8.6070343E+003
  5.7856948E+003
  1.2997786E+004
  1.4168717E+003
 -5.1498803E+003
 -1.1849250E+004
 -2.0562873E+004
 -2.8178222E+004
 -3.4171943E+004
 -3.8565014E+004
 -4.1365891E+004
 -4.2771793E+004
 -4.2947497E+004
 -4.2056070E+004
 -3.9661755E+004
 -3.5921070E+004
 -2.1341542E+004
 -1.0815967E+004
  1.3145480E+004
 -1.9046481E+004
  9.0158239E+002
  7.5209796E+003
  1.3696105E+004
  7.9901716E+003
  7.2512047E+003
  6.4443881E+003
  5.3642477E+003
  4.0822377E+003
  2.8885501E+003
  1.6942242E+003
  7.8499185E+002
 -5.7502635E+001
 -2.7471679E+004
 -2.0848483E+005
 -1.0438773E+005
 -9.9304401E+004
 -7.9735563E+004
 -6.1658022E+004
 -4.3653315E+004
 -2.8967023E+004
 -1.6994645E+004
 -7.3669880E+003
  8.4168783E+002
  8.5661021E+003
  1.5429120E+004
  2.2509930E+004
  2.8273772E+004
  4.5780413E+004
  7.7092732E+002
 -4.2276873E+003
 -9.5048293E+003
 -1.6631667E+004
 -2.3762260E+004
 -3.0431147E+004
 -3.5936930E+004
 -4.0215476E+004
 -4.3262439E+004
 -4.5150944E+004
 -4.5728452E+004
 -4.5144196E+004
 -4.0961237E+004
 -3.9433000E+004
 -1.5716537E+004
 -1.1364440E+004
 -1.8359783E+003
  2.2221333E+003
  1.0417148E+004
  8.3893464E+003
  4.0287969E+003
  3.2856586E+003
  2.1472247E+003
  1.2734930E+003
  7.2273270E+002
  2.9428517E+002
  5.7899385E+004
 -2.6293157E+005
 -1.2717869E+005
 -1.2130072E+005
 -1.3119646E+005
 -1.1003161E+005
 -1.0137203E+005
 -8.5606703E+004
 -7.0766995E+004
 -5.4908474E+004
 -4.0319943E+004
 -2.7438599E+004
 -1.6245632E+004
 -6.4135682E+003
  2.2419317E+003
  9.7225807E+003
  1.5384716E+004
  1.6711397E+004
  1.7921643E+004
  2.5237865E+004
  2.7177117E+004
 -1.4030070E+003
 -2.5954828E+003
 -7.3734099E+003
 -1.4132423E+004
 -2.1410425E+004
 -2.8478977E+004
 -3.4743692E+004
 -4.0065242E+004
 -4.4354627E+004
 -4.7576005E+004
 -4.9482176E+004
 -5.0341452E+004
 -4.8739916E+004
 -5.1897327E+004
 -4.5696369E+004
 -8.7338904E+004
 -1.9406686E+003
  3.6764952E+002
  2.1632760E+003
  1.5443555E+003
  4.5779558E+002
  7.3854108E+001
  1.7555890E+004
 -9.8210241E+004
 -6.3382877E+004
 -1.2235259E+004
 -7.2356210E+004
 -5.4913259E+004
 -7.8054079E+004
 -7.3432669E+004
 -8.8242086E+004
 -8.8067069E+004
 -9.7817980E+004
 -9.9693789E+004
 -1.0801782E+005
 -1.1145115E+005
 -1.2006061E+005
 -1.2342165E+005
 -1.3239980E+005
 -1.4301586E+005
 -1.5534335E+005
 -1.5763099E+005
 -1.4579552E+005
 -2.6326327E+005
 -1.4807581E+005
 -1.3513517E+005
 -1.1534194E+005
 -1.0040061E+005
 -9.2962291E+004
 -8.3516535E+004
 -7.1777649E+004
 -5.9038941E+004
 -4.6184765E+004
 -3.4054106E+004
 -2.3008868E+004
 -1.3199374E+004
 -4.7671134E+003
  1.9139033E+003
  6.1008749E+003
  8.2765686E+003
  1.0005815E+004
  1.0053767E+004
  1.5155527E+004
  2.7275349E+004
  5.1520923E+002
 -5.7861491E+003
 -1.2495289E+004
 -2.0359504E+004
 -2.7566583E+004
 -3.4320817E+004
 -4.0396191E+004
 -4.5660338E+004
 -4.9936209E+004
 -5.3079025E+004
 -5.4600600E+004
 -5.4849777E+004
 -5.0410375E+004
 -4.0689418E+004
 -1.2634977E+004
  1.8702536E+004
 -3.7880961E+004
  1.2463627E+004
 -9.6889318E+004
 -6.9674057E+004
 -1.4475270E+004
 -7.1686208E+004
 -9.5377128E+004
 -7.6501223E+004
 -7.9318243E+004
 -8.1191202E+004
 -8.3775375E+004
 -8.8801872E+004
 -9.5211630E+004
 -1.0246365E+005
 -1.0987220E+005
 -1.1782340E+005
 -1.1913925E+005
 -1.1990659E+005
 -1.1290943E+005
 -1.0507619E+005
 -9.9179072E+004
 -9.0893826E+004
 -8.4003128E+004
 -7.7153454E+004
 -6.8626591E+004
 -5.8689049E+004
 -4.8115494E+004
 -3.7600614E+004
 -2.7688896E+004
 -1.8764086E+004
 -1.1169111E+004
 -5.2717027E+003
 -1.2122503E+003
  1.3119058E+003
  3.0226747E+003
  5.3670164E+003
  2.5586547E+003
 -4.8502160E+003
  1.6872965E+004
  2.4049513E+002
 -5.4936391E+003
 -1.2188412E+004
 -1.9708572E+004
 -2.6825921E+004
 -3.3977081E+004
 -4.0678018E+004
 -4.6751646E+004
 -5.2022311E+004
 -5.6217286E+004
 -5.8864502E+004
 -5.9212184E+004
 -5.4848579E+004
 -5.0665597E+004
 -4.6584635E+004
 -8.3644408E+004
  2.7123177E+004
 -1.3678589E+005
 -7.6107842E+004
 -4.9563910E+004
 -8.3398244E+004
 -7.8324512E+004
 -8.0020800E+004
 -7.8138497E+004
 -8.0178309E+004
 -8.3018510E+004
 -8.4967910E+004
 -8.7580463E+004
 -9.1055344E+004
 -9.4899170E+004
 -9.8498087E+004
 -1.0010473E+005
 -9.9606408E+004
 -9.5318119E+004
 -9.1522910E+004
 -8.7672921E+004
 -8.3505900E+004
 -7.9458703E+004
 -7.4925370E+004
 -6.9755494E+004
 -6.3446873E+004
 -5.5888824E+004
 -4.7502646E+004
 -3.8852833E+004
 -3.0463835E+004
 -2.2778464E+004
 -1.6159901E+004
 -1.0829442E+004
 -6.8257348E+003
 -3.6211303E+003
 -9.6849306E+002
  3.5987411E+003
  7.4806681E+003
  2.3381132E+004
 -7.4973661E+003
 -5.5074149E+003
 -1.1989668E+004
 -1.7568616E+004
 -2.5449963E+004
 -3.3094026E+004
 -4.0354052E+004
 -4.7216022E+004
 -5.3477432E+004
 -5.8931814E+004
 -6.3122113E+004
 -6.5535259E+004
 -6.4669433E+004
 -6.1918808E+004
 -3.3550113E+004
 -2.0027471E+004
  3.5420906E+004
 -4.0068967E+004
  1.9573100E+004
 -1.3195597E+005
 -8.9344191E+004
 -1.7799963E+004
 -8.7935068E+004
 -1.2503637E+005
 -8.9511080E+004
 -8.9403690E+004
 -8.5105890E+004
 -8.1600102E+004
 -8.0179814E+004
 -7.9788560E+004
 -8.0301659E+004
 -8.1586034E+004
 -8.2957869E+004
 -8.4204860E+004
 -8.5576568E+004
 -8.6848825E+004
 -8.7391019E+004
 -8.6699040E+004
 -8.4255670E+004
 -8.1066844E+004
 -7.7363961E+004
 -7.4198950E+004
 -7.1632962E+004
 -6.8991869E+004
 -6.6007793E+004
 -6.2283794E+004
 -5.7579987E+004
 -5.1864434E+004
 -4.5362726E+004
 -3.8474321E+004
 -3.1634840E+004
 -2.5237965E+004
 -1.9584665E+004
 -1.4837714E+004
 -1.0930564E+004
 -7.6297869E+003
 -4.3483202E+003
 -1.2108326E+003
  6.3078484E+002
 -7.6562385E+002
 -6.9805893E+003
  1.1072797E+004
  7.1496255E+003
  1.4245991E+004
 -2.9206083E+003
 -1.3713707E+004
 -2.3140221E+004
 -3.0964784E+004
 -3.8976874E+004
 -4.6611600E+004
 -5.3877352E+004
 -6.0711092E+004
 -6.7079849E+004
 -7.2519658E+004
 -7.7986667E+004
 -7.7247919E+004
 -8.7914169E+004
 -3.1272971E+004
 -3.0460581E+004
  2.4554843E+004
 -1.4749633E+005
 -9.4416664E+004
 -1.7730761E+004
 -9.2066804E+004
 -1.2682121E+005
 -9.5372693E+004
 -9.3642948E+004
 -9.0982813E+004
 -8.5422502E+004
 -8.3209136E+004
 -8.2914311E+004
 -8.1001028E+004
 -7.9660112E+004
 -7.8906231E+004
 -7.8756704E+004
 -7.9013268E+004
 -7.9306603E+004
 -7.9471853E+004
 -7.9402019E+004
 -7.8948585E+004
 -7.7854003E+004
 -7.5860268E+004
 -7.3087022E+004
 -6.9798740E+004
 -6.6743843E+004
 -6.4168433E+004
 -6.2029862E+004
 -6.0083103E+004
 -5.7899442E+004
 -5.5158818E+004
 -5.1647921E+004
 -4.7331483E+004
 -4.2351222E+004
 -3.6977822E+004
 -3.1537466E+004
 -2.6339230E+004
 -2.1618602E+004
 -1.7490477E+004
 -1.3920949E+004
 -1.0751754E+004
 -7.7541369E+003
 -5.2489215E+003
 -1.5882649E+003
  3.0183474E+003
  1.5176630E+004
 -1.1434228E+004
 -6.1665721E+003
 -1.1182238E+004
 -1.8309559E+004
 -2.7429207E+004
 -3.6246902E+004
 -4.4509097E+004
 -5.2676232E+004
 -6.0806032E+004
 -6.9166451E+004
 -7.7904139E+004
 -8.8140018E+004
 -9.9423004E+004
 -1.2306354E+005
 -1.4898162E+005
 -2.2711541E+005
  2.0617222E+004
 -1.0756152E+005
 -6.7510600E+004
 -1.2562816E+004
 -7.7629390E+004
 -5.7376606E+004
 -8.3858236E+004
 -8.1457544E+004
 -1.0039013E+005
 -9.7303100E+004
 -9.6618982E+004
 -1.6166246E+005
 -1.0482926E+005
 -9.9460184E+004
 -9.5924257E+004
 -8.9487226E+004
 -8.7416803E+004
 -8.5113459E+004
 -8.2284987E+004
 -8.0363432E+004
 -7.9207242E+004
 -7.8323313E+004
 -7.7249572E+004
 -7.6415227E+004
 -7.5822342E+004
 -7.5350214E+004
 -7.4834464E+004
 -7.4106331E+004
 -7.3061343E+004
 -7.1595434E+004
 -6.9609481E+004
 -6.7091702E+004
 -6.4162214E+004
 -6.1159520E+004
 -5.8375077E+004
 -5.6048897E+004
 -5.4165646E+004
 -5.2490052E+004
 -5.0730957E+004
 -4.8606699E+004
 -4.5935608E+004
 -4.2664055E+004
 -3.8869804E+004
 -3.4731372E+004
 -3.0478403E+004
 -2.6338108E+004
 -2.2486908E+004
 -1.9015383E+004
 -1.5913975E+004
 -1.3096191E+004
 -1.0488111E+004
 -7.8999310E+003
 -5.3186859E+003
 -4.7318764E+003
 -2.3746638E+003
 -7.3862636E+003
  6.9704790E+003
  1.4474180E+004
  2.9416045E+004
  1.9002593E+003
 -1.1322280E+004
 -2.3105352E+004
 -3.1682736E+004
 -4.0658740E+004
 -4.9408827E+004
 -5.8400417E+004
 -6.8020502E+004
 -7.8826957E+004
 -9.1244720E+004
 -1.0702294E+005
 -1.2350814E+005
 -1.3067183E+005
 -1.4253603E+005
 -1.5351813E+005
 -1.3959574E+005
  1.9675101E+004
 -1.0470958E+005
 -6.7834265E+004
 -1.4149460E+004
 -8.0562221E+004
 -5.7900516E+004
 -7.5665163E+004
 -1.1339380E+005
 -8.3725743E+004
 -8.3811882E+004
 -8.4581534E+004
 -8.6390706E+004
 -8.7130755E+004
 -8.9960180E+004
 -8.8895101E+004
 -8.9314460E+004
 -8.7744340E+004
 -8.4937596E+004
 -8.2235814E+004
 -8.0275968E+004
 -7.8353724E+004
 -7.6685373E+004
 -7.5576799E+004
 -7.4640914E+004
 -7.3752546E+004
 -7.2836006E+004
 -7.1930953E+004
 -7.0979690E+004
 -6.9876600E+004
 -6.8527554E+004
 -6.6857814E+004
 -6.4823663E+004
 -6.2419548E+004
 -5.9702325E+004
 -5.6824298E+004
 -5.3992934E+004
 -5.1437920E+004
 -4.9276462E+004
 -4.7489423E+004
 -4.5933983E+004
 -4.4391071E+004
 -4.2648913E+004
 -4.0554034E+004
 -3.8044149E+004
 -3.5151913E+004
 -3.1987210E+004
 -2.8704363E+004
 -2.5463594E+004
 -2.2394711E+004
 -1.9570031E+004
 -1.6990136E+004
 -1.4600141E+004
 -1.2270411E+004
 -9.9482918E+003
 -7.5874871E+003
 -5.2489753E+003
 -2.0170070E+003
 -7.7940416E+002
 -1.5884465E+004
 -5.8335377E+003
 -8.4408131E+003
 -1.5821811E+004
 -2.5609136E+004
 -3.4994205E+004
 -4.3814152E+004
 -5.3069583E+004
 -6.3097322E+004
 -7.4227093E+004
 -8.6878306E+004
 -1.0026663E+005
 -1.1383100E+005
 -1.2810931E+005
 -1.6532512E+005
 -1.9053154E+005
 -4.0099388E+005
 -8.4383622E+004
  2.8632755E+004
 -1.4623756E+005
 -8.9278153E+004
 -1.2744404E+004
 -8.6146905E+004
 -1.0203102E+005
 -8.5559590E+004
 -8.5601917E+004
 -8.2379798E+004
 -8.1239498E+004
 -8.0236963E+004
 -8.1954111E+004
 -8.3655122E+004
 -8.3138969E+004
 -8.2508086E+004
 -8.1107538E+004
 -8.1242520E+004
 -8.1001350E+004
 -8.0469765E+004
 -7.8977309E+004
 -7.7135207E+004
 -7.5395355E+004
 -7.3870839E+004
 -7.2575848E+004
 -7.1476419E+004
 -7.0529281E+004
 -6.9582483E+004
 -6.8573221E+004
 -6.7452054E+004
 -6.6175925E+004
 -6.4689227E+004
 -6.2941114E+004
 -6.0905487E+004
 -5.8585942E+004
 -5.6021415E+004
 -5.3293651E+004
 -5.0527184E+004
 -4.7876535E+004
 -4.5477385E+004
 -4.3411307E+004
 -4.1669278E+004
 -4.0155111E+004
 -3.8722109E+004
 -3.7214926E+004
 -3.5511561E+004
 -3.3548530E+004
 -3.1328843E+004
 -2.8913218E+004
 -2.6399709E+004
 -2.3897592E+004
 -2.1501591E+004
 -1.9269324E+004
 -1.7207905E+004
 -1.5250661E+004
 -1.3289345E+004
 -1.1074184E+004
 -8.5730839E+003
 -4.4504599E+003
 -2.2615777E+003
  7.7545362E+002
  2.2541661E+004
  4.6095818E+004
  8.3104966E+003
 -6.2840721E+003
 -1.9209613E+004
 -2.7216506E+004
 -3.6005816E+004
 -4.4943303E+004
 -5.4643958E+004
 -6.5246200E+004
 -7.6615508E+004
 -8.8441802E+004
 -1.0155016E+005
 -1.1805424E+005
 -1.4475867E+005
 -1.7330271E+005
 -2.0762884E+005
 -1.9659577E+005
 -4.1738740E+005
 -2.2343035E+005
 -1.9330878E+005
 -1.7591477E+005
 -1.7738415E+005
 -1.5833230E+005
 -1.4845441E+005
 -1.4374402E+005
 -1.3779376E+005
 -1.3550485E+005
 -1.3386985E+005
 -1.3526322E+005
 -1.2963112E+005
 -1.1952288E+005
 -1.7679053E+005
 -1.1801964E+005
 -1.0554237E+005
 -9.6942560E+004
 -8.8890175E+004
 -8.5608115E+004
 -8.3873517E+004
 -8.0814281E+004
 -7.9783911E+004
 -7.9706829E+004
 -7.9748137E+004
 -7.9119474E+004
 -7.7632305E+004
 -7.6402482E+004
 -7.5335581E+004
 -7.4767920E+004
 -7.4086685E+004
 -7.3101503E+004
 -7.1834717E+004
 -7.0494772E+004
 -6.9224973E+004
 -6.8072181E+004
 -6.7037991E+004
 -6.6050893E+004
 -6.5038006E+004
 -6.3920371E+004
 -6.2643008E+004
 -6.1159682E+004
 -5.9435557E+004
 -5.7454761E+004
 -5.5229056E+004
 -5.2797538E+004
 -5.0221571E+004
 -4.7580612E+004
 -4.4965213E+004
 -4.2474408E+004
 -4.0198167E+004
 -3.8192667E+004
 -3.6461294E+004
 -3.4952184E+004
 -3.3571198E+004
 -3.2209868E+004
 -3.0773009E+004
 -2.9200112E+004
 -2.7474887E+004
 -2.5623200E+004
 -2.3701766E+004
 -2.1781747E+004
 -1.9931279E+004
 -1.8199863E+004
 -1.6602332E+004
 -1.5092598E+004
 -1.3541011E+004
 -1.1662761E+004
 -9.2515997E+003
 -5.8499611E+003
 -2.3793246E+003
  4.0991592E+003
 -2.0147091E+004
 -4.8714621E+003
 -3.7103028E+003
 -9.6107131E+003
 -1.8033736E+004
 -2.6273935E+004
 -3.4501558E+004
 -4.3650483E+004
 -5.3395463E+004
 -6.3479157E+004
 -7.3887549E+004
 -8.5143024E+004
 -9.8399739E+004
 -1.1306847E+005
 -1.2410222E+005
 -1.3720307E+005
 -1.5725218E+005
 -1.5816043E+005
 -1.5876555E+005
 -1.4598751E+005
 -1.3645355E+005
 -1.2861185E+005
 -1.1972780E+005
 -1.1377577E+005
 -1.0544281E+005
 -1.0029364E+005
 -9.4825210E+004
 -8.9279661E+004
 -8.5151874E+004
 -8.2113260E+004
 -7.9872476E+004
 -7.7980770E+004
 -7.6872769E+004
 -7.5969292E+004
 -7.4742546E+004
 -7.3246742E+004
 -7.1672912E+004
 -7.0447818E+004
 -6.9471445E+004
 -6.8620879E+004
 -6.7690354E+004
 -6.6640134E+004
 -6.5525922E+004
 -6.4419805E+004
 -6.3362482E+004
 -6.2344416E+004
 -6.1328386E+004
 -6.0252020E+004
 -5.9053591E+004
 -5.7675613E+004
 -5.6073390E+004
 -5.4220400E+004
 -5.2121846E+004
 -4.9817496E+004
 -4.7378080E+004
 -4.4879577E+004
 -4.2379713E+004
 -3.9934887E+004
 -3.7592264E+004
 -3.5409158E+004
 -3.3434268E+004
 -3.1693022E+004
 -3.0169513E+004
 -2.8811686E+004
 -2.7545124E+004
 -2.6294733E+004
 -2.5002497E+004
 -2.3638460E+004
 -2.2202988E+004
 -2.0721831E+004
 -1.9236426E+004
 -1.7793219E+004
 -1.6434012E+004
 -1.5191044E+004
 -1.4070018E+004
 -1.2975678E+004
 -1.1683681E+004
 -9.7215375E+003
 -7.5257476E+003
 -6.0707998E+003
 -2.8015448E+003
 -6.3096737E+003
 -4.8920598E+002
  3.0642238E+004
  6.3010216E+004
  1.5912794E+004
  2.0818706E+003
 -8.8418139E+003
 -1.4490002E+004
 -2.2615614E+004
 -3.1412545E+004
 -4.0398784E+004
 -4.9286061E+004
 -5.8057653E+004
 -6.6882901E+004
 -7.5749061E+004
 -8.3778688E+004
 -9.2090788E+004
 -1.0236712E+005
 -1.1240652E+005
 -1.2454471E+005
 -1.2783467E+005
 -1.2677987E+005
 -1.2168350E+005
 -1.1553067E+005
 -1.0923724E+005
 -1.0247649E+005
 -9.7776935E+004
 -9.3452738E+004
 -8.9672957E+004
 -8.5857254E+004
 -8.2313806E+004
 -7.9424782E+004
 -7.6978365E+004
 -7.5046112E+004
 -7.3437011E+004
 -7.1982657E+004
 -7.0476195E+004
 -6.8854527E+004
 -6.7280572E+004
 -6.5863491E+004
 -6.4676802E+004
 -6.3632422E+004
 -6.2633875E+004
 -6.1618022E+004
 -6.0579650E+004
 -5.9539565E+004
 -5.8511206E+004
 -5.7487790E+004
 -5.6437547E+004
 -5.5315343E+004
 -5.4068723E+004
 -5.2646320E+004
 -5.1001222E+004
 -4.9106372E+004
 -4.6967939E+004
 -4.4655711E+004
 -4.2267221E+004
 -3.9889855E+004
 -3.7580667E+004
 -3.5312590E+004
 -3.3099235E+004
 -3.0971811E+004
 -2.8998886E+004
 -2.7230392E+004
 -2.5687340E+004
 -2.4345513E+004
 -2.3152563E+004
 -2.2044134E+004
 -2.0961728E+004
 -1.9863792E+004
 -1.8730861E+004
 -1.7564570E+004
 -1.6382140E+004
 -1.5207942E+004
 -1.4069999E+004
 -1.2998046E+004
 -1.2059542E+004
 -1.1327408E+004
 -1.0607076E+004
 -9.4303129E+003
 -6.7984292E+003
 -2.8278073E+003
  3.3674365E+003
  5.2976259E+002
 -2.7855827E+004
 -3.2283863E+003
  5.3257880E+003
  4.6366871E+003
 -1.5676189E+003
 -1.0835758E+004
 -1.9475444E+004
 -2.7790665E+004
 -3.5503435E+004
 -4.2714279E+004
 -4.9473791E+004
 -5.5761626E+004
 -6.1917517E+004
 -6.8574186E+004
 -7.6827204E+004
 -8.7051279E+004
 -9.5830833E+004
 -1.0258569E+005
 -1.0498973E+005
 -1.0419571E+005
 -1.0117397E+005
 -9.7049963E+004
 -9.2997390E+004
 -8.9161792E+004
 -8.6064926E+004
 -8.3222920E+004
 -8.0456096E+004
 -7.7787032E+004
 -7.5304636E+004
 -7.3117550E+004
 -7.1170536E+004
 -6.9431284E+004
 -6.7787111E+004
 -6.6146128E+004
 -6.4496851E+004
 -6.2890351E+004
 -6.1414696E+004
 -6.0094572E+004
 -5.8909648E+004
 -5.7804326E+004
 -5.6733398E+004
 -5.5674685E+004
 -5.4622911E+004
 -5.3575159E+004
 -5.2518789E+004
 -5.1429207E+004
 -5.0271255E+004
 -4.9005102E+004
 -4.7588037E+004
 -4.5976298E+004
 -4.4119808E+004
 -4.2020280E+004
 -3.9731697E+004
 -3.7427834E+004
 -3.5242969E+004
 -3.3108787E+004
 -3.1023498E+004
 -2.8887719E+004
 -2.6771410E+004
 -2.4758772E+004
 -2.2960743E+004
 -2.1411914E+004
 -2.0104937E+004
 -1.8991968E+004
 -1.8011244E+004
 -1.7099816E+004
 -1.6205070E+004
 -1.5291278E+004
 -1.4341451E+004
 -1.3353315E+004
 -1.2331633E+004
 -1.1272691E+004
 -1.0178823E+004
 -9.0411940E+003
 -8.1238181E+003
 -7.7693095E+003
 -7.0908500E+003
 -4.2722128E+003
 -1.1140280E+003
 -5.2042950E+003
  3.5128698E+004
  8.7232331E+004
  3.0158423E+004
  2.2635104E+004
  7.6308515E+003
 -1.0560294E+003
 -9.5973832E+003
 -1.6800440E+004
 -2.3295500E+004
 -2.9130482E+004
 -3.4468320E+004
 -3.9527859E+004
 -4.4699050E+004
 -5.0670572E+004
 -5.7934306E+004
 -6.6127009E+004
 -7.4531307E+004
 -8.1179194E+004
 -8.5423889E+004
 -8.6998912E+004
 -8.6514356E+004
 -8.4767834E+004
 -8.2446650E+004
 -8.0187404E+004
 -7.8067683E+004
 -7.6090829E+004
 -7.4132621E+004
 -7.2163815E+004
 -7.0236670E+004
 -6.8385791E+004
 -6.6639875E+004
 -6.4969788E+004
 -6.3337288E+004
 -6.1709098E+004
 -6.0083846E+004
 -5.8498464E+004
 -5.6994587E+004
 -5.5600152E+004
 -5.4309384E+004
 -5.3097599E+004
 -5.1936083E+004
 -5.0804094E+004
 -4.9689272E+004
 -4.8581547E+004
 -4.7467097E+004
 -4.6325100E+004
 -4.5129799E+004
 -4.3853604E+004
 -4.2472479E+004
 -4.0956475E+004
 -3.9263980E+004
 -3.7277382E+004
 -3.5110104E+004
 -3.2919823E+004
 -3.0832283E+004
 -2.9047583E+004
 -2.7020723E+004
 -2.4864666E+004
 -2.2629711E+004
 -2.0578602E+004
 -1.8775298E+004
 -1.7279571E+004
 -1.6057550E+004
 -1.5058827E+004
 -1.4216867E+004
 -1.3463153E+004
 -1.2734607E+004
 -1.1982009E+004
 -1.1174919E+004
 -1.0300287E+004
 -9.3496489E+003
 -8.3043358E+003
 -7.0697797E+003
 -5.5653394E+003
 -3.4321029E+003
 -1.6885969E+003
 -1.8604864E+003
  1.4425116E+001
  2.9286551E+003
  1.2623544E+004
  1.7895567E+004
  6.9373019E+003
  2.3258169E+004
  1.0089587E+004
  4.1122563E+003
 -2.6895165E+003
 -8.1999443E+003
 -1.3262562E+004
 -1.7863446E+004
 -2.2202383E+004
 -2.6500523E+004
 -3.1135438E+004
 -3.6513300E+004
 -4.2882288E+004
 -5.0076287E+004
 -5.7276237E+004
 -6.3675764E+004
 -6.8447191E+004
 -7.1361949E+004
 -7.2588415E+004
 -7.2583622E+004
 -7.1876299E+004
 -7.0835112E+004
 -6.9703345E+004
 -6.8518452E+004
 -6.7265802E+004
 -6.5932934E+004
 -6.4533128E+004
 -6.3097734E+004
 -6.1641850E+004
 -6.0169945E+004
 -5.8672871E+004
 -5.7146246E+004
 -5.5601498E+004
 -5.4064708E+004
 -5.2567788E+004
 -5.1131891E+004
 -4.9762861E+004
 -4.8452516E+004
 -4.7187173E+004
 -4.5954010E+004
 -4.4742987E+004
 -4.3544682E+004
 -4.2346592E+004
 -4.1131590E+004
 -3.9879047E+004
 -3.8573396E+004
 -3.7207498E+004
 -3.5802677E+004
 -3.4358526E+004
 -3.2838857E+004
 -3.0779178E+004
 -2.8888206E+004
 -2.7413338E+004
 -2.5270170E+004
 -2.3193970E+004
 -2.0624193E+004
 -1.8338179E+004
 -1.6252288E+004
 -1.4598185E+004
 -1.3271026E+004
 -1.2224329E+004
 -1.1394311E+004
 -1.0719052E+004
 -1.0127220E+004
 -9.5463010E+003
 -8.9154497E+003
 -8.1961142E+003
 -7.3737822E+003
 -6.4513180E+003
 -5.4132919E+003
 -4.2116488E+003
 -2.4435286E+003
  1.1187046E+002
  6.1055453E+003
  1.2751360E+004
  3.5827099E+004
  1.4975810E+004
  4.6140071E+003
  4.9765473E+003
  7.4596896E+003
  8.2453048E+003
  4.6554848E+003
  1.5048128E+003
 -1.9598243E+003
 -5.4155371E+003
 -8.8997608E+003
 -1.2429161E+004
 -1.6160168E+004
 -2.0327209E+004
 -2.5175167E+004
 -3.0799167E+004
 -3.7008273E+004
 -4.3361440E+004
 -4.9209793E+004
 -5.4046223E+004
 -5.7582101E+004
 -5.9836278E+004
 -6.1036013E+004
 -6.1489467E+004
 -6.1487635E+004
 -6.1210341E+004
 -6.0751021E+004
 -6.0136558E+004
 -5.9375608E+004
 -5.8480788E+004
 -5.7467891E+004
 -5.6353130E+004
 -5.5145668E+004
 -5.3852477E+004
 -5.2483202E+004
 -5.1055177E+004
 -4.9593389E+004
 -4.8124229E+004
 -4.6669175E+004
 -4.5240055E+004
 -4.3840010E+004
 -4.2466991E+004
 -4.1117547E+004
 -3.9788321E+004
 -3.8474713E+004
 -3.7168103E+004
 -3.5852672E+004
 -3.4508618E+004
 -3.3116042E+004
 -3.1686068E+004
 -3.0253322E+004
 -2.8975948E+004
 -2.8052393E+004
 -2.7343332E+004
 -2.6607248E+004
 -2.3939750E+004
 -2.3195067E+004
 -1.8863073E+004
 -1.5743699E+004
 -1.3232534E+004
 -1.1669991E+004
 -1.0439131E+004
 -9.4687794E+003
 -8.6985467E+003
 -8.0962356E+003
 -7.6173996E+003
 -7.1974670E+003
 -6.7549247E+003
 -6.2162354E+003
 -5.5387718E+003
 -4.7137823E+003
 -3.7758502E+003
 -2.7510826E+003
 -1.7823306E+003
 -5.1354649E+002
  5.4626266E+002
  6.2245248E+003
  8.9843464E+002
  5.3683619E+003
  1.6238482E+003
 -1.2569434E+003
  1.1816978E+003
  2.6039421E+003
  4.2317126E+003
  4.0105769E+003
  2.7161495E+003
  6.2083288E+002
 -1.9095704E+003
 -4.7820885E+003
 -8.0222526E+003
 -1.1748114E+004
 -1.6073652E+004
 -2.1016874E+004
 -2.6428356E+004
 -3.1976693E+004
 -3.7257508E+004
 -4.1885889E+004
 -4.5626897E+004
 -4.8421578E+004
 -5.0363610E+004
 -5.1629862E+004
 -5.2402739E+004
 -5.2828793E+004
 -5.2995735E+004
 -5.2947965E+004
 -5.2705413E+004
 -5.2279516E+004
 -5.1680806E+004
 -5.0918994E+004
 -5.0004028E+004
 -4.8946964E+004
 -4.7762899E+004
 -4.6472485E+004
 -4.5100728E+004
 -4.3673558E+004
 -4.2213450E+004
 -4.0737032E+004
 -3.9255048E+004
 -3.7774390E+004
 -3.6300308E+004
 -3.4837309E+004
 -3.3388102E+004
 -3.1948954E+004
 -3.0506558E+004
 -2.9026956E+004
 -2.7488681E+004
 -2.5826952E+004
 -2.4215733E+004
 -2.2311492E+004
 -2.1943317E+004
 -1.9448728E+004
 -3.2212341E+004
 -3.1575972E+004
 -1.7463178E+004
 -1.1253843E+004
 -7.1659109E+003
 -7.5625966E+003
 -6.9326795E+003
 -6.5065818E+003
 -6.0943338E+003
 -5.6843628E+003
 -5.3242855E+003
 -5.0508309E+003
 -4.8054200E+003
 -4.4898337E+003
 -4.0148146E+003
 -3.3335792E+003
 -2.4523091E+003
 -1.4133060E+003
 -3.5187263E+002
  6.0735491E+002
  7.9980863E+002
  3.5891306E+002
 -1.8967316E+003
  6.3898529E+001
 -1.5537576E+003
 -1.5836960E+003
 -2.7131437E+003
 -4.1184184E+003
  6.3580750E+002
  4.9639434E+003
  6.7565360E+003
  6.5797502E+003
  5.3713508E+003
  3.4748967E+003
  1.1002823E+003
 -1.7180309E+003
 -5.0146187E+003
 -8.8313746E+003
 -1.3147478E+004
 -1.7837384E+004
 -2.2674767E+004
 -2.7371499E+004
 -3.1658404E+004
 -3.5343241E+004
 -3.8346043E+004
 -4.0689668E+004
 -4.2463895E+004
 -4.3782456E+004
 -4.4745894E+004
 -4.5426268E+004
 -4.5865102E+004
 -4.6082133E+004
 -4.6085133E+004
 -4.5876994E+004
 -4.5460404E+004
 -4.4840417E+004
 -4.4026869E+004
 -4.3035745E+004
 -4.1889122E+004
 -4.0613218E+004
 -3.9235005E+004
 -3.7778950E+004
 -3.6265094E+004
 -3.4709202E+004
 -3.3124351E+004
 -3.1522724E+004
 -2.9916102E+004
 -2.8314370E+004
 -2.6722834E+004
 -2.5127454E+004
 -2.3494634E+004
 -2.1724225E+004
 -1.9801240E+004
 -1.7523077E+004
 -1.5287125E+004
 -1.1973937E+004
 -7.8405834E+003
  1.2762367E+003
  4.2809422E+003
  1.0102169E+003
 -1.3385224E+003
 -2.6271583E+003
 -3.5077561E+003
 -3.5852131E+003
 -3.4270347E+003
 -3.3047028E+003
 -3.1917456E+003
 -3.0960222E+003
 -2.8837777E+003
 -2.4288034E+003
 -1.7000840E+003
 -7.1312139E+002
  4.8301461E+002
  1.8194234E+003
  2.9838782E+003
  3.7967479E+003
  2.4819533E+003
 -3.1211678E+003
 -3.2946693E+003
 -1.6829080E+004
 -2.4783327E+004
 -4.8333079E+003
 -4.1959944E+003
  5.6859432E+003
  9.1829304E+003
  1.0193605E+004
  1.0103616E+004
  9.1005292E+003
  7.5212736E+003
  5.4804832E+003
  3.0238140E+003
  1.4037275E+002
 -3.1793084E+003
 -6.9036670E+003
 -1.0934715E+004
 -1.5108785E+004
 -1.9226248E+004
 -2.3091967E+004
 -2.6557507E+004
 -2.9543257E+004
 -3.2039073E+004
 -3.4085999E+004
 -3.5749404E+004
 -3.7095223E+004
 -3.8173867E+004
 -3.9015096E+004
 -3.9630008E+004
 -4.0016905E+004
 -4.0168041E+004
 -4.0075600E+004
 -3.9736689E+004
 -3.9156650E+004
 -3.8350398E+004
 -3.7341338E+004
 -3.6158097E+004
 -3.4830241E+004
 -3.3384552E+004
 -3.1843252E+004
 -3.0224540E+004
 -2.8544726E+004
 -2.6820329E+004
 -2.5068812E+004
 -2.3305752E+004
 -2.1540732E+004
 -1.9781766E+004
 -1.7967173E+004
 -1.6036132E+004
 -1.3671395E+004
 -1.1101691E+004
 -7.5435546E+003
 -3.7598243E+003
 -2.4353094E+003
  7.0363368E+001
 -8.1070840E+002
 -1.5926262E+003
 -2.2550592E+003
 -2.5069695E+003
 -2.3099677E+003
 -2.1945872E+003
 -2.2321194E+003
 -2.0360459E+003
 -1.5162707E+003
 -7.1361333E+002
  3.7111359E+002
  1.7398957E+003
  3.3276940E+003
  5.2783673E+003
  6.7975108E+003
  1.0158937E+004
  1.1609042E+004
  3.4322210E+004
  1.1174097E+004
  1.9640205E+004
  5.3142312E+004
  1.8962421E+004
  1.7222174E+004
  1.3941561E+004
  1.3798772E+004
  1.2894566E+004
  1.1795212E+004
  1.0311925E+004
  8.5161374E+003
  6.3879114E+003
  3.9130357E+003
  1.0838623E+003
 -2.0721143E+003
 -5.4815501E+003
 -9.0280564E+003
 -1.2569797E+004
 -1.5966900E+004
 -1.9106946E+004
 -2.1921691E+004
 -2.4389770E+004
 -2.6527244E+004
 -2.8371161E+004
 -2.9962095E+004
 -3.1331037E+004
 -3.2492381E+004
 -3.3443208E+004
 -3.4167228E+004
 -3.4641438E+004
 -3.4843853E+004
 -3.4760527E+004
 -3.4390554E+004
 -3.3747766E+004
 -3.2858511E+004
 -3.1756409E+004
 -3.0475765E+004
 -2.9046256E+004
 -2.7490873E+004
 -2.5827379E+004
 -2.4071807E+004
 -2.2242001E+004
 -2.0358607E+004
 -1.8443185E+004
 -1.6503051E+004
 -1.4529035E+004
 -1.2582614E+004
 -1.0354743E+004
 -7.8489610E+003
 -4.4023020E+003
 -8.7475567E+002
  5.7051650E+002
  3.2044380E+002
 -1.6573704E+003
 -4.5360941E+003
 -2.3088521E+003
 -2.7485253E+003
 -2.3843945E+003
 -2.3504652E+003
 -1.8483734E+003
 -1.2389874E+003
 -3.5645964E+002
  7.3957579E+002
  2.1180792E+003
  3.7911313E+003
  6.0321173E+003
  8.1766457E+003
  1.2642287E+004
  4.8335074E+003
  8.1807152E+003
  1.2407502E+004
  6.3669104E+003
  2.0485945E+004
  1.5799331E+004
  1.5809775E+004
  1.4360700E+004
  1.3216378E+004
  1.1833573E+004
  1.0291850E+004
  8.5080153E+003
  6.4564269E+003
  4.1210837E+003
  1.5204067E+003
 -1.2929986E+003
 -4.2357103E+003
 -7.2069115E+003
 -1.0106093E+004
 -1.2850674E+004
 -1.5387700E+004
 -1.7696988E+004
 -1.9785674E+004
 -2.1676770E+004
 -2.3395701E+004
 -2.4958398E+004
 -2.6363774E+004
 -2.7591763E+004
 -2.8606824E+004
 -2.9365817E+004
 -2.9828043E+004
 -2.9965471E+004
 -2.9770057E+004
 -2.9256073E+004
 -2.8456783E+004
 -2.7415511E+004
 -2.6175020E+004
 -2.4769111E+004
 -2.3219747E+004
 -2.1540531E+004
 -1.9743624E+004
 -1.7844763E+004
 -1.5865671E+004
 -1.3831306E+004
 -1.1768542E+004
 -9.6102763E+003
 -7.2481688E+003
 -5.2473309E+003
 -2.2152422E+003
  1.2756014E+003
  3.2273138E+003
  6.1953832E+002
 -5.0741942E+003
 -8.0915166E+003
 -3.2786668E+003
 -2.8163846E+003
 -2.1158730E+003
 -1.3386062E+003
 -5.0252644E+002
  4.4214611E+002
  1.5769615E+003
  2.9443440E+003
  4.6961844E+003
  6.5860413E+003
  9.3663969E+003
  4.1037910E+003
  6.1935859E+003
  3.6554107E+003
  7.5579644E+003
  1.2392634E+004
  1.6270232E+004
  1.5032311E+004
  1.4260328E+004
  1.3171370E+004
  1.2096923E+004
  1.0887640E+004
  9.5079057E+003
  7.9097149E+003
  6.0781914E+003
  4.0242046E+003
  1.7867822E+003
 -5.7301262E+002
 -2.9819815E+003
 -5.3678433E+003
 -7.6716874E+003
 -9.8567156E+003
 -1.1910905E+004
 -1.3843070E+004
 -1.5673494E+004
 -1.7421608E+004
 -1.9093946E+004
 -2.0675552E+004
 -2.2127270E+004
 -2.3389971E+004
 -2.4394640E+004
 -2.5076909E+004
 -2.5391077E+004
 -2.5321402E+004
 -2.4886472E+004
 -2.4132716E+004
 -2.3121295E+004
 -2.1909872E+004
 -2.0538223E+004
 -1.9024874E+004
 -1.7374567E+004
 -1.5590060E+004
 -1.3683791E+004
 -1.1676444E+004
 -9.5988963E+003
 -7.4734236E+003
 -5.4436975E+003
 -2.8333081E+003
  6.4913581E+002
  6.8683283E+003
  3.8747347E+003
 -1.8593693E+003
 -4.3497621E+003
 -2.8886225E+003
 -2.1722743E+003
 -1.4982454E+003
 -9.5785621E+002
 -3.4557608E+002
  3.4033778E+002
  1.0354170E+003
  1.8236339E+003
  2.1347319E+003
  3.7394700E+003
  4.9012724E+003
  2.0876018E+004
  7.7325503E+003
  4.4856955E+003
  1.4558690E+004
  1.2431578E+004
  1.3008782E+004
  1.2312880E+004
  1.1828198E+004
  1.1187768E+004
  1.0447333E+004
  9.5331087E+003
  8.4212883E+003
  7.0994192E+003
  5.5799337E+003
  3.8953032E+003
  2.0938504E+003
  2.3130140E+002
 -1.6391687E+003
 -3.4766645E+003
 -5.2595495E+003
 -6.9877278E+003
 -8.6791220E+003
 -1.0360460E+004
 -1.2053994E+004
 -1.3763215E+004
 -1.5461795E+004
 -1.7089862E+004
 -1.8559525E+004
 -1.9770115E+004
 -2.0626504E+004
 -2.1061937E+004
 -2.1053834E+004
 -2.0628494E+004
 -1.9857136E+004
 -1.8830550E+004
 -1.7631169E+004
 -1.6309147E+004
 -1.4874331E+004
 -1.3313080E+004
 -1.1617687E+004
 -9.7963020E+003
 -7.8680662E+003
 -5.8768441E+003
 -3.7922111E+003
 -1.9106397E+003
 -4.3627325E+002
 -8.1422352E+002
 -1.8143302E+003
 -1.1166819E+003
 -3.8962076E+002
 -1.7620477E+003
 -1.6093940E+003
 -1.5856917E+003
 -1.3829145E+003
 -1.2027733E+003
 -1.1410648E+003
 -1.5466450E+003
 -2.4706575E+003
 -4.7475989E+003
 -8.0137734E+003
 -5.1038486E+003
 -1.3411994E+004
  4.6111612E+003
  3.3715056E+004
  1.2237814E+004
  1.0042109E+004
  8.5272484E+003
  9.0071032E+003
  9.2407092E+003
  9.3998927E+003
  9.3787735E+003
  9.1772852E+003
  8.7732298E+003
  8.1584905E+003
  7.3364166E+003
  6.3259048E+003
  5.1599010E+003
  3.8815045E+003
  2.5372543E+003
  1.1688157E+003
 -1.9537977E+002
 -1.5465736E+003
 -2.8981780E+003
 -4.2825446E+003
 -5.7410272E+003
 -7.3077580E+003
 -8.9904998E+003
 -1.0754519E+004
 -1.2516632E+004
 -1.4154520E+004
 -1.5525349E+004
 -1.6500213E+004
 -1.6985938E+004
 -1.6951377E+004
 -1.6444585E+004
 -1.5568483E+004
 -1.4462706E+004
 -1.3251338E+004
 -1.1997496E+004
 -1.0697201E+004
 -9.3095812E+003
 -7.7948391E+003
 -6.1701722E+003
 -4.4883556E+003
 -2.7436589E+003
 -1.0718852E+003
  1.0923654E+003
  2.3872592E+003
  7.7850440E+003
  3.7507205E+003
 -4.9203379E+002
 -5.8811644E+002
 -1.2986165E+003
 -2.0443449E+003
 -2.3307184E+003
 -2.4869589E+003
 -2.6137338E+003
 -2.9320053E+003
 -3.6379396E+003
 -5.3680961E+003
 -7.9717376E+003
 -9.4264735E+003
 -4.4073951E+003
 -3.9678894E+003
 -4.0203278E+003
  4.5682531E+003
  7.2566578E+002
  6.5100936E+003
 -8.3117367E+002
 -2.3431162E+003
  7.2288077E+002
  2.9624242E+003
  4.2754246E+003
  5.5120212E+003
  6.3956915E+003
  7.0098952E+003
  7.3551988E+003
  7.4502967E+003
  7.3081851E+003
  6.9489762E+003
  6.4010814E+003
  5.7018746E+003
  4.8946896E+003
  4.0233107E+003
  3.1245086E+003
  2.2199241E+003
  1.3090262E+003
  3.6535036E+002
 -6.6144456E+002
 -1.8349237E+003
 -3.2115746E+003
 -4.8126577E+003
 -6.5981224E+003
 -8.4562723E+003
 -1.0216059E+004
 -1.1692550E+004
 -1.2704750E+004
 -1.3139668E+004
 -1.2973770E+004
 -1.2260604E+004
 -1.1171760E+004
 -9.9031728E+003
 -8.6369599E+003
 -7.4735209E+003
 -6.3736006E+003
 -5.2279131E+003
 -4.0154848E+003
 -2.7355329E+003
 -1.4806731E+003
 -2.7131223E+002
  6.7053261E+002
  1.9759369E+003
  6.1835440E+002
  1.4740948E+003
 -8.8674279E+002
 -6.2076064E+002
 -2.2230054E+003
 -2.7755604E+003
 -3.2525020E+003
 -3.5155298E+003
 -3.7185717E+003
 -3.9094603E+003
 -4.2521476E+003
 -4.6836298E+003
 -5.6704788E+003
 -7.7733503E+003
 -4.6282099E+003
 -1.2086950E+004
 -2.5781642E+003
  1.0930348E+003
  2.8807520E+002
 -8.1525021E+002
 -4.4967584E+003
 -6.4372528E+003
 -5.0627446E+003
 -2.3798222E+003
 -4.9550510E+000
  1.8483689E+003
  3.3385372E+003
  4.4663283E+003
  5.2780010E+003
  5.8011717E+003
  6.0651862E+003
  6.1007969E+003
  5.9444714E+003
  5.6387418E+003
  5.2301967E+003
  4.7645870E+003
  4.2795840E+003
  3.7960334E+003
  3.3092212E+003
  2.7824626E+003
  2.1464021E+003
  1.3082631E+003
  1.7711886E+002
 -1.2955129E+003
 -3.0681292E+003
 -4.9866313E+003
 -6.8203272E+003
 -8.2917958E+003
 -9.2211493E+003
 -9.4621090E+003
 -8.9770074E+003
 -7.9470976E+003
 -6.5287712E+003
 -5.0062257E+003
 -3.6410253E+003
 -2.5557561E+003
 -1.7015086E+003
 -9.6019804E+002
 -1.0048129E+002
  6.9736004E+002
  1.3126245E+003
  1.6620412E+003
  1.8228423E+003
  1.3674056E+003
  7.6912768E+002
  3.6256842E+002
 -3.1821233E+003
 -3.3507745E+003
 -3.5195043E+003
 -3.8728143E+003
 -4.2024605E+003
 -4.4361757E+003
 -4.5203308E+003
 -4.3999164E+003
 -3.8270686E+003
 -2.8098535E+003
  3.8077055E+002
  3.6740260E+003
  1.9360681E+004
  5.6297395E+003
 -1.3454433E+003
 -5.7405768E+002
 -3.5825760E+003
 -6.2847856E+003
 -7.8644788E+003
 -7.3326155E+003
 -5.4411929E+003
 -3.1941896E+003
 -1.1125862E+003
  6.5124450E+002
  2.0927020E+003
  3.2179802E+003
  4.0507745E+003
  4.6180573E+003
  4.9525515E+003
  5.0932634E+003
  5.0859135E+003
  4.9810304E+003
  4.8294014E+003
  4.6745704E+003
  4.5428368E+003
  4.4319545E+003
  4.3006812E+003
  4.0630801E+003
  3.5938289E+003
  2.7521863E+003
  1.4410528E+003
 -3.1037644E+002
 -2.2772454E+003
 -4.0657355E+003
 -5.4106312E+003
 -5.9784039E+003
 -5.7281916E+003
 -4.8142212E+003
 -3.2326348E+003
 -1.5145323E+003
  2.6426945E+002
  1.8648211E+003
  2.9043802E+003
  3.6279181E+003
  4.2744846E+003
  4.4292294E+003
  4.3125215E+003
  3.8983825E+003
  3.3240187E+003
  2.4166847E+003
  1.4709380E+003
  5.5326142E+002
  1.7052942E+002
 -3.0667820E+003
 -5.6897182E+003
 -4.2137272E+003
 -4.4384643E+003
 -4.6911158E+003
 -4.8302473E+003
 -5.0418493E+003
 -5.1894562E+003
 -5.1656317E+003
 -4.8285874E+003
 -3.6984974E+003
 -2.1060322E+003
  2.6476461E+003
  3.1305100E+002
  4.4355240E+003
 -9.8719090E+002
 -1.4629018E+003
 -3.9392323E+003
 -6.3048082E+003
 -7.7653023E+003
 -7.8238820E+003
 -6.7189973E+003
 -4.9977525E+003
 -3.1378267E+003
 -1.3925472E+003
  1.2903812E+002
  1.3920322E+003
  2.3906658E+003
  3.1372711E+003
  3.6559642E+003
  3.9816487E+003
  4.1592714E+003
  4.2420365E+003
  4.2871229E+003
  4.3479670E+003
  4.4624183E+003
  4.6380708E+003
  4.8372935E+003
  4.9641612E+003
  4.8621098E+003
  4.3339959E+003
  3.2031983E+003
  1.4570325E+003
 -5.9694373E+002
 -2.3770354E+003
 -3.0181609E+003
 -2.8498915E+003
 -1.6738131E+003
  5.1552921E+002
  2.4103272E+003
  4.3150045E+003
  5.7314796E+003
  7.4367676E+003
  8.9102500E+003
  1.0376046E+004
  1.0221280E+004
  1.0251302E+004
  8.5151221E+003
  6.1929179E+003
  4.2170617E+003
  2.6685739E+003
  1.4276526E+003
  5.7346209E+002
  2.6707432E+001
 -4.4918675E+003
 -3.8810429E+003
 -3.0155522E+003
 -4.0323429E+003
 -4.9186297E+003
 -5.2721099E+003
 -5.4761679E+003
 -5.5893786E+003
 -5.6843001E+003
 -5.6791296E+003
 -5.3683463E+003
 -4.5410138E+003
 -2.6691112E+003
 -1.1157636E+003
  1.2322624E+002
  6.4135262E+002
 -9.3123811E+002
 -1.3890950E+003
 -3.7869775E+003
 -5.6570532E+003
 -6.9330971E+003
 -7.3239205E+003
 -6.8155946E+003
 -5.6655805E+003
 -4.2102409E+003
 -2.7005595E+003
 -1.2876849E+003
 -5.1602075E+001
  9.7088769E+002
  1.7690584E+003
  2.3511812E+003
  2.7415311E+003
  2.9793990E+003
  3.1176599E+003
  3.2192707E+003
  3.3499747E+003
  3.5652978E+003
  3.8895308E+003
  4.2944657E+003
  4.6852601E+003
  4.8786678E+003
  4.6197226E+003
  3.6239098E+003
  1.7558494E+003
 -5.8219378E+002
 -2.0159481E+003
 -2.1179756E+003
  4.1989129E+002
  4.3358942E+003
  6.7825313E+003
  1.0395293E+004
  1.0972774E+004
  1.0958173E+004
  1.1471724E+004
  1.1398926E+004
  2.2255912E+004
  2.5445537E+004
  1.9849633E+004
  1.2439527E+004
  4.9649649E+003
  3.7602468E+003
  2.1433765E+003
  1.2090186E+003
  4.5775604E+002
  4.7977011E+001
 -3.8234287E+003
  1.7177826E+003
 -1.7569300E+003
 -2.8734422E+003
 -4.9715269E+003
 -5.4120189E+003
 -5.7244672E+003
 -5.7428241E+003
 -5.7384264E+003
 -5.7572807E+003
 -5.8169465E+003
 -5.8376504E+003
 -5.5276262E+003
 -4.7184442E+003
 -3.0411574E+003
 -1.4066867E+003
 -4.7336742E+002
 -2.7603200E+003
 -1.2431852E+003
 -2.9413781E+003
 -4.0766071E+003
 -5.4677924E+003
 -6.1602576E+003
 -6.0917212E+003
 -5.4482166E+003
 -4.4422609E+003
 -3.2766508E+003
 -2.1025494E+003
 -1.0220433E+003
 -9.7878087E+001
  6.3590403E+002
  1.1674251E+003
  1.5050484E+003
  1.6770959E+003
  1.7314723E+003
  1.7337437E+003
  1.7616359E+003
  1.8927916E+003
  2.1805003E+003
  2.6054383E+003
  3.0550973E+003
  3.3614460E+003
  3.1666966E+003
  2.1816181E+003
  1.7641694E+002
 -2.5563342E+003
 -5.2958708E+003
 -2.0514777E+003
  1.1115408E+003
  1.4474543E+004
  2.4331363E+004
  2.0959049E+004
  2.0476226E+004
  1.8029208E+004
  1.4546176E+004
  4.2548642E+003
 -3.6505169E+003
 -1.7663001E+003
  9.5028590E+002
  1.6703193E+003
  1.2311875E+003
  6.4158387E+002
  1.6610315E+002
  3.7016027E+001
 -3.3212382E+003
 -2.3439298E+003
 -7.4660137E+003
 -6.3617827E+003
 -6.3839834E+003
 -5.9814467E+003
 -5.6762276E+003
 -5.3899631E+003
 -5.2095017E+003
 -5.2045668E+003
 -5.4563075E+003
 -5.8864462E+003
 -5.8863921E+003
 -4.9914819E+003
 -2.2101789E+003
 -1.1931017E+003
  1.9984668E+003
  4.7259593E+003
  2.1974272E+002
 -1.9414261E+003
 -3.6496826E+003
 -4.4243266E+003
 -4.7097004E+003
 -4.4979962E+003
 -3.9396728E+003
 -3.1619613E+003
 -2.3026074E+003
 -1.4679912E+003
 -7.3520526E+002
 -1.5935375E+002
  2.2542035E+002
  4.0734245E+002
  3.9846094E+002
  2.3562644E+002
 -1.9402670E+001
 -2.8172895E+002
 -4.5174634E+002
 -4.3566007E+002
 -1.9965979E+002
  6.3427057E+001
 -6.9066941E+000
 -4.1482490E+002
 -2.5833482E+003
 -6.1425499E+003
 -1.0477400E+004
 -6.9957763E+003
 -8.1781175E+003
  7.8242684E+002
 -2.5934366E+003
  3.9815478E+001
  2.4456731E+002
  2.4202562E+002
  4.1779142E+002
  2.1667331E+002
  7.8749532E+001
 -1.9974426E+004
 -1.3029079E+004
 -1.0381683E+004
 -8.1213251E+003
 -6.9541061E+003
 -5.9628219E+003
 -5.1769275E+003
 -4.5100992E+003
 -3.9726301E+003
 -3.5311282E+003
 -3.4112812E+003
 -4.1081550E+003
 -4.6233313E+003
 -3.9380127E+003
 -7.0971041E+002
 -7.6902983E+003
 -2.2347635E+003
  2.0447455E+002
  3.6581372E+001
 -1.2106106E+003
 -2.0792074E+003
 -2.6519326E+003
 -2.8968087E+003
 -2.7648824E+003
 -2.3884888E+003
 -1.8913685E+003
 -1.3612929E+003
 -8.8185345E+002
 -5.2902001E+002
 -3.6111704E+002
 -4.1292690E+002
 -6.9337235E+002
 -1.1835396E+003
 -1.8345185E+003
 -2.5659485E+003
 -3.2647081E+003
 -3.7969032E+003
 -4.0383950E+003
 -3.9724729E+003
 -4.7042021E+003
 -7.0938794E+003
 -9.4129330E+003
 -1.3979853E+004
 -3.1730072E+004
 -2.4279476E+004
  6.5393485E+003
 -6.8121866E+001
  1.4354305E+002
 -3.2506228E+001
 -2.2787258E+001
 -7.0037046E+001
 -1.0619677E+002
 -2.6604052E+002
 -2.2744032E+002
 -1.2941746E+004
 -1.5145114E+004
 -1.2633605E+004
 -1.0987498E+004
 -1.0179266E+004
 -8.4317018E+003
 -6.7928714E+003
 -5.4277799E+003
 -4.2222682E+003
 -3.1598386E+003
 -2.1662165E+003
 -1.1751273E+003
  3.7489199E+002
  1.6989764E+003
  6.5922928E+002
  1.7606577E+003
  4.5817197E+003
  1.5222143E+004
  6.0493340E+003
  4.5123531E+003
  2.7259496E+003
  2.0357987E+003
  1.1780203E+003
 -3.9815695E+001
 -6.6861572E+002
 -9.1029061E+002
 -9.7216640E+002
 -8.8155750E+002
 -6.8827851E+002
 -4.9315229E+002
 -3.9884656E+002
 -4.8747560E+002
 -8.1800662E+002
 -1.4235070E+003
 -2.3086826E+003
 -3.4477400E+003
 -4.7792108E+003
 -6.2027194E+003
 -7.5598236E+003
 -8.6626069E+003
 -9.2208693E+003
 -8.7581365E+003
 -1.3392468E+004
 -2.6080014E+004
 -5.8449533E+004
 -2.7495422E+004
 -6.0050747E+001
 -7.8458535E+001
 -1.0180207E+002
 -3.7630310E+002
 -3.0184971E+002
 -8.0519480E+001
 -1.6742599E+004
 -1.6548672E+004
 -1.4222943E+004
 -1.1826076E+004
 -1.0181899E+004
 -8.8050724E+003
 -7.4844631E+003
 -5.9401864E+003
 -4.3903831E+003
 -2.9032933E+003
 -1.4684305E+003
 -1.5399911E+002
  1.3103903E+003
  3.0565917E+003
  9.0925851E+003
  1.6381728E+004
  4.3269621E+004
  2.0183527E+004
  9.0128374E+003
  1.3346767E+004
  7.6574956E+003
  4.9869494E+003
  3.0851087E+003
  2.3978814E+003
  1.6833825E+003
  1.0384761E+003
  6.9866581E+002
  5.5930667E+002
  4.6280310E+002
  2.8894082E+002
 -6.5066614E+001
 -6.8242174E+002
 -1.6202185E+003
 -2.9094993E+003
 -4.5526184E+003
 -6.5255388E+003
 -8.7463923E+003
 -1.1145953E+004
 -1.3340391E+004
 -1.5722668E+004
 -1.5138333E+004
 -1.2172462E+004
 -4.0423471E+002
  2.3018314E+004
 -3.4706063E+001
  3.4212694E+001
  9.6118567E+001
 -1.7475572E+004
 -1.7642549E+004
 -1.5428015E+004
 -1.2654392E+004
 -1.0651242E+004
 -8.9050226E+003
 -7.5368105E+003
 -6.1578532E+003
 -4.6841448E+003
 -3.0854731E+003
 -1.4086467E+003
  3.1633517E+002
  1.9601739E+003
  3.4777699E+003
  3.5147202E+003
  7.5650762E+003
  1.6145250E+003
  4.9570458E+003
  5.2925349E+003
  2.9006484E+003
  8.7101037E+003
  7.1391848E+003
  6.9092397E+003
  4.7390882E+003
  3.5378764E+003
  2.8534402E+003
  2.3898378E+003
  1.9989402E+003
  1.5678435E+003
  9.6564713E+002
  8.8876285E+001
 -1.1407572E+003
 -2.7755678E+003
 -4.8488980E+003
 -7.3637136E+003
 -1.0315536E+004
 -1.3550786E+004
 -1.7225053E+004
 -2.0125035E+004
 -2.7128700E+004
 -2.7996093E+004
 -7.0159726E+004
 -2.4573995E+004
 -1.8393948E+004
 -1.9267623E+004
 -1.6666210E+004
 -1.3757991E+004
 -1.1417208E+004
 -9.3064007E+003
 -7.6345434E+003
 -6.1769503E+003
 -4.8080265E+003
 -3.3635845E+003
 -1.7779651E+003
 -2.0084895E+001
  1.9183143E+003
  3.9695627E+003
  5.8595556E+003
  6.7108961E+003
  3.4373065E+001
 -2.7380945E+002
 -1.8614745E+004
 -4.2698105E+003
  1.5343522E+004
  2.9714955E+004
  1.4878372E+004
  1.1068079E+004
  7.7338204E+003
  6.6793490E+003
  5.6282028E+003
  4.7794285E+003
  4.1013712E+003
  3.4318035E+003
  2.6195599E+003
  1.5364157E+003
  9.6614248E+001
 -1.7643130E+003
 -4.1013231E+003
 -6.9384322E+003
 -1.0324557E+004
 -1.4034235E+004
 -1.8449784E+004
 -2.0824146E+004
 -2.7477223E+004
 -9.6914933E+003
 -1.4183253E+004
 -1.2234081E+004
 -3.8272494E+004
 -1.8339206E+004
 -1.5724338E+004
 -1.1915058E+004
 -9.6496343E+003
 -7.7070748E+003
 -6.1425123E+003
 -4.7819125E+003
 -3.4918630E+003
 -2.1555658E+003
 -6.8603139E+002
  9.9674597E+002
  2.9250343E+003
  5.3222484E+003
  7.7430225E+003
  1.2388030E+004
  1.4989201E+004
  4.0118450E+004
  1.5246590E+004
  5.6064866E+003
  4.8776772E+003
  1.4375563E+004
  1.1839056E+004
  1.1040890E+004
  8.9434103E+003
  7.6977861E+003
  6.6883342E+003
  5.8314875E+003
  4.8448266E+003
  3.6208388E+003
  2.0786289E+003
  1.5481890E+002
 -2.2113206E+003
 -5.0776076E+003
 -8.4239009E+003
 -1.2318078E+004
 -1.6023762E+004
 -2.0279161E+004
 -1.6423796E+004
 -1.0814172E+004
 -4.1887996E+003
  1.0618292E+003
 -1.8801301E+004
 -1.4629498E+004
 -2.3938165E+004
 -1.6263580E+004
 -1.3620276E+004
 -1.1935943E+004
 -9.2811536E+003
 -7.4201420E+003
 -5.8186804E+003
 -4.5054744E+003
 -3.3396832E+003
 -2.2389591E+003
 -1.1122409E+003
  1.0134470E+002
  1.4891354E+003
  3.0405883E+003
  5.1994550E+003
  6.8729701E+003
  1.2373067E+004
  3.9094166E+003
  8.3255784E+003
 -5.4542529E+003
  2.2041793E+004
  3.2913777E+004
  1.8540213E+004
  1.5743471E+004
  1.2571793E+004
  1.0860332E+004
  9.6860873E+003
  8.6404038E+003
  7.5050701E+003
  6.1910936E+003
  4.6728746E+003
  2.8771289E+003
  7.2564128E+002
 -1.8116183E+003
 -4.7797149E+003
 -7.9662486E+003
 -1.1813052E+004
 -1.3849514E+004
 -2.0717516E+004
 -6.3219777E+003
 -1.2444911E+004
 -5.5681527E+003
 -2.9079482E+004
 -1.4151180E+004
 -1.3932491E+004
 -1.0255257E+004
 -8.5023603E+003
 -7.3593397E+003
 -6.1237933E+003
 -4.8340256E+003
 -3.7270116E+003
 -2.7501672E+003
 -1.8703765E+003
 -1.0333077E+003
 -2.0200973E+002
  6.5272452E+002
  1.5287737E+003
  2.4741658E+003
  3.3409312E+003
  4.6361097E+003
  3.8267677E+003
  2.8143718E+003
  1.1993390E+003
  2.0775005E+004
  2.4130983E+004
  1.9919601E+004
  1.6659352E+004
  1.4392628E+004
  1.2895175E+004
  1.1688617E+004
  1.0288678E+004
  8.9648163E+003
  7.6374594E+003
  6.1590872E+003
  4.4499806E+003
  2.4978547E+003
  3.4179882E+002
 -1.8908408E+003
 -4.2763651E+003
 -6.3893126E+003
 -1.1969151E+004
 -1.8734769E+004
 -5.7024780E+004
  8.0386126E+002
 -1.2828941E+004
 -9.9793590E+003
 -1.6883934E+004
 -1.1373812E+004
 -1.0289178E+004
 -8.5540879E+003
 -6.3618674E+003
 -4.7259529E+003
 -3.6606991E+003
 -2.9142667E+003
 -2.2124044E+003
 -1.5554527E+003
 -9.5210014E+002
 -3.8282578E+002
  1.6184396E+002
  6.7747602E+002
  1.1353619E+003
  1.4976142E+003
  1.6390191E+003
  1.4877552E+003
  7.0330159E+002
  1.0880081E+002
 -5.3699914E+002
 -2.1937949E+002
  2.7061621E+004
  2.4443222E+004
  1.9815153E+004
  1.7450297E+004
  1.6531304E+004
  1.4265295E+004
  1.2653856E+004
  1.1594769E+004
  1.0661691E+004
  9.6750120E+003
  8.5466972E+003
  7.3247498E+003
  6.1511229E+003
  5.1918158E+003
  4.7708512E+003
  4.7425924E+003
  6.7665143E+003
  1.2768054E+004
  1.2080568E+004
  2.2316412E+004
 -2.6770875E+004
 -4.2526627E+003
 -1.7013651E+004
 -8.2678978E+003
 -8.2808248E+003
 -6.1260489E+003
 -4.7769155E+003
 -3.8031286E+003
 -2.4676238E+003
 -1.2852271E+003
 -5.0371153E+002
 -2.1478900E+001
  2.9915920E+002
  5.6866474E+002
  8.3373392E+002
  1.1130078E+003
  1.3964846E+003
  1.6400749E+003
  1.7803169E+003
  1.7248254E+003
  1.4190766E+003
  5.2485031E+002
 -1.1791468E+003
 -3.0207470E+003
 -1.4088164E+003
 -1.7917683E+003
  2.3176488E+004
  3.6431286E+004
  2.2859237E+004
  1.7958886E+004
  1.4960440E+004
  1.4215787E+004
  1.3751975E+004
  1.3480622E+004
  1.3072545E+004
  1.2541436E+004
  1.2013696E+004
  1.1722569E+004
  1.1971125E+004
  1.3028437E+004
  1.5507170E+004
  1.9643766E+004
  2.3311849E+004
  2.3174817E+004
  2.1183805E+004
  2.1202465E+004
  3.2819878E+004
  2.6075008E+004
  3.9098600E+004
  3.1372401E+004
  1.0382121E+004
  6.2590250E+004
 -1.0773711E+004
  8.4419296E+002
 -6.4775606E+003
 -4.2022402E+003
 -9.9781777E+003
 -5.1215915E+003
 -4.6144782E+003
 -3.5820402E+003
 -2.1491946E+003
 -9.0235903E+002
  2.0795611E+002
  1.1263438E+003
  1.9078892E+003
  2.4091078E+003
  2.6211922E+003
  2.6424034E+003
  2.5925877E+003
  2.5679574E+003
  2.6117242E+003
  2.7062205E+003
  2.7815825E+003
  2.7316324E+003
  2.4804866E+003
  1.9811779E+003
  1.4995716E+003
  5.9580437E+002
 -3.2595086E+003
 -2.4332531E+003
 -1.3757991E+004
 -4.9881175E+002
  5.1043409E+003
  1.4586366E+004
  1.4000035E+004
  1.4916154E+004
  1.5443547E+004
  1.5897508E+004
  1.6042270E+004
  1.5965307E+004
  1.5922346E+004
  1.6229108E+004
  1.7173063E+004
  1.9012676E+004
  2.1794147E+004
  2.4924703E+004
  2.6847878E+004
  2.5872058E+004
  2.3092796E+004
  2.1788811E+004
  2.5522328E+004
  3.0691471E+004
  3.6615162E+004
  3.6315257E+004
  7.4489288E+004
  4.0341730E+004
  4.8862451E+004
  3.4631055E+004
  4.1219335E+004
  3.0640748E+004
  2.9269505E+004
  2.6231492E+004
  7.2825036E+003
  1.9217128E+004
  3.4596950E+003
 -3.2498110E+003
 -2.4724515E+003
 -9.6185198E+002
 -1.2654617E+003
 -6.9241179E+002
 -1.0416144E+002
  4.0832414E+002
  1.3803944E+003
  2.4694826E+003
  3.4403604E+003
  4.2611786E+003
  4.8448486E+003
  5.1364883E+003
  5.1135580E+003
  4.8586758E+003
  4.5146106E+003
  4.2348261E+003
  4.1035561E+003
  4.1021479E+003
  4.1298247E+003
  4.0655681E+003
  3.7380749E+003
  3.2813505E+003
  2.7480511E+003
  5.3522266E+003
  8.1771570E+003
  2.7432935E+004
  1.0941972E+004
  1.1737335E+004
  1.4876358E+004
  1.0919877E+004
  1.4252149E+004
  1.5287466E+004
  1.6744436E+004
  1.7798879E+004
  1.8276562E+004
  1.8387794E+004
  1.8527307E+004
  1.9080762E+004
  2.0253717E+004
  2.2063889E+004
  2.4242571E+004
  2.6082604E+004
  2.6554972E+004
  2.5190649E+004
  2.2927037E+004
  2.1679100E+004
  2.2284076E+004
  2.3767124E+004
  2.5526182E+004
  2.8299746E+004
  2.9262113E+004
  3.0975584E+004
  3.1224799E+004
  3.4848893E+004
  3.5500583E+004
  7.3054457E+004
 -2.4828974E+003
 -4.3557710E+003
  1.5917080E+004
  6.6482371E+003
 -2.2073048E+003
  4.9016017E+003
  3.0701657E+003
  2.6825399E+003
  2.6578160E+003
  2.9825162E+003
  3.5503230E+003
  4.3028000E+003
  5.2194410E+003
  6.1486722E+003
  6.9470131E+003
  7.5157546E+003
  7.7314684E+003
  7.5507223E+003
  7.0158305E+003
  6.3617085E+003
  5.8340523E+003
  5.5738704E+003
  5.5628160E+003
  5.6572363E+003
  5.7048294E+003
  5.5275862E+003
  5.0398450E+003
  3.4064723E+003
  4.8491924E+003
  1.0523922E+003
  3.0932071E+003
  1.5769774E+004
  1.8046007E+004
  1.4621318E+004
  1.5971974E+004
  1.7653963E+004
  1.8938017E+004
  1.9421769E+004
  1.9338967E+004
  1.9434050E+004
  2.0029092E+004
  2.1171160E+004
  2.2668870E+004
  2.4149082E+004
  2.5055609E+004
  2.4866884E+004
  2.3477716E+004
  2.1467194E+004
  1.9758167E+004
  1.8871251E+004
  1.8802161E+004
  1.9560575E+004
  2.0861084E+004
  2.3287268E+004
  2.5758057E+004
  2.8711105E+004
  3.2611801E+004
  3.6304594E+004
  4.0321731E+004
  3.8290008E+004
  8.2454599E+004
  4.2767209E+004
  4.9123227E+004
  3.5447349E+004
  4.4675064E+004
  3.1378820E+004
  3.7666098E+004
  2.6968490E+004
  3.3288543E+004
  2.3346032E+004
  2.8320446E+004
  1.8027355E+004
  2.7923997E+004
  1.4895320E+004
  1.0754086E+004
  7.9525038E+003
  6.2269036E+003
  5.2847029E+003
  5.0291652E+003
  5.2147985E+003
  5.6892998E+003
  6.4111484E+003
  7.3026163E+003
  8.2623941E+003
  9.1856952E+003
  9.9026191E+003
  1.0272833E+004
  1.0044086E+004
  9.2916962E+003
  8.2425572E+003
  7.3917825E+003
  7.0294045E+003
  7.0533667E+003
  7.2599183E+003
  7.4782065E+003
  7.6115513E+003
  7.5406333E+003
  6.6523928E+003
  3.7148758E+002
 -3.5474589E+002
 -1.5642240E+004
  1.4492774E+004
  1.6940716E+004
  1.5143252E+004
  1.7016108E+004
  1.8775919E+004
  1.8708913E+004
  1.8285801E+004
  1.8366949E+004
  1.9125562E+004
  2.0256917E+004
  2.1498344E+004
  2.2482657E+004
  2.2834019E+004
  2.2283737E+004
  2.0855635E+004
  1.8919938E+004
  1.7004213E+004
  1.5546933E+004
  1.4795947E+004
  1.4890490E+004
  1.5974476E+004
  1.7758388E+004
  2.0177386E+004
  2.2737747E+004
  2.4940098E+004
  2.5588849E+004
  2.6089367E+004
  2.7790292E+004
  2.7120622E+004
  2.6621411E+004
  2.3757087E+004
  2.0931672E+004
  1.7714902E+004
  1.4952947E+004
  1.2136586E+004
  1.0239405E+004
  8.6559260E+003
  7.3466459E+003
  6.6028411E+003
  6.3328998E+003
  6.4720670E+003
  6.9340249E+003
  7.6561754E+003
  8.5946157E+003
  9.6918887E+003
  1.0812084E+004
  1.1959280E+004
  1.2750332E+004
  1.2913559E+004
  1.1794003E+004
  1.0220185E+004
  8.9841392E+003
  8.5078157E+003
  8.5957846E+003
  8.7929533E+003
  9.0097089E+003
  9.4339207E+003
  9.7889756E+003
  1.2137623E+004
  1.3193639E+004
  3.3407009E+004
  1.2458616E+004
  7.8699216E+003
  1.5327067E+004
  1.4646435E+004
  1.5762311E+004
  1.4927805E+004
  1.4607016E+004
  1.5506427E+004
  1.6685675E+004
  1.8026014E+004
  1.9178115E+004
  1.9892884E+004
  1.9937572E+004
  1.9197238E+004
  1.7739905E+004
  1.5827677E+004
  1.3837804E+004
  1.2137937E+004
  1.1018420E+004
  1.0673322E+004
  1.1141343E+004
  1.2358861E+004
  1.3965685E+004
  1.5538548E+004
  1.6460683E+004
  1.6727521E+004
  1.6771005E+004
  1.6786680E+004
  1.7473103E+004
  1.7133863E+004
  1.6206851E+004
  1.4541789E+004
  1.2752907E+004
  1.0969600E+004
  9.6313499E+003
  8.5178247E+003
  7.6853505E+003
  7.0692091E+003
  6.6797513E+003
  6.5984282E+003
  6.8093967E+003
  7.2882822E+003
  8.0164238E+003
  8.9965196E+003
  1.0223017E+004
  1.1703665E+004
  1.3119421E+004
  1.5250827E+004
  1.6164406E+004
  1.5625133E+004
  1.3155637E+004
  1.0837366E+004
  1.0351049E+004
  1.0223887E+004
  1.0081850E+004
  9.9022761E+003
  1.0137218E+004
  9.8555738E+003
  1.2669077E+004
  4.3545542E+003
  6.6246646E+003
  4.0762404E+003
 -6.1579271E+003
  5.0111226E+003
  6.9203498E+003
  9.4661865E+003
  1.1391359E+004
  1.3425531E+004
  1.5077409E+004
  1.6275033E+004
  1.6856012E+004
  1.6726296E+004
  1.5863307E+004
  1.4364418E+004
  1.2446794E+004
  1.0405156E+004
  8.5496033E+003
  7.1476333E+003
  6.3799560E+003
  6.3061309E+003
  6.8044473E+003
  7.6179431E+003
  8.3556098E+003
  8.7494505E+003
  8.7561600E+003
  8.6974138E+003
  8.9154477E+003
  9.1420603E+003
  9.3565204E+003
  9.1265609E+003
  8.5646072E+003
  7.7950373E+003
  7.0890846E+003
  6.5175381E+003
  6.1686500E+003
  5.9564501E+003
  5.8458151E+003
  5.8558690E+003
  6.0103442E+003
  6.3350180E+003
  6.8347229E+003
  7.5186953E+003
  8.4158753E+003
  9.6226412E+003
  1.1274300E+004
  1.3471559E+004
  1.5862371E+004
  2.1515730E+004
  1.9524177E+004
  1.6858527E+004
  1.3627765E+004
  1.2911621E+004
  1.1832684E+004
  1.0716033E+004
  1.0027595E+004
  9.3042661E+003
  8.8169663E+003
  6.2071662E+003
  3.7187059E+003
  7.6033205E+002
 -2.7282451E+003
 -2.5002772E+002
  3.9096613E+002
  4.2560469E+003
  7.5099089E+003
  1.0144632E+004
  1.2065552E+004
  1.3274196E+004
  1.3745638E+004
  1.3472066E+004
  1.2492761E+004
  1.0920900E+004
  8.9461475E+003
  6.8127638E+003
  4.7808439E+003
  3.0853354E+003
  1.8957825E+003
  1.2755464E+003
  1.1533931E+003
  1.3195323E+003
  1.5126857E+003
  1.5421957E+003
  1.4503816E+003
  1.4010743E+003
  1.5576942E+003
  1.9753437E+003
  2.4106479E+003
  2.7486667E+003
  2.9037362E+003
  2.9682535E+003
  3.0404804E+003
  3.2086729E+003
  3.4580868E+003
  3.7615127E+003
  4.0864171E+003
  4.4274888E+003
  4.8053526E+003
  5.2363947E+003
  5.7327058E+003
  6.2856160E+003
  6.9604194E+003
  7.6277887E+003
  9.1353465E+003
  9.7269167E+003
  1.9094517E+004
  1.9591220E+004
  2.6805639E+004
  4.1362844E+004
  1.8171673E+004
  1.5372314E+004
  1.1748940E+004
  1.0508029E+004
  9.2121885E+003
  8.0258407E+003
  6.2918507E+003
  4.0860411E+003
  1.5756721E+003
  3.6954749E+002
 -5.3463427E+003
 -1.2060486E+003
 -4.0637777E+003
  1.6071593E+003
  4.8475989E+003
  7.6503096E+003
  9.4827817E+003
  1.0546336E+004
  1.0828616E+004
  1.0372976E+004
  9.2400075E+003
  7.5436996E+003
  5.4497136E+003
  3.1624285E+003
  8.9909853E+002
 -1.1369524E+003
 -2.7795930E+003
 -3.9328923E+003
 -4.6026302E+003
 -4.9408545E+003
 -5.1567387E+003
 -5.3816709E+003
 -5.6337426E+003
 -5.6691760E+003
 -5.3719473E+003
 -4.7574124E+003
 -3.9523078E+003
 -3.1612775E+003
 -2.4179115E+003
 -1.7056916E+003
 -9.6453756E+002
 -1.8155376E+002
  6.1073214E+002
  1.3635231E+003
  2.0473209E+003
  2.6616277E+003
  3.2211957E+003
  3.7375074E+003
  4.2085366E+003
  4.6000899E+003
  4.9079725E+003
  4.9431916E+003
  4.9107787E+003
  2.2813736E+003
 -1.5799797E+003
  1.2051146E+003
  4.8146420E+003
  1.1846177E+004
  9.7073792E+003
  9.1480005E+003
  7.8688248E+003
  6.4386305E+003
  4.6773132E+003
  2.6170253E+003
  1.1240794E+003
 -1.3730309E+002
 -2.1323430E+004
 -5.4444486E+003
 -2.4621324E+003
  1.5860129E+003
  4.0572683E+003
  6.2040099E+003
  7.5797291E+003
  8.2728099E+003
  8.2517268E+003
  7.5459780E+003
  6.2073069E+003
  4.3329747E+003
  2.0625425E+003
 -4.3392635E+002
 -2.9781108E+003
 -5.4052357E+003
 -7.5630438E+003
 -9.2952699E+003
 -1.0528913E+004
 -1.1293080E+004
 -1.1862691E+004
 -1.2470509E+004
 -1.2840629E+004
 -1.2928209E+004
 -1.2393841E+004
 -1.1351211E+004
 -1.0087665E+004
 -8.7367027E+003
 -7.4672942E+003
 -6.1759763E+003
 -4.8178961E+003
 -3.4552411E+003
 -2.1694368E+003
 -1.0294376E+003
 -5.1166245E+001
  7.7612272E+002
  1.4755482E+003
  2.0639343E+003
  2.5167916E+003
  2.7978820E+003
  2.7991983E+003
  2.5502368E+003
  1.3522459E+003
  7.4178844E+002
  5.1550933E+002
  3.3503369E+002
  3.2693245E+003
  5.1177821E+003
  7.4504953E+003
  7.1311272E+003
  6.3583964E+003
  5.0148742E+003
  3.4512819E+003
  1.8453222E+003
  7.4486913E+002
 -1.9043949E+002
 -6.3072011E+003
  1.1812074E+004
  3.2292358E+003
  5.2365342E+003
  3.1014081E+003
  3.3982312E+003
  4.5847924E+003
  5.5948469E+003
  6.2808967E+003
  6.4454883E+003
  6.0358910E+003
  5.0275288E+003
  3.4444550E+003
  1.3545254E+003
 -1.1293945E+003
 -3.8624189E+003
 -6.6995229E+003
 -9.5226837E+003
 -1.2250167E+004
 -1.4740768E+004
 -1.6642916E+004
 -1.8003950E+004
 -1.9020169E+004
 -1.9780810E+004
 -2.0837867E+004
 -2.0749526E+004
 -1.9832677E+004
 -1.8139364E+004
 -1.6011632E+004
 -1.4169458E+004
 -1.2268456E+004
 -1.0346988E+004
 -8.3565884E+003
 -6.4002719E+003
 -4.6827903E+003
 -3.2323414E+003
 -2.0288500E+003
 -1.0402989E+003
 -2.4041452E+002
  4.0280807E+002
  8.9472594E+002
  1.1107899E+003
  1.0509738E+003
  6.9126705E+002
  2.5759989E+002
 -9.9728828E+001
  1.3310867E+002
  1.5037292E+003
  3.8385922E+003
  5.2591222E+003
  5.6554501E+003
  4.9118564E+003
  3.7871211E+003
  2.5062931E+003
  1.2750595E+003
  5.4813052E+002
 -2.6811708E+002
  2.0875833E+003
  2.3851948E+003
  5.4630422E+003
  5.5875749E+003
  5.2517681E+003
  5.2022693E+003
  5.3375570E+003
  5.2880703E+003
  4.9163082E+003
  4.1012182E+003
  2.7852234E+003
  9.5316762E+002
 -1.3590314E+003
 -4.0645754E+003
 -7.0304813E+003
 -1.0106694E+004
 -1.3229739E+004
 -1.6431465E+004
 -1.9804592E+004
 -2.3121394E+004
 -2.5108655E+004
 -2.6947420E+004
 -2.9487208E+004
 -2.9696629E+004
 -2.9874061E+004
 -2.7937112E+004
 -2.5203543E+004
 -2.2645588E+004
 -1.9327303E+004
 -1.6736363E+004
 -1.4085898E+004
 -1.1202798E+004
 -8.7515127E+003
 -6.7522582E+003
 -5.1116803E+003
 -3.7461052E+003
 -2.6275290E+003
 -1.7373474E+003
 -1.0876855E+003
 -5.7884955E+002
 -3.2022928E+002
 -1.4498924E+002
 -6.0871885E+002
 -2.5424164E+002
  4.2110280E+002
  2.4717878E+003
  3.8148829E+003
  5.0924058E+003
  4.4944567E+003
  3.7325869E+003
  2.6761565E+003
  1.6713821E+003
  7.9398783E+002
  3.6321610E+002
 -2.9987349E+002
  1.3172673E+003
  2.0523916E+003
  4.3140963E+003
  5.5798056E+003
  5.6979653E+003
  5.3580859E+003
  4.8817562E+003
  4.2893676E+003
  3.4682289E+003
  2.3126272E+003
  7.3558208E+002
 -1.3062455E+003
 -3.8094220E+003
 -6.7107688E+003
 -9.8805326E+003
 -1.3133351E+004
 -1.6274671E+004
 -1.9564557E+004
 -2.3404566E+004
 -2.8338956E+004
 -3.3720596E+004
 -3.8688439E+004
 -3.8227914E+004
 -4.3295017E+004
 -3.8257578E+004
 -3.5916817E+004
 -3.4075622E+004
 -2.8292994E+004
 -2.5689288E+004
 -2.0534295E+004
 -1.6274537E+004
 -1.2800157E+004
 -1.0330738E+004
 -8.3623559E+003
 -6.6508068E+003
 -5.1389220E+003
 -3.8533025E+003
 -2.8131240E+003
 -2.1106857E+003
 -1.5430317E+003
 -2.4913140E+003
 -1.4648456E+003
  1.5372094E+002
  4.5391685E+003
  2.4244944E+003
  7.3300184E+003
  4.3947030E+003
  3.7028083E+003
  2.5288072E+003
  1.5914163E+003
  8.1538872E+002
  2.8735871E+002
  1.6770154E+002
 -3.3072778E+002
  7.4697900E+002
  1.5243458E+003
  3.6984036E+003
  5.0768687E+003
  5.3189512E+003
  4.7848301E+003
  3.9664622E+003
  3.0162925E+003
  1.9014553E+003
  5.1488930E+002
 -1.2378052E+003
 -3.4178536E+003
 -6.0380387E+003
 -9.0681826E+003
 -1.2386890E+004
 -1.5763399E+004
 -1.8836843E+004
 -2.1379478E+004
 -2.4044854E+004
 -3.0068289E+004
 -3.1269666E+004
 -6.5115231E+004
 -7.4638049E+004
 -4.7765268E+004
 -4.6652950E+004
 -4.3611170E+004
 -4.0810752E+004
 -4.7960058E+004
 -3.4390870E+004
 -1.6885330E+004
 -1.5485739E+004
 -1.2757486E+004
 -1.1419868E+004
 -9.6690819E+003
 -7.9280584E+003
 -6.2062139E+003
 -4.6162637E+003
 -3.2994720E+003
 -2.2793817E+003
 -1.7106379E+003
 -7.6397020E+002
  2.2524794E+004
  7.3186207E+003
  5.6979737E+003
  3.2973522E+003
  2.3493062E+003
  1.2613665E+003
  4.0392692E+002
 -1.5842231E+002
 -3.3960570E+002
 -1.0302237E+002
 -4.0540746E+002
  1.4544204E+003
  1.8145506E+003
  3.8792141E+003
  4.7610298E+003
  4.4128687E+003
  3.5006793E+003
  2.4313553E+003
  1.3089270E+003
  5.8454337E+001
 -1.4347193E+003
 -3.2789838E+003
 -5.5173844E+003
 -8.1632467E+003
 -1.1191106E+004
 -1.4523782E+004
 -1.7948589E+004
 -2.1102499E+004
 -2.3031626E+004
 -2.4435255E+004
 -2.1608100E+004
 -2.0486090E+004
  2.6797364E+003
  8.0060742E+003
 -2.5233648E+003
 -1.2416616E+004
 -1.3800679E+004
 -1.3206070E+004
 -1.1402532E+004
 -9.2768681E+003
 -7.1001105E+003
 -4.9980248E+003
 -3.1338382E+003
 -8.1553150E+002
 -2.3304359E+002
  7.1490431E+003
 -1.1822994E+004
 -2.1900526E+003
 -2.7532644E+003
  6.2819917E+002
  1.2888278E+003
  7.3517878E+002
 -7.9793289E+000
 -8.2198690E+002
 -1.2906789E+003
 -1.1920152E+003
 -4.6629688E+002
 -5.2567657E+002
  2.3410097E+003
  1.9302020E+003
  4.5814488E+003
  3.9875531E+003
  2.6664651E+003
  1.3572300E+003
  2.2679008E+002
 -9.2010133E+002
 -2.1553727E+003
 -3.6456728E+003
 -5.5388961E+003
 -7.8548669E+003
 -1.0445768E+004
 -1.3272301E+004
 -1.6493786E+004
 -1.9021106E+004
 -2.2833386E+004
 -2.2092362E+004
 -3.8280717E+004
 -2.1300705E+004
  7.0422909E+002
 -1.7397885E+003
 -3.3542082E+002
 -2.0597720E+003
 -8.0568776E+002
 -3.4587131E+002
 -3.1406386E+002
 -9.1148543E+002
 -1.7475701E+003
 -2.4804746E+003
 -2.3965882E+003
 -1.2069639E+003
 -1.2342716E+003
  1.1292550E+004
  2.5774075E+003
  4.0246355E+003
  9.5715604E+002
 -5.8398361E+002
 -1.5516583E+003
 -2.6204889E+003
 -3.6618073E+003
 -4.7867360E+003
 -6.1789870E+003
 -8.0989782E+003
 -1.0676917E+004
 -1.3514042E+004
 -1.5988537E+004
 -1.8357559E+004
 -2.1142558E+004
 -1.9156630E+004
 -1.8886254E+004
 -8.0687015E+003
  2.0986439E+003
  2.7726694E+002
  2.3212457E+003
 -3.1302401E+002
 -3.7884867E+002
 -6.1896427E+002
 -9.3693907E+002
 -1.7694629E+003
 -2.9913823E+003
 -3.8225787E+003
 -1.6672476E+003
 -2.0505399E+003
 -5.4651256E+003
 -1.9491247E+004
 -6.1276632E+003
 -5.0692951E+003
 -4.1253206E+003
 -4.9061362E+003
 -5.8193847E+003
 -6.8641686E+003
 -7.8696433E+003
 -9.0660771E+003
 -1.0991579E+004
 -1.3987297E+004
 -1.8187917E+004
 -2.0964689E+004
 -2.3832645E+004
 -1.9091191E+004
 -2.0656677E+004
 -1.0249596E+004
  1.6088715E+004
  4.5474905E+003
  2.4545278E+003
  2.9660002E+002
 -9.6247969E+001
 -1.8482128E+002
 -1.6351677E+002
 -2.0889158E+002
 -1.0471213E+003
 -3.8294820E+003
 -2.5122733E+003
 -1.0769370E+004
 -3.8580490E+003
 -2.6679892E+003
 -7.7451921E+003
 -6.4973337E+003
 -7.8087397E+003
 -9.0155586E+003
 -1.0419924E+004
 -1.1538058E+004
 -1.2464080E+004
 -1.4109281E+004
 -1.7123051E+004
 -2.3152489E+004
 -2.7016251E+004
 -4.8150519E+004
 -2.9279769E+004
  3.9142511E+003
  5.2202563E+003
 -8.8449337E+003
 -1.7441526E+003
 -2.7405615E+003
 -5.8768570E+002
 -1.0337455E+002
  5.6648715E+001
  4.3383026E+002
  1.0517763E+003
  1.7324557E+003
  3.8747322E+003
  5.6119930E+003
  1.9219229E+004
  5.6636453E+003
 -1.5414599E+002
 -2.9286820E+003
 -5.1199511E+003
 -7.9261223E+003
 -9.6260479E+003
 -1.1785305E+004
 -1.4067941E+004
 -1.6053295E+004
 -1.6967907E+004
 -1.8096916E+004
 -2.2148572E+004
 -2.7213389E+004
 -3.0199307E+004
 -2.4885920E+004
 -1.7459211E+003
 -9.7330800E+002
 -2.4698279E+003
 -1.5583742E+003
 -5.3474600E+002
  2.6387800E+002
  9.1043872E+002
  1.8678319E+003
  2.6148874E+003
  5.6108515E+003
  1.7387257E+003
  4.1536018E+003
 -2.7149934E+002
 -2.0207235E+003
 -5.0228303E+003
 -7.8910062E+003
 -1.0653999E+004
 -1.3480153E+004
 -1.6823144E+004
 -2.0953061E+004
 -2.4233563E+004
 -2.3651114E+004
 -2.6358276E+004
 -3.0681965E+004
 -4.2194392E+004
 -8.8632985E+002
 -4.7828756E+002
 -7.9332180E+002
 -5.9328844E+002
 -9.6231928E+000
  5.6774790E+002
  1.2139248E+003
  1.8455488E+003
  2.6954848E+003
  2.3327193E+003
  1.6371427E+003
  6.5394541E+002
 -2.3174295E+002
 -2.9067693E+003
 -5.1117343E+003
 -8.0900816E+003
 -1.0326933E+004
 -1.3468886E+004
 -1.7511119E+004
 -2.2221383E+004
 -3.1185688E+004
 -4.0316862E+004
 -7.3051723E+004
 -3.8058800E+004
 -1.1369844E+002
  9.8631583E+002
  9.0671782E+002
  1.1204431E+003
  8.0448903E+002
  9.7008226E+002
  1.2438490E+003
  1.5900267E+003
  1.6378308E+003
  1.3619441E+003
  4.7463547E+002
  4.8044481E+002
 -4.4283679E+003
 -2.2683076E+003
 -7.3953477E+003
 -6.2646808E+003
 -8.8254257E+003
 -1.1477009E+004
 -1.5094815E+004
 -1.7636571E+004
 -2.5323253E+004
 -8.8519595E+003
 -1.1252388E+004
  2.7074851E+003
  1.3623642E+003
  4.0853024E+003
  1.8324627E+003
  1.4439379E+003
  1.1239236E+003
  1.1388981E+003
  1.1474644E+003
  1.0315239E+003
  6.8160887E+002
  2.6235024E+002
  2.1860694E+002
 -1.9149873E+004
 -3.8610572E+003
 -2.7579624E+003
 -3.2400039E+003
 -5.9691369E+003
 -8.5827170E+003
 -1.0352685E+004
 -1.1632371E+004
 -7.9672429E+003
 -5.9266356E+003
  1.3371644E+003
  1.4681183E+004
  4.6461973E+003
  3.3462046E+003
  1.6965783E+003
  1.2678406E+003
  9.7400866E+002
  8.7481483E+002
  7.8318557E+002
  6.1218985E+002
  3.8889015E+002
  8.7621486E+001
  2.2015808E+002
 -2.9067900E+003
  1.5137010E+004
  5.6682390E+003
  1.0296962E+004
  5.0807279E+003
  2.3814839E+002
 -3.4176321E+003
 -6.0186691E+003
 -7.0542039E+003
 -5.3523634E+003
 -1.8537021E+003
 -6.9107509E+002
  2.2304882E+003
  4.6288599E+003
 -8.0491900E+003
 -1.5296681E+003
 -2.2659162E+003
 -8.0209535E+001
  5.1617010E+002
  5.5895575E+002
  5.7600441E+002
  5.3839494E+002
  4.6978286E+002
  3.4624980E+002
  2.1016500E+002
  2.4906400E+001
  1.9382681E+002
  1.7066431E+004
  6.5436928E+003
  1.1592074E+004
  6.0262931E+003
  8.8207893E+002
 -2.5505415E+003
 -5.0719793E+003
 -6.3468230E+003
 -5.5070989E+003
  9.8392021E+001
  7.8093456E+002
  1.4929426E+004
 -1.5749208E+003
 -9.6704283E+002
 -2.3321095E+003
 -1.5218441E+003
 -5.9746303E+002
 -5.3068314E+001
  1.5152751E+002
  2.2523069E+002
  2.1664619E+002
  1.5812463E+002
  1.0273660E+002
 -1.7600508E+001
  1.8743353E+002
 -1.2698182E+003
 -2.0800713E+004
 -2.9032654E+003
 -1.3252161E+003
 -1.3082278E+003
 -3.3895671E+003
 -5.4713554E+003
 -7.0928936E+003
 -1.0163356E+004
 -1.1645329E+004
 -2.9475923E+004
 -1.0835561E+004
 -9.6402784E+002
 -6.0753430E+002
 -1.2538907E+003
 -1.1228585E+003
 -6.8080206E+002
 -2.9119589E+002
 -8.5694741E+001
 -3.0851262E-001
  2.7022431E+001
  2.0937147E+001
  2.6019519E+001
 -4.3405578E+001
  1.7832462E+002
 -6.1981212E+003
 -1.3223606E+003
 -6.2094378E+003
 -3.3383550E+003
 -4.5662687E+003
 -5.8728901E+003
 -6.9526329E+003
 -1.0379241E+004
 -4.0903586E+003
 -4.3839366E+003
 -1.9613774E+002
  7.6947530E+000
 -4.1126106E+001
 -1.1546990E+002
 -1.2451692E+002
 -1.5028608E+002
 -1.4305095E+002
 -1.3724516E+002
 -1.1860413E+002
 -9.2077718E+001
 -3.7991475E+001
 -6.5159958E+001
  1.6981908E+002
 -1.8670733E+003
 -1.7550126E+003
 -3.3522110E+003
 -4.5453623E+003
 -4.9142280E+003
 -5.5532363E+003
 -6.2400726E+003
 -4.6005238E+003
 -3.5604831E+003
  1.2559635E+003
  8.5374633E+001
  1.0549326E+003
  1.1434580E+003
  1.1756609E+003
  4.6413633E+002
  9.0999884E+001
 -1.5588000E+002
 -2.5894433E+002
 -2.6786505E+002
 -2.1422600E+002
 -1.0965292E+002
 -8.9735707E+001
  1.5906224E+002
 -2.0437173E+003
 -5.8589053E+002
 -2.8913095E+003
 -4.1663723E+003
 -5.1642877E+003
 -5.3302755E+003
 -4.6919917E+003
 -3.0129935E+003
 -1.8735354E+003
  2.0396026E+003
  2.7607934E+003
  1.2836465E+003
  3.8873350E+003
  1.5179874E+003
  8.1144277E+002
  8.8249803E+001
 -2.7594056E+002
 -4.6305113E+002
 -4.8064887E+002
 -3.8628015E+002
 -2.1199734E+002
 -1.2610134E+002
  1.4456822E+002
 -1.9355428E+003
 -6.8798322E+002
 -3.0780667E+003
 -4.9520207E+003
 -6.0601672E+003
 -5.8280519E+003
 -4.5766007E+003
 -2.3724998E+003
 -1.7933534E+003
  2.8647483E+003
  1.4149419E+004
  4.3162434E+003
  2.9329170E+003
  1.1294194E+003
  4.0677565E+002
 -2.2760740E+002
 -6.0851390E+002
 -8.0705832E+002
 -8.0901180E+002
 -6.4971892E+002
 -3.7297664E+002
 -1.8644972E+002
  1.2030495E+002
 -2.5818456E+003
 -1.1817943E+003
 -4.8928262E+003
 -7.5001210E+003
 -8.7773689E+003
 -7.8105318E+003
 -5.6178086E+003
 -2.5979360E+003
 -1.9681889E+003
  3.4323874E+003
  4.3975946E+003
 -7.7866111E+003
 -1.6036126E+003
 -2.4338606E+003
 -4.9328057E+002
 -1.6002491E+002
 -4.5193018E+002
 -7.8673021E+002
 -1.1075752E+003
 -1.2914803E+003
 -1.2781779E+003
 -1.0447019E+003
 -6.2856128E+002
 -2.8428026E+002
  8.1487424E+001
 -2.1711416E+003
 -3.4609928E+003
 -8.8085287E+003
 -1.3205561E+004
 -1.3973019E+004
 -1.1700894E+004
 -7.5237084E+003
 -3.3338127E+003
 -1.8003163E+003
  3.8391163E+003
 -1.5159902E+003
 -9.8294416E+002
 -2.4328250E+003
 -1.8442178E+003
 -1.2752491E+003
 -1.1371512E+003
 -1.3491701E+003
 -1.6273277E+003
 -1.8506467E+003
 -1.8777544E+003
 -1.6119037E+003
 -1.0351369E+003
 -4.6230660E+002
 -1.6647185E+001
 -7.5695618E+003
 -6.3831743E+003
 -1.8381479E+004
 -2.2722691E+004
 -2.2286729E+004
 -1.6888952E+004
 -1.0860163E+004
 -2.8875450E+003
 -2.6406417E+003
  6.0362137E+003
 -7.8736359E+002
 -5.9656143E+002
 -1.1421085E+003
 -1.3229479E+003
 -1.2737899E+003
 -1.3890495E+003
 -1.6505966E+003
 -2.0084417E+003
 -2.3480917E+003
 -2.5410241E+003
 -2.3704542E+003
 -1.6787688E+003
 -7.3277117E+002
 -1.6591228E+002
 -2.6661609E+003
 -2.2232226E+004
 -3.2648685E+004
 -3.9197229E+004
 -3.0344074E+004
 -2.2715758E+004
 -1.4424122E+004
 -5.9319464E+003
  5.2252378E+002
  1.5952008E+004
 -1.5179491E+002
  5.8498338E+002
  2.2703289E+002
  4.6149272E+000
 -7.0974420E+002
 -1.1684150E+003
 -1.6415926E+003
 -2.1060087E+003
 -2.5845598E+003
 -3.0335433E+003
 -3.2457630E+003
 -2.6846444E+003
 -1.3642598E+003
 -8.8484489E+002
 -7.7622730E+004
 -2.2029385E+004
 -7.6471644E+004
 -4.3920228E+004
 -3.7245404E+004
 -2.5815938E+004
 -1.7712655E+004
 -1.0844657E+004
 -7.9436843E+003
 -4.6386004E+003
 -5.9777579E+003
  7.3113570E+003
  2.0043797E+003
  9.5417687E+002
  2.7965682E+003
  7.4265872E+002
 -9.7306280E-001
 -7.8870433E+002
 -1.3634088E+003
 -1.8842233E+003
 -2.3276942E+003
 -2.8756970E+003
 -3.5977657E+003
 -3.9256232E+003
 -1.7232759E+003
 -1.6688028E+003
 -1.3399006E+005
 -7.3231657E+004
 -6.2984853E+004
 -4.3966796E+004
 -3.4543857E+004
 -2.5593069E+004
 -1.8642015E+004
 -1.3224550E+004
 -8.3341323E+003
 -4.3667413E+003
  1.7872693E+003
  1.1109930E+004
  3.5245092E+003
  2.4995781E+003
  1.0186222E+003
  3.0930398E+002
 -3.9158321E+002
 -9.4998132E+002
 -1.3907926E+003
 -1.6580190E+003
 -1.5967643E+003
 -1.7904717E+003
 -3.8819943E+003
 -2.4114858E+003
 -1.0083480E+004
  2.0257221E+003
 -4.9847565E+004
 -2.1049767E+004
 -3.3552340E+004
 -2.5543636E+004
 -2.1909292E+004
 -1.7020744E+004
 -1.2888078E+004
 -7.7327777E+003
 -4.4084786E+003
  2.3073656E+003
  3.2573807E+003
 -6.1808782E+003
 -9.6392612E+002
 -1.3075824E+003
  3.7903211E+002
  6.9105165E+002
  3.6309178E+002
 -2.5800134E+001
 -4.5149696E+002
 -8.1851692E+002
 -8.5476795E+002
 -3.9487536E+002
  2.2608295E+003
  4.9331051E+003
  1.8740082E+004
  6.2546798E+003
 -3.3927249E+004
 -2.7064666E+004
 -1.6609102E+004
 -1.6705464E+004
 -1.7858192E+004
 -1.6386601E+004
 -1.4503623E+004
 -1.1981419E+004
 -8.9426069E+003
 -5.0372214E+003
  1.6513205E+002
 -1.2170643E+003
  1.2115634E+002
 -6.9687203E+002
  1.2851680E+002
  4.2769204E+002
  5.4192159E+002
  3.8408839E+002
  1.5869775E+002
 -1.8509481E+002
 -3.6380740E+002
 -5.2773872E+002
  2.4963973E+003
  8.5135611E+001
  2.7632709E+003
 -1.8065646E+004
 -2.1952562E+004
 -1.1309195E+004
 -1.1239374E+004
 -1.1460498E+004
 -1.2270824E+004
 -1.2181000E+004
 -1.1648361E+004
 -1.0631958E+004
 -9.7772176E+003
 -4.6807070E+003
 -2.4899230E+003
 -6.5201642E+002
  7.7686294E+002
  6.0920849E+002
  1.9113782E+003
  7.6098974E+002
  8.2004147E+002
  8.5191966E+002
  9.3276093E+002
  9.1053665E+002
  7.8552114E+002
  1.6765366E+002
 -7.6888812E+002
 -2.3817979E+003
 -5.4691754E+002
 -1.6505320E+003
 -1.7706994E+004
 -1.8144007E+004
 -1.0275324E+004
 -8.8014345E+003
 -8.7215279E+003
 -9.7729131E+003
 -1.0812330E+004
 -1.1602460E+004
 -1.1939978E+004
 -1.1814650E+004
 -1.0213757E+004
 -1.0807927E+004
  9.0974885E+003
  3.2737567E+003
  2.4471914E+003
  1.2598069E+003
  1.1164016E+003
  1.2089378E+003
  1.4885090E+003
  1.8157443E+003
  2.0407595E+003
  2.1502201E+003
  9.8821986E+002
 -3.1978251E+003
 -2.7070023E+003
 -1.3498408E+004
 -1.9639340E+004
 -1.5710546E+004
 -1.0815382E+004
 -8.0005269E+003
 -7.8385110E+003
 -8.8413521E+003
 -1.0311025E+004
 -1.1722709E+004
 -1.2780929E+004
 -1.2915170E+004
 -1.1926423E+004
 -7.7810305E+003
 -7.5332324E+003
 -6.0789719E+003
  3.2362596E+003
 -3.8892292E+003
 -1.4751029E+002
  3.9990127E+002
  7.9092623E+002
  9.1730901E+002
  9.7708662E+002
  1.3402331E+003
  1.8798443E+003
  2.5381197E+003
  3.4148485E+003
  4.1888507E+003
  6.7292363E+003
  8.4221063E+003
  2.6234036E+004
  8.3548724E+003
 -1.2076230E+004
 -1.9536304E+004
 -8.6392569E+003
 -8.2996269E+003
 -7.7840582E+003
 -8.9059407E+003
 -1.0447056E+004
 -1.2139988E+004
 -1.3519132E+004
 -1.4313182E+004
 -1.3801034E+004
 -1.3363465E+004
 -5.2976078E+003
 -7.8558571E+002
 -4.3204970E+003
  4.6640054E+003
  1.0504733E+003
 -2.4442358E+002
 -4.9211098E+002
 -3.4661721E+001
  4.8314574E+002
  1.1193320E+003
  1.9144068E+003
  2.7939997E+003
  4.0003654E+003
  4.7781172E+003
  8.2988821E+003
  2.5662504E+003
  5.8179980E+003
  8.1767337E+003
 -6.1903916E+003
 -2.5953225E+003
 -1.0226944E+004
 -8.4330602E+003
 -8.3987052E+003
 -8.4476572E+003
 -9.4923856E+003
 -1.1021764E+004
 -1.2786763E+004
 -1.4460075E+004
 -1.5887620E+004
 -1.6882324E+004
 -1.8298655E+004
 -1.9726528E+004
 -2.3950297E+004
  1.8463265E+003
 -1.4265745E+003
 -1.7691902E+003
 -2.0263648E+003
 -1.8616028E+003
 -1.6110742E+003
 -1.0508364E+003
 -2.7881913E+002
  5.8883897E+002
  1.5228685E+003
  2.5186021E+003
  3.4011611E+003
  4.3658883E+003
  3.6021766E+003
  2.2742257E+003
  1.2280844E+003
 -1.8420667E+004
 -1.5678201E+004
 -1.1777614E+004
 -1.0011892E+004
 -9.3140334E+003
 -9.5123170E+003
 -1.0380480E+004
 -1.1801295E+004
 -1.3525290E+004
 -1.5369386E+004
 -1.7174822E+004
 -1.9137087E+004
 -2.0896021E+004
 -2.3326044E+004
 -2.3331414E+004
 -4.3581824E+004
 -7.1602320E+003
 -1.1523214E+002
 -3.5273479E+003
 -3.7535996E+003
 -3.8395456E+003
 -3.9237138E+003
 -3.5431875E+003
 -2.9023229E+003
 -2.1018136E+003
 -1.1766407E+003
 -1.8062650E+002
  8.2878147E+002
  1.7538122E+003
  2.5035798E+003
  2.6070884E+003
  2.1392950E+003
  6.5401241E+002
  1.0199478E+003
 -1.5430102E+004
 -1.4924065E+004
 -1.3720984E+004
 -1.1756745E+004
 -1.0744741E+004
 -1.0665998E+004
 -1.1345856E+004
 -1.2574000E+004
 -1.4171958E+004
 -1.5978894E+004
 -1.7893975E+004
 -1.9879375E+004
 -2.1720648E+004
 -2.4108009E+004
 -2.5604489E+004
 -2.9164580E+004
 -2.6421974E+004
 -2.5697237E+004
 -4.7621295E+004
  1.0124875E+004
 -3.2251987E+003
 -6.5990877E+003
 -6.9052781E+003
 -6.5910552E+003
 -6.1990656E+003
 -5.6810679E+003
 -5.0027574E+003
 -4.1465733E+003
 -3.1773243E+003
 -2.1404327E+003
 -1.0789619E+003
 -5.2522478E+001
  8.5785704E+002
  1.4694485E+003
  1.6114704E+003
  1.1837611E+003
  3.9895025E+002
  6.7937872E+002
 -1.7780483E+004
 -1.5131716E+004
 -1.4518668E+004
 -1.2721217E+004
 -1.1829410E+004
 -1.1641364E+004
 -1.2152711E+004
 -1.3184550E+004
 -1.4586513E+004
 -1.6221744E+004
 -1.7976890E+004
 -1.9749769E+004
 -2.1502958E+004
 -2.3142758E+004
 -2.4584391E+004
 -2.7640642E+004
 -3.0687632E+004
 -3.4577351E+004
 -3.4215798E+004
 -2.1967630E+004
 -6.5490033E+004
  1.4307465E+004
 -7.8138209E+002
 -2.4311391E+004
 -1.2124879E+004
 -1.1262596E+004
 -9.1871250E+003
 -8.2183655E+003
 -7.2356496E+003
 -6.2869345E+003
 -5.2676024E+003
 -4.1982996E+003
 -3.1051845E+003
 -2.0239900E+003
 -9.9122966E+002
 -7.6175934E+001
  6.8026647E+002
  1.0057473E+003
  1.0053298E+003
  2.0961702E+002
  8.8998032E+002
 -1.2956195E+004
 -1.8348750E+004
 -1.3470169E+004
 -1.3046267E+004
 -1.2275996E+004
 -1.2251629E+004
 -1.2676189E+004
 -1.3543835E+004
 -1.4727512E+004
 -1.6121016E+004
 -1.7618979E+004
 -1.9138996E+004
 -2.0623019E+004
 -2.2087886E+004
 -2.3899266E+004
 -2.6287055E+004
 -2.8914006E+004
 -3.3524698E+004
 -3.8137347E+004
 -4.1882748E+004
 -4.1493727E+004
 -7.0976074E+004
 -4.4297891E+004
 -4.4119091E+004
 -4.2080299E+004
 -3.5985407E+004
 -3.9926103E+004
 -7.9619923E+003
 -7.0737197E+004
  1.3998148E+004
  8.6225469E+003
 -3.9586125E+004
 -1.9143387E+004
 -1.3718859E+004
 -1.8787236E+004
 -1.5060073E+004
 -1.3343816E+004
 -1.1238265E+004
 -9.7894602E+003
 -8.5160296E+003
 -7.3589379E+003
 -6.2264386E+003
 -5.1065442E+003
 -4.0064741E+003
 -2.9449273E+003
 -1.9463252E+003
 -1.0012017E+003
 -1.5423077E+002
  8.2962305E+002
  1.0649948E+003
  7.7093107E+002
  9.5508972E+002
  7.3220592E+003
 -1.4477116E+004
 -1.0096572E+004
 -1.2794149E+004
 -1.2602894E+004
 -1.2529946E+004
 -1.2355609E+004
 -1.2486202E+004
 -1.2911326E+004
 -1.3642102E+004
 -1.4615146E+004
 -1.5754167E+004
 -1.6980127E+004
 -1.8230825E+004
 -1.9484284E+004
 -2.0822100E+004
 -2.2381880E+004
 -2.4300711E+004
 -2.6779752E+004
 -2.9513424E+004
 -3.1552799E+004
 -3.3698961E+004
 -3.6433969E+004
 -3.8306209E+004
 -4.2209705E+004
 -4.5210000E+004
 -4.8926817E+004
 -4.7078688E+004
 -8.3933749E+004
 -5.0638013E+004
 -5.6003319E+004
 -4.4561074E+004
 -4.9821876E+004
 -4.0437250E+004
 -4.0693179E+004
 -3.6085504E+004
 -3.3731464E+004
 -3.2744884E+004
 -2.8033271E+004
 -3.0265499E+004
 -2.4741467E+004
 -2.9084782E+004
 -2.3677502E+004
 -2.8711401E+004
 -2.5448005E+004
 -3.0251953E+004
 -2.7317712E+004
 -2.7039798E+004
 -4.2835867E+004
 -2.6189273E+004
 -2.2879509E+004
 -1.9088645E+004
 -1.6028642E+004
 -1.4122184E+004
 -1.2366419E+004
 -1.0791779E+004
 -9.4135150E+003
 -8.1555044E+003
 -6.9748362E+003
 -5.8507313E+003
 -4.7833577E+003
 -3.7866450E+003
 -2.8595688E+003
 -2.0325566E+003
 -1.0840117E+003
 -3.4657028E+002
  2.5261631E+003
  3.6894154E+002
  3.5957782E+003
 -1.8763870E+004
 -1.5147977E+004
 -1.1564530E+004
 -1.1882534E+004
 -1.2070799E+004
 -1.2259585E+004
 -1.2501966E+004
 -1.2918558E+004
 -1.3525290E+004
 -1.4301634E+004
 -1.5198285E+004
 -1.6161390E+004
 -1.7150488E+004
 -1.8162691E+004
 -1.9238401E+004
 -2.0453617E+004
 -2.1878083E+004
 -2.3471527E+004
 -2.5035473E+004
 -2.6510258E+004
 -2.8077655E+004
 -3.0082592E+004
 -3.3155462E+004
 -3.6035854E+004
 -3.7673602E+004
 -3.8531523E+004
 -4.0220396E+004
 -4.0100467E+004
 -4.0412656E+004
 -3.8618449E+004
 -3.6930106E+004
 -3.4606956E+004
 -3.2935603E+004
 -3.1424013E+004
 -3.0087674E+004
 -2.7938420E+004
 -2.5968666E+004
 -2.3178819E+004
 -2.0776325E+004
 -1.8718924E+004
 -1.6398487E+004
 -1.4449862E+004
 -1.2801053E+004
 -1.1290179E+004
 -9.9071232E+003
 -8.6406328E+003
 -7.4694988E+003
 -6.3826611E+003
 -5.3797361E+003
 -4.4719897E+003
 -3.6738119E+003
 -3.0136237E+003
 -2.4385424E+003
 -2.0151656E+003
 -5.0811897E+002
  1.4457123E+003
  1.2650835E+004
  3.8774052E+003
 -4.5206073E+003
 -1.1119297E+004
 -1.1571919E+004
 -1.1963908E+004
 -1.2167429E+004
 -1.2426054E+004
 -1.2778015E+004
 -1.3255666E+004
 -1.3846181E+004
 -1.4518870E+004
 -1.5236258E+004
 -1.5970183E+004
 -1.6712105E+004
 -1.7476907E+004
 -1.8289771E+004
 -1.9157341E+004
 -2.0037460E+004
 -2.0885219E+004
 -2.1741969E+004
 -2.2865187E+004
 -2.4498951E+004
 -2.6465833E+004
 -2.8366224E+004
 -2.9737934E+004
 -3.0795918E+004
 -3.2005159E+004
 -3.3881502E+004
 -3.5492396E+004
 -3.7735692E+004
 -3.7645045E+004
 -3.7833199E+004
 -3.5714512E+004
 -3.3476634E+004
 -3.1106185E+004
 -2.7810013E+004
 -2.4602755E+004
 -2.2127471E+004
 -1.9935483E+004
 -1.7946467E+004
 -1.6122634E+004
 -1.4386327E+004
 -1.2802338E+004
 -1.1354439E+004
 -1.0021169E+004
 -8.7992578E+003
 -7.6825999E+003
 -6.6643841E+003
 -5.7435801E+003
 -4.9287795E+003
 -4.2463418E+003
 -3.7448183E+003
 -3.5484216E+003
 -3.8063009E+003
 -5.2139458E+003
 -7.4797047E+003
 -4.0985491E+003
 -9.7425417E+003
  1.6456201E+003
 -1.9600558E+004
 -1.5029218E+004
 -1.1882480E+004
 -1.2114530E+004
 -1.2054776E+004
 -1.2147636E+004
 -1.2300657E+004
 -1.2547655E+004
 -1.2885165E+004
 -1.3301384E+004
 -1.3770621E+004
 -1.4263463E+004
 -1.4754336E+004
 -1.5227477E+004
 -1.5676316E+004
 -1.6095818E+004
 -1.6470390E+004
 -1.6779101E+004
 -1.7023412E+004
 -1.7280582E+004
 -1.7690417E+004
 -1.8397635E+004
 -1.9376168E+004
 -2.0464679E+004
 -2.1385938E+004
 -2.2212724E+004
 -2.3490910E+004
 -2.6858279E+004
 -3.1957088E+004
 -3.5649520E+004
 -4.3560444E+004
 -4.0898005E+004
 -4.1474101E+004
 -3.7509161E+004
 -3.1902268E+004
 -2.7153032E+004
 -2.4157271E+004
 -2.1415502E+004
 -1.9132648E+004
 -1.7248482E+004
 -1.5536228E+004
 -1.3935061E+004
 -1.2430048E+004
 -1.1040659E+004
 -9.7742436E+003
 -8.6292264E+003
 -7.5991086E+003
 -6.6739084E+003
 -5.8445587E+003
 -5.1082756E+003
 -4.4770906E+003
 -3.9906697E+003
 -3.7535422E+003
 -3.9526530E+003
 -5.1297983E+003
 -7.2163027E+003
 -3.8961812E+003
 -9.2440536E+003
 -1.3350729E+004
 -1.3323508E+004
 -1.3214242E+004
 -1.2372059E+004
 -1.2186709E+004
 -1.2089098E+004
 -1.2123893E+004
 -1.2247462E+004
 -1.2449008E+004
 -1.2707457E+004
 -1.2998250E+004
 -1.3293889E+004
 -1.3568248E+004
 -1.3798600E+004
 -1.3964811E+004
 -1.4045506E+004
 -1.4016562E+004
 -1.3856353E+004
 -1.3563107E+004
 -1.3169309E+004
 -1.2745987E+004
 -1.2376896E+004
 -1.2264894E+004
 -1.2015905E+004
 -1.2040111E+004
 -1.1408692E+004
 -1.2976341E+004
 -1.2286071E+004
 -2.4272951E+004
 -4.1671330E+004
 -4.1811335E+004
 -6.8309788E+004
 -6.3847275E+004
 -3.1678532E+004
 -3.1947728E+004
 -2.6048569E+004
 -2.3375493E+004
 -2.0177885E+004
 -1.8082399E+004
 -1.6293719E+004
 -1.4683274E+004
 -1.3133752E+004
 -1.1679455E+004
 -1.0352240E+004
 -9.1698765E+003
 -8.1288175E+003
 -7.2146544E+003
 -6.4074681E+003
 -5.6837129E+003
 -5.0194590E+003
 -4.3881230E+003
 -3.7800114E+003
 -3.1210938E+003
 -2.4827676E+003
 -6.6402224E+002
  1.4880016E+003
  1.2272565E+004
  2.1191126E+003
 -1.2987849E+004
 -1.2934436E+004
 -1.2626101E+004
 -1.2401816E+004
 -1.2084225E+004
 -1.1928678E+004
 -1.1862635E+004
 -1.1883123E+004
 -1.1967220E+004
 -1.2093450E+004
 -1.2236616E+004
 -1.2370088E+004
 -1.2466831E+004
 -1.2500057E+004
 -1.2442304E+004
 -1.2263864E+004
 -1.1932222E+004
 -1.1414702E+004
 -1.0684022E+004
 -9.7181906E+003
 -8.5108850E+003
 -7.0287334E+003
 -5.3791116E+003
 -4.2174779E+003
 -1.8782769E+003
  4.4591758E+003
  5.1186353E+003
  2.4453502E+003
  8.5498634E+003
  1.4777753E+004
 -2.3403019E+004
 -4.1598845E+004
 -2.2092679E+004
 -2.1025539E+004
 -1.7833465E+004
 -1.6494593E+004
 -1.4978329E+004
 -1.3464294E+004
 -1.1931620E+004
 -1.0512613E+004
 -9.2657832E+003
 -8.1997781E+003
 -7.2971783E+003
 -6.5329097E+003
 -5.8759440E+003
 -5.2876151E+003
 -4.7231031E+003
 -4.1114172E+003
 -3.4108027E+003
 -2.3683019E+003
 -1.2944713E+003
  1.8776087E+003
  2.1127020E+002
  3.2226900E+003
 -1.2342199E+004
 -1.2327683E+004
 -1.2213068E+004
 -1.2021514E+004
 -1.1811502E+004
 -1.1624861E+004
 -1.1508777E+004
 -1.1456631E+004
 -1.1453807E+004
 -1.1479651E+004
 -1.1510982E+004
 -1.1522864E+004
 -1.1489147E+004
 -1.1382379E+004
 -1.1173009E+004
 -1.0828160E+004
 -1.0310330E+004
 -9.5772709E+003
 -8.5776206E+003
 -7.2597900E+003
 -5.5252983E+003
 -3.4014896E+003
 -3.4112157E+002
  3.0641897E+003
  1.0447225E+004
  5.5607554E+003
 -5.6558482E+003
 -1.4806474E+004
 -1.5370131E+004
 -1.5143728E+004
 -1.4430580E+004
 -1.3269249E+004
 -1.1760445E+004
 -1.0205605E+004
 -8.8614637E+003
 -7.7565996E+003
 -6.8600391E+003
 -6.1407918E+003
 -5.5647988E+003
 -5.0956676E+003
 -4.6885140E+003
 -4.2815777E+003
 -3.7981319E+003
 -3.1194273E+003
 -2.1990849E+003
 -8.0606210E+002
  5.8020098E+001
  4.3930666E+002
  6.1930309E+002
 -1.1912162E+004
 -1.1869912E+004
 -1.1763643E+004
 -1.1585965E+004
 -1.1389483E+004
 -1.1203132E+004
 -1.1068081E+004
 -1.0977612E+004
 -1.0920772E+004
 -1.0880379E+004
 -1.0837141E+004
 -1.0769733E+004
 -1.0655229E+004
 -1.0468931E+004
 -1.0183706E+004
 -9.7691168E+003
 -9.1890891E+003
 -8.4025278E+003
 -7.3496489E+003
 -5.9883687E+003
 -4.1589671E+003
 -2.1540992E+003
  9.1274796E+002
 -1.5289429E+002
  2.3601317E+003
 -1.1881597E+004
 -1.2751980E+004
 -1.2246737E+004
 -1.2111941E+004
 -1.1056835E+004
 -9.2666126E+003
 -7.7960247E+003
 -6.6906929E+003
 -5.8287680E+003
 -5.1736370E+003
 -4.6832023E+003
 -4.3291544E+003
 -4.0806160E+003
 -3.8976855E+003
 -3.7232454E+003
 -3.4722693E+003
 -3.0526500E+003
 -2.3480775E+003
 -1.5087602E+003
 -6.0788865E+002
 -3.1265982E+002
  3.5725881E+002
 -1.1514085E+004
 -1.1554720E+004
 -1.1284325E+004
 -1.1115151E+004
 -1.0845014E+004
 -1.0688684E+004
 -1.0558961E+004
 -1.0461182E+004
 -1.0380092E+004
 -1.0305139E+004
 -1.0222014E+004
 -1.0114855E+004
 -9.9660088E+003
 -9.7563110E+003
 -9.4649197E+003
 -9.0686723E+003
 -8.5415779E+003
 -7.8515411E+003
 -6.9647009E+003
 -5.8212919E+003
 -4.4268863E+003
 -2.6046801E+003
 -1.1690772E+003
 -1.7603556E+002
  7.6574113E+002
 -9.4009589E+003
 -1.1335666E+004
 -8.9162677E+003
 -7.3541491E+003
 -5.5134551E+003
 -4.7531264E+003
 -4.0500083E+003
 -3.5657324E+003
 -3.2063849E+003
 -2.9748520E+003
 -2.8557424E+003
 -2.8381137E+003
 -2.9001590E+003
 -3.0017438E+003
 -3.0765239E+003
 -3.0231010E+003
 -2.7457101E+003
 -2.1649198E+003
 -1.3562779E+003
 -5.5852911E+002
 -4.2298993E+001
 -1.1364975E+004
 -1.1016837E+004
 -1.1019066E+004
 -1.0316161E+004
 -1.0223893E+004
 -1.0095092E+004
 -1.0010500E+004
 -9.9248084E+003
 -9.8433609E+003
 -9.7588611E+003
 -9.6645014E+003
 -9.5504600E+003
 -9.4056507E+003
 -9.2181130E+003
 -8.9755271E+003
 -8.6657439E+003
 -8.2763367E+003
 -7.7975325E+003
 -7.2125769E+003
 -6.5343533E+003
 -5.6676044E+003
 -4.8667517E+003
 -2.9236891E+003
 -2.0300154E+003
  7.4213627E+002
  5.5625027E+002
 -3.0855910E+002
 -7.7606913E+002
 -1.3476405E+003
 -1.2795295E+003
 -1.2132759E+003
 -1.1224430E+003
 -1.0787581E+003
 -1.0948502E+003
 -1.1896998E+003
 -1.3758932E+003
 -1.6582377E+003
 -2.0248483E+003
 -2.4363546E+003
 -2.8094074E+003
 -2.9904914E+003
 -2.7719054E+003
 -1.9863534E+003
 -8.3733884E+002
 -6.0526024E+002
 -1.4504518E+004
 -1.1705848E+004
 -9.0659942E+003
 -9.5345642E+003
 -9.4738633E+003
 -9.4963307E+003
 -9.4476448E+003
 -9.3895726E+003
 -9.3190005E+003
 -9.2419885E+003
 -9.1565662E+003
 -9.0594107E+003
 -8.9458479E+003
 -8.8113587E+003
 -8.6526378E+003
 -8.4685507E+003
 -8.2624160E+003
 -8.0406722E+003
 -7.8273327E+003
 -7.6214267E+003
 -7.5571563E+003
 -7.2571021E+003
 -7.8322939E+003
 -2.9681739E+003
 -2.1819203E+003
  1.1566189E+004
  4.5145206E+003
  4.0149537E+003
  2.3232555E+003
  1.9122541E+003
  1.5141344E+003
  1.2745061E+003
  1.0604343E+003
  8.5065027E+002
  6.0375655E+002
  2.8501824E+002
 -1.3981497E+002
 -6.8574212E+002
 -1.3428107E+003
 -2.0687489E+003
 -2.7211959E+003
 -2.9762316E+003
 -2.6363499E+003
 -1.0966298E+003
 -8.8359697E+002
  3.1014984E+003
 -3.3321187E+003
 -8.1501288E+003
 -8.5789089E+003
 -8.8867234E+003
 -8.9195151E+003
 -8.9117330E+003
 -8.8675328E+003
 -8.8117750E+003
 -8.7496382E+003
 -8.6848653E+003
 -8.6184555E+003
 -8.5512316E+003
 -8.4849532E+003
 -8.4237625E+003
 -8.3755822E+003
 -8.3542498E+003
 -8.3805819E+003
 -8.4894997E+003
 -8.7158643E+003
 -9.1573794E+003
 -9.7461348E+003
 -1.1133093E+004
 -1.2546256E+004
 -1.7439752E+004
  4.8621644E+003
 -4.6463152E+003
  1.3744196E+003
  2.7845942E+003
  5.2447505E+003
  4.9647226E+003
  4.3975273E+003
  3.8677484E+003
  3.4221305E+003
  3.0564284E+003
  2.7394097E+003
  2.4332441E+003
  2.0897384E+003
  1.6525566E+003
  1.0682583E+003
  3.5417653E+002
 -4.2476372E+002
 -1.3487416E+003
 -1.7992849E+003
 -1.6323864E+003
 -8.5730316E+001
 -4.5489169E+003
 -1.3871171E+004
 -1.0478429E+004
 -8.1892312E+003
 -8.4372631E+003
 -8.4188307E+003
 -8.4355106E+003
 -8.4053068E+003
 -8.3648381E+003
 -8.3179440E+003
 -8.2724633E+003
 -8.2324487E+003
 -8.2018389E+003
 -8.1849922E+003
 -8.1879922E+003
 -8.2197631E+003
 -8.2933544E+003
 -8.4270370E+003
 -8.6459284E+003
 -8.9800497E+003
 -9.4695896E+003
 -1.0128563E+004
 -1.1011228E+004
 -1.1864716E+004
 -1.1815143E+004
 -1.1922640E+004
 -1.2583246E+004
 -1.1045734E+004
  2.1250530E+003
  2.8481119E+003
  7.0137977E+003
  6.6277463E+003
  6.7883588E+003
  6.2583937E+003
  5.6987853E+003
  5.1874980E+003
  4.7713265E+003
  4.4421578E+003
  4.1754527E+003
  3.9288969E+003
  3.6379398E+003
  3.2180805E+003
  2.5891085E+003
  2.0854541E+003
  2.0233548E+003
  1.1942196E+003
  1.7372980E+003
  3.4551268E+003
  8.6335605E+003
 -8.7927862E+003
 -8.8193406E+003
 -8.7434059E+003
 -8.1763329E+003
 -8.0690326E+003
 -7.9770450E+003
 -7.9204545E+003
 -7.8695598E+003
 -7.8280366E+003
 -7.7972418E+003
 -7.7812159E+003
 -7.7846354E+003
 -7.8136854E+003
 -7.8765479E+003
 -7.9841041E+003
 -8.1504539E+003
 -8.3931610E+003
 -8.7321056E+003
 -9.1875263E+003
 -9.7681655E+003
 -1.0465577E+004
 -1.1180310E+004
 -1.1682845E+004
 -1.2062762E+004
 -1.2620424E+004
 -1.3265444E+004
 -1.3640208E+004
 -1.3650214E+004
  1.9037482E+004
  9.3413326E+003
  1.0133594E+004
  8.4846079E+003
  8.1474952E+003
  7.5243199E+003
  6.9827202E+003
  6.4841736E+003
  6.0988147E+003
  5.8296342E+003
  5.6762260E+003
  5.6206752E+003
  5.6227603E+003
  5.5846825E+003
  5.3588193E+003
  4.5708981E+003
  5.8134447E+003
  1.0111091E+004
  2.4397600E+004
  1.2697929E+004
 -8.1926562E+003
 -8.1600978E+003
 -7.9467926E+003
 -7.8196323E+003
 -7.6163371E+003
 -7.5059544E+003
 -7.4228509E+003
 -7.3659563E+003
 -7.3280647E+003
 -7.3099689E+003
 -7.3142142E+003
 -7.3455596E+003
 -7.4105469E+003
 -7.5176799E+003
 -7.6774931E+003
 -7.9023928E+003
 -8.2057763E+003
 -8.6000397E+003
 -9.0915240E+003
 -9.6737324E+003
 -1.0309704E+004
 -1.0925028E+004
 -1.1476968E+004
 -1.2007835E+004
 -1.2697056E+004
 -1.3574092E+004
 -1.4609655E+004
 -1.4838936E+004
 -1.4063480E+004
  7.7726565E+003
 -3.6661279E+003
  2.7857967E+003
  9.4173178E+003
  9.6571480E+003
  9.5136882E+003
  8.7515309E+003
  8.2093186E+003
  7.6926068E+003
  7.2743449E+003
  6.9639738E+003
  6.7884329E+003
  6.7677681E+003
  6.9183438E+003
  7.2696880E+003
  7.7470383E+003
  8.4068515E+003
  7.9629600E+003
  6.2787094E+003
  8.2466824E+002
 -9.1271934E+003
 -7.3911538E+003
 -7.3882564E+003
 -7.3191727E+003
 -7.2100257E+003
 -7.0915728E+003
 -6.9774499E+003
 -6.8944755E+003
 -6.8377225E+003
 -6.8057785E+003
 -6.7983772E+003
 -6.8179191E+003
 -6.8687843E+003
 -6.9571217E+003
 -7.0905953E+003
 -7.2780600E+003
 -7.5288923E+003
 -7.8517013E+003
 -8.2519149E+003
 -8.7282971E+003
 -9.2677442E+003
 -9.8436606E+003
 -1.0430467E+004
 -1.1034033E+004
 -1.1730624E+004
 -1.2618901E+004
 -1.3764014E+004
 -1.5137158E+004
 -1.6579185E+004
 -1.7077902E+004
 -1.5172928E+004
  2.5476564E+004
  1.4818166E+004
  1.1267827E+004
  9.4878845E+003
  9.1838128E+003
  8.6793691E+003
  8.2428023E+003
  7.8607024E+003
  7.5526631E+003
  7.3382111E+003
  7.2456226E+003
  7.3087977E+003
  7.5826023E+003
  8.1128948E+003
  9.0797781E+003
  1.0271952E+004
  1.2989446E+004
  1.3081208E+004
  2.9454514E+004
  1.0949553E+004
 -6.7731239E+003
 -6.7536912E+003
 -6.6841154E+003
 -6.5955452E+003
 -6.4943453E+003
 -6.3982996E+003
 -6.3255432E+003
 -6.2770860E+003
 -6.2531080E+003
 -6.2544025E+003
 -6.2835716E+003
 -6.3447511E+003
 -6.4433571E+003
 -6.5857023E+003
 -6.7784719E+003
 -7.0279057E+003
 -7.3385291E+003
 -7.7114486E+003
 -8.1423906E+003
 -8.6211828E+003
 -9.1357346E+003
 -9.6845090E+003
 -1.0291728E+004
 -1.1023994E+004
 -1.1949187E+004
 -1.3268529E+004
 -1.4806283E+004
 -1.8254696E+004
 -2.0413281E+004
 -4.2818618E+004
 -7.6807482E+003
  1.2237424E+004
  2.0280983E+004
  1.0018792E+004
  9.5180550E+003
  9.1927607E+003
  8.5557743E+003
  8.1328892E+003
  7.9458189E+003
  7.7388669E+003
  7.5440221E+003
  7.3726002E+003
  7.2475198E+003
  7.1973735E+003
  7.2507625E+003
  7.4768198E+003
  7.8620749E+003
  8.8139472E+003
  9.3285316E+003
  1.3576727E+004
  4.7207118E+003
  7.6355155E+003
 -6.1714751E+003
 -6.1952409E+003
 -6.0564405E+003
 -5.9739884E+003
 -5.8479481E+003
 -5.7756900E+003
 -5.7187769E+003
 -5.6833338E+003
 -5.6678329E+003
 -5.6749251E+003
 -5.7076174E+003
 -5.7699796E+003
 -5.8666365E+003
 -6.0024678E+003
 -6.1820644E+003
 -6.4090002E+003
 -6.6849095E+003
 -7.0085438E+003
 -7.3753835E+003
 -7.7789598E+003
 -8.2151418E+003
 -8.6899787E+003
 -9.2266321E+003
 -9.8719599E+003
 -1.0682502E+004
 -1.1757975E+004
 -1.3134587E+004
 -1.5261469E+004
 -1.6860643E+004
 -1.8555346E+004
 -1.4975990E+004
 -4.3207022E+004
 -1.4967679E+004
 -1.6518738E+004
 -3.8464360E+003
 -1.2067510E+004
 -1.0241419E+003
  1.1263043E+004
  3.5466873E+003
  4.6538286E+003
  5.4876819E+003
  5.8649166E+003
  6.4077953E+003
  6.6334503E+003
  6.7790313E+003
  6.8564479E+003
  6.8670378E+003
  6.8342295E+003
  6.7796548E+003
  6.7228163E+003
  6.6824325E+003
  6.6678433E+003
  6.7034949E+003
  6.7129841E+003
  6.8271369E+003
  5.9457159E+003
  5.2252058E+003
  1.0988881E+004
 -5.7261146E+003
 -5.5472960E+003
 -5.5348089E+003
 -5.2135595E+003
 -5.1716374E+003
 -5.1153984E+003
 -5.0846552E+003
 -5.0615209E+003
 -5.0529168E+003
 -5.0614086E+003
 -5.0911933E+003
 -5.1461595E+003
 -5.2302278E+003
 -5.3469566E+003
 -5.4991617E+003
 -5.6883714E+003
 -5.9142689E+003
 -6.1743426E+003
 -6.4641780E+003
 -6.7789306E+003
 -7.1162816E+003
 -7.4800709E+003
 -7.8829569E+003
 -8.3440417E+003
 -8.8837726E+003
 -9.5014533E+003
 -1.0160375E+004
 -1.0574023E+004
 -1.0141446E+004
 -9.5112099E+003
 -9.3188374E+003
 -6.6722370E+003
 -4.8560273E+003
 -1.8063742E+003
 -7.3724767E+002
  4.5677171E+002
  1.9636228E+003
  3.2527487E+003
  4.2293738E+003
  4.9610777E+003
  5.4579583E+003
  5.7882683E+003
  5.9859450E+003
  6.0732112E+003
  6.0672436E+003
  5.9759778E+003
  5.7939290E+003
  5.4955874E+003
  5.0137346E+003
  4.2278228E+003
  2.8681744E+003
  5.2671746E+002
 -2.6679223E+003
 -1.8607126E+003
 -7.1504079E+003
  1.4807383E+003
 -6.6264249E+003
 -5.4566119E+003
 -4.2636686E+003
 -4.4742707E+003
 -4.4395649E+003
 -4.4503754E+003
 -4.4342906E+003
 -4.4219059E+003
 -4.4144470E+003
 -4.4187926E+003
 -4.4389660E+003
 -4.4788427E+003
 -4.5415601E+003
 -4.6295448E+003
 -4.7441853E+003
 -4.8854991E+003
 -5.0518330E+003
 -5.2397986E+003
 -5.4446604E+003
 -5.6613308E+003
 -5.8857822E+003
 -6.1161349E+003
 -6.3518424E+003
 -6.5895107E+003
 -6.8122435E+003
 -6.9724387E+003
 -6.9559107E+003
 -6.5632115E+003
 -5.8670052E+003
 -5.1370609E+003
 -4.2892062E+003
 -3.9285034E+003
 -3.0454132E+003
 -2.5916333E+003
 -1.8027553E+003
 -9.4465326E+002
  1.9349872E+002
  1.4438247E+003
  2.5755605E+003
  3.4993108E+003
  4.2088726E+003
  4.7195060E+003
  5.0556262E+003
  5.2335648E+003
  5.2609844E+003
  5.1347128E+003
  4.8348803E+003
  4.3148066E+003
  3.4861459E+003
  2.2103846E+003
  3.0722583E+002
 -1.9057174E+003
 -3.1744581E+003
 -1.6310019E+003
 -1.9907821E+003
  1.3640767E+003
 -1.4244494E+003
 -3.4867734E+003
 -3.6597224E+003
 -3.7831642E+003
 -3.7924369E+003
 -3.7882837E+003
 -3.7734467E+003
 -3.7603336E+003
 -3.7536425E+003
 -3.7578156E+003
 -3.7760095E+003
 -3.8106077E+003
 -3.8630217E+003
 -3.9335282E+003
 -4.0210459E+003
 -4.1229858E+003
 -4.2352654E+003
 -4.3525668E+003
 -4.4688000E+003
 -4.5775001E+003
 -4.6715455E+003
 -4.7413604E+003
 -4.7706576E+003
 -4.7296257E+003
 -4.5673287E+003
 -4.2130892E+003
 -3.6548626E+003
 -2.9760363E+003
 -2.3798729E+003
 -2.0801880E+003
 -1.8958693E+003
 -1.9600555E+003
 -1.9084571E+003
 -1.7793495E+003
 -1.3132586E+003
 -5.2217384E+002
  4.6694799E+002
  1.4877082E+003
  2.4146104E+003
  3.1875542E+003
  3.7855561E+003
  4.2037198E+003
  4.4414580E+003
  4.4954137E+003
  4.3561424E+003
  4.0036772E+003
  3.4038742E+003
  2.4989021E+003
  1.2363831E+003
 -4.1828325E+002
 -2.1150191E+003
 -2.9340122E+003
 -1.4549313E+003
 -1.6481654E+003
 -5.6460921E+003
 -4.1290225E+003
 -3.1299680E+003
 -3.2031738E+003
 -3.1818074E+003
 -3.1752851E+003
 -3.1515719E+003
 -3.1246354E+003
 -3.0970012E+003
 -3.0729820E+003
 -3.0554722E+003
 -3.0468221E+003
 -3.0485215E+003
 -3.0611156E+003
 -3.0840266E+003
 -3.1154121E+003
 -3.1520795E+003
 -3.1895019E+003
 -3.2219393E+003
 -3.2425813E+003
 -3.2435010E+003
 -3.2151006E+003
 -3.1447468E+003
 -3.0147072E+003
 -2.8007199E+003
 -2.4749555E+003
 -2.0269319E+003
 -1.4884986E+003
 -9.6532830E+002
 -5.9622767E+002
 -4.6240307E+002
 -6.1186731E+002
 -8.8022511E+002
 -1.1728705E+003
 -1.2753255E+003
 -1.1060835E+003
 -6.3328604E+002
  7.2356070E+001
  8.9150814E+002
  1.7119554E+003
  2.4526834E+003
  3.0639953E+003
  3.5157891E+003
  3.7882472E+003
  3.8669730E+003
  3.7408773E+003
  3.4026996E+003
  2.8490201E+003
  2.0952108E+003
  1.1701818E+003
  2.3616095E+002
 -7.5453104E+002
 -2.1801931E+003
 -1.3443450E+003
 -5.0598270E+003
 -3.0057979E+003
 -3.0432343E+003
 -2.9652803E+003
 -2.7064194E+003
 -2.6348401E+003
 -2.5742670E+003
 -2.5259516E+003
 -2.4774268E+003
 -2.4295423E+003
 -2.3830796E+003
 -2.3396866E+003
 -2.3006325E+003
 -2.2665980E+003
 -2.2374043E+003
 -2.2118640E+003
 -2.1876740E+003
 -2.1613704E+003
 -2.1283452E+003
 -2.0829115E+003
 -2.0183566E+003
 -1.9268889E+003
 -1.7994018E+003
 -1.6251560E+003
 -1.3919751E+003
 -1.0883910E+003
 -7.1099806E+002
 -2.7623886E+002
  1.6444683E+002
  5.2745175E+002
  7.1943612E+002
  6.7740408E+002
  4.2579118E+002
  3.1676163E+001
 -3.5783930E+002
 -6.2119811E+002
 -6.5133084E+002
 -4.1813778E+002
  4.4047163E+001
  6.5844411E+002
  1.3363256E+003
  1.9983123E+003
  2.5809855E+003
  3.0358533E+003
  3.3265794E+003
  3.4283341E+003
  3.3301224E+003
  3.0380135E+003
  2.5869488E+003
  2.0372181E+003
  1.5543213E+003
  1.2107928E+003
  1.8199105E+003
  2.5239141E+003
  8.7359883E+003
  2.6113515E+003
 -2.4060658E+003
 -2.3845380E+003
 -2.2505686E+003
 -2.1707706E+003
 -2.0561957E+003
 -1.9771950E+003
 -1.9033337E+003
 -1.8325630E+003
 -1.7612900E+003
 -1.6895133E+003
 -1.6176961E+003
 -1.5463724E+003
 -1.4755660E+003
 -1.4045713E+003
 -1.3318210E+003
 -1.2548298E+003
 -1.1701898E+003
 -1.0736172E+003
 -9.6004082E+002
 -8.2371768E+002
 -6.5837405E+002
 -4.5744062E+002
 -2.1463165E+002
  7.4587471E+001
  4.0969060E+002
  7.7962680E+002
  1.1557961E+003
  1.4889863E+003
  1.7145346E+003
  1.7718440E+003
  1.6311709E+003
  1.3070378E+003
  8.7303740E+002
  4.2749732E+002
  8.1852666E+001
 -8.3079167E+001
 -2.7429277E+001
  2.4061802E+002
  6.7640863E+002
  1.2157953E+003
  1.7891008E+003
  2.3292279E+003
  2.7754959E+003
  3.0771612E+003
  3.1981106E+003
  3.1242128E+003
  2.8683932E+003
  2.4880316E+003
  2.0599371E+003
  1.8086378E+003
  1.6256197E+003
  2.6916144E+003
  8.4678315E+002
  1.7918662E+003
 -1.6989492E+003
 -1.7004889E+003
 -1.6201699E+003
 -1.5473271E+003
 -1.4628045E+003
 -1.3723251E+003
 -1.2824122E+003
 -1.1905271E+003
 -1.0955147E+003
 -9.9725414E+002
 -8.9609867E+002
 -7.9220002E+002
 -6.8516781E+002
 -5.7395977E+002
 -4.5683566E+002
 -3.3136832E+002
 -1.9449313E+002
 -4.2604778E+001
  1.2828947E+002
  3.2234074E+002
  5.4350691E+002
  7.9496828E+002
  1.0781002E+003
  1.3906859E+003
  1.7241799E+003
  2.0602554E+003
  2.3682298E+003
  2.6056799E+003
  2.7255065E+003
  2.6889466E+003
  2.4808975E+003
  2.1224834E+003
  1.6680059E+003
  1.1983502E+003
  7.9761258E+002
  5.3733754E+002
  4.6012238E+002
  5.7584024E+002
  8.6488256E+002
  1.2854587E+003
  1.7807123E+003
  2.2842786E+003
  2.7260710E+003
  3.0401706E+003
  3.1761064E+003
  3.1097542E+003
  2.8540042E+003
  2.4591249E+003
  2.0299138E+003
  1.6493005E+003
  1.5425419E+003
  1.1076017E+003
  7.6823926E+002
  1.4456076E+002
 -1.0953646E+003
 -1.0917439E+003
 -1.0080796E+003
 -9.4603529E+002
 -8.6345851E+002
 -7.6841794E+002
 -6.6554159E+002
 -5.5431143E+002
 -4.3568648E+002
 -3.1088789E+002
 -1.8077533E+002
 -4.5347146E+001
  9.6035742E+001
  2.4461982E+002
  4.0215994E+002
  5.7084055E+002
  7.5316943E+002
  9.5183105E+002
  1.1694699E+003
  1.4083692E+003
  1.6699684E+003
  1.9541346E+003
  2.2580748E+003
  2.5748174E+003
  2.8913636E+003
  3.1870521E+003
  3.4331671E+003
  3.5953002E+003
  3.6392829E+003
  3.5403376E+003
  3.2927286E+003
  2.9155499E+003
  2.4534517E+003
  1.9682247E+003
  1.5281451E+003
  1.1943043E+003
  1.0116062E+003
  1.0035887E+003
  1.1714712E+003
  1.4945686E+003
  1.9303499E+003
  2.4151031E+003
  2.8684367E+003
  3.2057557E+003
  3.3552244E+003
  3.2778351E+003
  2.9772193E+003
  2.5004155E+003
  1.9205538E+003
  1.3495325E+003
  8.2197522E+002
  4.4227997E+002
  1.4247678E+002
  2.7706398E+000
 -5.1319786E+002
 -5.6063370E+002
 -4.2738368E+002
 -3.7661704E+002
 -2.7146522E+002
 -1.7541607E+002
 -5.9081716E+001
  7.2036539E+001
  2.1492060E+002
  3.6554585E+002
  5.2318534E+002
  6.8791264E+002
  8.6068132E+002
  1.0428740E+003
  1.2361678E+003
  1.4423796E+003
  1.6633305E+003
  1.9006688E+003
  2.1556195E+003
  2.4286238E+003
  2.7188264E+003
  3.0233680E+003
  3.3364646E+003
  3.6483255E+003
  3.9441314E+003
  4.2035276E+003
  4.4013312E+003
  4.5101160E+003
  4.5049534E+003
  4.3695893E+003
  4.1024124E+003
  3.7202235E+003
  3.2577068E+003
  2.7633273E+003
  2.2917679E+003
  1.8964727E+003
  1.6233393E+003
  1.5069787E+003
  1.5677895E+003
  1.8073928E+003
  2.2009228E+003
  2.6892398E+003
  3.1796490E+003
  3.5587824E+003
  3.7263562E+003
  3.6214895E+003
  3.2429407E+003
  2.6400605E+003
  1.8815725E+003
  1.0312666E+003
  2.3321430E+002
 -2.6496550E+002
 -2.1854286E+002
 -4.0995998E+002
 -5.8843478E+001
 -3.7097336E+001
  1.1061792E+002
  2.1832532E+002
  2.9774242E+002
  3.9570063E+002
  5.2963203E+002
  6.8699883E+002
  8.5384687E+002
  1.0289932E+003
  1.2114609E+003
  1.4021883E+003
  1.6024634E+003
  1.8138501E+003
  2.0378797E+003
  2.2759260E+003
  2.5290613E+003
  2.7978874E+003
  3.0822909E+003
  3.3810972E+003
  3.6916035E+003
  4.0089880E+003
  4.3256320E+003
  4.6304569E+003
  4.9084896E+003
  5.1409899E+003
  5.3065273E+003
  5.3833055E+003
  5.3526792E+003
  5.2033273E+003
  4.9350458E+003
  4.5609557E+003
  4.1074467E+003
  3.6115616E+003
  3.1169629E+003
  2.6695553E+003
  2.3144810E+003
  2.0946046E+003
  2.0487439E+003
  2.2045982E+003
  2.5627967E+003
  3.0754601E+003
  3.6316826E+003
  4.0828289E+003
  4.2748717E+003
  4.1247233E+003
  3.6376454E+003
  2.8934630E+003
  2.0068161E+003
  1.0012101E+003
 -8.2045162E+001
 -9.2459606E+002
 -4.5742163E+002
 -7.1728679E+002
  8.0954580E+002
  7.3248398E+002
  8.1198739E+002
  8.0401192E+002
  9.2651014E+002
  1.1086137E+003
  1.2904749E+003
  1.4811833E+003
  1.6770422E+003
  1.8804075E+003
  2.0926878E+003
  2.3158758E+003
  2.5516433E+003
  2.8013317E+003
  3.0657993E+003
  3.3453464E+003
  3.6395839E+003
  3.9472305E+003
  4.2658189E+003
  4.5913146E+003
  4.9176733E+003
  5.2363985E+003
  5.5362035E+003
  5.8029476E+003
  6.0200525E+003
  6.1696015E+003
  6.2342049E+003
  6.1995062E+003
  6.0569210E+003
  5.8060110E+003
  5.4558989E+003
  5.0253335E+003
  4.5415018E+003
  4.0379374E+003
  3.5523421E+003
  3.1255306E+003
  2.8031104E+003
  2.6383729E+003
  2.6898919E+003
  2.9987179E+003
  3.5421341E+003
  4.2024401E+003
  4.7470562E+003
  4.9728843E+003
  4.7424852E+003
  4.0928100E+003
  3.1868760E+003
  2.2195697E+003
  1.3870671E+003
  5.2887515E+002
 -1.0226491E+003
 -8.2291692E+002
 -4.3388925E+003
  2.1478486E+003
  1.3562545E+003
  1.1412094E+003
  1.1636617E+003
  1.4879030E+003
  1.6789475E+003
  1.8912813E+003
  2.0962720E+003
  2.3080399E+003
  2.5263148E+003
  2.7548578E+003
  2.9958281E+003
  3.2510575E+003
  3.5215326E+003
  3.8075116E+003
  4.1084978E+003
  4.4231955E+003
  4.7493638E+003
  5.0835881E+003
  5.4209920E+003
  5.7549349E+003
  6.0767604E+003
  6.3756872E+003
  6.6389533E+003
  6.8523331E+003
  7.0011011E+003
  7.0714324E+003
  7.0520895E+003
  6.9361182E+003
  6.7222249E+003
  6.4155917E+003
  6.0281030E+003
  5.5781103E+003
  5.0898013E+003
  4.5921870E+003
  4.1177332E+003
  3.7042510E+003
  3.4065859E+003
  3.3092495E+003
  3.5148589E+003
  4.0716417E+003
  4.8298285E+003
  5.5401175E+003
  5.7677642E+003
  5.3835228E+003
  4.4669652E+003
  3.3068422E+003
  2.2765552E+003
  1.5831462E+003
  2.0051529E+003
  2.5816313E+003
  8.2958581E+003
  2.7658293E+003
 -4.7364654E+002
  9.9143398E+000
  9.6535379E+002
  1.8836492E+003
  2.0396225E+003
  2.2806594E+003
  2.4843648E+003
  2.7008622E+003
  2.9182809E+003
  3.1450984E+003
  3.3837280E+003
  3.6372899E+003
  3.9072723E+003
  4.1941512E+003
  4.4974006E+003
  4.8156908E+003
  5.1469093E+003
  5.4880728E+003
  5.8351479E+003
  6.1828385E+003
  6.5243939E+003
  6.8514989E+003
  7.1543151E+003
  7.4217404E+003
  7.6419364E+003
  7.8031285E+003
  7.8946115E+003
  7.9078087E+003
  7.8371803E+003
  7.6808030E+003
  7.4406093E+003
  7.1225657E+003
  6.7372045E+003
  6.3006798E+003
  5.8347399E+003
  5.3644118E+003
  4.9100088E+003
  4.4941059E+003
  4.1960535E+003
  4.1917746E+003
  4.6436931E+003
  5.5746595E+003
  6.3050175E+003
  6.5452248E+003
  5.8442012E+003
  4.5147745E+003
  3.0024645E+003
  1.8043309E+003
  9.4843444E+002
  1.7184094E+003
  2.4595647E+002
  1.3848422E+003
  3.6708731E+003
  2.8098318E+003
  2.5848877E+003
  2.6853111E+003
  2.8663643E+003
  3.0790465E+003
  3.2870490E+003
  3.5036686E+003
  3.7307519E+003
  3.9736413E+003
  4.2349102E+003
  4.5156570E+003
  4.8153356E+003
  5.1324147E+003
  5.4646707E+003
  5.8092852E+003
  6.1627572E+003
  6.5207370E+003
  6.8778539E+003
  7.2275991E+003
  7.5623155E+003
  7.8733400E+003
  8.1513319E+003
  8.3867958E+003
  8.5707597E+003
  8.6955087E+003
  8.7552128E+003
  8.7462592E+003
  8.6671669E+003
  8.5181173E+003
  8.3006039E+003
  8.0184152E+003
  7.6806870E+003
  7.3067093E+003
  6.9222097E+003
  6.5480713E+003
  6.1479974E+003
  5.6636158E+003
  5.2650746E+003
  5.4573577E+003
  6.0184110E+003
  7.2488231E+003
  7.0294418E+003
  5.7737360E+003
  3.7859804E+003
  2.0379458E+003
  7.6040340E+002
 -7.3413217E+001
 -8.7215440E+002
 -2.4440287E+002
 -4.4024956E+002
  2.7461700E+003
  3.0457460E+003
  3.0945359E+003
  3.2158505E+003
  3.4712774E+003
  3.6512125E+003
  3.8513546E+003
  4.0550795E+003
  4.2759897E+003
  4.5175399E+003
  4.7830051E+003
  5.0717827E+003
  5.3817644E+003
  5.7100867E+003
  6.0536413E+003
  6.4090761E+003
  6.7726311E+003
  7.1399251E+003
  7.5057876E+003
  7.8641854E+003
  8.2082809E+003
  8.5306480E+003
  8.8236584E+003
  9.0800237E+003
  9.2934348E+003
  9.4591825E+003
  9.5745770E+003
  9.6389603E+003
  9.6531019E+003
  9.6180487E+003
  9.5335555E+003
  9.3976721E+003
  9.2122745E+003
  8.9940199E+003
  8.7922805E+003
  8.6531021E+003
  8.6035541E+003
  8.3459217E+003
  7.5685683E+003
  6.7802985E+003
  7.6329135E+003
  6.6762805E+003
  6.3292406E+003
  4.0004328E+003
  1.6007770E+003
  9.4693854E+001
 -3.3765613E+002
 -5.4233666E+002
 -1.8063457E+003
 -1.2917226E+003
 -5.3804856E+003
  3.2918512E+003
  3.0699392E+003
  3.2385320E+003
  3.9564503E+003
  4.0152084E+003
  4.2127183E+003
  4.3765972E+003
  4.5639572E+003
  4.7698066E+003
  5.0073233E+003
  5.2757739E+003
  5.5718946E+003
  5.8909678E+003
  6.2287073E+003
  6.5813052E+003
  6.9451960E+003
  7.3166835E+003
  7.6916356E+003
  8.0652954E+003
  8.4322335E+003
  8.7864573E+003
  9.1216856E+003
  9.4317940E+003
  9.7114133E+003
  9.9566259E+003
  1.0165645E+004
  1.0339289E+004
  1.0480981E+004
  1.0596035E+004
  1.0689827E+004
  1.0765547E+004
  1.0820153E+004
  1.0842646E+004
  1.0841590E+004
  1.0871898E+004
  1.1130740E+004
  1.1672422E+004
  1.2844600E+004
  1.2772312E+004
  1.2697941E+004
  5.5767841E+003
  8.2382285E+003
  1.0929195E+003
 -8.7356819E+002
 -2.8733876E+003
 -2.3800039E+003
 -1.6646562E+003
  3.2471732E+002
  2.2341643E+003
  1.0670901E+004
  4.0522528E+003
 -1.4900215E+003
  4.0077796E+003
  5.0173702E+003
  4.3933150E+003
  4.6071903E+003
  4.7103232E+003
  4.8652145E+003
  5.0095636E+003
  5.1991115E+003
  5.4339107E+003
  5.7087065E+003
  6.0138487E+003
  6.3419450E+003
  6.6876231E+003
  7.0469789E+003
  7.4167553E+003
  7.7937210E+003
  8.1742652E+003
  8.5541961E+003
  8.9287206E+003
  9.2925959E+003
  9.6404514E+003
  9.9672867E+003
  1.0269147E+004
  1.0543949E+004
  1.0792372E+004
  1.1018643E+004
  1.1230937E+004
  1.1440916E+004
  1.1662431E+004
  1.1907270E+004
  1.2184752E+004
  1.2482198E+004
  1.2757366E+004
  1.3039580E+004
  1.3590939E+004
  1.4631410E+004
  1.7493075E+004
  1.9447560E+004
  3.6543046E+004
  2.6450211E+004
 -1.5056739E+004
 -2.6986508E+004
 -9.8529062E+003
 -7.0441380E+003
 -3.8465780E+003
 -2.7639980E+003
 -4.6264417E+002
 -7.5040671E+002
  1.6141179E+003
  4.7898349E+003
  4.7376754E+003
  4.8845785E+003
  5.0331180E+003
  5.2314520E+003
  5.2675996E+003
  5.3674422E+003
  5.5459168E+003
  5.7914985E+003
  6.0808481E+003
  6.3986361E+003
  6.7358510E+003
  7.0874992E+003
  7.4506514E+003
  7.8230678E+003
  8.2024125E+003
  8.5858242E+003
  8.9697506E+003
  9.3499765E+003
  9.7218147E+003
  1.0080454E+004
  1.0421484E+004
  1.0741619E+004
  1.1039663E+004
  1.1317691E+004
  1.1582366E+004
  1.1846025E+004
  1.2127221E+004
  1.2449659E+004
  1.2841638E+004
  1.3324750E+004
  1.3940513E+004
  1.4656113E+004
  1.5207748E+004
  1.6023862E+004
  1.7752278E+004
  1.9989875E+004
  2.2452388E+004
  1.6988687E+004
 -2.2421319E+003
 -2.0553095E+003
 -6.0037986E+003
 -3.1291409E+003
 -1.5368761E+003
 -2.2788430E+003
 -1.2745984E+003
 -6.7862730E+003
  4.8370786E+003
  4.9113946E+003
  5.0093522E+003
  5.8902967E+003
  5.6225230E+003
  5.5225530E+003
  5.5911964E+003
  5.8025676E+003
  6.0833531E+003
  6.3984665E+003
  6.7317101E+003
  7.0763438E+003
  7.4302659E+003
  7.7928328E+003
  8.1635388E+003
  8.5412761E+003
  8.9240467E+003
  9.3089083E+003
  9.6920802E+003
  1.0069169E+004
  1.0435513E+004
  1.0786669E+004
  1.1119108E+004
  1.1431206E+004
  1.1724672E+004
  1.2006413E+004
  1.2290723E+004
  1.2600761E+004
  1.2969270E+004
  1.3435663E+004
  1.4054469E+004
  1.4843061E+004
  1.6057257E+004
  1.7677997E+004
  1.7924234E+004
  1.9385746E+004
  2.2244055E+004
  2.5181854E+004
 -1.9829424E+003
 -1.0838461E+003
 -1.9306205E+003
 -1.4005633E+003
  1.3998581E+003
  3.8778831E+003
  1.4942655E+004
  6.4480237E+003
 -2.2017219E+003
  6.4257016E+003
  7.5612613E+003
  6.4801271E+003
  5.6202370E+003
  5.4868746E+003
  5.6743857E+003
  5.9901118E+003
  6.3302340E+003
  6.6773936E+003
  7.0228534E+003
  7.3689788E+003
  7.7184643E+003
  8.0740803E+003
  8.4373920E+003
  8.8085910E+003
  9.1864587E+003
  9.5685026E+003
  9.9511604E+003
  1.0330051E+004
  1.0700273E+004
  1.1056777E+004
  1.1394889E+004
  1.1711125E+004
  1.2004535E+004
  1.2278992E+004
  1.2546323E+004
  1.2830277E+004
  1.3165899E+004
  1.3600927E+004
  1.4174785E+004
  1.5006687E+004
  1.5761027E+004
  1.8378256E+004
  2.2913258E+004
  3.5680727E+004
  2.2212477E+004
 -2.8554166E+003
 -1.6149863E+001
  3.1230584E+002
  4.0357767E+002
  2.0098674E+003
  1.1924097E+002
  2.5758879E+003
  1.3060741E+004
  8.0351074E+003
  5.1750722E+003
  4.8473778E+003
  5.1963600E+003
  5.7299578E+003
  6.1684216E+003
  6.5746360E+003
  6.9387446E+003
  7.2837402E+003
  7.6190579E+003
  7.9539492E+003
  8.2942215E+003
  8.6432879E+003
  9.0022819E+003
  9.3704389E+003
  9.7454187E+003
  1.0123612E+004
  1.0500399E+004
  1.0870364E+004
  1.1227488E+004
  1.1565359E+004
  1.1877532E+004
  1.2158260E+004
  1.2404478E+004
  1.2619374E+004
  1.2820364E+004
  1.3037544E+004
  1.3331481E+004
  1.3659387E+004
  1.4289225E+004
  1.4387931E+004
  1.4282018E+004
  4.5649986E+003
 -3.0966742E+003
 -7.7093135E+002
  1.4547961E+003
  1.5097973E+003
  2.4039767E+003
  2.6462552E+003
  2.7759381E+003
  3.6682087E+002
 -1.0698727E+002
 -6.1522783E+003
 -4.6893237E+003
 -1.2725162E+003
  2.6413719E+003
  3.7209937E+003
  5.2880856E+003
  5.8889356E+003
  6.4545213E+003
  6.8497443E+003
  7.2026829E+003
  7.5213007E+003
  7.8287489E+003
  8.1361631E+003
  8.4515377E+003
  8.7789881E+003
  9.1198841E+003
  9.4733509E+003
  9.8367972E+003
  1.0206287E+004
  1.0576782E+004
  1.0942258E+004
  1.1295693E+004
  1.1628929E+004
  1.1932353E+004
  1.2194660E+004
  1.2402715E+004
  1.2544981E+004
  1.2617880E+004
  1.2651503E+004
  1.2674098E+004
  1.2822744E+004
  1.2484828E+004
  1.3554321E+004
  1.2406156E+004
  2.3328638E+004
  9.9248555E+003
 -1.9089390E+001
  1.5243219E+003
  3.0213295E+003
  3.8192805E+003
  5.2750359E+003
  6.0514217E+003
  1.5291229E+004
  6.7273089E+003
  3.0967165E+002
  1.8996406E+003
  5.3784712E+003
  5.6550218E+003
  6.4893457E+003
  6.8304880E+003
  7.1821714E+003
  7.4674529E+003
  7.7336401E+003
  7.9938188E+003
  8.2609748E+003
  8.5422537E+003
  8.8413142E+003
  9.1587344E+003
  9.4928468E+003
  9.8403569E+003
  1.0196753E+004
  1.0556496E+004
  1.0913029E+004
  1.1258623E+004
  1.1583981E+004
  1.1877467E+004
  1.2123585E+004
  1.2300674E+004
  1.2378530E+004
  1.2318765E+004
  1.2120019E+004
  1.1808885E+004
  1.1648690E+004
  1.1247538E+004
  9.9183684E+003
  3.6234706E+003
 -3.8877842E+003
  1.4521278E+003
  2.0107806E+003
  3.1100895E+003
  3.5339455E+003
  5.0487278E+003
  1.5318126E+003
  2.8735726E+003
  1.2173297E+004
  8.4315509E+003
  6.2564051E+003
  7.2043370E+003
  7.0474912E+003
  7.3156415E+003
  7.5236510E+003
  7.7150881E+003
  7.9050615E+003
  8.1035834E+003
  8.3204344E+003
  8.5608150E+003
  8.8265979E+003
  9.1165250E+003
  9.4274248E+003
  9.7549069E+003
  1.0093728E+004
  1.0437857E+004
  1.0780377E+004
  1.1113268E+004
  1.1427039E+004
  1.1709943E+004
  1.1946351E+004
  1.2112660E+004
  1.2169445E+004
  1.2049824E+004
  1.1629893E+004
  1.0999317E+004
  1.0069775E+004
  1.0508816E+004
  9.7896940E+003
  1.8699574E+004
  8.6068773E+003
  6.8090661E+002
 -3.5545177E+002
  9.1995085E+002
  2.0093508E+003
  2.8364042E+003
  3.0361001E+003
  1.8634242E+003
  1.2295034E+003
  1.2486746E+002
 -3.6445088E+003
  8.1126280E+003
  8.9827710E+003
  7.6119294E+003
  7.5705635E+003
  7.7782943E+003
  7.8103880E+003
  7.9099854E+003
  8.0117990E+003
  8.1427205E+003
  8.3040733E+003
  8.5010425E+003
  8.7317760E+003
  8.9922875E+003
  9.2772703E+003
  9.5810572E+003
  9.8976957E+003
  1.0220781E+004
  1.0543181E+004
  1.0856838E+004
  1.1152585E+004
  1.1420224E+004
  1.1647356E+004
  1.1820062E+004
  1.1906938E+004
  1.1867276E+004
  1.1501076E+004
  1.0546845E+004
  9.0234890E+003
  8.3246061E+003
  3.6054951E+003
 -2.4962972E+003
 -1.4612348E+002
  1.2992046E+003
  2.1506896E+003
  3.1147154E+003
  2.8956667E+003
  1.2726256E+003
  2.0047865E+002
 -3.1406739E+003
  7.1158372E+003
  7.9025005E+003
  6.8590263E+003
  8.4519157E+003
  7.9454990E+003
  8.0354164E+003
  8.0016796E+003
  8.0351871E+003
  8.0924713E+003
  8.2017081E+003
  8.3580528E+003
  8.5561925E+003
  8.7877765E+003
  9.0453140E+003
  9.3220432E+003
  9.6116452E+003
  9.9075976E+003
  1.0202648E+004
  1.0488498E+004
  1.0756011E+004
  1.0995559E+004
  1.1199776E+004
  1.1361395E+004
  1.1494986E+004
  1.1573974E+004
  1.1714458E+004
  1.1333171E+004
  9.6344838E+003
  6.9429655E+003
  8.6542454E+003
  1.0322421E+004
  1.0772943E+003
  1.4125563E+003
  3.5633218E+003
  3.3211207E+003
  3.8616071E+003
  3.7089981E+003
  8.0337172E+003
  3.5141311E+003
 -1.9869382E+003
  8.5784402E+003
  9.3681216E+003
  8.1346937E+003
  8.1610284E+003
  8.0605046E+003
  8.0125933E+003
  7.9410072E+003
  7.9386875E+003
  8.0049711E+003
  8.1317383E+003
  8.3038747E+003
  8.5091374E+003
  8.7383109E+003
  8.9844732E+003
  9.2416899E+003
  9.5038174E+003
  9.7635574E+003
  1.0011954E+004
  1.0238276E+004
  1.0431504E+004
  1.0580429E+004
  1.0686789E+004
  1.0744669E+004
  1.0890453E+004
  1.1029663E+004
  1.2526930E+004
  1.3797793E+004
  2.3976801E+004
  1.2054999E+004
  7.3695721E+003
  3.6114433E+003
  3.8892416E+003
  3.3730896E+003
  3.5454839E+003
  1.3856664E+003
  1.1456370E+003
  7.5856101E+003
  8.2002426E+003
  7.7880248E+003
  8.0915499E+003
  8.1109434E+003
  7.8695897E+003
  7.7098346E+003
  7.6646670E+003
  7.7151799E+003
  7.8304266E+003
  7.9863812E+003
  8.1683999E+003
  8.3676485E+003
  8.5787343E+003
  8.7973160E+003
  9.0184026E+003
  9.2349533E+003
  9.4369851E+003
  9.6107039E+003
  9.7400643E+003
  9.8030252E+003
  9.7915899E+003
  9.6472715E+003
  9.5064706E+003
  8.8730093E+003
  9.7583318E+003
  3.4952205E+003
  3.2230709E+003
  3.1470398E+003
 -2.8615820E+003
  3.0484984E+002
  1.4547219E+003
  3.1269435E+003
  3.4625035E+003
  2.1995019E+003
  1.1794243E+003
 -1.4708375E+003
  7.4123442E+003
  8.3934324E+003
  7.3495592E+003
  8.7897281E+003
  7.9395409E+003
  7.5151474E+003
  7.2958722E+003
  7.2735098E+003
  7.3505070E+003
  7.4761776E+003
  7.6249154E+003
  7.7842469E+003
  7.9494622E+003
  8.1188281E+003
  8.2910611E+003
  8.4632974E+003
  8.6294996E+003
  8.7788290E+003
  8.8945591E+003
  8.9520135E+003
  8.9218602E+003
  8.7548150E+003
  8.4232291E+003
  7.7057170E+003
  6.6787206E+003
  3.9270849E+003
  2.4987601E+003
 -4.3857980E+002
  5.9972400E+001
  1.2928667E+003
  2.0487619E+003
  3.3506451E+003
  3.5416344E+003
  3.0495446E+003
  4.2411652E+003
  2.0809226E+003
 -2.5580801E+003
  1.0413606E+004
  1.0218605E+004
  8.9264399E+003
  7.1780241E+003
  6.8117741E+003
  6.6992400E+003
  6.8145834E+003
  6.9552188E+003
  7.1082062E+003
  7.2500937E+003
  7.3812344E+003
  7.5036869E+003
  7.6215810E+003
  7.7376884E+003
  7.8523061E+003
  7.9614894E+003
  8.0551082E+003
  8.1142409E+003
  8.1095699E+003
  7.9973750E+003
  7.7279455E+003
  7.2176129E+003
  6.4323888E+003
  4.9988467E+003
  2.3673546E+003
  6.4013362E+002
 -3.2851523E+003
  2.6795612E+003
  1.6068855E+003
  5.0849875E+003
  3.7831538E+003
  3.5802176E+003
  1.6583191E+003
  4.1902468E+002
  1.4844146E+004
  1.1057060E+004
  5.7947757E+003
  5.8381671E+003
  5.6987515E+003
  6.1306677E+003
  6.3751675E+003
  6.6100576E+003
  6.7758974E+003
  6.8987804E+003
  6.9863690E+003
  7.0522027E+003
  7.1054209E+003
  7.1533048E+003
  7.1998460E+003
  7.2446712E+003
  7.2805898E+003
  7.2905808E+003
  7.2422886E+003
  7.0908372E+003
  6.7627761E+003
  6.2357011E+003
  5.3793632E+003
  4.8940688E+003
  4.0287387E+003
  7.7898225E+003
  3.0415175E+003
  1.4576241E+004
  6.1683769E+003
  5.5425484E+003
  4.0540973E+003
  3.0528280E+003
  1.6971107E+003
  6.1919341E+002
 -4.0031615E+003
  6.6934463E+002
  2.7511180E+003
  3.6478366E+003
  5.2637598E+003
  5.7057615E+003
  6.1454190E+003
  6.3836045E+003
  6.5332931E+003
  6.6023998E+003
  6.6251889E+003
  6.6162116E+003
  6.5894420E+003
  6.5550436E+003
  6.5207218E+003
  6.4908440E+003
  6.4643337E+003
  6.4307462E+003
  6.3629442E+003
  6.2143070E+003
  5.9045267E+003
  5.3973811E+003
  4.4503998E+003
  3.9026041E+003
  1.5136620E+003
  1.0458369E+003
  6.3258303E+003
 -5.7864300E+003
  7.2425146E+002
  1.6965104E+003
  4.2522401E+003
  3.2714378E+003
  1.8011036E+003
 -7.3985517E+002
  4.7880296E+001
 -3.2565382E+003
 -1.7674699E+003
  5.8283922E+002
  5.3531745E+003
  5.1734881E+003
  5.8734516E+003
  6.1496469E+003
  6.3521949E+003
  6.3968485E+003
  6.3833008E+003
  6.3158085E+003
  6.2149701E+003
  6.0932312E+003
  5.9621402E+003
  5.8317660E+003
  5.7115576E+003
  5.6093550E+003
  5.5271548E+003
  5.4533946E+003
  5.3478845E+003
  5.1357528E+003
  4.6908950E+003
  4.0240658E+003
  2.1636957E+003
  1.0243320E+003
 -1.9267049E+003
  2.8956658E+003
  1.8645745E+003
  5.5663517E+003
  3.9677861E+003
  2.8685817E+003
  1.6904380E+003
 -8.9563836E+002
  1.5897085E+004
  9.9373984E+003
  6.4833964E+003
  6.0371621E+003
  6.2783704E+003
  6.5104271E+003
  6.4328669E+003
  6.3707863E+003
  6.2413171E+003
  6.0700216E+003
  5.8653084E+003
  5.6383667E+003
  5.3985627E+003
  5.1560853E+003
  4.9237947E+003
  4.7189646E+003
  4.5615923E+003
  4.4667321E+003
  4.4199161E+003
  4.3750301E+003
  4.1039130E+003
  3.7695399E+003
  3.1455275E+003
  5.0911646E+003
  2.2948606E+003
  2.1551474E+004
  8.6915082E+003
  7.9551149E+003
  4.8661405E+003
  3.3377649E+003
  1.7036867E+003
 -5.9701913E+002
  6.9311744E+003
  7.6438002E+003
  6.8714588E+003
  6.5010432E+003
  7.4510183E+003
  6.6999967E+003
  6.6170049E+003
  6.4077371E+003
  6.1713360E+003
  5.8933642E+003
  5.5845173E+003
  5.2504579E+003
  4.8969748E+003
  4.5294640E+003
  4.1597512E+003
  3.8113922E+003
  3.5210270E+003
  3.3426589E+003
  3.3072192E+003
  3.4305879E+003
  3.4926834E+003
  3.2172588E+003
  1.2777051E+003
 -2.1713786E+002
  9.0083883E+003
 -4.2385468E+003
  1.5154634E+003
  7.3655783E+003
  6.2093287E+003
  4.5496375E+003
  3.2776500E+003
  1.8472752E+003
  2.5850928E+003
  8.5614936E+002
  3.8723471E+003
  9.4298128E+003
  8.3047820E+003
  7.1936410E+003
  6.8610532E+003
  6.8145034E+003
  6.4785878E+003
  6.1664828E+003
  5.7936159E+003
  5.3908175E+003
  4.9619727E+003
  4.5023767E+003
  4.0069034E+003
  3.4792488E+003
  2.9390126E+003
  2.4354838E+003
  2.0364029E+003
  1.8968922E+003
  1.9838562E+003
  2.6005754E+003
  2.4398963E+003
  3.9744531E+003
  2.2005342E+003
  2.7081632E+004
  1.4535856E+004
  8.9238596E+003
  5.3197680E+003
  2.6297146E+003
 -3.0969559E+001
 -6.1746102E+003
 -2.8892295E+003
  5.3620310E+003
  8.9832613E+003
  5.6235766E+003
  7.7002381E+003
  6.7762356E+003
  6.6444484E+003
  6.2244855E+003
  5.7761735E+003
  5.3057223E+003
  4.8129255E+003
  4.2742429E+003
  3.6663743E+003
  2.9768370E+003
  2.2126017E+003
  1.4056713E+003
  6.4560941E+002
  5.4197430E+001
 -1.1605784E+001
  4.1164875E+002
  3.5436892E+002
  2.3719833E+002
  1.6654553E+004
  1.5421894E+004
  1.1459561E+004
  8.4792477E+003
  6.9569016E+003
  4.4845433E+003
  1.6248886E+003
  1.2331224E+003
 -1.6903133E+003
  2.3512873E+002
  8.5024369E+003
  7.8564635E+003
  7.1648744E+003
  7.0246751E+003
  6.9095730E+003
  6.3284382E+003
  5.8436465E+003
  5.3510569E+003
  4.8535005E+003
  4.2851241E+003
  3.6046097E+003
  2.7808416E+003
  1.7965113E+003
  6.6099354E+002
 -6.1084961E+002
 -1.8310897E+003
 -3.0042660E+003
 -2.3934024E+003
 -1.6784968E+003
 -1.1973527E+003
  1.8724475E+004
  1.4779048E+004
  1.1590046E+004
  8.1972428E+003
  5.6427886E+003
  3.8471832E+003
  2.3461651E+003
  1.5429092E+003
  4.9873213E+002
  1.8213430E+003
  5.4158266E+003
  9.4329166E+003
  5.9861354E+003
  8.3798341E+003
  6.9167299E+003
  6.5180933E+003
  5.9539816E+003
  5.5720917E+003
  5.1435868E+003
  4.6157891E+003
  3.9246915E+003
  3.0284144E+003
  1.8944240E+003
  4.8132636E+002
 -1.2035675E+003
 -3.3259591E+003
 -5.3201943E+003
 -8.7933658E+003
 -3.4728434E+003
 -4.2012208E+002
  1.6252240E+004
  1.3663953E+004
  1.0495046E+004
  7.2938070E+003
  4.7363812E+003
  2.5924301E+003
  9.8282267E+002
 -2.2609428E+002
 -1.4534782E+003
 -3.9368331E+003
 -4.7347955E+003
 -2.7226307E+002
  1.0266076E+004
  9.2189878E+003
  8.0719016E+003
  7.1911582E+003
  6.4375094E+003
  6.2073739E+003
  6.0257000E+003
  5.7632005E+003
  5.3431525E+003
  4.7134140E+003
  3.8336252E+003
  2.6681656E+003
  1.1627883E+003
 -7.0875897E+002
 -3.2039562E+003
 -6.0394215E+003
 -1.1676108E+004
 -1.6344182E+004
 -4.3579478E+004
  1.2530152E+004
  1.5900675E+004
  8.0524902E+003
  6.2146575E+003
  3.9549022E+003
  1.9236240E+003
 -1.3110822E+001
 -1.6752950E+003
 -3.4279371E+003
 -6.2165122E+003
 -6.3263379E+003
  8.5340194E+003
  1.0793401E+004
  7.9637598E+003
  6.3606918E+003
  6.4334225E+003
  6.7287100E+003
  6.8410904E+003
  6.7956152E+003
  6.5252069E+003
  6.0181351E+003
  5.2441596E+003
  4.1825150E+003
  2.8150497E+003
  1.1105436E+003
 -9.6533210E+002
 -3.5004624E+003
 -6.4243445E+003
 -7.4993210E+003
 -9.0208819E+003
 -7.3400860E+003
 -3.4601075E+004
 -6.7516096E+003
 -1.2290551E+004
 -1.4668212E+003
  5.5574792E+003
  1.9177599E+003
  2.6205923E+003
  2.4614497E+003
  1.1649504E+003
 -3.3853734E+002
 -2.0887127E+003
 -3.8787151E+003
 -6.2147367E+003
 -5.9872238E+003
  2.8375195E+004
  7.5635789E+003
  4.2538356E+003
  5.4999568E+003
  7.1997308E+003
  7.7400652E+003
  8.1916653E+003
  8.2886469E+003
  8.1847006E+003
  7.8285826E+003
  7.2201745E+003
  6.3651803E+003
  5.2942877E+003
  4.0673263E+003
  2.7663375E+003
  1.5896779E+003
  1.0383856E+003
  1.3589974E+003
  1.1901844E+003
  5.1910802E+002
  5.7550691E+002
  6.1914358E+002
  9.3239362E+002
  7.5430850E+002
  4.7059569E+002
 -4.6013167E+002
 -2.0753633E+003
 -3.3765694E+003
 -5.2954012E+003
 -4.3336828E+003
 -1.7482877E+003
  3.1551667E+003
  8.4965840E+003
  8.5959859E+003
  9.7859777E+003
  1.0011083E+004
  1.0276984E+004
  1.0282018E+004
  1.0076234E+004
  9.6422501E+003
  9.0170421E+003
  8.2881709E+003
  7.5921226E+003
  7.0942400E+003
  7.0125098E+003
  7.4159971E+003
  7.8812486E+003
  7.8857699E+003
  7.2552069E+003
  5.9241686E+003
  4.7793165E+003
  3.6462681E+003
  2.6842777E+003
  7.4830753E+002
 -7.2953184E+002
 -5.5117019E+003
 -4.3674199E+003
 -1.1539496E+003
  1.9317185E+004
  1.4158784E+004
  1.0324137E+004
  1.2529152E+004
  1.1882479E+004
  1.2423853E+004
  1.2638666E+004
  1.2754729E+004
  1.2634189E+004
  1.2329458E+004
  1.1889795E+004
  1.1410895E+004
  1.1112775E+004
  1.1234176E+004
  1.1743493E+004
  1.2642806E+004
  1.3444241E+004
  1.3184471E+004
  1.2603069E+004
  1.2267719E+004
  1.0162694E+004
  8.5697483E+003
  5.2343348E+003
  6.8008505E+003
  1.8260419E+003
  5.9897019E+002
 -6.3621247E+003
  1.5699419E+004
  1.6299436E+004
  1.4318560E+004
  1.4629380E+004
  1.4991197E+004
  1.5474836E+004
  1.5489972E+004
  1.5308136E+004
  1.5064033E+004
  1.4710094E+004
  1.4344964E+004
  1.4220300E+004
  1.4582979E+004
  1.5672330E+004
  1.6661468E+004
  1.8362456E+004
  1.9575933E+004
  1.9250191E+004
  1.7073986E+004
  1.6758831E+004
  2.0648686E+004
  1.1068056E+004
 -7.1732755E+002
  1.5052526E+004
  1.6950670E+004
  1.5671871E+004
  1.6833685E+004
  1.8582463E+004
  1.8668982E+004
  1.8330069E+004
  1.7836625E+004
  1.7450456E+004
  1.7295002E+004
  1.6879597E+004
  1.6665894E+004
  1.7342198E+004
  1.8440303E+004
  1.9332094E+004
  2.1451607E+004
  2.0638527E+004
  4.0774244E+004
  3.7032956E+004
  6.7959114E+003
 -2.4234327E+002
  1.9224368E+004
  1.6527544E+004
  1.7248209E+004
  2.2848407E+004
  2.2399110E+004
  2.2964480E+004
  2.1234460E+004
  1.9722489E+004
  1.9017131E+004
  1.8693593E+004
  1.8913973E+004
  1.9613343E+004
  1.8212173E+004
  2.0317635E+004
  1.7787261E+004
  2.9161322E+004
  1.5952425E+004
 -7.1286156E+003
 -8.3246794E+003
  2.4233064E+004
  2.8261088E+004
  2.3510333E+004
  3.2104556E+004
  2.5820239E+004
  2.2789825E+004
  2.2189926E+004
  1.8682295E+004
  1.7564626E+004
  1.5789946E+004
  2.6805665E+004
  3.0518938E+004
  1.7873901E+004
  5.1576700E+003
 -4.5758602E+003
 -2.0485001E+004
  5.8323184E+004
  5.2074449E+004
  2.2067069E+004
  3.1006295E+004
  3.3424677E+004
  2.1004675E+004
  1.7787439E+004
  1.3021980E+004
  2.8270802E+003
 -5.4251644E+003
 -1.8410037E+004
 -1.4674524E+004
 -2.1974164E+003
 -7.4935189E+003
SCALARS Stress_zz double
LOOKUP_TABLE default
 -4.9220623E+003
  8.6896497E+004
  3.1139247E+004
 -2.5559023E+003
  3.0640836E+004
  2.8899171E+004
  3.0435289E+004
  2.9140225E+004
  3.0890990E+004
 -2.4425932E+003
  8.4140956E+004
 -2.9589877E+003
 -9.5203042E+002
  2.3592268E+003
  2.7676844E+003
  9.5939820E+002
  5.4433044E+003
  2.4878886E+003
  7.8843944E+003
  6.8971934E+003
  1.1201223E+004
  1.1707933E+004
  1.4995724E+004
  1.7206925E+004
  1.9274153E+004
  2.3199546E+004
  2.3911506E+004
  2.9822526E+004
  2.9133715E+004
  3.6714597E+004
  3.4121378E+004
  4.5671971E+004
  4.1872869E+004
  5.2218702E+004
  3.9255245E+004
  8.2844883E+004
  4.6149474E+004
  3.2254302E+004
  2.9187394E+004
  2.9047597E+004
  3.1703580E+004
  4.3698714E+004
  3.7698926E+004
  7.0187345E+004
  3.8951944E+004
  3.0022802E+003
  8.0020384E+004
  9.1728475E+003
  7.2624273E+003
  5.2457410E+003
  6.3123150E+003
  7.9411848E+003
  1.0186614E+004
  1.2840971E+004
  1.5843992E+004
  1.9143655E+004
  2.2535569E+004
  2.6272817E+004
  2.8454258E+004
  3.3237792E+004
  3.0816573E+004
  2.5571475E+004
  2.2943768E+004
  2.2988466E+004
  2.5906323E+004
  3.1750827E+004
  3.6020567E+004
  3.3189716E+004
  4.4101214E+004
  2.5521547E+004
  3.2755754E+004
  5.5082100E+004
  6.0956561E+003
  1.8358349E+003
  1.0786610E+003
  6.1004688E+003
  5.9375473E+003
  6.8205920E+003
  7.5391405E+003
  8.7297851E+003
  1.0197093E+004
  1.1904004E+004
  1.3736229E+004
  1.5633557E+004
  1.7220536E+004
  1.8867972E+004
  1.8610890E+004
  1.7960961E+004
  1.5953712E+004
  1.4337560E+004
  1.4539371E+004
  1.6775994E+004
  2.0222685E+004
  2.3668836E+004
  3.0105718E+004
  3.6190005E+004
  4.6647739E+004
  2.9152360E+004
  4.2681881E+004
  7.5458722E+003
  1.2456320E+004
  6.8200649E+003
  7.6342592E+003
  6.7207882E+003
  6.7861949E+003
  6.9557161E+003
  7.3628399E+003
  7.8797799E+003
  8.4414555E+003
  8.9106866E+003
  9.2361685E+003
  9.0486663E+003
  8.5466672E+003
  7.0728160E+003
  5.3497086E+003
  4.2058719E+003
  4.2695508E+003
  5.8767832E+003
  9.1287651E+003
  1.3915241E+004
  2.0958973E+004
  2.9950899E+004
  4.9735614E+004
  7.4392309E+004
  2.2760592E+005
  1.9010064E+004
  9.6036613E+003
  7.9474075E+003
  6.5133457E+003
  5.7156509E+003
  4.9990632E+003
  4.3911365E+003
  3.8071661E+003
  3.1780053E+003
  2.4220401E+003
  1.4131568E+003
  1.0494969E+002
 -1.6739396E+003
 -3.6840971E+003
 -5.6999973E+003
 -7.1985945E+003
 -7.6123926E+003
 -6.5312600E+003
 -3.6849174E+003
  1.2472175E+003
  8.9203310E+003
  1.9911368E+004
  3.7122593E+004
  5.4224983E+004
  8.7934144E+004
  5.3881011E+004
  5.4427785E+004
  1.5197913E+005
  1.0032804E+004
  2.5259062E+002
  1.8334158E+003
  7.1711663E+003
  8.0941306E+003
  7.2425316E+003
  5.9887223E+003
  4.4892738E+003
  2.9590791E+003
  1.3940816E+003
 -2.1636396E+002
 -1.9340534E+003
 -3.8427229E+003
 -6.0183060E+003
 -8.5350930E+003
 -1.1354009E+004
 -1.4386500E+004
 -1.7308740E+004
 -1.9675431E+004
 -2.0979229E+004
 -2.0733367E+004
 -1.8502564E+004
 -1.3912191E+004
 -6.6155831E+003
  3.7681921E+003
  1.7113706E+004
  3.4624878E+004
  5.3162895E+004
  5.5644131E+004
  6.1476465E+004
  4.2167262E+004
  4.4663814E+004
  1.0597044E+005
  8.7664291E+003
  7.8100787E+003
  7.8505541E+003
  8.0346232E+003
  7.1342310E+003
  5.4990741E+003
  3.3402742E+003
  9.3865895E+002
 -1.5518490E+003
 -4.1307927E+003
 -6.8613281E+003
 -9.8334595E+003
 -1.3139273E+004
 -1.6830942E+004
 -2.0901594E+004
 -2.5205462E+004
 -2.9463450E+004
 -3.3219678E+004
 -3.5905865E+004
 -3.6901597E+004
 -3.5675628E+004
 -3.1878331E+004
 -2.5216501E+004
 -1.5806503E+004
 -3.8036445E+003
  9.6390090E+003
  2.0972500E+004
  2.9617856E+004
  4.0024566E+004
  3.8917742E+004
  4.1199596E+004
  2.5149681E+004
  3.2725058E+004
  5.8502224E+004
  6.2869096E+003
 -1.6637993E+003
 -3.2757019E+003
  3.5347861E+003
  6.6070280E+003
  8.2798862E+003
  7.9177014E+003
  5.5835441E+003
  2.3972678E+003
 -9.8178771E+002
 -4.4039974E+003
 -7.8931668E+003
 -1.1545305E+004
 -1.5494632E+004
 -1.9868870E+004
 -2.4762413E+004
 -3.0192996E+004
 -3.6070257E+004
 -4.2114064E+004
 -4.7844176E+004
 -5.2510066E+004
 -5.5316044E+004
 -5.5533299E+004
 -5.2587391E+004
 -4.6701824E+004
 -3.7746785E+004
 -2.6463492E+004
 -1.4162875E+004
 -2.1765532E+003
  8.0095112E+003
  1.4604447E+004
  1.9821123E+004
  2.5204698E+004
  2.2764347E+004
  1.9795711E+004
  9.5162331E+003
  1.8153351E+004
  1.6306891E+004
  3.1456765E+003
  1.6380940E+003
  1.3808953E+003
  8.3627323E+003
  1.2603930E+004
  1.0760327E+004
  6.3245502E+003
  1.6906987E+003
 -2.8315286E+003
 -7.1932858E+003
 -1.1492505E+004
 -1.5934348E+004
 -2.0730896E+004
 -2.6082985E+004
 -3.2155059E+004
 -3.9052290E+004
 -4.6759380E+004
 -5.5098666E+004
 -6.3486464E+004
 -7.1034353E+004
 -7.6276818E+004
 -7.8109152E+004
 -7.6664792E+004
 -7.0795132E+004
 -6.1960211E+004
 -5.0382445E+004
 -3.7331143E+004
 -2.4572739E+004
 -1.3201057E+004
 -3.5884368E+003
  3.5108227E+003
  7.4665859E+003
  9.5763245E+003
  1.1011085E+004
  7.7097156E+003
  2.7644326E+003
 -1.7627040E+003
  4.4416856E+003
 -2.6390135E+003
 -3.0961390E+003
  8.4459693E+003
  8.3715583E+003
  1.7287728E+004
  1.4764522E+004
  7.7727087E+003
  9.7370676E+002
 -4.8740086E+003
 -1.0046916E+004
 -1.4955125E+004
 -1.9969140E+004
 -2.5412105E+004
 -3.1574602E+004
 -3.8727251E+004
 -4.7099418E+004
 -5.6859871E+004
 -6.7949051E+004
 -8.0091861E+004
 -9.1675373E+004
 -1.0090535E+005
 -1.0559904E+005
 -1.0346910E+005
 -9.9396846E+004
 -8.9157227E+004
 -7.5377081E+004
 -6.0344324E+004
 -4.5298722E+004
 -3.1829742E+004
 -2.0484603E+004
 -1.1434530E+004
 -4.6653051E+003
 -4.7894811E+002
  9.5035699E+002
  6.3378532E+002
 -5.9947684E+002
 -3.9012673E+003
 -7.5160134E+003
 -1.3597852E+004
 -7.8096522E+003
  2.0949507E+003
  6.1740858E+004
  2.4648665E+004
  8.5147747E+003
 -7.7624223E+002
 -7.6370897E+003
 -1.3173105E+004
 -1.8315047E+004
 -2.3574819E+004
 -2.9371201E+004
 -3.6075011E+004
 -4.4066442E+004
 -5.3776918E+004
 -6.5610053E+004
 -7.9978758E+004
 -9.6709458E+004
 -1.1533521E+005
 -1.2946962E+005
 -1.3380149E+005
 -1.3798215E+005
 -1.2845331E+005
 -1.1933587E+005
 -1.0296716E+005
 -8.2931201E+004
 -6.4739220E+004
 -4.8467738E+004
 -3.4767884E+004
 -2.3644622E+004
 -1.5009057E+004
 -8.9050549E+003
 -5.2040773E+003
 -3.9761763E+003
 -4.9143514E+003
 -7.0156019E+003
 -1.0652772E+004
 -1.2268275E+004
 -2.2369936E+004
 -1.1809450E+004
  6.0111425E+004
  8.9621290E+003
  6.5035011E+003
 -6.0479435E+003
 -1.1426480E+004
 -1.6769276E+004
 -2.1532428E+004
 -2.6647041E+004
 -3.2420337E+004
 -3.9278892E+004
 -4.7691445E+004
 -5.8260639E+004
 -7.1901332E+004
 -8.9554999E+004
 -1.1239510E+005
 -1.4075028E+005
 -1.7204557E+005
 -1.8381243E+005
 -1.6418888E+005
 -1.7766098E+005
 -1.6051227E+005
 -1.2870697E+005
 -1.0474491E+005
 -8.1955647E+004
 -6.2642653E+004
 -4.6722262E+004
 -3.3430127E+004
 -2.2668813E+004
 -1.4578653E+004
 -9.4301929E+003
 -6.9798553E+003
 -6.9398958E+003
 -9.1156284E+003
 -1.2560935E+004
 -1.8049851E+004
 -1.6525250E+004
 -2.0129064E+004
 -5.1237519E+003
  3.1644391E+004
  7.7249564E+003
 -8.8251955E+003
 -1.2453442E+004
 -1.6850568E+004
 -2.0492243E+004
 -2.4509532E+004
 -2.9027453E+004
 -3.4390127E+004
 -4.0932795E+004
 -4.9133500E+004
 -5.9720783E+004
 -7.3902158E+004
 -9.3791918E+004
 -1.2400561E+005
 -1.6304323E+005
 -2.2794515E+005
 -1.8559301E+005
 -2.2884452E+005
 -1.8588245E+005
 -2.0809763E+005
 -1.5756717E+005
 -1.2766905E+005
 -9.5763991E+004
 -7.1902931E+004
 -5.5944772E+004
 -4.0808993E+004
 -2.7468899E+004
 -1.7512269E+004
 -1.0783036E+004
 -7.4127452E+003
 -7.0818877E+003
 -9.6205085E+003
 -1.3964878E+004
 -2.2598144E+004
 -2.8603245E+004
 -7.2052715E+004
 -9.7862346E+004
 -2.6587508E+004
 -2.4596809E+004
 -2.0834871E+004
 -2.2204878E+004
 -2.4047056E+004
 -2.6927590E+004
 -3.0578257E+004
 -3.5181330E+004
 -4.0924336E+004
 -4.8240512E+004
 -5.7482829E+004
 -7.0637208E+004
 -8.6614797E+004
 -1.2341583E+005
 -1.6110560E+005
 -4.3905450E+005
 -3.2011835E+005
 -2.1536791E+005
 -3.2734982E+005
 -3.7522256E+005
 -1.2661773E+005
 -1.5334689E+005
 -9.0294505E+004
 -8.2312314E+004
 -6.5248285E+004
 -4.5491231E+004
 -2.9223523E+004
 -1.7122230E+004
 -8.9601699E+003
 -4.7431616E+003
 -4.5200316E+003
 -7.5579717E+003
 -1.3879172E+004
 -2.1774180E+004
 -3.4867400E+004
 -3.0172100E+004
 -4.3969068E+004
 -3.6120819E+003
 -7.8434046E+003
 -3.2644556E+003
  3.9012112E+003
  2.4478212E+004
  2.1458529E+003
  3.2033137E+004
  6.9928726E+003
  2.9202482E+003
  2.4198604E+004
  5.2144917E+003
 -4.8623131E+003
 -1.0831374E+005
 -5.3783249E+004
  6.8259695E+002
 -5.2331014E+004
 -8.8052679E+004
 -5.8830930E+004
 -3.9414606E+004
 -3.2118044E+004
 -2.7429880E+004
 -2.6316687E+004
 -2.6802221E+004
 -2.8521086E+004
 -3.1200312E+004
 -3.4814759E+004
 -3.9413248E+004
 -4.5203368E+004
 -5.2243674E+004
 -6.1594509E+004
 -7.0894306E+004
 -8.9412155E+004
 -6.7464287E+004
 -6.9226867E+004
  8.9780016E+002
 -6.0217176E+004
 -2.4032492E+005
 -7.6768548E+004
 -6.9466739E+004
 -7.7436355E+004
 -4.4174711E+004
 -2.8296340E+004
 -1.3156863E+004
 -2.3651645E+003
  1.7637097E+003
  1.4278814E+003
 -2.7196076E+003
 -1.0329213E+004
 -2.0673549E+004
 -3.7181637E+004
 -5.8808472E+004
 -1.2905432E+005
 -4.9612275E+003
 -6.8734519E+003
 -1.6782830E+004
 -8.4690930E+003
 -5.2956051E+003
 -5.2366147E+003
 -9.4975422E+002
 -5.2170213E+003
  1.6819329E+004
 -4.0305134E+003
  5.5992647E+003
 -8.7663075E+003
  8.0104255E+003
  6.1981490E+002
 -1.4897801E+005
 -5.9543484E+004
 -2.7746822E+004
 -7.4243787E+004
 -5.6003378E+004
 -5.8759687E+004
 -5.1409236E+004
 -4.1615030E+004
 -3.4729157E+004
 -3.0769022E+004
 -2.8749211E+004
 -2.8360011E+004
 -2.9151472E+004
 -3.0895053E+004
 -3.3450826E+004
 -3.6761373E+004
 -4.0719088E+004
 -4.5388858E+004
 -4.9759888E+004
 -5.5344326E+004
 -5.0367853E+004
 -6.2061346E+004
 -9.2087149E+003
  6.5879605E+003
  5.5343711E+004
 -8.0689408E+004
 -1.5253746E+005
 -2.8140815E+004
 -2.8930998E+004
  4.1324471E+002
  7.7096774E+003
  1.2863638E+004
  1.1307275E+004
  5.4223888E+003
 -3.5769505E+003
 -1.6017533E+004
 -3.0666115E+004
 -4.8568277E+004
 -5.6045661E+004
 -8.2994490E+004
 -4.5943019E+004
 -2.9931601E+004
 -2.6242094E+004
 -2.0774209E+004
 -1.8691083E+004
 -1.5960241E+004
 -1.4273843E+004
 -1.4156287E+004
 -1.7181753E+004
 -2.0583469E+004
 -2.3553093E+004
 -1.7817956E+004
 -2.8838500E+004
 -1.4279284E+004
 -2.9898501E+004
  7.7591356E+003
 -7.8390263E+004
  1.3274675E+004
  1.5945861E+004
 -2.3614574E+005
 -8.4893434E+004
 -3.0979602E+004
 -9.7615430E+004
 -7.5124105E+004
 -6.9361881E+004
 -5.9348758E+004
 -5.2056209E+004
 -4.6943128E+004
 -4.0906544E+004
 -3.5396874E+004
 -3.1736096E+004
 -2.9597954E+004
 -2.8707859E+004
 -2.8835539E+004
 -2.9770948E+004
 -3.1346478E+004
 -3.3395814E+004
 -3.5730168E+004
 -3.7958346E+004
 -3.9664718E+004
 -3.8991919E+004
 -3.6261742E+004
 -2.5025479E+004
  5.8342983E+003
  3.1489520E+003
  5.5983265E+004
 -3.5637762E+004
  1.8135707E+004
  2.8539555E+004
  3.1419742E+004
  2.4766291E+004
  1.7084964E+004
  6.0356839E+003
 -7.2784707E+003
 -2.3346439E+004
 -4.0941484E+004
 -6.3714532E+004
 -5.0754848E+004
 -4.8425878E+004
 -2.9617782E+004
  5.6805934E+003
 -2.8599809E+004
 -3.6282163E+004
 -3.0811399E+004
 -3.2040876E+004
 -2.9298628E+004
 -2.7745033E+004
 -2.6299496E+004
 -2.6142264E+004
 -2.6492825E+004
 -2.8566385E+004
 -3.1884151E+004
 -3.6109691E+004
 -4.3270843E+004
 -6.0645577E+004
 -6.2935011E+004
 -9.3949173E+004
 -7.3314917E+004
 -7.9299284E+004
 -7.5205485E+004
 -8.5913107E+004
 -7.9136629E+004
 -8.9760300E+004
 -8.2632905E+004
 -9.4868771E+004
 -8.6271069E+004
 -9.9550038E+004
 -8.9834614E+004
 -1.0418689E+005
 -9.3371507E+004
 -1.0880800E+005
 -9.6875467E+004
 -1.1355660E+005
 -1.0040148E+005
 -1.1845164E+005
 -1.0406019E+005
 -1.2335021E+005
 -1.0784643E+005
 -1.2848129E+005
 -1.1273188E+005
 -1.3302760E+005
 -1.1714394E+005
 -1.4205102E+005
 -1.3009296E+005
 -1.4527515E+005
 -1.1840096E+005
 -2.1425410E+005
 -1.3270954E+005
 -1.0249115E+005
 -8.9150443E+004
 -7.2756174E+004
 -6.3079094E+004
 -5.5564908E+004
 -4.9373437E+004
 -4.3786070E+004
 -3.8729447E+004
 -3.4492804E+004
 -3.1259276E+004
 -2.9162504E+004
 -2.8033959E+004
 -2.7705513E+004
 -2.8006344E+004
 -2.8758357E+004
 -2.9765164E+004
 -3.0748219E+004
 -3.1373464E+004
 -3.0845042E+004
 -2.8883006E+004
 -2.2178065E+004
 -1.2187594E+004
  1.6389758E+004
  4.5133495E+004
  4.8761544E+004
  5.5015804E+004
  4.8722641E+004
  4.3244643E+004
  3.1279788E+004
  1.8248557E+004
  3.6519299E+003
 -1.3660842E+004
 -3.2244311E+004
 -6.1297787E+004
 -9.3787023E+004
 -2.6945336E+005
 -4.0388688E+004
 -4.2396446E+004
 -4.3697644E+004
 -4.1842781E+004
 -4.0812698E+004
 -3.8704129E+004
 -3.6952884E+004
 -3.5697234E+004
 -3.5533054E+004
 -3.6314804E+004
 -3.8180100E+004
 -4.1654465E+004
 -4.6803301E+004
 -5.5085003E+004
 -6.2565659E+004
 -6.4168782E+004
 -6.8097046E+004
 -7.0764007E+004
 -7.3624820E+004
 -7.6424749E+004
 -7.9209172E+004
 -8.1871175E+004
 -8.4437947E+004
 -8.6892310E+004
 -8.9374259E+004
 -9.2155932E+004
 -9.5082108E+004
 -9.9336487E+004
 -1.0041364E+005
 -1.0961739E+005
 -1.0285354E+005
 -8.6417327E+004
 -7.5144663E+004
 -6.5732330E+004
 -5.7227611E+004
 -5.0469256E+004
 -4.4837615E+004
 -4.0059757E+004
 -3.5925917E+004
 -3.2424340E+004
 -2.9705906E+004
 -2.7768339E+004
 -2.6556408E+004
 -2.5944095E+004
 -2.5786905E+004
 -2.5919059E+004
 -2.6138866E+004
 -2.6195704E+004
 -2.5724007E+004
 -2.4322242E+004
 -2.1198701E+004
 -1.5902288E+004
 -7.6820625E+003
  2.2503608E+003
  9.5097334E+003
  8.3427224E+003
  4.5481955E+004
  1.4422998E+005
  8.6729629E+004
  6.2473518E+004
  4.6256109E+004
  3.2335337E+004
  1.6655288E+004
 -7.1398691E+002
 -2.0425037E+004
 -4.4063732E+004
 -6.6508120E+004
 -9.5147282E+004
 -5.2445931E+004
 -1.1777104E+005
 -5.6242477E+004
 -4.6408241E+004
 -3.2178575E+004
 -3.3764580E+004
 -2.3525164E+004
 -2.1014607E+004
 -1.5629991E+004
 -1.3837917E+004
 -1.0587027E+004
 -8.1689549E+003
 -6.8114178E+003
 -4.2424751E+003
 -4.1843829E+003
 -1.6066892E+003
 -2.3471432E+003
 -9.3818888E+001
 -1.0535189E+003
  8.9226455E+001
  5.2766119E+002
  9.9766151E+001
 -5.3426959E+004
 -5.1969411E+004
 -5.3139738E+004
 -5.4198382E+004
 -5.2085483E+004
 -4.9717165E+004
 -4.7023835E+004
 -4.4777919E+004
 -4.3222558E+004
 -4.2649370E+004
 -4.3172330E+004
 -4.4774124E+004
 -4.7973474E+004
 -5.1807837E+004
 -5.4927672E+004
 -5.8144421E+004
 -5.9933022E+004
 -6.1892827E+004
 -6.3726966E+004
 -6.5664646E+004
 -6.7670286E+004
 -6.9548319E+004
 -7.0900123E+004
 -7.2071740E+004
 -7.3179360E+004
 -7.4379774E+004
 -7.6121528E+004
 -7.7716670E+004
 -8.0357424E+004
 -7.8950930E+004
 -7.6651994E+004
 -7.0617507E+004
 -6.2656657E+004
 -5.5634353E+004
 -4.9520956E+004
 -4.4205152E+004
 -3.9685153E+004
 -3.5779516E+004
 -3.2416047E+004
 -2.9604793E+004
 -2.7350263E+004
 -2.5659864E+004
 -2.4481135E+004
 -2.3727007E+004
 -2.3278284E+004
 -2.2989983E+004
 -2.2686846E+004
 -2.2149415E+004
 -2.1118743E+004
 -1.9253672E+004
 -1.6242454E+004
 -1.1775819E+004
 -5.7920722E+003
  4.5047970E+002
  3.7716905E+003
  3.8708298E+003
  4.5816508E+003
  2.7490164E+004
  6.9158261E+004
  7.3612840E+004
  6.2986451E+004
  4.7662290E+004
  3.1436040E+004
  1.4270368E+004
 -3.9283449E+003
 -2.2506538E+004
 -4.1894361E+004
 -5.7295157E+004
 -5.2757962E+004
 -3.4236420E+004
 -2.8705634E+004
 -2.0290528E+004
 -1.4944808E+004
 -1.0638642E+004
 -7.4923031E+003
 -5.1212090E+003
 -3.3416578E+003
 -2.0447882E+003
 -8.8496627E+002
 -3.6423036E+002
  1.0079843E+003
  5.0931204E+001
  3.0467024E+002
  6.1737677E+002
  3.6015435E+002
 -6.3025534E+004
 -6.2071325E+004
 -6.8469326E+004
 -6.6369004E+004
 -6.4707576E+004
 -6.0784113E+004
 -5.6724396E+004
 -5.3000938E+004
 -5.0029604E+004
 -4.7970560E+004
 -4.6901296E+004
 -4.6905345E+004
 -4.7751092E+004
 -4.9222405E+004
 -5.0755083E+004
 -5.1682174E+004
 -5.2545605E+004
 -5.3168934E+004
 -5.3927088E+004
 -5.5187008E+004
 -5.6698185E+004
 -5.7555424E+004
 -5.8133444E+004
 -5.7719440E+004
 -5.7152842E+004
 -5.7010375E+004
 -5.7078801E+004
 -5.8012338E+004
 -5.8496643E+004
 -5.9005987E+004
 -5.7185172E+004
 -5.3593320E+004
 -4.9427469E+004
 -4.5039439E+004
 -4.0925690E+004
 -3.7190578E+004
 -3.3856245E+004
 -3.0926514E+004
 -2.8379797E+004
 -2.6211965E+004
 -2.4435315E+004
 -2.3037816E+004
 -2.1983698E+004
 -2.1205417E+004
 -2.0609579E+004
 -2.0078167E+004
 -1.9468294E+004
 -1.8612890E+004
 -1.7318847E+004
 -1.5388321E+004
 -1.2648508E+004
 -8.9950701E+003
 -4.7511331E+003
 -1.3876927E+002
  3.9514500E+003
  1.1892997E+004
  6.3730379E+004
  1.8244100E+005
  9.9269558E+004
  7.9109076E+004
  6.2997090E+004
  4.7536630E+004
  3.0303431E+004
  1.3332705E+004
 -3.1555992E+003
 -1.7587472E+004
 -2.5941733E+004
 -2.6810631E+004
 -2.5482159E+004
 -2.0015747E+004
 -1.6411879E+004
 -1.2759144E+004
 -9.9143922E+003
 -7.5744483E+003
 -5.6851177E+003
 -4.1276791E+003
 -2.8058551E+003
 -1.7064840E+003
 -8.5048246E+002
 -3.3041144E+002
  1.2780374E+002
  2.3874161E+002
  3.1441863E+002
 -8.2500537E+004
 -5.1034942E+004
 -7.9958551E+004
 -8.3175179E+004
 -7.8665885E+004
 -7.2206511E+004
 -6.6070989E+004
 -6.0522287E+004
 -5.5888619E+004
 -5.2264365E+004
 -4.9666173E+004
 -4.7990146E+004
 -4.7088023E+004
 -4.6615199E+004
 -4.6228941E+004
 -4.5781776E+004
 -4.5070796E+004
 -4.4352791E+004
 -4.3802926E+004
 -4.3861052E+004
 -4.5667038E+004
 -4.7632436E+004
 -4.5144659E+004
 -4.3099579E+004
 -4.0850423E+004
 -3.7839789E+004
 -3.6900408E+004
 -3.7534666E+004
 -3.8816075E+004
 -3.8793161E+004
 -3.8710292E+004
 -3.7930200E+004
 -3.6275421E+004
 -3.4189932E+004
 -3.1957597E+004
 -2.9745884E+004
 -2.7642534E+004
 -2.5700649E+004
 -2.3955606E+004
 -2.2431313E+004
 -2.1138257E+004
 -2.0073344E+004
 -1.9210768E+004
 -1.8502351E+004
 -1.7877521E+004
 -1.7245622E+004
 -1.6498239E+004
 -1.5512370E+004
 -1.4159331E+004
 -1.2320086E+004
 -9.9143467E+003
 -6.9754832E+003
 -3.6573319E+003
 -3.7370795E+002
  2.0454556E+003
  3.2927241E+003
 -2.7048280E+002
 -7.4952479E-001
  3.6027344E+004
  7.8970429E+004
  9.6476433E+004
  8.2026535E+004
  6.3741550E+004
  4.6646355E+004
  2.9820483E+004
  1.4352562E+004
  1.4342340E+003
 -7.9005786E+003
 -1.2597498E+004
 -1.3212331E+004
 -1.2872186E+004
 -1.1417274E+004
 -1.0000433E+004
 -8.5298648E+003
 -7.1658256E+003
 -5.8636323E+003
 -4.6013355E+003
 -3.3740925E+003
 -2.2346007E+003
 -1.3026074E+003
 -5.0798637E+002
  6.0907290E+001
  8.2230559E+002
  5.0260298E+004
 -8.7385546E+004
 -1.3349445E+005
 -1.0246930E+005
 -9.4470462E+004
 -8.3396252E+004
 -7.4808484E+004
 -6.7109390E+004
 -6.0735067E+004
 -5.5545485E+004
 -5.1480103E+004
 -4.8357828E+004
 -4.5931050E+004
 -4.3922113E+004
 -4.2033193E+004
 -3.9988478E+004
 -3.7718256E+004
 -3.5156151E+004
 -3.3115385E+004
 -3.1715213E+004
 -3.7174189E+004
 -3.5787234E+004
 -3.5136109E+004
 -3.0090245E+004
 -2.4665017E+004
 -2.2261260E+004
 -1.6150287E+004
 -1.8742014E+004
 -1.7141458E+004
 -1.8862740E+004
 -2.1601494E+004
 -2.3016207E+004
 -2.3469129E+004
 -2.3481926E+004
 -2.3001687E+004
 -2.2199301E+004
 -2.1259056E+004
 -2.0275540E+004
 -1.9313003E+004
 -1.8417414E+004
 -1.7613346E+004
 -1.6906184E+004
 -1.6284159E+004
 -1.5716246E+004
 -1.5153203E+004
 -1.4529449E+004
 -1.3766602E+004
 -1.2779023E+004
 -1.1482623E+004
 -9.8086300E+003
 -7.7315037E+003
 -5.2870247E+003
 -2.6496059E+003
 -7.5004262E+001
  2.2580767E+003
  3.6447733E+003
  3.9538827E+003
  9.3320983E+004
  1.2445520E+005
  1.1038215E+005
  9.8169581E+004
  8.1822258E+004
  6.2372470E+004
  4.4749645E+004
  2.9506490E+004
  1.6633843E+004
  6.8505468E+003
  2.1942617E+002
 -3.8766536E+003
 -5.8761320E+003
 -6.8748455E+003
 -7.1697960E+003
 -7.0915857E+003
 -6.6986276E+003
 -6.0133573E+003
 -5.0317508E+003
 -3.8467367E+003
 -2.6175579E+003
 -1.4670438E+003
 -6.2191996E+002
  3.2268706E+001
  8.8490713E+002
 -1.6371028E+005
 -1.5027773E+005
 -1.2569987E+005
 -1.0882535E+005
 -9.3814204E+004
 -8.2206461E+004
 -7.2465550E+004
 -6.4338250E+004
 -5.7711453E+004
 -5.2362290E+004
 -4.8014060E+004
 -4.4371666E+004
 -4.1112640E+004
 -3.7923978E+004
 -3.4476962E+004
 -3.0607138E+004
 -2.5659941E+004
 -2.1164948E+004
 -1.2133421E+004
 -2.4516043E+004
 -4.4042797E+004
 -1.9414165E+004
 -1.2930690E+004
 -4.8776745E+003
  7.1882877E+003
  1.9293462E+004
  2.0903959E+003
 -1.6921921E+003
  6.7527794E+002
 -5.2184703E+003
 -8.0069216E+003
 -1.1562194E+004
 -1.3376984E+004
 -1.4267329E+004
 -1.4790713E+004
 -1.4937900E+004
 -1.4827593E+004
 -1.4602318E+004
 -1.4313640E+004
 -1.3991015E+004
 -1.3653916E+004
 -1.3303487E+004
 -1.2925560E+004
 -1.2489999E+004
 -1.1952567E+004
 -1.1259558E+004
 -1.0353546E+004
 -9.1808516E+003
 -7.7030152E+003
 -5.9072146E+003
 -3.8304045E+003
 -1.5419422E+003
  7.8502805E+002
  2.6998401E+003
  3.4565628E+003
 -2.2440118E+002
  9.2422718E+004
  2.3421594E+005
  1.3481322E+005
  9.8657891E+004
  7.4912087E+004
  5.7867111E+004
  4.2166685E+004
  2.8836946E+004
  1.8008899E+004
  9.7988674E+003
  3.9504368E+003
 -1.4659352E+002
 -2.9085204E+003
 -4.7737974E+003
 -5.9473721E+003
 -6.5172139E+003
 -6.4690123E+003
 -5.7589467E+003
 -4.4001757E+003
 -2.7203897E+003
 -1.4783081E+003
 -4.4369000E+002
  1.1433420E+001
  6.8705190E+002
 -1.9131025E+005
 -1.9996815E+005
 -1.4893379E+005
 -1.1693034E+005
 -1.0023721E+005
 -8.7691660E+004
 -7.6117169E+004
 -6.6454293E+004
 -5.8625098E+004
 -5.2248248E+004
 -4.6966645E+004
 -4.2421570E+004
 -3.8242101E+004
 -3.4058184E+004
 -2.9509872E+004
 -2.4110312E+004
 -1.7532391E+004
 -7.8383833E+003
  4.9638597E+003
  4.0931360E+004
  8.6197504E+003
  6.3406906E+003
  3.1578374E+004
  3.6975933E+004
  5.6058174E+003
  5.3470105E+003
 -1.1486973E+003
 -3.2872306E+003
 -6.2741999E+003
 -7.8499124E+003
 -8.7810088E+003
 -9.5019529E+003
 -9.9640351E+003
 -1.0237135E+004
 -1.0383978E+004
 -1.0415568E+004
 -1.0349902E+004
 -1.0192717E+004
 -9.9288701E+003
 -9.5312567E+003
 -8.9652129E+003
 -8.1938043E+003
 -7.1842783E+003
 -5.9126586E+003
 -4.3743982E+003
 -2.5655381E+003
 -5.3140152E+002
  1.9270373E+003
  4.7670424E+003
  1.1380725E+004
 -1.9121610E+002
  5.8557304E+004
  8.9380497E+004
  1.0236052E+005
  8.5909883E+004
  6.8901344E+004
  5.2541988E+004
  3.8492555E+004
  2.6652257E+004
  1.7211898E+004
  9.8849593E+003
  4.3312440E+003
  1.1903519E+002
 -3.0603065E+003
 -5.4086395E+003
 -6.9760046E+003
 -7.5247895E+003
 -6.8100602E+003
 -5.0990433E+003
 -3.1674126E+003
 -6.4567615E+002
 -4.0776446E+002
  1.4454162E+002
  2.7492142E+002
 -5.0242097E+005
 -2.9023083E+005
 -1.2601324E+005
 -1.1846182E+005
 -1.0580932E+005
 -9.1911769E+004
 -7.7657901E+004
 -6.6926926E+004
 -5.8102892E+004
 -5.1019344E+004
 -4.5182902E+004
 -4.0105317E+004
 -3.5370106E+004
 -3.0570255E+004
 -2.5313547E+004
 -1.9042347E+004
 -1.1407333E+004
 -3.5681002E+002
  1.0907075E+004
  3.7341790E+004
  1.5391655E+003
  8.7907350E+003
  2.8168124E+004
  5.1556586E+003
  5.3692768E+003
  6.5934057E+002
 -8.5006376E+002
 -3.1856713E+003
 -4.4650919E+003
 -5.4582292E+003
 -6.3128623E+003
 -6.8969197E+003
 -7.2674414E+003
 -7.4888607E+003
 -7.5667552E+003
 -7.5015198E+003
 -7.2783847E+003
 -6.8757931E+003
 -6.2719095E+003
 -5.4486871E+003
 -4.3909444E+003
 -3.1038250E+003
 -1.5458325E+003
  1.5244042E+002
  2.5906241E+003
  3.9013459E+003
  1.0431987E+004
  6.2175248E+004
  2.1805374E+005
  1.1651014E+005
  9.6540977E+004
  7.7300709E+004
  6.1245696E+004
  4.5734652E+004
  3.2946542E+004
  2.2454913E+004
  1.4090482E+004
  7.4463334E+003
  2.1323192E+003
 -2.1939277E+003
 -5.6797078E+003
 -8.3079599E+003
 -1.0148966E+004
 -1.0079272E+004
 -6.7058210E+003
 -1.1245638E+003
  2.5283533E+002
  1.3094510E+003
  3.1565883E+002
  1.5638715E+002
 -3.9525803E+004
 -8.0428876E+004
 -7.6718627E+004
 -1.1069617E+005
 -9.1877153E+004
 -7.8254790E+004
 -6.5145542E+004
 -5.5774507E+004
 -4.8547908E+004
 -4.2630840E+004
 -3.7449894E+004
 -3.2556857E+004
 -2.7557497E+004
 -2.2058943E+004
 -1.5596861E+004
 -7.7157642E+003
  2.4467641E+003
  1.4520329E+004
  3.5185136E+004
  9.7097757E+002
  6.2014094E+003
  2.1032438E+004
  4.5178752E+003
  5.0076571E+003
  1.9123590E+003
  6.8119680E+002
 -1.2904567E+003
 -2.6355268E+003
 -3.5770348E+003
 -4.2904647E+003
 -4.7697610E+003
 -5.0838414E+003
 -5.2329963E+003
 -5.2044701E+003
 -4.9874114E+003
 -4.5697118E+003
 -3.9443314E+003
 -3.1094078E+003
 -2.0623566E+003
 -8.2025832E+002
  6.6233791E+002
  2.2136198E+003
  4.3049646E+003
  6.1504165E+003
  4.2756614E+004
  8.8777254E+004
  1.0598853E+005
  8.7403068E+004
  6.7631255E+004
  5.0837923E+004
  3.6879649E+004
  2.5582737E+004
  1.6561290E+004
  9.2351162E+003
  3.1395798E+003
 -2.1082439E+003
 -6.8549542E+003
 -1.0848049E+004
 -1.3250119E+004
 -1.2821860E+004
 -8.0119301E+003
 -3.6974029E+003
  1.8405556E+003
 -4.0523868E+004
 -4.1588731E+004
 -2.1985301E+005
 -9.1249954E+004
 -7.5681803E+004
 -5.9027391E+004
 -5.1485830E+004
 -4.4706858E+004
 -3.9369821E+004
 -3.4502235E+004
 -2.9852391E+004
 -2.5046903E+004
 -1.9765385E+004
 -1.3605734E+004
 -6.3014872E+003
  3.0894740E+003
  1.3269946E+004
  3.0113281E+004
  6.2367739E+002
  4.8072365E+003
  1.7061280E+004
  4.0020443E+003
  5.7610457E+003
  2.3429423E+003
  7.5057984E+002
 -6.4401301E+002
 -1.4785476E+003
 -2.2216373E+003
 -2.7710617E+003
 -3.1372967E+003
 -3.3205346E+003
 -3.2991761E+003
 -3.0744772E+003
 -2.6510872E+003
 -2.0344385E+003
 -1.2376508E+003
 -2.6411478E+002
  8.2778045E+002
  2.1270941E+003
  3.2851966E+003
  4.9911798E+003
  9.5062556E+004
  1.3152978E+005
  1.1471857E+005
  9.6233606E+004
  7.2822939E+004
  5.3118554E+004
  3.7948337E+004
  2.6470329E+004
  1.7316328E+004
  9.7983891E+003
  3.2965074E+003
 -2.6378224E+003
 -8.3241029E+003
 -1.4846360E+004
 -2.1854723E+004
 -3.9319238E+004
 -4.4443857E+003
 -5.9187198E+004
 -4.5778109E+004
 -5.9119146E+004
 -4.9543782E+004
 -4.5030544E+004
 -3.9880056E+004
 -3.5526055E+004
 -3.1372217E+004
 -2.7294328E+004
 -2.3025005E+004
 -1.8325867E+004
 -1.2884890E+004
 -6.5131281E+003
  1.5181330E+003
  1.0096866E+004
  2.4473545E+004
  3.8398259E+002
  5.1095569E+003
  1.5749090E+004
  4.7629364E+003
  3.5596847E+003
  2.2397994E+003
  1.0050926E+003
  1.1539684E+002
 -6.0253266E+002
 -1.2426516E+003
 -1.6403010E+003
 -1.8123942E+003
 -1.7782946E+003
 -1.5498967E+003
 -1.1438290E+003
 -5.7686722E+002
  1.2548908E+002
  9.3796659E+002
  1.8055009E+003
  2.6021086E+003
  3.4881615E+003
  1.0133088E+005
  2.4145769E+005
  1.1100807E+005
  7.2934997E+004
  4.9574214E+004
  3.5716606E+004
  2.4907181E+004
  1.6479743E+004
  9.3285780E+003
  2.9323243E+003
 -3.4662608E+003
 -9.7943926E+003
 -1.7133259E+004
 -1.7833597E+004
 -1.1226941E+004
  2.7347139E+003
 -4.2247237E+004
 -3.8420713E+004
 -4.1100343E+004
 -3.7614968E+004
 -3.4633298E+004
 -3.1376126E+004
 -2.8192418E+004
 -2.4918659E+004
 -2.1444391E+004
 -1.7600226E+004
 -1.3200603E+004
 -8.0208009E+003
 -1.7778848E+003
  5.3114308E+003
  1.6940575E+004
  4.1258876E+003
  6.6743645E+003
  3.8425749E+003
  4.6039428E+003
  3.3333704E+003
  2.6101534E+003
  1.3375677E+003
  4.3105452E+002
 -1.6863590E+002
 -5.3597761E+002
 -6.7752313E+002
 -6.2828468E+002
 -4.1263843E+002
 -5.5042192E+001
  4.2005690E+002
  9.6797089E+002
  1.5519222E+003
  2.0235217E+003
  2.2914358E+003
  1.0068619E+005
  4.9268404E+004
  5.7743857E+004
  3.9007029E+004
  2.9927264E+004
  2.1169334E+004
  1.4307309E+004
  8.1868974E+003
  2.3602110E+003
 -3.4977418E+003
 -1.1774481E+004
 -2.0934230E+004
 -5.6399743E+004
 -3.8212989E+002
 -1.9400307E+002
 -4.3861863E+004
 -3.4246343E+004
 -3.2584915E+004
 -3.1024361E+004
 -2.9259672E+004
 -2.7242511E+004
 -2.5073556E+004
 -2.2750794E+004
 -2.0226472E+004
 -1.7444994E+004
 -1.4238428E+004
 -1.0759413E+004
 -5.8573480E+003
 -2.4367885E+003
  8.9334276E+003
  3.2241119E+003
  3.7412344E+003
  1.2462435E+004
  3.7437330E+003
  5.2371123E+003
  2.9175426E+003
  1.8923504E+003
  1.0057919E+003
  5.2338010E+002
  2.3461285E+002
  1.3034512E+002
  1.7442236E+002
  3.5070883E+002
  6.3731236E+002
  1.0075395E+003
  1.3245635E+003
  1.5177881E+003
  3.0462379E+002
  2.9278757E+004
  4.2581937E+004
  3.0502203E+004
  2.7691102E+004
  2.1291908E+004
  1.6179039E+004
  1.1239415E+004
  6.7106435E+003
  2.0935598E+003
 -2.3000802E+003
 -9.5789023E+003
 -1.1804106E+004
 -3.8082081E+004
 -2.7195268E+004
 -2.0943627E+004
 -2.5534068E+004
 -2.4463059E+004
 -2.4221693E+004
 -2.3240912E+004
 -2.2114711E+004
 -2.0775652E+004
 -1.9288998E+004
 -1.7622745E+004
 -1.5867665E+004
 -1.3721999E+004
 -1.2467367E+004
 -7.6224168E+003
 -1.1385741E+004
  4.5279764E+002
  3.6941110E+003
  1.1472373E+004
  3.7170362E+003
  2.9259437E+003
  1.9510307E+003
  1.3659607E+003
  9.3008346E+002
  7.4253445E+002
  6.3382911E+002
  6.4140780E+002
  7.6447652E+002
  1.0512561E+003
  1.3873235E+003
  2.9455572E+003
  3.2881461E+002
 -4.0030019E+003
  1.5681847E+004
  1.3660739E+004
  1.4281297E+004
  1.2845659E+004
  1.0568707E+004
  7.9183834E+003
  5.0937583E+003
  2.3255102E+003
 -8.7255649E+002
 -2.4786868E+003
 -8.1564932E+003
  2.0735139E+003
 -6.5281832E+003
 -1.6463054E+004
 -1.7033566E+004
 -1.9053487E+004
 -1.9393058E+004
 -1.9537242E+004
 -1.9327091E+004
 -1.8965862E+004
 -1.8501938E+004
 -1.7986973E+004
 -1.7528965E+004
 -1.7099431E+004
 -1.7613977E+004
 -1.8482297E+004
 -3.2772374E+004
  2.4430313E+003
  3.7339905E+003
  2.4999827E+003
  2.7401865E+003
  1.7752506E+003
  1.6268897E+003
  1.2655509E+003
  9.5505227E+002
  8.1955424E+002
  7.8242956E+002
  9.2262749E+002
  7.9091656E+002
  1.5235626E+003
 -4.6572677E+004
 -1.2553498E+004
 -2.3533254E+003
  3.5031255E+003
  5.0918002E+003
  5.4063336E+003
  4.7017236E+003
  3.6073920E+003
  2.3424390E+003
  1.4047228E+003
  6.3735081E+002
  2.3662256E+003
  2.9039887E+003
  1.4032723E+004
  6.4201841E+003
 -2.9978991E+003
 -8.9548199E+003
 -1.1871472E+004
 -1.3816365E+004
 -1.5185998E+004
 -1.6068598E+004
 -1.6723458E+004
 -1.7252338E+004
 -1.7760725E+004
 -1.8324606E+004
 -1.9065798E+004
 -1.9977396E+004
 -2.1578479E+004
 -2.1283551E+004
 -2.3830183E+004
 -1.8852603E+003
 -5.0482715E+003
  1.9820378E+003
  1.6085221E+003
  5.4112930E+003
  2.0179341E+003
  1.8336325E+003
  1.7331436E+003
  1.1260777E+003
  8.7207807E+002
  7.3160059E+002
  6.0665562E+002
  6.4492893E+002
  1.1259227E+002
 -2.6995284E+004
 -9.5483340E+004
 -3.7582763E+004
 -2.3842422E+004
 -1.1102103E+004
 -4.7403434E+003
 -7.8245193E+002
  1.0889469E+003
  1.9466797E+003
  2.2078924E+003
  2.2979606E+003
  2.6110897E+003
  3.5331522E+003
  6.4921584E+003
  1.2518247E+004
  3.1459240E+004
 -6.7571096E+001
 -4.6790793E+003
 -7.1314062E+003
 -9.5361863E+003
 -1.1323415E+004
 -1.2869234E+004
 -1.4234265E+004
 -1.5565139E+004
 -1.6954856E+004
 -1.8513633E+004
 -2.0299129E+004
 -2.2599693E+004
 -2.4841898E+004
 -2.9977963E+004
 -2.7464829E+004
 -4.5632817E+004
  1.5304667E+002
 -2.6171110E+001
  3.1130568E+003
  3.0287233E+003
  9.5919912E+002
  8.1468728E+002
  5.7438514E+002
  4.3566658E+002
  3.9300512E+002
  1.3996314E+002
  4.9154922E+003
 -1.0694750E+005
 -3.8958902E+004
 -2.7711522E+004
 -5.5305311E+004
 -3.7645958E+004
 -2.6845069E+004
 -1.6067406E+004
 -9.4731454E+003
 -4.9594607E+003
 -2.0845485E+003
 -2.4697704E+002
  9.9514686E+002
  2.0120510E+003
  3.1431154E+003
  4.8422045E+003
  7.4735682E+003
  1.1005976E+004
  1.4601437E+004
  1.7392154E+004
  1.3360356E+004
 -1.0742445E+003
 -3.9305005E+002
 -2.7889572E+003
 -5.6405879E+003
 -7.7915542E+003
 -9.8281128E+003
 -1.1789274E+004
 -1.3814166E+004
 -1.5991631E+004
 -1.8429592E+004
 -2.1187403E+004
 -2.4559549E+004
 -2.8259132E+004
 -3.4916920E+004
 -4.0338623E+004
 -8.0103725E+004
 -3.7775787E+002
 -2.8579942E+002
  5.6435688E+002
  4.1108365E+002
  9.5103681E+001
  1.0517623E+002
  1.4374276E+003
 -3.7747316E+004
 -1.7471802E+004
  1.2174864E+003
 -2.0300523E+004
 -1.5188773E+004
 -2.2106983E+004
 -2.0903716E+004
 -2.5382773E+004
 -2.5507315E+004
 -2.8362552E+004
 -2.8964447E+004
 -3.1536230E+004
 -3.2461485E+004
 -3.5401951E+004
 -3.5961132E+004
 -3.9469870E+004
 -4.1971236E+004
 -4.8105962E+004
 -4.6551200E+004
 -4.6609588E+004
 -8.1480116E+004
 -5.6529985E+004
 -4.9244377E+004
 -4.4146645E+004
 -3.4530882E+004
 -2.5577825E+004
 -1.8051297E+004
 -1.1962045E+004
 -7.4915704E+003
 -4.2298540E+003
 -1.8375901E+003
  6.6069859E+000
  1.5910189E+003
  3.1910116E+003
  5.0310231E+003
  7.2778574E+003
  1.0086679E+004
  1.2733917E+004
  1.2255757E+004
  1.3050538E+004
  1.3668505E+004
  5.4296725E+003
  3.2436565E+002
 -2.0073273E+003
 -4.4974011E+003
 -6.8391592E+003
 -9.2882033E+003
 -1.1904642E+004
 -1.4781204E+004
 -1.7983812E+004
 -2.1623650E+004
 -2.5718227E+004
 -3.0667781E+004
 -3.5466768E+004
 -4.1815423E+004
 -3.5485259E+004
 -2.4182125E+004
 -1.0088351E+003
 -1.1974898E+003
 -3.8360921E+004
 -2.0113492E+004
  5.2064537E+002
 -2.1081302E+004
 -2.8706529E+004
 -2.4788424E+004
 -2.1562306E+004
 -2.1989944E+004
 -2.3345939E+004
 -2.5381586E+004
 -2.7754830E+004
 -3.0432960E+004
 -3.3355655E+004
 -3.7109154E+004
 -3.9735291E+004
 -4.6303546E+004
 -4.6562645E+004
 -4.0766691E+004
 -3.6454164E+004
 -3.0746019E+004
 -2.4132662E+004
 -1.8080731E+004
 -1.2964847E+004
 -8.7989936E+003
 -5.5034878E+003
 -2.8806930E+003
 -7.2468096E+002
  1.1659307E+003
  2.9687066E+003
  4.8261852E+003
  6.8195016E+003
  8.7764531E+003
  1.0262955E+004
  1.1406072E+004
  9.4959239E+003
  6.6723971E+003
  5.3596262E+003
  6.5988220E+003
  3.2805964E+003
  1.3078904E+003
 -1.2396084E+003
 -3.7702339E+003
 -6.6015740E+003
 -9.7440215E+003
 -1.3234344E+004
 -1.7133105E+004
 -2.1498882E+004
 -2.6388446E+004
 -3.1808752E+004
 -3.7551296E+004
 -4.4675445E+004
 -5.2071399E+004
 -8.0250083E+004
  1.4762620E+003
 -5.4780440E+004
 -2.2248598E+004
 -9.4419285E+003
 -2.7668159E+004
 -2.2308896E+004
 -2.4448377E+004
 -2.3975107E+004
 -2.2833504E+004
 -2.2834481E+004
 -2.3679701E+004
 -2.5077125E+004
 -2.6832370E+004
 -2.8843216E+004
 -3.1114400E+004
 -3.3320396E+004
 -3.5993041E+004
 -3.6913065E+004
 -3.7081188E+004
 -3.5266444E+004
 -3.1402319E+004
 -2.6922048E+004
 -2.2080996E+004
 -1.7297557E+004
 -1.2977426E+004
 -9.2504721E+003
 -6.1041963E+003
 -3.4570183E+003
 -1.1888706E+003
  8.2566178E+002
  2.6987103E+003
  4.5173098E+003
  6.2840887E+003
  8.0003597E+003
  9.3855013E+003
  1.0941676E+004
  1.2063154E+004
  2.2662322E+004
 -2.1375533E+002
  4.8667825E+003
  3.9453692E+003
  2.3110699E+003
 -4.0801307E+002
 -3.6228465E+003
 -7.2297017E+003
 -1.1280399E+004
 -1.5808377E+004
 -2.0864341E+004
 -2.6460876E+004
 -3.2710710E+004
 -3.9227447E+004
 -4.6702107E+004
 -4.6865102E+004
 -5.3702078E+004
  1.3824555E+003
 -7.4829963E+003
 -1.1313925E+001
 -5.1838761E+004
 -2.6192195E+004
  1.1067399E+003
 -2.6595092E+004
 -3.7913546E+004
 -3.1547227E+004
 -2.8053784E+004
 -2.6576490E+004
 -2.4532051E+004
 -2.3371557E+004
 -2.3169496E+004
 -2.2903201E+004
 -2.2869888E+004
 -2.3436577E+004
 -2.4394390E+004
 -2.5643678E+004
 -2.7091410E+004
 -2.8615285E+004
 -3.0183903E+004
 -3.1361057E+004
 -3.2211321E+004
 -3.1706902E+004
 -2.9832597E+004
 -2.7128343E+004
 -2.3679983E+004
 -1.9881669E+004
 -1.6046597E+004
 -1.2411520E+004
 -9.1192788E+003
 -6.2084724E+003
 -3.6544389E+003
 -1.3990845E+003
  6.2802988E+002
  2.4925246E+003
  4.2361349E+003
  5.8755635E+003
  7.3586882E+003
  8.7072889E+003
  9.7448711E+003
  1.0576844E+004
  8.8901914E+003
  4.7511968E+003
  5.9670297E+002
 -1.1648796E+002
  1.7406881E+004
  9.8642771E+003
  6.7564693E+003
  3.2856082E+003
 -2.1113692E+002
 -4.2697300E+003
 -8.8498965E+003
 -1.3963688E+004
 -1.9648782E+004
 -2.6003815E+004
 -3.2972370E+004
 -4.1142409E+004
 -4.8437462E+004
 -6.3204525E+004
 -5.3479649E+004
 -1.0307223E+005
  1.5985644E+003
 -5.7447937E+004
 -2.7470237E+004
  1.6883073E+003
 -2.7600879E+004
 -3.8364632E+004
 -3.2670275E+004
 -2.7726895E+004
 -2.9743373E+004
 -2.9300675E+004
 -2.6655273E+004
 -2.5259098E+004
 -2.4087352E+004
 -2.3288681E+004
 -2.2758041E+004
 -2.2459259E+004
 -2.2471449E+004
 -2.2789208E+004
 -2.3417096E+004
 -2.4256523E+004
 -2.5219682E+004
 -2.6220319E+004
 -2.7103881E+004
 -2.7749750E+004
 -2.7795895E+004
 -2.7170483E+004
 -2.5739131E+004
 -2.3519640E+004
 -2.0784114E+004
 -1.7733878E+004
 -1.4582672E+004
 -1.1503268E+004
 -8.6092944E+003
 -5.9565693E+003
 -3.5536949E+003
 -1.3807076E+003
  5.9495404E+002
  2.4048844E+003
  4.0693063E+003
  5.5880807E+003
  6.9448168E+003
  8.1185484E+003
  9.0281148E+003
  1.0172468E+004
  1.1213462E+004
  1.7011739E+004
  4.1120592E+003
  9.7703863E+003
  1.0200115E+004
  7.5218302E+003
  3.7612894E+003
 -8.1833577E+002
 -5.8801053E+003
 -1.1536127E+004
 -1.7807078E+004
 -2.4784704E+004
 -3.2575153E+004
 -4.1606438E+004
 -5.2146318E+004
 -6.7635275E+004
 -9.1340927E+004
 -1.6836508E+005
  2.4264610E+003
 -4.1162916E+004
 -1.8771333E+004
  1.4273930E+003
 -2.2155079E+004
 -1.5813469E+004
 -2.4298209E+004
 -2.3361135E+004
 -3.0356323E+004
 -2.8459234E+004
 -2.9729385E+004
 -4.9742949E+004
 -3.6230615E+004
 -2.9394520E+004
 -3.0953725E+004
 -3.0011732E+004
 -2.8226188E+004
 -2.7000027E+004
 -2.6471606E+004
 -2.5575020E+004
 -2.4296922E+004
 -2.3320516E+004
 -2.2555329E+004
 -2.2044724E+004
 -2.1762741E+004
 -2.1693678E+004
 -2.1861250E+004
 -2.2227769E+004
 -2.2742651E+004
 -2.3330758E+004
 -2.3900924E+004
 -2.4352853E+004
 -2.4536417E+004
 -2.4339284E+004
 -2.3599187E+004
 -2.2280711E+004
 -2.0451357E+004
 -1.8203893E+004
 -1.5688408E+004
 -1.3048237E+004
 -1.0407857E+004
 -7.8585692E+003
 -5.4555355E+003
 -3.2232710E+003
 -1.1647971E+003
  7.2771282E+002
  2.4635258E+003
  4.0453789E+003
  5.4658796E+003
  6.7053721E+003
  7.7371793E+003
  8.5691093E+003
  9.0716846E+003
  8.6920477E+003
  7.4965906E+003
 -6.2746051E+001
  8.1911698E+001
 -1.9562345E+001
  3.2156600E+004
  1.7651684E+004
  1.3253873E+004
  8.0779990E+003
  3.2392361E+003
 -2.3311666E+003
 -8.4941410E+003
 -1.5269644E+004
 -2.2725696E+004
 -3.1045766E+004
 -4.0447823E+004
 -5.1733201E+004
 -6.4872721E+004
 -8.0069749E+004
 -9.1414614E+004
 -8.7961307E+004
 -6.9723048E+004
  1.9440668E+003
 -4.0067468E+004
 -1.9107021E+004
  8.1665379E+002
 -2.3690219E+004
 -1.6141037E+004
 -2.2575729E+004
 -3.4348219E+004
 -2.7587612E+004
 -2.3346904E+004
 -2.3711016E+004
 -2.5419990E+004
 -2.7070815E+004
 -3.1145871E+004
 -3.1045294E+004
 -2.9278414E+004
 -2.7951607E+004
 -2.7488291E+004
 -2.6623370E+004
 -2.5792012E+004
 -2.4988457E+004
 -2.4030074E+004
 -2.3133537E+004
 -2.2296919E+004
 -2.1637395E+004
 -2.1146316E+004
 -2.0830710E+004
 -2.0695563E+004
 -2.0724570E+004
 -2.0894593E+004
 -2.1158275E+004
 -2.1454929E+004
 -2.1711832E+004
 -2.1841627E+004
 -2.1754726E+004
 -2.1349520E+004
 -2.0566179E+004
 -1.9374035E+004
 -1.7791799E+004
 -1.5892831E+004
 -1.3767401E+004
 -1.1513913E+004
 -9.2214941E+003
 -6.9615129E+003
 -4.7839834E+003
 -2.7192284E+003
 -7.8296698E+002
  1.0172575E+003
  2.6756489E+003
  4.1827532E+003
  5.5227298E+003
  6.6702152E+003
  7.6064673E+003
  8.2667554E+003
  8.6725448E+003
  8.7090248E+003
  8.7250876E+003
  7.4317156E+003
  8.1204622E+003
  1.5875528E+004
  1.6998186E+004
  1.3098402E+004
  7.9549505E+003
  1.7866365E+003
 -4.8364906E+003
 -1.2042840E+004
 -1.9841938E+004
 -2.8324397E+004
 -3.7752175E+004
 -4.8134598E+004
 -6.0249507E+004
 -7.3601347E+004
 -9.1653021E+004
 -9.4933111E+004
 -1.8517412E+005
 -6.4433876E+004
  3.9899952E+003
 -5.5358173E+004
 -2.5620868E+004
  2.8610488E+003
 -2.5416391E+004
 -3.0316637E+004
 -2.7903932E+004
 -2.4264333E+004
 -2.3827423E+004
 -2.5962548E+004
 -2.5751875E+004
 -2.4462801E+004
 -2.4387898E+004
 -2.5019971E+004
 -2.6407499E+004
 -2.6999079E+004
 -2.7579313E+004
 -2.7108063E+004
 -2.6448698E+004
 -2.5751740E+004
 -2.4978948E+004
 -2.4185342E+004
 -2.3400934E+004
 -2.2633632E+004
 -2.1846959E+004
 -2.1136467E+004
 -2.0530480E+004
 -2.0059337E+004
 -1.9726211E+004
 -1.9526602E+004
 -1.9449353E+004
 -1.9467367E+004
 -1.9541508E+004
 -1.9620877E+004
 -1.9646004E+004
 -1.9553149E+004
 -1.9276312E+004
 -1.8758499E+004
 -1.7953926E+004
 -1.6846363E+004
 -1.5451167E+004
 -1.3807508E+004
 -1.1974665E+004
 -1.0018446E+004
 -8.0026218E+003
 -5.9820605E+003
 -3.9997289E+003
 -2.0867968E+003
 -2.6517796E+002
  1.4485651E+003
  3.0388243E+003
  4.4874171E+003
  5.7696558E+003
  6.8580376E+003
  7.7062346E+003
  8.3133395E+003
  8.5654743E+003
  8.9319837E+003
  8.1066851E+003
  1.1711067E+004
  5.2753149E+002
  4.7944117E+004
  2.6010669E+004
  2.0100643E+004
  1.2951800E+004
  6.5534500E+003
 -6.2682029E+002
 -8.2283040E+003
 -1.6246829E+004
 -2.4734875E+004
 -3.3778468E+004
 -4.3508611E+004
 -5.4120797E+004
 -6.5014174E+004
 -7.6719227E+004
 -8.7044536E+004
 -1.0499736E+005
 -6.7577170E+004
 -1.3185261E+005
 -7.2658794E+004
 -5.5951524E+004
 -5.3820270E+004
 -5.1776098E+004
 -4.7837129E+004
 -4.2723469E+004
 -4.2987622E+004
 -3.9805078E+004
 -4.0493116E+004
 -3.8832171E+004
 -4.1087193E+004
 -3.7767165E+004
 -3.6661106E+004
 -5.3806952E+004
 -3.9388173E+004
 -3.0578199E+004
 -2.9893699E+004
 -2.8097242E+004
 -2.5829200E+004
 -2.5179296E+004
 -2.4695147E+004
 -2.4685874E+004
 -2.4361374E+004
 -2.4144373E+004
 -2.4470986E+004
 -2.4904803E+004
 -2.5457057E+004
 -2.5470736E+004
 -2.5139233E+004
 -2.4598167E+004
 -2.3984298E+004
 -2.3328294E+004
 -2.2627353E+004
 -2.1912035E+004
 -2.1189245E+004
 -2.0498451E+004
 -1.9856811E+004
 -1.9298318E+004
 -1.8838668E+004
 -1.8485855E+004
 -1.8236913E+004
 -1.8077985E+004
 -1.7984299E+004
 -1.7920125E+004
 -1.7840553E+004
 -1.7698189E+004
 -1.7446647E+004
 -1.7042088E+004
 -1.6448981E+004
 -1.5641714E+004
 -1.4609591E+004
 -1.3358232E+004
 -1.1911429E+004
 -1.0305072E+004
 -8.5825207E+003
 -6.7884297E+003
 -4.9643635E+003
 -3.1461154E+003
 -1.3631206E+003
  3.6042859E+002
  2.0032313E+003
  3.5439200E+003
  4.9577162E+003
  6.2140817E+003
  7.2735626E+003
  8.0870985E+003
  8.6032856E+003
  8.7685731E+003
  8.6519753E+003
  8.6377660E+003
  9.9412056E+003
  1.2477083E+004
  2.2232128E+004
  2.4182278E+004
  1.8871141E+004
  1.1914760E+004
  4.0003047E+003
 -3.9957949E+003
 -1.2180744E+004
 -2.0559837E+004
 -2.9185287E+004
 -3.8094295E+004
 -4.7217402E+004
 -5.6398925E+004
 -6.5043294E+004
 -7.2344285E+004
 -7.7982677E+004
 -7.5081405E+004
 -5.8597819E+004
 -5.3652799E+004
 -4.6924654E+004
 -4.2998763E+004
 -4.0456105E+004
 -3.8243228E+004
 -3.8759284E+004
 -3.5794881E+004
 -3.1962957E+004
 -2.9275176E+004
 -2.7666559E+004
 -2.6313622E+004
 -2.5192219E+004
 -2.4720150E+004
 -2.4247898E+004
 -2.3847605E+004
 -2.3639138E+004
 -2.3596255E+004
 -2.3714968E+004
 -2.3742933E+004
 -2.3658548E+004
 -2.3355634E+004
 -2.2893502E+004
 -2.2335229E+004
 -2.1715534E+004
 -2.1065083E+004
 -2.0398152E+004
 -1.9736267E+004
 -1.9094122E+004
 -1.8497454E+004
 -1.7964650E+004
 -1.7510970E+004
 -1.7142504E+004
 -1.6856854E+004
 -1.6641215E+004
 -1.6472249E+004
 -1.6313207E+004
 -1.6124000E+004
 -1.5861745E+004
 -1.5491557E+004
 -1.4995923E+004
 -1.4354157E+004
 -1.3555871E+004
 -1.2591144E+004
 -1.1461096E+004
 -1.0174746E+004
 -8.7516250E+003
 -7.2180144E+003
 -5.6041400E+003
 -3.9408153E+003
 -2.2572580E+003
 -5.8004201E+002
  1.0666957E+003
  2.6599978E+003
  4.1758034E+003
  5.5863434E+003
  6.8553465E+003
  7.9362043E+003
  8.7647977E+003
  9.2352827E+003
  9.2578154E+003
  8.5878985E+003
  7.1542161E+003
  3.6948265E+003
 -3.4393060E+003
 -2.6755527E+003
  9.4294440E+002
  6.4060343E+004
  3.5273090E+004
  2.7116279E+004
  1.7318735E+004
  8.9074765E+003
  4.2126945E+002
 -7.9171100E+003
 -1.6149050E+004
 -2.4319179E+004
 -3.2420563E+004
 -4.0349400E+004
 -4.7832131E+004
 -5.4409070E+004
 -5.9878046E+004
 -6.1724994E+004
 -5.8372347E+004
 -5.5213395E+004
 -4.9185866E+004
 -4.5223804E+004
 -4.1733795E+004
 -3.9126721E+004
 -3.7405089E+004
 -3.5274748E+004
 -3.3523335E+004
 -3.1209966E+004
 -2.9117687E+004
 -2.7466049E+004
 -2.6077192E+004
 -2.5055985E+004
 -2.4244455E+004
 -2.3671699E+004
 -2.3213823E+004
 -2.2865698E+004
 -2.2647862E+004
 -2.2488423E+004
 -2.2335116E+004
 -2.2085358E+004
 -2.1726266E+004
 -2.1264974E+004
 -2.0727752E+004
 -2.0140833E+004
 -1.9521530E+004
 -1.8888525E+004
 -1.8257212E+004
 -1.7646447E+004
 -1.7072699E+004
 -1.6552621E+004
 -1.6098312E+004
 -1.5716644E+004
 -1.5406566E+004
 -1.5158746E+004
 -1.4947725E+004
 -1.4740150E+004
 -1.4478096E+004
 -1.4123906E+004
 -1.3668202E+004
 -1.3092766E+004
 -1.2418472E+004
 -1.1634457E+004
 -1.0739295E+004
 -9.7199847E+003
 -8.5749685E+003
 -7.3084937E+003
 -5.9336756E+003
 -4.4692188E+003
 -2.9374528E+003
 -1.3620473E+003
  2.3348022E+002
  1.8263487E+003
  3.3940428E+003
  4.9131156E+003
  6.3557347E+003
  7.6881050E+003
  8.8536612E+003
  9.7847624E+003
  1.0354786E+004
  1.0262321E+004
  9.2012039E+003
  7.5878167E+003
  7.5410180E+003
 -1.4092369E+003
  1.5547261E+004
  3.0642830E+004
  3.2972107E+004
  2.3028982E+004
  1.3854811E+004
  4.6589216E+003
 -3.7538631E+003
 -1.1807158E+004
 -1.9518834E+004
 -2.6911860E+004
 -3.3883357E+004
 -4.0223414E+004
 -4.5672414E+004
 -4.9532738E+004
 -5.1428747E+004
 -5.1011589E+004
 -4.8092280E+004
 -4.5254797E+004
 -4.2144108E+004
 -3.9559593E+004
 -3.7372033E+004
 -3.5448688E+004
 -3.3835358E+004
 -3.1978781E+004
 -3.0104136E+004
 -2.8362863E+004
 -2.6845468E+004
 -2.5590386E+004
 -2.4533736E+004
 -2.3696289E+004
 -2.3004974E+004
 -2.2442282E+004
 -2.1987393E+004
 -2.1614055E+004
 -2.1293998E+004
 -2.0972932E+004
 -2.0617382E+004
 -2.0198708E+004
 -1.9714902E+004
 -1.9176330E+004
 -1.8596921E+004
 -1.7991833E+004
 -1.7374531E+004
 -1.6759523E+004
 -1.6161081E+004
 -1.5594637E+004
 -1.5074473E+004
 -1.4613163E+004
 -1.4219132E+004
 -1.3895835E+004
 -1.3635738E+004
 -1.3426771E+004
 -1.3208137E+004
 -1.2935086E+004
 -1.2523287E+004
 -1.1938834E+004
 -1.1298435E+004
 -1.0581822E+004
 -9.8313339E+003
 -9.0093217E+003
 -8.1055204E+003
 -7.0961327E+003
 -5.9737268E+003
 -4.7388688E+003
 -3.4015245E+003
 -1.9776808E+003
 -4.8693204E+002
  1.0496743E+003
  2.6110784E+003
  4.1767454E+003
  5.7257507E+003
  7.2369646E+003
  8.6796529E+003
  1.0027869E+004
  1.1168385E+004
  1.2046579E+004
  1.2380721E+004
  1.1499691E+004
  7.1857963E+003
  1.4181846E+003
 -3.0890382E+003
  9.1125983E+004
  4.4146425E+004
  3.0036601E+004
  1.7595192E+004
  8.4241859E+003
 -4.9300696E+001
 -7.7818726E+003
 -1.5041883E+004
 -2.1820469E+004
 -2.8053793E+004
 -3.3594109E+004
 -3.8181146E+004
 -4.1561749E+004
 -4.3353770E+004
 -4.3517106E+004
 -4.2630676E+004
 -4.0839371E+004
 -3.8912604E+004
 -3.6983228E+004
 -3.5207507E+004
 -3.3583955E+004
 -3.1982387E+004
 -3.0435444E+004
 -2.8882575E+004
 -2.7397297E+004
 -2.6051214E+004
 -2.4858776E+004
 -2.3835739E+004
 -2.2955832E+004
 -2.2209370E+004
 -2.1569654E+004
 -2.1017452E+004
 -2.0533630E+004
 -2.0090469E+004
 -1.9660420E+004
 -1.9214250E+004
 -1.8735696E+004
 -1.8218097E+004
 -1.7663625E+004
 -1.7079432E+004
 -1.6474471E+004
 -1.5859184E+004
 -1.5244792E+004
 -1.4643938E+004
 -1.4070087E+004
 -1.3537583E+004
 -1.3060253E+004
 -1.2651594E+004
 -1.2320105E+004
 -1.2072711E+004
 -1.1888632E+004
 -1.1772969E+004
 -1.1502156E+004
 -1.0961958E+004
 -1.0353385E+004
 -9.5441371E+003
 -8.8162482E+003
 -8.0799586E+003
 -7.3683591E+003
 -6.5945405E+003
 -5.7309134E+003
 -4.7508707E+003
 -3.6464200E+003
 -2.4203261E+003
 -1.0847633E+003
  3.4237204E+002
  1.8410936E+003
  3.3916667E+003
  4.9757510E+003
  6.5772584E+003
  8.1802213E+003
  9.7795274E+003
  1.1345738E+004
  1.2961094E+004
  1.4329571E+004
  1.5476027E+004
  1.3004370E+004
  6.4244271E+003
  4.3032300E+003
  7.6001837E+004
  3.6674874E+004
  3.2267027E+004
  1.9463045E+004
  1.1159139E+004
  3.0173570E+003
 -4.2542265E+003
 -1.1038460E+004
 -1.7276032E+004
 -2.2931064E+004
 -2.7882909E+004
 -3.1984944E+004
 -3.5048432E+004
 -3.6975299E+004
 -3.7772965E+004
 -3.7568230E+004
 -3.6769483E+004
 -3.5588326E+004
 -3.4274049E+004
 -3.2925706E+004
 -3.1581406E+004
 -3.0254509E+004
 -2.8910313E+004
 -2.7577572E+004
 -2.6289450E+004
 -2.5079856E+004
 -2.3975402E+004
 -2.2979846E+004
 -2.2094747E+004
 -2.1307808E+004
 -2.0607973E+004
 -1.9980886E+004
 -1.9409915E+004
 -1.8876692E+004
 -1.8360459E+004
 -1.7843447E+004
 -1.7311754E+004
 -1.6758156E+004
 -1.6180976E+004
 -1.5582461E+004
 -1.4967513E+004
 -1.4342784E+004
 -1.3716753E+004
 -1.3099732E+004
 -1.2504343E+004
 -1.1945081E+004
 -1.1439339E+004
 -1.1004281E+004
 -1.0664454E+004
 -1.0434006E+004
 -1.0345962E+004
 -1.0338417E+004
 -1.0466856E+004
 -9.9563175E+003
 -8.6338693E+003
 -7.8238119E+003
 -6.9544428E+003
 -6.3629160E+003
 -5.7737431E+003
 -5.1743938E+003
 -4.4799950E+003
 -3.6533402E+003
 -2.6758917E+003
 -1.5484669E+003
 -2.8342082E+002
  1.1001580E+003
  2.5807554E+003
  4.1387580E+003
  5.7580288E+003
  7.4259987E+003
  9.1350268E+003
  1.0880393E+004
  1.2705270E+004
  1.4615658E+004
  1.7287891E+004
  2.1444942E+004
  3.6558587E+004
  2.2314470E+003
  4.4910271E+004
  3.9103760E+004
  2.7986527E+004
  2.0685166E+004
  1.2676914E+004
  5.4966232E+003
 -1.2885609E+003
 -7.5598565E+003
 -1.3321866E+004
 -1.8505552E+004
 -2.3030735E+004
 -2.6794982E+004
 -2.9709902E+004
 -3.1716445E+004
 -3.2843554E+004
 -3.3227191E+004
 -3.3018461E+004
 -3.2427300E+004
 -3.1596437E+004
 -3.0632449E+004
 -2.9591853E+004
 -2.8497216E+004
 -2.7371726E+004
 -2.6230861E+004
 -2.5101343E+004
 -2.4010779E+004
 -2.2978655E+004
 -2.2018076E+004
 -2.1131913E+004
 -2.0319255E+004
 -1.9573913E+004
 -1.8887385E+004
 -1.8248810E+004
 -1.7645092E+004
 -1.7062446E+004
 -1.6487524E+004
 -1.5909705E+004
 -1.5321647E+004
 -1.4719416E+004
 -1.4101925E+004
 -1.3470318E+004
 -1.2827790E+004
 -1.2179676E+004
 -1.1534088E+004
 -1.0902234E+004
 -1.0299974E+004
 -9.7453371E+003
 -9.2656396E+003
 -8.8849829E+003
 -8.6657691E+003
 -8.6836896E+003
 -8.9811189E+003
 -9.9598628E+003
 -7.7794559E+003
 -7.4897252E+003
 -5.9926361E+003
 -5.0599753E+003
 -4.5097633E+003
 -4.2024764E+003
 -3.8540153E+003
 -3.3647540E+003
 -2.7034099E+003
 -1.8545846E+003
 -8.1489659E+002
  3.9952978E+002
  1.7609745E+003
  3.2430825E+003
  4.8245880E+003
  6.4921578E+003
  8.2341933E+003
  1.0056960E+004
  1.1914691E+004
  1.3946222E+004
  1.5697160E+004
  1.8883048E+004
  1.7325424E+004
  3.0904814E+004
  3.7391402E+004
  3.0962945E+004
  2.6975907E+004
  2.0349952E+004
  1.3946799E+004
  7.4069351E+003
  1.2141848E+003
 -4.6046488E+003
 -9.9416469E+003
 -1.4740680E+004
 -1.8934664E+004
 -2.2461797E+004
 -2.5270331E+004
 -2.7343197E+004
 -2.8708480E+004
 -2.9441110E+004
 -2.9664237E+004
 -2.9497133E+004
 -2.9054018E+004
 -2.8418703E+004
 -2.7649105E+004
 -2.6784221E+004
 -2.5849718E+004
 -2.4871451E+004
 -2.3874106E+004
 -2.2880943E+004
 -2.1911884E+004
 -2.0980801E+004
 -2.0096754E+004
 -1.9263423E+004
 -1.8480925E+004
 -1.7745987E+004
 -1.7052592E+004
 -1.6392598E+004
 -1.5756466E+004
 -1.5134534E+004
 -1.4517916E+004
 -1.3899294E+004
 -1.3273101E+004
 -1.2635443E+004
 -1.1984027E+004
 -1.1318327E+004
 -1.0640195E+004
 -9.9545101E+003
 -9.2715629E+003
 -8.6048908E+003
 -7.9836497E+003
 -7.4156488E+003
 -6.9873836E+003
 -6.5643979E+003
 -6.8433823E+003
 -6.4699006E+003
 -1.3329091E+004
 -9.5878134E+003
 -4.9672909E+003
 -3.5359180E+003
 -2.3099660E+003
 -2.6307523E+003
 -2.7004610E+003
 -2.6353902E+003
 -2.4116421E+003
 -1.9538922E+003
 -1.2280060E+003
 -2.5435256E+002
  9.3533298E+002
  2.3013354E+003
  3.8058300E+003
  5.4250510E+003
  7.1480437E+003
  8.9754348E+003
  1.0898137E+004
  1.2946737E+004
  1.4948973E+004
  1.7114194E+004
  1.8145531E+004
  2.0067093E+004
  1.5138526E+004
  2.6197801E+004
  2.8597500E+004
  2.5662124E+004
  2.0831331E+004
  1.5004145E+004
  9.1042019E+003
  3.3022411E+003
 -2.1209566E+003
 -7.1032793E+003
 -1.1579460E+004
 -1.5506302E+004
 -1.8844762E+004
 -2.1569839E+004
 -2.3677261E+004
 -2.5192827E+004
 -2.6173463E+004
 -2.6694816E+004
 -2.6844603E+004
 -2.6703269E+004
 -2.6339040E+004
 -2.5804262E+004
 -2.5137962E+004
 -2.4371547E+004
 -2.3531446E+004
 -2.2642428E+004
 -2.1727476E+004
 -2.0806718E+004
 -1.9896904E+004
 -1.9010655E+004
 -1.8156813E+004
 -1.7340388E+004
 -1.6562961E+004
 -1.5822968E+004
 -1.5116170E+004
 -1.4436383E+004
 -1.3776269E+004
 -1.3128148E+004
 -1.2484499E+004
 -1.1838215E+004
 -1.1182693E+004
 -1.0511994E+004
 -9.8213031E+003
 -9.1079608E+003
 -8.3731069E+003
 -7.6220688E+003
 -6.8738403E+003
 -6.1416178E+003
 -5.4859793E+003
 -4.8711515E+003
 -4.4428139E+003
 -3.8476327E+003
 -3.0396369E+003
 -1.4237851E+003
  1.4604892E+003
  6.5601198E+002
 -4.8123912E+002
 -1.2042914E+003
 -1.7066118E+003
 -1.7486172E+003
 -1.4188781E+003
 -8.3840397E+002
  8.2437874E+001
  1.2956417E+003
  2.7048311E+003
  4.2524936E+003
  5.9207541E+003
  7.7026891E+003
  9.6060476E+003
  1.1660353E+004
  1.3853884E+004
  1.6295802E+004
  1.8509043E+004
  2.0001542E+004
  1.6939480E+004
 -8.6551920E+002
 -4.4714052E+002
  2.4833354E+004
  2.6247806E+004
  2.2231185E+004
  1.6474740E+004
  1.0574887E+004
  5.0445205E+003
 -9.0556968E+001
 -4.7687839E+003
 -8.9687243E+003
 -1.2665828E+004
 -1.5841911E+004
 -1.8486595E+004
 -2.0603947E+004
 -2.2215881E+004
 -2.3362245E+004
 -2.4097632E+004
 -2.4482139E+004
 -2.4575385E+004
 -2.4430168E+004
 -2.4090662E+004
 -2.3593038E+004
 -2.2967358E+004
 -2.2240350E+004
 -2.1436690E+004
 -2.0579603E+004
 -1.9690704E+004
 -1.8789364E+004
 -1.7892259E+004
 -1.7012796E+004
 -1.6160842E+004
 -1.5342491E+004
 -1.4560120E+004
 -1.3812747E+004
 -1.3096631E+004
 -1.2406041E+004
 -1.1733931E+004
 -1.1072339E+004
 -1.0412550E+004
 -9.7450972E+003
 -9.0599153E+003
 -8.3469712E+003
 -7.5973189E+003
 -6.8059617E+003
 -5.9758011E+003
 -5.1090499E+003
 -4.2737071E+003
 -3.4598945E+003
 -2.8017910E+003
 -1.9981167E+003
 -1.2723729E+003
 -2.1672406E+003
 -7.5729692E+001
 -4.4525663E+002
 -7.9932000E+002
 -1.2624494E+003
 -1.2926357E+003
 -8.5553981E+002
  1.4781653E+002
  1.4744803E+003
  2.9583459E+003
  4.5822710E+003
  6.3019890E+003
  8.1319151E+003
  1.0098092E+004
  1.2231474E+004
  1.4661910E+004
  1.7347512E+004
  2.1250431E+004
  2.6070933E+004
  4.1796608E+004
 -3.3818697E+003
 -2.3691292E+003
  6.0166911E+004
  3.4144207E+004
  2.5177458E+004
  1.7693943E+004
  1.1771210E+004
  6.3590536E+003
  1.4911679E+003
 -2.9152332E+003
 -6.8602404E+003
 -1.0346681E+004
 -1.3370369E+004
 -1.5931131E+004
 -1.8036202E+004
 -1.9703626E+004
 -2.0962561E+004
 -2.1850720E+004
 -2.2410819E+004
 -2.2685770E+004
 -2.2715555E+004
 -2.2535463E+004
 -2.2176113E+004
 -2.1664635E+004
 -2.1026024E+004
 -2.0284398E+004
 -1.9463588E+004
 -1.8587098E+004
 -1.7677626E+004
 -1.6756203E+004
 -1.5841271E+004
 -1.4947681E+004
 -1.4086013E+004
 -1.3262275E+004
 -1.2478080E+004
 -1.1731388E+004
 -1.1017383E+004
 -1.0329216E+004
 -9.6584005E+003
 -8.9945737E+003
 -8.3252171E+003
 -7.6356006E+003
 -6.9091748E+003
 -6.1290080E+003
 -5.2785843E+003
 -4.3518728E+003
 -3.3653664E+003
 -2.2531119E+003
 -1.2950365E+003
 -5.0105430E+002
  2.3276628E+002
 -1.6056785E+002
  4.1369501E+001
 -5.5702688E+002
 -2.1757296E+003
 -8.5762406E+002
 -1.4127042E+003
 -4.0204782E+001
  1.4006190E+003
  3.1120615E+003
  4.8033319E+003
  6.5756097E+003
  8.4281273E+003
  1.0409300E+004
  1.2555872E+004
  1.5054402E+004
  1.7786025E+004
  2.2279836E+004
  2.4255237E+004
  4.0146914E+004
  5.4687418E+004
  2.8626574E+004
  2.6351886E+004
  1.7747259E+004
  1.2408199E+004
  7.1544228E+003
  2.6078191E+003
 -1.5212816E+003
 -5.2105423E+003
 -8.4901331E+003
 -1.1361878E+004
 -1.3831416E+004
 -1.5906250E+004
 -1.7600164E+004
 -1.8933395E+004
 -1.9931790E+004
 -2.0624423E+004
 -2.1041208E+004
 -2.1210792E+004
 -2.1159531E+004
 -2.0911475E+004
 -2.0489155E+004
 -1.9914783E+004
 -1.9211343E+004
 -1.8403268E+004
 -1.7516496E+004
 -1.6577822E+004
 -1.5613674E+004
 -1.4648381E+004
 -1.3702573E+004
 -1.2791624E+004
 -1.1924878E+004
 -1.1105948E+004
 -1.0333534E+004
 -9.6029251E+003
 -8.9072296E+003
 -8.2374296E+003
 -7.5820094E+003
 -6.9255837E+003
 -6.2480548E+003
 -5.5251813E+003
 -4.7295788E+003
 -3.8329738E+003
 -2.7965578E+003
 -1.6232327E+003
 -4.6520797E+002
  7.9658640E+002
  1.5283632E+003
  1.4031002E+003
 -2.7876533E+002
 -1.4535260E+003
 -3.9490770E+003
 -5.8750014E+002
  1.3475672E+003
  3.1856089E+003
  4.9696766E+003
  6.7628501E+003
  8.6030607E+003
  1.0535795E+004
  1.2604072E+004
  1.4927290E+004
  1.7525067E+004
  2.1169448E+004
  2.3904423E+004
  3.5398743E+004
  3.3722479E+004
  3.1859213E+004
  2.2519899E+004
  1.7681066E+004
  1.2090828E+004
  7.4807472E+003
  3.2437784E+003
 -5.4949688E+002
 -3.9749071E+003
 -7.0400884E+003
 -9.7559040E+003
 -1.2126372E+004
 -1.4157291E+004
 -1.5857324E+004
 -1.7239071E+004
 -1.8318500E+004
 -1.9113771E+004
 -1.9643745E+004
 -1.9926823E+004
 -1.9980404E+004
 -1.9821124E+004
 -1.9465783E+004
 -1.8932677E+004
 -1.8242973E+004
 -1.7421674E+004
 -1.6497811E+004
 -1.5503547E+004
 -1.4472219E+004
 -1.3436010E+004
 -1.2422570E+004
 -1.1452859E+004
 -1.0539685E+004
 -9.6873174E+003
 -8.8939012E+003
 -8.1537433E+003
 -7.4592713E+003
 -6.8022751E+003
 -6.1708344E+003
 -5.5470894E+003
 -4.9059709E+003
 -4.2138269E+003
 -3.4315186E+003
 -2.5134395E+003
 -1.4273344E+003
  2.4334604E+001
  1.8893205E+003
  5.9929422E+003
  1.3667153E+003
 -1.6394348E+003
 -1.5298620E+003
  1.4002240E+003
  3.3196774E+003
  5.1377316E+003
  6.8995637E+003
  8.6878586E+003
  1.0522342E+004
  1.2417373E+004
  1.4440461E+004
  1.6510914E+004
  1.9178264E+004
  2.2310970E+004
  3.0884695E+004
  4.1533473E+004
  2.4260028E+004
  2.2296180E+004
  1.5746826E+004
  1.1484382E+004
  7.2320595E+003
  3.4887533E+003
  3.9972228E+001
 -3.0954527E+003
 -5.9403563E+003
 -8.4949610E+003
 -1.0760955E+004
 -1.2739219E+004
 -1.4432798E+004
 -1.5847022E+004
 -1.6989310E+004
 -1.7868332E+004
 -1.8493101E+004
 -1.8872292E+004
 -1.9014104E+004
 -1.8926838E+004
 -1.8620204E+004
 -1.8107218E+004
 -1.7406253E+004
 -1.6542735E+004
 -1.5549565E+004
 -1.4466155E+004
 -1.3335842E+004
 -1.2200728E+004
 -1.1098781E+004
 -1.0058021E+004
 -9.0935773E+003
 -8.2098933E+003
 -7.4013661E+003
 -6.6587492E+003
 -5.9744288E+003
 -5.3407796E+003
 -4.7502860E+003
 -4.1858323E+003
 -3.6148604E+003
 -2.9927919E+003
 -2.2710286E+003
 -1.3648921E+003
 -2.9331380E+002
  1.1213397E+003
  1.6679404E+003
  2.0890549E+003
 -5.5289023E+000
  2.3443795E+003
  3.5660175E+003
  5.3409511E+003
  7.0121143E+003
  8.7279206E+003
  1.0436759E+004
  1.2145361E+004
  1.3776253E+004
  1.5344117E+004
  1.6286863E+004
  1.6090031E+004
  1.1211322E+004
 -3.2487804E+003
 -4.8178710E+003
  3.7345920E+004
  2.4279372E+004
  1.8379286E+004
  1.3981341E+004
  1.0172069E+004
  6.6633808E+003
  3.3867949E+003
  3.3007456E+002
 -2.5102521E+003
 -5.1298509E+003
 -7.5228766E+003
 -9.6831957E+003
 -1.1605863E+004
 -1.3287619E+004
 -1.4726899E+004
 -1.5923349E+004
 -1.6877092E+004
 -1.7587971E+004
 -1.8055075E+004
 -1.8276826E+004
 -1.8251878E+004
 -1.7980987E+004
 -1.7469772E+004
 -1.6732156E+004
 -1.5793299E+004
 -1.4691501E+004
 -1.3476309E+004
 -1.2203469E+004
 -1.0932640E+004
 -9.7137848E+003
 -8.5848716E+003
 -7.5670516E+003
 -6.6568495E+003
 -5.8423316E+003
 -5.1067964E+003
 -4.4373399E+003
 -3.8386602E+003
 -3.3092730E+003
 -2.8317746E+003
 -2.3743015E+003
 -1.8783981E+003
 -1.2666265E+003
 -4.9814288E+002
  7.2018051E+002
  2.1709977E+003
  7.0560841E+003
  3.2775777E+002
  1.2161140E+003
  2.3179106E+003
  3.9342712E+003
  5.4807294E+003
  7.1261246E+003
  8.7585965E+003
  1.0367520E+004
  1.1901513E+004
  1.3326350E+004
  1.4380885E+004
  1.5001313E+004
  1.4221525E+004
  1.1887658E+004
  4.6145465E+003
 -6.0773669E+002
  1.6863652E+003
  3.1160620E+003
 -9.0489870E+002
  1.2636619E+004
  1.5569925E+004
  1.3926911E+004
  1.1498175E+004
  8.6523145E+003
  5.8422172E+003
  3.0722934E+003
  4.0186611E+002
 -2.1452465E+003
 -4.5460698E+003
 -6.7834658E+003
 -8.8431131E+003
 -1.0713431E+004
 -1.2384932E+004
 -1.3849606E+004
 -1.5100081E+004
 -1.6128685E+004
 -1.6926568E+004
 -1.7483143E+004
 -1.7786161E+004
 -1.7822794E+004
 -1.7582030E+004
 -1.7058819E+004
 -1.6259392E+004
 -1.5207610E+004
 -1.3946943E+004
 -1.2541553E+004
 -1.1071908E+004
 -9.6111862E+003
 -8.2386341E+003
 -7.0079890E+003
 -5.9314189E+003
 -5.0100612E+003
 -4.2066126E+003
 -3.4860492E+003
 -2.8359759E+003
 -2.2571242E+003
 -1.7937506E+003
 -1.4564248E+003
 -1.1690981E+003
 -8.7615887E+002
 -4.5419150E+002
  7.7740268E+001
  1.0877301E+003
  1.5313850E+003
  4.7549338E+003
  1.1052364E+003
  2.7285392E+003
  3.9664602E+003
  5.6240957E+003
  7.2258369E+003
  8.8234453E+003
  1.0357359E+004
  1.1808625E+004
  1.3106920E+004
  1.4233545E+004
  1.4815603E+004
  1.4267683E+004
  1.0337919E+004
 -2.6173224E+003
 -1.0526533E+003
  3.0377521E+002
  1.5261373E+003
  5.7561071E+003
  9.8954263E+003
  1.1135481E+004
  1.0591420E+004
  9.1012562E+003
  7.1711021E+003
  4.9607210E+003
  2.6634996E+003
  3.4891101E+002
 -1.9262577E+003
 -4.1258595E+003
 -6.2218162E+003
 -8.1923974E+003
 -1.0019844E+004
 -1.1689098E+004
 -1.3186531E+004
 -1.4498694E+004
 -1.5610995E+004
 -1.6506447E+004
 -1.7164707E+004
 -1.7561782E+004
 -1.7670934E+004
 -1.7465492E+004
 -1.6924020E+004
 -1.6039349E+004
 -1.4828110E+004
 -1.3346351E+004
 -1.1679371E+004
 -9.9210714E+003
 -8.2067743E+003
 -6.6220506E+003
 -5.2499820E+003
 -4.1475884E+003
 -3.2360432E+003
 -2.4803961E+003
 -1.8046340E+003
 -1.1463971E+003
 -5.9048361E+002
 -2.3738245E+002
 -3.4188483E+001
  4.5332494E+000
  4.4726077E+001
  1.5438863E+002
  4.7545370E+002
  8.5167686E+002
  1.6348863E+003
  1.8664981E+003
  3.0191737E+001
  2.1943326E+003
  4.0064343E+003
  5.7136996E+003
  7.3609322E+003
  8.9413523E+003
  1.0440709E+004
  1.1837815E+004
  1.3150343E+004
  1.4361030E+004
  1.5888593E+004
  1.7988004E+004
  2.6390953E+004
 -2.9557997E+003
  8.7989973E+001
  2.8451959E+003
  4.7010794E+003
  6.8918625E+003
  8.1798600E+003
  8.1826758E+003
  7.3127332E+003
  5.9044985E+003
  4.1824668E+003
  2.2668664E+003
  2.5766665E+002
 -1.7832808E+003
 -3.8092674E+003
 -5.7856133E+003
 -7.6848479E+003
 -9.4844893E+003
 -1.1165122E+004
 -1.2708766E+004
 -1.4097202E+004
 -1.5310179E+004
 -1.6323523E+004
 -1.7107421E+004
 -1.7625228E+004
 -1.7833506E+004
 -1.7684510E+004
 -1.7132618E+004
 -1.6146208E+004
 -1.4731004E+004
 -1.2931341E+004
 -1.0875235E+004
 -8.7625901E+003
 -6.6576334E+003
 -4.7875895E+003
 -3.3243586E+003
 -2.1546329E+003
 -1.3439997E+003
 -6.8033135E+002
 -8.8878811E+001
  5.8381754E+002
  1.4017017E+003
  1.7822856E+003
  1.5636161E+003
  1.2461897E+003
  8.0137552E+002
  6.3667975E+002
  6.2788086E+002
  8.0249663E+002
  9.4955992E+002
  1.0582212E+003
 -2.4778215E+003
 -2.9160877E+003
 -1.0977243E+002
  2.2163976E+003
  4.0742615E+003
  5.8763733E+003
  7.5563367E+003
  9.1427911E+003
  1.0622789E+004
  1.1966783E+004
  1.3268007E+004
  1.4304183E+004
  1.6438168E+004
  1.6081196E+004
  2.6534624E+004
  1.3273925E+003
  2.8313535E+003
  4.4010848E+003
  5.7858490E+003
  6.5390544E+003
  6.6084307E+003
  6.0351510E+003
  4.9826220E+003
  3.5887194E+003
  1.9667147E+003
  1.9736580E+002
 -1.6550752E+003
 -3.5424051E+003
 -5.4265350E+003
 -7.2769265E+003
 -9.0681779E+003
 -1.0778177E+004
 -1.2386263E+004
 -1.3871231E+004
 -1.5209031E+004
 -1.6370102E+004
 -1.7316263E+004
 -1.7998101E+004
 -1.8353245E+004
 -1.8306141E+004
 -1.7774981E+004
 -1.6681930E+004
 -1.4980719E+004
 -1.2773974E+004
 -1.0228438E+004
 -7.4682002E+003
 -4.9362405E+003
 -2.5564526E+003
 -7.2905672E+002
  1.1628790E+002
  8.1254491E+002
  1.2146338E+003
  1.6353422E+003
  2.1270831E+003
  3.6595921E+003
  3.0993027E+003
  3.0795374E+003
  2.5927556E+003
  1.4207230E+003
  9.0202128E+002
  6.7859242E+002
  6.0156603E+002
  5.9975619E+002
  3.5096083E+002
 -2.5645877E+003
 -2.8313390E+003
 -1.3798297E+003
  4.8657648E+002
  2.3734752E+003
  4.3197603E+003
  6.1288581E+003
  7.8522430E+003
  9.4547436E+003
  1.0918357E+004
  1.2226716E+004
  1.3323722E+004
  1.4353195E+004
  1.4939550E+004
  1.6674058E+004
  1.7285064E+004
  1.5265407E+003
  3.0263638E+003
  4.0821115E+003
  5.0289835E+003
  5.5981370E+003
  5.6661965E+003
  5.2391520E+003
  4.3972858E+003
  3.2283006E+003
  1.8130546E+003
  2.2076918E+002
 -1.4920211E+003
 -3.2786788E+003
 -5.1011989E+003
 -6.9281527E+003
 -8.7331425E+003
 -1.0493186E+004
 -1.2186939E+004
 -1.3792517E+004
 -1.5284725E+004
 -1.6631510E+004
 -1.7789603E+004
 -1.8698003E+004
 -1.9274289E+004
 -1.9412961E+004
 -1.8974445E+004
 -1.7831950E+004
 -1.5881940E+004
 -1.2970151E+004
 -9.4175074E+003
 -6.2876492E+003
 -3.0237088E+003
  4.0673374E+002
  1.4189691E+003
  2.7240611E+003
  2.9152056E+003
  2.8899475E+003
  3.0226359E+003
  2.9508914E+003
  8.8467748E+003
  8.0218510E+003
  6.2019671E+003
  4.4538931E+003
  1.1801253E+003
  8.9671551E+002
  5.3531352E+002
  4.2561253E+002
  2.9115071E+002
  8.0873498E+001
 -1.6721460E+003
 -2.8774592E+002
 -2.8151756E+003
 -8.1391358E+002
  6.3184832E+002
  2.6992152E+003
  4.6149190E+003
  6.4979435E+003
  8.2637031E+003
  9.9044572E+003
  1.1383234E+004
  1.2642002E+004
  1.3623377E+004
  1.4155550E+004
  1.4433574E+004
  1.4011993E+004
  1.4207743E+004
 -4.3354875E+002
  2.7080018E+003
  3.9047847E+003
  4.7752023E+003
  5.1814966E+003
  5.2102853E+003
  4.8555404E+003
  4.1389137E+003
  3.1138266E+003
  1.8374056E+003
  3.6472439E+002
 -1.2548869E+003
 -2.9790263E+003
 -4.7713866E+003
 -6.6013304E+003
 -8.4430551E+003
 -1.0274509E+004
 -1.2075851E+004
 -1.3827280E+004
 -1.5506014E+004
 -1.7081889E+004
 -1.8511523E+004
 -1.9730989E+004
 -2.0636556E+004
 -2.1084975E+004
 -2.0911056E+004
 -1.9725387E+004
 -1.7250532E+004
 -1.3755777E+004
 -9.6180708E+003
 -3.9275025E+003
 -1.3000762E+003
  5.3723359E+003
  7.6851932E+003
  6.5033009E+003
  6.2962710E+003
  5.4461018E+003
  4.3084270E+003
  2.1245312E+002
 -1.0647410E+002
 -7.7038323E+002
  2.5187881E+002
  4.4232773E+002
  3.2908666E+002
  1.9222218E+002
  1.9902117E+001
  3.0082833E+001
 -8.2374622E+003
 -2.1412675E+003
 -1.7244707E+003
  9.2809058E+002
  2.9342644E+003
  5.0205399E+003
  6.9610249E+003
  8.8061488E+003
  1.0521007E+004
  1.2059572E+004
  1.3360687E+004
  1.4271222E+004
  1.4540085E+004
  1.3533130E+004
  1.2021895E+004
  9.6889509E+003
 -2.0604275E+002
  5.8627350E+003
  4.3936157E+003
  4.8101036E+003
  5.0962000E+003
  5.1442966E+003
  4.8277231E+003
  4.1896684E+003
  3.2507697E+003
  2.0577518E+003
  6.5596795E+002
 -9.1308309E+002
 -2.6110497E+003
 -4.4039473E+003
 -6.2626915E+003
 -8.1632136E+003
 -1.0085938E+004
 -1.2014691E+004
 -1.3934873E+004
 -1.5830332E+004
 -1.7679043E+004
 -1.9444861E+004
 -2.1069371E+004
 -2.2461426E+004
 -2.3419560E+004
 -2.3668773E+004
 -2.3346327E+004
 -2.1135990E+004
 -1.5878152E+004
 -5.2873844E+003
 -4.5233689E+003
 -5.1138608E+002
 -1.9731689E+002
 -1.9916179E+002
  2.2836580E+002
  1.2037658E+002
  1.4201770E+002
  4.7555675E+001
 -5.3162992E+001
 -1.3478248E+004
 -5.3295463E+003
 -1.7379613E+003
  1.0238786E+003
  3.3385875E+003
  5.5010690E+003
  7.5381215E+003
  9.4755388E+003
  1.1302816E+004
  1.3004159E+004
  1.4452442E+004
  1.5546120E+004
  1.6060246E+004
  1.4872339E+004
  1.0425273E+004
 -4.9412860E+001
  1.6636141E+003
  3.6755469E+003
  5.1153630E+003
  5.4090952E+003
  5.4208816E+003
  5.1428867E+003
  4.5393196E+003
  3.6396380E+003
  2.4872335E+003
  1.1146704E+003
 -4.4220978E+002
 -2.1481339E+003
 -3.9706117E+003
 -5.8822218E+003
 -7.8611229E+003
 -9.8912801E+003
 -1.1962097E+004
 -1.4067117E+004
 -1.6201884E+004
 -1.8358940E+004
 -2.0522559E+004
 -2.2649114E+004
 -2.4658525E+004
 -2.6498970E+004
 -2.7510156E+004
 -2.7046719E+004
 -2.3210730E+004
 -2.1356731E+004
 -8.4535450E+003
  1.9181157E+003
  5.0663909E+001
  5.0518088E+001
 -3.9820576E+001
 -1.6483742E+000
  3.4610676E+001
 -5.0098061E+000
 -1.5110503E+002
 -1.0021875E+002
 -6.8889835E+003
 -8.7156790E+003
 -6.7113753E+003
 -3.8313992E+003
 -1.0739545E+003
  1.5152909E+003
  3.8933803E+003
  6.1046954E+003
  8.2158113E+003
  1.0247813E+004
  1.2226486E+004
  1.4126253E+004
  1.6035046E+004
  1.7571067E+004
  1.8760478E+004
  1.6148626E+004
  8.4906359E+003
  5.5751075E+003
  1.9493035E+003
  4.4749668E+003
  5.2130148E+003
  5.7648073E+003
  5.9643164E+003
  5.7730951E+003
  5.1724288E+003
  4.2827369E+003
  3.1381413E+003
  1.7584374E+003
  1.7730528E+002
 -1.5686526E+003
 -3.4480681E+003
 -5.4344201E+003
 -7.5076989E+003
 -9.6558923E+003
 -1.1875142E+004
 -1.4169696E+004
 -1.6550421E+004
 -1.9034541E+004
 -2.1633032E+004
 -2.4361547E+004
 -2.7127016E+004
 -2.9841270E+004
 -3.2954641E+004
 -3.6343057E+004
 -5.1931154E+004
 -9.3324078E+003
 -2.9415938E+001
 -4.9357783E+001
 -1.0073240E+001
 -1.3403753E+002
 -6.6020961E+001
 -8.2421436E+001
 -9.7884198E+003
 -9.3242653E+003
 -7.4096537E+003
 -5.2812093E+003
 -2.7836908E+003
 -1.3241655E+002
  2.2888454E+003
  4.5970323E+003
  6.8153060E+003
  8.9672202E+003
  1.1089516E+004
  1.3188945E+004
  1.5354294E+004
  1.7516752E+004
  2.0462950E+004
  2.4136371E+004
  4.1928667E+004
  4.6180093E+003
  3.9306223E+003
  1.0104826E+004
  6.9907712E+003
  7.2930799E+003
  6.8038774E+003
  6.0747626E+003
  5.1954780E+003
  4.0264884E+003
  2.5995626E+003
  9.6151972E+002
 -8.5533703E+002
 -2.8186641E+003
 -4.8996015E+003
 -7.0793176E+003
 -9.3492949E+003
 -1.1712888E+004
 -1.4185367E+004
 -1.6797256E+004
 -1.9587924E+004
 -2.2636890E+004
 -2.5952208E+004
 -2.9856326E+004
 -3.3357020E+004
 -3.7467290E+004
 -2.8754654E+004
 -1.2417358E+004
 -1.8411942E+001
  2.9652371E+001
  2.6749467E+001
 -1.0313987E+004
 -9.9093052E+003
 -8.0595194E+003
 -5.7742242E+003
 -3.6922911E+003
 -1.4159137E+003
  8.7617982E+002
  3.1734266E+003
  5.4027076E+003
  7.5886180E+003
  9.7551320E+003
  1.1937761E+004
  1.4151732E+004
  1.6493372E+004
  1.8563349E+004
  2.2075794E+004
  1.9996023E+004
  3.0911697E+004
  5.2450484E+003
  2.6626566E+003
  8.4943047E+003
  7.4948174E+003
  7.3597927E+003
  6.3873714E+003
  5.1562823E+003
  3.6540594E+003
  1.9279054E+003
  3.3121159E+000
 -2.0712310E+003
 -4.2661817E+003
 -6.5605192E+003
 -8.9490996E+003
 -1.1441185E+004
 -1.4063080E+004
 -1.6859099E+004
 -1.9905206E+004
 -2.3289514E+004
 -2.7247654E+004
 -3.1799643E+004
 -3.8677694E+004
 -4.6615258E+004
 -7.8445403E+004
  6.3974387E+003
 -1.0989732E+004
 -1.0532151E+004
 -8.6647049E+003
 -6.4414645E+003
 -4.4642626E+003
 -2.3435754E+003
 -2.1902493E+002
  1.9519849E+003
  4.1080524E+003
  6.2501334E+003
  8.3817176E+003
  1.0529894E+004
  1.2735491E+004
  1.5058867E+004
  1.7540891E+004
  2.0244963E+004
  2.1291975E+004
  2.1031083E+004
 -1.3004464E+003
 -2.0494856E+003
  5.3688530E+003
  1.8493023E+004
  9.7123248E+003
  9.0352013E+003
  7.7940072E+003
  6.5373870E+003
  4.9472838E+003
  3.0822528E+003
  1.0162476E+003
 -1.2052094E+003
 -3.5328994E+003
 -5.9475096E+003
 -8.4451816E+003
 -1.1039825E+004
 -1.3765736E+004
 -1.6674174E+004
 -1.9872230E+004
 -2.3421896E+004
 -2.7784126E+004
 -3.2304359E+004
 -4.0920579E+004
 -4.2101481E+004
 -7.1196439E+004
 -8.4214255E+003
 -1.8776073E+004
 -9.1743247E+003
 -7.4022117E+003
 -5.0375057E+003
 -3.0477593E+003
 -1.0319114E+003
  9.8790914E+002
  3.0219044E+003
  5.0636524E+003
  7.1057089E+003
  9.1574332E+003
  1.1246433E+004
  1.3413509E+004
  1.5777712E+004
  1.8408619E+004
  2.2156638E+004
  2.7404487E+004
  4.5398198E+004
 -1.1416018E+003
  7.0849666E+003
  3.2759734E+003
  1.0873316E+004
  9.3204983E+003
  8.3935608E+003
  6.5006643E+003
  4.4670265E+003
  2.1702698E+003
 -2.2934272E+002
 -2.7137640E+003
 -5.2509201E+003
 -7.8437615E+003
 -1.0508828E+004
 -1.3280048E+004
 -1.6220758E+004
 -1.9407639E+004
 -2.3032149E+004
 -2.7088786E+004
 -3.2557647E+004
 -3.7026454E+004
 -4.8280918E+004
 -4.8306401E+004
 -2.4759062E+003
 -8.5515691E+003
 -5.2642850E+003
 -6.7032202E+003
 -9.3144495E+003
 -7.0726024E+003
 -5.5446346E+003
 -3.5029144E+003
 -1.6439240E+003
  2.6362466E+002
  2.1683952E+003
  4.0902607E+003
  6.0175143E+003
  7.9519821E+003
  9.8966430E+003
  1.1881786E+004
  1.3908500E+004
  1.6197664E+004
  1.8375667E+004
  2.2718972E+004
  2.2619120E+004
  4.0109909E+004
 -3.0757916E+003
  8.6330363E+003
  1.8072011E+004
  1.1848052E+004
  1.0468801E+004
  8.2618904E+003
  6.0026179E+003
  3.4697185E+003
  8.1720193E+002
 -1.8370359E+003
 -4.4980650E+003
 -7.1711207E+003
 -9.8702061E+003
 -1.2630480E+004
 -1.5500086E+004
 -1.8579717E+004
 -2.1921797E+004
 -2.5967869E+004
 -3.0065548E+004
 -3.8069273E+004
 -3.8921842E+004
 -6.6153275E+004
 -4.8395012E+003
 -1.4181897E+004
 -6.2635796E+003
 -6.9402161E+003
 -6.2892862E+003
 -5.1494663E+003
 -3.5849919E+003
 -1.9671917E+003
 -2.2366019E+002
  1.5440375E+003
  3.3407007E+003
  5.1498087E+003
  6.9663056E+003
  8.7847665E+003
  1.0607483E+004
  1.2434135E+004
  1.4297955E+004
  1.6153332E+004
  1.8281046E+004
  1.9833580E+004
  2.3443891E+004
  2.3544414E+004
  1.2334176E+004
  1.4289820E+004
  1.2558316E+004
  1.0819979E+004
  7.9486902E+003
  4.7881532E+003
  1.8934873E+003
 -9.4978040E+002
 -3.7379784E+003
 -6.4712471E+003
 -9.1727238E+003
 -1.1865634E+004
 -1.4591044E+004
 -1.7408990E+004
 -2.0402696E+004
 -2.3714912E+004
 -2.7538186E+004
 -3.2767035E+004
 -4.0887293E+004
 -6.4765595E+004
 -1.6423043E+003
 -5.9740277E+003
 -3.8088851E+003
 -4.7549895E+003
 -6.7820104E+003
 -5.7957723E+003
 -5.0208848E+003
 -4.2927489E+003
 -3.3061587E+003
 -1.9557804E+003
 -4.5327369E+002
  1.1436234E+003
  2.8048226E+003
  4.4969357E+003
  6.2035754E+003
  7.9121912E+003
  9.6156794E+003
  1.1306183E+004
  1.2978633E+004
  1.4597331E+004
  1.6170115E+004
  1.7496678E+004
  1.8777664E+004
  1.8829885E+004
  1.9529886E+004
  1.5367218E+004
  1.4919878E+004
  1.2720185E+004
  9.4133375E+003
  6.1630939E+003
  2.9114241E+003
 -1.4229137E+002
 -3.0248555E+003
 -5.8069389E+003
 -8.4825932E+003
 -1.1069084E+004
 -1.3587953E+004
 -1.6069079E+004
 -1.8554261E+004
 -2.1034836E+004
 -2.3613228E+004
 -2.5651801E+004
 -2.6520474E+004
 -1.9793959E+004
  6.3964113E+002
 -1.6384050E+003
 -3.3355935E+003
 -8.6325212E+003
 -4.1337538E+003
 -4.8866056E+003
 -4.8198259E+003
 -4.2528561E+003
 -3.5945102E+003
 -2.7732861E+003
 -1.7193701E+003
 -4.7347364E+002
  9.4018010E+002
  2.4557161E+003
  4.0326995E+003
  5.6399919E+003
  7.2549733E+003
  8.8638709E+003
  1.0457489E+004
  1.2028442E+004
  1.3553792E+004
  1.5012875E+004
  1.6257675E+004
  1.7262054E+004
  1.7570115E+004
  1.7167064E+004
  1.3453024E+004
  1.1841730E+004
  2.5281225E+004
  1.1981825E+004
  7.2127459E+003
  3.5968562E+003
  5.4677066E+002
 -2.4355127E+003
 -5.2409450E+003
 -7.8839774E+003
 -1.0339408E+004
 -1.2619776E+004
 -1.4735162E+004
 -1.6670486E+004
 -1.8391036E+004
 -1.9642057E+004
 -2.0209374E+004
 -1.9205129E+004
 -1.5246665E+004
 -4.8844424E+003
  3.1999633E+003
  9.1746401E+003
  5.6742861E+003
  1.1905591E+004
  7.8668543E+003
  1.4873315E+002
  2.4412820E+004
 -5.6718061E+002
 -5.8365733E+002
 -3.2552204E+003
 -1.9203453E+003
 -2.9604071E+003
 -4.0188334E+003
 -3.7532506E+003
 -3.5326263E+003
 -3.3346549E+003
 -2.9553914E+003
 -2.2540426E+003
 -1.4039330E+003
 -3.6591157E+002
  8.5983060E+002
  2.2307446E+003
  3.7025569E+003
  5.2297130E+003
  6.7754172E+003
  8.3126557E+003
  9.8302309E+003
  1.1324171E+004
  1.2788306E+004
  1.4215576E+004
  1.5558041E+004
  1.6792968E+004
  1.7615790E+004
  1.7395117E+004
  1.4603377E+004
 -7.2893331E+002
  9.2072655E+003
  6.3057576E+003
  7.3028382E+003
  3.9762044E+003
  1.0925185E+003
 -1.9685267E+003
 -4.8537054E+003
 -7.4667161E+003
 -9.7858043E+003
 -1.1816949E+004
 -1.3571506E+004
 -1.5029621E+004
 -1.6099904E+004
 -1.6639672E+004
 -1.6313155E+004
 -1.4556220E+004
 -1.0579245E+004
 -5.2306398E+003
 -1.5495453E+002
  3.9899109E+003
  6.6826954E+003
  1.1937274E+004
  1.0571421E+004
  2.3142111E+004
  1.1754495E+004
  1.4625997E+004
  9.6898100E+003
  1.2113409E+004
  8.3490003E+003
  8.4311534E+003
  7.3659956E+003
  4.2539599E+002
  6.9507446E+003
  4.5426894E+003
 -1.8154775E+003
 -2.1737715E+003
 -1.4950394E+003
 -2.2842837E+003
 -2.6956234E+003
 -2.6613794E+003
 -2.5530951E+003
 -2.2808127E+003
 -1.7954836E+003
 -1.1272598E+003
 -2.4942223E+002
  8.1154707E+002
  2.0459464E+003
  3.4203354E+003
  4.8955822E+003
  6.4126672E+003
  7.9184245E+003
  9.3905315E+003
  1.0820527E+004
  1.2218073E+004
  1.3595826E+004
  1.4936623E+004
  1.6275230E+004
  1.7467939E+004
  1.9044061E+004
  2.0387616E+004
  3.1957089E+004
 -1.0563935E+003
  2.9448556E+003
  1.1120726E+004
  6.6859974E+003
  4.9508163E+003
  1.6018170E+003
 -1.7131237E+003
 -4.7293800E+003
 -7.3511103E+003
 -9.5139826E+003
 -1.1290600E+004
 -1.2708106E+004
 -1.3761671E+004
 -1.4391181E+004
 -1.4466918E+004
 -1.3792685E+004
 -1.2116428E+004
 -9.3331604E+003
 -5.5968502E+003
 -1.8137669E+003
  1.3966479E+003
  4.4303573E+003
  7.3367478E+003
  8.9860385E+003
  8.3129208E+003
  8.3884164E+003
  8.0046605E+003
  9.2686077E+003
  1.0795261E+004
  3.0654719E+004
  3.5456733E+003
 -1.2030169E+003
  5.3573389E+003
  1.3073361E+003
 -1.4477865E+003
 -3.5834363E+001
 -9.4997061E+002
 -1.3195443E+003
 -1.6788266E+003
 -1.8031575E+003
 -1.6633656E+003
 -1.3627514E+003
 -8.7489955E+002
 -1.7601812E+002
  7.1980347E+002
  1.8165491E+003
  3.0845785E+003
  4.5170482E+003
  6.0384291E+003
  7.5898479E+003
  9.1002623E+003
  1.0508096E+004
  1.1842975E+004
  1.3135709E+004
  1.4425738E+004
  1.5718896E+004
  1.7043287E+004
  1.8091987E+004
  1.9943419E+004
  1.7843830E+004
  2.4402593E+004
  8.3683041E+003
  1.0464593E+004
  5.9735477E+003
  2.2823786E+003
 -1.5308298E+003
 -5.0721222E+003
 -7.6611239E+003
 -9.6397161E+003
 -1.1117406E+004
 -1.2211789E+004
 -1.2925961E+004
 -1.3231492E+004
 -1.3047881E+004
 -1.2262179E+004
 -1.0770863E+004
 -8.5671939E+003
 -5.8998187E+003
 -3.0951736E+003
 -4.2724329E+002
  1.9941192E+003
  3.9695904E+003
  5.1616059E+003
  6.0571186E+003
  6.4351567E+003
  7.1171593E+003
  8.6296621E+003
  1.0947151E+004
  1.5675273E+004
  1.1958055E+004
  2.5780552E+004
  1.3142405E+004
  1.4688335E+004
  1.0458624E+004
  1.3338340E+004
  9.1983585E+003
  1.1175877E+004
  7.8437076E+003
  9.9039807E+003
  6.7938919E+003
  8.4344869E+003
  5.1449900E+003
  8.4774850E+003
  4.1300662E+003
  1.8372312E+003
  5.7355663E+002
 -2.1628082E+002
 -7.4243017E+002
 -1.0278397E+003
 -1.0947267E+003
 -9.7556749E+002
 -6.5806351E+002
 -1.4681856E+002
  5.6605515E+002
  1.4997789E+003
  2.6317463E+003
  3.9928151E+003
  5.4877140E+003
  7.1787653E+003
  8.8755552E+003
  1.0371032E+004
  1.1706738E+004
  1.2900509E+004
  1.4059062E+004
  1.5242686E+004
  1.6506440E+004
  1.7876654E+004
  1.9324243E+004
  1.9423992E+004
  1.7905977E+004
 -1.1301934E+003
  8.7715981E+003
  8.5896769E+003
  3.0727971E+003
 -2.6437508E+003
 -6.1533442E+003
 -8.6467835E+003
 -1.0217347E+004
 -1.1356435E+004
 -1.2089719E+004
 -1.2501644E+004
 -1.2561302E+004
 -1.2223452E+004
 -1.1429757E+004
 -1.0148468E+004
 -8.4186534E+003
 -6.3609570E+003
 -4.1822352E+003
 -2.0556815E+003
 -1.1296327E+002
  1.5467664E+003
  2.8349219E+003
  3.7018768E+003
  4.5086271E+003
  5.3914239E+003
  6.6117663E+003
  8.2753640E+003
  1.0318862E+004
  1.0946118E+004
  9.0399631E+003
  8.4107372E+003
  7.2588765E+003
  6.3069311E+003
  5.2665872E+003
  4.4032703E+003
  3.0620647E+003
  1.8004072E+003
  8.2812208E+002
  1.1614076E+002
 -3.1976463E+002
 -5.5785505E+002
 -6.0668956E+002
 -4.6641867E+002
 -1.4359289E+002
  3.7176931E+002
  1.0997858E+003
  2.0504402E+003
  3.2885180E+003
  4.6533355E+003
  6.3823241E+003
  8.1857636E+003
  1.0137837E+004
  1.1857403E+004
  1.3016520E+004
  1.4004308E+004
  1.4953292E+004
  1.5977582E+004
  1.7179689E+004
  1.8607942E+004
  2.0939714E+004
  2.4405001E+004
  3.8304401E+004
 -1.2653421E+003
  5.9629970E+003
  5.7070221E+003
 -3.1715041E+003
 -8.6999966E+003
 -1.0295038E+004
 -1.1401679E+004
 -1.1942733E+004
 -1.2307714E+004
 -1.2423830E+004
 -1.2287983E+004
 -1.1852631E+004
 -1.1085473E+004
 -9.9774799E+003
 -8.5642266E+003
 -6.9357349E+003
 -5.2072921E+003
 -3.5010992E+003
 -1.9160581E+003
 -5.3561105E+002
  6.0356191E+002
  1.5651823E+003
  2.4082073E+003
  3.2955834E+003
  4.3045508E+003
  5.4950886E+003
  6.3840013E+003
  6.5281743E+003
  6.5120201E+003
  5.8337108E+003
  5.2509963E+003
  4.5505491E+003
  3.8629314E+003
  3.0564946E+003
  2.2713857E+003
  1.4414511E+003
  7.3019481E+002
  2.2129208E+002
 -1.2081042E+002
 -2.9026267E+002
 -2.9767951E+002
 -1.4456760E+002
  1.7659620E+002
  6.8226720E+002
  1.3954619E+003
  2.3751289E+003
  3.6157784E+003
  5.3986942E+003
  6.7291927E+003
  9.4258718E+003
  1.2537771E+004
  1.3761850E+004
  1.4532526E+004
  1.5118726E+004
  1.5791948E+004
  1.6541345E+004
  1.7596583E+004
  1.8633577E+004
  2.1472614E+004
  2.0639813E+004
  3.3884032E+004
  7.5520786E+003
 -1.6854012E+004
 -1.3679811E+004
 -1.3123871E+004
 -1.2813432E+004
 -1.2807006E+004
 -1.2741788E+004
 -1.2605607E+004
 -1.2310651E+004
 -1.1813300E+004
 -1.1082006E+004
 -1.0113586E+004
 -8.9363114E+003
 -7.6083021E+003
 -6.2102048E+003
 -4.8248209E+003
 -3.5263343E+003
 -2.3655865E+003
 -1.3627080E+003
 -5.0207471E+002
  2.8803181E+002
  1.0702432E+003
  1.9034961E+003
  2.7149205E+003
  3.4079791E+003
  3.7984526E+003
  3.7503567E+003
  3.5951992E+003
  3.2679123E+003
  2.8987667E+003
  2.4586980E+003
  1.9867961E+003
  1.4531412E+003
  9.3552080E+002
  4.8542240E+002
  1.3615395E+002
 -8.5483739E+001
 -1.8282577E+002
 -1.5224947E+002
  1.0456815E+001
  3.1404888E+002
  7.7699358E+002
  1.4393992E+003
  2.3777713E+003
  3.7012046E+003
  5.5696902E+003
  7.3723905E+003
  8.0278326E+003
  1.4427221E+004
  1.6157617E+004
  1.6173229E+004
  1.6270237E+004
  1.6470409E+004
  1.6940148E+004
  1.7561494E+004
  1.8574860E+004
  1.9217996E+004
  2.1676164E+004
  2.0476252E+004
 -2.3047226E+004
 -1.6822952E+004
 -1.5354283E+004
 -1.4201722E+004
 -1.3646207E+004
 -1.3271293E+004
 -1.2938441E+004
 -1.2537149E+004
 -1.2007196E+004
 -1.1316166E+004
 -1.0459094E+004
 -9.4563308E+003
 -8.3507109E+003
 -7.1989991E+003
 -6.0627474E+003
 -4.9967800E+003
 -4.0410363E+003
 -3.2100616E+003
 -2.4874754E+003
 -1.8305388E+003
 -1.1863587E+003
 -5.2797576E+002
  1.3558183E+002
  6.9626648E+002
  1.0904942E+003
  1.3317310E+003
  1.3944118E+003
  1.3757813E+003
  1.2769262E+003
  1.1193008E+003
  8.9833986E+002
  6.4072473E+002
  3.6846443E+002
  1.2165434E+002
 -6.5633191E+001
 -1.7792816E+002
 -2.0374484E+002
 -1.3843772E+002
  2.4861788E+001
  2.9037506E+002
  6.8521046E+002
  1.1727512E+003
  2.0504375E+003
  2.8149559E+003
  7.8223904E+003
  6.0617417E+003
  6.2842778E+003
  3.1309123E+004
  1.9706807E+004
  1.8009703E+004
  1.7053515E+004
  1.6971592E+004
  1.7083269E+004
  1.7425185E+004
  1.7819513E+004
  1.8464205E+004
  1.8665623E+004
  1.8784735E+004
 -2.8446381E+004
 -1.7248934E+004
 -1.7002228E+004
 -1.4962591E+004
 -1.4313199E+004
 -1.3755040E+004
 -1.3341107E+004
 -1.2892015E+004
 -1.2362343E+004
 -1.1716574E+004
 -1.0950563E+004
 -1.0080119E+004
 -9.1389171E+003
 -8.1724525E+003
 -7.2303870E+003
 -6.3583937E+003
 -5.5906802E+003
 -4.9440560E+003
 -4.4049195E+003
 -3.9386453E+003
 -3.4615969E+003
 -2.9287388E+003
 -2.3813460E+003
 -1.8233616E+003
 -1.3506242E+003
 -9.8184458E+002
 -6.7863186E+002
 -4.5069351E+002
 -2.7405138E+002
 -1.6465985E+002
 -1.3195439E+002
 -1.6195298E+002
 -2.2733365E+002
 -2.9674598E+002
 -3.4544470E+002
 -3.5501318E+002
 -3.1586295E+002
 -2.2181632E+002
 -6.5716967E+001
  1.5124784E+002
  4.4412065E+002
  7.4195911E+002
  1.1785331E+003
  7.4870356E+002
  2.8671416E+002
  2.2729190E+004
  1.6736884E+004
  1.8553917E+004
  1.7305325E+004
  1.7196699E+004
  1.7056947E+004
  1.7101515E+004
  1.7225889E+004
  1.7262451E+004
  1.7300285E+004
  1.6445058E+004
 -2.8077312E+004
 -1.8901007E+004
 -1.6603340E+004
 -1.5253979E+004
 -1.4640156E+004
 -1.4161497E+004
 -1.3761907E+004
 -1.3332386E+004
 -1.2832501E+004
 -1.2237732E+004
 -1.1546574E+004
 -1.0774549E+004
 -9.9523464E+003
 -9.1213096E+003
 -8.3276127E+003
 -7.6161710E+003
 -7.0216525E+003
 -6.5668585E+003
 -6.2633831E+003
 -6.0303771E+003
 -5.8070786E+003
 -5.4452381E+003
 -4.8432038E+003
 -4.2863125E+003
 -3.7184014E+003
 -3.1961196E+003
 -2.7313702E+003
 -2.2242524E+003
 -1.7523092E+003
 -1.3752350E+003
 -1.1014263E+003
 -9.2940716E+002
 -8.1790184E+002
 -7.3729072E+002
 -6.6321203E+002
 -5.8124581E+002
 -4.8309770E+002
 -3.6534880E+002
 -2.2513626E+002
 -4.3205990E+001
  1.4967867E+002
  3.5972247E+002
  2.8369030E+002
  6.1096697E+002
 -1.3642979E+002
  1.6329050E+004
  1.8973671E+004
  1.7523505E+004
  1.7587817E+004
  1.7127755E+004
  1.6918935E+004
  1.6736071E+004
  1.6585536E+004
  1.6375472E+004
  1.6046300E+004
  1.5243358E+004
  3.0113988E+003
  1.7421924E+003
 -1.1304341E+004
 -1.4618599E+004
 -1.5147277E+004
 -1.5053994E+004
 -1.4767248E+004
 -1.4510127E+004
 -1.4206728E+004
 -1.3844764E+004
 -1.3397121E+004
 -1.2855501E+004
 -1.2223486E+004
 -1.1519401E+004
 -1.0774635E+004
 -1.0032310E+004
 -9.3429777E+003
 -8.7546378E+003
 -8.3154169E+003
 -8.0536708E+003
 -7.9909204E+003
 -8.2025213E+003
 -8.2545859E+003
 -7.8448150E+003
 -7.4664708E+003
 -6.6613669E+003
 -6.0244567E+003
 -5.4209689E+003
 -4.6642335E+003
 -3.9632874E+003
 -3.1599156E+003
 -2.4579174E+003
 -1.9816488E+003
 -1.6354888E+003
 -1.3789040E+003
 -1.1708110E+003
 -9.8950032E+002
 -8.2337159E+002
 -6.7108159E+002
 -5.3143082E+002
 -4.0954910E+002
 -2.9574837E+002
 -1.2753896E+002
  9.0970751E+000
  6.4860680E+001
 -9.6605752E+001
  1.8015123E+004
  1.8031303E+004
  1.8089869E+004
  1.7422617E+004
  1.7080568E+004
  1.6680778E+004
  1.6348796E+004
  1.6013494E+004
  1.5601820E+004
  1.5147783E+004
  1.4246454E+004
 -8.1524935E+003
 -1.2017414E+004
 -1.3544350E+004
 -1.4458443E+004
 -1.4794334E+004
 -1.4934652E+004
 -1.4878652E+004
 -1.4716041E+004
 -1.4440496E+004
 -1.4056145E+004
 -1.3563425E+004
 -1.2972686E+004
 -1.2304844E+004
 -1.1595040E+004
 -1.0890816E+004
 -1.0251931E+004
 -9.7486434E+003
 -9.4193431E+003
 -9.3467456E+003
 -9.5998090E+003
 -1.0187093E+004
 -1.1364360E+004
 -1.1521300E+004
 -9.7321475E+003
 -9.2143267E+003
 -8.3677174E+003
 -7.5396067E+003
 -7.1407540E+003
 -5.8282698E+003
 -4.3604491E+003
 -3.3834652E+003
 -2.7136788E+003
 -2.2496163E+003
 -1.8846088E+003
 -1.5755389E+003
 -1.2988946E+003
 -1.0523459E+003
 -8.4235923E+002
 -6.9698308E+002
 -5.9122624E+002
 -5.5887855E+002
 -1.8700421E+002
 -3.4780098E+002
 -1.2745799E+002
  1.8435082E+004
  1.9589107E+004
  1.7913764E+004
  1.7586237E+004
  1.6890988E+004
  1.6426474E+004
  1.5957298E+004
  1.5492610E+004
  1.4956762E+004
  1.4402467E+004
  1.3508864E+004
 -1.0249259E+004
 -1.1571688E+004
 -1.3201053E+004
 -1.4254128E+004
 -1.4896161E+004
 -1.5235685E+004
 -1.5371181E+004
 -1.5331716E+004
 -1.5146365E+004
 -1.4822859E+004
 -1.4369526E+004
 -1.3798291E+004
 -1.3132946E+004
 -1.2409225E+004
 -1.1685720E+004
 -1.1036762E+004
 -1.0537061E+004
 -1.0304818E+004
 -1.0249001E+004
 -1.0701344E+004
 -1.2135768E+004
 -1.5433036E+004
 -1.2057969E+004
 -1.3253103E+004
 -1.1229478E+004
 -1.0460330E+004
 -9.9949133E+003
 -8.2818329E+003
 -8.0118835E+003
 -5.1259090E+003
 -3.9836589E+003
 -3.2573765E+003
 -2.7672804E+003
 -2.3498601E+003
 -1.9562001E+003
 -1.5827849E+003
 -1.2460030E+003
 -9.5449675E+002
 -7.7783385E+002
 -6.8662784E+002
 -1.3055728E+003
 -4.6614477E+002
 -3.7217418E+001
  2.7574904E+004
  1.8041440E+004
  1.8986461E+004
  1.7234061E+004
  1.6724134E+004
  1.6103400E+004
  1.5583793E+004
  1.5023019E+004
  1.4391466E+004
  1.3766716E+004
  1.2886190E+004
 -1.0944586E+004
 -1.2011145E+004
 -1.3282103E+004
 -1.4467478E+004
 -1.5265575E+004
 -1.5770226E+004
 -1.6030001E+004
 -1.6096779E+004
 -1.5989408E+004
 -1.5719862E+004
 -1.5292916E+004
 -1.4719472E+004
 -1.4016796E+004
 -1.3226976E+004
 -1.2403256E+004
 -1.1656115E+004
 -1.1112053E+004
 -1.0879122E+004
 -1.0797415E+004
 -1.1372413E+004
 -1.0729976E+004
 -2.7394086E+004
 -2.3216963E+004
 -1.4187915E+004
 -1.3868913E+004
 -1.2945452E+004
 -1.2161071E+004
 -1.4695079E+004
 -1.2671411E+004
 -4.3551405E+003
 -4.1142405E+003
 -3.4320059E+003
 -3.1794141E+003
 -2.7424285E+003
 -2.2866684E+003
 -1.8172623E+003
 -1.3720397E+003
 -9.9681171E+002
 -7.1741220E+002
 -7.4955651E+002
 -5.6020583E+002
  2.8562897E+004
  1.9818524E+004
  1.8021502E+004
  1.6904889E+004
  1.6322521E+004
  1.5774847E+004
  1.5231427E+004
  1.4613361E+004
  1.3885350E+004
  1.3141043E+004
  1.2256972E+004
 -9.8259740E+003
 -1.1649047E+004
 -1.3598644E+004
 -1.4999042E+004
 -1.5942689E+004
 -1.6539055E+004
 -1.6891244E+004
 -1.7034212E+004
 -1.6995642E+004
 -1.6774408E+004
 -1.6364224E+004
 -1.5763252E+004
 -1.4994145E+004
 -1.4065541E+004
 -1.3059657E+004
 -1.2114187E+004
 -1.1429064E+004
 -1.1112553E+004
 -1.1599471E+004
 -7.3621844E+003
 -8.1615907E+003
 -2.9052827E+003
  1.5882012E+003
  7.7473456E+002
 -3.4321585E+003
 -3.9643411E+003
 -3.8863597E+003
 -3.3656097E+003
 -2.7416546E+003
 -2.0954624E+003
 -1.4623473E+003
 -9.0904215E+002
 -1.0789495E+002
 -3.2234333E+002
 -2.6337177E+003
 -1.1722617E+003
  1.2289006E+004
  1.5760380E+004
  1.6314987E+004
  1.6224461E+004
  1.5851952E+004
  1.5455345E+004
  1.4948559E+004
  1.4306211E+004
  1.3442559E+004
  1.2527093E+004
  1.1486158E+004
 -7.4035775E+003
 -1.2144571E+004
 -1.4350112E+004
 -1.5996149E+004
 -1.6930319E+004
 -1.7580099E+004
 -1.7953326E+004
 -1.8156235E+004
 -1.8183202E+004
 -1.8018189E+004
 -1.7628308E+004
 -1.6991128E+004
 -1.6106564E+004
 -1.5013670E+004
 -1.3657363E+004
 -1.1942671E+004
 -1.1647665E+004
 -1.0354662E+004
 -1.8082379E+004
 -5.5445460E+003
 -3.0332523E+003
  9.4869828E+003
  1.4262800E+004
  1.4725349E+004
  1.5532267E+004
  1.5535627E+004
  1.5480422E+004
  1.5215489E+004
  1.4816147E+004
  1.4176393E+004
  1.3161057E+004
  1.1612081E+004
  9.9579877E+003
  1.9596112E+003
 -1.1452026E+004
 -1.5950895E+004
 -1.7550324E+004
 -1.8374944E+004
 -1.8835316E+004
 -1.9202226E+004
 -1.9447496E+004
 -1.9563040E+004
 -1.9486890E+004
 -1.9137344E+004
 -1.8448006E+004
 -1.7431357E+004
 -1.6167831E+004
 -1.4508076E+004
 -1.2336977E+004
 -9.0786973E+003
 -9.7140787E+003
 -6.4011758E+003
  1.8556825E+004
  1.2999995E+004
  1.5194064E+004
  1.4918349E+004
  1.5209579E+004
  1.5210941E+004
  1.5160592E+004
  1.4893210E+004
  1.4414607E+004
  1.3325282E+004
  1.1637432E+004
  7.5045398E+003
  3.3098231E+003
 -2.6904577E+004
 -2.0794736E+004
 -2.0030468E+004
 -1.9955032E+004
 -2.0240094E+004
 -2.0553109E+004
 -2.0873858E+004
 -2.1129417E+004
 -2.1221482E+004
 -2.0998369E+004
 -2.0316624E+004
 -1.9187771E+004
 -1.7437992E+004
 -1.6483154E+004
 -8.0625217E+003
 -9.5142375E+003
 -7.1130701E+003
  2.0728389E+004
  1.5002296E+004
  1.4599411E+004
  1.4633951E+004
  1.4902248E+004
  1.5100961E+004
  1.5243232E+004
  1.5339532E+004
  1.5159281E+004
  1.4264265E+004
  1.0747686E+004
 -1.6558183E+003
 -2.8191596E+004
 -2.0368825E+004
 -2.2040338E+004
 -2.1252000E+004
 -2.1609144E+004
 -2.1908652E+004
 -2.2364022E+004
 -2.2857144E+004
 -2.3274347E+004
 -2.3308975E+004
 -2.2189504E+004
 -2.1182535E+004
 -1.8744781E+004
 -2.5326128E+004
 -8.7695556E+003
 -1.1552994E+003
 -1.8704288E+003
 -1.1956413E+003
  9.2662000E+003
  1.2334495E+004
  1.3563913E+004
  1.4218335E+004
  1.4648472E+004
  1.5035933E+004
  1.5424362E+004
  1.5854689E+004
  1.6717169E+004
  1.8261831E+004
  2.5525890E+004
 -2.7874618E+003
 -2.1061003E+004
 -2.3067728E+004
 -2.2157900E+004
 -2.2577187E+004
 -2.2718711E+004
 -2.3184765E+004
 -2.3834342E+004
 -2.4648884E+004
 -2.5652644E+004
 -2.6639506E+004
 -2.6608367E+004
 -2.2393976E+004
 -1.8838354E+004
 -1.4946947E+004
  6.7004066E+003
  1.0496317E+004
  1.1999306E+004
  1.3155753E+004
  1.3865881E+004
  1.4471289E+004
  1.4964294E+004
  1.5550120E+004
  1.6047130E+004
  1.7694306E+004
  1.7014026E+004
  2.5971324E+004
 -2.2622140E+004
 -2.2981994E+004
 -2.3378997E+004
 -2.3360346E+004
 -2.3731069E+004
 -2.4231731E+004
 -2.5056804E+004
 -2.6452475E+004
 -2.8212822E+004
 -3.0397256E+004
 -2.8945724E+004
 -2.2040730E+004
 -2.2691354E+004
  9.6010596E+003
  1.0927837E+004
  1.2259971E+004
  1.3071187E+004
  1.3767404E+004
  1.4333693E+004
  1.4895907E+004
  1.5456162E+004
  1.6216511E+004
  1.6776933E+004
  1.8518061E+004
  1.8442436E+004
 -2.2898214E+004
 -2.4849698E+004
 -2.3861327E+004
 -2.4311738E+004
 -2.4439934E+004
 -2.4953161E+004
 -2.5843972E+004
 -2.7326574E+004
 -3.0755577E+004
 -3.7548462E+004
 -6.3290460E+004
 -1.4065194E+004
  1.1340764E+004
  1.2758629E+004
  1.2561699E+004
  1.3284842E+004
  1.3719201E+004
  1.4248667E+004
  1.4767212E+004
  1.5341417E+004
  1.5919075E+004
  1.6702142E+004
  1.7251367E+004
  1.8178904E+004
 -3.2857699E+004
 -2.3522447E+004
 -2.5569871E+004
 -2.4669772E+004
 -2.5018952E+004
 -2.5249513E+004
 -2.5999705E+004
 -2.6601078E+004
 -3.0299037E+004
 -2.6605986E+004
 -4.7699560E+004
  1.7953328E+004
  1.2260617E+004
  1.3590749E+004
  1.3245204E+004
  1.3719297E+004
  1.4124199E+004
  1.4620030E+004
  1.5131392E+004
  1.5691942E+004
  1.6248007E+004
  1.6820203E+004
  1.7223524E+004
 -3.0589791E+004
 -2.5492650E+004
 -2.5151396E+004
 -2.5175914E+004
 -2.5277332E+004
 -2.5367281E+004
 -2.5420628E+004
 -2.5880830E+004
 -2.5029719E+004
 -2.7269704E+004
 -2.0687775E+004
  1.8953622E+004
  1.3759427E+004
  1.3221942E+004
  1.3205389E+004
  1.3562571E+004
  1.3973023E+004
  1.4430782E+004
  1.4911066E+004
  1.5399827E+004
  1.5905599E+004
  1.6331013E+004
  1.6833146E+004
  5.7286928E+003
  5.3633756E+003
 -1.4714062E+004
 -2.2060516E+004
 -2.4775867E+004
 -2.5572896E+004
 -2.5631096E+004
 -2.5377303E+004
 -2.4982652E+004
 -2.4332607E+004
 -2.3496808E+004
 -2.1084623E+004
 -1.5105944E+004
 -1.7867954E+003
 -1.1135578E+003
  8.4441601E+003
  1.1262877E+004
  1.2320525E+004
  1.2899200E+004
  1.3334253E+004
  1.3780658E+004
  1.4223015E+004
  1.4671436E+004
  1.5119768E+004
  1.5566395E+004
  1.5964346E+004
  1.6431050E+004
  6.3073814E+003
 -1.5456756E+004
 -2.3913835E+004
 -2.6245672E+004
 -2.6713514E+004
 -2.6263978E+004
 -2.5533799E+004
 -2.4709994E+004
 -2.3765081E+004
 -2.1802497E+004
 -1.7358913E+004
  1.2999855E+003
  6.1073181E+003
  9.4774328E+003
  1.0908145E+004
  1.1945106E+004
  1.2590288E+004
  1.3129508E+004
  1.3580162E+004
  1.4011618E+004
  1.4431564E+004
  1.4843330E+004
  1.5255951E+004
  1.5622396E+004
  1.6091227E+004
  8.6613033E+003
 -3.7368872E+004
 -3.1968605E+004
 -2.9917813E+004
 -2.8586889E+004
 -2.7190087E+004
 -2.5793651E+004
 -2.4440278E+004
 -2.3896938E+004
 -2.4117314E+004
 -3.4430925E+004
  1.5474690E+003
  8.4231077E+003
  9.9210083E+003
  1.1067948E+004
  1.1904131E+004
  1.2489720E+004
  1.2976991E+004
  1.3408106E+004
  1.3809180E+004
  1.4197274E+004
  1.4575524E+004
  1.4956709E+004
  1.5302113E+004
  1.5759340E+004
 -4.8119522E+004
 -3.3808579E+004
 -3.3930077E+004
 -3.0360414E+004
 -2.8219637E+004
 -2.5938110E+004
 -2.3669241E+004
 -2.2850135E+004
 -1.9052257E+004
 -2.7045476E+004
  1.0524894E+004
  1.1015746E+004
  1.1605004E+004
  1.2044984E+004
  1.2500654E+004
  1.2889643E+004
  1.3263410E+004
  1.3620948E+004
  1.3970297E+004
  1.4312623E+004
  1.4662668E+004
  1.4985317E+004
  1.5430440E+004
 -4.2049379E+004
 -3.9583260E+004
 -3.5381348E+004
 -3.2394426E+004
 -2.9031328E+004
 -2.5817573E+004
 -2.2834408E+004
 -1.9377893E+004
 -1.7863910E+004
 -1.1919112E+004
  1.1569410E+004
  1.2478358E+004
  1.1951221E+004
  1.2332170E+004
  1.2522698E+004
  1.2830514E+004
  1.3132668E+004
  1.3442193E+004
  1.3747972E+004
  1.4050408E+004
  1.4364956E+004
  1.4661510E+004
  1.5090841E+004
 -4.6383083E+004
 -4.1644885E+004
 -3.8165545E+004
 -3.3927170E+004
 -2.9854717E+004
 -2.5667856E+004
 -2.1456749E+004
 -1.7249666E+004
 -1.3013534E+004
 -7.1554002E+003
  1.7738182E+004
  1.1894098E+004
  1.2909431E+004
  1.2317434E+004
  1.2554283E+004
  1.2739350E+004
  1.3004063E+004
  1.3265537E+004
  1.3527644E+004
  1.3784195E+004
  1.4055171E+004
  1.4317961E+004
  1.4727848E+004
 -4.9554069E+004
 -4.5010331E+004
 -4.0642163E+004
 -3.5733163E+004
 -3.0659868E+004
 -2.5502927E+004
 -2.0307919E+004
 -1.4794327E+004
 -9.5989324E+003
 -1.7924403E+003
  1.8374847E+004
  1.3205283E+004
  1.2481899E+004
  1.2269574E+004
  1.2423235E+004
  1.2626895E+004
  1.2863257E+004
  1.3093063E+004
  1.3309964E+004
  1.3512031E+004
  1.3724401E+004
  1.3936680E+004
  1.4318735E+004
 -5.4269546E+004
 -4.8635186E+004
 -4.3681290E+004
 -3.7616638E+004
 -3.1587903E+004
 -2.5421692E+004
 -1.9281008E+004
 -1.2683418E+004
 -6.4976300E+003
  2.7500259E+003
 -1.7953138E+003
 -1.0907312E+003
  8.0344568E+003
  1.0668455E+004
  1.1542945E+004
  1.1957992E+004
  1.2223890E+004
  1.2490057E+004
  1.2726847E+004
  1.2934622E+004
  1.3104624E+004
  1.3238375E+004
  1.3364684E+004
  1.3498516E+004
  1.3830138E+004
 -5.8512859E+004
 -5.3925430E+004
 -4.6912040E+004
 -3.9819750E+004
 -3.2493290E+004
 -2.5470624E+004
 -1.8376998E+004
 -1.1127076E+004
 -3.4514244E+003
  6.3398747E+003
  5.7543468E+003
  8.9647021E+003
  1.0214678E+004
  1.1129516E+004
  1.1644564E+004
  1.2062484E+004
  1.2368833E+004
  1.2622593E+004
  1.2812173E+004
  1.2934195E+004
  1.2978721E+004
  1.2974749E+004
  1.2950014E+004
  1.3175388E+004
 -7.0619736E+004
 -5.8960262E+004
 -5.1634188E+004
 -4.1479347E+004
 -3.3503826E+004
 -2.5411436E+004
 -1.7886885E+004
 -9.3877273E+003
 -2.8315722E+003
  1.3006046E+004
  8.1010175E+003
  9.1896113E+003
  1.0324197E+004
  1.1003081E+004
  1.1554979E+004
  1.1967317E+004
  1.2312776E+004
  1.2577629E+004
  1.2759137E+004
  1.2833389E+004
  1.2779187E+004
  1.2574591E+004
  1.2315175E+004
  1.2268116E+004
 -7.1867099E+004
 -7.3646441E+004
 -5.2316630E+004
 -4.4125140E+004
 -3.3527762E+004
 -2.5312657E+004
 -1.7373069E+004
 -9.2366255E+003
 -6.3176646E+002
  1.4784741E+004
  9.3950007E+003
  1.0555819E+004
  1.0500222E+004
  1.1146388E+004
  1.1541831E+004
  1.1969269E+004
  1.2327755E+004
  1.2621925E+004
  1.2810013E+004
  1.2863422E+004
  1.2711040E+004
  1.2259305E+004
  1.1321294E+004
  1.0544899E+004
 -1.7546940E+005
 -5.7197051E+004
 -6.3124790E+004
 -4.1315201E+004
 -3.3299768E+004
 -2.4361561E+004
 -1.7017173E+004
 -9.8284727E+003
 -3.2796620E+003
  2.4019751E+003
  1.1711220E+003
  1.0425443E+003
  1.4336395E+004
  1.0086770E+004
  1.1245139E+004
  1.1120569E+004
  1.1606454E+004
  1.2005984E+004
  1.2419678E+004
  1.2763348E+004
  1.3017774E+004
  1.3082579E+004
  1.2936967E+004
  1.2307765E+004
  1.1145523E+004
  7.9299944E+003
 -1.3578165E+005
 -6.6205352E+004
 -5.2262126E+004
 -3.8476350E+004
 -3.0279008E+004
 -2.2834584E+004
 -1.6296709E+004
 -1.0129622E+004
 -3.9856433E+003
  1.2723815E+003
  7.9554370E+003
  1.4760667E+004
  1.1121844E+004
  1.0918210E+004
  1.1113174E+004
  1.1585133E+004
  1.2076232E+004
  1.2564804E+004
  1.3008376E+004
  1.3368240E+004
  1.3633507E+004
  1.3618089E+004
  1.2907520E+004
  1.0123602E+004
 -1.2087636E+003
  2.2542251E+004
 -5.2295564E+004
 -3.2562449E+004
 -3.3141060E+004
 -2.5741683E+004
 -2.0637873E+004
 -1.5172870E+004
 -1.0084903E+004
 -4.7860600E+003
 -4.9421331E+002
  7.9351703E+003
 -1.6455330E+003
 -8.6934086E+002
  6.6539490E+003
  9.1729316E+003
  1.0182537E+004
  1.0917162E+004
  1.1528406E+004
  1.2154899E+004
  1.2756710E+004
  1.3322322E+004
  1.3848107E+004
  1.4292423E+004
  1.5012067E+004
  1.6244982E+004
  2.3745621E+004
 -1.9665218E+003
 -1.9663670E+004
 -2.5719739E+004
 -2.7782989E+004
 -2.4723034E+004
 -2.1881368E+004
 -1.7931786E+004
 -1.3967360E+004
 -9.8992773E+003
 -5.9275175E+003
 -1.5203537E+003
  2.6034662E+003
  4.3832764E+003
  7.8150341E+003
  8.7103399E+003
  9.9028280E+003
  1.0687820E+004
  1.1495791E+004
  1.2244584E+004
  1.2990648E+004
  1.3682553E+004
  1.4386092E+004
  1.4795717E+004
  1.5893519E+004
  1.4085815E+004
  2.1467227E+004
 -5.8695310E+003
 -1.9530142E+004
 -1.9551666E+004
 -1.9977334E+004
 -1.7937601E+004
 -1.5581635E+004
 -1.2730116E+004
 -9.7970469E+003
 -6.8627527E+003
 -4.3913928E+003
 -1.8028631E+003
 -2.4921060E+003
 -8.4681619E+002
  9.1484167E+003
  7.2503500E+003
  9.0354967E+003
  9.6602202E+003
  1.0604796E+004
  1.1464786E+004
  1.2359946E+004
  1.3245252E+004
  1.4140829E+004
  1.4907190E+004
  1.5658328E+004
  1.5535493E+004
  1.5719693E+004
  1.1198742E+004
 -7.4639514E+003
 -1.4380394E+004
 -1.5254563E+004
 -1.5847744E+004
 -1.5010630E+004
 -1.3525546E+004
 -1.1651083E+004
 -9.6282087E+003
 -7.6179735E+003
 -5.9720306E+003
 -4.8228124E+003
 -6.7012355E+003
  1.1095848E+004
  8.3116009E+003
  8.8188524E+003
  9.5269510E+003
  1.0475169E+004
  1.1446888E+004
  1.2463066E+004
  1.3522935E+004
  1.4613504E+004
  1.5782824E+004
  1.6698743E+004
  1.6890146E+004
  1.3672080E+004
 -1.1608037E+003
 -8.6050286E+003
 -1.0651010E+004
 -1.2480246E+004
 -1.2915966E+004
 -1.2705325E+004
 -1.1891846E+004
 -1.0728225E+004
 -9.3994363E+003
 -8.1094492E+003
 -6.9538728E+003
 -6.2945895E+003
 -4.9240362E+003
 -5.6959148E+003
 -2.9640387E+003
 -1.0170388E+003
  8.0887564E+002
  4.7866550E+003
  7.1489044E+003
  8.1796067E+003
  9.2659390E+003
  1.0295935E+004
  1.1389633E+004
  1.2529594E+004
  1.3741039E+004
  1.5089171E+004
  1.6579917E+004
  1.8772678E+004
  2.1799517E+004
  3.2882301E+004
 -2.9426544E+003
 -2.3677224E+003
 -1.1122944E+004
 -9.6077761E+003
 -1.0986630E+004
 -1.0923835E+004
 -1.0623399E+004
 -9.9586416E+003
 -9.1680201E+003
 -8.3609660E+003
 -7.7204881E+003
 -7.1407591E+003
 -7.2699360E+003
 -4.6033121E+003
 -5.4038637E+003
 -4.7708046E+002
  5.6323151E+003
  5.5007796E+003
  6.6233686E+003
  7.7484148E+003
  8.9145281E+003
  1.0087589E+004
  1.1275849E+004
  1.2523872E+004
  1.3839293E+004
  1.5380340E+004
  1.6891490E+004
  1.9944824E+004
  1.9920954E+004
  3.2374616E+004
  3.3310099E+003
 -2.6185440E+003
  1.1424790E+003
 -6.9161405E+003
 -8.2647141E+003
 -9.3972681E+003
 -9.6735690E+003
 -9.6406188E+003
 -9.3401761E+003
 -8.9273018E+003
 -8.5123362E+003
 -8.2206360E+003
 -8.1230370E+003
 -8.4619442E+003
 -9.6535012E+003
 -1.4966925E+004
 -1.7238182E+002
  2.0976991E+002
  2.4274706E+003
  4.4251619E+003
  5.9742635E+003
  7.3332252E+003
  8.5947579E+003
  9.8469549E+003
  1.1113802E+004
  1.2421429E+004
  1.3820156E+004
  1.5310982E+004
  1.7115346E+004
  1.8700835E+004
  2.1752968E+004
  2.2538922E+004
 -7.1548551E+003
 -6.3572154E+003
 -6.6313736E+003
 -7.7175356E+003
 -8.3991233E+003
 -8.7952988E+003
 -8.9031746E+003
 -8.8391158E+003
 -8.6875742E+003
 -8.5504898E+003
 -8.5077917E+003
 -8.7234328E+003
 -9.1476543E+003
 -1.0425574E+004
 -1.0903082E+004
 -2.0429550E+004
 -5.3424331E+003
 -6.3433886E+002
 -1.2393513E+003
  3.7227767E+002
  2.4524178E+003
  4.0395594E+003
  5.5447189E+003
  6.9515809E+003
  8.2924421E+003
  9.5972121E+003
  1.0904699E+004
  1.2245797E+004
  1.3643081E+004
  1.5153929E+004
  1.6708232E+004
  1.8577871E+004
  2.0050088E+004
  2.2199218E+004
 -6.3628577E+003
 -6.0084318E+003
 -6.7495218E+003
 -7.3267111E+003
 -7.8296709E+003
 -8.1624763E+003
 -8.3493881E+003
 -8.4206207E+003
 -8.4402818E+003
 -8.4762735E+003
 -8.6024432E+003
 -8.8995128E+003
 -9.4079256E+003
 -1.0482901E+004
 -1.1357578E+004
 -1.3210215E+004
 -8.4212367E+003
 -6.2461787E+003
 -1.9608082E+004
  4.4591637E+002
 -2.4758554E+003
 -2.6943505E+003
 -1.4313251E+003
  3.4319494E+002
  2.0058652E+003
  3.6942396E+003
  5.2211326E+003
  6.6527863E+003
  8.0170428E+003
  9.3452969E+003
  1.0665046E+004
  1.2002732E+004
  1.3387758E+004
  1.4828017E+004
  1.6376016E+004
  1.7952253E+004
  1.9550300E+004
  2.0997311E+004
 -7.3898433E+003
 -6.2506548E+003
 -6.7648786E+003
 -7.0199101E+003
 -7.4021758E+003
 -7.6919311E+003
 -7.9069010E+003
 -8.0555339E+003
 -8.1755281E+003
 -8.3136347E+003
 -8.5194999E+003
 -8.8428592E+003
 -9.3379952E+003
 -9.9630594E+003
 -1.0682118E+004
 -1.1610693E+004
 -1.1477406E+004
 -1.2591786E+004
 -1.0278451E+004
 -4.0944861E+003
 -2.5920249E+004
  1.5697356E+003
 -2.0215986E+003
 -1.0285013E+004
 -3.4480982E+003
 -1.8361022E+003
  1.9146236E+002
  1.8784738E+003
  3.4899203E+003
  4.9955135E+003
  6.4192244E+003
  7.7797785E+003
  9.1010238E+003
  1.0405524E+004
  1.1718068E+004
  1.3055702E+004
  1.4461454E+004
  1.5885855E+004
  1.7526111E+004
  1.8890596E+004
  2.0951399E+004
 -4.7219751E+003
 -7.4109141E+003
 -6.2413392E+003
 -6.7829415E+003
 -7.0130297E+003
 -7.3069248E+003
 -7.5291466E+003
 -7.7194672E+003
 -7.8927788E+003
 -8.0816088E+003
 -8.3182627E+003
 -8.6336383E+003
 -9.0417107E+003
 -9.5478879E+003
 -1.0135390E+004
 -1.0567419E+004
 -1.0963952E+004
 -1.2155408E+004
 -1.2732610E+004
 -1.5018008E+004
 -1.2746403E+004
 -2.1846306E+004
 -1.3038136E+004
 -1.2799911E+004
 -1.1756792E+004
 -1.0138173E+004
 -1.0755415E+004
  9.7564671E+002
 -2.6966751E+004
  1.8571881E+003
  8.7952507E+002
 -1.5625605E+004
 -5.3706607E+003
 -2.6321358E+003
 -6.3577121E+003
 -3.4848798E+003
 -1.7563494E+003
  1.5128075E+002
  1.8050768E+003
  3.3811494E+003
  4.8526989E+003
  6.2482944E+003
  7.5820165E+003
  8.8729985E+003
  1.0140019E+004
  1.1400037E+004
  1.2682406E+004
  1.3985676E+004
  1.5444349E+004
  1.6762032E+004
  1.8915518E+004
  2.0151271E+004
  3.2049491E+003
 -6.0703629E+003
 -2.8854206E+003
 -5.5440946E+003
 -5.9646908E+003
 -6.3956190E+003
 -6.6862976E+003
 -6.9605091E+003
 -7.1915314E+003
 -7.3982652E+003
 -7.5946999E+003
 -7.8016981E+003
 -8.0397078E+003
 -8.3253699E+003
 -8.6675709E+003
 -9.0635255E+003
 -9.4718147E+003
 -9.9047471E+003
 -1.0389368E+004
 -1.0813322E+004
 -1.1428034E+004
 -1.2595252E+004
 -1.2715015E+004
 -1.1369237E+004
 -1.1466607E+004
 -1.1960966E+004
 -1.5925145E+004
 -1.3930547E+004
 -2.5848298E+004
 -1.4971247E+004
 -1.6590259E+004
 -1.2959303E+004
 -1.4654966E+004
 -1.1879834E+004
 -1.1820499E+004
 -1.0722071E+004
 -9.7289529E+003
 -9.9283922E+003
 -7.9844206E+003
 -9.2438374E+003
 -7.0030538E+003
 -8.8335541E+003
 -6.7041999E+003
 -8.6682046E+003
 -7.2849321E+003
 -9.2569609E+003
 -7.9239692E+003
 -8.3294957E+003
 -1.3097823E+004
 -9.0692530E+003
 -6.8424377E+003
 -5.2624184E+003
 -3.2735235E+003
 -1.4411899E+003
  2.5276357E+002
  1.8609059E+003
  3.3664055E+003
  4.7889104E+003
  6.1378916E+003
  7.4269997E+003
  8.6698164E+003
  9.8785611E+003
  1.1071760E+004
  1.2246728E+004
  1.3494449E+004
  1.4622777E+004
  1.6654696E+004
  1.6664108E+004
  2.5116901E+004
 -7.2496663E+003
 -5.9739453E+003
 -5.2494939E+003
 -5.7333240E+003
 -6.0819277E+003
 -6.3943239E+003
 -6.6512546E+003
 -6.8794777E+003
 -7.0866573E+003
 -7.2861489E+003
 -7.4908621E+003
 -7.7132462E+003
 -7.9623787E+003
 -8.2417578E+003
 -8.5437957E+003
 -8.8601073E+003
 -9.1735770E+003
 -9.4810488E+003
 -9.8252041E+003
 -1.0207393E+004
 -1.0371492E+004
 -1.0219248E+004
 -1.0140376E+004
 -1.0013284E+004
 -1.0617849E+004
 -1.2078602E+004
 -1.2924396E+004
 -1.1919805E+004
 -1.1913664E+004
 -1.1460107E+004
 -1.1348545E+004
 -1.0856651E+004
 -1.0513374E+004
 -1.0004249E+004
 -9.4718454E+003
 -8.8838829E+003
 -8.8907756E+003
 -7.8591575E+003
 -6.0387011E+003
 -4.4592503E+003
 -2.8013003E+003
 -1.1152767E+003
  4.8774481E+002
  2.0031867E+003
  3.4389320E+003
  4.7974075E+003
  6.0876308E+003
  7.3185083E+003
  8.4993690E+003
  9.6385389E+003
  1.0742449E+004
  1.1814811E+004
  1.2857149E+004
  1.3874096E+004
  1.4977043E+004
  1.6528096E+004
  2.0915332E+004
  1.5801700E+003
 -2.6908516E+003
 -5.0831249E+003
 -5.5050917E+003
 -5.8743379E+003
 -6.1386420E+003
 -6.3759700E+003
 -6.5866557E+003
 -6.7830043E+003
 -6.9721976E+003
 -7.1624077E+003
 -7.3602487E+003
 -7.5697158E+003
 -7.7899723E+003
 -8.0156947E+003
 -8.2360792E+003
 -8.4417755E+003
 -8.6235891E+003
 -8.7706202E+003
 -8.8503913E+003
 -8.8456796E+003
 -8.6570606E+003
 -8.3091126E+003
 -8.1249146E+003
 -8.3082386E+003
 -8.7654692E+003
 -9.2153063E+003
 -9.8063816E+003
 -1.0445705E+004
 -1.1441802E+004
 -1.1578659E+004
 -1.2849345E+004
 -1.2492490E+004
 -1.1037686E+004
 -1.0160044E+004
 -9.2894997E+003
 -8.1037246E+003
 -6.9078171E+003
 -5.4760624E+003
 -3.8601429E+003
 -2.2705844E+003
 -7.0894337E+002
  7.9838264E+002
  2.2306539E+003
  3.5878801E+003
  4.8747129E+003
  6.0966013E+003
  7.2600158E+003
  8.3707983E+003
  9.4332095E+003
  1.0447482E+004
  1.1406669E+004
  1.2279907E+004
  1.3000085E+004
  1.3279628E+004
  1.2553414E+004
  8.6356969E+003
 -3.2743313E+003
 -4.2216064E+003
 -8.4060755E+003
 -6.1410814E+003
 -5.2137460E+003
 -5.5091108E+003
 -5.7079453E+003
 -5.9256172E+003
 -6.1227251E+003
 -6.3093198E+003
 -6.4860949E+003
 -6.6572906E+003
 -6.8263129E+003
 -6.9957185E+003
 -7.1657067E+003
 -7.3332863E+003
 -7.4914109E+003
 -7.6297891E+003
 -7.7346843E+003
 -7.7914519E+003
 -7.7789959E+003
 -7.6680245E+003
 -7.4052636E+003
 -6.9841638E+003
 -6.4461018E+003
 -5.9433423E+003
 -5.5919700E+003
 -5.6338288E+003
 -6.1347176E+003
 -7.3286781E+003
 -9.4093941E+003
 -1.0539546E+004
 -1.3185873E+004
 -1.2537812E+004
 -1.4566984E+004
 -1.2306232E+004
 -1.1149037E+004
 -9.4400221E+003
 -7.9529895E+003
 -6.4395400E+003
 -4.8472563E+003
 -3.2757248E+003
 -1.7258577E+003
 -2.3698698E+002
  1.1833924E+003
  2.5313649E+003
  3.8077064E+003
  5.0169130E+003
  6.1641329E+003
  7.2540782E+003
  8.2905276E+003
  9.2754544E+003
  1.0207645E+004
  1.1078400E+004
  1.1862327E+004
  1.2483757E+004
  1.2720492E+004
  1.1936751E+004
  8.4119951E+003
 -3.0246918E+003
 -5.3457648E+003
 -5.1401102E+003
 -5.4630665E+003
 -5.4183718E+003
 -5.5720679E+003
 -5.7220181E+003
 -5.8833782E+003
 -6.0410596E+003
 -6.1950119E+003
 -6.3444956E+003
 -6.4898528E+003
 -6.6304964E+003
 -6.7641258E+003
 -6.8857405E+003
 -6.9871204E+003
 -7.0563428E+003
 -7.0779024E+003
 -7.0307249E+003
 -6.8869071E+003
 -6.6080348E+003
 -6.1538739E+003
 -5.4810182E+003
 -4.5999109E+003
 -3.4155274E+003
 -2.5085918E+003
 -1.8926682E+003
 -3.5874387E+003
 -3.2625578E+003
 -7.7967050E+003
 -1.2330203E+004
 -1.2253365E+004
 -2.0963654E+004
 -2.5220283E+004
 -9.3715681E+003
 -1.2568668E+004
 -9.3398282E+003
 -7.8345213E+003
 -5.9360349E+003
 -4.2746830E+003
 -2.6455243E+003
 -1.1271038E+003
  3.0180669E+002
  1.6419243E+003
  2.9036679E+003
  4.0945560E+003
  5.2211882E+003
  6.2889375E+003
  7.3016037E+003
  8.2615994E+003
  9.1701811E+003
  1.0028078E+004
  1.0835447E+004
  1.1599014E+004
  1.2324827E+004
  1.3188627E+004
  1.4420239E+004
  1.9043392E+004
 -3.3837860E+003
 -5.3340822E+003
 -5.3559072E+003
 -5.2166367E+003
 -5.3219025E+003
 -5.3982800E+003
 -5.5181044E+003
 -5.6454100E+003
 -5.7773553E+003
 -5.9082754E+003
 -6.0358939E+003
 -6.1580742E+003
 -6.2722700E+003
 -6.3744732E+003
 -6.4584489E+003
 -6.5149887E+003
 -6.5312515E+003
 -6.4896345E+003
 -6.3663196E+003
 -6.1285788E+003
 -5.7311161E+003
 -5.1147980E+003
 -4.1919057E+003
 -2.8833441E+003
 -1.1691756E+003
  8.9470210E+002
  3.7067961E+003
  2.2506797E+003
  1.6449208E+003
  2.8332076E+003
  1.8817120E+003
 -4.7824716E+003
 -1.8498730E+004
 -8.8228129E+003
 -7.5979164E+003
 -5.3326413E+003
 -3.6005919E+003
 -1.9271003E+003
 -4.3341759E+002
  9.2645238E+002
  2.1787152E+003
  3.3472333E+003
  4.4456911E+003
  5.4843900E+003
  6.4688573E+003
  7.4017566E+003
  8.2841920E+003
  9.1151446E+003
  9.9009784E+003
  1.0633035E+004
  1.1397273E+004
  1.2034405E+004
  1.3517022E+004
  1.3204246E+004
  2.0759014E+004
 -5.0317860E+003
 -5.0712603E+003
 -5.1000247E+003
 -5.1323843E+003
 -5.2086764E+003
 -5.2999656E+003
 -5.4044490E+003
 -5.5143285E+003
 -5.6249838E+003
 -5.7327175E+003
 -5.8342839E+003
 -5.9260087E+003
 -6.0030346E+003
 -6.0585859E+003
 -6.0832345E+003
 -6.0640177E+003
 -5.9832013E+003
 -5.8164353E+003
 -5.5291902E+003
 -5.0743113E+003
 -4.3738239E+003
 -3.3353849E+003
 -1.6371187E+003
  1.0366294E+003
  7.6299045E+003
  2.3743960E+003
 -5.4511268E+003
 -7.4704204E+003
 -6.6160094E+003
 -4.7431474E+003
 -2.7869654E+003
 -1.0410910E+003
  3.9248652E+002
  1.6561667E+003
  2.8017335E+003
  3.8604507E+003
  4.8569062E+003
  5.8018308E+003
  6.7002952E+003
  7.5527715E+003
  8.3569894E+003
  9.1104359E+003
  9.8098786E+003
  1.0468197E+004
  1.1080346E+004
  1.1786965E+004
  1.2348339E+004
  1.3788674E+004
  1.4415051E+004
 -4.8739212E+003
 -4.8827682E+003
 -4.9088426E+003
 -4.9320798E+003
 -4.9950367E+003
 -5.0698081E+003
 -5.1575954E+003
 -5.2505593E+003
 -5.3446063E+003
 -5.4357185E+003
 -5.5203313E+003
 -5.5944377E+003
 -5.6530593E+003
 -5.6896338E+003
 -5.6953448E+003
 -5.6584104E+003
 -5.5626094E+003
 -5.3867764E+003
 -5.0975246E+003
 -4.6613031E+003
 -3.9752734E+003
 -3.0798540E+003
 -1.3329846E+003
 -3.7757530E+002
  5.2513257E+003
 -7.4696384E+003
 -6.7629912E+003
 -4.1166516E+003
 -1.5681237E+003
  7.6175919E+001
  1.3891049E+003
  2.5164824E+003
  3.5084628E+003
  4.4372163E+003
  5.3192918E+003
  6.1658322E+003
  6.9777830E+003
  7.7518959E+003
  8.4814013E+003
  9.1569175E+003
  9.7702392E+003
  1.0311012E+004
  1.0797254E+004
  1.1199844E+004
  1.1724104E+004
  1.2111803E+004
  1.3147602E+004
 -4.6787695E+003
 -4.7861926E+003
 -4.6475213E+003
 -4.7275813E+003
 -4.7582580E+003
 -4.8292043E+003
 -4.9045963E+003
 -4.9859173E+003
 -5.0670956E+003
 -5.1452394E+003
 -5.2168793E+003
 -5.2783465E+003
 -5.3251308E+003
 -5.3515217E+003
 -5.3501520E+003
 -5.3113951E+003
 -5.2228153E+003
 -5.0673407E+003
 -4.8242472E+003
 -4.4565423E+003
 -3.9426989E+003
 -3.1428326E+003
 -2.2534924E+003
 -4.6091562E+002
  1.1935913E+003
 -6.2901992E+003
 -4.4621902E+003
  4.0927885E+002
  1.4549899E+003
  2.6794478E+003
  3.4759482E+003
  4.2885234E+003
  5.0572369E+003
  5.8179720E+003
  6.5641775E+003
  7.2931658E+003
  7.9957967E+003
  8.6594153E+003
  9.2670511E+003
  9.7968483E+003
  1.0226199E+004
  1.0526653E+004
  1.0703218E+004
  1.0745272E+004
  1.0802521E+004
  1.0974784E+004
 -4.7303078E+003
 -4.2083279E+003
 -4.5541168E+003
 -4.4348932E+003
 -4.5173675E+003
 -4.5745898E+003
 -4.6483795E+003
 -4.7207495E+003
 -4.7928184E+003
 -4.8612162E+003
 -4.9236128E+003
 -4.9769335E+003
 -5.0175905E+003
 -5.0411793E+003
 -5.0422866E+003
 -5.0143600E+003
 -4.9492084E+003
 -4.8379355E+003
 -4.6666267E+003
 -4.4315525E+003
 -4.0818269E+003
 -3.7221249E+003
 -2.8515742E+003
 -2.8196221E+003
  3.7503224E+001
  5.1897754E+003
  3.3991779E+003
  3.7624019E+003
  3.9942799E+003
  4.5230141E+003
  5.0811292E+003
  5.6932204E+003
  6.3288850E+003
  6.9803544E+003
  7.6348252E+003
  8.2786887E+003
  8.8937545E+003
  9.4543616E+003
  9.9258667E+003
  1.0261227E+004
  1.0403118E+004
  1.0290230E+004
  9.9111203E+003
  9.2515383E+003
  8.5710199E+003
 -5.5954439E+003
 -4.8594839E+003
 -3.9601464E+003
 -4.1983423E+003
 -4.2365567E+003
 -4.3221760E+003
 -4.3890262E+003
 -4.4572058E+003
 -4.5218828E+003
 -4.5832849E+003
 -4.6393972E+003
 -4.6881899E+003
 -4.7271235E+003
 -4.7533057E+003
 -4.7635272E+003
 -4.7543159E+003
 -4.7226415E+003
 -4.6652305E+003
 -4.5850987E+003
 -4.4750618E+003
 -4.3935502E+003
 -4.2088805E+003
 -4.5591975E+003
 -3.2051972E+003
 -6.3501857E+003
  1.1443798E+004
  5.8351441E+003
  5.5418576E+003
  5.2264798E+003
  5.4864518E+003
  5.8366186E+003
  6.3016447E+003
  6.8252872E+003
  7.3933017E+003
  7.9872387E+003
  8.5905919E+003
  9.1819505E+003
  9.7320025E+003
  1.0191095E+004
  1.0491084E+004
  1.0532487E+004
  1.0148361E+004
  9.0744494E+003
  7.7448098E+003
  5.8248431E+003
  1.2668037E+003
 -2.0955225E+003
 -3.7175036E+003
 -3.8503176E+003
 -3.9966676E+003
 -4.0658826E+003
 -4.1343258E+003
 -4.1955409E+003
 -4.2546321E+003
 -4.3105224E+003
 -4.3625285E+003
 -4.4093004E+003
 -4.4494119E+003
 -4.4814246E+003
 -4.5041536E+003
 -4.5170365E+003
 -4.5209031E+003
 -4.5189662E+003
 -4.5200797E+003
 -4.5394611E+003
 -4.6213343E+003
 -4.8110649E+003
 -5.4136599E+003
 -6.7530879E+003
 -1.2120336E+004
  4.8564214E+002
  5.5612548E+001
  6.4536996E+003
  6.2720057E+003
  6.3576764E+003
  6.2191600E+003
  6.2789377E+003
  6.5021619E+003
  6.8455824E+003
  7.2791720E+003
  7.7799329E+003
  8.3304948E+003
  8.9144921E+003
  9.5125659E+003
  1.0095899E+004
  1.0621946E+004
  1.0987995E+004
  1.1044200E+004
  1.0754138E+004
  9.4501475E+003
  6.5149656E+003
 -4.0333283E+001
 -5.9946043E+003
 -4.3195067E+003
 -3.5826187E+003
 -3.7172004E+003
 -3.7601718E+003
 -3.8265403E+003
 -3.8819671E+003
 -3.9371172E+003
 -3.9902320E+003
 -4.0417183E+003
 -4.0908687E+003
 -4.1370808E+003
 -4.1798062E+003
 -4.2188451E+003
 -4.2546483E+003
 -4.2888378E+003
 -4.3249737E+003
 -4.3700512E+003
 -4.4360617E+003
 -4.5459711E+003
 -4.7316809E+003
 -5.0720815E+003
 -5.6123387E+003
 -6.3856438E+003
 -7.1506796E+003
 -7.4081651E+003
 -5.7076472E+003
  1.0716044E+004
  7.1958829E+003
  7.9419442E+003
  7.1185727E+003
  6.9681714E+003
  6.9141356E+003
  7.0426728E+003
  7.3003709E+003
  7.6654848E+003
  8.1168118E+003
  8.6402882E+003
  9.2246118E+003
  9.8581518E+003
  1.0523053E+004
  1.1183030E+004
  1.1813807E+004
  1.2122710E+004
  1.1642903E+004
  9.5646750E+003
  5.3648897E+003
  3.1284346E+003
 -3.5032215E+003
 -3.3996162E+003
 -3.5966822E+003
 -3.5069494E+003
 -3.5499321E+003
 -3.5863353E+003
 -3.6329862E+003
 -3.6798974E+003
 -3.7276659E+003
 -3.7751902E+003
 -3.8221631E+003
 -3.8683478E+003
 -3.9138961E+003
 -3.9595101E+003
 -4.0067835E+003
 -4.0586763E+003
 -4.1202692E+003
 -4.1997006E+003
 -4.3100463E+003
 -4.4697590E+003
 -4.7092104E+003
 -5.0549587E+003
 -5.5479932E+003
 -6.2628774E+003
 -7.0046661E+003
 -7.3288283E+003
 -7.7049777E+003
 -7.9231939E+003
  1.8054383E+004
  9.5101876E+003
  8.8246591E+003
  7.8014825E+003
  7.5212575E+003
  7.3811116E+003
  7.4491386E+003
  7.6480120E+003
  7.9651995E+003
  8.3814268E+003
  8.8889840E+003
  9.4854433E+003
  1.0173221E+004
  1.0955597E+004
  1.1825530E+004
  1.2720402E+004
  1.3968729E+004
  1.5261737E+004
  2.2531247E+004
  3.6877237E+003
 -3.3701745E+003
 -3.3918100E+003
 -3.2677083E+003
 -3.3077907E+003
 -3.3132550E+003
 -3.3455595E+003
 -3.3816530E+003
 -3.4224802E+003
 -3.4652061E+003
 -3.5092626E+003
 -3.5542391E+003
 -3.6002581E+003
 -3.6479226E+003
 -3.6985203E+003
 -3.7542907E+003
 -3.8188265E+003
 -3.8975905E+003
 -3.9986480E+003
 -4.1331941E+003
 -4.3168009E+003
 -4.5669789E+003
 -4.9054078E+003
 -5.3524759E+003
 -5.8728752E+003
 -6.4177911E+003
 -6.9818629E+003
 -7.6909905E+003
 -8.2099231E+003
 -8.3353985E+003
 -4.0551068E+002
  6.0003591E+003
  7.4450813E+003
  9.7263721E+003
  8.6330080E+003
  8.2098782E+003
  7.8099173E+003
  7.6854429E+003
  7.7119112E+003
  7.8807604E+003
  8.1647222E+003
  8.5547413E+003
  9.0486528E+003
  9.6533840E+003
  1.0395227E+004
  1.1292078E+004
  1.2464194E+004
  1.3663038E+004
  1.5186056E+004
  1.2030189E+004
  5.5930674E+003
 -3.0116068E+003
 -3.0444813E+003
 -3.0540393E+003
 -3.0509780E+003
 -3.0712144E+003
 -3.0954377E+003
 -3.1271147E+003
 -3.1628366E+003
 -3.2015348E+003
 -3.2424004E+003
 -3.2852849E+003
 -3.3305232E+003
 -3.3790155E+003
 -3.4323506E+003
 -3.4930203E+003
 -3.5646990E+003
 -3.6525965E+003
 -3.7637894E+003
 -3.9075969E+003
 -4.0952769E+003
 -4.3400599E+003
 -4.6550549E+003
 -5.0461445E+003
 -5.5149251E+003
 -6.0448063E+003
 -6.6423714E+003
 -7.3236763E+003
 -8.2735257E+003
 -8.9189910E+003
 -9.2535579E+003
  1.9359416E+004
  1.1663796E+004
  9.7760484E+003
  8.6898167E+003
  8.2085257E+003
  7.9218314E+003
  7.8095724E+003
  7.8417230E+003
  7.9959267E+003
  8.2587843E+003
  8.6243841E+003
  9.0957719E+003
  9.6899025E+003
  1.0437434E+004
  1.1427468E+004
  1.2738711E+004
  1.4957544E+004
  1.8233170E+004
  3.1195733E+004
 -1.7370668E+003
 -2.7718694E+003
 -2.7890804E+003
 -2.7940552E+003
 -2.7989453E+003
 -2.8165956E+003
 -2.8394404E+003
 -2.8679796E+003
 -2.9003302E+003
 -2.9356735E+003
 -2.9735342E+003
 -3.0139783E+003
 -3.0575350E+003
 -3.1052607E+003
 -3.1588362E+003
 -3.2207182E+003
 -3.2943247E+003
 -3.3842267E+003
 -3.4963258E+003
 -3.6378637E+003
 -3.8173640E+003
 -4.0439150E+003
 -4.3260379E+003
 -4.6694240E+003
 -5.0783113E+003
 -5.5526821E+003
 -6.1566137E+003
 -6.8394248E+003
 -8.2436484E+003
 -9.2579844E+003
 -1.9775977E+004
 -6.3840537E+003
  5.5141710E+003
  1.2162596E+004
  9.2357941E+003
  9.4242790E+003
  8.8499989E+003
  8.3969555E+003
  8.0249131E+003
  7.8481934E+003
  7.7925199E+003
  7.8482926E+003
  8.0030624E+003
  8.2500737E+003
  8.5883612E+003
  9.0206770E+003
  9.5725589E+003
  1.0242324E+004
  1.1232240E+004
  1.2188302E+004
  1.5235368E+004
  1.4065148E+004
  2.9706735E+004
 -2.5065297E+003
 -2.5740428E+003
 -2.5118288E+003
 -2.5456791E+003
 -2.5535824E+003
 -2.5782865E+003
 -2.6047330E+003
 -2.6348756E+003
 -2.6672768E+003
 -2.7020916E+003
 -2.7395586E+003
 -2.7803760E+003
 -2.8256499E+003
 -2.8770040E+003
 -2.9366758E+003
 -3.0076290E+003
 -3.0936503E+003
 -3.1993924E+003
 -3.3303364E+003
 -3.4925770E+003
 -3.6923548E+003
 -3.9355401E+003
 -4.2268137E+003
 -4.5728551E+003
 -4.9813109E+003
 -5.4852545E+003
 -6.0993004E+003
 -7.0492019E+003
 -7.9251249E+003
 -9.7037933E+003
 -5.1490669E+003
 -1.3840689E+004
 -4.7813703E+003
 -4.9385567E+003
 -4.9662344E+002
 -3.7806497E+003
  8.5600498E+002
  4.0026463E+003
  6.2700696E+003
  7.7500548E+003
  8.1443336E+003
  7.9155753E+003
  7.8109602E+003
  7.7022117E+003
  7.6470927E+003
  7.6653296E+003
  7.7557460E+003
  7.9178283E+003
  8.1509485E+003
  8.4556993E+003
  8.8367077E+003
  9.2995982E+003
  9.8718880E+003
  1.0541312E+004
  1.1504901E+004
  1.2305130E+004
  1.4995020E+004
  1.7061636E+004
 -2.3903080E+003
 -2.1481850E+003
 -2.3098146E+003
 -2.2556107E+003
 -2.2902706E+003
 -2.3111104E+003
 -2.3389876E+003
 -2.3668581E+003
 -2.3965515E+003
 -2.4279740E+003
 -2.4617927E+003
 -2.4987552E+003
 -2.5399533E+003
 -2.5868454E+003
 -2.6413414E+003
 -2.7058583E+003
 -2.7833516E+003
 -2.8772968E+003
 -2.9915867E+003
 -3.1303194E+003
 -3.2974769E+003
 -3.4965480E+003
 -3.7305989E+003
 -4.0024355E+003
 -4.3173545E+003
 -4.6806807E+003
 -5.1053157E+003
 -5.5440961E+003
 -5.9555496E+003
 -6.1210884E+003
 -5.1566117E+003
 -2.3283987E+003
 -6.5180954E+002
  2.4434933E+003
  4.6223045E+003
  5.9345024E+003
  6.7133086E+003
  7.0902974E+003
  7.2263153E+003
  7.3074077E+003
  7.3765979E+003
  7.4656032E+003
  7.5915306E+003
  7.7616476E+003
  7.9798586E+003
  8.2480192E+003
  8.5663334E+003
  8.9339440E+003
  9.3418652E+003
  9.7794654E+003
  1.0161480E+004
  1.0405045E+004
  9.7857663E+003
  6.8324833E+003
 -1.9397644E+003
 -3.2458547E+003
 -2.5148917E+003
 -2.2828228E+003
 -1.8831499E+003
 -1.9959679E+003
 -2.0104525E+003
 -2.0456004E+003
 -2.0711299E+003
 -2.0976243E+003
 -2.1239407E+003
 -2.1514991E+003
 -2.1808682E+003
 -2.2128972E+003
 -2.2485566E+003
 -2.2890774E+003
 -2.3359816E+003
 -2.3911105E+003
 -2.4566122E+003
 -2.5348806E+003
 -2.6284257E+003
 -2.7396618E+003
 -2.8706169E+003
 -3.0226310E+003
 -3.1960475E+003
 -3.3900983E+003
 -3.6018470E+003
 -3.8244541E+003
 -4.0370341E+003
 -4.1965803E+003
 -4.2354702E+003
 -3.8355395E+003
 -2.7292701E+003
 -1.4781565E+003
  4.1142624E+002
  2.0552493E+003
  3.8103126E+003
  5.1091889E+003
  5.9076450E+003
  6.4052059E+003
  6.7192551E+003
  6.9247531E+003
  7.0836718E+003
  7.2293367E+003
  7.3829895E+003
  7.5572933E+003
  7.7588103E+003
  7.9896882E+003
  8.2474996E+003
  8.5229788E+003
  8.7951903E+003
  9.0183414E+003
  9.0977928E+003
  8.8938411E+003
  8.0116686E+003
  6.1821916E+003
  2.6622712E+003
  5.5715100E+002
 -9.2044016E+002
 -1.6272529E+003
 -1.6882620E+003
 -1.7513190E+003
 -1.7790407E+003
 -1.8051212E+003
 -1.8278030E+003
 -1.8502782E+003
 -1.8731535E+003
 -1.8972927E+003
 -1.9234008E+003
 -1.9522953E+003
 -1.9849221E+003
 -2.0223954E+003
 -2.0659919E+003
 -2.1171131E+003
 -2.1771985E+003
 -2.2475804E+003
 -2.3292679E+003
 -2.4226601E+003
 -2.5271810E+003
 -2.6408231E+003
 -2.7593889E+003
 -2.8751864E+003
 -2.9741594E+003
 -3.0310869E+003
 -3.0076365E+003
 -2.8108172E+003
 -2.3556707E+003
 -1.5684403E+003
 -3.8277308E+002
  8.8462121E+002
  2.3015309E+003
  3.5539106E+003
  4.5888358E+003
  5.3749235E+003
  5.9273133E+003
  6.3131960E+003
  6.5911231E+003
  6.8042841E+003
  6.9847006E+003
  7.1538031E+003
  7.3256351E+003
  7.5082485E+003
  7.7042846E+003
  7.9103412E+003
  8.1156297E+003
  8.2950443E+003
  8.4083067E+003
  8.3582674E+003
  8.0396824E+003
  7.1283666E+003
  5.5284967E+003
  2.7379056E+003
 -2.4977983E+003
 -1.7245471E+003
 -1.4215351E+003
 -1.4766442E+003
 -1.4957924E+003
 -1.5210633E+003
 -1.5404109E+003
 -1.5586650E+003
 -1.5760634E+003
 -1.5935729E+003
 -1.6117339E+003
 -1.6311167E+003
 -1.6522979E+003
 -1.6759186E+003
 -1.7026854E+003
 -1.7333501E+003
 -1.7686525E+003
 -1.8092214E+003
 -1.8554231E+003
 -1.9071482E+003
 -1.9635260E+003
 -2.0225465E+003
 -2.0805369E+003
 -2.1313903E+003
 -2.1653453E+003
 -2.1670528E+003
 -2.1138072E+003
 -1.9676084E+003
 -1.6830180E+003
 -1.1987906E+003
 -4.8686440E+002
  3.9680696E+002
  1.4371379E+003
  2.4881797E+003
  3.5000158E+003
  4.3742644E+003
  5.0744306E+003
  5.6130124E+003
  6.0172998E+003
  6.3218432E+003
  6.5580470E+003
  6.7514828E+003
  6.9218392E+003
  7.0831479E+003
  7.2442170E+003
  7.4085926E+003
  7.5743145E+003
  7.7323980E+003
  7.8675218E+003
  7.9476614E+003
  7.9436931E+003
  7.7108151E+003
  7.0009140E+003
  5.0810536E+003
 -8.9418607E+002
 -1.1763468E+003
 -1.1898700E+003
 -1.2691265E+003
 -1.2374220E+003
 -1.2530503E+003
 -1.2646277E+003
 -1.2779390E+003
 -1.2900764E+003
 -1.3018107E+003
 -1.3133170E+003
 -1.3249562E+003
 -1.3370309E+003
 -1.3498598E+003
 -1.3637677E+003
 -1.3790771E+003
 -1.3960708E+003
 -1.4149255E+003
 -1.4356091E+003
 -1.4577343E+003
 -1.4803589E+003
 -1.5017245E+003
 -1.5189123E+003
 -1.5273868E+003
 -1.5203795E+003
 -1.4880440E+003
 -1.4165145E+003
 -1.2860754E+003
 -1.0718216E+003
 -7.4274490E+002
 -2.7536688E+002
  3.3847900E+002
  1.0879700E+003
  1.9140007E+003
  2.7721525E+003
  3.5885486E+003
  4.3189560E+003
  4.9357263E+003
  5.4323645E+003
  5.8210054E+003
  6.1212395E+003
  6.3546679E+003
  6.5414686E+003
  6.6989738E+003
  6.8409138E+003
  6.9768416E+003
  7.1117294E+003
  7.2455222E+003
  7.3743508E+003
  7.4889390E+003
  7.5912922E+003
  7.6650649E+003
  7.8831888E+003
  8.3295806E+003
  1.1535538E+004
 -1.2058597E+003
 -9.9660540E+002
 -1.0319222E+003
 -9.8427281E+002
 -1.0034090E+003
 -1.0028031E+003
 -1.0098659E+003
 -1.0159530E+003
 -1.0221159E+003
 -1.0277432E+003
 -1.0329444E+003
 -1.0377404E+003
 -1.0421913E+003
 -1.0463416E+003
 -1.0502147E+003
 -1.0537844E+003
 -1.0569306E+003
 -1.0593690E+003
 -1.0605534E+003
 -1.0595414E+003
 -1.0548225E+003
 -1.0440973E+003
 -1.0240028E+003
 -9.8977300E+002
 -9.3482491E+002
 -8.5030328E+002
 -7.2453022E+002
 -5.4294971E+002
 -2.8829469E+002
  5.6025942E+001
  5.0245346E+002
  1.0513054E+003
  1.6847659E+003
  2.3761817E+003
  3.0814218E+003
  3.7621219E+003
  4.3815037E+003
  4.9167307E+003
  5.3595649E+003
  5.7128893E+003
  5.9874546E+003
  6.1980226E+003
  6.3608331E+003
  6.4917330E+003
  6.6047470E+003
  6.7105987E+003
  6.8160151E+003
  6.9222658E+003
  7.0299707E+003
  7.1273813E+003
  7.2518584E+003
  7.3027809E+003
  7.8263819E+003
  7.2820641E+003
  1.1076051E+004
 -6.8992592E+002
 -7.4509758E+002
 -7.5114682E+002
 -7.5117865E+002
 -7.5336140E+002
 -7.5395144E+002
 -7.5445901E+002
 -7.5457807E+002
 -7.5414604E+002
 -7.5297637E+002
 -7.5087335E+002
 -7.4765238E+002
 -7.4310060E+002
 -7.3696484E+002
 -7.2891542E+002
 -7.1849827E+002
 -7.0506702E+002
 -6.8769387E+002
 -6.6505605E+002
 -6.3529545E+002
 -5.9584997E+002
 -5.4325697E+002
 -4.7293304E+002
 -3.7894833E+002
 -2.5381946E+002
 -8.8462808E+001
  1.2760408E+002
  4.0518194E+002
  7.5364336E+002
  1.1774431E+003
  1.6732654E+003
  2.2285354E+003
  2.8197786E+003
  3.4196163E+003
  3.9973465E+003
  4.5271621E+003
  4.9901304E+003
  5.3760700E+003
  5.6834440E+003
  5.9176266E+003
  6.0891802E+003
  6.2121744E+003
  6.3024938E+003
  6.3757080E+003
  6.4450476E+003
  6.5189043E+003
  6.6004453E+003
  6.6862069E+003
  6.7757519E+003
  6.8492610E+003
  6.9718566E+003
  6.9443992E+003
  7.4410892E+003
  7.0388309E+003
 -4.4960054E+002
 -5.0635163E+002
 -5.0634751E+002
 -5.0585020E+002
 -5.0308117E+002
 -4.9836577E+002
 -4.9324604E+002
 -4.8759141E+002
 -4.8131217E+002
 -4.7393957E+002
 -4.6512804E+002
 -4.5444378E+002
 -4.4144379E+002
 -4.2562871E+002
 -4.0641464E+002
 -3.8308098E+002
 -3.5470829E+002
 -3.2010132E+002
 -2.7769753E+002
 -2.2546122E+002
 -1.6076554E+002
 -8.0268180E+001
  2.0206412E+001
  1.4575653E+002
  3.0241236E+002
  4.9699669E+002
  7.3666446E+002
  1.0280418E+003
  1.3757048E+003
  1.7804428E+003
  2.2373893E+003
  2.7349841E+003
  3.2560677E+003
  3.7787691E+003
  4.2804727E+003
  4.7399788E+003
  5.1404880E+003
  5.4710575E+003
  5.7270976E+003
  5.9104058E+003
  6.0289420E+003
  6.0962744E+003
  6.1302512E+003
  6.1507242E+003
  6.1748876E+003
  6.2145937E+003
  6.2729372E+003
  6.3447882E+003
  6.4162729E+003
  6.4771925E+003
  6.4829827E+003
  6.4846704E+003
  6.3491951E+003
  6.2827402E+003
 -2.0483474E+002
 -3.1603225E+002
 -2.5990949E+002
 -2.6752663E+002
 -2.5294320E+002
 -2.4359989E+002
 -2.3223340E+002
 -2.2143970E+002
 -2.0950382E+002
 -1.9636305E+002
 -1.8124726E+002
 -1.6355226E+002
 -1.4260112E+002
 -1.1769199E+002
 -8.8034257E+001
 -5.2704258E+001
 -1.0586240E+001
  3.9690764E+001
  9.9822749E+001
  1.7190459E+002
  2.5850373E+002
  3.6272516E+002
  4.8825328E+002
  6.3934519E+002
  8.2073806E+002
  1.0374063E+003
  1.2941068E+003
  1.5946242E+003
  1.9407694E+003
  2.3311859E+003
  2.7603795E+003
  3.2182793E+003
  3.6904015E+003
  4.1592699E+003
  4.6058490E+003
  5.0117216E+003
  5.3607411E+003
  5.6404829E+003
  5.8433913E+003
  5.9679593E+003
  6.0199715E+003
  6.0137943E+003
  5.9721233E+003
  5.9214676E+003
  5.8890498E+003
  5.8913960E+003
  5.9324189E+003
  6.0019308E+003
  6.0764393E+003
  6.1233304E+003
  6.1065583E+003
  5.9311296E+003
  5.5446341E+003
  4.9612813E+003
 -4.0961722E+001
 -7.2860848E+001
 -2.5267211E+001
 -2.3728993E+001
 -5.7054520E+000
  1.2613077E+001
  2.7457244E+001
  4.4198849E+001
  6.0922067E+001
  7.9303715E+001
  1.0004057E+002
  1.2408998E+002
  1.5228274E+002
  1.8549621E+002
  2.2467254E+002
  2.7088243E+002
  3.2537384E+002
  3.8962370E+002
  4.6538742E+002
  5.5474539E+002
  6.6014113E+002
  7.8440222E+002
  9.3073001E+002
  1.1026375E+003
  1.3038054E+003
  1.5378215E+003
  1.8077643E+003
  2.1156201E+003
  2.4615517E+003
  2.8431438E+003
  3.2547638E+003
  3.6872476E+003
  4.1280928E+003
  4.5620049E+003
  4.9719620E+003
  5.3403441E+003
  5.6502215E+003
  5.8866082E+003
  6.0379440E+003
  6.0979875E+003
  6.0693797E+003
  5.9671799E+003
  5.8209628E+003
  5.6757301E+003
  5.5683558E+003
  5.5293173E+003
  5.5635563E+003
  5.6531045E+003
  5.7678542E+003
  5.8445978E+003
  5.8456818E+003
  5.6269954E+003
  5.1311570E+003
  3.6188038E+003
  3.3757508E+002
  1.6865142E+002
  2.1762034E+002
  2.4916652E+002
  2.6304957E+002
  2.8888426E+002
  3.0882734E+002
  3.3005124E+002
  3.5251993E+002
  3.7805031E+002
  4.0758208E+002
  4.4214895E+002
  4.8272022E+002
  5.3034441E+002
  5.8618513E+002
  6.5157230E+002
  7.2803878E+002
  8.1735295E+002
  9.2154280E+002
  1.0429075E+003
  1.1840084E+003
  1.3476273E+003
  1.5366764E+003
  1.7540410E+003
  2.0023319E+003
  2.2835346E+003
  2.5985535E+003
  2.9466831E+003
  3.3250670E+003
  3.7282452E+003
  4.1478807E+003
  4.5727072E+003
  4.9887482E+003
  5.3797003E+003
  5.7275086E+003
  6.0131534E+003
  6.2176509E+003
  6.3233306E+003
  6.3167010E+003
  6.1924314E+003
  5.9644785E+003
  5.6768496E+003
  5.3846386E+003
  5.1780214E+003
  5.0934606E+003
  5.1381404E+003
  5.2833608E+003
  5.4800681E+003
  5.6888257E+003
  5.8015444E+003
  5.5983002E+003
  4.4810035E+003
 -4.6217824E+002
  9.0733658E+002
  3.6599632E+002
  5.0947422E+002
  4.5720421E+002
  5.2956021E+002
  5.4843495E+002
  5.7466355E+002
  5.9719228E+002
  6.2289511E+002
  6.5199839E+002
  6.8605815E+002
  7.2600597E+002
  7.7289165E+002
  8.2779727E+002
  8.9193875E+002
  9.6668826E+002
  1.0536027E+003
  1.1544391E+003
  1.2711617E+003
  1.4059350E+003
  1.5610959E+003
  1.7390968E+003
  1.9424073E+003
  2.1733622E+003
  2.4339454E+003
  2.7255021E+003
  3.0483867E+003
  3.4015629E+003
  3.7821967E+003
  4.1852801E+003
  4.6033235E+003
  5.0261272E+003
  5.4406034E+003
  5.8306237E+003
  6.1769713E+003
  6.4573488E+003
  6.6472920E+003
  6.7210581E+003
  6.6518093E+003
  6.4200290E+003
  6.0247608E+003
  5.5087164E+003
  5.0339310E+003
  4.6669738E+003
  4.5300966E+003
  4.6134942E+003
  4.8569139E+003
  5.1950457E+003
  5.5574120E+003
  6.0708255E+003
  6.7807990E+003
  1.0224096E+004
 -7.7619121E+002
 -2.9705157E+002
  2.0862130E+002
  5.2692050E+002
  7.7585623E+002
  7.8405603E+002
  8.1949231E+002
  8.3832301E+002
  8.6281118E+002
  8.8939263E+002
  9.2112406E+002
  9.5861017E+002
  1.0029354E+003
  1.0550384E+003
  1.1160122E+003
  1.1870810E+003
  1.2696364E+003
  1.3652418E+003
  1.4756365E+003
  1.6027281E+003
  1.7485739E+003
  1.9153441E+003
  2.1052600E+003
  2.3204996E+003
  2.5630633E+003
  2.8345939E+003
  3.1361494E+003
  3.4679324E+003
  3.8289877E+003
  4.2168801E+003
  4.6273611E+003
  5.0540216E+003
  5.4878897E+003
  5.9169089E+003
  6.3252666E+003
  6.6924136E+003
  6.9926206E+003
  7.1934770E+003
  7.2591150E+003
  7.1494797E+003
  6.8086689E+003
  6.2004130E+003
  5.4094667E+003
  4.4743769E+003
  3.9133440E+003
  3.7394519E+003
  3.9353358E+003
  4.3408271E+003
  4.8726807E+003
  5.3344815E+003
  6.1209932E+003
  5.6556728E+003
  9.1480384E+003
  1.8457673E+003
  1.1610821E+003
  1.0693276E+003
  1.0774026E+003
  1.0833137E+003
  1.1034532E+003
  1.1242593E+003
  1.1513366E+003
  1.1843283E+003
  1.2243754E+003
  1.2720726E+003
  1.3283139E+003
  1.3941268E+003
  1.4707335E+003
  1.5595316E+003
  1.6620897E+003
  1.7801356E+003
  1.9155394E+003
  2.0702886E+003
  2.2464482E+003
  2.4461026E+003
  2.6712722E+003
  2.9238023E+003
  3.2052217E+003
  3.5165712E+003
  3.8582057E+003
  4.2295744E+003
  4.6289756E+003
  5.0532763E+003
  5.4975387E+003
  5.9545198E+003
  6.4138904E+003
  6.8609271E+003
  7.2750157E+003
  7.6265072E+003
  7.8787926E+003
  7.9776703E+003
  7.8679344E+003
  7.4663926E+003
  6.5969864E+003
  5.0525455E+003
  3.9074378E+003
  2.8015873E+003
  2.6134574E+003
  3.0299823E+003
  3.7452514E+003
  4.4897818E+003
  5.2303870E+003
  5.6321085E+003
  6.1515202E+003
  4.8820425E+003
  1.0358736E+003
  1.2938351E+003
  1.3781616E+003
  1.3252531E+003
  1.3555873E+003
  1.3614336E+003
  1.3814859E+003
  1.4067464E+003
  1.4406858E+003
  1.4824446E+003
  1.5326727E+003
  1.5920065E+003
  1.6614430E+003
  1.7421910E+003
  1.8356648E+003
  1.9434489E+003
  2.0672764E+003
  2.2090058E+003
  2.3705939E+003
  2.5540596E+003
  2.7614328E+003
  2.9946874E+003
  3.2556548E+003
  3.5459207E+003
  3.8667063E+003
  4.2187401E+003
  4.6021209E+003
  5.0161687E+003
  5.4592269E+003
  5.9283815E+003
  6.4188503E+003
  6.9231608E+003
  7.4296434E+003
  7.9187806E+003
  8.3622032E+003
  8.7086870E+003
  8.9144901E+003
  8.8737010E+003
  8.5518093E+003
  7.5832685E+003
  5.7791243E+003
  1.9595686E+003
  5.8274175E+002
  8.1549336E+002
  1.8910679E+003
  3.0492573E+003
  4.2351632E+003
  5.2225028E+003
  5.8170695E+003
  5.2288420E+003
 -2.5297021E+002
  1.3413684E+003
  1.6736787E+003
  1.4625132E+003
  1.6516040E+003
  1.6031090E+003
  1.6195010E+003
  1.6289076E+003
  1.6549069E+003
  1.6889044E+003
  1.7321249E+003
  1.7841234E+003
  1.8455902E+003
  1.9174405E+003
  2.0009209E+003
  2.0974870E+003
  2.2087648E+003
  2.3365159E+003
  2.4826144E+003
  2.6490233E+003
  2.8377656E+003
  3.0508844E+003
  3.2903924E+003
  3.5582106E+003
  3.8560994E+003
  4.1855894E+003
  4.5479186E+003
  4.9439877E+003
  5.3743291E+003
  5.8390848E+003
  6.3378571E+003
  6.8695147E+003
  7.4307198E+003
  8.0148458E+003
  8.6103018E+003
  9.1830139E+003
  9.7065413E+003
  1.0074255E+004
  1.0364739E+004
  1.0040573E+004
  1.0015797E+004
  2.7768313E+003
  2.7661792E+003
 -2.7454549E+003
 -1.3298114E+003
  4.0117341E+002
  2.3791882E+003
  4.0517983E+003
  5.7197285E+003
  7.2127318E+003
  1.2693411E+004
 -6.3412834E+002
 -5.1003667E+002
  2.0477013E+003
  2.1294064E+003
  1.8610045E+003
  1.8824706E+003
  1.8526761E+003
  1.8693758E+003
  1.8928633E+003
  1.9284835E+003
  1.9728032E+003
  2.0261122E+003
  2.0887700E+003
  2.1618076E+003
  2.2465654E+003
  2.3445991E+003
  2.4576090E+003
  2.5874096E+003
  2.7359141E+003
  2.9051214E+003
  3.0970976E+003
  3.3139496E+003
  3.5577903E+003
  3.8306981E+003
  4.1346774E+003
  4.4716293E+003
  4.8433479E+003
  5.2515621E+003
  5.6980567E+003
  6.1848485E+003
  6.7145427E+003
  7.2901185E+003
  7.9162304E+003
  8.5917312E+003
  9.3161445E+003
  1.0077413E+004
  1.0787970E+004
  1.1242980E+004
  1.2006865E+004
  1.1987199E+004
  1.9123634E+004
  8.5523725E+003
 -4.4187797E+003
 -1.7581320E+004
 -4.7005624E+003
 -9.4901263E+002
  2.0282509E+003
  3.9739517E+003
  6.1187131E+003
  6.4277802E+003
  1.0643042E+004
  1.8587515E+003
  2.0869732E+003
  2.1918223E+003
  2.0751600E+003
  2.0849842E+003
  2.0933847E+003
  2.1211512E+003
  2.1584474E+003
  2.2045350E+003
  2.2587066E+003
  2.3215744E+003
  2.3944602E+003
  2.4789392E+003
  2.5767390E+003
  2.6896652E+003
  2.8196012E+003
  2.9685127E+003
  3.1384525E+003
  3.3315563E+003
  3.5500294E+003
  3.7961248E+003
  4.0721181E+003
  4.3802859E+003
  4.7229024E+003
  5.1022730E+003
  5.5208457E+003
  5.9814401E+003
  6.4877379E+003
  7.0449369E+003
  7.6613222E+003
  8.3474557E+003
  9.1268219E+003
  9.9980574E+003
  1.0967594E+004
  1.2180058E+004
  1.3198042E+004
  1.3012989E+004
  1.3149658E+004
  1.0505402E+004
 -9.6406665E+003
 -2.3803288E+003
 -8.7545876E+002
  2.2547417E+003
  4.4512494E+003
  5.9402463E+003
  6.7839906E+003
 -1.3406970E+002
  1.9556268E+003
  2.7823761E+003
  2.2339226E+003
  2.3255998E+003
  2.2836130E+003
  2.3049449E+003
  2.3369178E+003
  2.3795104E+003
  2.4282313E+003
  2.4825906E+003
  2.5444036E+003
  2.6155304E+003
  2.6980029E+003
  2.7937573E+003
  2.9047146E+003
  3.0328191E+003
  3.1800843E+003
  3.3486209E+003
  3.5406477E+003
  3.7584900E+003
  4.0045661E+003
  4.2813699E+003
  4.5914537E+003
  4.9374278E+003
  5.3219995E+003
  5.7480898E+003
  6.2191310E+003
  6.7396207E+003
  7.3164776E+003
  7.9608704E+003
  8.6933725E+003
  9.5395537E+003
  1.0601538E+004
  1.1849276E+004
  1.3058743E+004
  1.4066874E+004
  1.3912440E+004
  1.4244683E+004
 -5.7028243E+003
 -2.4996472E+003
  3.7433339E+002
  2.7471044E+003
  5.3794298E+003
  7.9984785E+003
  1.6161979E+004
  1.8650703E+002
 -7.2130956E+002
  3.4083142E+003
  2.6133878E+003
  2.5186243E+003
  2.4414860E+003
  2.4953817E+003
  2.5404370E+003
  2.5958753E+003
  2.6459463E+003
  2.6992965E+003
  2.7579077E+003
  2.8252876E+003
  2.9037907E+003
  2.9955775E+003
  3.1026185E+003
  3.2268768E+003
  3.3703849E+003
  3.5352995E+003
  3.7239250E+003
  3.9387190E+003
  4.1822845E+003
  4.4573498E+003
  4.7667443E+003
  5.1133740E+003
  5.5002198E+003
  5.9303961E+003
  6.4073135E+003
  6.9352644E+003
  7.5203055E+003
  8.1739313E+003
  8.9166757E+003
  9.7933093E+003
  1.0820261E+004
  1.2611403E+004
  1.5559731E+004
  2.6204571E+004
  1.0771783E+004
 -3.8672591E+003
 -9.8413643E+002
  1.2161561E+003
  3.3869818E+003
  6.0190863E+003
  6.5966822E+003
  1.2587888E+004
  5.0207610E+003
  2.7291066E+003
  2.3396271E+003
  2.5692334E+003
  2.6462953E+003
  2.7567067E+003
  2.8112250E+003
  2.8628904E+003
  2.9101993E+003
  2.9628267E+003
  3.0238930E+003
  3.0963073E+003
  3.1821418E+003
  3.2833051E+003
  3.4016832E+003
  3.5392778E+003
  3.6982663E+003
  3.8810331E+003
  4.0901773E+003
  4.3285055E+003
  4.5990077E+003
  4.9048137E+003
  5.2491340E+003
  5.6351500E+003
  6.0659849E+003
  6.5444389E+003
  7.0737077E+003
  7.6553585E+003
  8.3009698E+003
  8.9990577E+003
  9.8878710E+003
  1.0633387E+004
  1.1956960E+004
  9.0462730E+003
  8.6776368E+003
  5.2363302E+002
  8.1797318E+001
 -1.8927175E+002
  6.4218181E+002
  2.3161358E+003
  4.2253664E+003
  5.6474361E+003
  6.9372839E+003
  3.2261196E+002
 -2.1838968E+003
 -5.7355350E+002
  2.4558729E+003
  2.4910488E+003
  2.9383900E+003
  2.9745200E+003
  3.0470566E+003
  3.0794277E+003
  3.1169153E+003
  3.1590141E+003
  3.2112082E+003
  3.2753821E+003
  3.3533774E+003
  3.4467724E+003
  3.5572700E+003
  3.6867736E+003
  3.8374523E+003
  4.0117613E+003
  4.2124496E+003
  4.4425517E+003
  4.7053614E+003
  5.0043821E+003
  5.3432091E+003
  5.7253793E+003
  6.1539117E+003
  6.6312687E+003
  7.1575624E+003
  7.7332789E+003
  8.3450719E+003
  9.0228878E+003
  9.6214229E+003
  1.0944838E+004
  1.1544648E+004
  2.0842296E+004
 -1.9274237E+001
 -5.2665057E+002
  5.1082950E+002
  1.6506568E+003
  3.0636259E+003
  5.0457384E+003
  7.5340159E+003
  1.5359120E+004
  6.4679045E+002
  2.5811632E+003
  2.0491884E+003
  3.3945736E+003
  3.1586173E+003
  3.2961666E+003
  3.2835560E+003
  3.2997101E+003
  3.3167602E+003
  3.3455767E+003
  3.3863978E+003
  3.4406556E+003
  3.5092004E+003
  3.5931335E+003
  3.6938448E+003
  3.8130900E+003
  3.9530038E+003
  4.1161065E+003
  4.3053040E+003
  4.5238832E+003
  4.7754982E+003
  5.0641262E+003
  5.3939712E+003
  5.7691975E+003
  6.1934742E+003
  6.6688544E+003
  7.1938997E+003
  7.7657338E+003
  8.3521464E+003
  8.9755696E+003
  9.4501273E+003
  9.9573531E+003
  8.0799345E+003
  5.4361986E+003
  9.9015819E+002
  1.4060426E+003
  2.3757244E+003
  3.3824574E+003
  5.2185514E+003
  5.3679056E+003
  1.1480493E+004
  6.6614472E+003
  5.0596539E+003
  3.5306031E+003
  3.7299636E+003
  3.5740183E+003
  3.5316384E+003
  3.5109002E+003
  3.5064822E+003
  3.5197380E+003
  3.5482089E+003
  3.5916282E+003
  3.6496318E+003
  3.7227077E+003
  3.8118788E+003
  3.9187322E+003
  4.0453621E+003
  4.1943530E+003
  4.3687712E+003
  4.5721707E+003
  4.8086035E+003
  5.0826305E+003
  5.3992811E+003
  5.7639664E+003
  6.1818730E+003
  6.6571245E+003
  7.1890850E+003
  7.7638936E+003
  8.3856858E+003
  8.8468602E+003
  9.4622513E+003
  9.5751702E+003
  1.6797053E+004
  5.5705156E+002
  2.1765547E+002
  2.2638686E+002
  1.3730044E+003
  2.0732792E+003
  2.7616664E+003
  3.6244822E+003
  4.2958222E+003
  5.5870141E+003
  4.7443274E+003
 -2.0057889E+003
  4.8067263E+003
  4.2919824E+003
  4.1196617E+003
  3.7928267E+003
  3.7713767E+003
  3.6992095E+003
  3.6809708E+003
  3.6778300E+003
  3.6953870E+003
  3.7279472E+003
  3.7750013E+003
  3.8361698E+003
  3.9122229E+003
  4.0045919E+003
  4.1153561E+003
  4.2471695E+003
  4.4032543E+003
  4.5874174E+003
  4.8041044E+003
  5.0584610E+003
  5.3565310E+003
  5.7051479E+003
  6.1131038E+003
  6.5871514E+003
  7.1425363E+003
  7.7516754E+003
  8.4330039E+003
  9.0198716E+003
  9.4668730E+003
  6.8732155E+003
  4.6039888E+003
  1.1870204E+003
  2.4857659E+003
  2.5891860E+003
  3.1670621E+003
  3.6408024E+003
  4.0948897E+003
  3.9476764E+003
  5.1674287E+002
  2.3642866E+003
  5.3680540E+003
  3.7198013E+003
  4.1983169E+003
  3.9036785E+003
  3.8795023E+003
  3.8264626E+003
  3.8194682E+003
  3.8265432E+003
  3.8500427E+003
  3.8861581E+003
  3.9347484E+003
  3.9962373E+003
  4.0720537E+003
  4.1642991E+003
  4.2757151E+003
  4.4096592E+003
  4.5701457E+003
  4.7619187E+003
  4.9906284E+003
  5.2629725E+003
  5.5876657E+003
  5.9747731E+003
  6.4442527E+003
  7.0060325E+003
  7.7464935E+003
  8.5385537E+003
  9.5377106E+003
  8.7531914E+003
  7.9426296E+003
  3.0610760E+003
  4.5519719E+003
  2.8230209E+003
  3.4167987E+003
  3.3500510E+003
  3.8500381E+003
  4.3841709E+003
  7.9328148E+003
  2.6244760E+002
 -1.3595538E+002
  5.2335258E+003
  4.6036529E+003
  4.1854800E+003
  4.0965453E+003
  3.9885335E+003
  3.9557170E+003
  3.9396601E+003
  3.9431951E+003
  3.9589371E+003
  3.9849209E+003
  4.0203805E+003
  4.0659265E+003
  4.1230841E+003
  4.1940736E+003
  4.2817351E+003
  4.3895287E+003
  4.5215903E+003
  4.6828390E+003
  4.8790944E+003
  5.1174912E+003
  5.4065088E+003
  5.7593852E+003
  6.1897575E+003
  6.7518369E+003
  7.4547800E+003
  8.7761095E+003
  1.0852578E+004
  1.9749901E+004
  4.2264053E+003
  7.2769723E+003
  4.1570578E+003
  3.7362095E+003
  3.3958148E+003
  3.6281550E+003
  3.1105571E+003
  4.9349920E+003
  2.6584133E+003
  4.3670483E+003
  4.3026631E+003
  4.1359395E+003
  4.0888946E+003
  4.0539991E+003
  4.0431739E+003
  4.0466378E+003
  4.0575510E+003
  4.0741719E+003
  4.0959178E+003
  4.1240117E+003
  4.1602867E+003
  4.2071804E+003
  4.2676268E+003
  4.3451354E+003
  4.4438637E+003
  4.5687626E+003
  4.7255239E+003
  4.9212714E+003
  5.1626358E+003
  5.4639894E+003
  5.8198558E+003
  6.3137344E+003
  6.7486644E+003
  8.0332352E+003
  6.8738205E+003
  1.2784619E+004
  2.0110461E+002
  4.6843165E+002
  3.7051990E+003
  3.9473091E+003
  3.6347617E+003
  3.3315727E+003
  2.8698782E+003
  2.7635296E+003
  1.8019677E+002
  3.0576591E+003
  5.6832428E+003
  4.0458592E+003
  4.2783003E+003
  4.1364402E+003
  4.1293564E+003
  4.1318135E+003
  4.1413441E+003
  4.1508548E+003
  4.1581666E+003
  4.1651855E+003
  4.1739167E+003
  4.1868859E+003
  4.2067355E+003
  4.2364595E+003
  4.2795161E+003
  4.3400023E+003
  4.4227312E+003
  4.5333909E+003
  4.6780034E+003
  4.8641879E+003
  5.0944386E+003
  5.3847742E+003
  5.6816104E+003
  6.1046845E+003
  6.0517227E+003
  6.9397888E+003
  4.1145775E+003
  4.3290266E+003
  5.3172526E+003
  4.2011823E+003
  3.6744276E+003
  3.0649543E+003
  2.6878302E+003
  3.7143228E+003
  5.0561841E+002
 -7.2524271E+002
  6.6548423E+003
  4.0542112E+003
  4.3666952E+003
  4.0804145E+003
  4.1938622E+003
  4.2064314E+003
  4.2395329E+003
  4.2454174E+003
  4.2429300E+003
  4.2326679E+003
  4.2196521E+003
  4.2066002E+003
  4.1964190E+003
  4.1919501E+003
  4.1964664E+003
  4.2138662E+003
  4.2488656E+003
  4.3069451E+003
  4.3944098E+003
  4.5167547E+003
  4.6805935E+003
  4.8795080E+003
  5.1241544E+003
  5.2947603E+003
  5.3290087E+003
  4.4781242E+003
  2.8247853E+002
  1.0758724E+004
  5.1854574E+003
  5.1429181E+003
  3.4654482E+003
  2.6081895E+003
  1.5180320E+003
  1.4157387E+003
  3.7581524E+003
  4.6536623E+003
  3.4833403E+003
  4.1646375E+003
  4.1741676E+003
  4.3247109E+003
  4.3473696E+003
  4.3540439E+003
  4.3339325E+003
  4.3034629E+003
  4.2652927E+003
  4.2234811E+003
  4.1803698E+003
  4.1384435E+003
  4.1005062E+003
  4.0701272E+003
  4.0518361E+003
  4.0513661E+003
  4.0750235E+003
  4.1308649E+003
  4.2208197E+003
  4.3610783E+003
  4.5114962E+003
  4.8538610E+003
  5.0986744E+003
  8.0863568E+003
 -5.4509111E+001
  1.4589534E+004
  7.3719200E+003
  5.0608762E+003
  3.2169262E+003
  1.7836595E+003
  9.0848767E+002
  1.1620017E+002
 -3.7468132E+003
  8.3117169E+002
  3.6794812E+003
  3.8366938E+003
  4.4033636E+003
  4.4585277E+003
  4.5050089E+003
  4.4789630E+003
  4.4386690E+003
  4.3809960E+003
  4.3148094E+003
  4.2415817E+003
  4.1631371E+003
  4.0809167E+003
  3.9969593E+003
  3.9142379E+003
  3.8370275E+003
  3.7713613E+003
  3.7246750E+003
  3.7072449E+003
  3.7244788E+003
  3.7983305E+003
  3.8511452E+003
  4.1703566E+003
  3.6182991E+003
  5.1627507E+003
  6.0990098E+002
  2.8465822E+002
  7.1044119E+003
  5.7811636E+003
  4.4782123E+003
  2.5542171E+003
  6.6620083E+002
 -1.5226014E+003
  4.6842960E+002
 -2.5470909E+003
  2.5283521E+003
  3.0194748E+003
  4.7219328E+003
  4.6304364E+003
  4.7505717E+003
  4.6815732E+003
  4.6361027E+003
  4.5553797E+003
  4.4682970E+003
  4.3709935E+003
  4.2649733E+003
  4.1496374E+003
  4.0251062E+003
  3.8921379E+003
  3.7527430E+003
  3.6106939E+003
  3.4720148E+003
  3.3462325E+003
  3.2454023E+003
  3.1881254E+003
  3.1820687E+003
  3.2669214E+003
  3.0923842E+003
  3.0866058E+003
  1.0130969E+002
  1.3054274E+004
  7.0208920E+003
  6.5216660E+003
  3.8830342E+003
  1.8341081E+003
  9.3164071E+001
 -3.2813990E+003
  9.7414007E+003
  5.7372135E+003
  5.2555609E+003
  5.2476310E+003
  4.9813672E+003
  4.9329355E+003
  4.7988252E+003
  4.6852188E+003
  4.5641058E+003
  4.4363179E+003
  4.2975437E+003
  4.1453750E+003
  3.9777028E+003
  3.7936940E+003
  3.5938599E+003
  3.3807341E+003
  3.1599729E+003
  2.9417760E+003
  2.7428103E+003
  2.5933146E+003
  2.5093688E+003
  2.6388138E+003
  2.8912187E+003
  4.6913409E+003
  4.1965970E+002
  2.0390863E+004
  8.8382353E+003
  6.3142254E+003
  3.4153363E+003
  1.1741879E+003
 -7.7264249E+002
 -3.1328177E+003
  1.9607267E+003
  5.2486537E+003
  7.1382155E+003
  5.2676498E+003
  5.4659560E+003
  5.1205973E+003
  4.9717682E+003
  4.8167466E+003
  4.6681347E+003
  4.5120946E+003
  4.3437809E+003
  4.1565527E+003
  3.9466511E+003
  3.7110600E+003
  3.4481703E+003
  3.1583949E+003
  2.8446910E+003
  2.5182455E+003
  2.1918166E+003
  1.9200568E+003
  1.7134018E+003
  1.7662965E+003
  1.5813751E+003
  1.6804848E+003
 -2.8696671E+002
  6.6537891E+003
  7.0554001E+003
  7.9444601E+003
  5.0072345E+003
  2.6690277E+003
  4.0816393E+002
 -1.3019551E+003
 -3.1851400E+002
  5.8273516E+002
  4.4860659E+003
  7.2483519E+003
  5.5045612E+003
  5.7261555E+003
  5.2400831E+003
  5.1433074E+003
  4.9436744E+003
  4.7777343E+003
  4.6014725E+003
  4.4085601E+003
  4.1905479E+003
  3.9412640E+003
  3.6556949E+003
  3.3295975E+003
  2.9591570E+003
  2.5445822E+003
  2.0845835E+003
  1.6132338E+003
  1.1024734E+003
  8.4075037E+002
  4.5890179E+002
  2.4230185E+003
  6.5388635E+002
  2.0643599E+004
  1.0911415E+004
  7.0967797E+003
  4.1044012E+003
  1.4939452E+003
 -1.1633821E+003
 -6.3502858E+003
 -2.2083394E+002
  1.0269259E+003
  7.9349289E+003
  4.9835665E+003
  5.6609432E+003
  5.2228636E+003
  5.0746200E+003
  4.8933001E+003
  4.7080073E+003
  4.4985290E+003
  4.2557007E+003
  3.9721451E+003
  3.6410463E+003
  3.2550098E+003
  2.8059715E+003
  2.2836413E+003
  1.6843335E+003
  9.9317359E+002
  2.7963321E+002
 -5.5701388E+002
 -1.1749961E+003
 -1.3375840E+003
  7.7409331E+003
  9.9595964E+003
  9.3857203E+003
  7.4862199E+003
  5.3388740E+003
  3.0347660E+003
  5.0510028E+002
 -9.5258431E+002
 -5.6267928E+003
  1.3520982E+003
  6.5376786E+003
  5.5078218E+003
  5.7886335E+003
  5.2666978E+003
  5.2171563E+003
  5.0116158E+003
  4.8405611E+003
  4.6207779E+003
  4.3616282E+003
  4.0505851E+003
  3.6812960E+003
  3.2440653E+003
  2.7247222E+003
  2.1065675E+003
  1.3545812E+003
  4.7204250E+002
 -6.9027042E+002
 -1.6573799E+003
 -3.8029718E+003
 -3.8729437E+003
  1.0366296E+004
  9.0797037E+003
  8.3303944E+003
  7.5363995E+003
  5.7667002E+003
  3.6399912E+003
  1.5899805E+003
 -4.5237990E+001
 -1.8001455E+003
 -6.7551966E+002
  1.1166314E+003
  8.4285898E+003
  4.8374948E+003
  5.7147172E+003
  5.2147701E+003
  5.1868069E+003
  4.9945784E+003
  4.7885351E+003
  4.5178765E+003
  4.1876319E+003
  3.7897043E+003
  3.3144659E+003
  2.7458989E+003
  2.0516759E+003
  1.2036583E+003
  6.9638346E+001
 -1.2309892E+003
 -3.7008136E+003
 -3.9068953E+003
 -1.0228748E+004
  9.1557805E+003
  8.3540615E+003
  7.4289507E+003
  6.3230599E+003
  5.1444775E+003
  3.6922368E+003
  1.9613178E+003
  1.8599729E+002
 -1.5313713E+003
 -3.1208010E+003
 -1.9655369E+003
  1.2058089E+003
  7.5118639E+003
  5.5104201E+003
  5.3592555E+003
  5.4118825E+003
  5.3348364E+003
  5.2070205E+003
  5.0106191E+003
  4.7362491E+003
  4.3920144E+003
  3.9752344E+003
  3.4792981E+003
  2.8881396E+003
  2.1673583E+003
  1.2759049E+003
  7.5148586E+001
 -1.4511369E+003
 -4.3343133E+003
 -8.0396911E+003
 -2.5374015E+004
  7.1147336E+003
  9.4093526E+003
  6.3006812E+003
  5.6947655E+003
  4.6374422E+003
  3.4623452E+003
  2.0227994E+003
  4.0753460E+002
 -1.4874088E+003
 -3.6789169E+003
 -3.4008956E+003
  2.5903659E+003
  5.1402460E+003
  5.3312501E+003
  5.5356976E+003
  5.5395070E+003
  5.5037612E+003
  5.3041628E+003
  5.0280045E+003
  4.6681353E+003
  4.2398444E+003
  3.7399556E+003
  3.1565684E+003
  2.4637485E+003
  1.6146343E+003
  5.3842923E+002
 -8.8600986E+002
 -2.8391916E+003
 -5.0023335E+003
 -7.4234423E+003
 -2.9317448E+003
 -1.0217543E+004
 -1.9098019E+003
 -4.0439567E+003
  3.5636010E+002
  2.1401215E+003
  4.2608279E+003
  4.4470642E+003
  4.1083481E+003
  3.0802397E+003
  1.8663945E+003
  5.9203356E+002
 -1.0095963E+003
 -3.2138206E+003
 -3.5645769E+003
  1.1852632E+004
  2.8681226E+003
  5.4159040E+003
  5.5088106E+003
  6.0293972E+003
  5.8727715E+003
  5.7091325E+003
  5.3923262E+003
  5.0152811E+003
  4.5754630E+003
  4.0836373E+003
  3.5354145E+003
  2.9129716E+003
  2.1899003E+003
  1.3260110E+003
  2.9993413E+002
 -8.6956449E+002
 -2.1473381E+003
 -3.0527811E+003
 -1.9028732E+003
  3.2923352E+002
  2.0570697E+003
  3.3290590E+003
  3.4536976E+003
  2.9815464E+003
  1.9575289E+003
  3.1663671E+002
 -4.4523169E+002
 -2.2733843E+003
 -2.8688240E+003
  4.7364053E+003
  4.6189336E+003
  7.0339291E+003
  6.4172557E+003
  6.5220458E+003
  6.1780155E+003
  5.8430709E+003
  5.4189785E+003
  4.9639894E+003
  4.4845495E+003
  3.9861213E+003
  3.4668046E+003
  2.9025735E+003
  2.2841254E+003
  1.6425321E+003
  1.0158307E+003
  5.6964650E+002
  7.2147777E+002
  1.3606808E+003
  2.0303986E+003
  2.9698024E+003
  3.5166606E+003
  3.3106793E+003
  2.1094385E+003
  7.5044279E+002
 -1.9010033E+003
 -8.6911764E+002
 -1.4605367E+003
  1.1433916E+004
  1.0413304E+004
  7.0429825E+003
  7.6948131E+003
  7.0718348E+003
  6.8064158E+003
  6.3247592E+003
  5.8632654E+003
  5.3787485E+003
  4.9013006E+003
  4.4636724E+003
  4.0578077E+003
  3.6795195E+003
  3.2979870E+003
  2.9224779E+003
  2.7503304E+003
  2.7862641E+003
  3.1682778E+003
  4.1661682E+003
  4.5526763E+003
  3.7768129E+003
  4.4919672E+003
  2.4747435E+003
  3.7513310E+003
  9.9814155E+002
 -5.1764711E+001
 -3.4880293E+003
  1.0184323E+004
  8.6757198E+003
  8.2563063E+003
  8.0228332E+003
  7.3629460E+003
  6.8932626E+003
  6.3292887E+003
  5.7770770E+003
  5.2929598E+003
  4.8864060E+003
  4.6392378E+003
  4.4422987E+003
  4.1855606E+003
  4.0772740E+003
  4.1735542E+003
  4.9203616E+003
  5.4964899E+003
  6.9751339E+003
  5.2157297E+003
  5.2269111E+003
  9.2375151E+003
  3.3589041E+003
  6.5857385E+002
  5.1913953E+003
  9.2807985E+003
  9.3794937E+003
  8.4673603E+003
  8.2177439E+003
  7.3417910E+003
  6.7409842E+003
  6.1632547E+003
  5.5719907E+003
  5.2130297E+003
  5.0931296E+003
  5.3316237E+003
  5.3580894E+003
  4.8917562E+003
  4.8419399E+003
  6.7123787E+003
  5.6333504E+003
  1.6695283E+004
  1.1575860E+004
  9.5524037E+002
  1.6268720E+003
  7.9076004E+003
  1.0557514E+004
  9.9340255E+003
  1.1139825E+004
  8.1567763E+003
  8.1701634E+003
  7.4190093E+003
  6.3017823E+003
  5.7065066E+003
  5.2651609E+003
  5.1982273E+003
  6.3899359E+003
  5.2739160E+003
  5.7378233E+003
  4.7056514E+003
  1.1436628E+004
  3.0763107E+003
  1.1881311E+002
 -2.6649770E+003
  1.2756753E+004
  1.7802302E+004
  7.4688624E+003
  9.5849714E+003
  8.4088610E+003
  7.0691765E+003
  6.7358265E+003
  5.4433487E+003
  4.9976757E+003
  4.3285856E+003
  1.0184126E+004
  9.3010677E+003
  5.1130825E+003
  8.1565413E+001
  1.9085841E+001
 -8.3899294E+003
  2.9499417E+004
  1.6297977E+004
  6.0629936E+003
  1.1221775E+004
  1.0196311E+004
  6.1155820E+003
  5.0821449E+003
  3.5839590E+003
 -4.2964020E+002
 -7.7781188E+002
 -1.2392901E+004
 -7.5141427E+003
 -2.8276432E+003
 -1.8048246E+003
SCALARS Stress_xy double
LOOKUP_TABLE default
 -5.0907195E+004
 -5.3119513E+004
 -1.9011172E+004
 -1.6068506E+004
 -1.1287337E+004
 -1.2111659E+004
  1.0677775E+004
  1.1812228E+004
  1.9830112E+004
  1.6129396E+004
  5.5519782E+004
  4.9823524E+004
  1.3560005E+003
 -3.4883212E+003
 -5.8884680E+003
 -1.3450023E+003
 -9.9218398E+003
 -3.0219011E+003
 -1.1927681E+004
 -3.8483282E+003
 -1.3879830E+004
 -4.3236389E+003
 -1.5476240E+004
 -4.8085244E+003
 -1.6996019E+004
 -5.2274196E+003
 -1.8398652E+004
 -5.7605606E+003
 -2.0042853E+004
 -5.9935869E+003
 -2.1544081E+004
 -7.8208684E+003
 -2.5877238E+004
 -6.9574354E+003
 -2.9980563E+004
 -2.3804625E+004
 -2.0851332E+004
 -7.7733166E+003
 -7.4988086E+003
  5.2508364E+003
  9.4390780E+003
  2.9915099E+004
  5.2062268E+004
  3.9989835E+004
  4.8637307E+004
  2.3452344E+004
  7.8403302E+004
  4.7532229E+004
 -9.1581421E+003
 -1.2974187E+004
 -1.8227482E+004
 -2.2431683E+004
 -2.6052020E+004
 -2.9250971E+004
 -3.2111485E+004
 -3.4722402E+004
 -3.7008101E+004
 -3.9180657E+004
 -3.9896739E+004
 -3.4664491E+004
 -1.7340312E+004
 -9.3624031E+003
 -5.6792112E+003
 -2.0605348E+003
  6.7502691E+003
  2.4383547E+004
  5.2996256E+004
  6.0850841E+004
  7.9945783E+004
  8.0003575E+004
  4.4645289E+004
  6.6115128E+004
  1.6581311E+004
 -4.4455274E+003
 -2.9990558E+003
 -1.0531011E+004
 -1.8142832E+004
 -2.3144832E+004
 -2.8258114E+004
 -3.2864749E+004
 -3.6989458E+004
 -4.0595940E+004
 -4.3611868E+004
 -4.5849657E+004
 -4.6594184E+004
 -4.4285664E+004
 -3.6905434E+004
 -2.8457836E+004
 -1.8990446E+004
 -1.2875452E+004
 -6.1791002E+003
  4.7991587E+003
  2.2702393E+004
  4.0409795E+004
  6.1618023E+004
  8.2760781E+004
  1.2052780E+005
  1.1135400E+005
  9.3686982E+004
 -6.4017409E+003
 -9.3550671E+003
 -1.5032475E+004
 -2.1608389E+004
 -2.5906053E+004
 -3.1777872E+004
 -3.6988028E+004
 -4.1713008E+004
 -4.5734655E+004
 -4.8968664E+004
 -5.1071659E+004
 -5.1389060E+004
 -4.9022814E+004
 -4.4013384E+004
 -3.6518171E+004
 -2.9352330E+004
 -2.2012517E+004
 -1.3419298E+004
 -1.4645003E+003
  1.4030796E+004
  3.2928919E+004
  5.2779531E+004
  7.4025289E+004
  9.4266004E+004
  1.0762997E+005
  2.0686364E+005
 -1.5430020E+004
 -1.4104407E+004
 -1.9479678E+004
 -2.6380548E+004
 -3.2528097E+004
 -3.8234231E+004
 -4.3133320E+004
 -4.7299198E+004
 -5.0655950E+004
 -5.2965828E+004
 -5.3790327E+004
 -5.2749224E+004
 -4.9645785E+004
 -4.5080020E+004
 -3.9137453E+004
 -3.1989325E+004
 -2.2752421E+004
 -1.0731756E+004
  4.2052165E+003
  2.0702649E+004
  3.7712802E+004
  5.1436995E+004
  6.1846856E+004
  5.2378515E+004
  1.1242397E+005
  1.2201856E+005
  1.1087306E+005
  1.4418162E+005
  5.9962902E+004
 -1.0817840E+004
 -5.5940559E+003
 -7.9069719E+003
 -1.0711355E+004
 -1.7025075E+004
 -2.4729223E+004
 -3.1424719E+004
 -3.7040778E+004
 -4.1740511E+004
 -4.5776717E+004
 -4.9254529E+004
 -5.2069825E+004
 -5.3978703E+004
 -5.4691494E+004
 -5.4038009E+004
 -5.1812269E+004
 -4.7889049E+004
 -4.1744042E+004
 -3.2876943E+004
 -2.1070958E+004
 -6.8662368E+003
  8.4622895E+003
  2.2802509E+004
  3.4276800E+004
  4.1407767E+004
  5.7998016E+004
  8.9084099E+004
  1.0917101E+005
  1.1661891E+005
  9.3768423E+004
  7.5311845E+004
  1.0436367E+005
  4.8128591E+004
 -5.6881294E+003
 -5.1631332E+003
 -8.0218589E+003
 -1.4852287E+004
 -2.2407557E+004
 -2.8750947E+004
 -3.3571992E+004
 -3.7518265E+004
 -4.1147028E+004
 -4.4691231E+004
 -4.8132455E+004
 -5.1311719E+004
 -5.3996045E+004
 -5.5846403E+004
 -5.6382185E+004
 -5.4847419E+004
 -5.0402885E+004
 -4.2426227E+004
 -3.0920659E+004
 -1.6879045E+004
 -1.8320047E+003
  1.2438371E+004
  2.4753759E+004
  3.7238903E+004
  5.3019023E+004
  7.2386262E+004
  8.4973523E+004
  9.7964519E+004
  9.6027879E+004
  8.8326805E+004
  6.5626920E+004
  5.1301855E+004
  6.0877136E+004
  2.4310429E+004
 -2.8283846E+003
 -4.9226766E+002
  2.3070949E+003
  2.5190083E+003
 -3.4630328E+003
 -1.2039601E+004
 -1.9568507E+004
 -2.4496795E+004
 -2.7541844E+004
 -3.0222968E+004
 -3.3250828E+004
 -3.6796604E+004
 -4.0817073E+004
 -4.5204447E+004
 -4.9780493E+004
 -5.4186406E+004
 -5.7688718E+004
 -5.9089911E+004
 -5.6950418E+004
 -5.0158468E+004
 -3.8952753E+004
 -2.4402471E+004
 -8.8218341E+003
  6.3868641E+003
  2.0806904E+004
  3.4653423E+004
  4.9065061E+004
  6.2911813E+004
  7.5615983E+004
  8.1632546E+004
  7.9855714E+004
  7.8867654E+004
  7.0313698E+004
  5.4217061E+004
  3.4222615E+004
  2.5785390E+004
  2.0244938E+004
  3.9560933E+003
  1.5324785E+003
  5.3769223E+003
  1.0133245E+004
  4.5638120E+003
 -8.1734408E+003
 -1.5996955E+004
 -1.7530994E+004
 -1.8042295E+004
 -1.9406839E+004
 -2.1937430E+004
 -2.5472625E+004
 -2.9884584E+004
 -3.5126342E+004
 -4.1176283E+004
 -4.7844436E+004
 -5.4416903E+004
 -5.9303547E+004
 -6.0093457E+004
 -5.4965630E+004
 -4.3375240E+004
 -2.8738036E+004
 -1.2481754E+004
  3.3027660E+003
  1.7795111E+004
  3.1702585E+004
  4.3806028E+004
  5.4206586E+004
  6.2029205E+004
  6.6999012E+004
  6.9067601E+004
  6.6071636E+004
  5.7633642E+004
  4.9249699E+004
  3.7142369E+004
  1.8553082E+004
  3.3011812E+003
  5.0766673E+003
 -6.7440610E+003
 -5.9018702E+003
  1.2117972E+004
  2.1349273E+004
  1.0575586E+004
 -7.9081961E+003
 -8.2260717E+003
 -5.3004022E+003
 -3.9235727E+003
 -4.9482469E+003
 -7.4517363E+003
 -1.1023801E+004
 -1.5471785E+004
 -2.0877727E+004
 -2.7474550E+004
 -3.5467565E+004
 -4.4650465E+004
 -5.3422391E+004
 -5.8258689E+004
 -5.4477811E+004
 -4.3387049E+004
 -2.6400608E+004
 -1.3174666E+004
 -7.8852144E+002
  1.4071258E+004
  2.5776836E+004
  3.4842008E+004
  4.1396704E+004
  4.6343395E+004
  5.0332748E+004
  5.2176347E+004
  5.1205878E+004
  4.6939781E+004
  3.8240968E+004
  2.5692692E+004
  1.2625240E+004
 -1.2853775E+003
 -1.3040882E+004
 -2.0369383E+004
 -1.3809844E+004
  4.5355878E+004
  3.8959315E+004
  9.9449845E+003
  9.2875487E+003
  1.5207552E+004
  1.4361471E+004
  1.2306110E+004
  9.1462713E+003
  5.6107590E+003
  1.6759928E+003
 -2.8737710E+003
 -8.5139726E+003
 -1.5932453E+004
 -2.5763249E+004
 -3.8022213E+004
 -4.8146819E+004
 -4.8250024E+004
 -2.9929410E+004
 -1.8734635E+004
 -1.0514042E+004
 -5.5659064E+003
 -6.4206262E+002
  1.2460165E+004
  1.8560078E+004
  2.0209819E+004
  2.3695631E+004
  2.8068832E+004
  3.2343313E+004
  3.3910928E+004
  3.1339635E+004
  2.4526411E+004
  1.4126253E+004
  8.9792828E+002
 -1.2420784E+004
 -2.4132314E+004
 -3.0249017E+004
 -3.0058292E+004
 -2.1760447E+004
  7.3983088E+003
  3.1652960E+004
  4.2757045E+004
  3.8555196E+004
  3.4286204E+004
  2.9752332E+004
  2.5964583E+004
  2.2787746E+004
  2.0096877E+004
  1.7567731E+004
  1.4674746E+004
  1.0647144E+004
  4.0269754E+003
 -6.5900218E+003
 -2.3853206E+004
 -2.7922974E+004
 -8.5514375E+003
  2.7297313E+004
 -6.2373659E+003
 -4.0685268E+004
 -1.6705289E+004
 -9.0234149E+003
 -1.6394473E+004
 -1.4740451E+004
 -9.5694751E+003
 -5.6894042E+002
  8.1848072E+003
  1.4262765E+004
  1.4638750E+004
  9.4387019E+003
 -9.0976623E+001
 -1.2122451E+004
 -2.5623884E+004
 -3.7377829E+004
 -5.0792055E+004
 -4.5056071E+004
 -3.1000872E+004
 -8.1401363E+003
  4.8621494E+004
  6.1565784E+004
  7.1120581E+004
  5.6707157E+004
  5.0062973E+004
  4.4168562E+004
  4.0582349E+004
  3.8474802E+004
  3.7744322E+004
  3.8126489E+004
  3.9434214E+004
  4.1119801E+004
  4.3039126E+004
  4.1582908E+004
  3.8584957E+004
  4.1846924E+003
  6.8575773E+004
  8.6767904E+004
 -4.6542607E+003
 -8.2570660E+004
 -9.1891927E+004
 -7.5658448E+004
 -7.7643714E+004
 -6.1646466E+004
 -5.1159219E+004
 -3.9163752E+004
 -1.8466801E+004
 -6.0227676E+003
 -2.6910237E+003
 -5.9951844E+003
 -1.3975243E+004
 -2.5195559E+004
 -3.7919787E+004
 -5.0867243E+004
 -6.2443559E+004
 -6.7828311E+004
 -7.4933246E+004
  9.0495993E+004
  6.6177595E+004
  7.1452191E+004
  6.2493076E+004
  5.7211518E+004
  5.3032977E+004
  5.0990592E+004
  5.0767825E+004
  5.2397162E+004
  5.5918478E+004
  6.1492994E+004
  6.9547422E+004
  8.0601263E+004
  9.6211443E+004
  1.2046142E+005
  1.4453464E+005
  3.2073500E+005
  1.0686110E+005
 -1.0805233E+004
 -8.7744069E+004
 -2.5947762E+005
 -1.6601546E+005
 -1.6985792E+005
 -1.1050880E+005
 -1.2303445E+005
 -7.7083141E+004
 -4.2788675E+004
 -2.6325880E+004
 -2.0494844E+004
 -2.0377778E+004
 -2.6418360E+004
 -3.6252842E+004
 -4.7480985E+004
 -5.9795478E+004
 -6.8793938E+004
 -8.5068930E+004
 -8.1475746E+004
 -6.9851387E+004
 -2.3211813E+004
 -6.6038837E+003
 -7.7700356E+003
  4.0360468E+003
  2.4374559E+004
  1.3757814E+004
  1.4770727E+004
  1.3065509E+004
  8.7180956E+003
  1.9141000E+004
  1.7084878E+004
  5.9541244E+004
  9.9441709E+004
  5.5568571E+004
  2.9469591E+004
  6.7162600E+004
  4.8942968E+004
  4.6448036E+004
  3.8066998E+004
  5.3882283E+004
  5.6110810E+004
  5.6160692E+004
  5.5726764E+004
  5.6335133E+004
  5.8409250E+004
  6.2289222E+004
  6.8225614E+004
  7.6804325E+004
  8.8099113E+004
  1.0533470E+005
  1.2282876E+005
  1.6849395E+005
  1.6547083E+005
  1.6117588E+005
 -1.9658069E+005
 -1.8460329E+005
 -2.6636458E+005
 -1.4721523E+005
 -1.7346423E+005
 -1.1950667E+005
 -6.4675024E+004
 -5.3994945E+004
 -3.6277940E+004
 -3.1068385E+004
 -3.5819085E+004
 -4.3887652E+004
 -5.3098214E+004
 -6.2573262E+004
 -7.3591666E+004
 -8.5351985E+004
 -1.0276348E+005
 -1.3946346E+005
 -2.1860451E+002
 -7.3830887E+003
 -1.0025356E+004
 -5.1022946E+003
  7.6270006E+003
  9.6149935E+003
  1.3174921E+004
  1.4437588E+004
  9.8080163E+003
  9.6657472E+003
  2.9539108E+003
  1.8132204E+003
 -2.1947452E+003
  7.0752095E+004
  1.3704533E+005
  7.5640640E+004
  6.5527385E+004
  8.0780401E+004
  5.9359936E+004
  6.0896456E+004
  3.9060939E+004
  3.3059516E+004
  3.8466112E+004
  4.5897073E+004
  5.0297540E+004
  5.3588540E+004
  5.6921569E+004
  6.1085273E+004
  6.6546282E+004
  7.3665410E+004
  8.2692897E+004
  9.3977050E+004
  1.0690929E+005
  1.2096970E+005
  1.2598100E+005
  7.5469216E+004
 -1.8927251E+004
 -1.7788650E+005
 -1.2486315E+005
 -1.8588184E+005
 -1.8161706E+005
 -1.0422034E+005
 -8.7641214E+004
 -4.0399784E+004
 -3.8167668E+004
 -4.0704113E+004
 -4.6581932E+004
 -5.2991421E+004
 -6.0169819E+004
 -6.8873868E+004
 -7.8136283E+004
 -8.7345529E+004
 -1.1128300E+005
 -1.2236808E+005
 -1.2505282E+005
 -2.5835212E+004
 -1.7817393E+004
 -4.0266348E+003
  2.1274208E+003
  9.7925634E+003
  1.5628549E+004
  2.0381557E+004
  1.9142732E+004
  1.4529010E+004
  8.6293684E+003
  2.8908438E+003
 -1.9615125E+003
 -8.7089680E+003
 -6.1841645E+003
 -9.5023294E+003
 -3.6295374E+004
 -4.3877991E+004
  1.2504345E+005
  1.5380539E+005
  8.8936890E+004
  8.5492383E+004
  9.4071802E+004
  6.4004134E+004
  5.6246757E+004
  4.4856110E+004
  3.7598452E+004
  3.2635111E+004
  2.7862419E+004
  3.0498286E+004
  3.6621046E+004
  4.2929261E+004
  4.8487639E+004
  5.3776816E+004
  5.9305239E+004
  6.5439282E+004
  7.2333152E+004
  7.9929707E+004
  8.7527302E+004
  9.3889952E+004
  9.3672969E+004
  7.9817056E+004
  3.8525436E+004
  2.2254788E+004
 -1.2536709E+005
 -1.2634290E+005
 -1.0412018E+005
 -3.3311508E+004
 -3.3019118E+004
 -3.5849306E+004
 -4.2187214E+004
 -4.5122244E+004
 -5.0893703E+004
 -5.8402344E+004
 -7.0336683E+004
 -8.8467126E+004
 -1.3464764E+005
 -1.3993005E+005
 -1.1787432E+005
 -2.4139272E+004
  1.4924808E+003
 -1.3218536E+004
 -2.2451215E+004
 -1.6494753E+004
 -6.5669579E+003
  4.6037098E+003
  1.3242257E+004
  2.0691599E+004
  2.5224052E+004
  2.7611069E+004
  2.7206733E+004
  2.2502488E+004
  1.6782910E+004
  2.0429350E+004
  1.3041681E+004
  7.4746966E+003
 -7.8585931E+003
  1.0593451E+004
  3.5900491E+003
  1.3598693E+004
  3.3759759E+003
  1.3669534E+004
  4.2826681E+003
  1.3435335E+004
  4.0044596E+003
  1.2926683E+004
  3.9004404E+003
  1.2692875E+004
  3.8305449E+003
  1.2842584E+004
  3.8977413E+003
  1.3197470E+004
  4.0338900E+003
  1.3519234E+004
  4.1511562E+003
  1.3737119E+004
  4.0990130E+003
  1.3978508E+004
  4.3270209E+003
  1.5738208E+004
  3.8867226E+003
  1.9159235E+004
  8.3971040E+003
  3.3994880E+004
  6.4286952E+003
  5.6384452E+004
  5.6845208E+004
  5.2834253E+004
  4.1243451E+004
  4.5598133E+004
  3.4377064E+004
  3.1752448E+004
  2.7691928E+004
  2.4135257E+004
  2.0896413E+004
  2.0719081E+004
  2.3471951E+004
  2.8930331E+004
  3.5415578E+004
  4.1885107E+004
  4.8084913E+004
  5.4119111E+004
  6.0067409E+004
  6.5820394E+004
  7.0897133E+004
  7.4257624E+004
  7.3715332E+004
  6.5889573E+004
  4.7580714E+004
  2.3981391E+004
  1.4057637E+004
 -4.9698407E+004
 -8.8510254E+003
 -1.5563620E+004
 -2.6952403E+004
 -2.2482144E+004
 -2.7699183E+004
 -3.4533569E+004
 -4.2848474E+004
 -5.4381829E+004
 -7.1700339E+004
 -9.4395707E+004
 -1.1621328E+005
 -2.2255411E+005
 -1.9267533E+004
 -1.7522713E+004
 -1.1190767E+004
 -2.8116354E+003
  8.4858400E+003
  1.8463404E+004
  2.6005330E+004
  3.1400410E+004
  3.4408717E+004
  3.5191135E+004
  3.5281485E+004
  3.7026092E+004
  4.0327855E+004
  4.1166556E+004
  3.1020011E+004
  2.7672606E+004
  2.7471633E+004
  2.7161044E+004
  2.6013224E+004
  2.4831780E+004
  2.4226973E+004
  2.4336178E+004
  2.5017177E+004
  2.5659136E+004
  2.6016498E+004
  2.6478881E+004
  2.7937580E+004
  3.2688271E+004
  3.9721007E+004
  3.8866461E+004
  1.0546580E+004
  3.0060125E+003
  8.6701113E+003
  1.0908091E+004
  1.0049101E+004
  1.0168041E+004
  1.0050034E+004
  1.0684005E+004
  1.2500573E+004
  1.6313084E+004
  2.1742678E+004
  2.8090260E+004
  3.4624111E+004
  4.0913770E+004
  4.6753959E+004
  5.1966594E+004
  5.6215078E+004
  5.8861223E+004
  5.8797482E+004
  5.4467810E+004
  4.4275183E+004
  2.8785242E+004
  1.1559363E+004
  9.5345176E+003
  1.3701886E+004
  1.8628771E+004
  3.9123025E+004
  7.7885327E+004
  4.0784292E+004
  1.1682958E+004
 -2.9171890E+003
 -1.2320037E+004
 -2.1878089E+004
 -3.2331003E+004
 -4.1415509E+004
 -4.8948056E+004
 -3.6661915E+004
 -9.1920407E+004
 -1.1130285E+005
 -9.4998646E+004
 -6.2690421E+004
 -5.0617575E+003
 -3.7206352E+004
 -1.5565570E+004
 -2.6996102E+004
 -6.0810732E+003
 -1.9212258E+004
 -5.7806556E+003
 -1.4109695E+004
 -3.8278159E+003
 -9.9383750E+003
 -2.7622609E+003
 -6.5702801E+003
 -1.7226303E+003
 -3.8002478E+003
 -7.8540124E+002
 -1.6887126E+003
  5.7903364E+001
 -3.2674917E+002
  6.5347640E+002
 -2.0320928E+004
 -1.6813640E+004
 -9.8564115E+003
  1.8716438E+003
  1.4727587E+004
  2.4275585E+004
  3.0965591E+004
  3.5631174E+004
  3.8942296E+004
  4.1432217E+004
  4.3740473E+004
  4.6542868E+004
  4.8850083E+004
  4.7238146E+004
  4.4858173E+004
  4.0763752E+004
  3.8362743E+004
  3.6368574E+004
  3.3985225E+004
  3.1600538E+004
  3.0119555E+004
  3.0420044E+004
  3.1348764E+004
  3.2224020E+004
  3.2380169E+004
  3.1921728E+004
  3.1221569E+004
  3.0375613E+004
  2.6704448E+004
  1.4923414E+004
  3.6037167E+003
 -8.0689597E+003
 -1.0683297E+004
 -8.5127268E+003
 -5.8485087E+003
 -3.6416497E+003
 -1.2722353E+003
  1.3705942E+003
  4.8687681E+003
  9.4094184E+003
  1.4937987E+004
  2.1045282E+004
  2.7250361E+004
  3.3135302E+004
  3.8369547E+004
  4.2628489E+004
  4.5487781E+004
  4.6339410E+004
  4.4390186E+004
  3.8862039E+004
  2.9589716E+004
  1.8069827E+004
  8.9286708E+003
  6.5383875E+003
  8.2322106E+003
  6.7225161E+003
  8.0271604E+003
  6.8106513E+004
  5.1523808E+004
  3.7761169E+004
  2.6680107E+004
  1.4311324E+004
  3.7502113E+002
 -9.8916771E+003
 -1.7075593E+004
 -2.1261106E+004
 -3.8437821E+004
 -7.3277966E+004
 -1.0800347E+005
 -9.3146185E+004
 -6.8735994E+004
 -5.0310859E+004
 -3.7643637E+004
 -2.7770052E+004
 -1.9939846E+004
 -1.3528339E+004
 -8.4136457E+003
 -4.7694596E+003
 -1.9375071E+003
 -7.0378486E+001
  2.4367250E+002
  5.5464373E+002
  4.2163157E+002
  7.3959446E+002
  5.3734383E+002
 -1.5590742E+004
 -2.9554395E+004
 -1.0173950E+004
  9.4419494E+003
  2.2160001E+004
  2.8918101E+004
  3.3326560E+004
  3.6708465E+004
  3.9817068E+004
  4.2834441E+004
  4.5944675E+004
  4.8947967E+004
  5.0993396E+004
  5.1621829E+004
  4.9965981E+004
  4.8123688E+004
  4.6027924E+004
  4.3455292E+004
  3.9594246E+004
  3.5194842E+004
  3.2794885E+004
  3.2211643E+004
  3.3815530E+004
  3.4821672E+004
  3.4578098E+004
  3.2620125E+004
  2.9443243E+004
  2.4390393E+004
  1.6748450E+004
  6.1884429E+003
 -6.8441266E+003
 -1.5446161E+004
 -1.9132740E+004
 -1.8705588E+004
 -1.6246821E+004
 -1.3065275E+004
 -9.6242331E+003
 -5.8196790E+003
 -1.5338204E+003
  3.3704289E+003
  8.8114594E+003
  1.4540785E+004
  2.0206974E+004
  2.5445974E+004
  2.9908600E+004
  3.3239744E+004
  3.5040298E+004
  3.4858207E+004
  3.2264548E+004
  2.7075394E+004
  1.9765495E+004
  1.1913020E+004
  5.9663181E+003
  3.4500814E+003
  4.5841792E+003
  8.6786166E+003
  7.6725553E+003
  1.1736263E+005
  8.5793078E+004
  6.1986779E+004
  3.8560361E+004
  2.0091645E+004
  7.9461425E+003
 -1.0789593E+003
 -1.2621246E+004
 -3.1599826E+004
 -5.9410526E+004
 -7.7623572E+004
 -8.3509447E+004
 -7.3309688E+004
 -5.9273008E+004
 -4.6281814E+004
 -3.5210689E+004
 -2.5750744E+004
 -1.7806249E+004
 -1.1394976E+004
 -6.5189441E+003
 -3.0476696E+003
 -7.5664173E+002
  3.6887054E+002
  5.7020692E+002
  3.5705257E+002
  5.0547363E+002
 -8.9557528E+003
  1.2050085E+004
  3.1376870E+003
  2.2219882E+004
  2.6675694E+004
  2.9142002E+004
  3.0225790E+004
  3.2565477E+004
  3.5666079E+004
  3.9076489E+004
  4.2473355E+004
  4.5591796E+004
  4.8058762E+004
  4.9401980E+004
  4.9955877E+004
  4.9778470E+004
  4.9250465E+004
  4.7715659E+004
  4.3376323E+004
  3.5420772E+004
  2.8922711E+004
  3.1046958E+004
  3.2676452E+004
  3.2639728E+004
  3.2247925E+004
  3.0651835E+004
  2.4522271E+004
  1.7688520E+004
  1.0057386E+004
  4.2638175E+002
 -1.0275378E+004
 -1.8377630E+004
 -2.2186677E+004
 -2.2670515E+004
 -2.0993273E+004
 -1.8095875E+004
 -1.4545694E+004
 -1.0564652E+004
 -6.1663488E+003
 -1.3751005E+003
  3.7129557E+003
  8.8927611E+003
  1.3884479E+004
  1.8375853E+004
  2.2049541E+004
  2.4588661E+004
  2.5680604E+004
  2.5048461E+004
  2.2540856E+004
  1.8294319E+004
  1.2929562E+004
  7.5700123E+003
  3.4749942E+003
  1.0688544E+003
  2.6725756E+002
  1.8841371E+003
  2.5478781E+003
  6.5872457E+003
  7.4120309E+004
  9.7851540E+004
  9.5152135E+004
  5.5340071E+004
  3.5389806E+004
  2.3113693E+004
  1.1025053E+004
 -4.0705184E+003
 -2.3566807E+004
 -4.4588554E+004
 -6.2445348E+004
 -6.9037022E+004
 -6.6795926E+004
 -5.8482127E+004
 -4.8189825E+004
 -3.7847836E+004
 -2.8197890E+004
 -1.9589362E+004
 -1.2375048E+004
 -6.8480079E+003
 -3.0932368E+003
 -9.3124572E+002
  7.8246876E+001
  3.4388621E+002
  2.5454326E+002
  2.6784704E+004
  1.8069651E+004
 -7.9241561E+003
  2.7832181E+004
  2.1818905E+004
  1.8947789E+004
  1.8437122E+004
  2.1761074E+004
  2.5998641E+004
  3.0158492E+004
  3.3964440E+004
  3.7418606E+004
  4.0398160E+004
  4.2833248E+004
  4.4704627E+004
  4.6305328E+004
  4.7660440E+004
  4.8359085E+004
  4.7041148E+004
  3.7215659E+004
  2.5981475E+004
  2.2604485E+004
  2.1496426E+004
  1.9236061E+004
  1.9474979E+004
  2.1088519E+004
  1.7232107E+004
  1.2912202E+004
  1.1243962E+004
 -1.0061932E+003
 -1.1080368E+004
 -1.6761272E+004
 -2.0320779E+004
 -2.1818600E+004
 -2.1126572E+004
 -1.9078983E+004
 -1.6204898E+004
 -1.2735424E+004
 -8.8177591E+003
 -4.5622451E+003
 -1.0130321E+002
  4.3638403E+003
  8.5842204E+003
  1.2291348E+004
  1.5217812E+004
  1.7111782E+004
  1.7757361E+004
  1.7016453E+004
  1.4901275E+004
  1.1667226E+004
  7.8667419E+003
  4.2816469E+003
  1.6189831E+003
  1.4375668E+002
 -3.8020574E+002
 -2.4765053E+002
 -1.3658404E+002
  7.5172317E+002
  1.1183102E+005
  8.7764719E+004
  5.9849989E+004
  5.4947433E+004
  4.0451483E+004
  2.4076135E+004
  6.6739687E+003
 -1.1934579E+004
 -3.0275729E+004
 -4.4604274E+004
 -5.3056794E+004
 -5.4485170E+004
 -5.0796077E+004
 -4.3975430E+004
 -3.5701844E+004
 -2.6964731E+004
 -1.8504345E+004
 -1.1076237E+004
 -5.4265310E+003
 -1.9212141E+003
 -4.6973573E+002
 -7.2100379E+001
 -6.5108639E+001
 -5.2147235E+001
 -5.3899670E+004
 -4.3840579E+003
  1.0807595E+004
 -3.1114897E+003
 -8.5019391E+003
 -3.5481260E+003
  4.5242227E+003
  1.1458838E+004
  1.6747483E+004
  2.1126214E+004
  2.5084579E+004
  2.8700247E+004
  3.1942347E+004
  3.4912794E+004
  3.7664906E+004
  4.0562086E+004
  4.2603206E+004
  4.6398281E+004
  3.8582072E+004
  3.3202419E+004
  9.2770373E+003
  9.2754217E+003
  6.6334241E+003
  5.4717868E+003
  1.2019654E+004
  1.8149178E+004
  1.3542988E+004
  1.4474047E+004
  4.5783808E+003
 -5.0282633E+003
 -9.0690819E+003
 -1.4599955E+004
 -1.6694844E+004
 -1.7274510E+004
 -1.6690710E+004
 -1.4946362E+004
 -1.2471231E+004
 -9.5008675E+003
 -6.1135361E+003
 -2.5011245E+003
  1.1137650E+003
  4.4932748E+003
  7.4035967E+003
  9.6303747E+003
  1.0988387E+004
  1.1340520E+004
  1.0635750E+004
  8.9592027E+003
  6.5740568E+003
  3.9299022E+003
  1.5752646E+003
  4.2071567E+001
 -3.7798678E+002
 -6.1079965E+002
 -2.3586177E+003
 -2.4042410E+003
  1.4444038E+005
  1.8840785E+005
  1.2656173E+005
  8.4937005E+004
  5.9456122E+004
  3.8842497E+004
  1.9638593E+004
  1.1400012E+003
 -1.4940215E+004
 -2.7747367E+004
 -3.6031178E+004
 -3.9729265E+004
 -3.9296936E+004
 -3.5767205E+004
 -3.0036529E+004
 -2.2841373E+004
 -1.4939454E+004
 -7.5397493E+003
 -2.1076891E+003
  3.1925117E+002
  6.7491804E+002
 -2.8126845E+002
 -5.6129958E+002
 -3.1746870E+002
 -5.3794647E+004
 -6.3724167E+004
 -3.4841027E+004
 -6.2534134E+004
 -5.1343194E+004
 -3.2217781E+004
 -1.5975782E+004
 -6.3753837E+003
 -2.8134723E+002
  4.8228937E+003
  9.4971045E+003
  1.3787915E+004
  1.7683469E+004
  2.1240571E+004
  2.4502709E+004
  2.7646148E+004
  2.9736610E+004
  3.2219700E+004
  2.2395058E+004
  1.7408230E+004
  1.5752136E+004
  9.4731720E+003
  1.3805247E+004
  2.2951781E+004
  1.0519486E+004
  4.9346636E+003
 -4.8393426E+003
 -7.6266514E+003
 -1.0868085E+004
 -1.1444000E+004
 -1.1114062E+004
 -1.0166651E+004
 -8.3863578E+003
 -6.0950881E+003
 -3.4854088E+003
 -8.0491543E+002
  1.6859162E+003
  3.7882879E+003
  5.3478797E+003
  6.2337427E+003
  6.3594816E+003
  5.7151322E+003
  4.3982330E+003
  2.6381193E+003
  7.5521530E+002
 -8.0773105E+002
 -1.9025498E+003
 -1.8141446E+003
 -2.7205193E+003
 -7.0537102E+003
 -6.7523856E+003
  1.1613753E+005
  1.0880734E+005
  1.0136892E+005
  7.5787230E+004
  5.5417156E+004
  3.2554070E+004
  1.5084446E+004
  1.0685092E+003
 -9.8659963E+003
 -1.8031489E+004
 -2.3192445E+004
 -2.5409127E+004
 -2.4908180E+004
 -2.1972106E+004
 -1.6696933E+004
 -9.6789714E+003
 -2.4210280E+003
  2.6560435E+003
  4.2799673E+003
  1.3977555E+003
 -6.3206554E+002
 -7.0712584E+002
 -3.0730832E+002
 -1.0220432E+004
 -2.0267023E+005
 -1.4426858E+005
 -1.4519518E+005
 -9.7743958E+004
 -5.7948626E+004
 -3.5124214E+004
 -2.6859897E+004
 -1.9958470E+004
 -1.3748462E+004
 -8.0937475E+003
 -3.1223565E+003
  1.2060569E+003
  4.9499012E+003
  8.1692937E+003
  1.0682577E+004
  1.2126999E+004
  1.0126719E+004
  2.8803424E+003
 -6.3938283E+003
  2.2349243E+004
  1.5913431E+004
  2.1052980E+004
  7.8589009E+003
  4.4950020E+003
 -2.2886225E+003
 -3.7980715E+003
 -5.8833882E+003
 -6.0590321E+003
 -5.7748824E+003
 -4.7344285E+003
 -3.1242342E+003
 -1.4167758E+003
  1.2993745E+002
  1.4108998E+003
  2.3208857E+003
  2.7684741E+003
  2.6866105E+003
  2.0703329E+003
  1.0022981E+003
 -3.5185580E+002
 -1.7404210E+003
 -2.9690610E+003
 -3.6734507E+003
 -4.5004736E+003
 -4.2915464E+003
 -3.4146569E+003
  1.1167302E+004
  1.5708267E+005
  1.2464766E+005
  9.7779638E+004
  6.6894323E+004
  4.4005442E+004
  2.9100009E+004
  1.8452762E+004
  9.2708000E+003
  1.2292325E+003
 -5.2850990E+003
 -9.8719422E+003
 -1.2237711E+004
 -1.2165016E+004
 -9.4905105E+003
 -2.9097479E+003
  5.4439966E+003
  9.2399586E+003
  4.7681290E+003
  4.9681427E+002
 -7.8178011E+002
 -3.5924335E+002
 -1.8248760E+002
 -2.6073429E+005
 -1.5456087E+005
 -1.5286016E+005
 -1.2428683E+005
 -6.2127347E+004
 -5.9544235E+004
 -4.9450239E+004
 -4.0811407E+004
 -3.2651793E+004
 -2.6002107E+004
 -2.0484508E+004
 -1.5994307E+004
 -1.2348399E+004
 -9.4460405E+003
 -7.3315492E+003
 -6.2638750E+003
 -7.0132977E+003
 -6.3252286E+003
 -1.9882184E+003
  1.5469681E+004
  1.2145095E+004
  1.6182772E+004
  6.9267765E+003
  5.3528652E+003
  9.7313005E+002
 -5.8033534E+002
 -2.2168198E+003
 -2.1901013E+003
 -1.5006653E+003
 -8.5121422E+002
 -2.9294304E+002
  1.4190794E+002
  4.2861935E+002
  4.6572786E+002
  1.7821995E+002
 -4.5358783E+002
 -1.3782454E+003
 -2.4733177E+003
 -3.5757154E+003
 -4.5188306E+003
 -5.1448445E+003
 -5.4529612E+003
 -3.8213686E+003
 -1.1293802E+003
  8.6899688E+004
  1.1675930E+005
  1.1364860E+005
  7.0749622E+004
  5.3063545E+004
  4.5320628E+004
  3.8423752E+004
  3.0230896E+004
  2.1728761E+004
  1.3727011E+004
  6.8482269E+003
  1.7258930E+003
 -7.9438187E+002
 -3.3565823E+002
  2.0257349E+003
  1.1200539E+004
  1.7757685E+004
  4.8809833E+003
 -3.5689681E+003
 -4.5983922E+004
 -1.0063894E+005
 -2.0309482E+005
 -1.0131820E+005
 -8.8682978E+004
 -7.1330294E+004
 -5.8718205E+004
 -4.9361416E+004
 -4.2168170E+004
 -3.6637046E+004
 -3.2356017E+004
 -2.9053169E+004
 -2.6453482E+004
 -2.4337717E+004
 -2.2124439E+004
 -1.9429848E+004
 -1.1627545E+004
 -4.7354669E+003
  1.1254448E+004
  9.5130838E+003
  1.3837429E+004
  7.5350322E+003
  6.4341123E+003
  1.3055726E+003
  1.6364415E+003
  1.2810924E+003
  7.1470947E+002
  1.3883490E+002
 -1.9017442E+002
 -4.8292255E+002
 -8.2107498E+002
 -1.3036087E+003
 -1.9918007E+003
 -2.8526390E+003
 -3.7930094E+003
 -4.6812602E+003
 -5.3990417E+003
 -5.7241654E+003
 -5.4635998E+003
 -3.2790137E+003
 -1.2801038E+003
  3.8332070E+003
  1.2244603E+005
  9.8163850E+004
  6.5456983E+004
  7.0046624E+004
  6.8009285E+004
  6.1614281E+004
  5.2532674E+004
  4.2772265E+004
  3.3161719E+004
  2.4331432E+004
  1.6525884E+004
  1.1446231E+004
  1.1494155E+004
  1.9827774E+004
  3.4306566E+004
  2.8924214E+004
 -8.5978293E+004
 -1.0232640E+005
 -1.0425526E+005
 -7.8915626E+004
 -6.9906936E+004
 -6.0914439E+004
 -5.4869867E+004
 -5.0090052E+004
 -4.6555588E+004
 -4.3848118E+004
 -4.1584696E+004
 -3.9213649E+004
 -3.5504137E+004
 -2.9448784E+004
 -1.6418363E+004
 -5.0375990E+003
  8.2901814E+003
  9.3596305E+003
  1.4472908E+004
  7.3222754E+003
  7.0854447E+003
  4.4482142E+003
  2.4770515E+003
  1.3200620E+003
  2.2659030E+002
 -5.9705724E+002
 -1.2149932E+003
 -1.8811445E+003
 -2.6703930E+003
 -3.5388663E+003
 -4.3898138E+003
 -5.1131873E+003
 -5.5941317E+003
 -5.6452763E+003
 -5.1275363E+003
 -3.0574838E+003
 -9.8918368E+002
  1.6400252E+005
  1.9125169E+005
  1.1772004E+005
  1.0264050E+005
  9.6673219E+004
  8.5155382E+004
  7.4097972E+004
  6.2562176E+004
  5.1747210E+004
  4.1694060E+004
  3.2536214E+004
  2.3364206E+004
  2.0384473E+004
  2.5308880E+004
  2.4081229E+004
  1.2525618E+003
 -4.8267588E+004
 -7.5292896E+004
 -7.4501996E+004
 -7.0877494E+004
 -6.6766103E+004
 -6.2965362E+004
 -5.9981787E+004
 -5.7691163E+004
 -5.5887843E+004
 -5.4099613E+004
 -5.1665817E+004
 -4.7019955E+004
 -3.8954490E+004
 -2.1020517E+004
 -7.0972943E+003
  1.4177389E+004
  1.0878335E+004
  8.7739422E+003
  7.4600110E+003
  4.9079016E+003
  3.1325530E+003
  1.1351546E+003
  7.7847272E+000
 -7.8678722E+002
 -1.6777880E+003
 -2.6411238E+003
 -3.5711689E+003
 -4.3948094E+003
 -4.9959272E+003
 -5.2775706E+003
 -5.0856290E+003
 -4.5740238E+003
 -2.8807420E+003
 -1.2428071E+003
  1.0579955E+005
  1.1860739E+005
  1.3642364E+005
  1.1449352E+005
  1.0460035E+005
  9.0739913E+004
  7.8712092E+004
  6.7493103E+004
  5.7415815E+004
  4.8845292E+004
  3.9104438E+004
  3.2567902E+004
  4.2797422E+004
  3.0298069E+004
 -3.0588301E+004
 -4.1506024E+004
 -5.0663559E+004
 -6.1823027E+004
 -6.6762258E+004
 -6.7095652E+004
 -6.6735963E+004
 -6.6022902E+004
 -6.5412146E+004
 -6.4759361E+004
 -6.3677109E+004
 -6.1474846E+004
 -5.6759642E+004
 -4.8603531E+004
 -2.8031732E+004
 -7.2200361E+003
  4.9465733E+003
  6.3125060E+003
  1.1023850E+004
  6.8748601E+003
  6.1719484E+003
  2.0660189E+003
  1.5588016E+003
  4.0105686E+002
 -8.8225524E+002
 -2.0746191E+003
 -3.1291176E+003
 -3.9577330E+003
 -4.5052313E+003
 -4.6627548E+003
 -4.3055750E+003
 -3.5331274E+003
 -2.2533471E+003
 -1.0091800E+003
 -1.8472504E+003
  7.7632793E+004
  1.2380913E+005
  1.2181376E+005
  1.1164719E+005
  1.0008984E+005
  8.8647169E+004
  7.8232531E+004
  6.9440805E+004
  6.1033220E+004
  5.7238244E+004
  4.2414489E+004
  2.7566591E+004
 -1.9885469E+004
 -3.4317934E+004
 -5.2869212E+004
 -5.8928640E+004
 -6.4187388E+004
 -6.6747072E+004
 -6.8579811E+004
 -6.9780239E+004
 -7.0462760E+004
 -7.0208456E+004
 -6.8643960E+004
 -6.3787555E+004
 -5.7466987E+004
 -3.7378960E+004
 -2.0207833E+004
  5.9616829E+003
  6.8400478E+003
  1.0550598E+004
  4.9783115E+003
  4.1852297E+003
  1.7870753E+003
  1.1960515E+002
 -1.2286099E+003
 -2.2873731E+003
 -3.2495965E+003
 -3.7755943E+003
 -3.9240947E+003
 -3.6134027E+003
 -2.9333079E+003
 -2.7923722E+003
 -1.7145874E+003
  4.3503716E+004
  6.9844563E+004
  1.0886245E+005
  1.1161846E+005
  1.0867862E+005
  1.0028341E+005
  9.1433212E+004
  8.2697966E+004
  7.4899369E+004
  6.7626204E+004
  6.1675771E+004
  4.3689766E+004
  1.7827295E+004
 -4.2559150E+003
 -2.2203888E+004
 -4.0861433E+004
 -5.1079304E+004
 -5.8716112E+004
 -6.4149198E+004
 -6.8189093E+004
 -7.1208312E+004
 -7.3235504E+004
 -7.4027744E+004
 -7.2938509E+004
 -6.9252090E+004
 -6.0942219E+004
 -4.5995709E+004
 -3.5401634E+004
  9.5330355E+003
  6.6780064E+003
  4.6817512E+003
  3.1072192E+003
  1.0372651E+003
  1.7739751E+002
 -1.4492574E+003
 -2.3964502E+003
 -2.8732708E+003
 -2.9756901E+003
 -3.0205023E+003
 -2.2534821E+003
 -1.4491400E+003
  7.4519433E+004
  7.2650172E+004
  8.7598719E+004
  9.5886806E+004
  9.6805220E+004
  9.3280637E+004
  8.7471533E+004
  8.0839655E+004
  7.3870873E+004
  6.6706549E+004
  5.6793544E+004
  4.4140817E+004
  2.6073496E+004
  1.6850973E+004
 -3.3420553E+003
 -3.7801612E+003
 -1.3759158E+004
 -3.0412938E+004
 -4.2593527E+004
 -5.2217289E+004
 -5.9642600E+004
 -6.5572159E+004
 -7.0208505E+004
 -7.3573435E+004
 -7.5430380E+004
 -7.5328023E+004
 -7.2555405E+004
 -6.5843524E+004
 -5.5924219E+004
 -3.4991393E+004
 -1.0007191E+004
 -1.9909992E+004
  3.0660918E+003
  3.0239467E+003
  4.5338081E+003
  1.7100343E+003
  1.2767889E+003
 -2.6052340E+002
 -1.3625929E+003
 -1.6413064E+003
 -1.9767240E+003
 -1.9770140E+003
 -1.2031711E+003
 -2.0020045E+002
  8.8661783E+004
  9.8637085E+004
  5.2780796E+004
  5.6005413E+004
  6.6853731E+004
  7.6824260E+004
  8.1249051E+004
  8.1463930E+004
  7.8694578E+004
  7.4033638E+004
  6.8022293E+004
  6.0400886E+004
  5.0807608E+004
  3.8900088E+004
  3.0030650E+004
  3.4106642E+004
 -7.3624274E+002
 -8.4357588E+003
 -2.2584786E+004
 -3.4737704E+004
 -4.5187911E+004
 -5.3945945E+004
 -6.1324130E+004
 -6.7345754E+004
 -7.1948506E+004
 -7.4977632E+004
 -7.5975269E+004
 -7.5062045E+004
 -7.0499766E+004
 -6.9782041E+004
 -5.4409357E+004
 -3.6332261E+004
  3.0357799E+003
  1.2956954E+003
  1.3826306E+003
  1.4714986E+003
  3.9275271E+000
 -4.3736423E+002
 -9.0042631E+002
 -8.3962926E+002
 -5.5707946E+002
 -2.7550136E+002
  4.9900010E+004
  7.9671097E+004
  5.9498721E+004
  5.6215265E+004
  6.2806880E+004
  3.6630096E+004
  4.2516812E+004
  4.9636667E+004
  5.9073315E+004
  6.5211218E+004
  6.7833865E+004
  6.7351207E+004
  6.4430728E+004
  5.9449778E+004
  5.2529511E+004
  4.3719350E+004
  3.3887495E+004
  2.4582281E+004
  2.4678843E+004
  2.8796115E+004
  3.3712591E+004
  7.3556203E+002
 -5.3328185E+003
 -1.5707559E+004
 -2.7589701E+004
 -3.7825315E+004
 -4.7508570E+004
 -5.5941994E+004
 -6.3092544E+004
 -6.8825394E+004
 -7.2970491E+004
 -7.5369735E+004
 -7.5624774E+004
 -7.4344026E+004
 -6.9033935E+004
 -6.2335465E+004
 -7.0903234E+004
  1.7921188E+003
  3.8218664E+002
  1.6261178E+002
 -3.1484485E+002
 -1.7818613E+002
 -2.1692803E+002
  2.1261887E+004
  2.7624439E+004
  1.4405760E+004
  7.8532025E+003
  1.5026175E+004
  8.1850558E+003
  1.1584801E+004
  3.5444983E+003
  1.0261047E+004
  3.2380499E+003
  9.8716252E+003
  2.7429616E+003
  1.0453480E+004
  3.0045451E+003
  1.2475693E+004
  3.1143638E+003
  1.5903852E+004
  5.8853424E+003
  2.5383453E+004
  5.3592880E+003
  4.0074701E+004
  3.1761159E+004
  4.4593121E+004
  4.3679138E+004
  3.9639878E+004
  3.0793385E+004
  3.0564206E+004
  3.7104451E+004
  4.4618502E+004
  5.0870619E+004
  5.4541352E+004
  5.5486644E+004
  5.3940298E+004
  5.0195610E+004
  4.4544171E+004
  3.7474222E+004
  3.0086724E+004
  2.5289620E+004
  2.4332807E+004
  2.3905686E+004
  2.0698938E+004
  2.3510699E+004
 -3.2316854E+003
 -9.0373893E+003
 -2.0025710E+004
 -3.0341901E+004
 -4.0615576E+004
 -4.9785605E+004
 -5.7813266E+004
 -6.4514520E+004
 -6.9757926E+004
 -7.3435148E+004
 -7.5274370E+004
 -7.5370748E+004
 -7.0913602E+004
 -6.9949997E+004
 -5.9923278E+004
 -4.5107922E+004
 -3.8259055E+004
  2.0844086E+004
  3.5724301E+004
  2.0636697E+004
  9.4677257E+003
  2.5490758E+004
  1.8651238E+004
  2.0625595E+004
  1.7184752E+004
  2.0385923E+004
  1.9720029E+004
  1.9083468E+004
  1.9200123E+004
  2.0640046E+004
  2.3660096E+004
  2.9206848E+004
  3.6795058E+004
  4.1539757E+004
  3.2015541E+004
  2.6895118E+004
  2.6348384E+004
  2.3619347E+004
  2.3758134E+004
  2.7803638E+004
  3.3646238E+004
  3.9044206E+004
  4.2816683E+004
  4.4455512E+004
  4.3917449E+004
  4.1392423E+004
  3.7243481E+004
  3.2132170E+004
  2.7183430E+004
  2.3800416E+004
  2.2109423E+004
  2.3433442E+004
  1.9343429E+004
  1.1689838E+004
  9.0683874E+003
  1.9060388E+003
 -2.2581874E+003
 -1.1924035E+004
 -2.3127881E+004
 -3.3406297E+004
 -4.3063396E+004
 -5.1733571E+004
 -5.9227521E+004
 -6.5458078E+004
 -7.0378566E+004
 -7.4046328E+004
 -7.6222688E+004
 -7.8149487E+004
 -7.9733903E+004
 -7.9172570E+004
 -7.8819397E+004
  2.8419694E+004
  4.2524464E+004
  2.7916115E+004
  2.2655875E+004
  3.0835149E+004
  2.5506022E+004
  2.7877936E+004
  2.1536410E+004
  1.9711409E+004
  2.0893390E+004
  2.2475884E+004
  2.3295121E+004
  2.4322120E+004
  2.6074480E+004
  2.8847970E+004
  3.2293735E+004
  3.4774991E+004
  3.2916321E+004
  2.9431393E+004
  2.3583998E+004
  1.9456736E+004
  1.7963553E+004
  1.8450193E+004
  2.1219092E+004
  2.5423221E+004
  2.9733070E+004
  3.3094974E+004
  3.4935740E+004
  3.5063432E+004
  3.3572174E+004
  3.0797968E+004
  2.7327993E+004
  2.3967043E+004
  2.1438056E+004
  2.0220696E+004
  1.9253441E+004
  1.8553334E+004
  2.1100100E+004
  3.7691296E+003
  1.7775422E+003
 -6.3868112E+003
 -1.5709699E+004
 -2.5850846E+004
 -3.5849064E+004
 -4.4957398E+004
 -5.3048904E+004
 -6.0072114E+004
 -6.6104784E+004
 -7.1372656E+004
 -7.6438392E+004
 -8.2022574E+004
 -8.7153092E+004
 -8.9972962E+004
 -6.6213599E+004
 -1.6825003E+004
 -4.9041362E+004
  3.0820293E+004
  3.9168566E+004
  2.5610413E+004
  1.1360351E+004
  3.3409336E+004
  2.5993133E+004
  2.9609997E+004
  2.5966344E+004
  2.6150832E+004
  2.4475085E+004
  2.3692298E+004
  2.3307178E+004
  2.2155712E+004
  2.2762259E+004
  2.4142841E+004
  2.5580149E+004
  2.7006667E+004
  2.8658145E+004
  3.0484019E+004
  3.1938331E+004
  3.1857727E+004
  2.9716263E+004
  2.4876925E+004
  2.0111105E+004
  1.6443231E+004
  1.4478108E+004
  1.4557390E+004
  1.6363795E+004
  1.9311347E+004
  2.2564701E+004
  2.5339643E+004
  2.7104315E+004
  2.7616914E+004
  2.6893314E+004
  2.5173310E+004
  2.2875631E+004
  2.0516940E+004
  1.8495137E+004
  1.7009122E+004
  1.5258899E+004
  1.4423722E+004
  1.2878739E+004
  1.0213181E+004
  1.1153272E+004
  9.8065839E+003
  1.3510199E+004
  4.5543056E+003
 -6.9933196E+003
 -1.7891188E+004
 -2.8100781E+004
 -3.7472409E+004
 -4.6014489E+004
 -5.3564739E+004
 -6.0281335E+004
 -6.6662989E+004
 -7.3060604E+004
 -8.1562794E+004
 -8.9100587E+004
 -1.1352850E+005
 -1.0747002E+005
 -8.7719122E+004
  3.3696739E+004
  3.9904723E+004
  2.4786292E+004
  1.1856305E+004
  3.2319892E+004
  2.5816631E+004
  2.8891082E+004
  2.7724702E+004
  3.3726938E+004
  2.6526592E+004
  2.2820126E+004
  2.3099716E+004
  2.3132187E+004
  2.3041030E+004
  2.2700658E+004
  2.2909457E+004
  2.3600273E+004
  2.4830345E+004
  2.6229160E+004
  2.7593697E+004
  2.8824181E+004
  2.9720407E+004
  2.9831745E+004
  2.8660405E+004
  2.5819124E+004
  2.1962429E+004
  1.7704076E+004
  1.4232736E+004
  1.2206657E+004
  1.1770007E+004
  1.2766961E+004
  1.4742737E+004
  1.7111302E+004
  1.9296714E+004
  2.0858491E+004
  2.1552496E+004
  2.1335815E+004
  2.0341122E+004
  1.8830076E+004
  1.7108198E+004
  1.5439107E+004
  1.3860047E+004
  1.2626831E+004
  1.1993281E+004
  1.2810264E+004
  1.5083637E+004
  1.1388730E+004
  9.6704293E+003
  5.4015718E+002
 -9.5375250E+003
 -1.9446302E+004
 -2.9380592E+004
 -3.8179287E+004
 -4.5960717E+004
 -5.2889858E+004
 -5.9315630E+004
 -6.6050617E+004
 -7.3278427E+004
 -8.4291854E+004
 -9.2471199E+004
 -1.1241439E+005
 -1.7170262E+005
  2.2800013E+004
  2.8653675E+004
  1.4787958E+004
  8.3168957E+003
  1.6795069E+004
  8.7841064E+003
  1.4802399E+004
  5.3257290E+003
  1.7942211E+004
  4.6587216E+003
  2.3299665E+004
  1.7686204E+004
  2.3883685E+004
  2.4148791E+004
  3.1974403E+004
  2.6397777E+004
  2.5262889E+004
  2.5412028E+004
  2.5221983E+004
  2.2812465E+004
  2.1630439E+004
  2.1662209E+004
  2.1865505E+004
  2.2237065E+004
  2.2738757E+004
  2.3577399E+004
  2.4657609E+004
  2.5822331E+004
  2.6870902E+004
  2.7613345E+004
  2.7815797E+004
  2.7196839E+004
  2.5497141E+004
  2.2734185E+004
  1.9168402E+004
  1.5531750E+004
  1.2458755E+004
  1.0437979E+004
  9.6717508E+003
  1.0061898E+004
  1.1304397E+004
  1.2978214E+004
  1.4653631E+004
  1.5977354E+004
  1.6724025E+004
  1.6811408E+004
  1.6286119E+004
  1.5287024E+004
  1.3993479E+004
  1.2571182E+004
  1.1172692E+004
  1.0027318E+004
  8.9807356E+003
  8.1250456E+003
  6.6948057E+003
  4.1177679E+003
  9.0128619E+003
  1.6786158E+004
  2.6991106E+004
  1.4836609E+004
  1.3746363E+003
 -1.0377692E+004
 -2.0710741E+004
 -2.9685639E+004
 -3.7526758E+004
 -4.4176461E+004
 -5.0044500E+004
 -5.5558489E+004
 -6.1395915E+004
 -6.7164768E+004
 -7.3284865E+004
 -8.1402865E+004
 -1.2560661E+005
 -1.7145105E+005
 -1.8856284E+005
  2.2240627E+004
  2.9250226E+004
  1.6129322E+004
  8.9397586E+003
  1.9874884E+004
  9.3313624E+003
  2.0187643E+004
  1.3772916E+004
  1.8430722E+004
  1.6631069E+004
  2.2258731E+004
  2.4243432E+004
  2.6459918E+004
  2.6952360E+004
  2.1066417E+004
  2.1428030E+004
  2.3441626E+004
  2.5039433E+004
  2.3851901E+004
  2.3452513E+004
  2.2443770E+004
  2.1502613E+004
  2.0826119E+004
  2.0676804E+004
  2.0950906E+004
  2.1405122E+004
  2.2049587E+004
  2.2848205E+004
  2.3753105E+004
  2.4632168E+004
  2.5320752E+004
  2.5632346E+004
  2.5370384E+004
  2.4352105E+004
  2.2485013E+004
  1.9833822E+004
  1.6710798E+004
  1.3540968E+004
  1.0816634E+004
  8.9010935E+003
  7.9589979E+003
  7.9528111E+003
  8.6791814E+003
  9.8392481E+003
  1.1111261E+004
  1.2213578E+004
  1.2945488E+004
  1.3203133E+004
  1.2972837E+004
  1.2308475E+004
  1.1301334E+004
  1.0068164E+004
  8.7503884E+003
  7.5530597E+003
  6.6556168E+003
  7.2711919E+003
  6.3693412E+003
  3.6450127E+003
  1.9476242E+004
  1.9439567E+004
  1.0049706E+004
 -1.2474542E+003
 -1.1256472E+004
 -2.0949397E+004
 -2.8662832E+004
 -3.4802042E+004
 -3.9723497E+004
 -4.3903904E+004
 -4.7747336E+004
 -5.1710302E+004
 -5.8089263E+004
 -7.5156117E+004
 -1.0804970E+005
 -1.2300855E+005
 -1.7512314E+005
 -1.9782899E+005
  3.1920337E+004
  3.4764113E+004
  1.9046196E+004
  1.0159723E+004
  2.4200912E+004
  2.0418774E+004
  2.0045718E+004
  1.8212761E+004
  2.3583955E+004
  2.3311117E+004
  1.7978781E+004
  1.8064259E+004
  2.1381438E+004
  2.4665216E+004
  2.5903302E+004
  2.4583617E+004
  2.3362279E+004
  2.1681327E+004
  2.2031494E+004
  2.2062882E+004
  2.1976670E+004
  2.1412122E+004
  2.0896383E+004
  2.0277499E+004
  1.9864741E+004
  1.9782554E+004
  1.9996802E+004
  2.0433246E+004
  2.1003741E+004
  2.1664722E+004
  2.2342226E+004
  2.2932109E+004
  2.3296515E+004
  2.3278949E+004
  2.2725806E+004
  2.1520773E+004
  1.9636831E+004
  1.7181945E+004
  1.4396522E+004
  1.1628585E+004
  9.2247679E+003
  7.4571681E+003
  6.4632865E+003
  6.2317383E+003
  6.6271304E+003
  7.4347301E+003
  8.4121994E+003
  9.3349619E+003
  1.0027654E+004
  1.0378254E+004
  1.0335686E+004
  9.8959686E+003
  9.0841218E+003
  7.9541889E+003
  6.5876196E+003
  5.2124617E+003
  4.0383291E+003
  3.6777371E+003
  3.0538180E+003
  1.9744872E+003
  2.4397925E+004
  4.1719709E+004
  2.6598346E+004
  1.0917719E+004
 -2.0581347E+003
 -1.2313914E+004
 -1.9846529E+004
 -2.5413184E+004
 -2.9376971E+004
 -3.2435336E+004
 -3.5218558E+004
 -3.8667235E+004
 -4.5206370E+004
 -5.5474985E+004
 -6.9176006E+004
 -6.9074653E+004
 -9.7415687E+004
 -8.5826038E+004
 -7.4718232E+004
 -4.8074816E+004
 -4.8703248E+003
 -2.4937254E+004
 -1.0243237E+004
 -1.5792473E+004
 -2.8558759E+003
 -8.6431850E+003
 -2.4501525E+003
 -3.6176640E+003
  9.6302142E+001
  3.1920379E+003
  5.2856437E+002
  1.0488695E+004
  1.2864777E+004
  1.2238971E+004
  1.2867440E+004
  2.0251976E+004
  1.6325420E+004
  1.6595844E+004
  1.8923039E+004
  1.9805319E+004
  1.9853075E+004
  1.9745568E+004
  2.1591920E+004
  2.3671787E+004
  2.4573843E+004
  2.4155787E+004
  2.2527586E+004
  2.1488148E+004
  2.0843745E+004
  2.0679993E+004
  2.0371042E+004
  2.0004209E+004
  1.9537452E+004
  1.9145087E+004
  1.8889752E+004
  1.8839068E+004
  1.8996246E+004
  1.9310714E+004
  1.9726112E+004
  2.0179838E+004
  2.0607269E+004
  2.0924612E+004
  2.1024013E+004
  2.0779487E+004
  2.0061873E+004
  1.8790871E+004
  1.6963419E+004
  1.4694634E+004
  1.2201237E+004
  9.7578189E+003
  7.6362389E+003
  6.0438562E+003
  5.0869947E+003
  4.7629494E+003
  4.9753561E+003
  5.5651491E+003
  6.3464664E+003
  7.1392061E+003
  7.7923693E+003
  8.1954294E+003
  8.2780863E+003
  7.9995621E+003
  7.3353820E+003
  6.2576405E+003
  4.7886374E+003
  2.9596986E+003
  1.2781302E+003
 -7.5278453E+002
 -3.0221017E+002
  3.6584338E+003
  2.8133468E+004
  2.9639212E+004
  1.9608003E+004
  6.0460850E+003
 -3.7339595E+003
 -1.1673235E+004
 -1.6400166E+004
 -1.9528708E+004
 -2.1908485E+004
 -2.4245225E+004
 -2.7416139E+004
 -3.2217922E+004
 -3.8971077E+004
 -4.5224146E+004
 -5.3919385E+004
 -6.7596483E+004
 -8.7076794E+004
 -6.9674562E+004
 -4.7588029E+004
 -3.0833059E+004
 -1.9248261E+004
 -9.6734933E+003
 -1.6584968E+003
  3.2497432E+003
  1.2648823E+003
  4.8389826E+003
  9.3118069E+003
  1.3019877E+004
  1.4380909E+004
  1.6276903E+004
  1.7894288E+004
  1.8605566E+004
  1.9614621E+004
  2.0928549E+004
  2.2256006E+004
  2.2923391E+004
  2.2625954E+004
  2.1829720E+004
  2.0814612E+004
  2.0089652E+004
  1.9549115E+004
  1.9151621E+004
  1.8760237E+004
  1.8401103E+004
  1.8093563E+004
  1.7897848E+004
  1.7839847E+004
  1.7912681E+004
  1.8082482E+004
  1.8299953E+004
  1.8516591E+004
  1.8685125E+004
  1.8753000E+004
  1.8648772E+004
  1.8263118E+004
  1.7486963E+004
  1.6215448E+004
  1.4466953E+004
  1.2350417E+004
  1.0080253E+004
  7.8989022E+003
  6.0295872E+003
  4.6305607E+003
  3.7772523E+003
  3.4613231E+003
  3.6049088E+003
  4.0830815E+003
  4.7490382E+003
  5.4569103E+003
  6.0782545E+003
  6.5105170E+003
  6.6772707E+003
  6.5213922E+003
  5.9883750E+003
  5.0004100E+003
  3.4277468E+003
  1.2201212E+003
 -1.4194505E+003
 -3.4932027E+003
 -3.4181337E+003
 -8.7513725E+002
 -6.4040744E+001
  4.2834161E+003
  3.1815964E+004
  5.7062102E+004
  3.6634298E+004
  1.6715689E+004
  2.9584112E+003
 -4.1235505E+003
 -7.6887694E+003
 -1.0255835E+004
 -1.2424107E+004
 -1.4752674E+004
 -1.7761371E+004
 -2.1916663E+004
 -2.7249006E+004
 -3.4385341E+004
 -4.4744469E+004
 -5.9230957E+004
 -6.4470582E+004
 -6.3444419E+004
 -5.1765503E+004
 -3.8279434E+004
 -2.6337717E+004
 -1.6625207E+004
 -9.3277717E+003
 -5.2270606E+003
 -1.7174296E+003
  7.5173851E+002
  4.7542251E+003
  8.1872035E+003
  1.1198112E+004
  1.3581494E+004
  1.5537518E+004
  1.7158954E+004
  1.8473973E+004
  1.9731182E+004
  2.0743747E+004
  2.1256696E+004
  2.1177948E+004
  2.0600196E+004
  1.9866629E+004
  1.9148983E+004
  1.8567212E+004
  1.8084342E+004
  1.7682883E+004
  1.7340383E+004
  1.7071621E+004
  1.6887536E+004
  1.6792055E+004
  1.6769183E+004
  1.6785082E+004
  1.6797666E+004
  1.6768652E+004
  1.6675724E+004
  1.6511808E+004
  1.6250132E+004
  1.5823038E+004
  1.5040601E+004
  1.3831801E+004
  1.2133470E+004
  1.0117853E+004
  7.9991478E+003
  6.0281015E+003
  4.3922244E+003
  3.2068039E+003
  2.5107659E+003
  2.2795532E+003
  2.4394879E+003
  2.8846898E+003
  3.4948984E+003
  4.1507308E+003
  4.7442957E+003
  5.1840572E+003
  5.3954033E+003
  5.3173717E+003
  4.8960663E+003
  4.0549200E+003
  2.5965743E+003
  1.2258948E+002
 -3.3576210E+003
 -6.0859163E+003
 -6.5383498E+003
 -5.9771195E+003
 -2.0230403E+003
  3.6453634E+004
  3.7699166E+004
  2.0166610E+004
  7.3801264E+003
  4.1960407E+003
  1.0958464E+003
 -1.4466223E+003
 -3.9320251E+003
 -6.6352742E+003
 -9.9418740E+003
 -1.4228636E+004
 -1.9944263E+004
 -2.7621254E+004
 -3.7507708E+004
 -4.7298756E+004
 -5.5108695E+004
 -5.4937972E+004
 -4.9315010E+004
 -4.0135565E+004
 -3.0436790E+004
 -2.1783940E+004
 -1.4942384E+004
 -9.7773384E+003
 -6.1924577E+003
 -2.4525431E+003
  1.2442522E+003
  5.0043793E+003
  8.2830435E+003
  1.1101636E+004
  1.3441798E+004
  1.5341163E+004
  1.6921027E+004
  1.8188927E+004
  1.9110402E+004
  1.9594724E+004
  1.9612710E+004
  1.9267446E+004
  1.8704434E+004
  1.8095693E+004
  1.7527413E+004
  1.7041050E+004
  1.6633702E+004
  1.6302285E+004
  1.6040901E+004
  1.5845142E+004
  1.5701626E+004
  1.5585384E+004
  1.5460392E+004
  1.5285017E+004
  1.5022271E+004
  1.4665587E+004
  1.4261400E+004
  1.3883652E+004
  1.3444183E+004
  1.2852843E+004
  1.1649284E+004
  9.9778873E+003
  7.9450123E+003
  5.9148065E+003
  4.1219415E+003
  2.7253081E+003
  1.7823941E+003
  1.2903063E+003
  1.2014252E+003
  1.4374850E+003
  1.9023029E+003
  2.4936421E+003
  3.1135027E+003
  3.6729531E+003
  4.0924900E+003
  4.2992075E+003
  4.2289234E+003
  3.8292333E+003
  3.0818087E+003
  1.9313755E+003
 -1.4364057E+002
 -4.6828071E+003
 -1.1003847E+004
 -1.0124527E+004
 -4.3792482E+003
  4.8703901E+004
  6.2997875E+004
  2.8299037E+004
  1.6196231E+004
  1.4341314E+004
  9.9222933E+003
  6.7694924E+003
  3.4782461E+003
  1.4444591E+002
 -3.7036155E+003
 -8.4445770E+003
 -1.4468090E+004
 -2.1988860E+004
 -3.0581523E+004
 -3.9079565E+004
 -4.4753026E+004
 -4.6695101E+004
 -4.4069893E+004
 -3.8424369E+004
 -3.1381694E+004
 -2.4390059E+004
 -1.8223529E+004
 -1.3159733E+004
 -8.7847160E+003
 -4.8971887E+003
 -1.0541607E+003
  2.6060489E+003
  6.0000724E+003
  8.9737895E+003
  1.1497747E+004
  1.3588146E+004
  1.5266409E+004
  1.6561507E+004
  1.7461467E+004
  1.7952393E+004
  1.8054065E+004
  1.7836387E+004
  1.7417705E+004
  1.6909428E+004
  1.6401250E+004
  1.5940539E+004
  1.5548342E+004
  1.5226102E+004
  1.4966686E+004
  1.4754582E+004
  1.4566850E+004
  1.4372829E+004
  1.4135820E+004
  1.3814383E+004
  1.3367598E+004
  1.2763880E+004
  1.2076767E+004
  1.1529427E+004
  1.1351867E+004
  1.0695587E+004
  9.6977339E+003
  7.8136359E+003
  5.7459882E+003
  3.7659504E+003
  2.1794254E+003
  1.0582040E+003
  3.9782324E+002
  1.4689629E+002
  2.3767757E+002
  5.8580020E+002
  1.0976470E+003
  1.6838881E+003
  2.2650709E+003
  2.7718317E+003
  3.1373918E+003
  3.2897994E+003
  3.1392174E+003
  2.6113741E+003
  1.6345915E+003
  4.5121238E+002
 -9.3677120E+002
 -3.4803807E+003
 -1.2262490E+004
 -1.4787715E+004
 -6.2485880E+003
  2.6342778E+004
  3.1983628E+004
  3.1040026E+004
  2.2446213E+004
  1.8241409E+004
  1.3526885E+004
  9.5704654E+003
  5.5858831E+003
  1.2688025E+003
 -3.7944881E+003
 -9.8523908E+003
 -1.6891646E+004
 -2.4464254E+004
 -3.1488319E+004
 -3.6800726E+004
 -3.9120563E+004
 -3.8380241E+004
 -3.5064540E+004
 -3.0221086E+004
 -2.4827001E+004
 -1.9588015E+004
 -1.4793949E+004
 -1.0488331E+004
 -6.4580051E+003
 -2.6432053E+003
  9.8617115E+002
  4.3293106E+003
  7.3111553E+003
  9.8745006E+003
  1.2002112E+004
  1.3703566E+004
  1.4988839E+004
  1.5869941E+004
  1.6363901E+004
  1.6509144E+004
  1.6374450E+004
  1.6047457E+004
  1.5620903E+004
  1.5170230E+004
  1.4747592E+004
  1.4379537E+004
  1.4072897E+004
  1.3818524E+004
  1.3595583E+004
  1.3374840E+004
  1.3123517E+004
  1.2809111E+004
  1.2401364E+004
  1.1862105E+004
  1.1145308E+004
  1.0158850E+004
  9.2710921E+003
  8.9856224E+003
  9.5737531E+003
  7.8502934E+003
  5.7079159E+003
  3.3716068E+003
  1.5408810E+003
  2.6163980E+002
 -5.0681359E+002
 -8.6585578E+002
 -8.6324953E+002
 -5.7858596E+002
 -1.0803333E+002
  4.5485438E+002
  1.0266908E+003
  1.5471497E+003
  1.9698941E+003
  2.2482053E+003
  2.3085154E+003
  2.0493778E+003
  1.2404240E+003
 -1.6592163E+002
 -2.8334246E+003
 -4.4296605E+003
 -1.0368241E+004
 -2.5870080E+004
 -2.7238724E+004
  6.5259432E+003
  2.4531213E+004
  3.3423228E+004
  2.8490128E+004
  2.3153830E+004
  1.8263011E+004
  1.3926008E+004
  9.7168149E+003
  5.2063517E+003
  9.1240522E+001
 -5.7627860E+003
 -1.2244242E+004
 -1.8914116E+004
 -2.5054946E+004
 -2.9760554E+004
 -3.2417396E+004
 -3.2738483E+004
 -3.1006743E+004
 -2.7794203E+004
 -2.3766885E+004
 -1.9458927E+004
 -1.5202924E+004
 -1.1113891E+004
 -7.2230094E+003
 -3.5081561E+003
 -5.8101960E+000
  3.2275864E+003
  6.1184449E+003
  8.6144981E+003
  1.0688359E+004
  1.2334278E+004
  1.3562839E+004
  1.4394019E+004
  1.4859847E+004
  1.5008268E+004
  1.4903970E+004
  1.4623903E+004
  1.4245331E+004
  1.3835880E+004
  1.3445008E+004
  1.3101532E+004
  1.2813387E+004
  1.2569794E+004
  1.2344447E+004
  1.2101843E+004
  1.1806736E+004
  1.1436370E+004
  1.0983363E+004
  1.0458277E+004
  9.8303854E+003
  9.0834903E+003
  7.5173689E+003
  8.2515224E+003
  7.1359219E+003
  4.3709448E+003
  2.0821709E+003
  6.4860597E+002
 -5.8120031E+002
 -1.3425178E+003
 -1.8103156E+003
 -1.8826014E+003
 -1.6610631E+003
 -1.2099856E+003
 -6.2435071E+002
 -2.8877509E+001
  4.9775963E+002
  9.1542319E+002
  1.2104235E+003
  1.3644661E+003
  1.3306351E+003
  9.7636571E+002
  1.0750476E+002
 -1.9364291E+003
 -5.2231723E+003
 -1.1855473E+004
 -1.4302041E+004
 -1.2016680E+004
  7.8728040E+003
  2.0539020E+004
  3.1480535E+004
  2.8777481E+004
  2.4490518E+004
  2.0353686E+004
  1.6560220E+004
  1.2625059E+004
  8.2899153E+003
  3.3801566E+003
 -2.1172647E+003
 -8.0285205E+003
 -1.3975317E+004
 -1.9405391E+004
 -2.3737952E+004
 -2.6486676E+004
 -2.7463697E+004
 -2.6764266E+004
 -2.4724725E+004
 -2.1772606E+004
 -1.8309057E+004
 -1.4628708E+004
 -1.0916668E+004
 -7.2671978E+003
 -3.7486986E+003
 -4.2112352E+002
  2.6445933E+003
  5.3823565E+003
  7.7394266E+003
  9.6853533E+003
  1.1212315E+004
  1.2331064E+004
  1.3067894E+004
  1.3462431E+004
  1.3566962E+004
  1.3444680E+004
  1.3164947E+004
  1.2796836E+004
  1.2401386E+004
  1.2025577E+004
  1.1697887E+004
  1.1426128E+004
  1.1196737E+004
  1.0976213E+004
  1.0718118E+004
  1.0377180E+004
  9.9393905E+003
  9.4192847E+003
  8.9342666E+003
  8.4023121E+003
  8.6001484E+003
  7.5376234E+003
  1.1223043E+004
  5.1470923E+003
  5.3963461E+002
 -1.1640852E+003
 -6.9505598E+002
 -1.7392492E+003
 -2.3299296E+003
 -2.5111247E+003
 -2.5404168E+003
 -2.2185366E+003
 -1.6187195E+003
 -9.5270279E+002
 -3.5185588E+002
  7.7917672E+001
  3.3099829E+002
  4.4051421E+002
  4.2893425E+002
  2.8654845E+002
 -6.4845582E+001
 -7.9278727E+002
 -2.3945615E+003
 -5.6711233E+003
 -1.3296417E+004
 -1.4722500E+004
 -7.8304589E+003
  1.3151006E+004
  2.3682281E+004
  2.8792984E+004
  2.4460647E+004
  2.2700709E+004
  2.0481546E+004
  1.7863628E+004
  1.4608839E+004
  1.0715124E+004
  6.1821511E+003
  1.1180324E+003
 -4.2585844E+003
 -9.6067016E+003
 -1.4502052E+004
 -1.8506459E+004
 -2.1279932E+004
 -2.2644254E+004
 -2.2624917E+004
 -2.1408308E+004
 -1.9273467E+004
 -1.6512740E+004
 -1.3379999E+004
 -1.0067905E+004
 -6.7192777E+003
 -3.4419375E+003
 -3.2995132E+002
  2.5330261E+003
  5.0747863E+003
  7.2421212E+003
  9.0049698E+003
  1.0357133E+004
  1.1313754E+004
  1.1907068E+004
  1.2182502E+004
  1.2195278E+004
  1.2007185E+004
  1.1682973E+004
  1.1285800E+004
  1.0872316E+004
  1.0487361E+004
  1.0159140E+004
  9.8948733E+003
  9.6780929E+003
  9.4672748E+003
  9.1964362E+003
  8.7961959E+003
  8.2240386E+003
  7.5540369E+003
  6.8696510E+003
  6.5078982E+003
  6.0826262E+003
  6.5512911E+003
  1.0249670E+004
 -1.4950562E+003
 -3.3692913E+002
 -1.4048442E+003
 -1.7474568E+003
 -2.7482185E+003
 -2.7804522E+003
 -2.4408386E+003
 -1.8682718E+003
 -1.0889342E+003
 -5.2068028E+002
 -2.6256324E+002
 -2.4972229E+002
 -3.8590897E+002
 -6.1537978E+002
 -9.1340800E+002
 -1.2671325E+003
 -1.7345412E+003
 -2.4146575E+003
 -3.6212287E+003
 -7.6487890E+003
 -1.2043888E+004
 -8.5936205E+003
  1.3205719E+004
  2.0874240E+004
  1.9353466E+004
  1.8809567E+004
  2.0202081E+004
  2.0028900E+004
  1.8575507E+004
  1.6088632E+004
  1.2703290E+004
  8.5974183E+003
  3.9664807E+003
 -9.3462991E+002
 -5.7938193E+003
 -1.0261829E+004
 -1.4001615E+004
 -1.6742558E+004
 -1.8332605E+004
 -1.8752956E+004
 -1.8105243E+004
 -1.6570715E+004
 -1.4364630E+004
 -1.1698501E+004
 -8.7605967E+003
 -5.7104306E+003
 -2.6844794E+003
  1.9979043E+002
  2.8418036E+003
  5.1613424E+003
  7.1027447E+003
  8.6379986E+003
  9.7663565E+003
  1.0510587E+004
  1.0911157E+004
  1.1020018E+004
  1.0895299E+004
  1.0597580E+004
  1.0187340E+004
  9.7228645E+003
  9.2572551E+003
  8.8343587E+003
  8.4829179E+003
  8.2103380E+003
  7.9968606E+003
  7.7935753E+003
  7.5202870E+003
  7.0427857E+003
  6.2945911E+003
  5.2580562E+003
  4.3426648E+003
  3.1881015E+003
  2.6013671E+003
  3.5243534E+003
 -2.0754068E+002
 -8.0780259E+002
 -1.7777588E+003
 -2.6259151E+003
 -2.7989872E+003
 -2.0026436E+003
 -1.0582977E+003
 -5.7014301E+002
 -6.0076942E+002
 -8.7525571E+002
 -1.2934033E+003
 -1.7891857E+003
 -2.3067044E+003
 -2.8605878E+003
 -3.1503539E+003
 -3.8520708E+003
 -2.8132565E+003
 -8.5361472E+003
 -2.5339445E+004
 -2.3493810E+004
  3.4618079E+004
  3.9993707E+004
  2.0059529E+004
  1.6649584E+004
  2.0022265E+004
  2.0003074E+004
  1.9421313E+004
  1.7400492E+004
  1.4439380E+004
  1.0697850E+004
  6.4452443E+003
  1.9427624E+003
 -2.5195267E+003
 -6.6458635E+003
 -1.0159907E+004
 -1.2840855E+004
 -1.4550793E+004
 -1.5248867E+004
 -1.4984418E+004
 -1.3876088E+004
 -1.2084173E+004
 -9.7859152E+003
 -7.1581461E+003
 -4.3684929E+003
 -1.5709203E+003
  1.0969456E+003
  3.5183745E+003
  5.6030993E+003
  7.2926472E+003
  8.5628700E+003
  9.4222362E+003
  9.9057679E+003
  1.0066230E+004
  9.9645496E+003
  9.6624541E+003
  9.2184684E+003
  8.6875358E+003
  8.1219155E+003
  7.5714683E+003
  7.0797158E+003
  6.6778603E+003
  6.3752424E+003
  6.1487307E+003
  5.9366953E+003
  5.6467330E+003
  5.1626422E+003
  4.0523698E+003
  2.5264660E+003
  7.7893123E+002
 -1.7254031E+002
  4.2552885E+002
  1.1986274E+002
 -9.1482266E+002
 -2.5377950E+003
 -2.6487344E+003
 -2.4156479E+003
 -8.1458491E+002
 -7.9701160E+002
 -1.0241485E+003
 -1.5934812E+003
 -2.2622181E+003
 -3.0138973E+003
 -3.8414726E+003
 -4.6412678E+003
 -5.5228980E+003
 -5.6996523E+003
 -7.1246902E+003
 -8.1885254E+003
 -9.4635194E+003
  1.6398558E+004
  1.9956909E+004
  2.1231838E+004
  2.0047928E+004
  2.1158945E+004
  2.0425594E+004
  1.8721962E+004
  1.5975128E+004
  1.2505493E+004
  8.5479286E+003
  4.3671278E+003
  2.2390786E+002
 -3.6248004E+003
 -6.9458574E+003
 -9.5501756E+003
 -1.1311458E+004
 -1.2175440E+004
 -1.2158727E+004
 -1.1338124E+004
 -9.8352273E+003
 -7.8006496E+003
 -5.4009016E+003
 -2.8080666E+003
 -1.9111459E+002
  2.2932744E+003
  4.5107720E+003
  6.3595486E+003
  7.7782472E+003
  8.7491165E+003
  9.2949699E+003
  9.4699524E+003
  9.3452538E+003
  8.9950970E+003
  8.4855309E+003
  7.8707602E+003
  7.1959422E+003
  6.5044210E+003
  5.8407823E+003
  5.2508951E+003
  4.7698565E+003
  4.4114712E+003
  4.1552854E+003
  3.9151486E+003
  3.5520161E+003
  2.9292346E+003
  2.1882273E+003
 -4.2335640E+002
 -2.7319279E+003
 -2.1201508E+003
 -7.5997064E+002
 -2.2322935E+003
 -3.9609474E+003
 -1.5859459E+003
 -1.1611270E+003
 -1.6881894E+003
 -2.3793779E+003
 -3.1911090E+003
 -4.1472686E+003
 -5.2175472E+003
 -6.4126183E+003
 -7.5347963E+003
 -8.7724978E+003
 -8.4488203E+003
 -3.3330410E+003
  3.5862651E+003
  2.9279053E+003
  1.1381320E+004
  1.8730910E+004
  2.1124353E+004
  2.2093363E+004
  2.1574110E+004
  1.9884267E+004
  1.7266867E+004
  1.3972613E+004
  1.0244500E+004
  6.3217101E+003
  2.4389627E+003
 -1.1796347E+003
 -4.3318594E+003
 -6.8511614E+003
 -8.6188469E+003
 -9.5717862E+003
 -9.7039164E+003
 -9.0624011E+003
 -7.7403496E+003
 -5.8682572E+003
 -3.6051526E+003
 -1.1291064E+003
  1.3742284E+003
  3.7259072E+003
  5.7701590E+003
  7.3907130E+003
  8.5228693E+003
  9.1589822E+003
  9.3438198E+003
  9.1596657E+003
  8.7066735E+003
  8.0782949E+003
  7.3460491E+003
  6.5543762E+003
  5.7310113E+003
  4.9017362E+003
  4.1075239E+003
  3.3945301E+003
  2.8098436E+003
  2.3733336E+003
  2.0625907E+003
  1.8235333E+003
  1.3680087E+003
  3.7609849E+002
 -1.7621518E+003
 -5.0690462E+003
 -5.2331042E+003
 -3.6669736E+003
 -2.6839854E+003
 -2.0284057E+003
 -2.4603230E+003
 -3.0528689E+003
 -3.9187031E+003
 -4.9840294E+003
 -6.2146147E+003
 -7.5028157E+003
 -8.9903646E+003
 -9.7672163E+003
 -1.1005103E+004
 -3.0880292E+003
  1.4313071E+004
 -3.8624112E+003
  3.2158918E+003
  1.5719772E+004
  2.1472099E+004
  2.2740943E+004
  2.2371306E+004
  2.0699654E+004
  1.8171328E+004
  1.5022404E+004
  1.1489161E+004
  7.7876436E+003
  4.1279496E+003
  7.0812870E+002
 -2.2925260E+003
 -4.7228801E+003
 -6.4686599E+003
 -7.4589249E+003
 -7.6695524E+003
 -7.1240073E+003
 -5.8923011E+003
 -4.0887286E+003
 -1.8679443E+003
  5.8232759E+002
  3.0542013E+003
  5.3390715E+003
  7.2523210E+003
  8.6576816E+003
  9.4872021E+003
  9.7474406E+003
  9.5143115E+003
  8.9152182E+003
  8.0906832E+003
  7.1652603E+003
  6.2160682E+003
  5.2697656E+003
  4.3188099E+003
  3.3641480E+003
  2.4279043E+003
  1.5819369E+003
  8.7817820E+002
  3.5257244E+002
 -1.3014785E+001
 -3.0787822E+002
 -5.1353560E+002
 -1.5314665E+003
 -3.3570005E+003
 -3.6856979E+003
 -1.3183403E+003
 -2.0089601E+003
 -2.8011712E+003
 -3.3137836E+003
 -4.2905405E+003
 -5.4178043E+003
 -6.6464320E+003
 -7.8626621E+003
 -8.8986652E+003
 -9.6000489E+003
 -9.2999306E+003
 -5.4120715E+003
  2.6848372E+003
  3.8495665E+003
  1.7110482E+004
 -2.3309901E+004
  4.6127949E+003
  1.7481759E+004
  2.0959793E+004
  2.2934224E+004
  2.2489322E+004
  2.0966030E+004
  1.8557486E+004
  1.5581702E+004
  1.2246029E+004
  8.7564580E+003
  5.3027766E+003
  2.0643138E+003
 -7.9591040E+002
 -3.1366866E+003
 -4.8448979E+003
 -5.8410268E+003
 -6.0838512E+003
 -5.5746574E+003
 -4.3614609E+003
 -2.5430736E+003
 -2.7139090E+002
  2.2516683E+003
  4.7869534E+003
  7.0841024E+003
  8.9169873E+003
  1.0122905E+004
  1.0626441E+004
  1.0457331E+004
  9.7396110E+003
  8.6547087E+003
  7.4154420E+003
  6.1858203E+003
  5.0544724E+003
  4.0132956E+003
  2.9986764E+003
  1.9430038E+003
  8.9276531E+002
 -9.9865954E+001
 -9.0050838E+002
 -1.5034386E+003
 -1.9036752E+003
 -2.2684142E+003
 -2.4518622E+003
 -3.1194903E+003
 -5.4727203E+003
 -3.8026436E+003
 -3.3821078E+002
 -1.1503272E+003
 -2.1859062E+003
 -3.1267237E+003
 -4.2625785E+003
 -5.4742991E+003
 -6.6455097E+003
 -7.5892077E+003
 -8.0469993E+003
 -7.6597774E+003
 -6.1200197E+003
 -3.4010228E+003
 -9.2081863E+002
  2.4493448E+002
  8.5676479E+003
 -1.8874364E+003
 -9.5014116E+003
 -1.2855740E+004
 -8.0925598E+003
  8.1728164E+003
  1.6176329E+004
  2.0454049E+004
  2.1968779E+004
  2.1887347E+004
  2.0545820E+004
  1.8372779E+004
  1.5619709E+004
  1.2512246E+004
  9.2438740E+003
  5.9943354E+003
  2.9299796E+003
  2.0328771E+002
 -2.0502370E+003
 -3.7158086E+003
 -4.7036923E+003
 -4.9543649E+003
 -4.4452365E+003
 -3.1995758E+003
 -1.2974706E+003
  1.1134739E+003
  3.8131852E+003
  6.5194169E+003
  8.9196970E+003
  1.0728040E+004
  1.1739128E+004
  1.1884388E+004
  1.1217011E+004
  9.9147564E+003
  8.2758923E+003
  6.5723837E+003
  5.0493682E+003
  3.8032672E+003
  2.7851435E+003
  1.8132826E+003
  7.6129879E+002
 -4.5063031E+002
 -1.5259026E+003
 -2.4187622E+003
 -2.9753352E+003
 -3.3735728E+003
 -3.5818875E+003
 -4.1498677E+003
 -3.7075273E+003
 -2.6934311E+003
  4.1993307E+002
 -1.0985302E+002
 -1.2410011E+003
 -2.6455954E+003
 -3.9924647E+003
 -5.3120699E+003
 -6.4706876E+003
 -7.2423175E+003
 -7.3049538E+003
 -6.1763586E+003
 -3.6649674E+003
 -2.2364285E+003
 -4.3649124E+003
 -3.8627842E+003
  1.1226621E+003
 -2.7938553E+002
 -3.6306308E+003
 -8.9252070E+003
 -4.7259527E+003
  4.7581450E+003
  1.3639475E+004
  1.8245291E+004
  2.0265130E+004
  2.0506755E+004
  1.9518720E+004
  1.7647618E+004
  1.5176960E+004
  1.2329443E+004
  9.2989489E+003
  6.2585729E+003
  3.3667734E+003
  7.6894829E+002
 -1.4025003E+003
 -3.0293902E+003
 -4.0103059E+003
 -4.2653264E+003
 -3.7442024E+003
 -2.4393843E+003
 -4.0431871E+002
  2.2244547E+003
  5.2085415E+003
  8.2057904E+003
  1.0812066E+004
  1.2643571E+004
  1.3459666E+004
  1.3165374E+004
  1.1899712E+004
  9.9484741E+003
  7.6284081E+003
  5.4445952E+003
  3.6485030E+003
  2.3783108E+003
  1.5391713E+003
  8.1998206E+002
 -2.4371112E+002
 -1.3684774E+003
 -2.6155531E+003
 -3.3843358E+003
 -3.8808887E+003
 -4.0456124E+003
 -4.1164952E+003
 -4.1397941E+003
 -2.8131686E+003
 -7.9706231E+002
  1.5509807E+003
  5.5870809E+002
 -6.2726330E+002
 -2.1904214E+003
 -3.6741279E+003
 -5.1154118E+003
 -6.3690261E+003
 -7.2836631E+003
 -7.4078792E+003
 -6.9189438E+003
 -4.2364538E+003
 -5.4925910E+003
 -1.5176404E+004
 -1.4433737E+004
 -1.0825911E+003
 -3.1095550E+003
 -3.8445508E+003
 -1.0048815E+003
  5.0721556E+003
  1.1267566E+004
  1.5769891E+004
  1.8075869E+004
  1.8690467E+004
  1.8055577E+004
  1.6519515E+004
  1.4354378E+004
  1.1785453E+004
  9.0037459E+003
  6.1775499E+003
  3.4585585E+003
  9.8606115E+002
 -1.1103775E+003
 -2.7092820E+003
 -3.6972851E+003
 -3.9722851E+003
 -3.4518524E+003
 -2.0890423E+003
  1.0173152E+002
  3.0096382E+003
  6.3857131E+003
  9.8185332E+003
  1.2754316E+004
  1.4647501E+004
  1.5129801E+004
  1.4321079E+004
  1.2346755E+004
  9.4895901E+003
  6.5673923E+003
  3.9230943E+003
  1.9831888E+003
  7.3636418E+002
  2.3306340E+002
  3.9880182E+001
 -5.9865734E+002
 -2.2762397E+003
 -3.1120334E+003
 -3.8399110E+003
 -3.8731550E+003
 -3.7820499E+003
 -3.6108335E+003
 -3.2968856E+003
 -1.9278582E+003
 -7.5098097E+002
  2.7191383E+003
  3.8249561E+003
  2.0011740E+003
  6.5210760E+002
 -4.3388313E+002
 -1.8886196E+003
 -3.4318918E+003
 -4.9702546E+003
 -6.4390626E+003
 -7.6862054E+003
 -8.6361209E+003
 -8.6946658E+003
 -9.2437330E+003
 -8.3283573E+003
 -6.6035768E+003
 -6.9287604E+002
 -1.2568828E+003
 -1.1171309E+003
  1.4321803E+003
  5.5670466E+003
  1.0152471E+004
  1.3791441E+004
  1.5996726E+004
  1.6783808E+004
  1.6417017E+004
  1.5172397E+004
  1.3296144E+004
  1.0999735E+004
  8.4659267E+003
  5.8546610E+003
  3.3089528E+003
  9.6004135E+002
 -1.0676548E+003
 -2.6519280E+003
 -3.6693448E+003
 -3.9951932E+003
 -3.5106204E+003
 -2.1204519E+003
  2.1676469E+002
  3.4365613E+003
  7.3047420E+003
  1.1327644E+004
  1.4751798E+004
  1.6700530E+004
  1.6773339E+004
  1.4878940E+004
  1.2046589E+004
  8.6692767E+003
  4.7122347E+003
  1.9872528E+003
  2.7079796E+002
 -9.1556296E+002
 -1.6890526E+003
 -1.0294674E+003
 -1.8938111E+003
 -2.5191364E+003
 -1.8638311E+003
 -2.1399057E+003
 -2.7063045E+003
 -2.4122708E+003
 -2.4776769E+003
 -2.1808197E+003
 -1.2393630E+003
 -3.6173519E+002
  4.4193331E+003
  4.1384956E+003
  3.7940228E+003
  2.3445491E+003
  1.1051267E+003
 -2.6652136E+002
 -1.7200242E+003
 -3.2728314E+003
 -4.8793762E+003
 -6.5390832E+003
 -8.2500873E+003
 -9.9350992E+003
 -1.1268568E+004
 -1.1973232E+004
 -8.3193628E+003
 -2.5250684E+003
  6.2644077E+002
  8.5963743E+002
  1.5504640E+003
  3.3539398E+003
  6.4374477E+003
  9.7358857E+003
  1.2524503E+004
  1.4341291E+004
  1.5079441E+004
  1.4835719E+004
  1.3795285E+004
  1.2156376E+004
  1.0104560E+004
  7.8055824E+003
  5.4057120E+003
  3.0350186E+003
  8.1255819E+002
 -1.1470782E+003
 -2.7261945E+003
 -3.7962637E+003
 -4.2122140E+003
 -3.8146321E+003
 -2.4499609E+003
 -9.8758729E+000
  3.5242265E+003
  7.9546330E+003
  1.2789389E+004
  1.7000417E+004
  1.9116995E+004
  1.7643289E+004
  1.4323000E+004
  1.0355087E+004
  5.2319813E+003
  1.5486549E+003
  2.7308339E+002
 -5.1529451E+002
 -1.3058876E+003
 -2.4208584E+003
 -2.5660957E+003
 -5.5551712E+003
 -2.3576221E+003
 -9.1644106E+001
  1.9239331E+003
  1.1407321E+001
 -7.3731821E+002
 -1.2072033E+003
 -1.1727256E+003
 -5.8711747E+002
 -1.1522447E+002
  2.9503619E+003
  9.3475749E+002
  4.7647713E+003
  5.4398734E+003
  3.4758627E+003
  1.5715441E+003
 -9.5087927E+001
 -1.6632246E+003
 -3.2153148E+003
 -4.8119787E+003
 -6.5357006E+003
 -8.5082488E+003
 -1.0816835E+004
 -1.2977333E+004
 -1.3943177E+004
 -8.9779186E+003
 -3.2424519E+003
  1.0553673E+003
  1.8649563E+003
  3.0821943E+003
  5.0405578E+003
  7.4387432E+003
  9.8184116E+003
  1.1842460E+004
  1.3193835E+004
  1.3733386E+004
  1.3478897E+004
  1.2543029E+004
  1.1074252E+004
  9.2258024E+003
  7.1410301E+003
  4.9476416E+003
  2.7580078E+003
  6.7379162E+002
 -1.2064365E+003
 -2.7770785E+003
 -3.9130336E+003
 -4.4563215E+003
 -4.2053979E+003
 -2.9268325E+003
 -4.2402493E+002
  3.3738238E+003
  8.4613095E+003
  1.4133290E+004
  1.9169274E+004
  2.1627410E+004
  2.0094540E+004
  1.1174396E+004
  4.1076910E+003
 -9.8527310E+002
 -3.7716240E+002
 -1.5678199E+002
 -4.7638872E+002
 -5.8968054E+002
 -1.8230869E+003
 -2.0889122E+003
 -5.3380766E+003
  1.3925367E+003
  6.8763900E+002
  2.1105852E+002
 -3.6851307E+002
 -3.7181253E+002
 -1.8454483E+002
  3.5083051E+001
  6.9014207E+003
  7.6948185E+003
  6.9659780E+003
  3.6705607E+003
  1.6739422E+003
 -2.2917649E+002
 -1.8246522E+003
 -3.3369684E+003
 -4.8376113E+003
 -6.4362163E+003
 -8.2892136E+003
 -1.0835857E+004
 -1.3649427E+004
 -1.5687054E+004
 -1.1306231E+004
 -5.4208536E+003
  2.9347176E+003
  5.2362421E+003
  5.3708381E+003
  6.7737734E+003
  8.5728371E+003
  1.0210703E+004
  1.1629859E+004
  1.2534686E+004
  1.2803047E+004
  1.2442979E+004
  1.1525674E+004
  1.0159549E+004
  8.4693148E+003
  6.5762568E+003
  4.5869796E+003
  2.5921954E+003
  6.7125639E+002
 -1.0996222E+003
 -2.6355406E+003
 -3.8266479E+003
 -4.5156348E+003
 -4.4720046E+003
 -3.3581961E+003
 -7.8269661E+002
  3.4143822E+003
  8.9429041E+003
  1.6628867E+004
  2.3649733E+004
  2.5813518E+004
  1.5441895E+004
  6.9629929E+003
  4.3382304E+002
 -4.3984879E+003
 -3.9482273E+002
 -1.1910504E+002
  7.1740224E+001
  2.6364607E+001
  3.0662929E+001
  4.3723686E+001
  1.4144902E+004
  7.9599371E+003
  5.0307823E+003
  3.0462282E+003
  9.1321559E+002
 -8.1079844E+002
 -2.3520237E+003
 -3.7532078E+003
 -5.1331698E+003
 -6.5484440E+003
 -8.0222036E+003
 -9.8632886E+003
 -1.3643779E+004
 -1.8475965E+004
 -1.3784532E+004
 -4.1079351E+003
  3.3117146E+003
  6.3959091E+003
  8.9277857E+003
  9.6063712E+003
  1.0863359E+004
  1.1863110E+004
  1.2327897E+004
  1.2295547E+004
  1.1779178E+004
  1.0815447E+004
  9.4890771E+003
  7.9132585E+003
  6.1918474E+003
  4.4095879E+003
  2.6330370E+003
  9.1577445E+002
 -6.9316850E+002
 -2.1370108E+003
 -3.3332243E+003
 -4.1459243E+003
 -4.3399815E+003
 -3.5244814E+003
 -9.8241049E+002
  4.1474598E+003
  1.1137838E+004
  1.7593666E+004
  2.6013738E+004
  3.4983329E+004
  1.1983760E+004
 -3.3824415E+003
  3.1979434E+002
 -4.6217858E+001
  1.3994910E+001
 -1.9729986E+002
 -2.8380002E+001
  9.9196509E+001
  1.7360103E+002
  1.5862700E+002
  1.6886571E+004
  1.5281256E+004
  1.0057132E+004
  4.8590384E+003
  3.0640566E+003
  1.3197450E+003
 -3.3883549E+002
 -1.8933744E+003
 -3.2767376E+003
 -4.5606261E+003
 -5.8370181E+003
 -7.3024138E+003
 -8.7686401E+003
 -9.9723903E+003
 -1.1044032E+004
 -1.8030101E+004
 -1.8643126E+004
 -8.2355964E+003
  3.3144584E+003
  7.7402079E+003
  8.8459077E+003
  1.0108848E+004
  1.1988302E+004
  1.2481277E+004
  1.2517679E+004
  1.2209653E+004
  1.1535907E+004
  1.0457095E+004
  9.1076226E+003
  7.6057664E+003
  6.0400486E+003
  4.4729636E+003
  2.9462145E+003
  1.4861403E+003
  1.1262194E+002
 -1.1492766E+003
 -2.2527946E+003
 -3.0996059E+003
 -3.4988062E+003
 -3.0330170E+003
 -1.0903346E+003
  4.6915846E+003
  1.6240906E+004
  3.3523250E+004
  5.2514859E+004
  4.4265396E+004
  7.0419641E+000
 -8.6672253E+001
 -4.3129841E+001
  3.5349374E+001
  8.4849632E+001
  1.3231907E+002
  1.6428760E+004
  1.5995586E+004
  1.2733153E+004
  8.3443995E+003
  4.4433117E+003
  1.5175894E+003
 -3.1137421E+002
 -1.8784764E+003
 -3.2940874E+003
 -4.5786815E+003
 -5.7511302E+003
 -6.9998101E+003
 -8.4560807E+003
 -1.1365474E+004
 -1.3423690E+004
 -1.8476327E+004
 -3.2535780E+004
 -3.2371438E+004
  9.3938284E+003
  1.2549790E+004
  1.3657994E+004
  1.4059154E+004
  1.3456498E+004
  1.2954996E+004
  1.2703644E+004
  1.1754397E+004
  1.0464237E+004
  9.0308137E+003
  7.5682963E+003
  6.1440138E+003
  4.8022474E+003
  3.5596105E+003
  2.4154053E+003
  1.3616367E+003
  3.9314080E+002
 -4.7887438E+002
 -1.2043304E+003
 -1.6392665E+003
 -1.5007743E+003
  3.4487944E+001
  3.0916806E+003
  1.6598467E+004
  3.2093848E+004
  3.1647190E+004
  4.0395674E+000
  1.9272989E-001
  6.8533846E+001
  1.7479537E+004
  1.7037746E+004
  1.3864141E+004
  9.8545137E+003
  6.3344864E+003
  2.9648947E+003
  2.9839874E+002
 -1.7828718E+003
 -3.4430452E+003
 -4.8860218E+003
 -6.1639869E+003
 -7.3357988E+003
 -8.3978867E+003
 -9.9660518E+003
 -1.2073893E+004
 -2.0773967E+004
 -2.4117345E+004
 -2.1141426E+004
  6.4974994E+003
  1.1608227E+004
  1.5172367E+004
  1.2720792E+004
  1.4737103E+004
  1.3848142E+004
  1.2417437E+004
  1.0816036E+004
  9.2668919E+003
  7.8013534E+003
  6.5013709E+003
  5.3907641E+003
  4.4606192E+003
  3.6827075E+003
  3.0256499E+003
  2.4585132E+003
  1.9692418E+003
  1.5411960E+003
  1.3443236E+003
  1.2922893E+003
  3.2021456E+003
  4.6387680E+003
  1.8649157E+004
  5.1979780E+004
  3.9165065E+004
  1.8430978E+004
  1.8638905E+004
  1.4814770E+004
  1.0892547E+004
  7.6888102E+003
  4.4484086E+003
  1.5143035E+003
 -1.0449607E+003
 -3.1734930E+003
 -4.9747427E+003
 -6.5470703E+003
 -7.9571604E+003
 -9.2039884E+003
 -1.0318808E+004
 -1.1242282E+004
 -1.2207560E+004
 -1.5999055E+004
 -1.8594239E+004
 -9.0372701E+003
 -4.4387749E+003
  8.7209349E+003
  2.1078545E+004
  1.8027177E+004
  1.7674620E+004
  1.5435658E+004
  1.3320209E+004
  1.1560853E+004
  9.8157448E+003
  8.2962675E+003
  7.0888182E+003
  6.2066757E+003
  5.6004308E+003
  5.2146469E+003
  4.9992143E+003
  4.9113382E+003
  4.9036501E+003
  4.9664548E+003
  5.0236234E+003
  5.4817050E+003
  5.7863323E+003
  1.1180224E+004
  1.7112030E+004
  1.7430896E+004
  2.1109445E+004
  2.0753079E+004
  1.3631930E+004
  1.1455276E+004
  8.2793836E+003
  5.4575383E+003
  2.6621464E+003
  3.5208351E+001
 -2.3650391E+003
 -4.5072587E+003
 -6.4206002E+003
 -8.1680820E+003
 -9.7786111E+003
 -1.1322566E+004
 -1.2526228E+004
 -1.4005836E+004
 -1.3201187E+004
 -1.6804966E+004
 -3.0869764E+004
 -2.7123681E+004
  9.8948126E+003
  1.5677168E+004
  2.0779145E+004
  1.6004563E+004
  1.5091400E+004
  1.2793897E+004
  1.0734140E+004
  9.0179745E+003
  7.8755160E+003
  7.2053687E+003
  6.9064816E+003
  6.8939731E+003
  7.1152840E+003
  7.5170433E+003
  8.0370032E+003
  8.6027042E+003
  9.1194518E+003
  9.4490272E+003
  9.3025272E+003
  8.2981621E+003
  4.6962761E+003
  1.0610467E+003
  3.8934657E+003
  1.2909524E+004
  1.3813029E+004
  1.0538908E+004
  1.4403355E+004
  9.2826951E+003
  8.1863746E+003
  5.8525653E+003
  3.5307713E+003
  1.0990567E+003
 -1.2839685E+003
 -3.5627396E+003
 -5.6964178E+003
 -7.6940772E+003
 -9.5862030E+003
 -1.1435303E+004
 -1.3208167E+004
 -1.5106760E+004
 -1.6241878E+004
 -1.8970181E+004
 -1.7264379E+004
 -1.3593651E+004
 -5.8653862E+003
  1.1191328E+004
  2.4405890E+004
  1.9503274E+004
  1.7775624E+004
  1.4594074E+004
  1.1891741E+004
  9.9404100E+003
  8.8341264E+003
  8.3598334E+003
  8.2906652E+003
  8.5729687E+003
  9.1665006E+003
  1.0001449E+004
  1.0990316E+004
  1.2000788E+004
  1.2919453E+004
  1.3162942E+004
  1.2630752E+004
  6.1358332E+003
 -6.0699212E+003
 -1.2569704E+004
  1.3529303E+004
  1.5262667E+004
  1.1794759E+004
  1.4354198E+004
  1.1414414E+004
  8.5135838E+003
  6.0661047E+003
  4.1542236E+003
  2.0570128E+003
 -1.2671652E+002
 -2.3481230E+003
 -4.5384167E+003
 -6.6561085E+003
 -8.6910389E+003
 -1.0664576E+004
 -1.2615356E+004
 -1.4591077E+004
 -1.6603358E+004
 -1.8405534E+004
 -1.9594273E+004
 -1.3627217E+004
 -3.5905720E+003
  2.4794738E+004
  2.4718799E+004
  2.1624648E+004
  1.7492562E+004
  1.3418847E+004
  1.0943822E+004
  1.0087095E+004
  9.6497805E+003
  9.6340219E+003
  1.0079608E+004
  1.0941482E+004
  1.2102237E+004
  1.3409964E+004
  1.4727090E+004
  1.5740189E+004
  1.6412628E+004
  1.4708939E+004
  1.3031876E+004
 -2.9267593E+003
 -3.8352197E+004
  2.5647091E+003
  8.8021452E+003
  1.0058166E+004
  7.5372976E+003
  1.1501597E+004
  9.7245359E+003
  1.0220683E+004
  9.4678285E+003
  7.3133382E+003
  5.1301553E+003
  3.1154835E+003
  1.1251374E+003
 -9.5385599E+002
 -3.0935080E+003
 -5.2380810E+003
 -7.3352539E+003
 -9.3580935E+003
 -1.1309037E+004
 -1.3213118E+004
 -1.5064668E+004
 -1.6900602E+004
 -1.8405946E+004
 -1.8703300E+004
 -1.1647668E+004
 -4.2541755E+003
  2.5802129E+004
  2.6180481E+004
  1.9385762E+004
  1.3645329E+004
  1.2889326E+004
  1.1757638E+004
  1.0951849E+004
  1.0737184E+004
  1.1229018E+004
  1.2264020E+004
  1.3627387E+004
  1.5082524E+004
  1.6396765E+004
  1.7344645E+004
  1.7479061E+004
  1.6464517E+004
  1.2892996E+004
  4.2517562E+003
 -1.5817272E+004
 -2.0622083E+004
 -4.0483484E+004
  8.6410727E+003
  9.6303475E+003
  8.2826874E+003
  1.0855458E+004
  9.9096407E+003
  9.0482189E+003
  8.5402053E+003
  7.6469851E+003
  6.2263420E+003
  4.4503363E+003
  2.5852822E+003
  6.4907375E+002
 -1.3916002E+003
 -3.5166020E+003
 -5.6586687E+003
 -7.7407080E+003
 -9.7109260E+003
 -1.1550802E+004
 -1.3273228E+004
 -1.4815569E+004
 -1.6084627E+004
 -1.6639759E+004
 -1.7832081E+004
 -1.3599308E+004
 -7.1585124E+003
  2.9038759E+004
  2.8161965E+004
  1.9509490E+004
  1.5751946E+004
  1.3556565E+004
  1.1784181E+004
  1.1340942E+004
  1.1839786E+004
  1.3038948E+004
  1.4523726E+004
  1.5947540E+004
  1.7014302E+004
  1.7424051E+004
  1.6798827E+004
  1.4430281E+004
  8.8495952E+003
 -2.9975823E+003
 -1.7627082E+004
 -1.9723595E+004
 -7.6841993E+003
 -5.7713968E+003
  2.2627828E+003
  5.8437063E+003
  5.5799674E+003
  5.1489301E+003
  1.4894218E+004
  1.5029748E+004
  9.9087286E+002
  4.2577147E+003
  5.7560420E+003
  4.5135822E+003
  7.4618673E+003
  7.2213049E+003
  8.2530315E+003
  8.6111533E+003
  8.0586367E+003
  7.3379148E+003
  6.5313113E+003
  5.4022304E+003
  3.9980548E+003
  2.3715316E+003
  5.3810853E+002
 -1.4866142E+003
 -3.6521958E+003
 -5.8423798E+003
 -7.9346036E+003
 -9.8359164E+003
 -1.1515470E+004
 -1.2986250E+004
 -1.4283629E+004
 -1.5160387E+004
 -1.4811864E+004
 -1.4105890E+004
 -1.2419140E+004
 -6.8974670E+003
  1.4127700E+004
  1.7879673E+004
  1.8291276E+004
  1.3549454E+004
  1.1842788E+004
  1.1132018E+004
  1.1851077E+004
  1.3287166E+004
  1.4892104E+004
  1.6164718E+004
  1.6782610E+004
  1.6456865E+004
  1.4789229E+004
  1.1121934E+004
  4.5006057E+003
 -4.7212844E+003
 -1.3453843E+004
 -1.6605115E+004
 -1.1876991E+004
 -3.5730398E+003
 -1.0968486E+003
  3.7041828E+003
  7.0447672E+003
  6.5774779E+003
  6.6515663E+003
  2.0211472E+003
  6.8886669E+003
  2.6965992E+003
  8.6051393E+003
  4.3007176E+003
  1.0375130E+004
  3.5511296E+003
  1.4230555E+004
  6.7544195E+003
  3.1657676E+003
  3.1053128E+003
  4.3815245E+003
  6.5065608E+003
  6.8142080E+003
  6.9255015E+003
  7.2403838E+003
  7.2689445E+003
  6.9697063E+003
  6.4185487E+003
  5.7108071E+003
  4.8500626E+003
  3.7747714E+003
  2.4215060E+003
  7.4993066E+002
 -1.2791647E+003
 -3.5429786E+003
 -5.8604382E+003
 -8.0136284E+003
 -9.8673673E+003
 -1.1360727E+004
 -1.2589089E+004
 -1.3589043E+004
 -1.5171367E+004
 -1.5293410E+004
 -1.6318511E+004
 -2.3215335E+004
 -1.8148737E+004
  4.8337962E+003
  1.5713371E+004
  1.5455270E+004
  1.2834392E+004
  1.0641402E+004
  1.0133167E+004
  1.1283439E+004
  1.3211970E+004
  1.4966450E+004
  1.6009799E+004
  1.6082963E+004
  1.5014006E+004
  1.2535813E+004
  8.2906473E+003
  2.1871110E+003
 -5.0333260E+003
 -1.1126240E+004
 -1.3335749E+004
 -1.1436270E+004
 -8.2017240E+003
 -4.7778518E+003
 -7.6915466E+002
  5.4563983E+003
  8.3449522E+003
  9.9513359E+003
  1.1130385E+004
  1.2745425E+004
  1.2267502E+004
  2.2569592E+004
  2.4257770E+004
 -3.6575051E+003
 -1.0759190E+003
  2.0885470E+003
  7.5897421E+002
  3.6456001E+003
  4.9406693E+003
  5.8764887E+003
  6.5193251E+003
  6.5502535E+003
  6.4463588E+003
  6.2889132E+003
  5.9596186E+003
  5.5120609E+003
  4.9974550E+003
  4.4186636E+003
  3.6989879E+003
  2.7296635E+003
  1.2445082E+003
 -7.6267540E+002
 -3.2368923E+003
 -5.7842044E+003
 -8.0876284E+003
 -9.9293951E+003
 -1.1288634E+004
 -1.2160481E+004
 -1.3005923E+004
 -1.3836000E+004
 -1.9195756E+004
 -1.9830843E+004
 -1.5917158E+004
  1.5022630E+004
  1.5909036E+004
  1.2225697E+004
  8.8995484E+003
  8.6091727E+003
  1.0478832E+004
  1.3133463E+004
  1.5057871E+004
  1.5727518E+004
  1.5216866E+004
  1.3548266E+004
  1.0643873E+004
  6.4491904E+003
  1.1825984E+003
 -4.3489464E+003
 -8.8212369E+003
 -1.1059988E+004
 -1.0788808E+004
 -8.6835044E+003
 -5.5964457E+003
 -1.3606166E+003
  2.5321443E+003
  6.0374873E+003
  7.9854679E+003
  8.5487839E+003
  8.2286388E+003
  5.5119013E+003
  9.8307477E+003
  1.1203273E+004
  9.9343128E+003
  7.7042459E+003
  1.4637541E+003
  5.2934504E+003
  2.0487191E+003
  4.5076388E+003
  1.1877085E+003
  3.9485434E+003
  1.1255199E+003
  3.5887719E+003
  9.7380881E+002
  3.5410798E+003
  5.5364226E+002
  4.5726946E+003
  5.8871623E+003
  5.7926258E+003
  6.0858108E+003
  6.3403638E+003
  6.3507695E+003
  6.1656874E+003
  5.8331822E+003
  5.4262567E+003
  4.9995220E+003
  4.5801165E+003
  4.2113272E+003
  3.9046111E+003
  3.6600543E+003
  3.1598543E+003
  2.2120220E+003
  1.0515578E+002
 -2.7003540E+003
 -5.6970296E+003
 -8.2257056E+003
 -1.0116988E+004
 -1.1368883E+004
 -1.2097471E+004
 -1.2336156E+004
 -1.2306545E+004
 -1.4486080E+004
 -1.5715295E+004
 -7.9056202E+003
  1.5508648E+004
  1.3095438E+004
  7.4168136E+003
  5.7608520E+003
  9.7227262E+003
  1.3591854E+004
  1.5273596E+004
  1.5347612E+004
  1.4263199E+004
  1.2206801E+004
  9.2125361E+003
  5.3677747E+003
  9.6761077E+002
 -3.3935288E+003
 -6.9122841E+003
 -8.9014562E+003
 -9.1581259E+003
 -7.9261869E+003
 -5.5077544E+003
 -2.4215698E+003
  9.9201523E+002
  3.6731406E+003
  5.3330147E+003
  5.7522065E+003
  4.9706108E+003
  4.5551470E+003
  6.2960919E+003
  1.1090900E+004
  1.1105245E+004
  9.6995156E+003
  8.5214972E+003
  7.8327534E+003
  7.4992426E+003
  7.7278633E+003
  8.4685744E+003
  8.2266551E+003
  7.7608526E+003
  7.2555141E+003
  6.8221802E+003
  6.3749086E+003
  5.8312831E+003
  5.2206766E+003
  4.5911613E+003
  3.9968315E+003
  3.5196781E+003
  3.2042894E+003
  3.0977669E+003
  3.2033070E+003
  3.7808991E+003
  3.2885321E+003
  1.5579197E+003
 -2.0681771E+003
 -5.6268364E+003
 -8.4411608E+003
 -1.0338728E+004
 -1.1640953E+004
 -1.2278518E+004
 -1.2953194E+004
 -1.1727451E+004
 -1.4498905E+004
 -2.6162136E+004
 -2.2417390E+004
  1.1248655E+004
  5.9610371E+003
  4.4391478E+003
  1.0672697E+004
  1.4340952E+004
  1.5208981E+004
  1.4556190E+004
  1.3087092E+004
  1.0902528E+004
  8.0936156E+003
  4.7613395E+003
  1.1626575E+003
 -2.2833430E+003
 -5.0777202E+003
 -6.8107213E+003
 -7.2937555E+003
 -6.5834702E+003
 -4.9344508E+003
 -2.6596439E+003
 -2.9326395E+002
  1.7753942E+003
  3.1238818E+003
  3.6821750E+003
  3.8660300E+003
  4.6308128E+003
  6.9905684E+003
  9.0447994E+003
  1.0792006E+004
  1.0974752E+004
  1.0572456E+004
  1.0147420E+004
  9.9299030E+003
  9.9368965E+003
  9.8310855E+003
  9.5874427E+003
  8.8820538E+003
  8.0422344E+003
  7.1988414E+003
  6.3552448E+003
  5.4961255E+003
  4.6160538E+003
  3.7395523E+003
  2.9233967E+003
  2.2458577E+003
  1.8919308E+003
  1.7293331E+003
  2.0110219E+003
  3.3013324E+003
  6.3477873E+003
  4.0668154E+003
 -9.9275168E+002
 -5.7382064E+003
 -8.4462625E+003
 -1.0376581E+004
 -1.1709945E+004
 -1.2787690E+004
 -1.3088294E+004
 -1.4977998E+004
 -1.3851592E+004
 -1.1247142E+004
 -4.8478278E+003
 -3.0436310E+003
  8.3324041E+003
  1.4292449E+004
  1.3685516E+004
  1.3029025E+004
  1.1445417E+004
  9.5077854E+003
  7.1210976E+003
  4.4190655E+003
  1.5855895E+003
 -1.0889866E+003
 -3.2831786E+003
 -4.7286576E+003
 -5.2905584E+003
 -4.9909172E+003
 -3.9763019E+003
 -2.5074303E+003
 -8.6719147E+002
  6.2489505E+002
  1.8001457E+003
  2.6763377E+003
  3.5431756E+003
  4.8676592E+003
  6.6921914E+003
  8.9274173E+003
  1.0458852E+004
  1.1313119E+004
  1.1526423E+004
  1.1448144E+004
  1.1282515E+004
  1.1062614E+004
  1.0747050E+004
  1.0144312E+004
  9.3265208E+003
  8.3369880E+003
  7.2794052E+003
  6.2022971E+003
  5.1134380E+003
  4.0161278E+003
  2.9230277E+003
  1.8476562E+003
  8.8491375E+002
  3.5245053E+001
  8.9301181E+001
 -1.1075108E+003
  3.2966282E+002
  7.5838749E+003
  7.8174572E+003
 -1.4598733E+003
 -4.9419705E+003
 -7.8339437E+003
 -9.8307597E+003
 -1.1409786E+004
 -1.2489824E+004
 -1.3166506E+004
 -1.3540352E+004
 -9.4249389E+003
 -2.2022751E+003
  3.8639220E+002
  6.0876397E+003
  1.0799821E+004
  1.1025668E+004
  1.0377674E+004
  9.3810530E+003
  7.9676709E+003
  6.2311558E+003
  4.2437219E+003
  2.1626256E+003
  1.8858950E+002
 -1.4641321E+003
 -2.6210135E+003
 -3.1887154E+003
 -3.1733671E+003
 -2.6734606E+003
 -1.8404238E+003
 -8.4626591E+002
  1.9142856E+002
  1.2228205E+003
  2.2873937E+003
  3.5252018E+003
  5.0065437E+003
  6.7775512E+003
  8.5124793E+003
  1.0040915E+004
  1.1063187E+004
  1.1614991E+004
  1.1766559E+004
  1.1649297E+004
  1.1334126E+004
  1.0824621E+004
  1.0132346E+004
  9.2392415E+003
  8.2000388E+003
  7.0663224E+003
  5.8823047E+003
  4.6752784E+003
  3.4576880E+003
  2.2316640E+003
  9.8995945E+002
 -2.7220172E+002
 -1.5984215E+003
 -2.7965493E+003
 -5.6156389E+003
 -4.5534778E+003
  9.7433665E+003
  2.2035382E+004
  3.9626516E+003
 -2.9976369E+003
 -6.0908120E+003
 -8.8428170E+003
 -1.0484354E+004
 -1.1539303E+004
 -1.1715891E+004
 -1.0692590E+004
 -5.9404010E+003
 -2.2614952E+003
  5.8658321E+003
  6.4188363E+003
  6.9775547E+003
  6.8843445E+003
  7.3545298E+003
  7.0611228E+003
  6.4510120E+003
  5.4656241E+003
  4.2410343E+003
  2.8951749E+003
  1.5783846E+003
  4.3393806E+002
 -4.2431222E+002
 -9.3618136E+002
 -1.1050919E+003
 -9.9115521E+002
 -6.8293051E+002
 -2.3789850E+002
  3.5780436E+002
  1.1886541E+003
  2.3415167E+003
  3.6820180E+003
  5.2005141E+003
  6.6896143E+003
  8.1367458E+003
  9.4060926E+003
  1.0442315E+004
  1.1098695E+004
  1.1378988E+004
  1.1271872E+004
  1.0890429E+004
  1.0317563E+004
  9.5870715E+003
  8.7154382E+003
  7.7102197E+003
  6.5976070E+003
  5.4128182E+003
  4.1949201E+003
  2.9714441E+003
  1.7596787E+003
  5.1820028E+002
 -6.4049654E+002
 -2.1745020E+003
 -2.3603998E+003
 -2.9273262E+003
  7.4086023E+003
  5.1271224E+003
  3.6742703E+001
 -5.0678062E+003
 -7.5571371E+003
 -9.2945490E+003
 -1.0044124E+004
 -9.7655008E+003
 -8.1813796E+003
 -4.4252057E+003
 -1.1639155E+003
  1.6101955E+004
  4.5607852E+003
  1.5474121E+003
  3.7019520E+003
  4.4029039E+003
  5.0720010E+003
  5.1809139E+003
  4.9635154E+003
  4.4721592E+003
  3.8262158E+003
  3.1281315E+003
  2.4716317E+003
  1.9244565E+003
  1.5227404E+003
  1.2660699E+003
  1.1184013E+003
  1.0195214E+003
  9.4784915E+002
  1.0476144E+003
  1.5869214E+003
  2.6279805E+003
  4.1968354E+003
  5.4691075E+003
  6.5574685E+003
  7.4654986E+003
  8.4076143E+003
  9.3228950E+003
  1.0121273E+004
  1.0393727E+004
  1.0255603E+004
  9.8092316E+003
  9.2332995E+003
  8.5781388E+003
  7.8202813E+003
  6.9355233E+003
  5.9264559E+003
  4.8221217E+003
  3.6772553E+003
  2.5594366E+003
  1.5002364E+003
  4.8330567E+002
 -4.5144695E+002
 -8.9380427E+002
 -6.9469396E+002
  1.5581436E+003
 -1.1180296E+003
  3.6118565E+002
 -1.5768184E+003
 -4.6250180E+003
 -6.8115266E+003
 -8.0465869E+003
 -8.4863538E+003
 -7.9346638E+003
 -6.3796565E+003
 -3.2653082E+003
 -9.5537754E+002
  1.5746948E+004
  4.5947301E+003
  5.9497222E+003
  1.9916191E+003
  4.2031419E+002
  1.4042665E+003
  2.6712646E+003
  3.7061748E+003
  4.4345364E+003
  4.8462073E+003
  5.0121454E+003
  5.0024992E+003
  4.8822696E+003
  4.6971950E+003
  4.4738565E+003
  4.2258933E+003
  3.9659189E+003
  3.6887138E+003
  3.3473839E+003
  2.8560110E+003
  2.2875699E+003
  2.2951541E+003
  3.6095949E+003
  4.7561825E+003
  5.9556391E+003
  6.1906632E+003
  6.3074941E+003
  6.7522482E+003
  7.6884525E+003
  8.3970422E+003
  8.8816754E+003
  8.5856876E+003
  8.0875328E+003
  7.6236229E+003
  7.1747307E+003
  6.6321651E+003
  5.9448194E+003
  5.1072147E+003
  4.1484711E+003
  3.1255364E+003
  2.1643853E+003
  1.3718426E+003
  7.1864429E+002
  1.0321964E+002
 -5.9891715E+001
  6.6369074E+001
 -7.3549363E+002
 -2.4993689E+003
 -4.2635609E+003
 -5.3169601E+003
 -6.3198158E+003
 -6.9673670E+003
 -7.0846995E+003
 -6.4482179E+003
 -5.0360301E+003
 -2.5399185E+003
 -6.9065002E+002
  4.2816280E+003
  5.2643977E+003
  3.7323660E+003
  9.0812937E+002
  1.0078524E+003
  1.9958093E+003
  3.2095909E+003
  4.2923001E+003
  5.1864025E+003
  5.8944290E+003
  6.4470435E+003
  6.8616914E+003
  7.1353522E+003
  7.2461333E+003
  7.1779839E+003
  6.9517508E+003
  6.6610322E+003
  6.3294805E+003
  5.7528762E+003
  4.6412400E+003
  3.5155747E+003
  4.0563225E+003
  7.2472893E+003
  6.6496907E+003
  5.3448041E+003
  4.5054998E+003
  4.2952908E+003
  4.8765359E+003
  6.7043552E+003
  6.7310966E+003
  6.1344232E+003
  5.6758770E+003
  5.5794892E+003
  5.4704387E+003
  5.2124026E+003
  4.7680038E+003
  4.1533837E+003
  3.3942022E+003
  2.5615062E+003
  1.7196732E+003
  1.2853490E+003
  7.5186405E+002
  4.0488389E+002
  1.9849900E+002
 -1.3885497E+003
 -4.9453388E+003
 -6.3247807E+003
 -5.7238834E+003
 -5.7747911E+003
 -5.9601500E+003
 -5.8978556E+003
 -5.3056730E+003
 -4.1126450E+003
 -2.0499363E+003
 -5.5516710E+002
  6.3787770E+002
  1.8829278E+003
  1.9645167E+003
  1.1252704E+003
  1.2189867E+003
  2.1558090E+003
  3.4201460E+003
  4.7186648E+003
  5.9526616E+003
  7.0976025E+003
  8.1399891E+003
  9.0512899E+003
  9.7759610E+003
  1.0236509E+004
  1.0351837E+004
  1.0141085E+004
  9.7770703E+003
  9.6669801E+003
  9.7527261E+003
  8.9490325E+003
  6.2023194E+003
  8.5432781E+003
  8.4145250E+003
  4.8724074E+003
  2.6973132E+003
  2.1562705E+003
  1.4248952E+003
  8.8462618E+002
  1.9652238E+003
  3.1957592E+003
  2.3086367E+003
  2.9174863E+003
  3.4280595E+003
  3.7145919E+003
  3.7112021E+003
  3.4927240E+003
  3.1178427E+003
  2.6135824E+003
  2.0422358E+003
  1.4087173E+003
  1.4744575E+003
  6.6439033E+002
  3.8535024E+001
 -7.0252594E+003
 -7.5442443E+003
 -6.5553521E+003
 -4.8901181E+003
 -4.9444658E+003
 -4.9140688E+003
 -4.9036056E+003
 -4.4921789E+003
 -3.5744798E+003
 -1.8136508E+003
 -4.9793030E+002
 -1.8327283E+002
 -3.2079279E+002
 -1.5163600E+002
  5.2565806E+002
  1.5261117E+003
  2.7611434E+003
  4.1255778E+003
  5.5623578E+003
  7.0446361E+003
  8.5470486E+003
  1.0022838E+004
  1.1397665E+004
  1.2569914E+004
  1.3396011E+004
  1.3728870E+004
  1.3422405E+004
  1.2721658E+004
  1.2523140E+004
  1.3381937E+004
  1.5898479E+004
  1.3127458E+004
  2.0514214E+004
  8.2092748E+003
  5.0512993E+002
  1.1331302E+003
  2.9476097E+002
  4.7015035E+002
 -1.5355856E+003
 -6.0859993E+003
 -1.3469414E+003
 -7.3726754E+002
  7.4812389E+002
  1.4303012E+003
  1.7642271E+003
  1.8422982E+003
  1.7727241E+003
  1.6196334E+003
  1.4405641E+003
  1.1709117E+003
  1.1833406E+003
  1.2898300E+003
 -1.7754035E+004
 -6.8779222E+003
 -3.3576111E+003
 -4.0522275E+003
 -3.7194623E+003
 -3.9283094E+003
 -4.0485041E+003
 -3.9856674E+003
 -3.4381748E+003
 -1.8633201E+003
 -5.1506235E+002
 -9.7998067E+002
 -2.4167079E+003
 -2.1108677E+003
  1.2742812E+002
  2.1014768E+003
  3.6724031E+003
  5.1207287E+003
  6.6466968E+003
  8.3234189E+003
  1.0144312E+004
  1.2021878E+004
  1.3823278E+004
  1.5415367E+004
  1.6640914E+004
  1.7165564E+004
  1.6914873E+004
  1.5673318E+004
  1.3863164E+004
  1.6137775E+004
  1.4970435E+004
  1.4977634E+004
  2.1800216E+004
 -7.3514684E+003
 -1.9505947E+003
 -1.5769163E+003
  1.1776476E+002
  3.1580293E+002
  5.2371691E+002
  5.4756678E+002
  5.4301601E+002
  4.8621233E+002
  5.3903682E+002
  3.6931738E+002
  5.7095320E+002
 -1.5855644E+004
 -5.4328584E+003
 -8.1015680E+003
 -5.7517856E+003
 -3.4858655E+003
 -3.0566253E+003
 -2.8994491E+003
 -2.9693362E+003
 -3.2911229E+003
 -3.6706377E+003
 -3.7697297E+003
 -2.3507389E+003
 -8.6477678E+002
 -4.3473823E+003
 -5.4447024E+003
 -3.4426305E+003
  9.4154710E+002
  3.1831719E+003
  4.8007481E+003
  6.2304911E+003
  7.8028557E+003
  9.6464566E+003
  1.1791981E+004
  1.4106421E+004
  1.6306108E+004
  1.8193290E+004
  1.9705086E+004
  2.0725843E+004
  1.9571797E+004
  1.8719018E+004
  1.5623899E+004
  2.0243388E+004
  9.8466573E+003
  4.3401928E+003
 -5.4127165E+003
 -9.5194282E+003
 -8.9927805E+003
 -4.7338085E+003
 -3.1006468E+003
 -2.3544549E+003
 -2.1540920E+003
 -2.4234701E+003
 -3.2737536E+003
 -4.3806012E+003
 -3.3611078E+003
 -1.1176537E+003
 -4.2366605E+003
 -5.7821867E+003
 -1.2932625E+003
  2.6196583E+003
  4.4423803E+003
  5.9022189E+003
  7.3226887E+003
  8.8996000E+003
  1.0887225E+004
  1.3407282E+004
  1.6281851E+004
  1.9009314E+004
  2.0916220E+004
  2.2308730E+004
  2.3278798E+004
  2.3646735E+004
  1.8034004E+004
  1.6717591E+004
  1.8166193E+004
 -6.2215257E+003
 -8.4268254E+003
 -8.0747092E+003
 -4.9208402E+003
 -3.2245662E+003
 -2.0646107E+003
 -1.4966963E+003
 -1.4243948E+003
 -2.1020569E+003
 -4.9651407E+003
 -5.7761756E+003
 -4.2119265E+003
 -1.4928536E+004
 -1.5362979E+004
 -2.6661472E+003
  3.6091731E+003
  4.8834582E+003
  6.9394844E+003
  8.3430753E+003
  9.9283084E+003
  1.1962049E+004
  1.4856512E+004
  1.8633381E+004
  2.2352867E+004
  2.4723550E+004
  2.4031942E+004
  2.5923627E+004
  1.9452929E+004
  1.4248668E+004
  1.2679425E+004
 -1.3464908E+004
 -6.7523778E+003
 -4.6951035E+003
 -4.4307730E+003
 -3.0098028E+003
 -2.0179435E+003
 -1.2389852E+003
 -7.3842707E+002
 -6.4654018E+002
 -2.6443520E+003
 -5.8948184E+003
 -4.1996259E+003
 -5.1820670E+003
 -2.9900609E+003
  1.6899297E+003
  5.7338369E+003
  7.8445885E+003
  9.6145641E+003
  1.1082093E+004
  1.2882817E+004
  1.5979699E+004
  2.0822297E+004
  2.6099227E+004
  3.0237887E+004
  2.8671855E+004
  3.2135527E+004
  1.3999502E+004
  2.1059013E+003
 -1.1395004E+004
 -3.6982840E+003
 -5.9985656E+003
 -5.1040711E+003
 -4.2064365E+003
 -3.8776635E+003
 -3.1158107E+003
 -2.2962605E+003
 -1.5195874E+003
 -1.3796436E+003
 -4.9002181E+002
 -4.2157122E+003
 -1.4939659E+004
 -1.4242458E+004
  3.8245830E+001
 -3.8439686E+001
  3.1179863E+003
  6.7924084E+003
  9.4786467E+003
  1.1433365E+004
  1.2906840E+004
  1.4196115E+004
  1.6339273E+004
  2.2843595E+004
  3.2439815E+004
  3.6234060E+004
  3.4529154E+004
  3.2842328E+004
 -3.8512800E+003
 -6.3825083E+003
 -7.1173252E+003
 -5.2691926E+003
 -4.4044617E+003
 -3.5888801E+003
 -2.8797869E+003
 -2.4705129E+003
 -2.2223993E+003
 -3.6639004E+003
 -5.2355617E+003
 -5.5798754E+003
  8.2319876E+002
  2.9585694E+003
  6.2533943E+003
  9.0530319E+003
  1.1776025E+004
  1.4095835E+004
  1.5972329E+004
  1.7107528E+004
  1.7999733E+004
  2.0411458E+004
  3.4509686E+004
  4.3176071E+004
  3.7040060E+004
 -1.7778470E+003
 -4.8234723E+003
 -7.1646096E+003
 -6.2672062E+003
 -5.1396373E+003
 -4.2219580E+003
 -3.5988768E+003
 -3.2733465E+003
 -3.3943085E+003
 -4.1403573E+003
 -3.5007233E+003
 -7.7787803E+002
  1.6671018E+003
  6.0302699E+003
  9.3415965E+003
  1.1488394E+004
  1.4447104E+004
  1.7447815E+004
  1.9915191E+004
  2.2765205E+004
  2.3093522E+004
  3.0196945E+004
  5.4293824E+004
  5.8818587E+004
 -1.5140533E+003
 -5.2366568E+003
 -7.1969086E+003
 -6.3536123E+003
 -5.4410929E+003
 -4.6535637E+003
 -4.0990744E+003
 -3.8031618E+003
 -3.6830939E+003
 -3.5144075E+003
 -1.9974520E+003
 -8.6854331E+002
  6.8914259E+003
  8.5473195E+003
  1.0639700E+004
  1.3143988E+004
  1.7232787E+004
  2.0651643E+004
  2.4223510E+004
  2.6740212E+004
  3.2800052E+004
  3.0253282E+004
  2.4629960E+004
 -5.0581131E+003
 -6.2343173E+003
 -6.5703965E+003
 -5.5767076E+003
 -5.2729468E+003
 -4.7272424E+003
 -4.3090480E+003
 -3.9431614E+003
 -3.5387798E+003
 -2.8816871E+003
 -1.5604294E+003
 -3.7647433E+002
  1.7186391E+004
  7.5991711E+003
  8.7925856E+003
  1.5575455E+004
  1.9797380E+004
  2.3541557E+004
  2.6494921E+004
  2.9249541E+004
  3.1399751E+004
  2.1755640E+004
  4.1614050E+003
 -1.1982247E+004
 -5.5548818E+003
 -4.0549841E+003
 -4.9795335E+003
 -4.7885752E+003
 -4.6417607E+003
 -4.2958232E+003
 -3.8834238E+003
 -3.3041625E+003
 -2.5177488E+003
 -1.2463605E+003
 -3.5981044E+002
  1.6979639E+004
 -2.8549147E+002
  2.7535038E+003
  5.4188222E+003
  1.2424720E+004
  1.8543771E+004
  2.2949586E+004
  2.5723666E+004
  2.7290832E+004
  2.7416393E+004
  2.7443474E+004
  1.8513699E+004
  9.7736303E+003
 -1.0482094E+004
 -3.3224358E+003
 -5.4298474E+003
 -4.5520838E+003
 -4.0678940E+003
 -4.5078358E+003
 -4.6625959E+003
 -4.5434060E+003
 -4.2422847E+003
 -3.7769613E+003
 -3.1234599E+003
 -2.2871067E+003
 -1.1161184E+003
 -2.9663395E+002
 -2.2454074E+002
  1.2204823E+003
  1.1455616E+004
  1.8222127E+004
  2.2844866E+004
  2.6051094E+004
  2.7790578E+004
  2.7498105E+004
  2.4647967E+004
  2.0814309E+004
  1.5315362E+004
  6.9648861E+003
 -3.5509361E+003
 -5.7144021E+003
 -6.5049560E+003
 -5.1811901E+003
 -4.9812683E+003
 -4.8225791E+003
 -4.5998034E+003
 -4.2281982E+003
 -3.7107697E+003
 -3.0131001E+003
 -2.1693067E+003
 -1.0441456E+003
 -2.8385339E+002
 -2.0985790E+004
 -1.5504758E+004
  8.6934022E+003
  2.2287595E+004
  2.5293349E+004
  2.8844867E+004
  2.9687042E+004
  2.8917526E+004
  2.4321841E+004
  2.0767889E+004
  2.5687803E+004
  1.8967380E+004
 -1.3187518E+003
 -4.2371508E+003
 -6.3791165E+003
 -6.1097649E+003
 -5.5876853E+003
 -5.1318313E+003
 -4.7238776E+003
 -4.2627452E+003
 -3.6946617E+003
 -2.9725647E+003
 -2.1246754E+003
 -1.0210672E+003
 -2.7653514E+002
 -2.3124316E+003
  6.4779415E+003
  1.9420609E+004
  2.6813484E+004
  3.0300780E+004
  3.1667771E+004
  3.0110084E+004
  2.8212887E+004
  2.0343764E+004
  1.2820747E+004
 -1.5118726E+003
 -3.8046488E+003
 -6.2984174E+003
 -6.3020281E+003
 -5.8330142E+003
 -5.2765556E+003
 -4.7918489E+003
 -4.2910688E+003
 -3.7108004E+003
 -2.9864907E+003
 -2.1389148E+003
 -1.0301889E+003
 -2.8069743E+002
  2.3954583E+003
  8.1229255E+003
  1.9161124E+004
  2.6910373E+004
  3.1335353E+004
  3.2648186E+004
  3.1285569E+004
  2.7758443E+004
  1.6840744E+004
  4.5670122E+003
 -1.1410958E+003
 -4.4559708E+003
 -6.2841221E+003
 -5.9556180E+003
 -5.5518252E+003
 -5.1260737E+003
 -4.7120635E+003
 -4.2717753E+003
 -3.7398950E+003
 -3.0480988E+003
 -2.2082385E+003
 -1.0719886E+003
 -2.9339683E+002
  2.6998511E+003
  1.0292235E+004
  2.0658427E+004
  2.7741687E+004
  3.1938578E+004
  3.2920008E+004
  3.0808324E+004
  2.5794171E+004
  1.3989019E+004
  4.7911775E+003
 -4.7059657E+003
 -5.5364162E+003
 -5.6556038E+003
 -4.9001340E+003
 -4.9276064E+003
 -4.7043474E+003
 -4.4981071E+003
 -4.1996894E+003
 -3.7833312E+003
 -3.1651808E+003
 -2.3466262E+003
 -1.1561536E+003
 -3.2000087E+002
  3.3558521E+003
  1.1620087E+004
  2.2809341E+004
  2.9231139E+004
  3.2451871E+004
  3.2389990E+004
  2.9358686E+004
  2.3635613E+004
  1.2726852E+004
  3.7798519E+003
 -1.1388550E+004
 -4.7925114E+003
 -3.1045768E+003
 -4.0560136E+003
 -4.0778084E+003
 -4.2288949E+003
 -4.2065125E+003
 -4.1063214E+003
 -3.8556227E+003
 -3.3607185E+003
 -2.5850187E+003
 -1.3056251E+003
 -3.6567205E+002
  4.0236602E+003
  1.3452796E+004
  2.5836205E+004
  3.1251796E+004
  3.2728259E+004
  3.0993524E+004
  2.7025369E+004
  2.1361940E+004
  1.1313226E+004
  3.7432265E+003
 -1.0189240E+004
 -3.1851288E+003
 -4.9661957E+003
 -3.6940981E+003
 -2.9558441E+003
 -3.3123576E+003
 -3.5970281E+003
 -3.7838219E+003
 -3.9261870E+003
 -4.0047894E+003
 -3.9662913E+003
 -3.6575833E+003
 -2.9755259E+003
 -1.5640029E+003
 -4.6037874E+002
  4.4984042E+003
  1.7464561E+004
  3.0525531E+004
  3.3880274E+004
  3.2220598E+004
  2.8176605E+004
  2.3280141E+004
  1.8217249E+004
  1.0143160E+004
  2.8218950E+003
 -3.2826420E+003
 -5.1616073E+003
 -5.4373381E+003
 -3.8060246E+003
 -3.4320302E+003
 -3.3587820E+003
 -3.4642189E+003
 -3.6439870E+003
 -3.8735033E+003
 -4.0789348E+003
 -4.0579301E+003
 -3.5734808E+003
 -1.9956619E+003
 -5.9182337E+002
  9.8119499E+003
  2.3258534E+004
  3.9081678E+004
  3.5936219E+004
  2.9712789E+004
  2.3219563E+004
  1.7404204E+004
  1.3134278E+004
  8.5835758E+003
  5.1911832E+003
 -1.3459853E+003
 -3.6323804E+003
 -5.2158789E+003
 -4.3773319E+003
 -3.5955301E+003
 -3.2067818E+003
 -3.1521667E+003
 -3.3114566E+003
 -3.6337804E+003
 -4.0892918E+003
 -4.4750819E+003
 -4.4642049E+003
 -2.7587355E+003
 -1.0109539E+003
  1.2393429E+004
  4.3776614E+004
  4.8349517E+004
  3.3880463E+004
  2.3514788E+004
  1.5836676E+004
  1.0018760E+004
  5.1625020E+003
  3.4289272E+003
  8.9499171E+003
 -1.0821349E+003
 -3.6982111E+003
 -4.8949617E+003
 -4.0663865E+003
 -3.3336517E+003
 -2.8781419E+003
 -2.7470985E+003
 -2.8829559E+003
 -3.2338616E+003
 -3.8216084E+003
 -4.6721761E+003
 -5.5036606E+003
 -3.9355816E+003
 -1.3134579E+003
  6.4471367E+004
  6.3829923E+004
  4.7391387E+004
  2.2341735E+004
  1.4602082E+004
  6.7237323E+003
  1.9446669E+003
 -1.4491434E+003
 -2.1049408E+003
  2.3882048E+003
  3.9049112E+003
  9.8036821E+003
 -3.6678665E+003
 -4.2650229E+003
 -4.0892841E+003
 -3.0673306E+003
 -2.6879978E+003
 -2.3152458E+003
 -2.2383668E+003
 -2.4017999E+003
 -2.7603104E+003
 -3.3095368E+003
 -4.0918053E+003
 -6.4263159E+003
 -6.3914864E+003
 -4.2668348E+003
  1.9501126E+005
  7.9955285E+004
  1.3508119E+004
  1.4969190E+004
  2.6562321E+003
 -1.3977928E+003
 -5.2538698E+003
 -6.6135797E+003
 -4.4615263E+003
 -3.5270499E+002
  1.7979963E+003
 -9.1088198E+003
 -3.6899373E+003
 -1.9634846E+003
 -2.2565111E+003
 -1.8371958E+003
 -1.7012552E+003
 -1.6976433E+003
 -1.9655395E+003
 -2.4793698E+003
 -3.0475254E+003
 -3.3762321E+003
 -4.6561210E+003
 -6.4743585E+003
 -4.3118516E+003
  8.1784264E+004
  5.5137382E+004
  1.6791114E+004
  3.2109600E+003
 -3.2935153E+003
 -8.0463173E+003
 -1.0535240E+004
 -1.1048321E+004
 -9.4820889E+003
 -4.9849376E+003
 -1.9031860E+003
 -8.0330682E+003
 -2.6136367E+003
 -4.0826502E+003
 -3.0685867E+003
 -1.8992315E+003
 -1.5783438E+003
 -1.3161104E+003
 -1.1629110E+003
 -1.2237654E+003
 -1.6417896E+003
 -2.4133036E+003
 -3.8825987E+003
 -4.2647263E+003
 -6.9709790E+003
 -1.5199548E+004
 -1.3239847E+004
  6.3464609E+004
  4.9469442E+004
  1.9596752E+004
  2.8766659E+003
 -6.2388194E+003
 -1.1156023E+004
 -1.3888059E+004
 -1.4518305E+004
 -1.3813566E+004
 -9.6978744E+003
 -2.8107480E+003
 -2.7183433E+003
 -4.9535753E+003
 -4.7973563E+003
 -2.5735409E+003
 -1.6079251E+003
 -1.0822535E+003
 -8.4440945E+002
 -8.7837709E+002
 -1.2867528E+003
 -2.4582345E+003
 -4.4297512E+003
 -8.2823954E+003
 -9.1905574E+003
 -6.9952312E+003
  4.2492891E+004
  3.4809190E+004
  1.8931193E+004
  3.9991858E+003
 -5.9384943E+003
 -1.1876428E+004
 -1.5099857E+004
 -1.6390002E+004
 -1.5704578E+004
 -1.3472100E+004
 -6.8351888E+003
 -3.1502189E+003
  3.2826412E+003
 -3.4486183E+003
 -4.7245542E+003
 -4.5579981E+003
 -2.7547155E+003
 -1.7640997E+003
 -1.0859593E+003
 -7.6432106E+002
 -7.0545505E+002
 -9.8408949E+002
 -1.9028158E+003
 -3.9871890E+003
 -9.3156205E+003
 -1.0509034E+004
 -6.1610860E+003
  3.0902774E+004
  2.7320808E+004
  1.5359863E+004
  4.1534715E+003
 -4.9633183E+003
 -1.1090300E+004
 -1.4776400E+004
 -1.6416462E+004
 -1.6226540E+004
 -1.4034262E+004
 -1.0640434E+004
 -8.9399281E+003
 -7.7747021E+003
 -4.2300668E+003
 -2.9175640E+003
 -2.5447563E+003
 -1.7521961E+003
 -1.2613938E+003
 -9.4320105E+002
 -8.3218760E+002
 -9.6083754E+002
 -1.3733710E+003
 -2.2220573E+003
 -5.3725023E+003
 -8.9620272E+003
 -6.3397496E+003
  2.7097408E+004
  1.9489463E+004
  1.1904855E+004
  3.2135954E+003
 -4.0904511E+003
 -9.7742670E+003
 -1.3498791E+004
 -1.5427797E+004
 -1.5699778E+004
 -1.4520068E+004
 -1.2540455E+004
 -1.0211788E+004
 -8.2788860E+003
 -6.6654590E+003
 -5.6394613E+003
 -3.5239440E+003
 -4.2822229E+003
 -3.3883631E+003
 -2.4062033E+003
 -2.2257300E+003
 -1.8932809E+003
 -1.6071311E+003
 -1.4094482E+003
 -1.3910628E+003
 -1.4213521E+003
 -2.1544112E+003
 -1.7800049E+003
 -6.5545578E+003
 -1.9975271E+004
 -1.8435609E+004
  8.6937309E+003
  1.5430680E+004
  7.2629894E+003
  2.6390764E+003
 -3.5155227E+003
 -8.2971341E+003
 -1.1839888E+004
 -1.3924636E+004
 -1.4690059E+004
 -1.4576742E+004
 -1.3833192E+004
 -1.4688217E+004
 -1.1581928E+004
 -8.2917168E+003
 -1.0353938E+003
 -5.2999827E+003
 -4.4912619E+003
 -3.4421731E+003
 -2.7334534E+003
 -2.4257845E+003
 -2.3035765E+003
 -2.1965955E+003
 -2.1623849E+003
 -2.2198044E+003
 -2.6029930E+003
 -3.0237497E+003
 -5.4048750E+003
 -7.3867798E+003
 -7.5768303E+003
 -1.5916021E+004
  4.4821006E+003
  4.1999192E+003
  1.0146931E+004
  6.1440270E+003
  1.8993507E+003
 -2.7810624E+003
 -6.8978773E+003
 -1.0077108E+004
 -1.2180709E+004
 -1.3314002E+004
 -1.3734785E+004
 -1.4021890E+004
 -1.4152377E+004
 -1.5247999E+004
 -1.9796727E+004
 -2.9050925E+003
 -1.0581020E+003
 -2.2839026E+003
 -2.9019492E+003
 -3.1954299E+003
 -3.1376738E+003
 -3.0295987E+003
 -3.0015107E+003
 -3.0166927E+003
 -3.0752932E+003
 -3.2374392E+003
 -3.5800918E+003
 -4.2806750E+003
 -5.5443774E+003
 -4.6814064E+003
 -9.9888667E+002
  7.1226912E+003
  8.6755542E+003
  8.4803198E+003
  5.3907175E+003
  1.6690170E+003
 -2.1533265E+003
 -5.5939892E+003
 -8.3726561E+003
 -1.0352431E+004
 -1.1576653E+004
 -1.2213699E+004
 -1.2508835E+004
 -1.2468690E+004
 -1.2846790E+004
 -1.3620183E+004
 -2.2756002E+004
 -2.1658713E+004
  1.1542707E+003
  2.0980661E+003
 -4.3106960E+002
 -2.5915930E+003
 -3.1974270E+003
 -3.5184753E+003
 -3.7229445E+003
 -3.8320798E+003
 -3.9086036E+003
 -3.9843013E+003
 -4.0685678E+003
 -4.1711528E+003
 -4.3381014E+003
 -4.4976247E+003
 -4.4003364E+003
 -2.5044308E+003
 -1.0863464E+003
  3.6332813E+003
  5.3285913E+003
  5.7684774E+003
  4.1086497E+003
  1.3066042E+003
 -1.6819092E+003
 -4.4767991E+003
 -6.8097736E+003
 -8.5542431E+003
 -9.6977630E+003
 -1.0309728E+004
 -1.0526712E+004
 -1.0465924E+004
 -1.1041103E+004
 -1.1325065E+004
 -1.6325765E+004
 -1.3921767E+004
 -1.2114153E+004
 -1.8828090E+004
 -7.6076424E+003
  3.8927902E+003
  5.3908528E+003
  2.2373525E+003
 -6.3930872E+002
 -2.4277790E+003
 -3.5873509E+003
 -4.1964215E+003
 -4.5542106E+003
 -4.7832259E+003
 -4.9334834E+003
 -5.0293330E+003
 -5.0701152E+003
 -5.0266612E+003
 -4.8336200E+003
 -4.3368695E+003
 -3.4024278E+003
 -1.7301239E+003
 -4.0975925E+002
  6.2859185E+003
  4.3077032E+003
  3.8206999E+003
  2.5790962E+003
  7.9666000E+002
 -1.4024158E+003
 -3.5591943E+003
 -5.4408367E+003
 -6.8983582E+003
 -7.8845961E+003
 -8.4280603E+003
 -8.6278699E+003
 -8.7186670E+003
 -8.9083746E+003
 -9.9540180E+003
 -1.2149477E+004
 -1.3402269E+004
 -1.4753032E+004
 -1.2131978E+004
 -1.0498889E+004
 -1.8060453E+004
 -1.3217119E+004
  8.4990271E+003
  9.7268845E+003
  3.4621570E+003
  1.1978223E+003
 -1.4309396E+003
 -3.1660648E+003
 -4.3502518E+003
 -5.0857078E+003
 -5.5482502E+003
 -5.8394862E+003
 -6.0173426E+003
 -6.0992896E+003
 -6.0694314E+003
 -5.8683037E+003
 -5.3581623E+003
 -4.3349590E+003
 -2.7919482E+003
 -1.1734602E+003
 -1.1109258E+002
  5.1612643E+002
  3.1756220E+003
  1.8054162E+003
  1.5725049E+003
  3.1287114E+002
 -1.1899051E+003
 -2.8117898E+003
 -4.2778739E+003
 -5.4561408E+003
 -6.2800675E+003
 -6.7611363E+003
 -6.9885593E+003
 -7.1186252E+003
 -7.4437024E+003
 -8.1983481E+003
 -9.1598912E+003
 -9.3072112E+003
 -1.0040331E+004
 -8.6724165E+003
 -8.7233265E+003
 -8.5629159E+003
 -7.2750540E+003
 -6.6674582E+003
 -1.6146741E+003
 -7.4629241E+003
 -5.2454282E+003
 -7.1957852E+003
 -5.0851506E+003
 -1.6552726E+004
 -1.5493097E+004
  8.0130982E+003
  1.0782456E+004
  6.2910649E+003
  6.3809646E+003
  5.3271304E+003
  5.4591389E+002
 -9.5535322E+002
 -2.8638801E+003
 -4.3093494E+003
 -5.4050586E+003
 -6.1501961E+003
 -6.6401034E+003
 -6.9456800E+003
 -7.1127349E+003
 -7.1548649E+003
 -7.0558805E+003
 -6.7467184E+003
 -6.1124328E+003
 -4.8519493E+003
 -2.6359593E+003
 -2.4828065E+002
 -5.4620411E+001
 -3.5443267E+003
  2.5726909E+003
 -4.3675213E+002
  1.6332400E+003
  1.1302504E+003
  9.8877284E+002
  1.3403774E+002
 -9.5936894E+002
 -2.1739022E+003
 -3.3109314E+003
 -4.2530743E+003
 -4.9380194E+003
 -5.3681234E+003
 -5.6046761E+003
 -5.7689272E+003
 -5.9972932E+003
 -6.3315222E+003
 -6.5929019E+003
 -6.7511594E+003
 -6.1005161E+003
 -4.8148950E+003
 -5.0235518E+003
 -7.6897227E+003
 -7.7214410E+003
 -7.1899928E+003
 -4.0343710E+003
 -6.1322985E+003
 -8.1805074E+003
 -7.0698272E+003
 -7.0745247E+003
 -1.9975232E+003
 -6.0965643E+003
 -2.4043647E+003
 -5.7026609E+003
 -1.9107915E+003
 -4.8294709E+003
 -1.6829082E+003
 -3.5621333E+003
 -1.1230812E+003
 -1.7909914E+003
 -5.4744375E+002
 -1.7350304E+002
  2.8043429E+001
  1.1747054E+003
  7.6405396E+002
  2.8747988E+003
  8.5364028E+002
  4.6877929E+003
  4.4308029E+003
  4.3329089E+003
  2.7282429E+003
  1.2848072E+003
 -1.1982593E+003
 -3.0999363E+003
 -4.5118718E+003
 -5.7151394E+003
 -6.6496000E+003
 -7.3265712E+003
 -7.7811613E+003
 -8.0549656E+003
 -8.1766710E+003
 -8.1574114E+003
 -7.9792152E+003
 -7.6264461E+003
 -6.9580358E+003
 -6.0374157E+003
 -3.6965047E+003
  2.9244178E+002
  2.7581146E+003
 -3.7494002E+003
  4.6254652E+002
  1.1971329E+003
  1.4546637E+003
  8.9004846E+002
  2.2485299E+002
 -6.7050275E+002
 -1.6188465E+003
 -2.5214768E+003
 -3.2850226E+003
 -3.8621361E+003
 -4.2484339E+003
 -4.4820761E+003
 -4.6279885E+003
 -4.7416460E+003
 -4.8161955E+003
 -4.7875022E+003
 -4.4572292E+003
 -3.8917588E+003
 -3.5431220E+003
 -3.9385976E+003
 -4.2116759E+003
 -4.4412865E+003
 -3.2219877E+003
 -1.9983373E+003
 -2.9230873E+003
 -7.7680931E+003
 -9.6281671E+003
 -9.7565751E+003
 -9.4217381E+003
 -8.3770764E+003
 -6.2417349E+003
 -3.8934181E+003
 -1.1953453E+003
  9.4408677E+002
  2.4907181E+003
  2.9995031E+003
  9.1346228E+002
 -6.0294019E+002
 -1.7060321E+003
 -3.3024656E+003
 -4.8665342E+003
 -6.1461480E+003
 -7.1655214E+003
 -7.9619532E+003
 -8.5409259E+003
 -8.9223202E+003
 -9.1289331E+003
 -9.1771782E+003
 -9.0662306E+003
 -8.7962144E+003
 -8.3122480E+003
 -7.7488254E+003
 -6.6531234E+003
 -6.5656636E+003
 -1.6013475E+003
  9.7480834E+003
  9.0284550E+002
  1.4820117E+003
  2.1186566E+003
  1.6964438E+003
  1.1327775E+003
  4.1044032E+002
 -3.6122408E+002
 -1.1544895E+003
 -1.8977179E+003
 -2.5365720E+003
 -3.0362620E+003
 -3.3902686E+003
 -3.6162970E+003
 -3.7434407E+003
 -3.7900624E+003
 -3.7461350E+003
 -3.5597927E+003
 -3.2122127E+003
 -2.7599490E+003
 -2.3886960E+003
 -2.1962386E+003
 -2.1884807E+003
 -1.7048015E+003
 -1.1206371E+003
 -1.1838643E+003
 -3.1074122E+003
 -5.4287790E+003
 -8.1631035E+003
 -9.6603597E+003
 -9.4696517E+003
 -9.4951217E+003
 -8.7594940E+003
 -4.8371828E+003
 -2.5700335E+003
 -1.6119094E+003
 -4.2920761E+002
 -2.7364157E+002
 -9.7748046E+002
 -2.4756020E+003
 -3.9198023E+003
 -5.2569005E+003
 -6.5579644E+003
 -7.6861844E+003
 -8.5846531E+003
 -9.2605571E+003
 -9.7330148E+003
 -1.0020496E+004
 -1.0138728E+004
 -1.0093260E+004
 -9.8764030E+003
 -9.4610084E+003
 -8.8277573E+003
 -7.9201218E+003
 -6.8608978E+003
 -5.6571139E+003
 -3.9403192E+003
  3.5422335E+001
  2.5359841E+002
  1.1881594E+004
  6.8972230E+003
  3.8036985E+003
  2.7979097E+003
  1.8748311E+003
  1.2706968E+003
  5.7625808E+002
 -1.1530115E+002
 -7.9944365E+002
 -1.4351247E+003
 -1.9893581E+003
 -2.4387573E+003
 -2.7758431E+003
 -3.0062693E+003
 -3.1407029E+003
 -3.1836903E+003
 -3.1242739E+003
 -2.9449238E+003
 -2.6391592E+003
 -2.2457316E+003
 -1.8113207E+003
 -1.3407197E+003
 -7.0296989E+002
 -5.6378880E+001
  3.4722273E+002
 -2.7914543E+002
 -1.9190972E+003
 -3.9197615E+003
 -5.1181283E+003
 -5.1226978E+003
 -5.1082140E+003
 -6.5617222E+003
 -8.8688686E+003
 -8.4492017E+003
 -7.0300305E+003
 -5.9597145E+003
 -3.7598352E+003
 -2.9894152E+003
 -3.5500251E+003
 -4.5032120E+003
 -5.7155060E+003
 -6.9857036E+003
 -8.1627408E+003
 -9.1644524E+003
 -9.9443000E+003
 -1.0502076E+004
 -1.0860148E+004
 -1.1041951E+004
 -1.1062218E+004
 -1.0921445E+004
 -1.0598860E+004
 -1.0054123E+004
 -9.2059060E+003
 -7.9893116E+003
 -6.1826470E+003
 -3.6954368E+003
 -9.8987483E+002
 -1.1294392E+003
 -1.0505620E+002
 -1.1027848E+002
  1.8277817E+003
  2.0151743E+003
  1.7519095E+003
  1.1959433E+003
  6.2819318E+002
  2.3678399E+001
 -5.6847526E+002
 -1.1255812E+003
 -1.6227803E+003
 -2.0439761E+003
 -2.3816819E+003
 -2.6360145E+003
 -2.8098815E+003
 -2.9030633E+003
 -2.9094700E+003
 -2.8191470E+003
 -2.6262733E+003
 -2.3234575E+003
 -1.8912443E+003
 -1.2680182E+003
 -4.2872430E+002
  5.3024337E+002
  7.1110504E+002
  1.9219460E+002
 -1.9448721E+003
 -2.1528427E+003
 -1.2444145E+003
  2.0722558E+003
 -1.4215660E+003
 -1.6161846E+003
 -7.1115238E+003
 -1.7600648E+004
 -1.1533981E+004
 -1.2237762E+004
 -6.5617427E+003
 -6.4004361E+003
 -5.9554687E+003
 -6.4492156E+003
 -7.4207821E+003
 -8.5989978E+003
 -9.6991243E+003
 -1.0589791E+004
 -1.1237317E+004
 -1.1659878E+004
 -1.1890022E+004
 -1.1957395E+004
 -1.1879900E+004
 -1.1656570E+004
 -1.1265645E+004
 -1.0642827E+004
 -9.7300800E+003
 -8.2810504E+003
 -6.5464330E+003
 -3.2030439E+003
 -3.3374877E+003
 -1.0244158E+004
 -1.0772873E+004
  2.0227908E+003
  1.5097340E+003
  1.4852252E+003
  1.3659227E+003
  1.0201265E+003
  5.5896780E+002
  5.6162727E+001
 -4.5655340E+002
 -9.5192289E+002
 -1.4112050E+003
 -1.8212911E+003
 -2.1755319E+003
 -2.4723202E+003
 -2.7124105E+003
 -2.8958085E+003
 -3.0195375E+003
 -3.0771435E+003
 -3.0560103E+003
 -2.9332250E+003
 -2.6582561E+003
 -2.1694109E+003
 -1.3741177E+003
 -3.7685472E+002
  5.0609206E+002
 -1.6997510E+003
 -4.6850772E+003
 -1.4279262E+003
  3.2436972E+002
  3.7122943E+003
 -1.2121763E+004
 -1.1253929E+004
 -1.9305058E+004
 -1.0930485E+004
 -9.7827936E+003
 -7.9960798E+003
 -8.0981005E+003
 -8.9917929E+003
 -1.0175946E+004
 -1.1209274E+004
 -1.1961418E+004
 -1.2443659E+004
 -1.2704721E+004
 -1.2790148E+004
 -1.2736072E+004
 -1.2565006E+004
 -1.2282477E+004
 -1.1868219E+004
 -1.1280428E+004
 -1.0415074E+004
 -9.2593663E+003
 -7.5204978E+003
 -6.4148253E+003
 -5.2570768E+003
 -4.2090504E+003
  1.3933093E+003
  1.4970376E+003
  1.2620753E+003
  1.0845317E+003
  7.9637901E+002
  4.2756302E+002
  5.6332397E+000
 -4.3948494E+002
 -8.8795991E+002
 -1.3233262E+003
 -1.7349555E+003
 -2.1172718E+003
 -2.4690510E+003
 -2.7917123E+003
 -3.0873077E+003
 -3.3566651E+003
 -3.5968314E+003
 -3.7984121E+003
 -3.9350513E+003
 -3.9697885E+003
 -3.8064746E+003
 -3.4894731E+003
 -2.7781661E+003
 -2.8654623E+003
 -6.4539499E+003
 -7.7704974E+003
 -1.7569965E+004
 -1.4215794E+004
 -1.1040232E+004
 -9.0745257E+003
 -9.2483496E+003
 -1.0452915E+004
 -1.1789787E+004
 -1.2700430E+004
 -1.3244537E+004
 -1.3519039E+004
 -1.3594764E+004
 -1.3522968E+004
 -1.3342953E+004
 -1.3082765E+004
 -1.2757462E+004
 -1.2364105E+004
 -1.1873041E+004
 -1.1227693E+004
 -1.0350436E+004
 -9.1979871E+003
 -8.0185473E+003
 -5.1070240E+003
 -1.4336210E+003
  1.5966969E+003
  1.3686073E+003
  1.1383477E+003
  8.6855999E+002
  5.8468708E+002
  2.6891949E+002
 -9.0902082E+001
 -4.8629527E+002
 -9.0172698E+002
 -1.3246231E+003
 -1.7462250E+003
 -2.1625262E+003
 -2.5736116E+003
 -2.9826336E+003
 -3.3944645E+003
 -3.8139634E+003
 -4.2442223E+003
 -4.6815536E+003
 -5.1159565E+003
 -5.5022231E+003
 -5.8298357E+003
 -5.8322287E+003
 -6.0364968E+003
 -4.9821821E+003
 -3.4940665E+003
 -1.2547028E+004
 -1.1133239E+004
 -9.1338150E+003
 -9.7949284E+003
 -1.2184950E+004
 -1.3451905E+004
 -1.4073764E+004
 -1.4343273E+004
 -1.4391315E+004
 -1.4277533E+004
 -1.4049751E+004
 -1.3744685E+004
 -1.3395642E+004
 -1.3030716E+004
 -1.2667006E+004
 -1.2303068E+004
 -1.1890087E+004
 -1.1347604E+004
 -1.0399850E+004
 -8.8134302E+003
 -4.8359607E+003
 -1.6673132E+003
  1.1041913E+003
  1.3765879E+003
  9.3976013E+002
  6.3301392E+002
  3.8125928E+002
  1.1687841E+002
 -2.0249693E+002
 -5.6504338E+002
 -9.6152267E+002
 -1.3809638E+003
 -1.8170297E+003
 -2.2673687E+003
 -2.7336498E+003
 -3.2207739E+003
 -3.7359678E+003
 -4.2875522E+003
 -4.8833868E+003
 -5.5278263E+003
 -6.2185901E+003
 -6.9315274E+003
 -7.6167092E+003
 -8.0526720E+003
 -7.8986441E+003
 -4.8389746E+003
 -1.4421255E+003
 -9.0433134E+003
 -8.9589503E+003
 -1.1564663E+004
 -1.4226886E+004
 -1.4807492E+004
 -1.5087395E+004
 -1.5118778E+004
 -1.4975652E+004
 -1.4705929E+004
 -1.4342813E+004
 -1.3921711E+004
 -1.3480332E+004
 -1.3060471E+004
 -1.2702454E+004
 -1.2433638E+004
 -1.2229874E+004
 -1.1976852E+004
 -1.1250179E+004
 -9.6026270E+003
 -5.4009732E+003
 -1.7217834E+003
  2.7047474E+003
  1.0244220E+003
  5.3289898E+002
  3.5249672E+002
  2.3465703E+002
 -6.1848744E+000
 -3.0023673E+002
 -6.5032665E+002
 -1.0399545E+003
 -1.4626087E+003
 -1.9137090E+003
 -2.3928970E+003
 -2.9031223E+003
 -3.4503362E+003
 -4.0427593E+003
 -4.6899572E+003
 -5.4014527E+003
 -6.1844131E+003
 -7.0392463E+003
 -7.9484304E+003
 -8.8533900E+003
 -9.5397308E+003
 -9.5583355E+003
 -6.0181730E+003
 -1.2270032E+003
 -8.2386426E+003
 -1.1707025E+004
 -1.5348620E+004
 -1.5111250E+004
 -1.5559906E+004
 -1.5436531E+004
 -1.5225878E+004
 -1.4858596E+004
 -1.4402202E+004
 -1.3882671E+004
 -1.3344930E+004
 -1.2842949E+004
 -1.2439721E+004
 -1.2194824E+004
 -1.2128025E+004
 -1.2161804E+004
 -1.1852535E+004
 -1.0701372E+004
 -6.2953464E+003
 -2.0153184E+003
 -2.3761547E+003
 -3.7510342E+002
 -2.8106942E+001
  3.5933847E+002
  1.5763980E+002
 -6.0813465E+001
 -3.7245706E+002
 -7.2432249E+002
 -1.1180536E+003
 -1.5468018E+003
 -2.0099814E+003
 -2.5086948E+003
 -3.0467615E+003
 -3.6300439E+003
 -4.2659917E+003
 -4.9624462E+003
 -5.7268908E+003
 -6.5608916E+003
 -7.4660839E+003
 -8.3949170E+003
 -9.3771085E+003
 -9.9634519E+003
 -1.1000948E+004
 -8.8679883E+003
 -6.3266380E+003
 -9.3432587E+003
 -1.0565083E+004
 -1.3443569E+004
 -1.4945597E+004
 -1.5298784E+004
 -1.5362350E+004
 -1.5142758E+004
 -1.4766746E+004
 -1.4263851E+004
 -1.3674519E+004
 -1.3041638E+004
 -1.2429423E+004
 -1.1924255E+004
 -1.1619457E+004
 -1.1569801E+004
 -1.1844764E+004
 -1.2034241E+004
 -1.1612096E+004
 -7.6057763E+003
 -3.4269013E+003
  5.5386182E+002
  9.4295754E+002
  8.5072714E+002
  5.0397522E+002
  2.4135799E+002
 -7.7474892E+001
 -4.1425957E+002
 -7.8418286E+002
 -1.1851254E+003
 -1.6193301E+003
 -2.0882469E+003
 -2.5946510E+003
 -3.1423406E+003
 -3.7360493E+003
 -4.3807537E+003
 -5.0806282E+003
 -5.8367104E+003
 -6.6451054E+003
 -7.4863998E+003
 -8.3357965E+003
 -9.0841809E+003
 -9.7562043E+003
 -9.8300118E+003
 -1.0204350E+004
 -1.3482515E+004
 -6.9008059E+003
 -2.6705661E+003
 -7.8239881E+003
 -1.0973055E+004
 -1.2814153E+004
 -1.4212068E+004
 -1.4814371E+004
 -1.4960980E+004
 -1.4831758E+004
 -1.4495998E+004
 -1.4001531E+004
 -1.3379470E+004
 -1.2668560E+004
 -1.1931002E+004
 -1.1276621E+004
 -1.0861761E+004
 -1.0773873E+004
 -1.1028228E+004
 -1.1935887E+004
 -1.3107122E+004
 -8.6751334E+003
 -2.4838024E+003
  4.9622928E+003
  2.4798057E+003
  1.4855946E+003
  7.0764587E+002
  3.0534196E+002
 -8.1646872E+001
 -4.4937325E+002
 -8.3327940E+002
 -1.2391038E+003
 -1.6733283E+003
 -2.1394778E+003
 -2.6408820E+003
 -3.1806082E+003
 -3.7614047E+003
 -4.3849838E+003
 -5.0506729E+003
 -5.7534042E+003
 -6.4798591E+003
 -7.2053481E+003
 -7.8808331E+003
 -8.4460001E+003
 -8.7698205E+003
 -8.7961360E+003
 -8.6377153E+003
 -1.0710795E+004
 -1.3271925E+004
 -1.4241354E+004
 -8.0837803E+003
 -1.1381469E+004
 -1.3580663E+004
 -1.2901905E+004
 -1.3779176E+004
 -1.4206650E+004
 -1.4438535E+004
 -1.4393651E+004
 -1.4143013E+004
 -1.3704171E+004
 -1.3100312E+004
 -1.2353938E+004
 -1.1512081E+004
 -1.0675639E+004
 -1.0103090E+004
 -1.0139097E+004
 -1.0649801E+004
 -1.0615826E+004
 -1.2023216E+004
 -1.1315309E+004
 -4.7725754E+003
 -2.9475128E+002
  1.0589673E+003
  9.7240044E+002
  6.8063013E+002
  2.5249049E+002
 -1.1848608E+002
 -4.9593179E+002
 -8.7930041E+002
 -1.2815367E+003
 -1.7075493E+003
 -2.1615719E+003
 -2.6462252E+003
 -3.1631998E+003
 -3.7129026E+003
 -4.2937639E+003
 -4.9009877E+003
 -5.5246311E+003
 -6.1473234E+003
 -6.7408758E+003
 -7.2667178E+003
 -7.6753918E+003
 -7.9424423E+003
 -8.1760642E+003
 -9.0727002E+003
 -1.0778887E+004
 -1.2380342E+004
 -1.3458112E+004
 -1.3387152E+004
 -1.5355021E+004
 -1.2381408E+004
 -1.2484203E+004
 -1.2992304E+004
 -1.3229109E+004
 -1.3637940E+004
 -1.3878283E+004
 -1.3936420E+004
 -1.3791467E+004
 -1.3453847E+004
 -1.2928862E+004
 -1.2223977E+004
 -1.1351013E+004
 -1.0385573E+004
 -9.4796320E+003
 -9.6014751E+003
 -1.1617792E+004
 -1.6021566E+004
 -2.1872095E+004
 -1.6820922E+004
  1.2584651E+003
  8.1543880E+002
  6.2706936E+002
  4.4293880E+002
  1.4081343E+002
 -2.0123287E+002
 -5.5630493E+002
 -9.2642296E+002
 -1.3143354E+003
 -1.7238304E+003
 -2.1572560E+003
 -2.6158406E+003
 -3.0994556E+003
 -3.6063002E+003
 -4.1322387E+003
 -4.6698454E+003
 -5.2072989E+003
 -5.7273924E+003
 -6.2080871E+003
 -6.6262983E+003
 -6.9731973E+003
 -7.2937564E+003
 -7.7725565E+003
 -8.6021422E+003
 -9.8712739E+003
 -1.1365071E+004
 -1.3003740E+004
 -1.4390517E+004
 -1.4204515E+004
 -7.7499811E+003
 -1.1221480E+004
 -1.3111472E+004
 -1.3029644E+004
 -1.1663570E+004
 -1.2325634E+004
 -1.2652441E+004
 -1.3064965E+004
 -1.3368020E+004
 -1.3524141E+004
 -1.3501584E+004
 -1.3297218E+004
 -1.2911842E+004
 -1.2342575E+004
 -1.1588381E+004
 -1.0623887E+004
 -9.6049500E+003
 -8.4518543E+003
 -1.1213972E+004
 -1.4750945E+004
 -1.3476156E+004
  7.9099306E+002
  8.0928168E+002
  4.9430031E+002
  2.7619572E+002
  4.7412684E+000
 -2.9730827E+002
 -6.2525689E+002
 -9.7208804E+002
 -1.3386504E+003
 -1.7252240E+003
 -2.1321299E+003
 -2.5586891E+003
 -3.0030189E+003
 -3.4615837E+003
 -3.9287079E+003
 -4.3960661E+003
 -4.8524152E+003
 -5.2841950E+003
 -5.6781178E+003
 -6.0282290E+003
 -6.3508352E+003
 -6.7086915E+003
 -7.2070157E+003
 -7.9635300E+003
 -8.9959000E+003
 -1.0263168E+004
 -1.1708386E+004
 -1.3825070E+004
 -1.6425775E+004
 -1.5436819E+004
 -2.1048147E+004
 -1.5069765E+004
 -1.2404032E+004
 -1.1624532E+004
 -1.1645965E+004
 -1.2126248E+004
 -1.2575504E+004
 -1.2955188E+004
 -1.3201656E+004
 -1.3296063E+004
 -1.3233488E+004
 -1.3022280E+004
 -1.2661622E+004
 -1.2182378E+004
 -1.1461472E+004
 -1.0856428E+004
 -9.0257918E+003
 -1.1102221E+004
 -2.2250159E+004
 -1.5667126E+004
  9.0290337E+002
  7.2598007E+002
  4.2846193E+002
  1.6105125E+002
 -1.1056807E+002
 -3.8976484E+002
 -6.9024719E+002
 -1.0123774E+003
 -1.3545979E+003
 -1.7154571E+003
 -2.0931708E+003
 -2.4854319E+003
 -2.8889632E+003
 -3.2991711E+003
 -3.7098492E+003
 -4.1130920E+003
 -4.4997073E+003
 -4.8606555E+003
 -5.1903700E+003
 -5.4929667E+003
 -5.7910904E+003
 -6.1310681E+003
 -6.5751140E+003
 -7.1746600E+003
 -7.9362270E+003
 -8.8810226E+003
 -9.9064296E+003
 -1.1567504E+004
 -1.2397342E+004
 -1.8358420E+004
 -2.0426526E+004
 -1.9504285E+004
 -1.7322139E+004
 -1.2500701E+004
 -1.0771018E+004
 -1.0929624E+004
 -1.1067700E+004
 -1.1322494E+004
 -1.1776565E+004
 -1.2265765E+004
 -1.2683207E+004
 -1.2989279E+004
 -1.3166961E+004
 -1.3219359E+004
 -1.3160401E+004
 -1.3021085E+004
 -1.2806846E+004
 -1.2625996E+004
 -1.2171181E+004
 -1.2408641E+004
 -9.6109280E+003
 -6.3669966E+003
  6.5710640E+002
  7.1597982E+002
  3.2790890E+002
  4.7640142E+001
 -2.0972548E+002
 -4.6486313E+002
 -7.4375729E+002
 -1.0434998E+003
 -1.3629663E+003
 -1.6987639E+003
 -2.0479029E+003
 -2.4069279E+003
 -2.7717823E+003
 -3.1375033E+003
 -3.4981478E+003
 -3.8470030E+003
 -4.1773371E+003
 -4.4840120E+003
 -4.7662715E+003
 -5.0316122E+003
 -5.2990168E+003
 -5.5986137E+003
 -5.9627079E+003
 -6.4136497E+003
 -6.9422776E+003
 -7.5322135E+003
 -8.0619336E+003
 -8.6365745E+003
 -7.8897258E+003
 -1.1227069E+004
 -1.1162440E+004
 -8.2304951E+003
 -8.4188037E+003
 -1.6666534E+003
 -8.5899764E+003
 -1.6599574E+003
 -1.2192891E+004
 -7.7605236E+003
 -1.4634493E+004
 -1.2724883E+004
 -1.1599630E+004
 -1.0783933E+004
 -1.0961193E+004
 -1.1302351E+004
 -1.1733343E+004
 -1.2181174E+004
 -1.2579555E+004
 -1.2886840E+004
 -1.3088958E+004
 -1.3190402E+004
 -1.3208659E+004
 -1.3181303E+004
 -1.3123419E+004
 -1.3155405E+004
 -1.2885942E+004
 -1.3223768E+004
 -6.7693938E+003
  7.4179881E+003
  1.3373150E+003
  5.3763028E+002
  1.3765448E+002
 -8.2051148E+001
 -2.7694779E+002
 -5.1854621E+002
 -7.8038435E+002
 -1.0649067E+003
 -1.3658900E+003
 -1.6801632E+003
 -2.0039026E+003
 -2.3333336E+003
 -2.6642268E+003
 -2.9918625E+003
 -3.3110895E+003
 -3.6167082E+003
 -3.9042815E+003
 -4.1714990E+003
 -4.4200518E+003
 -4.6575046E+003
 -4.8980173E+003
 -5.1601467E+003
 -5.4610937E+003
 -5.8077141E+003
 -6.1917656E+003
 -6.5815890E+003
 -6.9532080E+003
 -7.2189960E+003
 -8.1367613E+003
 -1.0323432E+004
 -1.3908837E+004
 -1.4412099E+004
 -1.5270872E+004
 -1.6874028E+004
 -1.5716874E+004
 -1.3860427E+004
 -1.2436118E+004
 -1.1744844E+004
 -1.1537680E+004
 -1.1695007E+004
 -1.1993321E+004
 -1.2330016E+004
 -1.2639719E+004
 -1.2880991E+004
 -1.3034293E+004
 -1.3097495E+004
 -1.3080648E+004
 -1.2998891E+004
 -1.2864528E+004
 -1.2638463E+004
 -1.2171518E+004
 -1.0600952E+004
 -5.6733799E+003
  7.5623529E+002
  1.9769462E+003
  9.6008817E+003
 -8.7490603E+002
 -8.6243043E+001
 -1.2105049E+002
 -8.2633171E+001
 -3.1313828E+002
 -5.3941968E+002
 -8.0290215E+002
 -1.0787436E+003
 -1.3677977E+003
 -1.6653876E+003
 -1.9685371E+003
 -2.2735987E+003
 -2.5767811E+003
 -2.8740376E+003
 -3.1613175E+003
 -3.4349939E+003
 -3.6925962E+003
 -3.9338231E+003
 -4.1616704E+003
 -4.3832491E+003
 -4.6096101E+003
 -4.8539958E+003
 -5.1285399E+003
 -5.4412385E+003
 -5.7953025E+003
 -6.2004565E+003
 -6.6944119E+003
 -7.4941263E+003
 -8.9900829E+003
 -1.1500982E+004
 -1.3687809E+004
 -1.5767263E+004
 -1.6926890E+004
 -1.7126358E+004
 -1.6680051E+004
 -1.5254969E+004
 -1.3859989E+004
 -1.2934127E+004
 -1.2501784E+004
 -1.2404475E+004
 -1.2500458E+004
 -1.2670008E+004
 -1.2836347E+004
 -1.2951080E+004
 -1.2986280E+004
 -1.2928001E+004
 -1.2767533E+004
 -1.2491055E+004
 -1.2055153E+004
 -1.1364992E+004
 -1.0136904E+004
 -7.8868426E+003
 -3.6992835E+003
  2.7524528E+002
  1.8064498E+003
  2.6131292E+002
  4.4713069E+002
  2.6294069E+002
 -3.3943978E+001
 -2.7983875E+002
 -5.4728566E+002
 -8.1579710E+002
 -1.0924862E+003
 -1.3745701E+003
 -1.6608030E+003
 -1.9486145E+003
 -2.2352114E+003
 -2.5175186E+003
 -2.7924476E+003
 -3.0571745E+003
 -3.3095887E+003
 -3.5489054E+003
 -3.7764008E+003
 -3.9961173E+003
 -4.2152787E+003
 -4.4441399E+003
 -4.6952092E+003
 -4.9824040E+003
 -5.3215502E+003
 -5.7354853E+003
 -6.2669009E+003
 -7.0129487E+003
 -8.1433567E+003
 -9.8327475E+003
 -1.1949540E+004
 -1.4301708E+004
 -1.6105155E+004
 -1.7266349E+004
 -1.7637146E+004
 -1.7091167E+004
 -1.6090108E+004
 -1.4977657E+004
 -1.4089516E+004
 -1.3528134E+004
 -1.3248803E+004
 -1.3150389E+004
 -1.3136086E+004
 -1.3129148E+004
 -1.3076506E+004
 -1.2943326E+004
 -1.2704926E+004
 -1.2336309E+004
 -1.1795497E+004
 -1.1008511E+004
 -9.8307231E+003
 -8.0973440E+003
 -5.7496865E+003
 -3.8695818E+003
 -2.3340841E+003
 -1.5975884E+003
  2.2546458E+003
  1.1039257E+003
  5.0036491E+002
  4.4123994E+001
 -2.6416928E+002
 -5.5575960E+002
 -8.3531435E+002
 -1.1142796E+003
 -1.3934058E+003
 -1.6725362E+003
 -1.9500758E+003
 -2.2240145E+003
 -2.4921603E+003
 -2.7524610E+003
 -3.0033262E+003
 -3.2440490E+003
 -3.4753197E+003
 -3.6997929E+003
 -3.9226098E+003
 -4.1517605E+003
 -4.3982368E+003
 -4.6761434E+003
 -5.0033286E+003
 -5.4036721E+003
 -5.9123535E+003
 -6.5857780E+003
 -7.5085507E+003
 -8.7768891E+003
 -1.0425625E+004
 -1.2376597E+004
 -1.4305228E+004
 -1.5968428E+004
 -1.7051638E+004
 -1.7446624E+004
 -1.7240482E+004
 -1.6580702E+004
 -1.5766440E+004
 -1.5020350E+004
 -1.4457458E+004
 -1.4082748E+004
 -1.3841683E+004
 -1.3662095E+004
 -1.3478510E+004
 -1.3240695E+004
 -1.2913258E+004
 -1.2469176E+004
 -1.1878227E+004
 -1.1094373E+004
 -1.0035679E+004
 -8.5997020E+003
 -6.6736860E+003
 -4.3947759E+003
 -2.9334956E+003
 -2.8536768E+003
 -1.7179612E+003
 -7.1125314E+001
  4.5531775E+002
  2.5683414E+002
  9.4052175E+000
 -3.0372070E+002
 -5.8870158E+002
 -8.7276962E+002
 -1.1524916E+003
 -1.4304973E+003
 -1.7058597E+003
 -1.9775482E+003
 -2.2441201E+003
 -2.5042191E+003
 -2.7567856E+003
 -3.0013751E+003
 -3.2385292E+003
 -3.4702180E+003
 -3.7003146E+003
 -3.9350552E+003
 -4.1834510E+003
 -4.4576880E+003
 -4.7736939E+003
 -5.1522336E+003
 -5.6209483E+003
 -6.2174516E+003
 -6.9913415E+003
 -7.9990089E+003
 -9.2815547E+003
 -1.0829631E+004
 -1.2535374E+004
 -1.4226553E+004
 -1.5656697E+004
 -1.6661061E+004
 -1.7151938E+004
 -1.7148486E+004
 -1.6794599E+004
 -1.6260154E+004
 -1.5704555E+004
 -1.5220334E+004
 -1.4830415E+004
 -1.4506880E+004
 -1.4198875E+004
 -1.3854351E+004
 -1.3432008E+004
 -1.2904405E+004
 -1.2253173E+004
 -1.1461912E+004
 -1.0497402E+004
 -9.3307679E+003
 -7.8490204E+003
 -6.2581815E+003
 -4.0413886E+003
 -3.7377091E+003
 -7.1938176E+003
 -6.3711760E+003
  5.5849142E+002
  3.2154267E+002
  8.2648206E+001
 -1.1686025E+002
 -3.7669324E+002
 -6.5239750E+002
 -9.3214964E+002
 -1.2121093E+003
 -1.4900575E+003
 -1.7644877E+003
 -2.0340983E+003
 -2.2978920E+003
 -2.5552108E+003
 -2.8058836E+003
 -3.0504605E+003
 -3.2905331E+003
 -3.5291187E+003
 -3.7710788E+003
 -4.0235453E+003
 -4.2963494E+003
 -4.6024896E+003
 -4.9587278E+003
 -5.3864048E+003
 -5.9123912E+003
 -6.5694104E+003
 -7.3937095E+003
 -8.4167548E+003
 -9.6492851E+003
 -1.1059111E+004
 -1.2560599E+004
 -1.4012656E+004
 -1.5269054E+004
 -1.6200435E+004
 -1.6746130E+004
 -1.6924908E+004
 -1.6813957E+004
 -1.6528235E+004
 -1.6171787E+004
 -1.5811345E+004
 -1.5465779E+004
 -1.5115555E+004
 -1.4720816E+004
 -1.4240020E+004
 -1.3643411E+004
 -1.2918265E+004
 -1.2067106E+004
 -1.1098069E+004
 -1.0023226E+004
 -8.8301492E+003
 -7.5822759E+003
 -6.1518711E+003
 -5.3322317E+003
 -4.1629767E+003
 -3.1025353E+003
  3.1339080E+002
  2.7533964E+002
 -2.6470078E+000
 -2.1544603E+002
 -4.6723924E+002
 -7.3445335E+002
 -1.0130072E+003
 -1.2941601E+003
 -1.5742530E+003
 -1.8503910E+003
 -2.1211971E+003
 -2.3860418E+003
 -2.6449129E+003
 -2.8983958E+003
 -3.1478479E+003
 -3.3956690E+003
 -3.6456387E+003
 -3.9032852E+003
 -4.1762623E+003
 -4.4747254E+003
 -4.8117064E+003
 -5.2034796E+003
 -5.6698269E+003
 -6.2338781E+003
 -6.9207678E+003
 -7.7538624E+003
 -8.7474321E+003
 -9.8958092E+003
 -1.1163000E+004
 -1.2477186E+004
 -1.3741238E+004
 -1.4848644E+004
 -1.5716178E+004
 -1.6301085E+004
 -1.6610183E+004
 -1.6694175E+004
 -1.6623011E+004
 -1.6462099E+004
 -1.6250605E+004
 -1.5993169E+004
 -1.5664430E+004
 -1.5223551E+004
 -1.4632680E+004
 -1.3872374E+004
 -1.2949663E+004
 -1.1895657E+004
 -1.0756413E+004
 -9.5817568E+003
 -8.4217187E+003
 -7.3173010E+003
 -6.2880428E+003
 -5.4029162E+003
 -3.3693656E+003
 -8.4442616E+002
  2.8510266E+002
  1.9732097E+002
 -5.7181810E+001
 -2.9474306E+002
 -5.5713556E+002
 -8.2890642E+002
 -1.1116774E+003
 -1.3985504E+003
 -1.6836794E+003
 -1.9641280E+003
 -2.2388483E+003
 -2.5078188E+003
 -2.7716516E+003
 -3.0315590E+003
 -3.2894884E+003
 -3.5483716E+003
 -3.8124251E+003
 -4.0874666E+003
 -4.3812184E+003
 -4.7035761E+003
 -5.0668083E+003
 -5.4856188E+003
 -5.9769095E+003
 -6.5589264E+003
 -7.2492814E+003
 -8.0613036E+003
 -8.9985251E+003
 -1.0048253E+004
 -1.1176381E+004
 -1.2327353E+004
 -1.3430353E+004
 -1.4414310E+004
 -1.5222565E+004
 -1.5827030E+004
 -1.6232461E+004
 -1.6469907E+004
 -1.6583017E+004
 -1.6609015E+004
 -1.6562943E+004
 -1.6429499E+004
 -1.6166281E+004
 -1.5718666E+004
 -1.5041621E+004
 -1.4122239E+004
 -1.2989900E+004
 -1.1712651E+004
 -1.0379482E+004
 -9.0827269E+003
 -7.8988191E+003
 -6.9011274E+003
 -6.0116057E+003
 -5.0454099E+003
 -2.7654815E+003
 -1.0019995E+003
  1.6633276E+002
  1.3675434E+002
 -1.2155941E+002
 -3.7834728E+002
 -6.4955912E+002
 -9.3073440E+002
 -1.2278717E+003
 -1.5254165E+003
 -1.8183889E+003
 -2.1051091E+003
 -2.3857950E+003
 -2.6612094E+003
 -2.9325878E+003
 -3.2015949E+003
 -3.4705214E+003
 -3.7425317E+003
 -4.0219420E+003
 -4.3144800E+003
 -4.6275018E+003
 -4.9701312E+003
 -5.3532749E+003
 -5.7894264E+003
 -6.2921092E+003
 -6.8747374E+003
 -7.5486372E+003
 -8.3200851E+003
 -9.1865911E+003
 -1.0133260E+004
 -1.1130813E+004
 -1.2136829E+004
 -1.3101564E+004
 -1.3976789E+004
 -1.4726449E+004
 -1.5334027E+004
 -1.5804747E+004
 -1.6160962E+004
 -1.6430913E+004
 -1.6634158E+004
 -1.6766825E+004
 -1.6791854E+004
 -1.6640324E+004
 -1.6227871E+004
 -1.5488102E+004
 -1.4404136E+004
 -1.3032127E+004
 -1.1489391E+004
 -9.9194457E+003
 -8.4529856E+003
 -7.1819496E+003
 -6.1735539E+003
 -5.4126552E+003
 -4.7112864E+003
 -2.8091504E+003
 -8.1863834E+002
  5.5362090E+001
  2.9405140E+001
 -1.9627750E+002
 -4.8103900E+002
 -7.2674241E+002
 -1.0457197E+003
 -1.3651001E+003
 -1.6763618E+003
 -1.9777773E+003
 -2.2717203E+003
 -2.5595795E+003
 -2.8431111E+003
 -3.1239718E+003
 -3.4040535E+003
 -3.6856982E+003
 -3.9719967E+003
 -4.2670453E+003
 -4.5761510E+003
 -4.9059562E+003
 -5.2644560E+003
 -5.6608612E+003
 -6.1052342E+003
 -6.6077920E+003
 -7.1777546E+003
 -7.8216538E+003
 -8.5411573E+003
 -9.3307260E+003
 -1.0175780E+004
 -1.1052284E+004
 -1.1928669E+004
 -1.2770273E+004
 -1.3545835E+004
 -1.4233990E+004
 -1.4827987E+004
 -1.5336412E+004
 -1.5779082E+004
 -1.6178321E+004
 -1.6546048E+004
 -1.6867918E+004
 -1.7088083E+004
 -1.7102747E+004
 -1.6779591E+004
 -1.6000033E+004
 -1.4735367E+004
 -1.3070986E+004
 -1.1196907E+004
 -9.3382827E+003
 -7.6759772E+003
 -6.2895910E+003
 -5.2084894E+003
 -4.4081497E+003
 -4.4253108E+003
 -3.4493740E+003
 -1.9985050E+003
 -4.1683790E+002
 -3.0021600E+002
 -4.7444015E+002
 -8.0820252E+002
 -1.1921309E+003
 -1.5312858E+003
 -1.8514969E+003
 -2.1602090E+003
 -2.4608496E+003
 -2.7565509E+003
 -3.0494448E+003
 -3.3413816E+003
 -3.6341151E+003
 -3.9297254E+003
 -4.2309308E+003
 -4.5413381E+003
 -4.8655854E+003
 -5.2093780E+003
 -5.5794002E+003
 -5.9830739E+003
 -6.4281129E+003
 -6.9218129E+003
 -7.4700306E+003
 -8.0758583E+003
 -8.7381245E+003
 -9.4500183E+003
 -1.0198319E+004
 -1.0963796E+004
 -1.1723214E+004
 -1.2452987E+004
 -1.3133859E+004
 -1.3755503E+004
 -1.4319428E+004
 -1.4838941E+004
 -1.5335593E+004
 -1.5832302E+004
 -1.6342892E+004
 -1.6855368E+004
 -1.7306377E+004
 -1.7557919E+004
 -1.7396601E+004
 -1.6626469E+004
 -1.5146607E+004
 -1.3096041E+004
 -1.0793500E+004
 -8.5929205E+003
 -6.7494197E+003
 -5.3457450E+003
 -4.2775820E+003
 -3.3556839E+003
 -3.0482606E+003
 -3.1554261E+003
 -1.9172162E+003
 -6.9553657E+001
  9.7929943E+001
 -4.0902104E+002
 -1.0086469E+003
 -1.3899845E+003
 -1.7242409E+003
 -2.0487037E+003
 -2.3609044E+003
 -2.6677706E+003
 -2.9717399E+003
 -3.2753392E+003
 -3.5799647E+003
 -3.8868772E+003
 -4.1975431E+003
 -4.5140549E+003
 -4.8393372E+003
 -5.1772198E+003
 -5.5323796E+003
 -5.9101669E+003
 -6.3163023E+003
 -6.7564153E+003
 -7.2353975E+003
 -7.7565642E+003
 -8.3206727E+003
 -8.9249349E+003
 -9.5622667E+003
 -1.0221111E+004
 -1.0886185E+004
 -1.1540397E+004
 -1.2167889E+004
 -1.2757802E+004
 -1.3307837E+004
 -1.3826420E+004
 -1.4332199E+004
 -1.4850398E+004
 -1.5406949E+004
 -1.6022792E+004
 -1.6703349E+004
 -1.7406036E+004
 -1.7972752E+004
 -1.8105548E+004
 -1.7377134E+004
 -1.5645891E+004
 -1.3075958E+004
 -1.0192657E+004
 -7.5994559E+003
 -5.6552405E+003
 -4.3852075E+003
 -3.8071125E+003
 -3.0537910E+003
 -3.5085584E+003
 -6.6642620E+003
 -5.6885434E+003
  1.0827483E+003
 -4.0468163E+002
 -9.1584715E+002
 -1.3515359E+003
 -1.5895169E+003
 -1.9403416E+003
 -2.2563404E+003
 -2.5733967E+003
 -2.8854990E+003
 -3.1992255E+003
 -3.5153552E+003
 -3.8347755E+003
 -4.1576552E+003
 -4.4845675E+003
 -4.8167922E+003
 -5.1564993E+003
 -5.5066945E+003
 -5.8710613E+003
 -6.2537168E+003
 -6.6588832E+003
 -7.0904572E+003
 -7.5514655E+003
 -8.0434152E+003
 -8.5655973E+003
 -9.1144561E+003
 -9.6832088E+003
 -1.0261946E+004
 -1.0838452E+004
 -1.1399901E+004
 -1.1935471E+004
 -1.2439618E+004
 -1.2915449E+004
 -1.3376998E+004
 -1.3848721E+004
 -1.4360642E+004
 -1.4940587E+004
 -1.5608675E+004
 -1.6389007E+004
 -1.7303727E+004
 -1.8268090E+004
 -1.8828212E+004
 -1.8425246E+004
 -1.6331035E+004
 -1.2925791E+004
 -9.2579446E+003
 -6.2362527E+003
 -4.3061489E+003
 -3.4401716E+003
 -3.3245399E+003
 -4.2249280E+003
 -4.0834016E+003
 -2.9853190E+003
 -1.6874116E+003
 -1.2410949E+003
 -1.4364174E+003
 -1.8064994E+003
 -2.1431761E+003
 -2.4693686E+003
 -2.7861743E+003
 -3.1067273E+003
 -3.4322032E+003
 -3.7640711E+003
 -4.1011950E+003
 -4.4423505E+003
 -4.7869103E+003
 -5.1353432E+003
 -5.4891444E+003
 -5.8506179E+003
 -6.2225959E+003
 -6.6081451E+003
 -7.0102472E+003
 -7.4314355E+003
 -7.8733722E+003
 -8.3363807E+003
 -8.8189733E+003
 -9.3174603E+003
 -9.8257633E+003
 -1.0335586E+004
 -1.0837111E+004
 -1.1320374E+004
 -1.1777432E+004
 -1.2205351E+004
 -1.2609875E+004
 -1.3009083E+004
 -1.3434272E+004
 -1.3924214E+004
 -1.4508922E+004
 -1.5195678E+004
 -1.5971248E+004
 -1.6917872E+004
 -1.8183918E+004
 -1.9579960E+004
 -1.9279972E+004
 -1.6879319E+004
 -1.2453013E+004
 -7.6412730E+003
 -4.4059072E+003
 -2.8112339E+003
 -2.4016500E+003
 -2.7378447E+003
 -4.3851131E+003
 -4.4262023E+003
 -2.4440828E+003
 -5.8215151E+002
 -8.6092253E+002
 -1.5273594E+003
 -2.0020333E+003
 -2.3501031E+003
 -2.6677582E+003
 -2.9923202E+003
 -3.3222011E+003
 -3.6643192E+003
 -4.0166181E+003
 -4.3756318E+003
 -4.7378592E+003
 -5.1015748E+003
 -5.4666790E+003
 -5.8342925E+003
 -6.2062660E+003
 -6.5847942E+003
 -6.9721085E+003
 -7.3702090E+003
 -7.7806000E+003
 -8.2040074E+003
 -8.6400821E+003
 -9.0871145E+003
 -9.5418095E+003
 -9.9991899E+003
 -1.0452714E+004
 -1.0894720E+004
 -1.1317336E+004
 -1.1714078E+004
 -1.2082401E+004
 -1.2427581E+004
 -1.2768402E+004
 -1.3144011E+004
 -1.3610581E+004
 -1.4219006E+004
 -1.4954038E+004
 -1.5726819E+004
 -1.6384804E+004
 -1.7473589E+004
 -1.9354060E+004
 -2.1384471E+004
 -1.8145658E+004
 -1.1155151E+004
 -5.2518054E+003
 -2.2390249E+003
 -1.6487501E+003
 -1.8211389E+003
 -2.2023922E+003
 -3.0007917E+003
 -3.8927316E+003
 -2.6892026E+003
 -5.9906086E+002
 -1.3262053E+003
 -1.9128836E+003
 -2.2364707E+003
 -2.5157195E+003
 -2.8541894E+003
 -3.1783928E+003
 -3.5240407E+003
 -3.8896396E+003
 -4.2702059E+003
 -4.6563174E+003
 -5.0425210E+003
 -5.4265342E+003
 -5.8084146E+003
 -6.1894052E+003
 -6.5712349E+003
 -6.9556844E+003
 -7.3443383E+003
 -7.7384224E+003
 -8.1386717E+003
 -8.5452030E+003
 -8.9573887E+003
 -9.3737425E+003
 -9.7918349E+003
 -1.0208254E+004
 -1.0618631E+004
 -1.1017770E+004
 -1.1399991E+004
 -1.1759910E+004
 -1.2094220E+004
 -1.2405088E+004
 -1.2706538E+004
 -1.3037184E+004
 -1.3485159E+004
 -1.4154597E+004
 -1.5109516E+004
 -1.6111965E+004
 -1.6876667E+004
 -1.6245487E+004
 -1.8720865E+004
 -1.6875919E+004
 -1.4075616E+004
 -8.3397648E+003
 -1.4334170E+003
 -1.3635992E+003
 -1.4832666E+003
 -2.3885722E+003
 -2.9657040E+003
 -4.4064550E+003
 -8.3966959E+003
 -7.3017810E+003
  4.6515218E+002
 -1.9896081E+003
 -2.1665858E+003
 -2.2507067E+003
 -2.6974703E+003
 -3.0045988E+003
 -3.3345215E+003
 -3.7009988E+003
 -4.1067261E+003
 -4.5257407E+003
 -4.9443801E+003
 -5.3562864E+003
 -5.7605618E+003
 -6.1584770E+003
 -6.5520113E+003
 -6.9430583E+003
 -7.3331283E+003
 -7.7232565E+003
 -8.1140045E+003
 -8.5054899E+003
 -8.8974244E+003
 -9.2891606E+003
 -9.6797529E+003
 -1.0068029E+004
 -1.0452647E+004
 -1.0832080E+004
 -1.1204474E+004
 -1.1567386E+004
 -1.1917662E+004
 -1.2251802E+004
 -1.2568479E+004
 -1.2873683E+004
 -1.3189563E+004
 -1.3595646E+004
 -1.4339635E+004
 -1.5626593E+004
 -1.7197022E+004
 -1.9041880E+004
 -1.8781206E+004
 -2.3023526E+004
 -1.0062657E+004
 -7.3745430E+003
 -1.3559479E+004
 -4.0884583E+003
 -2.8501796E+003
 -2.9136128E+003
 -3.2135518E+003
 -5.7259770E+003
 -6.9000948E+003
 -5.9994042E+003
 -1.4884627E+003
 -1.6698928E+003
 -2.4496111E+003
 -2.8779216E+003
 -3.1068880E+003
 -3.4228112E+003
 -3.8534335E+003
 -4.3222709E+003
 -4.7908692E+003
 -5.2439972E+003
 -5.6802908E+003
 -6.1025638E+003
 -6.5145082E+003
 -6.9192138E+003
 -7.3188109E+003
 -7.7144966E+003
 -8.1067069E+003
 -8.4953222E+003
 -8.8798689E+003
 -9.2597195E+003
 -9.6343072E+003
 -1.0003371E+004
 -1.0367224E+004
 -1.0727003E+004
 -1.1084764E+004
 -1.1443241E+004
 -1.1805129E+004
 -1.2171862E+004
 -1.2543093E+004
 -1.2915768E+004
 -1.3292314E+004
 -1.3681637E+004
 -1.4100953E+004
 -1.4669975E+004
 -1.6543411E+004
 -1.9701459E+004
 -2.1863266E+004
 -2.3313191E+004
 -2.3747311E+004
 -5.7027945E+003
 -6.2828490E+003
 -5.8529464E+003
 -4.7070823E+003
 -4.6674589E+003
 -5.2850760E+003
 -6.3127912E+003
 -3.6489492E+003
 -1.1162679E+003
 -2.1323333E+003
 -3.1592179E+003
 -2.9698619E+003
 -2.9969036E+003
 -3.4437566E+003
 -4.0038442E+003
 -4.5611502E+003
 -5.0792541E+003
 -5.5610125E+003
 -6.0151305E+003
 -6.4503444E+003
 -6.8730190E+003
 -7.2871441E+003
 -7.6947547E+003
 -8.0964378E+003
 -8.4918111E+003
 -8.8799286E+003
 -9.2596327E+003
 -9.6298876E+003
 -9.9901358E+003
 -1.0340720E+004
 -1.0683387E+004
 -1.1021840E+004
 -1.1362183E+004
 -1.1712955E+004
 -1.2084167E+004
 -1.2485422E+004
 -1.2922540E+004
 -1.3400453E+004
 -1.3912263E+004
 -1.4498309E+004
 -1.5173295E+004
 -1.5870123E+004
 -1.6082582E+004
 -2.0350980E+004
 -2.5196143E+004
 -2.3801680E+004
 -4.8712408E+001
 -3.8586926E+003
 -6.4338415E+003
 -6.8221207E+003
 -6.6021276E+003
 -7.3707837E+003
 -1.1539159E+004
 -9.8274118E+003
  1.3098889E+003
 -4.2843332E+003
 -3.3210615E+003
 -2.2108050E+003
 -2.6863819E+003
 -3.4843239E+003
 -4.2304106E+003
 -4.8590343E+003
 -5.4053873E+003
 -5.8979582E+003
 -6.3580216E+003
 -6.7989699E+003
 -7.2285174E+003
 -7.6505170E+003
 -8.0661260E+003
 -8.4747917E+003
 -8.8749607E+003
 -9.2646274E+003
 -9.6417770E+003
 -1.0004793E+004
 -1.0352902E+004
 -1.0686729E+004
 -1.1009021E+004
 -1.1325569E+004
 -1.1646268E+004
 -1.1985875E+004
 -1.2363808E+004
 -1.2800699E+004
 -1.3315112E+004
 -1.3911073E+004
 -1.4620736E+004
 -1.5369623E+004
 -1.6552628E+004
 -1.8126426E+004
 -2.1679371E+004
 -2.9166362E+004
 -2.8222681E+004
  5.9202976E+002
 -3.7042913E+003
 -6.7395639E+003
 -7.3443314E+003
 -9.6336369E+003
 -9.6592521E+003
 -7.7428181E+003
 -1.6118262E+003
 -9.0061875E+002
 -7.9945021E+002
 -2.6729692E+003
 -3.7909943E+003
 -4.6191497E+003
 -5.2398354E+003
 -5.7699508E+003
 -6.2473820E+003
 -6.6998158E+003
 -7.1394422E+003
 -7.5730348E+003
 -8.0025172E+003
 -8.4271824E+003
 -8.8446959E+003
 -9.2519489E+003
 -9.6456331E+003
 -1.0022690E+004
 -1.0380710E+004
 -1.0718392E+004
 -1.1036133E+004
 -1.1336878E+004
 -1.1627355E+004
 -1.1919756E+004
 -1.2233956E+004
 -1.2598705E+004
 -1.3050884E+004
 -1.3620726E+004
 -1.4332979E+004
 -1.5137796E+004
 -1.6249442E+004
 -1.6831797E+004
 -1.9268164E+004
 -1.8003457E+004
 -1.5292868E+004
  2.5751003E+003
  5.4817621E+002
 -1.0044026E+003
 -4.6723671E+003
 -6.7663888E+003
 -7.4894308E+003
 -8.0658456E+003
 -7.7938598E+003
 -3.8773701E+003
  3.8948453E+003
  5.9677645E+002
 -1.5363291E+003
 -3.6125739E+003
 -4.5053944E+003
 -5.1584311E+003
 -5.6791688E+003
 -6.1448436E+003
 -6.5887400E+003
 -7.0235973E+003
 -7.4588353E+003
 -7.8964669E+003
 -8.3352372E+003
 -8.7715950E+003
 -9.2009116E+003
 -9.6182291E+003
 -1.0018783E+004
 -1.0398353E+004
 -1.0753578E+004
 -1.1082321E+004
 -1.1384207E+004
 -1.1661410E+004
 -1.1919926E+004
 -1.2171602E+004
 -1.2437521E+004
 -1.2752673E+004
 -1.3170465E+004
 -1.3749087E+004
 -1.4526791E+004
 -1.5405836E+004
 -1.6393625E+004
 -1.7580097E+004
 -1.8652431E+004
 -2.0621859E+004
 -7.5778218E+003
 -6.0486895E+002
 -2.3360158E+003
 -5.1738827E+003
 -7.3678390E+003
 -7.8688485E+003
 -8.2875418E+003
 -1.1718618E+004
 -9.3914699E+003
 -3.6579103E+003
 -3.8891974E+003
 -5.1551217E+003
 -5.2554893E+003
 -5.7175621E+003
 -6.0759138E+003
 -6.4868122E+003
 -6.8885675E+003
 -7.3083843E+003
 -7.7420354E+003
 -8.1880460E+003
 -8.6406831E+003
 -9.0931917E+003
 -9.5383405E+003
 -9.9692590E+003
 -1.0379752E+004
 -1.0764470E+004
 -1.1119053E+004
 -1.1440359E+004
 -1.1726842E+004
 -1.1979134E+004
 -1.2200947E+004
 -1.2400794E+004
 -1.2595016E+004
 -1.2815604E+004
 -1.3120879E+004
 -1.3621136E+004
 -1.4379816E+004
 -1.5458215E+004
 -1.5921815E+004
 -1.6858574E+004
 -1.4255198E+004
 -1.0404364E+004
 -1.9560446E+003
 -3.8569458E+003
 -6.2329983E+003
 -7.7924807E+003
 -9.5477266E+003
 -8.2435700E+003
 -5.7847929E+003
 -6.0468938E+003
 -5.0554142E+003
 -5.5666725E+003
 -5.7669867E+003
 -5.9904828E+003
 -6.3919983E+003
 -6.7326782E+003
 -7.1192357E+003
 -7.5333196E+003
 -7.9756224E+003
 -8.4383492E+003
 -8.9122474E+003
 -9.3869233E+003
 -9.8526457E+003
 -1.0300861E+004
 -1.0724229E+004
 -1.1116484E+004
 -1.1472373E+004
 -1.1787747E+004
 -1.2059795E+004
 -1.2287365E+004
 -1.2471361E+004
 -1.2615232E+004
 -1.2726280E+004
 -1.2820427E+004
 -1.2934739E+004
 -1.3188166E+004
 -1.3814049E+004
 -1.5004816E+004
 -1.6011032E+004
 -1.5960374E+004
 -1.6834785E+004
 -7.2330070E+003
 -2.6071555E+002
 -6.2667842E+002
 -2.3185450E+003
 -5.1335687E+003
 -6.8476128E+003
 -7.9895865E+003
 -8.9794217E+003
 -6.8222254E+003
 -2.5719833E+003
  3.0404159E+003
 -4.7377783E+003
 -5.1337011E+003
 -5.4245376E+003
 -6.2690307E+003
 -6.5130945E+003
 -6.8741174E+003
 -7.2592053E+003
 -7.6863913E+003
 -8.1502907E+003
 -8.6416989E+003
 -9.1462378E+003
 -9.6498762E+003
 -1.0140817E+004
 -1.0609496E+004
 -1.1047997E+004
 -1.1449520E+004
 -1.1808117E+004
 -1.2118730E+004
 -1.2377421E+004
 -1.2581638E+004
 -1.2730260E+004
 -1.2823188E+004
 -1.2859926E+004
 -1.2836592E+004
 -1.2752543E+004
 -1.2602249E+004
 -1.2727206E+004
 -1.3697487E+004
 -1.6660248E+004
 -1.3792585E+004
 -8.1380902E+003
 -9.9719505E+002
 -3.7785416E+003
 -6.3239967E+003
 -7.2940294E+003
 -7.4798232E+003
 -6.9217385E+003
 -4.8502599E+003
 -2.4843063E+003
 -2.6256970E+003
 -4.3899472E+003
 -6.1329355E+003
 -6.2513266E+003
 -6.5071339E+003
 -6.9137235E+003
 -7.3085433E+003
 -7.7621610E+003
 -8.2632872E+003
 -8.7980741E+003
 -9.3433327E+003
 -9.8820451E+003
 -1.0401481E+004
 -1.0892311E+004
 -1.1346877E+004
 -1.1758285E+004
 -1.2120043E+004
 -1.2426187E+004
 -1.2671736E+004
 -1.2853192E+004
 -1.2969123E+004
 -1.3019105E+004
 -1.3004567E+004
 -1.2914409E+004
 -1.2737348E+004
 -1.2359205E+004
 -1.1704353E+004
 -1.1190016E+004
 -1.3303776E+004
 -1.3515301E+004
 -4.8489901E+003
 -3.1766119E+003
 -5.1879254E+003
 -7.1963645E+003
 -7.4958087E+003
 -7.2592162E+003
 -6.2841538E+003
 -6.7821019E+003
 -4.4053945E+003
  1.8812757E+003
 -6.1904498E+003
 -6.5879561E+003
 -5.7242968E+003
 -6.5727756E+003
 -6.8503495E+003
 -7.2754568E+003
 -7.7561326E+003
 -8.3215680E+003
 -8.9148881E+003
 -9.5097138E+003
 -1.0086488E+004
 -1.0634687E+004
 -1.1146823E+004
 -1.1616467E+004
 -1.2036956E+004
 -1.2401166E+004
 -1.2701895E+004
 -1.2932659E+004
 -1.3089028E+004
 -1.3169185E+004
 -1.3177560E+004
 -1.3116015E+004
 -1.3018283E+004
 -1.2824943E+004
 -1.2765335E+004
 -1.1976229E+004
 -1.2417028E+004
 -1.7870226E+004
 -1.6988748E+004
 -6.2596063E+003
 -5.9039767E+003
 -7.0021131E+003
 -7.4230731E+003
 -7.5146519E+003
 -5.8401670E+003
 -3.8636702E+003
 -5.0923058E+003
 -5.0705665E+003
 -6.1271146E+003
 -6.5556312E+003
 -6.7354785E+003
 -7.1054339E+003
 -7.6868064E+003
 -8.3424714E+003
 -9.0104931E+003
 -9.6565665E+003
 -1.0268489E+004
 -1.0840866E+004
 -1.1370109E+004
 -1.1851641E+004
 -1.2279025E+004
 -1.2644047E+004
 -1.2937405E+004
 -1.3150057E+004
 -1.3274729E+004
 -1.3309233E+004
 -1.3254930E+004
 -1.3134300E+004
 -1.2940585E+004
 -1.2854108E+004
 -1.2562079E+004
 -1.3540253E+004
 -1.1280516E+004
 -8.2855906E+003
 -3.9789923E+003
 -2.2832177E+003
 -4.5600083E+003
 -6.6921155E+003
 -7.3444775E+003
 -7.2005448E+003
 -6.3033575E+003
 -3.9544017E+003
 -1.1533319E+003
 -3.0875768E+003
 -5.1283036E+003
 -7.2055029E+003
 -6.3973206E+003
 -6.2694664E+003
 -6.8349447E+003
 -7.5878632E+003
 -8.3706345E+003
 -9.1109634E+003
 -9.7979863E+003
 -1.0432784E+004
 -1.1018929E+004
 -1.1557542E+004
 -1.2045825E+004
 -1.2477045E+004
 -1.2841057E+004
 -1.3125261E+004
 -1.3316101E+004
 -1.3401258E+004
 -1.3372652E+004
 -1.3229415E+004
 -1.2980546E+004
 -1.2640525E+004
 -1.2232499E+004
 -1.1767446E+004
 -1.1598186E+004
 -8.0384186E+003
 -2.2730301E+003
 -2.3967208E+003
 -6.5465361E+003
 -8.8018607E+003
 -8.0355496E+003
 -7.0021974E+003
 -5.2650238E+003
 -4.0687373E+003
 -2.1788461E+003
  3.1273619E+003
 -8.6435602E+003
 -7.4515021E+003
 -4.7964340E+003
 -5.6198283E+003
 -6.5533733E+003
 -7.5785296E+003
 -8.4611880E+003
 -9.2444118E+003
 -9.9437045E+003
 -1.0579380E+004
 -1.1163719E+004
 -1.1701406E+004
 -1.2190247E+004
 -1.2622227E+004
 -1.2984339E+004
 -1.3259430E+004
 -1.3427488E+004
 -1.3467832E+004
 -1.3362519E+004
 -1.3100158E+004
 -1.2678365E+004
 -1.2091757E+004
 -1.1307557E+004
 -1.0052494E+004
 -8.3602333E+003
 -5.1391342E+003
 -2.4374899E+003
 -5.5656322E+003
 -8.0303461E+003
 -9.5445426E+003
 -8.0119890E+003
 -6.6959935E+003
 -3.9330185E+003
 -2.0034687E+003
 -5.0251351E+003
 -3.3546751E+003
 -3.0021229E+003
 -5.2278084E+003
 -6.6203179E+003
 -7.7712479E+003
 -8.6565962E+003
 -9.4219572E+003
 -1.0089627E+004
 -1.0698950E+004
 -1.1264008E+004
 -1.1790088E+004
 -1.2273491E+004
 -1.2704001E+004
 -1.3065149E+004
 -1.3334573E+004
 -1.3484527E+004
 -1.3483085E+004
 -1.3298646E+004
 -1.2902463E+004
 -1.2287383E+004
 -1.1424382E+004
 -1.0402238E+004
 -8.7889077E+003
 -6.9175907E+003
 -6.8790771E+003
 -4.2064069E+003
 -1.1315738E+004
 -8.3516417E+003
 -8.0092631E+003
 -7.5593650E+003
 -5.6726088E+003
 -2.2891716E+003
  6.3501140E+001
  1.0835162E+003
 -8.9639756E+002
 -3.4670313E+003
 -5.9624945E+003
 -7.2247806E+003
 -8.1431969E+003
 -8.9534848E+003
 -9.6139268E+003
 -1.0212140E+004
 -1.0770745E+004
 -1.1302853E+004
 -1.1808552E+004
 -1.2281882E+004
 -1.2709788E+004
 -1.3072697E+004
 -1.3343695E+004
 -1.3487381E+004
 -1.3460084E+004
 -1.3210382E+004
 -1.2694366E+004
 -1.1866981E+004
 -1.0787119E+004
 -9.3355965E+003
 -8.4053555E+003
 -6.0970961E+003
 -3.8943828E+003
 -8.9628670E+003
 -3.5936902E+003
 -8.1204766E+003
 -8.6709181E+003
 -7.4291694E+003
 -6.3302292E+003
 -3.9664594E+003
 -6.9287029E+002
  1.0589622E+003
 -1.3586535E+003
 -4.7059529E+003
 -6.7381537E+003
 -7.4926187E+003
 -7.6927996E+003
 -8.6687972E+003
 -9.2248507E+003
 -9.7623489E+003
 -1.0267627E+004
 -1.0769103E+004
 -1.1260289E+004
 -1.1740944E+004
 -1.2200951E+004
 -1.2625436E+004
 -1.2993036E+004
 -1.3274600E+004
 -1.3430110E+004
 -1.3405079E+004
 -1.3129898E+004
 -1.2525358E+004
 -1.1530017E+004
 -1.0147019E+004
 -8.4196016E+003
 -6.6490687E+003
 -4.0950819E+003
 -1.3032884E+003
 -9.0141187E+003
 -1.1399157E+004
 -1.0866640E+004
 -6.8990324E+003
 -4.7616936E+003
 -2.0164690E+003
 -6.3734637E+002
 -1.1202187E+004
 -6.4045394E+003
 -6.5328814E+003
 -8.4350914E+003
 -8.9708060E+003
 -9.3619087E+003
 -9.7784931E+003
 -1.0226341E+004
 -1.0668340E+004
 -1.1120752E+004
 -1.1574141E+004
 -1.2018328E+004
 -1.2436841E+004
 -1.2808867E+004
 -1.3107015E+004
 -1.3292336E+004
 -1.3307015E+004
 -1.3064280E+004
 -1.2453658E+004
 -1.1339378E+004
 -9.7053577E+003
 -7.6418012E+003
 -5.6195193E+003
 -4.6805358E+003
 -2.6653451E+003
 -1.6313480E+004
 -1.0744619E+004
 -8.2444149E+003
 -6.0503261E+003
 -2.8553747E+003
 -2.3767175E+002
  8.3518595E+002
 -1.5809819E+003
 -3.4631541E+003
 -6.0730887E+003
 -9.0860513E+003
 -8.7985670E+003
 -9.2319232E+003
 -9.6837953E+003
 -1.0060530E+004
 -1.0462385E+004
 -1.0876376E+004
 -1.1302727E+004
 -1.1727542E+004
 -1.2133367E+004
 -1.2501762E+004
 -1.2812001E+004
 -1.3034717E+004
 -1.3119781E+004
 -1.2982736E+004
 -1.2469426E+004
 -1.1413019E+004
 -9.4914134E+003
 -7.1264017E+003
 -4.1684297E+003
 -2.4793108E+003
 -9.3189951E+003
 -1.2233349E+004
 -1.2755366E+004
 -9.6876348E+003
 -5.8100998E+003
 -4.1069802E+003
 -1.9233879E+003
  8.9475360E+002
  1.5686843E+003
 -1.5706625E+003
 -9.5881897E+002
 -8.1552809E+003
 -8.9436840E+003
 -7.9424029E+003
 -9.2716640E+003
 -9.4115219E+003
 -9.8121200E+003
 -1.0152332E+004
 -1.0532634E+004
 -1.0932172E+004
 -1.1333289E+004
 -1.1713131E+004
 -1.2057708E+004
 -1.2357319E+004
 -1.2600140E+004
 -1.2759648E+004
 -1.2772455E+004
 -1.2504820E+004
 -1.1648498E+004
 -9.9147971E+003
 -6.6165173E+003
 -3.7315245E+003
 -8.9512390E+002
 -2.1672437E+004
 -1.3363860E+004
 -7.6394673E+003
 -3.9509663E+003
 -1.5784080E+003
  4.8642249E+002
  3.8028499E+003
  4.1520700E+003
 -5.3661882E+003
 -6.4954102E+003
 -9.0095047E+003
 -8.8218173E+003
 -9.1994831E+003
 -9.4826924E+003
 -9.7540144E+003
 -1.0103076E+004
 -1.0485267E+004
 -1.0856685E+004
 -1.1189754E+004
 -1.1475770E+004
 -1.1719559E+004
 -1.1929987E+004
 -1.2116787E+004
 -1.2252135E+004
 -1.2303900E+004
 -1.1885396E+004
 -1.0727058E+004
 -6.2890092E+003
 -3.1204998E+003
 -2.1602661E+004
 -1.8101231E+004
 -1.2795945E+004
 -6.9057448E+003
 -4.3837256E+003
 -1.5753342E+003
  1.3608225E+003
  2.8824411E+003
  2.7973474E+003
  3.3942985E+003
 -8.4837234E+003
 -9.3510036E+003
 -8.3583047E+003
 -9.1922423E+003
 -9.0198801E+003
 -9.2737541E+003
 -9.6218314E+003
 -1.0007323E+004
 -1.0341059E+004
 -1.0597269E+004
 -1.0777468E+004
 -1.0900471E+004
 -1.0995802E+004
 -1.1096717E+004
 -1.1243815E+004
 -1.1444157E+004
 -1.1658680E+004
 -1.1548205E+004
 -7.3354881E+003
 -5.8247236E+002
 -1.7260240E+004
 -1.5690699E+004
 -1.4046560E+004
 -1.0531381E+004
 -6.0286820E+003
 -2.2666782E+003
  3.8391453E+002
  2.7770294E+003
  3.4901387E+003
  1.6754002E+003
 -5.7929435E+003
 -7.1957031E+003
 -9.7126013E+003
 -8.6554448E+003
 -8.4213484E+003
 -8.7212304E+003
 -9.1665356E+003
 -9.5750557E+003
 -9.8502954E+003
 -9.9903524E+003
 -1.0010508E+004
 -9.9431160E+003
 -9.8249544E+003
 -9.7128027E+003
 -9.6272742E+003
 -9.7738488E+003
 -9.8241582E+003
 -1.1476658E+004
 -1.0750227E+004
 -9.2537129E+003
 -1.5552658E+004
 -1.4248174E+004
 -1.2813776E+004
 -1.0426350E+004
 -7.4556633E+003
 -4.0355013E+003
 -9.0875997E+002
  1.5778511E+003
  3.8317274E+003
  4.6505482E+003
  3.1163775E+003
  4.3778915E+003
 -1.0411283E+004
 -1.0941415E+004
 -7.1301311E+003
 -7.7504168E+003
 -8.2044049E+003
 -8.8980855E+003
 -9.2789679E+003
 -9.4591516E+003
 -9.4336677E+003
 -9.2446542E+003
 -8.9284583E+003
 -8.5285559E+003
 -8.0827113E+003
 -7.6427983E+003
 -7.2118118E+003
 -6.9917411E+003
 -6.8424736E+003
 -7.7115556E+003
 -1.8731524E+004
 -1.3683597E+004
 -1.2959764E+004
 -1.0973463E+004
 -1.0056733E+004
 -8.0254909E+003
 -5.2767145E+003
 -2.2800618E+003
  4.5600277E+002
  3.3162414E+003
  5.5326002E+003
  5.6979530E+003
 -1.0973052E+004
 -7.2050239E+003
 -5.7671067E+003
 -6.9330615E+003
 -8.2762909E+003
 -8.9066529E+003
 -9.2133027E+003
 -9.2189342E+003
 -8.9872033E+003
 -8.5536006E+003
 -7.9621880E+003
 -7.2563396E+003
 -6.4736767E+003
 -5.6198692E+003
 -4.7210692E+003
 -3.6413901E+003
 -2.7006122E+003
 -1.0938018E+003
 -7.6690157E+003
 -1.1126567E+004
 -9.3841339E+003
 -9.1403393E+003
 -4.6027669E+002
 -1.0590204E+004
 -7.2135469E+003
 -1.1752316E+004
 -9.5206915E+003
 -8.4746124E+003
 -6.2541200E+003
 -3.4638060E+003
 -3.8660038E+002
  2.3875976E+003
  4.9510886E+003
  6.0928520E+003
 -1.1994834E+004
 -2.0258813E+003
 -4.8064277E+003
 -7.9670863E+003
 -8.8555202E+003
 -9.2953630E+003
 -9.3590355E+003
 -9.1481783E+003
 -8.6840414E+003
 -7.9956610E+003
 -7.1345983E+003
 -6.1590849E+003
 -5.1171115E+003
 -4.0275998E+003
 -2.8907022E+003
 -1.7731573E+003
 -9.6907872E+002
 -2.4767589E+003
 -6.8360183E+003
 -1.2335906E+004
 -1.3985258E+004
 -1.4418374E+004
 -1.2436215E+004
 -9.8376951E+003
 -7.5194616E+003
 -5.3106653E+003
 -1.5945071E+003
  1.3676712E+003
  3.4572534E+003
  4.8379399E+003
 -5.4955941E+003
 -7.5650697E+003
 -9.9809870E+003
 -9.6794659E+003
 -9.8556397E+003
 -9.6140215E+003
 -9.2255079E+003
 -8.5268835E+003
 -7.5945815E+003
 -6.4941039E+003
 -5.3157448E+003
 -4.1488721E+003
 -3.0635698E+003
 -2.0604550E+003
 -1.3152193E+003
 -1.3556119E+003
 -2.9128518E+003
 -6.5893041E+003
 -1.0507470E+004
 -1.2998378E+004
 -1.3116244E+004
 -1.1914480E+004
 -9.7658879E+003
 -6.1621525E+003
 -2.8486652E+003
  5.4626233E+002
  1.3969751E+003
  2.3428635E+003
 -1.1950241E+004
 -9.5107194E+003
 -1.0484282E+004
 -1.0472310E+004
 -1.0066840E+004
 -1.0010262E+004
 -9.3926305E+003
 -8.4700752E+003
 -7.3246713E+003
 -6.0287991E+003
 -4.7042117E+003
 -3.5400220E+003
 -2.6396558E+003
 -2.0965908E+003
 -1.8097312E+003
 -2.2020542E+003
 -3.5660213E+003
 -5.7196343E+003
 -9.3673931E+003
 -1.2996242E+004
 -1.1786457E+004
 -1.0209361E+004
 -7.1476337E+003
 -5.0149092E+003
 -1.2009085E+003
  1.8187786E+003
  6.3808242E+003
 -1.0429340E+004
 -1.1245761E+004
 -9.0967985E+003
 -1.0813527E+004
 -1.0402231E+004
 -9.5940016E+003
 -8.4285021E+003
 -7.1109563E+003
 -5.7093786E+003
 -4.2706039E+003
 -3.1055925E+003
 -2.6989109E+003
 -2.6067351E+003
 -2.7665691E+003
 -3.1701919E+003
 -4.6985816E+003
 -6.0724025E+003
 -8.8957669E+003
 -1.0857555E+004
 -8.1962088E+003
 -9.5267355E+003
 -4.7547615E+003
 -1.1586679E+003
 -8.5890126E+003
 -7.0884537E+003
 -1.0916452E+004
 -1.1581881E+004
 -1.1253454E+004
 -9.6607400E+003
 -7.9671640E+003
 -6.7536148E+003
 -5.4558116E+003
 -3.9420956E+003
 -2.6284843E+003
 -2.3464742E+003
 -3.8286383E+003
 -4.5890447E+003
 -4.0564263E+003
 -6.9291655E+003
 -7.5561296E+003
 -1.2832861E+004
 -7.6884808E+003
 -3.1746229E+003
 -5.7441940E+003
 -4.0869914E+003
 -9.1284450E+003
 -1.0547150E+004
 -1.4707788E+004
 -1.1870235E+004
 -8.3174692E+003
 -7.2807323E+003
 -6.1534724E+003
 -5.0463805E+003
 -4.2223720E+003
 -2.6020971E+003
 -3.0728915E+003
 -3.8491510E+003
 -4.5559405E+003
 -4.1106875E+003
 -9.7644257E+003
 -6.8052699E+003
 -9.1226104E+003
  9.4123874E+002
 -8.1580317E+003
 -2.0589562E+004
 -1.9537569E+004
 -1.0061076E+004
 -6.1844698E+003
 -5.2051356E+003
 -3.8001616E+003
 -2.9859806E+003
 -3.3745623E+003
 -2.9835600E+003
 -6.4687632E+003
 -2.8845357E+003
 -2.3624631E+003
 -2.8695153E+003
 -6.0871500E+003
  4.4880463E+003
 -1.5417304E+004
 -1.0471735E+004
 -2.3395024E+003
 -7.7131112E+003
 -3.0910143E+003
 -1.0622763E+003
 -9.6652358E+002
 -1.9187039E+003
 -1.9127590E+003
 -5.7066440E+003
  2.4323685E+004
  1.9984076E+003
  1.4798737E+003
 -5.8554522E+003
SCALARS Stress_yz double
LOOKUP_TABLE default
  0.0000000E+000
  0.0000000E+000
  0.0000000E+000
  0.0000000E+000
  0.0000000E+000
  0.0000000E+000
  0.0000000E+000
  0.0000000E+000
  0.0000000E+000
  0.0000000E+000
  0.0000000E+000
  0.0000000E+000
  0.0000000E+000
  0.0000000E+000
  0.0000000E+000
  0.0000000E+000
  0.0000000E+000
  0.0000000E+000
  0.0000000E+000
  0.0000000E+000
  0.0000000E+000
  0.0000000E+000
  0.0000000E+000
  0.0000000E+000
  0.0000000E+000
  0.0000000E+000
  0.0000000E+000
  0.0000000E+000
  0.0000000E+000
  0.0000000E+000
  0.0000000E+000
  0.0000000E+000
  0.0000000E+000
  0.0000000E+000
  0.0000000E+000
  0.0000000E+000
  0.0000000E+000
  0.0000000E+000
  0.0000000E+000
  0.0000000E+000
  0.0000000E+000
  0.0000000E+000
  0.0000000E+000
  0.0000000E+000
  0.0000000E+000
  0.0000000E+000
  0.0000000E+000
  0.0000000E+000
  0.0000000E+000
  0.0000000E+000
  0.0000000E+000
  0.0000000E+000
  0.0000000E+000
  0.0000000E+000
  0.0000000E+000
  0.0000000E+000
  0.0000000E+000
  0.0000000E+000
  0.0000000E+000
  0.0000000E+000
  0.0000000E+000
  0.0000000E+000
  0.0000000E+000
  0.0000000E+000
  0.0000000E+000
  0.0000000E+000
  0.0000000E+000
  0.0000000E+000
  0.0000000E+000
  0.0000000E+000
  0.0000000E+000
  0.0000000E+000
  0.0000000E+000
  0.0000000E+000
  0.0000000E+000
  0.0000000E+000
  0.0000000E+000
  0.0000000E+000
  0.0000000E+000
  0.0000000E+000
  0.0000000E+000
  0.0000000E+000
  0.0000000E+000
  0.0000000E+000
  0.0000000E+000
  0.0000000E+000
  0.0000000E+000
  0.0000000E+000
  0.0000000E+000
  0.0000000E+000
  0.0000000E+000
  0.0000000E+000
  0.0000000E+000
  0.0000000E+000
  0.0000000E+000
  0.0000000E+000
  0.0000000E+000
  0.0000000E+000
  0.0000000E+000
  0.0000000E+000
  0.0000000E+000
  0.0000000E+000
  0.0000000E+000
  0.0000000E+000
  0.0000000E+000
  0.0000000E+000
  0.0000000E+000
  0.0000000E+000
  0.0000000E+000
  0.0000000E+000
  0.0000000E+000
  0.0000000E+000
  0.0000000E+000
  0.0000000E+000
  0.0000000E+000
  0.0000000E+000
  0.0000000E+000
  0.0000000E+000
  0.0000000E+000
  0.0000000E+000
  0.0000000E+000
  0.0000000E+000
  0.0000000E+000
  0.0000000E+000
  0.0000000E+000
  0.0000000E+000
  0.0000000E+000
  0.0000000E+000
  0.0000000E+000
  0.0000000E+000
  0.0000000E+000
  0.0000000E+000
  0.0000000E+000
  0.0000000E+000
  0.0000000E+000
  0.0000000E+000
  0.0000000E+000
  0.0000000E+000
  0.0000000E+000
  0.0000000E+000
  0.0000000E+000
  0.0000000E+000
  0.0000000E+000
  0.0000000E+000
  0.0000000E+000
  0.0000000E+000
  0.0000000E+000
  0.0000000E+000
  0.0000000E+000
  0.0000000E+000
  0.0000000E+000
  0.0000000E+000
  0.0000000E+000
  0.0000000E+000
  0.0000000E+000
  0.0000000E+000
  0.0000000E+000
  0.0000000E+000
  0.0000000E+000
  0.0000000E+000
  0.0000000E+000
  0.0000000E+000
  0.0000000E+000
  0.0000000E+000
  0.0000000E+000
  0.0000000E+000
  0.0000000E+000
  0.0000000E+000
  0.0000000E+000
  0.0000000E+000
  0.0000000E+000
  0.0000000E+000
  0.0000000E+000
  0.0000000E+000
  0.0000000E+000
  0.0000000E+000
  0.0000000E+000
  0.0000000E+000
  0.0000000E+000
  0.0000000E+000
  0.0000000E+000
  0.0000000E+000
  0.0000000E+000
  0.0000000E+000
  0.0000000E+000
  0.0000000E+000
  0.0000000E+000
  0.0000000E+000
  0.0000000E+000
  0.0000000E+000
  0.0000000E+000
  0.0000000E+000
  0.0000000E+000
  0.0000000E+000
  0.0000000E+000
  0.0000000E+000
  0.0000000E+000
  0.0000000E+000
  0.0000000E+000
  0.0000000E+000
  0.0000000E+000
  0.0000000E+000
  0.0000000E+000
  0.0000000E+000
  0.0000000E+000
  0.0000000E+000
  0.0000000E+000
  0.0000000E+000
  0.0000000E+000
  0.0000000E+000
  0.0000000E+000
  0.0000000E+000
  0.0000000E+000
  0.0000000E+000
  0.0000000E+000
  0.0000000E+000
  0.0000000E+000
  0.0000000E+000
  0.0000000E+000
  0.0000000E+000
  0.0000000E+000
  0.0000000E+000
  0.0000000E+000
  0.0000000E+000
  0.0000000E+000
  0.0000000E+000
  0.0000000E+000
  0.0000000E+000
  0.0000000E+000
  0.0000000E+000
  0.0000000E+000
  0.0000000E+000
  0.0000000E+000
  0.0000000E+000
  0.0000000E+000
  0.0000000E+000
  0.0000000E+000
  0.0000000E+000
  0.0000000E+000
  0.0000000E+000
  0.0000000E+000
  0.0000000E+000
  0.0000000E+000
  0.0000000E+000
  0.0000000E+000
  0.0000000E+000
  0.0000000E+000
  0.0000000E+000
  0.0000000E+000
  0.0000000E+000
  0.0000000E+000
  0.0000000E+000
  0.0000000E+000
  0.0000000E+000
  0.0000000E+000
  0.0000000E+000
  0.0000000E+000
  0.0000000E+000
  0.0000000E+000
  0.0000000E+000
  0.0000000E+000
  0.0000000E+000
  0.0000000E+000
  0.0000000E+000
  0.0000000E+000
  0.0000000E+000
  0.0000000E+000
  0.0000000E+000
  0.0000000E+000
  0.0000000E+000
  0.0000000E+000
  0.0000000E+000
  0.0000000E+000
  0.0000000E+000
  0.0000000E+000
  0.0000000E+000
  0.0000000E+000
  0.0000000E+000
  0.0000000E+000
  0.0000000E+000
  0.0000000E+000
  0.0000000E+000
  0.0000000E+000
  0.0000000E+000
  0.0000000E+000
  0.0000000E+000
  0.0000000E+000
  0.0000000E+000
  0.0000000E+000
  0.0000000E+000
  0.0000000E+000
  0.0000000E+000
  0.0000000E+000
  0.0000000E+000
  0.0000000E+000
  0.0000000E+000
  0.0000000E+000
  0.0000000E+000
  0.0000000E+000
  0.0000000E+000
  0.0000000E+000
  0.0000000E+000
  0.0000000E+000
  0.0000000E+000
  0.0000000E+000
  0.0000000E+000
  0.0000000E+000
  0.0000000E+000
  0.0000000E+000
  0.0000000E+000
  0.0000000E+000
  0.0000000E+000
  0.0000000E+000
  0.0000000E+000
  0.0000000E+000
  0.0000000E+000
  0.0000000E+000
  0.0000000E+000
  0.0000000E+000
  0.0000000E+000
  0.0000000E+000
  0.0000000E+000
  0.0000000E+000
  0.0000000E+000
  0.0000000E+000
  0.0000000E+000
  0.0000000E+000
  0.0000000E+000
  0.0000000E+000
  0.0000000E+000
  0.0000000E+000
  0.0000000E+000
  0.0000000E+000
  0.0000000E+000
  0.0000000E+000
  0.0000000E+000
  0.0000000E+000
  0.0000000E+000
  0.0000000E+000
  0.0000000E+000
  0.0000000E+000
  0.0000000E+000
  0.0000000E+000
  0.0000000E+000
  0.0000000E+000
  0.0000000E+000
  0.0000000E+000
  0.0000000E+000
  0.0000000E+000
  0.0000000E+000
  0.0000000E+000
  0.0000000E+000
  0.0000000E+000
  0.0000000E+000
  0.0000000E+000
  0.0000000E+000
  0.0000000E+000
  0.0000000E+000
  0.0000000E+000
  0.0000000E+000
  0.0000000E+000
  0.0000000E+000
  0.0000000E+000
  0.0000000E+000
  0.0000000E+000
  0.0000000E+000
  0.0000000E+000
  0.0000000E+000
  0.0000000E+000
  0.0000000E+000
  0.0000000E+000
  0.0000000E+000
  0.0000000E+000
  0.0000000E+000
  0.0000000E+000
  0.0000000E+000
  0.0000000E+000
  0.0000000E+000
  0.0000000E+000
  0.0000000E+000
  0.0000000E+000
  0.0000000E+000
  0.0000000E+000
  0.0000000E+000
  0.0000000E+000
  0.0000000E+000
  0.0000000E+000
  0.0000000E+000
  0.0000000E+000
  0.0000000E+000
  0.0000000E+000
  0.0000000E+000
  0.0000000E+000
  0.0000000E+000
  0.0000000E+000
  0.0000000E+000
  0.0000000E+000
  0.0000000E+000
  0.0000000E+000
  0.0000000E+000
  0.0000000E+000
  0.0000000E+000
  0.0000000E+000
  0.0000000E+000
  0.0000000E+000
  0.0000000E+000
  0.0000000E+000
  0.0000000E+000
  0.0000000E+000
  0.0000000E+000
  0.0000000E+000
  0.0000000E+000
  0.0000000E+000
  0.0000000E+000
  0.0000000E+000
  0.0000000E+000
  0.0000000E+000
  0.0000000E+000
  0.0000000E+000
  0.0000000E+000
  0.0000000E+000
  0.0000000E+000
  0.0000000E+000
  0.0000000E+000
  0.0000000E+000
  0.0000000E+000
  0.0000000E+000
  0.0000000E+000
  0.0000000E+000
  0.0000000E+000
  0.0000000E+000
  0.0000000E+000
  0.0000000E+000
  0.0000000E+000
  0.0000000E+000
  0.0000000E+000
  0.0000000E+000
  0.0000000E+000
  0.0000000E+000
  0.0000000E+000
  0.0000000E+000
  0.0000000E+000
  0.0000000E+000
  0.0000000E+000
  0.0000000E+000
  0.0000000E+000
  0.0000000E+000
  0.0000000E+000
  0.0000000E+000
  0.0000000E+000
  0.0000000E+000
  0.0000000E+000
  0.0000000E+000
  0.0000000E+000
  0.0000000E+000
  0.0000000E+000
  0.0000000E+000
  0.0000000E+000
  0.0000000E+000
  0.0000000E+000
  0.0000000E+000
  0.0000000E+000
  0.0000000E+000
  0.0000000E+000
  0.0000000E+000
  0.0000000E+000
  0.0000000E+000
  0.0000000E+000
  0.0000000E+000
  0.0000000E+000
  0.0000000E+000
  0.0000000E+000
  0.0000000E+000
  0.0000000E+000
  0.0000000E+000
  0.0000000E+000
  0.0000000E+000
  0.0000000E+000
  0.0000000E+000
  0.0000000E+000
  0.0000000E+000
  0.0000000E+000
  0.0000000E+000
  0.0000000E+000
  0.0000000E+000
  0.0000000E+000
  0.0000000E+000
  0.0000000E+000
  0.0000000E+000
  0.0000000E+000
  0.0000000E+000
  0.0000000E+000
  0.0000000E+000
  0.0000000E+000
  0.0000000E+000
  0.0000000E+000
  0.0000000E+000
  0.0000000E+000
  0.0000000E+000
  0.0000000E+000
  0.0000000E+000
  0.0000000E+000
  0.0000000E+000
  0.0000000E+000
  0.0000000E+000
  0.0000000E+000
  0.0000000E+000
  0.0000000E+000
  0.0000000E+000
  0.0000000E+000
  0.0000000E+000
  0.0000000E+000
  0.0000000E+000
  0.0000000E+000
  0.0000000E+000
  0.0000000E+000
  0.0000000E+000
  0.0000000E+000
  0.0000000E+000
  0.0000000E+000
  0.0000000E+000
  0.0000000E+000
  0.0000000E+000
  0.0000000E+000
  0.0000000E+000
  0.0000000E+000
  0.0000000E+000
  0.0000000E+000
  0.0000000E+000
  0.0000000E+000
  0.0000000E+000
  0.0000000E+000
  0.0000000E+000
  0.0000000E+000
  0.0000000E+000
  0.0000000E+000
  0.0000000E+000
  0.0000000E+000
  0.0000000E+000
  0.0000000E+000
  0.0000000E+000
  0.0000000E+000
  0.0000000E+000
  0.0000000E+000
  0.0000000E+000
  0.0000000E+000
  0.0000000E+000
  0.0000000E+000
  0.0000000E+000
  0.0000000E+000
  0.0000000E+000
  0.0000000E+000
  0.0000000E+000
  0.0000000E+000
  0.0000000E+000
  0.0000000E+000
  0.0000000E+000
  0.0000000E+000
  0.0000000E+000
  0.0000000E+000
  0.0000000E+000
  0.0000000E+000
  0.0000000E+000
  0.0000000E+000
  0.0000000E+000
  0.0000000E+000
  0.0000000E+000
  0.0000000E+000
  0.0000000E+000
  0.0000000E+000
  0.0000000E+000
  0.0000000E+000
  0.0000000E+000
  0.0000000E+000
  0.0000000E+000
  0.0000000E+000
  0.0000000E+000
  0.0000000E+000
  0.0000000E+000
  0.0000000E+000
  0.0000000E+000
  0.0000000E+000
  0.0000000E+000
  0.0000000E+000
  0.0000000E+000
  0.0000000E+000
  0.0000000E+000
  0.0000000E+000
  0.0000000E+000
  0.0000000E+000
  0.0000000E+000
  0.0000000E+000
  0.0000000E+000
  0.0000000E+000
  0.0000000E+000
  0.0000000E+000
  0.0000000E+000
  0.0000000E+000
  0.0000000E+000
  0.0000000E+000
  0.0000000E+000
  0.0000000E+000
  0.0000000E+000
  0.0000000E+000
  0.0000000E+000
  0.0000000E+000
  0.0000000E+000
  0.0000000E+000
  0.0000000E+000
  0.0000000E+000
  0.0000000E+000
  0.0000000E+000
  0.0000000E+000
  0.0000000E+000
  0.0000000E+000
  0.0000000E+000
  0.0000000E+000
  0.0000000E+000
  0.0000000E+000
  0.0000000E+000
  0.0000000E+000
  0.0000000E+000
  0.0000000E+000
  0.0000000E+000
  0.0000000E+000
  0.0000000E+000
  0.0000000E+000
  0.0000000E+000
  0.0000000E+000
  0.0000000E+000
  0.0000000E+000
  0.0000000E+000
  0.0000000E+000
  0.0000000E+000
  0.0000000E+000
  0.0000000E+000
  0.0000000E+000
  0.0000000E+000
  0.0000000E+000
  0.0000000E+000
  0.0000000E+000
  0.0000000E+000
  0.0000000E+000
  0.0000000E+000
  0.0000000E+000
  0.0000000E+000
  0.0000000E+000
  0.0000000E+000
  0.0000000E+000
  0.0000000E+000
  0.0000000E+000
  0.0000000E+000
  0.0000000E+000
  0.0000000E+000
  0.0000000E+000
  0.0000000E+000
  0.0000000E+000
  0.0000000E+000
  0.0000000E+000
  0.0000000E+000
  0.0000000E+000
  0.0000000E+000
  0.0000000E+000
  0.0000000E+000
  0.0000000E+000
  0.0000000E+000
  0.0000000E+000
  0.0000000E+000
  0.0000000E+000
  0.0000000E+000
  0.0000000E+000
  0.0000000E+000
  0.0000000E+000
  0.0000000E+000
  0.0000000E+000
  0.0000000E+000
  0.0000000E+000
  0.0000000E+000
  0.0000000E+000
  0.0000000E+000
  0.0000000E+000
  0.0000000E+000
  0.0000000E+000
  0.0000000E+000
  0.0000000E+000
  0.0000000E+000
  0.0000000E+000
  0.0000000E+000
  0.0000000E+000
  0.0000000E+000
  0.0000000E+000
  0.0000000E+000
  0.0000000E+000
  0.0000000E+000
  0.0000000E+000
  0.0000000E+000
  0.0000000E+000
  0.0000000E+000
  0.0000000E+000
  0.0000000E+000
  0.0000000E+000
  0.0000000E+000
  0.0000000E+000
  0.0000000E+000
  0.0000000E+000
  0.0000000E+000
  0.0000000E+000
  0.0000000E+000
  0.0000000E+000
  0.0000000E+000
  0.0000000E+000
  0.0000000E+000
  0.0000000E+000
  0.0000000E+000
  0.0000000E+000
  0.0000000E+000
  0.0000000E+000
  0.0000000E+000
  0.0000000E+000
  0.0000000E+000
  0.0000000E+000
  0.0000000E+000
  0.0000000E+000
  0.0000000E+000
  0.0000000E+000
  0.0000000E+000
  0.0000000E+000
  0.0000000E+000
  0.0000000E+000
  0.0000000E+000
  0.0000000E+000
  0.0000000E+000
  0.0000000E+000
  0.0000000E+000
  0.0000000E+000
  0.0000000E+000
  0.0000000E+000
  0.0000000E+000
  0.0000000E+000
  0.0000000E+000
  0.0000000E+000
  0.0000000E+000
  0.0000000E+000
  0.0000000E+000
  0.0000000E+000
  0.0000000E+000
  0.0000000E+000
  0.0000000E+000
  0.0000000E+000
  0.0000000E+000
  0.0000000E+000
  0.0000000E+000
  0.0000000E+000
  0.0000000E+000
  0.0000000E+000
  0.0000000E+000
  0.0000000E+000
  0.0000000E+000
  0.0000000E+000
  0.0000000E+000
  0.0000000E+000
  0.0000000E+000
  0.0000000E+000
  0.0000000E+000
  0.0000000E+000
  0.0000000E+000
  0.0000000E+000
  0.0000000E+000
  0.0000000E+000
  0.0000000E+000
  0.0000000E+000
  0.0000000E+000
  0.0000000E+000
  0.0000000E+000
  0.0000000E+000
  0.0000000E+000
  0.0000000E+000
  0.0000000E+000
  0.0000000E+000
  0.0000000E+000
  0.0000000E+000
  0.0000000E+000
  0.0000000E+000
  0.0000000E+000
  0.0000000E+000
  0.0000000E+000
  0.0000000E+000
  0.0000000E+000
  0.0000000E+000
  0.0000000E+000
  0.0000000E+000
  0.0000000E+000
  0.0000000E+000
  0.0000000E+000
  0.0000000E+000
  0.0000000E+000
  0.0000000E+000
  0.0000000E+000
  0.0000000E+000
  0.0000000E+000
  0.0000000E+000
  0.0000000E+000
  0.0000000E+000
  0.0000000E+000
  0.0000000E+000
  0.0000000E+000
  0.0000000E+000
  0.0000000E+000
  0.0000000E+000
  0.0000000E+000
  0.0000000E+000
  0.0000000E+000
  0.0000000E+000
  0.0000000E+000
  0.0000000E+000
  0.0000000E+000
  0.0000000E+000
  0.0000000E+000
  0.0000000E+000
  0.0000000E+000
  0.0000000E+000
  0.0000000E+000
  0.0000000E+000
  0.0000000E+000
  0.0000000E+000
  0.0000000E+000
  0.0000000E+000
  0.0000000E+000
  0.0000000E+000
  0.0000000E+000
  0.0000000E+000
  0.0000000E+000
  0.0000000E+000
  0.0000000E+000
  0.0000000E+000
  0.0000000E+000
  0.0000000E+000
  0.0000000E+000
  0.0000000E+000
  0.0000000E+000
  0.0000000E+000
  0.0000000E+000
  0.0000000E+000
  0.0000000E+000
  0.0000000E+000
  0.0000000E+000
  0.0000000E+000
  0.0000000E+000
  0.0000000E+000
  0.0000000E+000
  0.0000000E+000
  0.0000000E+000
  0.0000000E+000
  0.0000000E+000
  0.0000000E+000
  0.0000000E+000
  0.0000000E+000
  0.0000000E+000
  0.0000000E+000
  0.0000000E+000
  0.0000000E+000
  0.0000000E+000
  0.0000000E+000
  0.0000000E+000
  0.0000000E+000
  0.0000000E+000
  0.0000000E+000
  0.0000000E+000
  0.0000000E+000
  0.0000000E+000
  0.0000000E+000
  0.0000000E+000
  0.0000000E+000
  0.0000000E+000
  0.0000000E+000
  0.0000000E+000
  0.0000000E+000
  0.0000000E+000
  0.0000000E+000
  0.0000000E+000
  0.0000000E+000
  0.0000000E+000
  0.0000000E+000
  0.0000000E+000
  0.0000000E+000
  0.0000000E+000
  0.0000000E+000
  0.0000000E+000
  0.0000000E+000
  0.0000000E+000
  0.0000000E+000
  0.0000000E+000
  0.0000000E+000
  0.0000000E+000
  0.0000000E+000
  0.0000000E+000
  0.0000000E+000
  0.0000000E+000
  0.0000000E+000
  0.0000000E+000
  0.0000000E+000
  0.0000000E+000
  0.0000000E+000
  0.0000000E+000
  0.0000000E+000
  0.0000000E+000
  0.0000000E+000
  0.0000000E+000
  0.0000000E+000
  0.0000000E+000
  0.0000000E+000
  0.0000000E+000
  0.0000000E+000
  0.0000000E+000
  0.0000000E+000
  0.0000000E+000
  0.0000000E+000
  0.0000000E+000
  0.0000000E+000
  0.0000000E+000
  0.0000000E+000
  0.0000000E+000
  0.0000000E+000
  0.0000000E+000
  0.0000000E+000
  0.0000000E+000
  0.0000000E+000
  0.0000000E+000
  0.0000000E+000
  0.0000000E+000
  0.0000000E+000
  0.0000000E+000
  0.0000000E+000
  0.0000000E+000
  0.0000000E+000
  0.0000000E+000
  0.0000000E+000
  0.0000000E+000
  0.0000000E+000
  0.0000000E+000
  0.0000000E+000
  0.0000000E+000
  0.0000000E+000
  0.0000000E+000
  0.0000000E+000
  0.0000000E+000
  0.0000000E+000
  0.0000000E+000
  0.0000000E+000
  0.0000000E+000
  0.0000000E+000
  0.0000000E+000
  0.0000000E+000
  0.0000000E+000
  0.0000000E+000
  0.0000000E+000
  0.0000000E+000
  0.0000000E+000
  0.0000000E+000
  0.0000000E+000
  0.0000000E+000
  0.0000000E+000
  0.0000000E+000
  0.0000000E+000
  0.0000000E+000
  0.0000000E+000
  0.0000000E+000
  0.0000000E+000
  0.0000000E+000
  0.0000000E+000
  0.0000000E+000
  0.0000000E+000
  0.0000000E+000
  0.0000000E+000
  0.0000000E+000
  0.0000000E+000
  0.0000000E+000
  0.0000000E+000
  0.0000000E+000
  0.0000000E+000
  0.0000000E+000
  0.0000000E+000
  0.0000000E+000
  0.0000000E+000
  0.0000000E+000
  0.0000000E+000
  0.0000000E+000
  0.0000000E+000
  0.0000000E+000
  0.0000000E+000
  0.0000000E+000
  0.0000000E+000
  0.0000000E+000
  0.0000000E+000
  0.0000000E+000
  0.0000000E+000
  0.0000000E+000
  0.0000000E+000
  0.0000000E+000
  0.0000000E+000
  0.0000000E+000
  0.0000000E+000
  0.0000000E+000
  0.0000000E+000
  0.0000000E+000
  0.0000000E+000
  0.0000000E+000
  0.0000000E+000
  0.0000000E+000
  0.0000000E+000
  0.0000000E+000
  0.0000000E+000
  0.0000000E+000
  0.0000000E+000
  0.0000000E+000
  0.0000000E+000
  0.0000000E+000
  0.0000000E+000
  0.0000000E+000
  0.0000000E+000
  0.0000000E+000
  0.0000000E+000
  0.0000000E+000
  0.0000000E+000
  0.0000000E+000
  0.0000000E+000
  0.0000000E+000
  0.0000000E+000
  0.0000000E+000
  0.0000000E+000
  0.0000000E+000
  0.0000000E+000
  0.0000000E+000
  0.0000000E+000
  0.0000000E+000
  0.0000000E+000
  0.0000000E+000
  0.0000000E+000
  0.0000000E+000
  0.0000000E+000
  0.0000000E+000
  0.0000000E+000
  0.0000000E+000
  0.0000000E+000
  0.0000000E+000
  0.0000000E+000
  0.0000000E+000
  0.0000000E+000
  0.0000000E+000
  0.0000000E+000
  0.0000000E+000
  0.0000000E+000
  0.0000000E+000
  0.0000000E+000
  0.0000000E+000
  0.0000000E+000
  0.0000000E+000
  0.0000000E+000
  0.0000000E+000
  0.0000000E+000
  0.0000000E+000
  0.0000000E+000
  0.0000000E+000
  0.0000000E+000
  0.0000000E+000
  0.0000000E+000
  0.0000000E+000
  0.0000000E+000
  0.0000000E+000
  0.0000000E+000
  0.0000000E+000
  0.0000000E+000
  0.0000000E+000
  0.0000000E+000
  0.0000000E+000
  0.0000000E+000
  0.0000000E+000
  0.0000000E+000
  0.0000000E+000
  0.0000000E+000
  0.0000000E+000
  0.0000000E+000
  0.0000000E+000
  0.0000000E+000
  0.0000000E+000
  0.0000000E+000
  0.0000000E+000
  0.0000000E+000
  0.0000000E+000
  0.0000000E+000
  0.0000000E+000
  0.0000000E+000
  0.0000000E+000
  0.0000000E+000
  0.0000000E+000
  0.0000000E+000
  0.0000000E+000
  0.0000000E+000
  0.0000000E+000
  0.0000000E+000
  0.0000000E+000
  0.0000000E+000
  0.0000000E+000
  0.0000000E+000
  0.0000000E+000
  0.0000000E+000
  0.0000000E+000
  0.0000000E+000
  0.0000000E+000
  0.0000000E+000
  0.0000000E+000
  0.0000000E+000
  0.0000000E+000
  0.0000000E+000
  0.0000000E+000
  0.0000000E+000
  0.0000000E+000
  0.0000000E+000
  0.0000000E+000
  0.0000000E+000
  0.0000000E+000
  0.0000000E+000
  0.0000000E+000
  0.0000000E+000
  0.0000000E+000
  0.0000000E+000
  0.0000000E+000
  0.0000000E+000
  0.0000000E+000
  0.0000000E+000
  0.0000000E+000
  0.0000000E+000
  0.0000000E+000
  0.0000000E+000
  0.0000000E+000
  0.0000000E+000
  0.0000000E+000
  0.0000000E+000
  0.0000000E+000
  0.0000000E+000
  0.0000000E+000
  0.0000000E+000
  0.0000000E+000
  0.0000000E+000
  0.0000000E+000
  0.0000000E+000
  0.0000000E+000
  0.0000000E+000
  0.0000000E+000
  0.0000000E+000
  0.0000000E+000
  0.0000000E+000
  0.0000000E+000
  0.0000000E+000
  0.0000000E+000
  0.0000000E+000
  0.0000000E+000
  0.0000000E+000
  0.0000000E+000
  0.0000000E+000
  0.0000000E+000
  0.0000000E+000
  0.0000000E+000
  0.0000000E+000
  0.0000000E+000
  0.0000000E+000
  0.0000000E+000
  0.0000000E+000
  0.0000000E+000
  0.0000000E+000
  0.0000000E+000
  0.0000000E+000
  0.0000000E+000
  0.0000000E+000
  0.0000000E+000
  0.0000000E+000
  0.0000000E+000
  0.0000000E+000
  0.0000000E+000
  0.0000000E+000
  0.0000000E+000
  0.0000000E+000
  0.0000000E+000
  0.0000000E+000
  0.0000000E+000
  0.0000000E+000
  0.0000000E+000
  0.0000000E+000
  0.0000000E+000
  0.0000000E+000
  0.0000000E+000
  0.0000000E+000
  0.0000000E+000
  0.0000000E+000
  0.0000000E+000
  0.0000000E+000
  0.0000000E+000
  0.0000000E+000
  0.0000000E+000
  0.0000000E+000
  0.0000000E+000
  0.0000000E+000
  0.0000000E+000
  0.0000000E+000
  0.0000000E+000
  0.0000000E+000
  0.0000000E+000
  0.0000000E+000
  0.0000000E+000
  0.0000000E+000
  0.0000000E+000
  0.0000000E+000
  0.0000000E+000
  0.0000000E+000
  0.0000000E+000
  0.0000000E+000
  0.0000000E+000
  0.0000000E+000
  0.0000000E+000
  0.0000000E+000
  0.0000000E+000
  0.0000000E+000
  0.0000000E+000
  0.0000000E+000
  0.0000000E+000
  0.0000000E+000
  0.0000000E+000
  0.0000000E+000
  0.0000000E+000
  0.0000000E+000
  0.0000000E+000
  0.0000000E+000
  0.0000000E+000
  0.0000000E+000
  0.0000000E+000
  0.0000000E+000
  0.0000000E+000
  0.0000000E+000
  0.0000000E+000
  0.0000000E+000
  0.0000000E+000
  0.0000000E+000
  0.0000000E+000
  0.0000000E+000
  0.0000000E+000
  0.0000000E+000
  0.0000000E+000
  0.0000000E+000
  0.0000000E+000
  0.0000000E+000
  0.0000000E+000
  0.0000000E+000
  0.0000000E+000
  0.0000000E+000
  0.0000000E+000
  0.0000000E+000
  0.0000000E+000
  0.0000000E+000
  0.0000000E+000
  0.0000000E+000
  0.0000000E+000
  0.0000000E+000
  0.0000000E+000
  0.0000000E+000
  0.0000000E+000
  0.0000000E+000
  0.0000000E+000
  0.0000000E+000
  0.0000000E+000
  0.0000000E+000
  0.0000000E+000
  0.0000000E+000
  0.0000000E+000
  0.0000000E+000
  0.0000000E+000
  0.0000000E+000
  0.0000000E+000
  0.0000000E+000
  0.0000000E+000
  0.0000000E+000
  0.0000000E+000
  0.0000000E+000
  0.0000000E+000
  0.0000000E+000
  0.0000000E+000
  0.0000000E+000
  0.0000000E+000
  0.0000000E+000
  0.0000000E+000
  0.0000000E+000
  0.0000000E+000
  0.0000000E+000
  0.0000000E+000
  0.0000000E+000
  0.0000000E+000
  0.0000000E+000
  0.0000000E+000
  0.0000000E+000
  0.0000000E+000
  0.0000000E+000
  0.0000000E+000
  0.0000000E+000
  0.0000000E+000
  0.0000000E+000
  0.0000000E+000
  0.0000000E+000
  0.0000000E+000
  0.0000000E+000
  0.0000000E+000
  0.0000000E+000
  0.0000000E+000
  0.0000000E+000
  0.0000000E+000
  0.0000000E+000
  0.0000000E+000
  0.0000000E+000
  0.0000000E+000
  0.0000000E+000
  0.0000000E+000
  0.0000000E+000
  0.0000000E+000
  0.0000000E+000
  0.0000000E+000
  0.0000000E+000
  0.0000000E+000
  0.0000000E+000
  0.0000000E+000
  0.0000000E+000
  0.0000000E+000
  0.0000000E+000
  0.0000000E+000
  0.0000000E+000
  0.0000000E+000
  0.0000000E+000
  0.0000000E+000
  0.0000000E+000
  0.0000000E+000
  0.0000000E+000
  0.0000000E+000
  0.0000000E+000
  0.0000000E+000
  0.0000000E+000
  0.0000000E+000
  0.0000000E+000
  0.0000000E+000
  0.0000000E+000
  0.0000000E+000
  0.0000000E+000
  0.0000000E+000
  0.0000000E+000
  0.0000000E+000
  0.0000000E+000
  0.0000000E+000
  0.0000000E+000
  0.0000000E+000
  0.0000000E+000
  0.0000000E+000
  0.0000000E+000
  0.0000000E+000
  0.0000000E+000
  0.0000000E+000
  0.0000000E+000
  0.0000000E+000
  0.0000000E+000
  0.0000000E+000
  0.0000000E+000
  0.0000000E+000
  0.0000000E+000
  0.0000000E+000
  0.0000000E+000
  0.0000000E+000
  0.0000000E+000
  0.0000000E+000
  0.0000000E+000
  0.0000000E+000
  0.0000000E+000
  0.0000000E+000
  0.0000000E+000
  0.0000000E+000
  0.0000000E+000
  0.0000000E+000
  0.0000000E+000
  0.0000000E+000
  0.0000000E+000
  0.0000000E+000
  0.0000000E+000
  0.0000000E+000
  0.0000000E+000
  0.0000000E+000
  0.0000000E+000
  0.0000000E+000
  0.0000000E+000
  0.0000000E+000
  0.0000000E+000
  0.0000000E+000
  0.0000000E+000
  0.0000000E+000
  0.0000000E+000
  0.0000000E+000
  0.0000000E+000
  0.0000000E+000
  0.0000000E+000
  0.0000000E+000
  0.0000000E+000
  0.0000000E+000
  0.0000000E+000
  0.0000000E+000
  0.0000000E+000
  0.0000000E+000
  0.0000000E+000
  0.0000000E+000
  0.0000000E+000
  0.0000000E+000
  0.0000000E+000
  0.0000000E+000
  0.0000000E+000
  0.0000000E+000
  0.0000000E+000
  0.0000000E+000
  0.0000000E+000
  0.0000000E+000
  0.0000000E+000
  0.0000000E+000
  0.0000000E+000
  0.0000000E+000
  0.0000000E+000
  0.0000000E+000
  0.0000000E+000
  0.0000000E+000
  0.0000000E+000
  0.0000000E+000
  0.0000000E+000
  0.0000000E+000
  0.0000000E+000
  0.0000000E+000
  0.0000000E+000
  0.0000000E+000
  0.0000000E+000
  0.0000000E+000
  0.0000000E+000
  0.0000000E+000
  0.0000000E+000
  0.0000000E+000
  0.0000000E+000
  0.0000000E+000
  0.0000000E+000
  0.0000000E+000
  0.0000000E+000
  0.0000000E+000
  0.0000000E+000
  0.0000000E+000
  0.0000000E+000
  0.0000000E+000
  0.0000000E+000
  0.0000000E+000
  0.0000000E+000
  0.0000000E+000
  0.0000000E+000
  0.0000000E+000
  0.0000000E+000
  0.0000000E+000
  0.0000000E+000
  0.0000000E+000
  0.0000000E+000
  0.0000000E+000
  0.0000000E+000
  0.0000000E+000
  0.0000000E+000
  0.0000000E+000
  0.0000000E+000
  0.0000000E+000
  0.0000000E+000
  0.0000000E+000
  0.0000000E+000
  0.0000000E+000
  0.0000000E+000
  0.0000000E+000
  0.0000000E+000
  0.0000000E+000
  0.0000000E+000
  0.0000000E+000
  0.0000000E+000
  0.0000000E+000
  0.0000000E+000
  0.0000000E+000
  0.0000000E+000
  0.0000000E+000
  0.0000000E+000
  0.0000000E+000
  0.0000000E+000
  0.0000000E+000
  0.0000000E+000
  0.0000000E+000
  0.0000000E+000
  0.0000000E+000
  0.0000000E+000
  0.0000000E+000
  0.0000000E+000
  0.0000000E+000
  0.0000000E+000
  0.0000000E+000
  0.0000000E+000
  0.0000000E+000
  0.0000000E+000
  0.0000000E+000
  0.0000000E+000
  0.0000000E+000
  0.0000000E+000
  0.0000000E+000
  0.0000000E+000
  0.0000000E+000
  0.0000000E+000
  0.0000000E+000
  0.0000000E+000
  0.0000000E+000
  0.0000000E+000
  0.0000000E+000
  0.0000000E+000
  0.0000000E+000
  0.0000000E+000
  0.0000000E+000
  0.0000000E+000
  0.0000000E+000
  0.0000000E+000
  0.0000000E+000
  0.0000000E+000
  0.0000000E+000
  0.0000000E+000
  0.0000000E+000
  0.0000000E+000
  0.0000000E+000
  0.0000000E+000
  0.0000000E+000
  0.0000000E+000
  0.0000000E+000
  0.0000000E+000
  0.0000000E+000
  0.0000000E+000
  0.0000000E+000
  0.0000000E+000
  0.0000000E+000
  0.0000000E+000
  0.0000000E+000
  0.0000000E+000
  0.0000000E+000
  0.0000000E+000
  0.0000000E+000
  0.0000000E+000
  0.0000000E+000
  0.0000000E+000
  0.0000000E+000
  0.0000000E+000
  0.0000000E+000
  0.0000000E+000
  0.0000000E+000
  0.0000000E+000
  0.0000000E+000
  0.0000000E+000
  0.0000000E+000
  0.0000000E+000
  0.0000000E+000
  0.0000000E+000
  0.0000000E+000
  0.0000000E+000
  0.0000000E+000
  0.0000000E+000
  0.0000000E+000
  0.0000000E+000
  0.0000000E+000
  0.0000000E+000
  0.0000000E+000
  0.0000000E+000
  0.0000000E+000
  0.0000000E+000
  0.0000000E+000
  0.0000000E+000
  0.0000000E+000
  0.0000000E+000
  0.0000000E+000
  0.0000000E+000
  0.0000000E+000
  0.0000000E+000
  0.0000000E+000
  0.0000000E+000
  0.0000000E+000
  0.0000000E+000
  0.0000000E+000
  0.0000000E+000
  0.0000000E+000
  0.0000000E+000
  0.0000000E+000
  0.0000000E+000
  0.0000000E+000
  0.0000000E+000
  0.0000000E+000
  0.0000000E+000
  0.0000000E+000
  0.0000000E+000
  0.0000000E+000
  0.0000000E+000
  0.0000000E+000
  0.0000000E+000
  0.0000000E+000
  0.0000000E+000
  0.0000000E+000
  0.0000000E+000
  0.0000000E+000
  0.0000000E+000
  0.0000000E+000
  0.0000000E+000
  0.0000000E+000
  0.0000000E+000
  0.0000000E+000
  0.0000000E+000
  0.0000000E+000
  0.0000000E+000
  0.0000000E+000
  0.0000000E+000
  0.0000000E+000
  0.0000000E+000
  0.0000000E+000
  0.0000000E+000
  0.0000000E+000
  0.0000000E+000
  0.0000000E+000
  0.0000000E+000
  0.0000000E+000
  0.0000000E+000
  0.0000000E+000
  0.0000000E+000
  0.0000000E+000
  0.0000000E+000
  0.0000000E+000
  0.0000000E+000
  0.0000000E+000
  0.0000000E+000
  0.0000000E+000
  0.0000000E+000
  0.0000000E+000
  0.0000000E+000
  0.0000000E+000
  0.0000000E+000
  0.0000000E+000
  0.0000000E+000
  0.0000000E+000
  0.0000000E+000
  0.0000000E+000
  0.0000000E+000
  0.0000000E+000
  0.0000000E+000
  0.0000000E+000
  0.0000000E+000
  0.0000000E+000
  0.0000000E+000
  0.0000000E+000
  0.0000000E+000
  0.0000000E+000
  0.0000000E+000
  0.0000000E+000
  0.0000000E+000
  0.0000000E+000
  0.0000000E+000
  0.0000000E+000
  0.0000000E+000
  0.0000000E+000
  0.0000000E+000
  0.0000000E+000
  0.0000000E+000
  0.0000000E+000
  0.0000000E+000
  0.0000000E+000
  0.0000000E+000
  0.0000000E+000
  0.0000000E+000
  0.0000000E+000
  0.0000000E+000
  0.0000000E+000
  0.0000000E+000
  0.0000000E+000
  0.0000000E+000
  0.0000000E+000
  0.0000000E+000
  0.0000000E+000
  0.0000000E+000
  0.0000000E+000
  0.0000000E+000
  0.0000000E+000
  0.0000000E+000
  0.0000000E+000
  0.0000000E+000
  0.0000000E+000
  0.0000000E+000
  0.0000000E+000
  0.0000000E+000
  0.0000000E+000
  0.0000000E+000
  0.0000000E+000
  0.0000000E+000
  0.0000000E+000
  0.0000000E+000
  0.0000000E+000
  0.0000000E+000
  0.0000000E+000
  0.0000000E+000
  0.0000000E+000
  0.0000000E+000
  0.0000000E+000
  0.0000000E+000
  0.0000000E+000
  0.0000000E+000
  0.0000000E+000
  0.0000000E+000
  0.0000000E+000
  0.0000000E+000
  0.0000000E+000
  0.0000000E+000
  0.0000000E+000
  0.0000000E+000
  0.0000000E+000
  0.0000000E+000
  0.0000000E+000
  0.0000000E+000
  0.0000000E+000
  0.0000000E+000
  0.0000000E+000
  0.0000000E+000
  0.0000000E+000
  0.0000000E+000
  0.0000000E+000
  0.0000000E+000
  0.0000000E+000
  0.0000000E+000
  0.0000000E+000
  0.0000000E+000
  0.0000000E+000
  0.0000000E+000
  0.0000000E+000
  0.0000000E+000
  0.0000000E+000
  0.0000000E+000
  0.0000000E+000
  0.0000000E+000
  0.0000000E+000
  0.0000000E+000
  0.0000000E+000
  0.0000000E+000
  0.0000000E+000
  0.0000000E+000
  0.0000000E+000
  0.0000000E+000
  0.0000000E+000
  0.0000000E+000
  0.0000000E+000
  0.0000000E+000
  0.0000000E+000
  0.0000000E+000
  0.0000000E+000
  0.0000000E+000
  0.0000000E+000
  0.0000000E+000
  0.0000000E+000
  0.0000000E+000
  0.0000000E+000
  0.0000000E+000
  0.0000000E+000
  0.0000000E+000
  0.0000000E+000
  0.0000000E+000
  0.0000000E+000
  0.0000000E+000
  0.0000000E+000
  0.0000000E+000
  0.0000000E+000
  0.0000000E+000
  0.0000000E+000
  0.0000000E+000
  0.0000000E+000
  0.0000000E+000
  0.0000000E+000
  0.0000000E+000
  0.0000000E+000
  0.0000000E+000
  0.0000000E+000
  0.0000000E+000
  0.0000000E+000
  0.0000000E+000
  0.0000000E+000
  0.0000000E+000
  0.0000000E+000
  0.0000000E+000
  0.0000000E+000
  0.0000000E+000
  0.0000000E+000
  0.0000000E+000
  0.0000000E+000
  0.0000000E+000
  0.0000000E+000
  0.0000000E+000
  0.0000000E+000
  0.0000000E+000
  0.0000000E+000
  0.0000000E+000
  0.0000000E+000
  0.0000000E+000
  0.0000000E+000
  0.0000000E+000
  0.0000000E+000
  0.0000000E+000
  0.0000000E+000
  0.0000000E+000
  0.0000000E+000
  0.0000000E+000
  0.0000000E+000
  0.0000000E+000
  0.0000000E+000
  0.0000000E+000
  0.0000000E+000
  0.0000000E+000
  0.0000000E+000
  0.0000000E+000
  0.0000000E+000
  0.0000000E+000
  0.0000000E+000
  0.0000000E+000
  0.0000000E+000
  0.0000000E+000
  0.0000000E+000
  0.0000000E+000
  0.0000000E+000
  0.0000000E+000
  0.0000000E+000
  0.0000000E+000
  0.0000000E+000
  0.0000000E+000
  0.0000000E+000
  0.0000000E+000
  0.0000000E+000
  0.0000000E+000
  0.0000000E+000
  0.0000000E+000
  0.0000000E+000
  0.0000000E+000
  0.0000000E+000
  0.0000000E+000
  0.0000000E+000
  0.0000000E+000
  0.0000000E+000
  0.0000000E+000
  0.0000000E+000
  0.0000000E+000
  0.0000000E+000
  0.0000000E+000
  0.0000000E+000
  0.0000000E+000
  0.0000000E+000
  0.0000000E+000
  0.0000000E+000
  0.0000000E+000
  0.0000000E+000
  0.0000000E+000
  0.0000000E+000
  0.0000000E+000
  0.0000000E+000
  0.0000000E+000
  0.0000000E+000
  0.0000000E+000
  0.0000000E+000
  0.0000000E+000
  0.0000000E+000
  0.0000000E+000
  0.0000000E+000
  0.0000000E+000
  0.0000000E+000
  0.0000000E+000
  0.0000000E+000
  0.0000000E+000
  0.0000000E+000
  0.0000000E+000
  0.0000000E+000
  0.0000000E+000
  0.0000000E+000
  0.0000000E+000
  0.0000000E+000
  0.0000000E+000
  0.0000000E+000
  0.0000000E+000
  0.0000000E+000
  0.0000000E+000
  0.0000000E+000
  0.0000000E+000
  0.0000000E+000
  0.0000000E+000
  0.0000000E+000
  0.0000000E+000
  0.0000000E+000
  0.0000000E+000
  0.0000000E+000
  0.0000000E+000
  0.0000000E+000
  0.0000000E+000
  0.0000000E+000
  0.0000000E+000
  0.0000000E+000
  0.0000000E+000
  0.0000000E+000
  0.0000000E+000
  0.0000000E+000
  0.0000000E+000
  0.0000000E+000
  0.0000000E+000
  0.0000000E+000
  0.0000000E+000
  0.0000000E+000
  0.0000000E+000
  0.0000000E+000
  0.0000000E+000
  0.0000000E+000
  0.0000000E+000
  0.0000000E+000
  0.0000000E+000
  0.0000000E+000
  0.0000000E+000
  0.0000000E+000
  0.0000000E+000
  0.0000000E+000
  0.0000000E+000
  0.0000000E+000
  0.0000000E+000
  0.0000000E+000
  0.0000000E+000
  0.0000000E+000
  0.0000000E+000
  0.0000000E+000
  0.0000000E+000
  0.0000000E+000
  0.0000000E+000
  0.0000000E+000
  0.0000000E+000
  0.0000000E+000
  0.0000000E+000
  0.0000000E+000
  0.0000000E+000
  0.0000000E+000
  0.0000000E+000
  0.0000000E+000
  0.0000000E+000
  0.0000000E+000
  0.0000000E+000
  0.0000000E+000
  0.0000000E+000
  0.0000000E+000
  0.0000000E+000
  0.0000000E+000
  0.0000000E+000
  0.0000000E+000
  0.0000000E+000
  0.0000000E+000
  0.0000000E+000
  0.0000000E+000
  0.0000000E+000
  0.0000000E+000
  0.0000000E+000
  0.0000000E+000
  0.0000000E+000
  0.0000000E+000
  0.0000000E+000
  0.0000000E+000
  0.0000000E+000
  0.0000000E+000
  0.0000000E+000
  0.0000000E+000
  0.0000000E+000
  0.0000000E+000
  0.0000000E+000
  0.0000000E+000
  0.0000000E+000
  0.0000000E+000
  0.0000000E+000
  0.0000000E+000
  0.0000000E+000
  0.0000000E+000
  0.0000000E+000
  0.0000000E+000
  0.0000000E+000
  0.0000000E+000
  0.0000000E+000
  0.0000000E+000
  0.0000000E+000
  0.0000000E+000
  0.0000000E+000
  0.0000000E+000
  0.0000000E+000
  0.0000000E+000
  0.0000000E+000
  0.0000000E+000
  0.0000000E+000
  0.0000000E+000
  0.0000000E+000
  0.0000000E+000
  0.0000000E+000
  0.0000000E+000
  0.0000000E+000
  0.0000000E+000
  0.0000000E+000
  0.0000000E+000
  0.0000000E+000
  0.0000000E+000
  0.0000000E+000
  0.0000000E+000
  0.0000000E+000
  0.0000000E+000
  0.0000000E+000
  0.0000000E+000
  0.0000000E+000
  0.0000000E+000
  0.0000000E+000
  0.0000000E+000
  0.0000000E+000
  0.0000000E+000
  0.0000000E+000
  0.0000000E+000
  0.0000000E+000
  0.0000000E+000
  0.0000000E+000
  0.0000000E+000
  0.0000000E+000
  0.0000000E+000
  0.0000000E+000
  0.0000000E+000
  0.0000000E+000
  0.0000000E+000
  0.0000000E+000
  0.0000000E+000
  0.0000000E+000
  0.0000000E+000
  0.0000000E+000
  0.0000000E+000
  0.0000000E+000
  0.0000000E+000
  0.0000000E+000
  0.0000000E+000
  0.0000000E+000
  0.0000000E+000
  0.0000000E+000
  0.0000000E+000
  0.0000000E+000
  0.0000000E+000
  0.0000000E+000
  0.0000000E+000
  0.0000000E+000
  0.0000000E+000
  0.0000000E+000
  0.0000000E+000
  0.0000000E+000
  0.0000000E+000
  0.0000000E+000
  0.0000000E+000
  0.0000000E+000
  0.0000000E+000
  0.0000000E+000
  0.0000000E+000
  0.0000000E+000
  0.0000000E+000
  0.0000000E+000
  0.0000000E+000
  0.0000000E+000
  0.0000000E+000
  0.0000000E+000
  0.0000000E+000
  0.0000000E+000
  0.0000000E+000
  0.0000000E+000
  0.0000000E+000
  0.0000000E+000
  0.0000000E+000
  0.0000000E+000
  0.0000000E+000
  0.0000000E+000
  0.0000000E+000
  0.0000000E+000
  0.0000000E+000
  0.0000000E+000
  0.0000000E+000
  0.0000000E+000
  0.0000000E+000
  0.0000000E+000
  0.0000000E+000
  0.0000000E+000
  0.0000000E+000
  0.0000000E+000
  0.0000000E+000
  0.0000000E+000
  0.0000000E+000
  0.0000000E+000
  0.0000000E+000
  0.0000000E+000
  0.0000000E+000
  0.0000000E+000
  0.0000000E+000
  0.0000000E+000
  0.0000000E+000
  0.0000000E+000
  0.0000000E+000
  0.0000000E+000
  0.0000000E+000
  0.0000000E+000
  0.0000000E+000
  0.0000000E+000
  0.0000000E+000
  0.0000000E+000
  0.0000000E+000
  0.0000000E+000
  0.0000000E+000
  0.0000000E+000
  0.0000000E+000
  0.0000000E+000
  0.0000000E+000
  0.0000000E+000
  0.0000000E+000
  0.0000000E+000
  0.0000000E+000
  0.0000000E+000
  0.0000000E+000
  0.0000000E+000
  0.0000000E+000
  0.0000000E+000
  0.0000000E+000
  0.0000000E+000
  0.0000000E+000
  0.0000000E+000
  0.0000000E+000
  0.0000000E+000
  0.0000000E+000
  0.0000000E+000
  0.0000000E+000
  0.0000000E+000
  0.0000000E+000
  0.0000000E+000
  0.0000000E+000
  0.0000000E+000
  0.0000000E+000
  0.0000000E+000
  0.0000000E+000
  0.0000000E+000
  0.0000000E+000
  0.0000000E+000
  0.0000000E+000
  0.0000000E+000
  0.0000000E+000
  0.0000000E+000
  0.0000000E+000
  0.0000000E+000
  0.0000000E+000
  0.0000000E+000
  0.0000000E+000
  0.0000000E+000
  0.0000000E+000
  0.0000000E+000
  0.0000000E+000
  0.0000000E+000
  0.0000000E+000
  0.0000000E+000
  0.0000000E+000
  0.0000000E+000
  0.0000000E+000
  0.0000000E+000
  0.0000000E+000
  0.0000000E+000
  0.0000000E+000
  0.0000000E+000
  0.0000000E+000
  0.0000000E+000
  0.0000000E+000
  0.0000000E+000
  0.0000000E+000
  0.0000000E+000
  0.0000000E+000
  0.0000000E+000
  0.0000000E+000
  0.0000000E+000
  0.0000000E+000
  0.0000000E+000
  0.0000000E+000
  0.0000000E+000
  0.0000000E+000
  0.0000000E+000
  0.0000000E+000
  0.0000000E+000
  0.0000000E+000
  0.0000000E+000
  0.0000000E+000
  0.0000000E+000
  0.0000000E+000
  0.0000000E+000
  0.0000000E+000
  0.0000000E+000
  0.0000000E+000
  0.0000000E+000
  0.0000000E+000
  0.0000000E+000
  0.0000000E+000
  0.0000000E+000
  0.0000000E+000
  0.0000000E+000
  0.0000000E+000
  0.0000000E+000
  0.0000000E+000
  0.0000000E+000
  0.0000000E+000
  0.0000000E+000
  0.0000000E+000
  0.0000000E+000
  0.0000000E+000
  0.0000000E+000
  0.0000000E+000
  0.0000000E+000
  0.0000000E+000
  0.0000000E+000
  0.0000000E+000
  0.0000000E+000
  0.0000000E+000
  0.0000000E+000
  0.0000000E+000
  0.0000000E+000
  0.0000000E+000
  0.0000000E+000
  0.0000000E+000
  0.0000000E+000
  0.0000000E+000
  0.0000000E+000
  0.0000000E+000
  0.0000000E+000
  0.0000000E+000
  0.0000000E+000
  0.0000000E+000
  0.0000000E+000
  0.0000000E+000
  0.0000000E+000
  0.0000000E+000
  0.0000000E+000
  0.0000000E+000
  0.0000000E+000
  0.0000000E+000
  0.0000000E+000
  0.0000000E+000
  0.0000000E+000
  0.0000000E+000
  0.0000000E+000
  0.0000000E+000
  0.0000000E+000
  0.0000000E+000
  0.0000000E+000
  0.0000000E+000
  0.0000000E+000
  0.0000000E+000
  0.0000000E+000
  0.0000000E+000
  0.0000000E+000
  0.0000000E+000
  0.0000000E+000
  0.0000000E+000
  0.0000000E+000
  0.0000000E+000
  0.0000000E+000
  0.0000000E+000
  0.0000000E+000
  0.0000000E+000
  0.0000000E+000
  0.0000000E+000
  0.0000000E+000
  0.0000000E+000
  0.0000000E+000
  0.0000000E+000
  0.0000000E+000
  0.0000000E+000
  0.0000000E+000
  0.0000000E+000
  0.0000000E+000
  0.0000000E+000
  0.0000000E+000
  0.0000000E+000
  0.0000000E+000
  0.0000000E+000
  0.0000000E+000
  0.0000000E+000
  0.0000000E+000
  0.0000000E+000
  0.0000000E+000
  0.0000000E+000
  0.0000000E+000
  0.0000000E+000
  0.0000000E+000
  0.0000000E+000
  0.0000000E+000
  0.0000000E+000
  0.0000000E+000
  0.0000000E+000
  0.0000000E+000
  0.0000000E+000
  0.0000000E+000
  0.0000000E+000
  0.0000000E+000
  0.0000000E+000
  0.0000000E+000
  0.0000000E+000
  0.0000000E+000
  0.0000000E+000
  0.0000000E+000
  0.0000000E+000
  0.0000000E+000
  0.0000000E+000
  0.0000000E+000
  0.0000000E+000
  0.0000000E+000
  0.0000000E+000
  0.0000000E+000
  0.0000000E+000
  0.0000000E+000
  0.0000000E+000
  0.0000000E+000
  0.0000000E+000
  0.0000000E+000
  0.0000000E+000
  0.0000000E+000
  0.0000000E+000
  0.0000000E+000
  0.0000000E+000
  0.0000000E+000
  0.0000000E+000
  0.0000000E+000
  0.0000000E+000
  0.0000000E+000
  0.0000000E+000
  0.0000000E+000
  0.0000000E+000
  0.0000000E+000
  0.0000000E+000
  0.0000000E+000
  0.0000000E+000
  0.0000000E+000
  0.0000000E+000
  0.0000000E+000
  0.0000000E+000
  0.0000000E+000
  0.0000000E+000
  0.0000000E+000
  0.0000000E+000
  0.0000000E+000
  0.0000000E+000
  0.0000000E+000
  0.0000000E+000
  0.0000000E+000
  0.0000000E+000
  0.0000000E+000
  0.0000000E+000
  0.0000000E+000
  0.0000000E+000
  0.0000000E+000
  0.0000000E+000
  0.0000000E+000
  0.0000000E+000
  0.0000000E+000
  0.0000000E+000
  0.0000000E+000
  0.0000000E+000
  0.0000000E+000
  0.0000000E+000
  0.0000000E+000
  0.0000000E+000
  0.0000000E+000
  0.0000000E+000
  0.0000000E+000
  0.0000000E+000
  0.0000000E+000
  0.0000000E+000
  0.0000000E+000
  0.0000000E+000
  0.0000000E+000
  0.0000000E+000
  0.0000000E+000
  0.0000000E+000
  0.0000000E+000
  0.0000000E+000
  0.0000000E+000
  0.0000000E+000
  0.0000000E+000
  0.0000000E+000
  0.0000000E+000
  0.0000000E+000
  0.0000000E+000
  0.0000000E+000
  0.0000000E+000
  0.0000000E+000
  0.0000000E+000
  0.0000000E+000
  0.0000000E+000
  0.0000000E+000
  0.0000000E+000
  0.0000000E+000
  0.0000000E+000
  0.0000000E+000
  0.0000000E+000
  0.0000000E+000
  0.0000000E+000
  0.0000000E+000
  0.0000000E+000
  0.0000000E+000
  0.0000000E+000
  0.0000000E+000
  0.0000000E+000
  0.0000000E+000
  0.0000000E+000
  0.0000000E+000
  0.0000000E+000
  0.0000000E+000
  0.0000000E+000
  0.0000000E+000
  0.0000000E+000
  0.0000000E+000
  0.0000000E+000
  0.0000000E+000
  0.0000000E+000
  0.0000000E+000
  0.0000000E+000
  0.0000000E+000
  0.0000000E+000
  0.0000000E+000
  0.0000000E+000
  0.0000000E+000
  0.0000000E+000
  0.0000000E+000
  0.0000000E+000
  0.0000000E+000
  0.0000000E+000
  0.0000000E+000
  0.0000000E+000
  0.0000000E+000
  0.0000000E+000
  0.0000000E+000
  0.0000000E+000
  0.0000000E+000
  0.0000000E+000
  0.0000000E+000
  0.0000000E+000
  0.0000000E+000
  0.0000000E+000
  0.0000000E+000
  0.0000000E+000
  0.0000000E+000
  0.0000000E+000
  0.0000000E+000
  0.0000000E+000
  0.0000000E+000
  0.0000000E+000
  0.0000000E+000
  0.0000000E+000
  0.0000000E+000
  0.0000000E+000
  0.0000000E+000
  0.0000000E+000
  0.0000000E+000
  0.0000000E+000
  0.0000000E+000
  0.0000000E+000
  0.0000000E+000
  0.0000000E+000
  0.0000000E+000
  0.0000000E+000
  0.0000000E+000
  0.0000000E+000
  0.0000000E+000
  0.0000000E+000
  0.0000000E+000
  0.0000000E+000
  0.0000000E+000
  0.0000000E+000
  0.0000000E+000
  0.0000000E+000
  0.0000000E+000
  0.0000000E+000
  0.0000000E+000
  0.0000000E+000
  0.0000000E+000
  0.0000000E+000
  0.0000000E+000
  0.0000000E+000
  0.0000000E+000
  0.0000000E+000
  0.0000000E+000
  0.0000000E+000
  0.0000000E+000
  0.0000000E+000
  0.0000000E+000
  0.0000000E+000
  0.0000000E+000
  0.0000000E+000
  0.0000000E+000
  0.0000000E+000
  0.0000000E+000
  0.0000000E+000
  0.0000000E+000
  0.0000000E+000
  0.0000000E+000
  0.0000000E+000
  0.0000000E+000
  0.0000000E+000
  0.0000000E+000
  0.0000000E+000
  0.0000000E+000
  0.0000000E+000
  0.0000000E+000
  0.0000000E+000
  0.0000000E+000
  0.0000000E+000
  0.0000000E+000
  0.0000000E+000
  0.0000000E+000
  0.0000000E+000
  0.0000000E+000
  0.0000000E+000
  0.0000000E+000
  0.0000000E+000
  0.0000000E+000
  0.0000000E+000
  0.0000000E+000
  0.0000000E+000
  0.0000000E+000
  0.0000000E+000
  0.0000000E+000
  0.0000000E+000
  0.0000000E+000
  0.0000000E+000
  0.0000000E+000
  0.0000000E+000
  0.0000000E+000
  0.0000000E+000
  0.0000000E+000
  0.0000000E+000
  0.0000000E+000
  0.0000000E+000
  0.0000000E+000
  0.0000000E+000
  0.0000000E+000
  0.0000000E+000
  0.0000000E+000
  0.0000000E+000
  0.0000000E+000
  0.0000000E+000
  0.0000000E+000
  0.0000000E+000
  0.0000000E+000
  0.0000000E+000
  0.0000000E+000
  0.0000000E+000
  0.0000000E+000
  0.0000000E+000
  0.0000000E+000
  0.0000000E+000
  0.0000000E+000
  0.0000000E+000
  0.0000000E+000
  0.0000000E+000
  0.0000000E+000
  0.0000000E+000
  0.0000000E+000
  0.0000000E+000
  0.0000000E+000
  0.0000000E+000
  0.0000000E+000
  0.0000000E+000
  0.0000000E+000
  0.0000000E+000
  0.0000000E+000
  0.0000000E+000
  0.0000000E+000
  0.0000000E+000
  0.0000000E+000
  0.0000000E+000
  0.0000000E+000
  0.0000000E+000
  0.0000000E+000
  0.0000000E+000
  0.0000000E+000
  0.0000000E+000
  0.0000000E+000
  0.0000000E+000
  0.0000000E+000
  0.0000000E+000
  0.0000000E+000
  0.0000000E+000
  0.0000000E+000
  0.0000000E+000
  0.0000000E+000
  0.0000000E+000
  0.0000000E+000
  0.0000000E+000
  0.0000000E+000
  0.0000000E+000
  0.0000000E+000
  0.0000000E+000
  0.0000000E+000
  0.0000000E+000
  0.0000000E+000
  0.0000000E+000
  0.0000000E+000
  0.0000000E+000
  0.0000000E+000
  0.0000000E+000
  0.0000000E+000
  0.0000000E+000
  0.0000000E+000
  0.0000000E+000
  0.0000000E+000
  0.0000000E+000
  0.0000000E+000
  0.0000000E+000
  0.0000000E+000
  0.0000000E+000
  0.0000000E+000
  0.0000000E+000
  0.0000000E+000
  0.0000000E+000
  0.0000000E+000
  0.0000000E+000
  0.0000000E+000
  0.0000000E+000
  0.0000000E+000
  0.0000000E+000
  0.0000000E+000
  0.0000000E+000
  0.0000000E+000
  0.0000000E+000
  0.0000000E+000
  0.0000000E+000
  0.0000000E+000
  0.0000000E+000
  0.0000000E+000
  0.0000000E+000
  0.0000000E+000
  0.0000000E+000
  0.0000000E+000
  0.0000000E+000
  0.0000000E+000
  0.0000000E+000
  0.0000000E+000
  0.0000000E+000
  0.0000000E+000
  0.0000000E+000
  0.0000000E+000
  0.0000000E+000
  0.0000000E+000
  0.0000000E+000
  0.0000000E+000
  0.0000000E+000
  0.0000000E+000
  0.0000000E+000
  0.0000000E+000
  0.0000000E+000
  0.0000000E+000
  0.0000000E+000
  0.0000000E+000
  0.0000000E+000
  0.0000000E+000
  0.0000000E+000
  0.0000000E+000
  0.0000000E+000
  0.0000000E+000
  0.0000000E+000
  0.0000000E+000
  0.0000000E+000
  0.0000000E+000
  0.0000000E+000
  0.0000000E+000
  0.0000000E+000
  0.0000000E+000
  0.0000000E+000
  0.0000000E+000
  0.0000000E+000
  0.0000000E+000
  0.0000000E+000
  0.0000000E+000
  0.0000000E+000
  0.0000000E+000
  0.0000000E+000
  0.0000000E+000
  0.0000000E+000
  0.0000000E+000
  0.0000000E+000
  0.0000000E+000
  0.0000000E+000
  0.0000000E+000
  0.0000000E+000
  0.0000000E+000
  0.0000000E+000
  0.0000000E+000
  0.0000000E+000
  0.0000000E+000
  0.0000000E+000
  0.0000000E+000
  0.0000000E+000
  0.0000000E+000
  0.0000000E+000
  0.0000000E+000
  0.0000000E+000
  0.0000000E+000
  0.0000000E+000
  0.0000000E+000
  0.0000000E+000
  0.0000000E+000
  0.0000000E+000
  0.0000000E+000
  0.0000000E+000
  0.0000000E+000
  0.0000000E+000
  0.0000000E+000
  0.0000000E+000
  0.0000000E+000
  0.0000000E+000
  0.0000000E+000
  0.0000000E+000
  0.0000000E+000
  0.0000000E+000
  0.0000000E+000
  0.0000000E+000
  0.0000000E+000
  0.0000000E+000
  0.0000000E+000
  0.0000000E+000
  0.0000000E+000
  0.0000000E+000
  0.0000000E+000
  0.0000000E+000
  0.0000000E+000
  0.0000000E+000
  0.0000000E+000
  0.0000000E+000
  0.0000000E+000
  0.0000000E+000
  0.0000000E+000
  0.0000000E+000
  0.0000000E+000
  0.0000000E+000
  0.0000000E+000
  0.0000000E+000
  0.0000000E+000
  0.0000000E+000
  0.0000000E+000
  0.0000000E+000
  0.0000000E+000
  0.0000000E+000
  0.0000000E+000
  0.0000000E+000
  0.0000000E+000
  0.0000000E+000
  0.0000000E+000
  0.0000000E+000
  0.0000000E+000
  0.0000000E+000
  0.0000000E+000
  0.0000000E+000
  0.0000000E+000
  0.0000000E+000
  0.0000000E+000
  0.0000000E+000
  0.0000000E+000
  0.0000000E+000
  0.0000000E+000
  0.0000000E+000
  0.0000000E+000
  0.0000000E+000
  0.0000000E+000
  0.0000000E+000
  0.0000000E+000
  0.0000000E+000
  0.0000000E+000
  0.0000000E+000
  0.0000000E+000
  0.0000000E+000
  0.0000000E+000
  0.0000000E+000
  0.0000000E+000
  0.0000000E+000
  0.0000000E+000
  0.0000000E+000
  0.0000000E+000
  0.0000000E+000
  0.0000000E+000
  0.0000000E+000
  0.0000000E+000
  0.0000000E+000
  0.0000000E+000
  0.0000000E+000
  0.0000000E+000
  0.0000000E+000
  0.0000000E+000
  0.0000000E+000
  0.0000000E+000
  0.0000000E+000
  0.0000000E+000
  0.0000000E+000
  0.0000000E+000
  0.0000000E+000
  0.0000000E+000
  0.0000000E+000
  0.0000000E+000
  0.0000000E+000
  0.0000000E+000
  0.0000000E+000
  0.0000000E+000
  0.0000000E+000
  0.0000000E+000
  0.0000000E+000
  0.0000000E+000
  0.0000000E+000
  0.0000000E+000
  0.0000000E+000
  0.0000000E+000
  0.0000000E+000
  0.0000000E+000
  0.0000000E+000
  0.0000000E+000
  0.0000000E+000
  0.0000000E+000
  0.0000000E+000
  0.0000000E+000
  0.0000000E+000
  0.0000000E+000
  0.0000000E+000
  0.0000000E+000
  0.0000000E+000
  0.0000000E+000
  0.0000000E+000
  0.0000000E+000
  0.0000000E+000
  0.0000000E+000
  0.0000000E+000
  0.0000000E+000
  0.0000000E+000
  0.0000000E+000
  0.0000000E+000
  0.0000000E+000
  0.0000000E+000
  0.0000000E+000
  0.0000000E+000
  0.0000000E+000
  0.0000000E+000
  0.0000000E+000
  0.0000000E+000
  0.0000000E+000
  0.0000000E+000
  0.0000000E+000
  0.0000000E+000
  0.0000000E+000
  0.0000000E+000
  0.0000000E+000
  0.0000000E+000
  0.0000000E+000
  0.0000000E+000
  0.0000000E+000
  0.0000000E+000
  0.0000000E+000
  0.0000000E+000
  0.0000000E+000
  0.0000000E+000
  0.0000000E+000
  0.0000000E+000
  0.0000000E+000
  0.0000000E+000
  0.0000000E+000
  0.0000000E+000
  0.0000000E+000
  0.0000000E+000
  0.0000000E+000
  0.0000000E+000
  0.0000000E+000
  0.0000000E+000
  0.0000000E+000
  0.0000000E+000
  0.0000000E+000
  0.0000000E+000
  0.0000000E+000
  0.0000000E+000
  0.0000000E+000
  0.0000000E+000
  0.0000000E+000
  0.0000000E+000
  0.0000000E+000
  0.0000000E+000
  0.0000000E+000
  0.0000000E+000
  0.0000000E+000
  0.0000000E+000
  0.0000000E+000
  0.0000000E+000
  0.0000000E+000
  0.0000000E+000
  0.0000000E+000
  0.0000000E+000
  0.0000000E+000
  0.0000000E+000
  0.0000000E+000
  0.0000000E+000
  0.0000000E+000
  0.0000000E+000
  0.0000000E+000
  0.0000000E+000
  0.0000000E+000
  0.0000000E+000
  0.0000000E+000
  0.0000000E+000
  0.0000000E+000
  0.0000000E+000
  0.0000000E+000
  0.0000000E+000
  0.0000000E+000
  0.0000000E+000
  0.0000000E+000
  0.0000000E+000
  0.0000000E+000
  0.0000000E+000
  0.0000000E+000
  0.0000000E+000
  0.0000000E+000
  0.0000000E+000
  0.0000000E+000
  0.0000000E+000
  0.0000000E+000
  0.0000000E+000
  0.0000000E+000
  0.0000000E+000
  0.0000000E+000
  0.0000000E+000
  0.0000000E+000
  0.0000000E+000
  0.0000000E+000
  0.0000000E+000
  0.0000000E+000
  0.0000000E+000
  0.0000000E+000
  0.0000000E+000
  0.0000000E+000
  0.0000000E+000
  0.0000000E+000
  0.0000000E+000
  0.0000000E+000
  0.0000000E+000
  0.0000000E+000
  0.0000000E+000
  0.0000000E+000
  0.0000000E+000
  0.0000000E+000
  0.0000000E+000
  0.0000000E+000
  0.0000000E+000
  0.0000000E+000
  0.0000000E+000
  0.0000000E+000
  0.0000000E+000
  0.0000000E+000
  0.0000000E+000
  0.0000000E+000
  0.0000000E+000
  0.0000000E+000
  0.0000000E+000
  0.0000000E+000
  0.0000000E+000
  0.0000000E+000
  0.0000000E+000
  0.0000000E+000
  0.0000000E+000
  0.0000000E+000
  0.0000000E+000
  0.0000000E+000
  0.0000000E+000
  0.0000000E+000
  0.0000000E+000
  0.0000000E+000
  0.0000000E+000
  0.0000000E+000
  0.0000000E+000
  0.0000000E+000
  0.0000000E+000
  0.0000000E+000
  0.0000000E+000
  0.0000000E+000
  0.0000000E+000
  0.0000000E+000
  0.0000000E+000
  0.0000000E+000
  0.0000000E+000
  0.0000000E+000
  0.0000000E+000
  0.0000000E+000
  0.0000000E+000
  0.0000000E+000
  0.0000000E+000
  0.0000000E+000
  0.0000000E+000
  0.0000000E+000
  0.0000000E+000
  0.0000000E+000
  0.0000000E+000
  0.0000000E+000
  0.0000000E+000
  0.0000000E+000
  0.0000000E+000
  0.0000000E+000
  0.0000000E+000
  0.0000000E+000
  0.0000000E+000
  0.0000000E+000
  0.0000000E+000
  0.0000000E+000
  0.0000000E+000
  0.0000000E+000
  0.0000000E+000
  0.0000000E+000
  0.0000000E+000
  0.0000000E+000
  0.0000000E+000
  0.0000000E+000
  0.0000000E+000
  0.0000000E+000
  0.0000000E+000
  0.0000000E+000
  0.0000000E+000
  0.0000000E+000
  0.0000000E+000
  0.0000000E+000
  0.0000000E+000
  0.0000000E+000
  0.0000000E+000
  0.0000000E+000
  0.0000000E+000
  0.0000000E+000
  0.0000000E+000
  0.0000000E+000
  0.0000000E+000
  0.0000000E+000
  0.0000000E+000
  0.0000000E+000
  0.0000000E+000
  0.0000000E+000
  0.0000000E+000
  0.0000000E+000
  0.0000000E+000
  0.0000000E+000
  0.0000000E+000
  0.0000000E+000
  0.0000000E+000
  0.0000000E+000
  0.0000000E+000
  0.0000000E+000
  0.0000000E+000
  0.0000000E+000
  0.0000000E+000
  0.0000000E+000
  0.0000000E+000
  0.0000000E+000
  0.0000000E+000
  0.0000000E+000
  0.0000000E+000
  0.0000000E+000
  0.0000000E+000
  0.0000000E+000
  0.0000000E+000
  0.0000000E+000
  0.0000000E+000
  0.0000000E+000
  0.0000000E+000
  0.0000000E+000
  0.0000000E+000
  0.0000000E+000
  0.0000000E+000
  0.0000000E+000
  0.0000000E+000
  0.0000000E+000
  0.0000000E+000
  0.0000000E+000
  0.0000000E+000
  0.0000000E+000
  0.0000000E+000
  0.0000000E+000
  0.0000000E+000
  0.0000000E+000
  0.0000000E+000
  0.0000000E+000
  0.0000000E+000
  0.0000000E+000
  0.0000000E+000
  0.0000000E+000
  0.0000000E+000
  0.0000000E+000
  0.0000000E+000
  0.0000000E+000
  0.0000000E+000
  0.0000000E+000
  0.0000000E+000
  0.0000000E+000
  0.0000000E+000
  0.0000000E+000
  0.0000000E+000
  0.0000000E+000
  0.0000000E+000
  0.0000000E+000
  0.0000000E+000
  0.0000000E+000
  0.0000000E+000
  0.0000000E+000
  0.0000000E+000
  0.0000000E+000
  0.0000000E+000
  0.0000000E+000
  0.0000000E+000
  0.0000000E+000
  0.0000000E+000
  0.0000000E+000
  0.0000000E+000
  0.0000000E+000
  0.0000000E+000
  0.0000000E+000
  0.0000000E+000
  0.0000000E+000
  0.0000000E+000
  0.0000000E+000
  0.0000000E+000
  0.0000000E+000
  0.0000000E+000
  0.0000000E+000
  0.0000000E+000
  0.0000000E+000
  0.0000000E+000
  0.0000000E+000
  0.0000000E+000
  0.0000000E+000
  0.0000000E+000
  0.0000000E+000
  0.0000000E+000
  0.0000000E+000
  0.0000000E+000
  0.0000000E+000
  0.0000000E+000
  0.0000000E+000
  0.0000000E+000
  0.0000000E+000
  0.0000000E+000
  0.0000000E+000
  0.0000000E+000
  0.0000000E+000
  0.0000000E+000
  0.0000000E+000
  0.0000000E+000
  0.0000000E+000
  0.0000000E+000
  0.0000000E+000
  0.0000000E+000
  0.0000000E+000
  0.0000000E+000
  0.0000000E+000
  0.0000000E+000
  0.0000000E+000
  0.0000000E+000
  0.0000000E+000
  0.0000000E+000
  0.0000000E+000
  0.0000000E+000
  0.0000000E+000
  0.0000000E+000
  0.0000000E+000
  0.0000000E+000
  0.0000000E+000
  0.0000000E+000
  0.0000000E+000
  0.0000000E+000
  0.0000000E+000
  0.0000000E+000
  0.0000000E+000
  0.0000000E+000
  0.0000000E+000
  0.0000000E+000
  0.0000000E+000
  0.0000000E+000
  0.0000000E+000
  0.0000000E+000
  0.0000000E+000
  0.0000000E+000
  0.0000000E+000
  0.0000000E+000
  0.0000000E+000
  0.0000000E+000
  0.0000000E+000
  0.0000000E+000
  0.0000000E+000
  0.0000000E+000
  0.0000000E+000
  0.0000000E+000
  0.0000000E+000
  0.0000000E+000
  0.0000000E+000
  0.0000000E+000
  0.0000000E+000
  0.0000000E+000
  0.0000000E+000
  0.0000000E+000
  0.0000000E+000
  0.0000000E+000
  0.0000000E+000
  0.0000000E+000
  0.0000000E+000
  0.0000000E+000
  0.0000000E+000
  0.0000000E+000
  0.0000000E+000
  0.0000000E+000
  0.0000000E+000
  0.0000000E+000
  0.0000000E+000
  0.0000000E+000
  0.0000000E+000
  0.0000000E+000
  0.0000000E+000
  0.0000000E+000
  0.0000000E+000
  0.0000000E+000
  0.0000000E+000
  0.0000000E+000
  0.0000000E+000
  0.0000000E+000
  0.0000000E+000
  0.0000000E+000
  0.0000000E+000
  0.0000000E+000
  0.0000000E+000
  0.0000000E+000
  0.0000000E+000
  0.0000000E+000
  0.0000000E+000
  0.0000000E+000
  0.0000000E+000
  0.0000000E+000
  0.0000000E+000
  0.0000000E+000
  0.0000000E+000
  0.0000000E+000
  0.0000000E+000
  0.0000000E+000
  0.0000000E+000
  0.0000000E+000
  0.0000000E+000
  0.0000000E+000
  0.0000000E+000
  0.0000000E+000
  0.0000000E+000
  0.0000000E+000
  0.0000000E+000
  0.0000000E+000
  0.0000000E+000
  0.0000000E+000
  0.0000000E+000
  0.0000000E+000
  0.0000000E+000
  0.0000000E+000
  0.0000000E+000
  0.0000000E+000
  0.0000000E+000
  0.0000000E+000
  0.0000000E+000
  0.0000000E+000
  0.0000000E+000
  0.0000000E+000
  0.0000000E+000
  0.0000000E+000
  0.0000000E+000
  0.0000000E+000
  0.0000000E+000
  0.0000000E+000
  0.0000000E+000
  0.0000000E+000
  0.0000000E+000
  0.0000000E+000
  0.0000000E+000
  0.0000000E+000
  0.0000000E+000
  0.0000000E+000
  0.0000000E+000
  0.0000000E+000
  0.0000000E+000
  0.0000000E+000
  0.0000000E+000
  0.0000000E+000
  0.0000000E+000
  0.0000000E+000
  0.0000000E+000
  0.0000000E+000
  0.0000000E+000
  0.0000000E+000
  0.0000000E+000
  0.0000000E+000
  0.0000000E+000
  0.0000000E+000
  0.0000000E+000
  0.0000000E+000
  0.0000000E+000
  0.0000000E+000
  0.0000000E+000
  0.0000000E+000
  0.0000000E+000
  0.0000000E+000
  0.0000000E+000
  0.0000000E+000
  0.0000000E+000
  0.0000000E+000
  0.0000000E+000
  0.0000000E+000
  0.0000000E+000
  0.0000000E+000
  0.0000000E+000
  0.0000000E+000
  0.0000000E+000
  0.0000000E+000
  0.0000000E+000
  0.0000000E+000
  0.0000000E+000
  0.0000000E+000
  0.0000000E+000
  0.0000000E+000
  0.0000000E+000
  0.0000000E+000
  0.0000000E+000
  0.0000000E+000
  0.0000000E+000
  0.0000000E+000
  0.0000000E+000
  0.0000000E+000
  0.0000000E+000
  0.0000000E+000
  0.0000000E+000
  0.0000000E+000
  0.0000000E+000
  0.0000000E+000
  0.0000000E+000
  0.0000000E+000
  0.0000000E+000
  0.0000000E+000
  0.0000000E+000
  0.0000000E+000
  0.0000000E+000
  0.0000000E+000
  0.0000000E+000
  0.0000000E+000
  0.0000000E+000
  0.0000000E+000
  0.0000000E+000
  0.0000000E+000
  0.0000000E+000
  0.0000000E+000
  0.0000000E+000
  0.0000000E+000
  0.0000000E+000
  0.0000000E+000
  0.0000000E+000
  0.0000000E+000
  0.0000000E+000
  0.0000000E+000
  0.0000000E+000
  0.0000000E+000
  0.0000000E+000
  0.0000000E+000
  0.0000000E+000
  0.0000000E+000
  0.0000000E+000
  0.0000000E+000
  0.0000000E+000
  0.0000000E+000
  0.0000000E+000
  0.0000000E+000
  0.0000000E+000
  0.0000000E+000
  0.0000000E+000
  0.0000000E+000
  0.0000000E+000
  0.0000000E+000
  0.0000000E+000
  0.0000000E+000
  0.0000000E+000
  0.0000000E+000
  0.0000000E+000
  0.0000000E+000
  0.0000000E+000
  0.0000000E+000
  0.0000000E+000
  0.0000000E+000
  0.0000000E+000
  0.0000000E+000
  0.0000000E+000
  0.0000000E+000
  0.0000000E+000
  0.0000000E+000
  0.0000000E+000
  0.0000000E+000
  0.0000000E+000
  0.0000000E+000
  0.0000000E+000
  0.0000000E+000
  0.0000000E+000
  0.0000000E+000
  0.0000000E+000
  0.0000000E+000
  0.0000000E+000
  0.0000000E+000
  0.0000000E+000
  0.0000000E+000
  0.0000000E+000
  0.0000000E+000
  0.0000000E+000
  0.0000000E+000
  0.0000000E+000
  0.0000000E+000
  0.0000000E+000
  0.0000000E+000
  0.0000000E+000
  0.0000000E+000
  0.0000000E+000
  0.0000000E+000
  0.0000000E+000
  0.0000000E+000
  0.0000000E+000
  0.0000000E+000
  0.0000000E+000
  0.0000000E+000
  0.0000000E+000
  0.0000000E+000
  0.0000000E+000
  0.0000000E+000
  0.0000000E+000
  0.0000000E+000
  0.0000000E+000
  0.0000000E+000
  0.0000000E+000
  0.0000000E+000
  0.0000000E+000
  0.0000000E+000
  0.0000000E+000
  0.0000000E+000
  0.0000000E+000
  0.0000000E+000
  0.0000000E+000
  0.0000000E+000
  0.0000000E+000
  0.0000000E+000
  0.0000000E+000
  0.0000000E+000
  0.0000000E+000
  0.0000000E+000
  0.0000000E+000
  0.0000000E+000
  0.0000000E+000
  0.0000000E+000
  0.0000000E+000
  0.0000000E+000
  0.0000000E+000
  0.0000000E+000
  0.0000000E+000
  0.0000000E+000
  0.0000000E+000
  0.0000000E+000
  0.0000000E+000
  0.0000000E+000
  0.0000000E+000
  0.0000000E+000
  0.0000000E+000
  0.0000000E+000
  0.0000000E+000
  0.0000000E+000
  0.0000000E+000
  0.0000000E+000
  0.0000000E+000
  0.0000000E+000
  0.0000000E+000
  0.0000000E+000
  0.0000000E+000
  0.0000000E+000
  0.0000000E+000
  0.0000000E+000
  0.0000000E+000
  0.0000000E+000
  0.0000000E+000
  0.0000000E+000
  0.0000000E+000
  0.0000000E+000
  0.0000000E+000
  0.0000000E+000
  0.0000000E+000
  0.0000000E+000
  0.0000000E+000
  0.0000000E+000
  0.0000000E+000
  0.0000000E+000
  0.0000000E+000
  0.0000000E+000
  0.0000000E+000
  0.0000000E+000
  0.0000000E+000
  0.0000000E+000
  0.0000000E+000
  0.0000000E+000
  0.0000000E+000
  0.0000000E+000
  0.0000000E+000
  0.0000000E+000
  0.0000000E+000
  0.0000000E+000
  0.0000000E+000
  0.0000000E+000
  0.0000000E+000
  0.0000000E+000
  0.0000000E+000
  0.0000000E+000
  0.0000000E+000
  0.0000000E+000
  0.0000000E+000
  0.0000000E+000
  0.0000000E+000
  0.0000000E+000
  0.0000000E+000
  0.0000000E+000
  0.0000000E+000
  0.0000000E+000
  0.0000000E+000
  0.0000000E+000
  0.0000000E+000
  0.0000000E+000
  0.0000000E+000
  0.0000000E+000
  0.0000000E+000
  0.0000000E+000
  0.0000000E+000
  0.0000000E+000
  0.0000000E+000
  0.0000000E+000
  0.0000000E+000
  0.0000000E+000
  0.0000000E+000
  0.0000000E+000
  0.0000000E+000
  0.0000000E+000
  0.0000000E+000
  0.0000000E+000
  0.0000000E+000
  0.0000000E+000
  0.0000000E+000
  0.0000000E+000
  0.0000000E+000
  0.0000000E+000
  0.0000000E+000
  0.0000000E+000
  0.0000000E+000
  0.0000000E+000
  0.0000000E+000
  0.0000000E+000
  0.0000000E+000
  0.0000000E+000
  0.0000000E+000
  0.0000000E+000
  0.0000000E+000
  0.0000000E+000
  0.0000000E+000
  0.0000000E+000
  0.0000000E+000
  0.0000000E+000
  0.0000000E+000
  0.0000000E+000
  0.0000000E+000
  0.0000000E+000
  0.0000000E+000
  0.0000000E+000
  0.0000000E+000
  0.0000000E+000
  0.0000000E+000
  0.0000000E+000
  0.0000000E+000
  0.0000000E+000
  0.0000000E+000
  0.0000000E+000
  0.0000000E+000
  0.0000000E+000
  0.0000000E+000
  0.0000000E+000
  0.0000000E+000
  0.0000000E+000
  0.0000000E+000
  0.0000000E+000
  0.0000000E+000
  0.0000000E+000
  0.0000000E+000
  0.0000000E+000
  0.0000000E+000
  0.0000000E+000
  0.0000000E+000
  0.0000000E+000
  0.0000000E+000
  0.0000000E+000
  0.0000000E+000
  0.0000000E+000
  0.0000000E+000
  0.0000000E+000
  0.0000000E+000
  0.0000000E+000
  0.0000000E+000
  0.0000000E+000
  0.0000000E+000
  0.0000000E+000
  0.0000000E+000
  0.0000000E+000
  0.0000000E+000
  0.0000000E+000
  0.0000000E+000
  0.0000000E+000
  0.0000000E+000
  0.0000000E+000
  0.0000000E+000
  0.0000000E+000
  0.0000000E+000
  0.0000000E+000
  0.0000000E+000
  0.0000000E+000
  0.0000000E+000
  0.0000000E+000
  0.0000000E+000
  0.0000000E+000
  0.0000000E+000
  0.0000000E+000
  0.0000000E+000
  0.0000000E+000
  0.0000000E+000
  0.0000000E+000
  0.0000000E+000
  0.0000000E+000
  0.0000000E+000
  0.0000000E+000
  0.0000000E+000
  0.0000000E+000
  0.0000000E+000
  0.0000000E+000
  0.0000000E+000
  0.0000000E+000
  0.0000000E+000
  0.0000000E+000
  0.0000000E+000
  0.0000000E+000
  0.0000000E+000
  0.0000000E+000
  0.0000000E+000
  0.0000000E+000
  0.0000000E+000
  0.0000000E+000
  0.0000000E+000
  0.0000000E+000
  0.0000000E+000
  0.0000000E+000
  0.0000000E+000
  0.0000000E+000
  0.0000000E+000
  0.0000000E+000
  0.0000000E+000
  0.0000000E+000
  0.0000000E+000
  0.0000000E+000
  0.0000000E+000
  0.0000000E+000
  0.0000000E+000
  0.0000000E+000
  0.0000000E+000
  0.0000000E+000
  0.0000000E+000
  0.0000000E+000
  0.0000000E+000
  0.0000000E+000
  0.0000000E+000
  0.0000000E+000
  0.0000000E+000
  0.0000000E+000
  0.0000000E+000
  0.0000000E+000
  0.0000000E+000
  0.0000000E+000
  0.0000000E+000
  0.0000000E+000
  0.0000000E+000
  0.0000000E+000
  0.0000000E+000
  0.0000000E+000
  0.0000000E+000
  0.0000000E+000
  0.0000000E+000
  0.0000000E+000
  0.0000000E+000
  0.0000000E+000
  0.0000000E+000
  0.0000000E+000
  0.0000000E+000
  0.0000000E+000
  0.0000000E+000
  0.0000000E+000
  0.0000000E+000
  0.0000000E+000
  0.0000000E+000
  0.0000000E+000
  0.0000000E+000
  0.0000000E+000
  0.0000000E+000
  0.0000000E+000
  0.0000000E+000
  0.0000000E+000
  0.0000000E+000
  0.0000000E+000
  0.0000000E+000
  0.0000000E+000
  0.0000000E+000
  0.0000000E+000
  0.0000000E+000
  0.0000000E+000
  0.0000000E+000
  0.0000000E+000
  0.0000000E+000
  0.0000000E+000
  0.0000000E+000
  0.0000000E+000
  0.0000000E+000
  0.0000000E+000
  0.0000000E+000
  0.0000000E+000
  0.0000000E+000
  0.0000000E+000
  0.0000000E+000
  0.0000000E+000
  0.0000000E+000
  0.0000000E+000
  0.0000000E+000
  0.0000000E+000
  0.0000000E+000
  0.0000000E+000
  0.0000000E+000
  0.0000000E+000
  0.0000000E+000
  0.0000000E+000
  0.0000000E+000
  0.0000000E+000
  0.0000000E+000
  0.0000000E+000
  0.0000000E+000
  0.0000000E+000
  0.0000000E+000
  0.0000000E+000
  0.0000000E+000
  0.0000000E+000
  0.0000000E+000
  0.0000000E+000
  0.0000000E+000
  0.0000000E+000
  0.0000000E+000
  0.0000000E+000
  0.0000000E+000
  0.0000000E+000
  0.0000000E+000
  0.0000000E+000
  0.0000000E+000
  0.0000000E+000
  0.0000000E+000
  0.0000000E+000
  0.0000000E+000
  0.0000000E+000
  0.0000000E+000
  0.0000000E+000
  0.0000000E+000
  0.0000000E+000
  0.0000000E+000
  0.0000000E+000
  0.0000000E+000
  0.0000000E+000
  0.0000000E+000
  0.0000000E+000
  0.0000000E+000
  0.0000000E+000
  0.0000000E+000
  0.0000000E+000
  0.0000000E+000
  0.0000000E+000
  0.0000000E+000
  0.0000000E+000
  0.0000000E+000
  0.0000000E+000
  0.0000000E+000
  0.0000000E+000
  0.0000000E+000
  0.0000000E+000
  0.0000000E+000
  0.0000000E+000
  0.0000000E+000
  0.0000000E+000
  0.0000000E+000
  0.0000000E+000
  0.0000000E+000
  0.0000000E+000
  0.0000000E+000
  0.0000000E+000
  0.0000000E+000
  0.0000000E+000
  0.0000000E+000
  0.0000000E+000
  0.0000000E+000
  0.0000000E+000
  0.0000000E+000
  0.0000000E+000
  0.0000000E+000
  0.0000000E+000
  0.0000000E+000
  0.0000000E+000
  0.0000000E+000
  0.0000000E+000
  0.0000000E+000
  0.0000000E+000
  0.0000000E+000
  0.0000000E+000
  0.0000000E+000
  0.0000000E+000
  0.0000000E+000
  0.0000000E+000
  0.0000000E+000
  0.0000000E+000
  0.0000000E+000
  0.0000000E+000
  0.0000000E+000
  0.0000000E+000
  0.0000000E+000
  0.0000000E+000
  0.0000000E+000
  0.0000000E+000
  0.0000000E+000
  0.0000000E+000
  0.0000000E+000
  0.0000000E+000
  0.0000000E+000
  0.0000000E+000
  0.0000000E+000
  0.0000000E+000
  0.0000000E+000
  0.0000000E+000
  0.0000000E+000
  0.0000000E+000
  0.0000000E+000
  0.0000000E+000
  0.0000000E+000
  0.0000000E+000
  0.0000000E+000
  0.0000000E+000
  0.0000000E+000
  0.0000000E+000
  0.0000000E+000
  0.0000000E+000
  0.0000000E+000
  0.0000000E+000
  0.0000000E+000
  0.0000000E+000
  0.0000000E+000
  0.0000000E+000
  0.0000000E+000
  0.0000000E+000
  0.0000000E+000
  0.0000000E+000
  0.0000000E+000
  0.0000000E+000
  0.0000000E+000
  0.0000000E+000
  0.0000000E+000
  0.0000000E+000
  0.0000000E+000
  0.0000000E+000
  0.0000000E+000
  0.0000000E+000
  0.0000000E+000
  0.0000000E+000
  0.0000000E+000
  0.0000000E+000
  0.0000000E+000
  0.0000000E+000
  0.0000000E+000
  0.0000000E+000
  0.0000000E+000
  0.0000000E+000
  0.0000000E+000
  0.0000000E+000
  0.0000000E+000
  0.0000000E+000
  0.0000000E+000
  0.0000000E+000
  0.0000000E+000
  0.0000000E+000
  0.0000000E+000
  0.0000000E+000
  0.0000000E+000
  0.0000000E+000
  0.0000000E+000
  0.0000000E+000
  0.0000000E+000
  0.0000000E+000
  0.0000000E+000
  0.0000000E+000
  0.0000000E+000
  0.0000000E+000
  0.0000000E+000
  0.0000000E+000
  0.0000000E+000
  0.0000000E+000
  0.0000000E+000
  0.0000000E+000
  0.0000000E+000
  0.0000000E+000
  0.0000000E+000
  0.0000000E+000
  0.0000000E+000
  0.0000000E+000
  0.0000000E+000
  0.0000000E+000
  0.0000000E+000
  0.0000000E+000
  0.0000000E+000
  0.0000000E+000
  0.0000000E+000
  0.0000000E+000
  0.0000000E+000
  0.0000000E+000
  0.0000000E+000
  0.0000000E+000
  0.0000000E+000
  0.0000000E+000
  0.0000000E+000
  0.0000000E+000
  0.0000000E+000
  0.0000000E+000
  0.0000000E+000
  0.0000000E+000
  0.0000000E+000
  0.0000000E+000
  0.0000000E+000
  0.0000000E+000
  0.0000000E+000
  0.0000000E+000
  0.0000000E+000
  0.0000000E+000
  0.0000000E+000
  0.0000000E+000
  0.0000000E+000
  0.0000000E+000
  0.0000000E+000
  0.0000000E+000
  0.0000000E+000
  0.0000000E+000
  0.0000000E+000
  0.0000000E+000
  0.0000000E+000
  0.0000000E+000
  0.0000000E+000
  0.0000000E+000
  0.0000000E+000
  0.0000000E+000
  0.0000000E+000
  0.0000000E+000
  0.0000000E+000
  0.0000000E+000
  0.0000000E+000
  0.0000000E+000
  0.0000000E+000
  0.0000000E+000
  0.0000000E+000
  0.0000000E+000
  0.0000000E+000
  0.0000000E+000
  0.0000000E+000
  0.0000000E+000
  0.0000000E+000
  0.0000000E+000
  0.0000000E+000
  0.0000000E+000
  0.0000000E+000
  0.0000000E+000
  0.0000000E+000
  0.0000000E+000
  0.0000000E+000
  0.0000000E+000
  0.0000000E+000
  0.0000000E+000
  0.0000000E+000
  0.0000000E+000
  0.0000000E+000
  0.0000000E+000
  0.0000000E+000
  0.0000000E+000
  0.0000000E+000
  0.0000000E+000
  0.0000000E+000
  0.0000000E+000
  0.0000000E+000
  0.0000000E+000
  0.0000000E+000
  0.0000000E+000
  0.0000000E+000
  0.0000000E+000
  0.0000000E+000
  0.0000000E+000
  0.0000000E+000
  0.0000000E+000
  0.0000000E+000
  0.0000000E+000
  0.0000000E+000
  0.0000000E+000
  0.0000000E+000
  0.0000000E+000
  0.0000000E+000
  0.0000000E+000
  0.0000000E+000
  0.0000000E+000
  0.0000000E+000
  0.0000000E+000
  0.0000000E+000
  0.0000000E+000
  0.0000000E+000
  0.0000000E+000
  0.0000000E+000
  0.0000000E+000
  0.0000000E+000
  0.0000000E+000
  0.0000000E+000
  0.0000000E+000
  0.0000000E+000
  0.0000000E+000
  0.0000000E+000
  0.0000000E+000
  0.0000000E+000
  0.0000000E+000
  0.0000000E+000
  0.0000000E+000
  0.0000000E+000
  0.0000000E+000
  0.0000000E+000
  0.0000000E+000
  0.0000000E+000
  0.0000000E+000
  0.0000000E+000
  0.0000000E+000
  0.0000000E+000
  0.0000000E+000
  0.0000000E+000
  0.0000000E+000
  0.0000000E+000
  0.0000000E+000
  0.0000000E+000
  0.0000000E+000
  0.0000000E+000
  0.0000000E+000
  0.0000000E+000
  0.0000000E+000
  0.0000000E+000
  0.0000000E+000
  0.0000000E+000
  0.0000000E+000
  0.0000000E+000
  0.0000000E+000
  0.0000000E+000
  0.0000000E+000
  0.0000000E+000
  0.0000000E+000
  0.0000000E+000
  0.0000000E+000
  0.0000000E+000
  0.0000000E+000
  0.0000000E+000
  0.0000000E+000
  0.0000000E+000
  0.0000000E+000
  0.0000000E+000
  0.0000000E+000
  0.0000000E+000
  0.0000000E+000
  0.0000000E+000
  0.0000000E+000
  0.0000000E+000
  0.0000000E+000
  0.0000000E+000
  0.0000000E+000
  0.0000000E+000
  0.0000000E+000
  0.0000000E+000
  0.0000000E+000
  0.0000000E+000
  0.0000000E+000
  0.0000000E+000
  0.0000000E+000
  0.0000000E+000
  0.0000000E+000
  0.0000000E+000
  0.0000000E+000
  0.0000000E+000
  0.0000000E+000
  0.0000000E+000
  0.0000000E+000
  0.0000000E+000
  0.0000000E+000
  0.0000000E+000
  0.0000000E+000
  0.0000000E+000
  0.0000000E+000
  0.0000000E+000
  0.0000000E+000
  0.0000000E+000
  0.0000000E+000
  0.0000000E+000
  0.0000000E+000
  0.0000000E+000
  0.0000000E+000
  0.0000000E+000
  0.0000000E+000
  0.0000000E+000
  0.0000000E+000
  0.0000000E+000
  0.0000000E+000
  0.0000000E+000
  0.0000000E+000
  0.0000000E+000
  0.0000000E+000
  0.0000000E+000
  0.0000000E+000
  0.0000000E+000
  0.0000000E+000
  0.0000000E+000
  0.0000000E+000
  0.0000000E+000
  0.0000000E+000
  0.0000000E+000
  0.0000000E+000
  0.0000000E+000
  0.0000000E+000
  0.0000000E+000
  0.0000000E+000
  0.0000000E+000
  0.0000000E+000
  0.0000000E+000
  0.0000000E+000
  0.0000000E+000
  0.0000000E+000
  0.0000000E+000
  0.0000000E+000
  0.0000000E+000
  0.0000000E+000
  0.0000000E+000
  0.0000000E+000
  0.0000000E+000
  0.0000000E+000
  0.0000000E+000
  0.0000000E+000
  0.0000000E+000
  0.0000000E+000
  0.0000000E+000
  0.0000000E+000
  0.0000000E+000
  0.0000000E+000
  0.0000000E+000
  0.0000000E+000
  0.0000000E+000
  0.0000000E+000
  0.0000000E+000
  0.0000000E+000
  0.0000000E+000
  0.0000000E+000
  0.0000000E+000
  0.0000000E+000
  0.0000000E+000
  0.0000000E+000
  0.0000000E+000
  0.0000000E+000
  0.0000000E+000
  0.0000000E+000
  0.0000000E+000
  0.0000000E+000
  0.0000000E+000
  0.0000000E+000
  0.0000000E+000
  0.0000000E+000
  0.0000000E+000
  0.0000000E+000
  0.0000000E+000
  0.0000000E+000
  0.0000000E+000
  0.0000000E+000
  0.0000000E+000
  0.0000000E+000
  0.0000000E+000
  0.0000000E+000
  0.0000000E+000
  0.0000000E+000
  0.0000000E+000
  0.0000000E+000
  0.0000000E+000
  0.0000000E+000
  0.0000000E+000
  0.0000000E+000
  0.0000000E+000
  0.0000000E+000
  0.0000000E+000
  0.0000000E+000
  0.0000000E+000
  0.0000000E+000
  0.0000000E+000
  0.0000000E+000
  0.0000000E+000
  0.0000000E+000
  0.0000000E+000
  0.0000000E+000
  0.0000000E+000
  0.0000000E+000
  0.0000000E+000
  0.0000000E+000
  0.0000000E+000
  0.0000000E+000
  0.0000000E+000
  0.0000000E+000
  0.0000000E+000
  0.0000000E+000
  0.0000000E+000
  0.0000000E+000
  0.0000000E+000
  0.0000000E+000
  0.0000000E+000
  0.0000000E+000
  0.0000000E+000
  0.0000000E+000
  0.0000000E+000
  0.0000000E+000
  0.0000000E+000
  0.0000000E+000
  0.0000000E+000
  0.0000000E+000
  0.0000000E+000
  0.0000000E+000
  0.0000000E+000
  0.0000000E+000
  0.0000000E+000
  0.0000000E+000
  0.0000000E+000
  0.0000000E+000
  0.0000000E+000
  0.0000000E+000
  0.0000000E+000
  0.0000000E+000
  0.0000000E+000
  0.0000000E+000
  0.0000000E+000
  0.0000000E+000
  0.0000000E+000
  0.0000000E+000
  0.0000000E+000
  0.0000000E+000
  0.0000000E+000
  0.0000000E+000
  0.0000000E+000
  0.0000000E+000
  0.0000000E+000
  0.0000000E+000
  0.0000000E+000
  0.0000000E+000
  0.0000000E+000
  0.0000000E+000
  0.0000000E+000
  0.0000000E+000
  0.0000000E+000
  0.0000000E+000
  0.0000000E+000
  0.0000000E+000
  0.0000000E+000
  0.0000000E+000
  0.0000000E+000
  0.0000000E+000
  0.0000000E+000
  0.0000000E+000
  0.0000000E+000
  0.0000000E+000
  0.0000000E+000
  0.0000000E+000
  0.0000000E+000
  0.0000000E+000
  0.0000000E+000
  0.0000000E+000
  0.0000000E+000
  0.0000000E+000
  0.0000000E+000
  0.0000000E+000
  0.0000000E+000
  0.0000000E+000
  0.0000000E+000
  0.0000000E+000
  0.0000000E+000
  0.0000000E+000
  0.0000000E+000
  0.0000000E+000
  0.0000000E+000
  0.0000000E+000
  0.0000000E+000
  0.0000000E+000
  0.0000000E+000
  0.0000000E+000
  0.0000000E+000
  0.0000000E+000
  0.0000000E+000
  0.0000000E+000
  0.0000000E+000
  0.0000000E+000
  0.0000000E+000
  0.0000000E+000
  0.0000000E+000
  0.0000000E+000
  0.0000000E+000
  0.0000000E+000
  0.0000000E+000
  0.0000000E+000
  0.0000000E+000
  0.0000000E+000
  0.0000000E+000
  0.0000000E+000
  0.0000000E+000
  0.0000000E+000
  0.0000000E+000
  0.0000000E+000
  0.0000000E+000
  0.0000000E+000
  0.0000000E+000
  0.0000000E+000
  0.0000000E+000
  0.0000000E+000
  0.0000000E+000
  0.0000000E+000
  0.0000000E+000
  0.0000000E+000
  0.0000000E+000
  0.0000000E+000
  0.0000000E+000
  0.0000000E+000
  0.0000000E+000
  0.0000000E+000
  0.0000000E+000
  0.0000000E+000
  0.0000000E+000
  0.0000000E+000
  0.0000000E+000
  0.0000000E+000
  0.0000000E+000
  0.0000000E+000
  0.0000000E+000
  0.0000000E+000
  0.0000000E+000
  0.0000000E+000
  0.0000000E+000
  0.0000000E+000
  0.0000000E+000
  0.0000000E+000
  0.0000000E+000
  0.0000000E+000
  0.0000000E+000
  0.0000000E+000
  0.0000000E+000
  0.0000000E+000
  0.0000000E+000
  0.0000000E+000
  0.0000000E+000
  0.0000000E+000
  0.0000000E+000
  0.0000000E+000
  0.0000000E+000
  0.0000000E+000
  0.0000000E+000
  0.0000000E+000
  0.0000000E+000
  0.0000000E+000
  0.0000000E+000
  0.0000000E+000
  0.0000000E+000
  0.0000000E+000
  0.0000000E+000
  0.0000000E+000
  0.0000000E+000
  0.0000000E+000
  0.0000000E+000
  0.0000000E+000
  0.0000000E+000
  0.0000000E+000
  0.0000000E+000
  0.0000000E+000
  0.0000000E+000
  0.0000000E+000
  0.0000000E+000
  0.0000000E+000
  0.0000000E+000
  0.0000000E+000
  0.0000000E+000
  0.0000000E+000
  0.0000000E+000
  0.0000000E+000
  0.0000000E+000
  0.0000000E+000
  0.0000000E+000
  0.0000000E+000
  0.0000000E+000
  0.0000000E+000
  0.0000000E+000
  0.0000000E+000
  0.0000000E+000
  0.0000000E+000
  0.0000000E+000
  0.0000000E+000
  0.0000000E+000
  0.0000000E+000
  0.0000000E+000
  0.0000000E+000
  0.0000000E+000
  0.0000000E+000
  0.0000000E+000
  0.0000000E+000
  0.0000000E+000
  0.0000000E+000
  0.0000000E+000
  0.0000000E+000
  0.0000000E+000
  0.0000000E+000
  0.0000000E+000
  0.0000000E+000
  0.0000000E+000
  0.0000000E+000
  0.0000000E+000
  0.0000000E+000
  0.0000000E+000
  0.0000000E+000
  0.0000000E+000
  0.0000000E+000
  0.0000000E+000
  0.0000000E+000
  0.0000000E+000
  0.0000000E+000
  0.0000000E+000
  0.0000000E+000
  0.0000000E+000
  0.0000000E+000
  0.0000000E+000
  0.0000000E+000
  0.0000000E+000
  0.0000000E+000
  0.0000000E+000
  0.0000000E+000
  0.0000000E+000
  0.0000000E+000
  0.0000000E+000
  0.0000000E+000
  0.0000000E+000
  0.0000000E+000
  0.0000000E+000
  0.0000000E+000
  0.0000000E+000
  0.0000000E+000
  0.0000000E+000
  0.0000000E+000
  0.0000000E+000
  0.0000000E+000
  0.0000000E+000
  0.0000000E+000
  0.0000000E+000
  0.0000000E+000
  0.0000000E+000
  0.0000000E+000
  0.0000000E+000
  0.0000000E+000
  0.0000000E+000
  0.0000000E+000
  0.0000000E+000
  0.0000000E+000
  0.0000000E+000
  0.0000000E+000
  0.0000000E+000
  0.0000000E+000
  0.0000000E+000
  0.0000000E+000
  0.0000000E+000
  0.0000000E+000
  0.0000000E+000
  0.0000000E+000
  0.0000000E+000
  0.0000000E+000
  0.0000000E+000
  0.0000000E+000
  0.0000000E+000
  0.0000000E+000
  0.0000000E+000
  0.0000000E+000
  0.0000000E+000
  0.0000000E+000
  0.0000000E+000
  0.0000000E+000
  0.0000000E+000
  0.0000000E+000
  0.0000000E+000
  0.0000000E+000
  0.0000000E+000
  0.0000000E+000
  0.0000000E+000
  0.0000000E+000
  0.0000000E+000
  0.0000000E+000
  0.0000000E+000
  0.0000000E+000
  0.0000000E+000
  0.0000000E+000
  0.0000000E+000
  0.0000000E+000
  0.0000000E+000
  0.0000000E+000
  0.0000000E+000
  0.0000000E+000
  0.0000000E+000
  0.0000000E+000
  0.0000000E+000
  0.0000000E+000
  0.0000000E+000
  0.0000000E+000
  0.0000000E+000
  0.0000000E+000
  0.0000000E+000
  0.0000000E+000
  0.0000000E+000
  0.0000000E+000
  0.0000000E+000
  0.0000000E+000
  0.0000000E+000
  0.0000000E+000
  0.0000000E+000
  0.0000000E+000
  0.0000000E+000
  0.0000000E+000
  0.0000000E+000
  0.0000000E+000
  0.0000000E+000
  0.0000000E+000
  0.0000000E+000
  0.0000000E+000
  0.0000000E+000
  0.0000000E+000
  0.0000000E+000
  0.0000000E+000
  0.0000000E+000
  0.0000000E+000
  0.0000000E+000
  0.0000000E+000
  0.0000000E+000
  0.0000000E+000
  0.0000000E+000
  0.0000000E+000
  0.0000000E+000
  0.0000000E+000
  0.0000000E+000
  0.0000000E+000
  0.0000000E+000
  0.0000000E+000
  0.0000000E+000
  0.0000000E+000
  0.0000000E+000
  0.0000000E+000
  0.0000000E+000
  0.0000000E+000
  0.0000000E+000
  0.0000000E+000
  0.0000000E+000
  0.0000000E+000
  0.0000000E+000
  0.0000000E+000
  0.0000000E+000
  0.0000000E+000
  0.0000000E+000
  0.0000000E+000
  0.0000000E+000
  0.0000000E+000
  0.0000000E+000
  0.0000000E+000
  0.0000000E+000
  0.0000000E+000
  0.0000000E+000
  0.0000000E+000
  0.0000000E+000
  0.0000000E+000
  0.0000000E+000
  0.0000000E+000
  0.0000000E+000
  0.0000000E+000
  0.0000000E+000
  0.0000000E+000
  0.0000000E+000
  0.0000000E+000
  0.0000000E+000
  0.0000000E+000
  0.0000000E+000
  0.0000000E+000
  0.0000000E+000
  0.0000000E+000
  0.0000000E+000
  0.0000000E+000
  0.0000000E+000
  0.0000000E+000
  0.0000000E+000
  0.0000000E+000
  0.0000000E+000
  0.0000000E+000
  0.0000000E+000
  0.0000000E+000
  0.0000000E+000
  0.0000000E+000
  0.0000000E+000
  0.0000000E+000
  0.0000000E+000
  0.0000000E+000
  0.0000000E+000
  0.0000000E+000
  0.0000000E+000
  0.0000000E+000
  0.0000000E+000
  0.0000000E+000
  0.0000000E+000
  0.0000000E+000
  0.0000000E+000
  0.0000000E+000
  0.0000000E+000
  0.0000000E+000
  0.0000000E+000
  0.0000000E+000
  0.0000000E+000
  0.0000000E+000
  0.0000000E+000
  0.0000000E+000
  0.0000000E+000
  0.0000000E+000
  0.0000000E+000
  0.0000000E+000
  0.0000000E+000
  0.0000000E+000
  0.0000000E+000
  0.0000000E+000
  0.0000000E+000
  0.0000000E+000
  0.0000000E+000
  0.0000000E+000
  0.0000000E+000
  0.0000000E+000
  0.0000000E+000
  0.0000000E+000
  0.0000000E+000
  0.0000000E+000
  0.0000000E+000
  0.0000000E+000
  0.0000000E+000
  0.0000000E+000
  0.0000000E+000
  0.0000000E+000
  0.0000000E+000
  0.0000000E+000
  0.0000000E+000
  0.0000000E+000
  0.0000000E+000
  0.0000000E+000
  0.0000000E+000
  0.0000000E+000
  0.0000000E+000
  0.0000000E+000
  0.0000000E+000
  0.0000000E+000
  0.0000000E+000
  0.0000000E+000
  0.0000000E+000
  0.0000000E+000
  0.0000000E+000
  0.0000000E+000
  0.0000000E+000
  0.0000000E+000
  0.0000000E+000
  0.0000000E+000
  0.0000000E+000
  0.0000000E+000
  0.0000000E+000
  0.0000000E+000
  0.0000000E+000
  0.0000000E+000
  0.0000000E+000
  0.0000000E+000
  0.0000000E+000
  0.0000000E+000
  0.0000000E+000
  0.0000000E+000
  0.0000000E+000
  0.0000000E+000
  0.0000000E+000
  0.0000000E+000
  0.0000000E+000
  0.0000000E+000
  0.0000000E+000
  0.0000000E+000
  0.0000000E+000
  0.0000000E+000
  0.0000000E+000
  0.0000000E+000
  0.0000000E+000
  0.0000000E+000
  0.0000000E+000
  0.0000000E+000
  0.0000000E+000
  0.0000000E+000
  0.0000000E+000
  0.0000000E+000
  0.0000000E+000
  0.0000000E+000
  0.0000000E+000
  0.0000000E+000
  0.0000000E+000
  0.0000000E+000
  0.0000000E+000
  0.0000000E+000
  0.0000000E+000
  0.0000000E+000
  0.0000000E+000
  0.0000000E+000
  0.0000000E+000
  0.0000000E+000
  0.0000000E+000
  0.0000000E+000
  0.0000000E+000
  0.0000000E+000
  0.0000000E+000
  0.0000000E+000
  0.0000000E+000
  0.0000000E+000
  0.0000000E+000
  0.0000000E+000
  0.0000000E+000
  0.0000000E+000
  0.0000000E+000
  0.0000000E+000
  0.0000000E+000
  0.0000000E+000
  0.0000000E+000
  0.0000000E+000
  0.0000000E+000
  0.0000000E+000
  0.0000000E+000
  0.0000000E+000
  0.0000000E+000
  0.0000000E+000
  0.0000000E+000
  0.0000000E+000
  0.0000000E+000
  0.0000000E+000
  0.0000000E+000
  0.0000000E+000
  0.0000000E+000
  0.0000000E+000
  0.0000000E+000
  0.0000000E+000
  0.0000000E+000
  0.0000000E+000
  0.0000000E+000
  0.0000000E+000
  0.0000000E+000
  0.0000000E+000
  0.0000000E+000
  0.0000000E+000
  0.0000000E+000
  0.0000000E+000
  0.0000000E+000
  0.0000000E+000
  0.0000000E+000
  0.0000000E+000
  0.0000000E+000
  0.0000000E+000
  0.0000000E+000
  0.0000000E+000
  0.0000000E+000
  0.0000000E+000
  0.0000000E+000
  0.0000000E+000
  0.0000000E+000
  0.0000000E+000
  0.0000000E+000
  0.0000000E+000
  0.0000000E+000
  0.0000000E+000
  0.0000000E+000
  0.0000000E+000
  0.0000000E+000
  0.0000000E+000
  0.0000000E+000
  0.0000000E+000
  0.0000000E+000
  0.0000000E+000
  0.0000000E+000
  0.0000000E+000
  0.0000000E+000
  0.0000000E+000
  0.0000000E+000
  0.0000000E+000
  0.0000000E+000
  0.0000000E+000
  0.0000000E+000
  0.0000000E+000
  0.0000000E+000
  0.0000000E+000
  0.0000000E+000
  0.0000000E+000
  0.0000000E+000
  0.0000000E+000
  0.0000000E+000
  0.0000000E+000
  0.0000000E+000
  0.0000000E+000
  0.0000000E+000
  0.0000000E+000
  0.0000000E+000
  0.0000000E+000
  0.0000000E+000
  0.0000000E+000
  0.0000000E+000
  0.0000000E+000
  0.0000000E+000
  0.0000000E+000
  0.0000000E+000
  0.0000000E+000
  0.0000000E+000
  0.0000000E+000
  0.0000000E+000
  0.0000000E+000
  0.0000000E+000
  0.0000000E+000
  0.0000000E+000
  0.0000000E+000
  0.0000000E+000
  0.0000000E+000
  0.0000000E+000
  0.0000000E+000
  0.0000000E+000
  0.0000000E+000
  0.0000000E+000
  0.0000000E+000
  0.0000000E+000
  0.0000000E+000
  0.0000000E+000
  0.0000000E+000
  0.0000000E+000
  0.0000000E+000
  0.0000000E+000
  0.0000000E+000
  0.0000000E+000
  0.0000000E+000
  0.0000000E+000
  0.0000000E+000
  0.0000000E+000
  0.0000000E+000
  0.0000000E+000
  0.0000000E+000
  0.0000000E+000
  0.0000000E+000
  0.0000000E+000
  0.0000000E+000
  0.0000000E+000
  0.0000000E+000
  0.0000000E+000
  0.0000000E+000
  0.0000000E+000
  0.0000000E+000
  0.0000000E+000
  0.0000000E+000
  0.0000000E+000
  0.0000000E+000
  0.0000000E+000
  0.0000000E+000
  0.0000000E+000
  0.0000000E+000
  0.0000000E+000
  0.0000000E+000
  0.0000000E+000
  0.0000000E+000
  0.0000000E+000
  0.0000000E+000
  0.0000000E+000
  0.0000000E+000
  0.0000000E+000
  0.0000000E+000
  0.0000000E+000
  0.0000000E+000
  0.0000000E+000
  0.0000000E+000
  0.0000000E+000
  0.0000000E+000
  0.0000000E+000
  0.0000000E+000
  0.0000000E+000
  0.0000000E+000
  0.0000000E+000
  0.0000000E+000
  0.0000000E+000
  0.0000000E+000
  0.0000000E+000
  0.0000000E+000
  0.0000000E+000
  0.0000000E+000
  0.0000000E+000
  0.0000000E+000
  0.0000000E+000
  0.0000000E+000
  0.0000000E+000
  0.0000000E+000
  0.0000000E+000
  0.0000000E+000
  0.0000000E+000
  0.0000000E+000
  0.0000000E+000
  0.0000000E+000
  0.0000000E+000
  0.0000000E+000
  0.0000000E+000
  0.0000000E+000
  0.0000000E+000
  0.0000000E+000
  0.0000000E+000
  0.0000000E+000
  0.0000000E+000
  0.0000000E+000
  0.0000000E+000
  0.0000000E+000
  0.0000000E+000
  0.0000000E+000
  0.0000000E+000
  0.0000000E+000
  0.0000000E+000
  0.0000000E+000
  0.0000000E+000
  0.0000000E+000
  0.0000000E+000
  0.0000000E+000
  0.0000000E+000
  0.0000000E+000
  0.0000000E+000
  0.0000000E+000
  0.0000000E+000
  0.0000000E+000
  0.0000000E+000
  0.0000000E+000
  0.0000000E+000
  0.0000000E+000
  0.0000000E+000
  0.0000000E+000
  0.0000000E+000
  0.0000000E+000
  0.0000000E+000
  0.0000000E+000
  0.0000000E+000
  0.0000000E+000
  0.0000000E+000
  0.0000000E+000
  0.0000000E+000
  0.0000000E+000
  0.0000000E+000
  0.0000000E+000
  0.0000000E+000
  0.0000000E+000
  0.0000000E+000
  0.0000000E+000
  0.0000000E+000
  0.0000000E+000
  0.0000000E+000
  0.0000000E+000
  0.0000000E+000
  0.0000000E+000
  0.0000000E+000
  0.0000000E+000
  0.0000000E+000
  0.0000000E+000
  0.0000000E+000
  0.0000000E+000
  0.0000000E+000
  0.0000000E+000
  0.0000000E+000
  0.0000000E+000
  0.0000000E+000
  0.0000000E+000
  0.0000000E+000
  0.0000000E+000
  0.0000000E+000
  0.0000000E+000
  0.0000000E+000
  0.0000000E+000
  0.0000000E+000
  0.0000000E+000
  0.0000000E+000
  0.0000000E+000
  0.0000000E+000
  0.0000000E+000
  0.0000000E+000
  0.0000000E+000
  0.0000000E+000
  0.0000000E+000
  0.0000000E+000
  0.0000000E+000
  0.0000000E+000
  0.0000000E+000
  0.0000000E+000
  0.0000000E+000
  0.0000000E+000
  0.0000000E+000
  0.0000000E+000
  0.0000000E+000
  0.0000000E+000
  0.0000000E+000
  0.0000000E+000
  0.0000000E+000
  0.0000000E+000
  0.0000000E+000
  0.0000000E+000
  0.0000000E+000
  0.0000000E+000
  0.0000000E+000
  0.0000000E+000
  0.0000000E+000
  0.0000000E+000
  0.0000000E+000
  0.0000000E+000
  0.0000000E+000
  0.0000000E+000
  0.0000000E+000
  0.0000000E+000
  0.0000000E+000
  0.0000000E+000
  0.0000000E+000
  0.0000000E+000
  0.0000000E+000
  0.0000000E+000
  0.0000000E+000
  0.0000000E+000
  0.0000000E+000
  0.0000000E+000
  0.0000000E+000
  0.0000000E+000
  0.0000000E+000
  0.0000000E+000
  0.0000000E+000
  0.0000000E+000
  0.0000000E+000
  0.0000000E+000
  0.0000000E+000
  0.0000000E+000
  0.0000000E+000
  0.0000000E+000
  0.0000000E+000
  0.0000000E+000
  0.0000000E+000
  0.0000000E+000
  0.0000000E+000
  0.0000000E+000
  0.0000000E+000
  0.0000000E+000
  0.0000000E+000
  0.0000000E+000
  0.0000000E+000
  0.0000000E+000
  0.0000000E+000
  0.0000000E+000
  0.0000000E+000
  0.0000000E+000
  0.0000000E+000
  0.0000000E+000
  0.0000000E+000
  0.0000000E+000
  0.0000000E+000
  0.0000000E+000
  0.0000000E+000
  0.0000000E+000
  0.0000000E+000
  0.0000000E+000
  0.0000000E+000
  0.0000000E+000
  0.0000000E+000
  0.0000000E+000
  0.0000000E+000
  0.0000000E+000
  0.0000000E+000
  0.0000000E+000
  0.0000000E+000
  0.0000000E+000
  0.0000000E+000
  0.0000000E+000
  0.0000000E+000
  0.0000000E+000
  0.0000000E+000
  0.0000000E+000
  0.0000000E+000
  0.0000000E+000
  0.0000000E+000
  0.0000000E+000
  0.0000000E+000
  0.0000000E+000
  0.0000000E+000
  0.0000000E+000
  0.0000000E+000
  0.0000000E+000
  0.0000000E+000
  0.0000000E+000
  0.0000000E+000
  0.0000000E+000
  0.0000000E+000
  0.0000000E+000
  0.0000000E+000
  0.0000000E+000
  0.0000000E+000
  0.0000000E+000
  0.0000000E+000
  0.0000000E+000
  0.0000000E+000
  0.0000000E+000
  0.0000000E+000
  0.0000000E+000
  0.0000000E+000
  0.0000000E+000
  0.0000000E+000
  0.0000000E+000
  0.0000000E+000
  0.0000000E+000
  0.0000000E+000
  0.0000000E+000
  0.0000000E+000
  0.0000000E+000
  0.0000000E+000
  0.0000000E+000
  0.0000000E+000
  0.0000000E+000
  0.0000000E+000
  0.0000000E+000
  0.0000000E+000
  0.0000000E+000
  0.0000000E+000
  0.0000000E+000
  0.0000000E+000
  0.0000000E+000
  0.0000000E+000
  0.0000000E+000
  0.0000000E+000
  0.0000000E+000
  0.0000000E+000
  0.0000000E+000
  0.0000000E+000
  0.0000000E+000
  0.0000000E+000
  0.0000000E+000
  0.0000000E+000
  0.0000000E+000
  0.0000000E+000
  0.0000000E+000
  0.0000000E+000
  0.0000000E+000
  0.0000000E+000
  0.0000000E+000
  0.0000000E+000
  0.0000000E+000
  0.0000000E+000
  0.0000000E+000
  0.0000000E+000
  0.0000000E+000
  0.0000000E+000
  0.0000000E+000
  0.0000000E+000
  0.0000000E+000
  0.0000000E+000
  0.0000000E+000
  0.0000000E+000
  0.0000000E+000
  0.0000000E+000
  0.0000000E+000
  0.0000000E+000
  0.0000000E+000
  0.0000000E+000
  0.0000000E+000
  0.0000000E+000
  0.0000000E+000
  0.0000000E+000
  0.0000000E+000
  0.0000000E+000
  0.0000000E+000
  0.0000000E+000
  0.0000000E+000
  0.0000000E+000
  0.0000000E+000
  0.0000000E+000
  0.0000000E+000
  0.0000000E+000
  0.0000000E+000
  0.0000000E+000
  0.0000000E+000
  0.0000000E+000
  0.0000000E+000
  0.0000000E+000
  0.0000000E+000
  0.0000000E+000
  0.0000000E+000
  0.0000000E+000
  0.0000000E+000
  0.0000000E+000
  0.0000000E+000
  0.0000000E+000
  0.0000000E+000
  0.0000000E+000
  0.0000000E+000
  0.0000000E+000
  0.0000000E+000
  0.0000000E+000
  0.0000000E+000
  0.0000000E+000
  0.0000000E+000
  0.0000000E+000
  0.0000000E+000
  0.0000000E+000
  0.0000000E+000
  0.0000000E+000
  0.0000000E+000
  0.0000000E+000
  0.0000000E+000
  0.0000000E+000
  0.0000000E+000
  0.0000000E+000
  0.0000000E+000
  0.0000000E+000
  0.0000000E+000
  0.0000000E+000
  0.0000000E+000
  0.0000000E+000
  0.0000000E+000
  0.0000000E+000
  0.0000000E+000
  0.0000000E+000
  0.0000000E+000
  0.0000000E+000
  0.0000000E+000
  0.0000000E+000
  0.0000000E+000
  0.0000000E+000
  0.0000000E+000
  0.0000000E+000
  0.0000000E+000
  0.0000000E+000
  0.0000000E+000
  0.0000000E+000
  0.0000000E+000
  0.0000000E+000
  0.0000000E+000
  0.0000000E+000
  0.0000000E+000
  0.0000000E+000
  0.0000000E+000
  0.0000000E+000
  0.0000000E+000
  0.0000000E+000
  0.0000000E+000
  0.0000000E+000
  0.0000000E+000
  0.0000000E+000
  0.0000000E+000
  0.0000000E+000
  0.0000000E+000
  0.0000000E+000
  0.0000000E+000
  0.0000000E+000
  0.0000000E+000
  0.0000000E+000
  0.0000000E+000
  0.0000000E+000
  0.0000000E+000
  0.0000000E+000
  0.0000000E+000
  0.0000000E+000
  0.0000000E+000
  0.0000000E+000
  0.0000000E+000
  0.0000000E+000
  0.0000000E+000
  0.0000000E+000
  0.0000000E+000
  0.0000000E+000
  0.0000000E+000
  0.0000000E+000
  0.0000000E+000
  0.0000000E+000
  0.0000000E+000
  0.0000000E+000
  0.0000000E+000
  0.0000000E+000
  0.0000000E+000
  0.0000000E+000
  0.0000000E+000
  0.0000000E+000
  0.0000000E+000
  0.0000000E+000
  0.0000000E+000
  0.0000000E+000
  0.0000000E+000
  0.0000000E+000
  0.0000000E+000
  0.0000000E+000
  0.0000000E+000
  0.0000000E+000
  0.0000000E+000
  0.0000000E+000
  0.0000000E+000
  0.0000000E+000
  0.0000000E+000
  0.0000000E+000
  0.0000000E+000
  0.0000000E+000
  0.0000000E+000
  0.0000000E+000
  0.0000000E+000
  0.0000000E+000
  0.0000000E+000
  0.0000000E+000
  0.0000000E+000
  0.0000000E+000
  0.0000000E+000
  0.0000000E+000
  0.0000000E+000
  0.0000000E+000
  0.0000000E+000
  0.0000000E+000
  0.0000000E+000
  0.0000000E+000
  0.0000000E+000
  0.0000000E+000
  0.0000000E+000
  0.0000000E+000
  0.0000000E+000
  0.0000000E+000
  0.0000000E+000
  0.0000000E+000
  0.0000000E+000
  0.0000000E+000
  0.0000000E+000
  0.0000000E+000
  0.0000000E+000
  0.0000000E+000
  0.0000000E+000
  0.0000000E+000
  0.0000000E+000
  0.0000000E+000
  0.0000000E+000
  0.0000000E+000
  0.0000000E+000
  0.0000000E+000
  0.0000000E+000
  0.0000000E+000
  0.0000000E+000
  0.0000000E+000
  0.0000000E+000
  0.0000000E+000
  0.0000000E+000
  0.0000000E+000
  0.0000000E+000
  0.0000000E+000
  0.0000000E+000
  0.0000000E+000
  0.0000000E+000
  0.0000000E+000
  0.0000000E+000
  0.0000000E+000
  0.0000000E+000
  0.0000000E+000
  0.0000000E+000
  0.0000000E+000
  0.0000000E+000
  0.0000000E+000
  0.0000000E+000
  0.0000000E+000
  0.0000000E+000
  0.0000000E+000
  0.0000000E+000
  0.0000000E+000
  0.0000000E+000
  0.0000000E+000
  0.0000000E+000
  0.0000000E+000
  0.0000000E+000
  0.0000000E+000
  0.0000000E+000
  0.0000000E+000
  0.0000000E+000
  0.0000000E+000
  0.0000000E+000
  0.0000000E+000
  0.0000000E+000
  0.0000000E+000
  0.0000000E+000
  0.0000000E+000
  0.0000000E+000
  0.0000000E+000
  0.0000000E+000
  0.0000000E+000
  0.0000000E+000
  0.0000000E+000
  0.0000000E+000
  0.0000000E+000
  0.0000000E+000
  0.0000000E+000
  0.0000000E+000
  0.0000000E+000
  0.0000000E+000
  0.0000000E+000
  0.0000000E+000
  0.0000000E+000
  0.0000000E+000
  0.0000000E+000
  0.0000000E+000
  0.0000000E+000
  0.0000000E+000
  0.0000000E+000
  0.0000000E+000
  0.0000000E+000
  0.0000000E+000
  0.0000000E+000
  0.0000000E+000
  0.0000000E+000
  0.0000000E+000
  0.0000000E+000
  0.0000000E+000
  0.0000000E+000
  0.0000000E+000
  0.0000000E+000
  0.0000000E+000
  0.0000000E+000
  0.0000000E+000
  0.0000000E+000
  0.0000000E+000
  0.0000000E+000
  0.0000000E+000
  0.0000000E+000
  0.0000000E+000
  0.0000000E+000
  0.0000000E+000
  0.0000000E+000
  0.0000000E+000
  0.0000000E+000
  0.0000000E+000
  0.0000000E+000
  0.0000000E+000
  0.0000000E+000
  0.0000000E+000
  0.0000000E+000
  0.0000000E+000
  0.0000000E+000
  0.0000000E+000
  0.0000000E+000
  0.0000000E+000
  0.0000000E+000
  0.0000000E+000
  0.0000000E+000
  0.0000000E+000
  0.0000000E+000
  0.0000000E+000
  0.0000000E+000
  0.0000000E+000
  0.0000000E+000
  0.0000000E+000
  0.0000000E+000
  0.0000000E+000
  0.0000000E+000
  0.0000000E+000
  0.0000000E+000
  0.0000000E+000
  0.0000000E+000
  0.0000000E+000
  0.0000000E+000
  0.0000000E+000
  0.0000000E+000
  0.0000000E+000
  0.0000000E+000
  0.0000000E+000
  0.0000000E+000
  0.0000000E+000
  0.0000000E+000
  0.0000000E+000
  0.0000000E+000
  0.0000000E+000
  0.0000000E+000
  0.0000000E+000
  0.0000000E+000
  0.0000000E+000
  0.0000000E+000
  0.0000000E+000
  0.0000000E+000
  0.0000000E+000
  0.0000000E+000
  0.0000000E+000
  0.0000000E+000
  0.0000000E+000
  0.0000000E+000
  0.0000000E+000
  0.0000000E+000
  0.0000000E+000
  0.0000000E+000
  0.0000000E+000
  0.0000000E+000
  0.0000000E+000
  0.0000000E+000
  0.0000000E+000
  0.0000000E+000
  0.0000000E+000
  0.0000000E+000
  0.0000000E+000
  0.0000000E+000
  0.0000000E+000
  0.0000000E+000
  0.0000000E+000
  0.0000000E+000
  0.0000000E+000
  0.0000000E+000
  0.0000000E+000
  0.0000000E+000
  0.0000000E+000
  0.0000000E+000
  0.0000000E+000
  0.0000000E+000
  0.0000000E+000
  0.0000000E+000
  0.0000000E+000
  0.0000000E+000
  0.0000000E+000
  0.0000000E+000
  0.0000000E+000
  0.0000000E+000
  0.0000000E+000
  0.0000000E+000
  0.0000000E+000
  0.0000000E+000
  0.0000000E+000
  0.0000000E+000
  0.0000000E+000
  0.0000000E+000
  0.0000000E+000
  0.0000000E+000
  0.0000000E+000
  0.0000000E+000
  0.0000000E+000
  0.0000000E+000
  0.0000000E+000
  0.0000000E+000
  0.0000000E+000
  0.0000000E+000
  0.0000000E+000
  0.0000000E+000
  0.0000000E+000
  0.0000000E+000
  0.0000000E+000
  0.0000000E+000
  0.0000000E+000
  0.0000000E+000
  0.0000000E+000
  0.0000000E+000
  0.0000000E+000
  0.0000000E+000
  0.0000000E+000
  0.0000000E+000
  0.0000000E+000
  0.0000000E+000
  0.0000000E+000
  0.0000000E+000
  0.0000000E+000
  0.0000000E+000
  0.0000000E+000
  0.0000000E+000
  0.0000000E+000
  0.0000000E+000
  0.0000000E+000
  0.0000000E+000
  0.0000000E+000
  0.0000000E+000
  0.0000000E+000
  0.0000000E+000
  0.0000000E+000
  0.0000000E+000
  0.0000000E+000
  0.0000000E+000
  0.0000000E+000
  0.0000000E+000
  0.0000000E+000
  0.0000000E+000
  0.0000000E+000
  0.0000000E+000
  0.0000000E+000
  0.0000000E+000
  0.0000000E+000
  0.0000000E+000
  0.0000000E+000
  0.0000000E+000
  0.0000000E+000
  0.0000000E+000
  0.0000000E+000
  0.0000000E+000
  0.0000000E+000
  0.0000000E+000
  0.0000000E+000
  0.0000000E+000
  0.0000000E+000
  0.0000000E+000
  0.0000000E+000
  0.0000000E+000
  0.0000000E+000
  0.0000000E+000
  0.0000000E+000
  0.0000000E+000
  0.0000000E+000
  0.0000000E+000
  0.0000000E+000
  0.0000000E+000
  0.0000000E+000
  0.0000000E+000
  0.0000000E+000
  0.0000000E+000
  0.0000000E+000
  0.0000000E+000
  0.0000000E+000
  0.0000000E+000
  0.0000000E+000
  0.0000000E+000
  0.0000000E+000
  0.0000000E+000
  0.0000000E+000
  0.0000000E+000
  0.0000000E+000
  0.0000000E+000
  0.0000000E+000
  0.0000000E+000
  0.0000000E+000
  0.0000000E+000
  0.0000000E+000
  0.0000000E+000
  0.0000000E+000
  0.0000000E+000
  0.0000000E+000
  0.0000000E+000
  0.0000000E+000
  0.0000000E+000
  0.0000000E+000
  0.0000000E+000
  0.0000000E+000
  0.0000000E+000
  0.0000000E+000
  0.0000000E+000
  0.0000000E+000
  0.0000000E+000
  0.0000000E+000
  0.0000000E+000
  0.0000000E+000
  0.0000000E+000
  0.0000000E+000
  0.0000000E+000
  0.0000000E+000
  0.0000000E+000
  0.0000000E+000
  0.0000000E+000
  0.0000000E+000
  0.0000000E+000
  0.0000000E+000
  0.0000000E+000
  0.0000000E+000
  0.0000000E+000
  0.0000000E+000
  0.0000000E+000
  0.0000000E+000
  0.0000000E+000
  0.0000000E+000
  0.0000000E+000
  0.0000000E+000
  0.0000000E+000
  0.0000000E+000
  0.0000000E+000
  0.0000000E+000
  0.0000000E+000
  0.0000000E+000
  0.0000000E+000
  0.0000000E+000
  0.0000000E+000
  0.0000000E+000
  0.0000000E+000
  0.0000000E+000
  0.0000000E+000
  0.0000000E+000
  0.0000000E+000
  0.0000000E+000
  0.0000000E+000
  0.0000000E+000
  0.0000000E+000
  0.0000000E+000
  0.0000000E+000
  0.0000000E+000
  0.0000000E+000
  0.0000000E+000
  0.0000000E+000
  0.0000000E+000
  0.0000000E+000
  0.0000000E+000
  0.0000000E+000
  0.0000000E+000
  0.0000000E+000
  0.0000000E+000
  0.0000000E+000
  0.0000000E+000
  0.0000000E+000
  0.0000000E+000
  0.0000000E+000
  0.0000000E+000
  0.0000000E+000
  0.0000000E+000
  0.0000000E+000
  0.0000000E+000
  0.0000000E+000
  0.0000000E+000
  0.0000000E+000
  0.0000000E+000
  0.0000000E+000
  0.0000000E+000
  0.0000000E+000
  0.0000000E+000
  0.0000000E+000
  0.0000000E+000
  0.0000000E+000
  0.0000000E+000
  0.0000000E+000
  0.0000000E+000
  0.0000000E+000
  0.0000000E+000
  0.0000000E+000
  0.0000000E+000
  0.0000000E+000
  0.0000000E+000
  0.0000000E+000
  0.0000000E+000
  0.0000000E+000
  0.0000000E+000
  0.0000000E+000
  0.0000000E+000
  0.0000000E+000
  0.0000000E+000
  0.0000000E+000
  0.0000000E+000
  0.0000000E+000
  0.0000000E+000
  0.0000000E+000
  0.0000000E+000
  0.0000000E+000
  0.0000000E+000
  0.0000000E+000
  0.0000000E+000
  0.0000000E+000
  0.0000000E+000
  0.0000000E+000
  0.0000000E+000
  0.0000000E+000
  0.0000000E+000
  0.0000000E+000
  0.0000000E+000
  0.0000000E+000
  0.0000000E+000
  0.0000000E+000
  0.0000000E+000
  0.0000000E+000
  0.0000000E+000
  0.0000000E+000
  0.0000000E+000
  0.0000000E+000
  0.0000000E+000
  0.0000000E+000
  0.0000000E+000
  0.0000000E+000
  0.0000000E+000
  0.0000000E+000
  0.0000000E+000
  0.0000000E+000
  0.0000000E+000
  0.0000000E+000
  0.0000000E+000
  0.0000000E+000
  0.0000000E+000
  0.0000000E+000
  0.0000000E+000
  0.0000000E+000
  0.0000000E+000
  0.0000000E+000
  0.0000000E+000
  0.0000000E+000
  0.0000000E+000
  0.0000000E+000
  0.0000000E+000
  0.0000000E+000
  0.0000000E+000
  0.0000000E+000
  0.0000000E+000
  0.0000000E+000
  0.0000000E+000
  0.0000000E+000
  0.0000000E+000
  0.0000000E+000
  0.0000000E+000
  0.0000000E+000
  0.0000000E+000
  0.0000000E+000
  0.0000000E+000
  0.0000000E+000
  0.0000000E+000
  0.0000000E+000
  0.0000000E+000
  0.0000000E+000
  0.0000000E+000
  0.0000000E+000
  0.0000000E+000
  0.0000000E+000
  0.0000000E+000
  0.0000000E+000
  0.0000000E+000
  0.0000000E+000
  0.0000000E+000
  0.0000000E+000
  0.0000000E+000
  0.0000000E+000
  0.0000000E+000
  0.0000000E+000
  0.0000000E+000
  0.0000000E+000
  0.0000000E+000
  0.0000000E+000
  0.0000000E+000
  0.0000000E+000
  0.0000000E+000
  0.0000000E+000
  0.0000000E+000
  0.0000000E+000
  0.0000000E+000
  0.0000000E+000
  0.0000000E+000
  0.0000000E+000
  0.0000000E+000
  0.0000000E+000
  0.0000000E+000
  0.0000000E+000
  0.0000000E+000
  0.0000000E+000
  0.0000000E+000
  0.0000000E+000
  0.0000000E+000
  0.0000000E+000
  0.0000000E+000
  0.0000000E+000
  0.0000000E+000
  0.0000000E+000
  0.0000000E+000
  0.0000000E+000
  0.0000000E+000
  0.0000000E+000
  0.0000000E+000
  0.0000000E+000
  0.0000000E+000
  0.0000000E+000
  0.0000000E+000
  0.0000000E+000
  0.0000000E+000
  0.0000000E+000
  0.0000000E+000
  0.0000000E+000
  0.0000000E+000
  0.0000000E+000
  0.0000000E+000
  0.0000000E+000
  0.0000000E+000
  0.0000000E+000
  0.0000000E+000
  0.0000000E+000
  0.0000000E+000
  0.0000000E+000
  0.0000000E+000
  0.0000000E+000
  0.0000000E+000
  0.0000000E+000
  0.0000000E+000
  0.0000000E+000
  0.0000000E+000
  0.0000000E+000
  0.0000000E+000
  0.0000000E+000
  0.0000000E+000
  0.0000000E+000
  0.0000000E+000
  0.0000000E+000
  0.0000000E+000
  0.0000000E+000
  0.0000000E+000
  0.0000000E+000
  0.0000000E+000
  0.0000000E+000
  0.0000000E+000
  0.0000000E+000
  0.0000000E+000
  0.0000000E+000
  0.0000000E+000
  0.0000000E+000
  0.0000000E+000
  0.0000000E+000
  0.0000000E+000
  0.0000000E+000
  0.0000000E+000
  0.0000000E+000
  0.0000000E+000
  0.0000000E+000
  0.0000000E+000
  0.0000000E+000
  0.0000000E+000
  0.0000000E+000
  0.0000000E+000
  0.0000000E+000
  0.0000000E+000
  0.0000000E+000
  0.0000000E+000
  0.0000000E+000
  0.0000000E+000
  0.0000000E+000
  0.0000000E+000
  0.0000000E+000
  0.0000000E+000
  0.0000000E+000
  0.0000000E+000
  0.0000000E+000
  0.0000000E+000
  0.0000000E+000
  0.0000000E+000
  0.0000000E+000
  0.0000000E+000
  0.0000000E+000
  0.0000000E+000
  0.0000000E+000
  0.0000000E+000
  0.0000000E+000
  0.0000000E+000
  0.0000000E+000
  0.0000000E+000
  0.0000000E+000
  0.0000000E+000
  0.0000000E+000
  0.0000000E+000
  0.0000000E+000
  0.0000000E+000
  0.0000000E+000
  0.0000000E+000
  0.0000000E+000
  0.0000000E+000
  0.0000000E+000
  0.0000000E+000
  0.0000000E+000
  0.0000000E+000
  0.0000000E+000
  0.0000000E+000
  0.0000000E+000
  0.0000000E+000
  0.0000000E+000
  0.0000000E+000
  0.0000000E+000
  0.0000000E+000
  0.0000000E+000
  0.0000000E+000
  0.0000000E+000
  0.0000000E+000
  0.0000000E+000
  0.0000000E+000
  0.0000000E+000
  0.0000000E+000
  0.0000000E+000
  0.0000000E+000
  0.0000000E+000
  0.0000000E+000
  0.0000000E+000
  0.0000000E+000
  0.0000000E+000
  0.0000000E+000
  0.0000000E+000
  0.0000000E+000
  0.0000000E+000
  0.0000000E+000
  0.0000000E+000
  0.0000000E+000
  0.0000000E+000
  0.0000000E+000
  0.0000000E+000
  0.0000000E+000
  0.0000000E+000
  0.0000000E+000
  0.0000000E+000
  0.0000000E+000
  0.0000000E+000
  0.0000000E+000
  0.0000000E+000
  0.0000000E+000
  0.0000000E+000
  0.0000000E+000
  0.0000000E+000
  0.0000000E+000
  0.0000000E+000
  0.0000000E+000
  0.0000000E+000
  0.0000000E+000
  0.0000000E+000
  0.0000000E+000
  0.0000000E+000
  0.0000000E+000
  0.0000000E+000
  0.0000000E+000
  0.0000000E+000
  0.0000000E+000
  0.0000000E+000
  0.0000000E+000
  0.0000000E+000
  0.0000000E+000
  0.0000000E+000
  0.0000000E+000
  0.0000000E+000
  0.0000000E+000
  0.0000000E+000
  0.0000000E+000
  0.0000000E+000
  0.0000000E+000
  0.0000000E+000
  0.0000000E+000
  0.0000000E+000
  0.0000000E+000
  0.0000000E+000
  0.0000000E+000
  0.0000000E+000
  0.0000000E+000
  0.0000000E+000
  0.0000000E+000
  0.0000000E+000
  0.0000000E+000
  0.0000000E+000
  0.0000000E+000
  0.0000000E+000
  0.0000000E+000
  0.0000000E+000
  0.0000000E+000
  0.0000000E+000
  0.0000000E+000
  0.0000000E+000
  0.0000000E+000
  0.0000000E+000
  0.0000000E+000
  0.0000000E+000
  0.0000000E+000
  0.0000000E+000
  0.0000000E+000
  0.0000000E+000
  0.0000000E+000
  0.0000000E+000
  0.0000000E+000
  0.0000000E+000
  0.0000000E+000
  0.0000000E+000
  0.0000000E+000
  0.0000000E+000
  0.0000000E+000
  0.0000000E+000
  0.0000000E+000
  0.0000000E+000
  0.0000000E+000
  0.0000000E+000
  0.0000000E+000
  0.0000000E+000
  0.0000000E+000
  0.0000000E+000
  0.0000000E+000
  0.0000000E+000
  0.0000000E+000
  0.0000000E+000
  0.0000000E+000
  0.0000000E+000
  0.0000000E+000
  0.0000000E+000
  0.0000000E+000
  0.0000000E+000
  0.0000000E+000
  0.0000000E+000
  0.0000000E+000
  0.0000000E+000
  0.0000000E+000
  0.0000000E+000
  0.0000000E+000
  0.0000000E+000
  0.0000000E+000
  0.0000000E+000
  0.0000000E+000
  0.0000000E+000
  0.0000000E+000
  0.0000000E+000
  0.0000000E+000
  0.0000000E+000
  0.0000000E+000
  0.0000000E+000
  0.0000000E+000
  0.0000000E+000
  0.0000000E+000
  0.0000000E+000
  0.0000000E+000
  0.0000000E+000
  0.0000000E+000
  0.0000000E+000
  0.0000000E+000
  0.0000000E+000
  0.0000000E+000
  0.0000000E+000
  0.0000000E+000
  0.0000000E+000
  0.0000000E+000
  0.0000000E+000
  0.0000000E+000
  0.0000000E+000
  0.0000000E+000
  0.0000000E+000
  0.0000000E+000
  0.0000000E+000
  0.0000000E+000
  0.0000000E+000
  0.0000000E+000
  0.0000000E+000
  0.0000000E+000
  0.0000000E+000
  0.0000000E+000
  0.0000000E+000
  0.0000000E+000
  0.0000000E+000
  0.0000000E+000
  0.0000000E+000
  0.0000000E+000
  0.0000000E+000
  0.0000000E+000
  0.0000000E+000
  0.0000000E+000
  0.0000000E+000
  0.0000000E+000
  0.0000000E+000
  0.0000000E+000
  0.0000000E+000
  0.0000000E+000
  0.0000000E+000
  0.0000000E+000
  0.0000000E+000
  0.0000000E+000
  0.0000000E+000
  0.0000000E+000
  0.0000000E+000
  0.0000000E+000
  0.0000000E+000
  0.0000000E+000
  0.0000000E+000
  0.0000000E+000
  0.0000000E+000
  0.0000000E+000
  0.0000000E+000
  0.0000000E+000
  0.0000000E+000
  0.0000000E+000
  0.0000000E+000
  0.0000000E+000
  0.0000000E+000
  0.0000000E+000
  0.0000000E+000
  0.0000000E+000
  0.0000000E+000
  0.0000000E+000
  0.0000000E+000
  0.0000000E+000
  0.0000000E+000
  0.0000000E+000
  0.0000000E+000
  0.0000000E+000
  0.0000000E+000
  0.0000000E+000
  0.0000000E+000
  0.0000000E+000
  0.0000000E+000
  0.0000000E+000
  0.0000000E+000
  0.0000000E+000
  0.0000000E+000
  0.0000000E+000
  0.0000000E+000
  0.0000000E+000
  0.0000000E+000
  0.0000000E+000
  0.0000000E+000
  0.0000000E+000
  0.0000000E+000
  0.0000000E+000
  0.0000000E+000
  0.0000000E+000
  0.0000000E+000
  0.0000000E+000
  0.0000000E+000
  0.0000000E+000
  0.0000000E+000
  0.0000000E+000
  0.0000000E+000
  0.0000000E+000
  0.0000000E+000
  0.0000000E+000
  0.0000000E+000
  0.0000000E+000
  0.0000000E+000
  0.0000000E+000
  0.0000000E+000
  0.0000000E+000
  0.0000000E+000
  0.0000000E+000
  0.0000000E+000
  0.0000000E+000
  0.0000000E+000
  0.0000000E+000
  0.0000000E+000
  0.0000000E+000
  0.0000000E+000
  0.0000000E+000
  0.0000000E+000
  0.0000000E+000
  0.0000000E+000
  0.0000000E+000
  0.0000000E+000
  0.0000000E+000
  0.0000000E+000
  0.0000000E+000
  0.0000000E+000
  0.0000000E+000
  0.0000000E+000
  0.0000000E+000
  0.0000000E+000
  0.0000000E+000
  0.0000000E+000
  0.0000000E+000
  0.0000000E+000
  0.0000000E+000
  0.0000000E+000
  0.0000000E+000
  0.0000000E+000
  0.0000000E+000
  0.0000000E+000
  0.0000000E+000
  0.0000000E+000
  0.0000000E+000
  0.0000000E+000
  0.0000000E+000
  0.0000000E+000
  0.0000000E+000
  0.0000000E+000
  0.0000000E+000
  0.0000000E+000
  0.0000000E+000
  0.0000000E+000
  0.0000000E+000
  0.0000000E+000
  0.0000000E+000
  0.0000000E+000
  0.0000000E+000
  0.0000000E+000
  0.0000000E+000
  0.0000000E+000
  0.0000000E+000
  0.0000000E+000
  0.0000000E+000
  0.0000000E+000
  0.0000000E+000
  0.0000000E+000
  0.0000000E+000
  0.0000000E+000
  0.0000000E+000
  0.0000000E+000
  0.0000000E+000
  0.0000000E+000
  0.0000000E+000
  0.0000000E+000
  0.0000000E+000
  0.0000000E+000
  0.0000000E+000
  0.0000000E+000
  0.0000000E+000
  0.0000000E+000
  0.0000000E+000
  0.0000000E+000
  0.0000000E+000
  0.0000000E+000
  0.0000000E+000
  0.0000000E+000
  0.0000000E+000
  0.0000000E+000
  0.0000000E+000
  0.0000000E+000
  0.0000000E+000
  0.0000000E+000
  0.0000000E+000
  0.0000000E+000
  0.0000000E+000
  0.0000000E+000
  0.0000000E+000
  0.0000000E+000
  0.0000000E+000
  0.0000000E+000
  0.0000000E+000
  0.0000000E+000
  0.0000000E+000
  0.0000000E+000
  0.0000000E+000
  0.0000000E+000
  0.0000000E+000
  0.0000000E+000
  0.0000000E+000
  0.0000000E+000
  0.0000000E+000
  0.0000000E+000
  0.0000000E+000
  0.0000000E+000
  0.0000000E+000
  0.0000000E+000
  0.0000000E+000
  0.0000000E+000
  0.0000000E+000
  0.0000000E+000
  0.0000000E+000
  0.0000000E+000
  0.0000000E+000
  0.0000000E+000
  0.0000000E+000
  0.0000000E+000
  0.0000000E+000
  0.0000000E+000
  0.0000000E+000
  0.0000000E+000
  0.0000000E+000
  0.0000000E+000
  0.0000000E+000
  0.0000000E+000
  0.0000000E+000
  0.0000000E+000
  0.0000000E+000
  0.0000000E+000
  0.0000000E+000
  0.0000000E+000
  0.0000000E+000
  0.0000000E+000
  0.0000000E+000
  0.0000000E+000
  0.0000000E+000
  0.0000000E+000
  0.0000000E+000
  0.0000000E+000
  0.0000000E+000
  0.0000000E+000
  0.0000000E+000
  0.0000000E+000
  0.0000000E+000
  0.0000000E+000
  0.0000000E+000
  0.0000000E+000
  0.0000000E+000
  0.0000000E+000
  0.0000000E+000
  0.0000000E+000
  0.0000000E+000
  0.0000000E+000
  0.0000000E+000
  0.0000000E+000
  0.0000000E+000
  0.0000000E+000
  0.0000000E+000
  0.0000000E+000
  0.0000000E+000
  0.0000000E+000
  0.0000000E+000
  0.0000000E+000
  0.0000000E+000
  0.0000000E+000
  0.0000000E+000
  0.0000000E+000
  0.0000000E+000
  0.0000000E+000
  0.0000000E+000
  0.0000000E+000
  0.0000000E+000
  0.0000000E+000
  0.0000000E+000
  0.0000000E+000
  0.0000000E+000
  0.0000000E+000
  0.0000000E+000
  0.0000000E+000
  0.0000000E+000
  0.0000000E+000
  0.0000000E+000
  0.0000000E+000
  0.0000000E+000
  0.0000000E+000
  0.0000000E+000
  0.0000000E+000
  0.0000000E+000
  0.0000000E+000
  0.0000000E+000
  0.0000000E+000
  0.0000000E+000
  0.0000000E+000
  0.0000000E+000
  0.0000000E+000
  0.0000000E+000
  0.0000000E+000
  0.0000000E+000
  0.0000000E+000
  0.0000000E+000
  0.0000000E+000
  0.0000000E+000
  0.0000000E+000
  0.0000000E+000
  0.0000000E+000
  0.0000000E+000
  0.0000000E+000
  0.0000000E+000
  0.0000000E+000
  0.0000000E+000
  0.0000000E+000
  0.0000000E+000
  0.0000000E+000
  0.0000000E+000
  0.0000000E+000
  0.0000000E+000
  0.0000000E+000
  0.0000000E+000
  0.0000000E+000
  0.0000000E+000
  0.0000000E+000
  0.0000000E+000
  0.0000000E+000
  0.0000000E+000
  0.0000000E+000
  0.0000000E+000
  0.0000000E+000
  0.0000000E+000
  0.0000000E+000
  0.0000000E+000
  0.0000000E+000
  0.0000000E+000
  0.0000000E+000
  0.0000000E+000
  0.0000000E+000
  0.0000000E+000
  0.0000000E+000
  0.0000000E+000
  0.0000000E+000
  0.0000000E+000
  0.0000000E+000
  0.0000000E+000
  0.0000000E+000
  0.0000000E+000
  0.0000000E+000
  0.0000000E+000
  0.0000000E+000
  0.0000000E+000
  0.0000000E+000
  0.0000000E+000
  0.0000000E+000
  0.0000000E+000
  0.0000000E+000
  0.0000000E+000
  0.0000000E+000
  0.0000000E+000
  0.0000000E+000
  0.0000000E+000
  0.0000000E+000
  0.0000000E+000
  0.0000000E+000
  0.0000000E+000
  0.0000000E+000
  0.0000000E+000
  0.0000000E+000
  0.0000000E+000
  0.0000000E+000
  0.0000000E+000
  0.0000000E+000
  0.0000000E+000
  0.0000000E+000
  0.0000000E+000
  0.0000000E+000
  0.0000000E+000
  0.0000000E+000
  0.0000000E+000
  0.0000000E+000
  0.0000000E+000
  0.0000000E+000
  0.0000000E+000
  0.0000000E+000
  0.0000000E+000
  0.0000000E+000
  0.0000000E+000
  0.0000000E+000
  0.0000000E+000
  0.0000000E+000
  0.0000000E+000
  0.0000000E+000
  0.0000000E+000
  0.0000000E+000
  0.0000000E+000
  0.0000000E+000
  0.0000000E+000
  0.0000000E+000
  0.0000000E+000
  0.0000000E+000
  0.0000000E+000
  0.0000000E+000
  0.0000000E+000
  0.0000000E+000
  0.0000000E+000
  0.0000000E+000
  0.0000000E+000
  0.0000000E+000
  0.0000000E+000
  0.0000000E+000
  0.0000000E+000
  0.0000000E+000
  0.0000000E+000
  0.0000000E+000
  0.0000000E+000
  0.0000000E+000
  0.0000000E+000
  0.0000000E+000
  0.0000000E+000
  0.0000000E+000
  0.0000000E+000
  0.0000000E+000
  0.0000000E+000
  0.0000000E+000
  0.0000000E+000
  0.0000000E+000
  0.0000000E+000
  0.0000000E+000
  0.0000000E+000
  0.0000000E+000
  0.0000000E+000
  0.0000000E+000
  0.0000000E+000
  0.0000000E+000
  0.0000000E+000
  0.0000000E+000
  0.0000000E+000
  0.0000000E+000
  0.0000000E+000
  0.0000000E+000
  0.0000000E+000
  0.0000000E+000
  0.0000000E+000
  0.0000000E+000
  0.0000000E+000
  0.0000000E+000
  0.0000000E+000
  0.0000000E+000
  0.0000000E+000
  0.0000000E+000
  0.0000000E+000
  0.0000000E+000
  0.0000000E+000
  0.0000000E+000
  0.0000000E+000
  0.0000000E+000
  0.0000000E+000
  0.0000000E+000
  0.0000000E+000
  0.0000000E+000
  0.0000000E+000
  0.0000000E+000
  0.0000000E+000
  0.0000000E+000
  0.0000000E+000
  0.0000000E+000
  0.0000000E+000
  0.0000000E+000
  0.0000000E+000
  0.0000000E+000
  0.0000000E+000
  0.0000000E+000
  0.0000000E+000
  0.0000000E+000
  0.0000000E+000
  0.0000000E+000
  0.0000000E+000
  0.0000000E+000
  0.0000000E+000
  0.0000000E+000
  0.0000000E+000
  0.0000000E+000
  0.0000000E+000
  0.0000000E+000
  0.0000000E+000
  0.0000000E+000
  0.0000000E+000
  0.0000000E+000
  0.0000000E+000
  0.0000000E+000
  0.0000000E+000
  0.0000000E+000
  0.0000000E+000
  0.0000000E+000
  0.0000000E+000
  0.0000000E+000
  0.0000000E+000
  0.0000000E+000
  0.0000000E+000
  0.0000000E+000
  0.0000000E+000
  0.0000000E+000
  0.0000000E+000
  0.0000000E+000
  0.0000000E+000
  0.0000000E+000
  0.0000000E+000
  0.0000000E+000
  0.0000000E+000
  0.0000000E+000
  0.0000000E+000
  0.0000000E+000
  0.0000000E+000
  0.0000000E+000
  0.0000000E+000
  0.0000000E+000
  0.0000000E+000
  0.0000000E+000
  0.0000000E+000
  0.0000000E+000
  0.0000000E+000
  0.0000000E+000
  0.0000000E+000
  0.0000000E+000
  0.0000000E+000
  0.0000000E+000
  0.0000000E+000
  0.0000000E+000
  0.0000000E+000
  0.0000000E+000
  0.0000000E+000
  0.0000000E+000
  0.0000000E+000
  0.0000000E+000
  0.0000000E+000
  0.0000000E+000
  0.0000000E+000
  0.0000000E+000
  0.0000000E+000
  0.0000000E+000
  0.0000000E+000
  0.0000000E+000
  0.0000000E+000
  0.0000000E+000
  0.0000000E+000
  0.0000000E+000
  0.0000000E+000
  0.0000000E+000
  0.0000000E+000
  0.0000000E+000
  0.0000000E+000
  0.0000000E+000
  0.0000000E+000
  0.0000000E+000
  0.0000000E+000
  0.0000000E+000
  0.0000000E+000
  0.0000000E+000
  0.0000000E+000
  0.0000000E+000
  0.0000000E+000
  0.0000000E+000
  0.0000000E+000
  0.0000000E+000
  0.0000000E+000
  0.0000000E+000
  0.0000000E+000
  0.0000000E+000
  0.0000000E+000
  0.0000000E+000
  0.0000000E+000
  0.0000000E+000
  0.0000000E+000
  0.0000000E+000
  0.0000000E+000
  0.0000000E+000
  0.0000000E+000
  0.0000000E+000
  0.0000000E+000
  0.0000000E+000
  0.0000000E+000
  0.0000000E+000
  0.0000000E+000
  0.0000000E+000
  0.0000000E+000
  0.0000000E+000
  0.0000000E+000
  0.0000000E+000
  0.0000000E+000
  0.0000000E+000
  0.0000000E+000
  0.0000000E+000
  0.0000000E+000
  0.0000000E+000
  0.0000000E+000
  0.0000000E+000
  0.0000000E+000
  0.0000000E+000
  0.0000000E+000
  0.0000000E+000
  0.0000000E+000
  0.0000000E+000
  0.0000000E+000
  0.0000000E+000
  0.0000000E+000
  0.0000000E+000
  0.0000000E+000
  0.0000000E+000
  0.0000000E+000
  0.0000000E+000
  0.0000000E+000
  0.0000000E+000
  0.0000000E+000
  0.0000000E+000
  0.0000000E+000
  0.0000000E+000
  0.0000000E+000
  0.0000000E+000
  0.0000000E+000
  0.0000000E+000
  0.0000000E+000
  0.0000000E+000
  0.0000000E+000
  0.0000000E+000
  0.0000000E+000
  0.0000000E+000
  0.0000000E+000
  0.0000000E+000
  0.0000000E+000
  0.0000000E+000
  0.0000000E+000
  0.0000000E+000
  0.0000000E+000
  0.0000000E+000
  0.0000000E+000
  0.0000000E+000
  0.0000000E+000
  0.0000000E+000
  0.0000000E+000
  0.0000000E+000
  0.0000000E+000
  0.0000000E+000
  0.0000000E+000
  0.0000000E+000
  0.0000000E+000
  0.0000000E+000
  0.0000000E+000
  0.0000000E+000
  0.0000000E+000
  0.0000000E+000
  0.0000000E+000
  0.0000000E+000
  0.0000000E+000
  0.0000000E+000
  0.0000000E+000
  0.0000000E+000
  0.0000000E+000
  0.0000000E+000
  0.0000000E+000
  0.0000000E+000
  0.0000000E+000
  0.0000000E+000
  0.0000000E+000
  0.0000000E+000
  0.0000000E+000
  0.0000000E+000
  0.0000000E+000
  0.0000000E+000
  0.0000000E+000
  0.0000000E+000
  0.0000000E+000
  0.0000000E+000
  0.0000000E+000
  0.0000000E+000
  0.0000000E+000
  0.0000000E+000
  0.0000000E+000
  0.0000000E+000
  0.0000000E+000
  0.0000000E+000
  0.0000000E+000
  0.0000000E+000
  0.0000000E+000
  0.0000000E+000
  0.0000000E+000
  0.0000000E+000
  0.0000000E+000
  0.0000000E+000
  0.0000000E+000
  0.0000000E+000
  0.0000000E+000
  0.0000000E+000
  0.0000000E+000
  0.0000000E+000
  0.0000000E+000
  0.0000000E+000
  0.0000000E+000
  0.0000000E+000
  0.0000000E+000
  0.0000000E+000
  0.0000000E+000
  0.0000000E+000
  0.0000000E+000
  0.0000000E+000
  0.0000000E+000
  0.0000000E+000
  0.0000000E+000
  0.0000000E+000
  0.0000000E+000
  0.0000000E+000
  0.0000000E+000
  0.0000000E+000
  0.0000000E+000
  0.0000000E+000
  0.0000000E+000
  0.0000000E+000
  0.0000000E+000
  0.0000000E+000
  0.0000000E+000
  0.0000000E+000
  0.0000000E+000
  0.0000000E+000
  0.0000000E+000
  0.0000000E+000
  0.0000000E+000
  0.0000000E+000
  0.0000000E+000
  0.0000000E+000
  0.0000000E+000
  0.0000000E+000
  0.0000000E+000
  0.0000000E+000
  0.0000000E+000
  0.0000000E+000
  0.0000000E+000
  0.0000000E+000
  0.0000000E+000
  0.0000000E+000
  0.0000000E+000
  0.0000000E+000
  0.0000000E+000
  0.0000000E+000
  0.0000000E+000
  0.0000000E+000
  0.0000000E+000
  0.0000000E+000
  0.0000000E+000
  0.0000000E+000
  0.0000000E+000
  0.0000000E+000
  0.0000000E+000
  0.0000000E+000
  0.0000000E+000
  0.0000000E+000
  0.0000000E+000
  0.0000000E+000
  0.0000000E+000
  0.0000000E+000
  0.0000000E+000
  0.0000000E+000
  0.0000000E+000
  0.0000000E+000
  0.0000000E+000
  0.0000000E+000
  0.0000000E+000
  0.0000000E+000
  0.0000000E+000
  0.0000000E+000
  0.0000000E+000
  0.0000000E+000
  0.0000000E+000
  0.0000000E+000
  0.0000000E+000
  0.0000000E+000
  0.0000000E+000
  0.0000000E+000
  0.0000000E+000
  0.0000000E+000
  0.0000000E+000
  0.0000000E+000
  0.0000000E+000
  0.0000000E+000
  0.0000000E+000
  0.0000000E+000
  0.0000000E+000
  0.0000000E+000
  0.0000000E+000
  0.0000000E+000
  0.0000000E+000
  0.0000000E+000
  0.0000000E+000
  0.0000000E+000
  0.0000000E+000
  0.0000000E+000
  0.0000000E+000
  0.0000000E+000
  0.0000000E+000
  0.0000000E+000
  0.0000000E+000
  0.0000000E+000
  0.0000000E+000
  0.0000000E+000
  0.0000000E+000
  0.0000000E+000
  0.0000000E+000
  0.0000000E+000
  0.0000000E+000
  0.0000000E+000
  0.0000000E+000
  0.0000000E+000
  0.0000000E+000
  0.0000000E+000
  0.0000000E+000
  0.0000000E+000
  0.0000000E+000
  0.0000000E+000
  0.0000000E+000
  0.0000000E+000
  0.0000000E+000
  0.0000000E+000
  0.0000000E+000
  0.0000000E+000
  0.0000000E+000
  0.0000000E+000
  0.0000000E+000
  0.0000000E+000
  0.0000000E+000
  0.0000000E+000
  0.0000000E+000
  0.0000000E+000
  0.0000000E+000
  0.0000000E+000
  0.0000000E+000
  0.0000000E+000
  0.0000000E+000
  0.0000000E+000
  0.0000000E+000
  0.0000000E+000
  0.0000000E+000
  0.0000000E+000
  0.0000000E+000
  0.0000000E+000
  0.0000000E+000
  0.0000000E+000
  0.0000000E+000
  0.0000000E+000
  0.0000000E+000
  0.0000000E+000
  0.0000000E+000
  0.0000000E+000
  0.0000000E+000
  0.0000000E+000
  0.0000000E+000
  0.0000000E+000
  0.0000000E+000
  0.0000000E+000
  0.0000000E+000
  0.0000000E+000
  0.0000000E+000
  0.0000000E+000
  0.0000000E+000
  0.0000000E+000
  0.0000000E+000
  0.0000000E+000
  0.0000000E+000
  0.0000000E+000
  0.0000000E+000
  0.0000000E+000
  0.0000000E+000
  0.0000000E+000
  0.0000000E+000
  0.0000000E+000
  0.0000000E+000
  0.0000000E+000
  0.0000000E+000
  0.0000000E+000
  0.0000000E+000
  0.0000000E+000
  0.0000000E+000
  0.0000000E+000
  0.0000000E+000
  0.0000000E+000
  0.0000000E+000
  0.0000000E+000
  0.0000000E+000
  0.0000000E+000
  0.0000000E+000
  0.0000000E+000
  0.0000000E+000
  0.0000000E+000
  0.0000000E+000
  0.0000000E+000
  0.0000000E+000
  0.0000000E+000
  0.0000000E+000
  0.0000000E+000
  0.0000000E+000
  0.0000000E+000
  0.0000000E+000
  0.0000000E+000
  0.0000000E+000
  0.0000000E+000
  0.0000000E+000
  0.0000000E+000
  0.0000000E+000
  0.0000000E+000
  0.0000000E+000
  0.0000000E+000
  0.0000000E+000
  0.0000000E+000
  0.0000000E+000
  0.0000000E+000
  0.0000000E+000
  0.0000000E+000
  0.0000000E+000
  0.0000000E+000
  0.0000000E+000
  0.0000000E+000
  0.0000000E+000
  0.0000000E+000
  0.0000000E+000
  0.0000000E+000
  0.0000000E+000
  0.0000000E+000
  0.0000000E+000
  0.0000000E+000
  0.0000000E+000
  0.0000000E+000
  0.0000000E+000
  0.0000000E+000
  0.0000000E+000
  0.0000000E+000
  0.0000000E+000
  0.0000000E+000
  0.0000000E+000
  0.0000000E+000
  0.0000000E+000
  0.0000000E+000
  0.0000000E+000
  0.0000000E+000
  0.0000000E+000
  0.0000000E+000
  0.0000000E+000
  0.0000000E+000
  0.0000000E+000
  0.0000000E+000
  0.0000000E+000
  0.0000000E+000
  0.0000000E+000
  0.0000000E+000
  0.0000000E+000
  0.0000000E+000
  0.0000000E+000
  0.0000000E+000
  0.0000000E+000
  0.0000000E+000
  0.0000000E+000
  0.0000000E+000
  0.0000000E+000
  0.0000000E+000
  0.0000000E+000
  0.0000000E+000
  0.0000000E+000
  0.0000000E+000
  0.0000000E+000
  0.0000000E+000
  0.0000000E+000
  0.0000000E+000
  0.0000000E+000
  0.0000000E+000
  0.0000000E+000
  0.0000000E+000
  0.0000000E+000
  0.0000000E+000
  0.0000000E+000
  0.0000000E+000
  0.0000000E+000
  0.0000000E+000
  0.0000000E+000
  0.0000000E+000
  0.0000000E+000
  0.0000000E+000
  0.0000000E+000
  0.0000000E+000
  0.0000000E+000
  0.0000000E+000
  0.0000000E+000
  0.0000000E+000
  0.0000000E+000
  0.0000000E+000
  0.0000000E+000
  0.0000000E+000
  0.0000000E+000
  0.0000000E+000
  0.0000000E+000
  0.0000000E+000
  0.0000000E+000
  0.0000000E+000
  0.0000000E+000
  0.0000000E+000
  0.0000000E+000
  0.0000000E+000
  0.0000000E+000
  0.0000000E+000
  0.0000000E+000
  0.0000000E+000
  0.0000000E+000
  0.0000000E+000
  0.0000000E+000
  0.0000000E+000
  0.0000000E+000
  0.0000000E+000
  0.0000000E+000
  0.0000000E+000
  0.0000000E+000
  0.0000000E+000
  0.0000000E+000
  0.0000000E+000
  0.0000000E+000
  0.0000000E+000
  0.0000000E+000
  0.0000000E+000
  0.0000000E+000
  0.0000000E+000
  0.0000000E+000
  0.0000000E+000
  0.0000000E+000
  0.0000000E+000
  0.0000000E+000
  0.0000000E+000
  0.0000000E+000
  0.0000000E+000
  0.0000000E+000
  0.0000000E+000
  0.0000000E+000
  0.0000000E+000
  0.0000000E+000
  0.0000000E+000
  0.0000000E+000
  0.0000000E+000
  0.0000000E+000
  0.0000000E+000
  0.0000000E+000
  0.0000000E+000
  0.0000000E+000
  0.0000000E+000
  0.0000000E+000
  0.0000000E+000
  0.0000000E+000
  0.0000000E+000
  0.0000000E+000
  0.0000000E+000
  0.0000000E+000
  0.0000000E+000
  0.0000000E+000
  0.0000000E+000
  0.0000000E+000
  0.0000000E+000
  0.0000000E+000
  0.0000000E+000
  0.0000000E+000
  0.0000000E+000
  0.0000000E+000
  0.0000000E+000
  0.0000000E+000
  0.0000000E+000
  0.0000000E+000
  0.0000000E+000
  0.0000000E+000
  0.0000000E+000
  0.0000000E+000
  0.0000000E+000
  0.0000000E+000
  0.0000000E+000
  0.0000000E+000
  0.0000000E+000
  0.0000000E+000
  0.0000000E+000
  0.0000000E+000
  0.0000000E+000
  0.0000000E+000
  0.0000000E+000
  0.0000000E+000
  0.0000000E+000
  0.0000000E+000
  0.0000000E+000
  0.0000000E+000
  0.0000000E+000
  0.0000000E+000
  0.0000000E+000
  0.0000000E+000
  0.0000000E+000
  0.0000000E+000
  0.0000000E+000
  0.0000000E+000
  0.0000000E+000
  0.0000000E+000
  0.0000000E+000
  0.0000000E+000
  0.0000000E+000
  0.0000000E+000
  0.0000000E+000
  0.0000000E+000
  0.0000000E+000
  0.0000000E+000
  0.0000000E+000
  0.0000000E+000
  0.0000000E+000
  0.0000000E+000
  0.0000000E+000
  0.0000000E+000
  0.0000000E+000
  0.0000000E+000
  0.0000000E+000
  0.0000000E+000
  0.0000000E+000
  0.0000000E+000
  0.0000000E+000
  0.0000000E+000
  0.0000000E+000
  0.0000000E+000
  0.0000000E+000
  0.0000000E+000
  0.0000000E+000
  0.0000000E+000
  0.0000000E+000
  0.0000000E+000
  0.0000000E+000
  0.0000000E+000
  0.0000000E+000
  0.0000000E+000
  0.0000000E+000
  0.0000000E+000
  0.0000000E+000
  0.0000000E+000
  0.0000000E+000
  0.0000000E+000
  0.0000000E+000
  0.0000000E+000
  0.0000000E+000
  0.0000000E+000
  0.0000000E+000
  0.0000000E+000
  0.0000000E+000
  0.0000000E+000
  0.0000000E+000
  0.0000000E+000
  0.0000000E+000
  0.0000000E+000
  0.0000000E+000
  0.0000000E+000
  0.0000000E+000
  0.0000000E+000
  0.0000000E+000
  0.0000000E+000
  0.0000000E+000
  0.0000000E+000
  0.0000000E+000
  0.0000000E+000
  0.0000000E+000
  0.0000000E+000
  0.0000000E+000
  0.0000000E+000
  0.0000000E+000
  0.0000000E+000
  0.0000000E+000
  0.0000000E+000
  0.0000000E+000
  0.0000000E+000
  0.0000000E+000
  0.0000000E+000
  0.0000000E+000
  0.0000000E+000
  0.0000000E+000
  0.0000000E+000
  0.0000000E+000
  0.0000000E+000
  0.0000000E+000
  0.0000000E+000
  0.0000000E+000
  0.0000000E+000
  0.0000000E+000
  0.0000000E+000
  0.0000000E+000
  0.0000000E+000
  0.0000000E+000
  0.0000000E+000
  0.0000000E+000
  0.0000000E+000
  0.0000000E+000
  0.0000000E+000
  0.0000000E+000
  0.0000000E+000
  0.0000000E+000
  0.0000000E+000
  0.0000000E+000
  0.0000000E+000
  0.0000000E+000
  0.0000000E+000
  0.0000000E+000
  0.0000000E+000
  0.0000000E+000
  0.0000000E+000
  0.0000000E+000
  0.0000000E+000
  0.0000000E+000
  0.0000000E+000
  0.0000000E+000
  0.0000000E+000
  0.0000000E+000
  0.0000000E+000
  0.0000000E+000
  0.0000000E+000
  0.0000000E+000
  0.0000000E+000
  0.0000000E+000
  0.0000000E+000
  0.0000000E+000
  0.0000000E+000
  0.0000000E+000
  0.0000000E+000
  0.0000000E+000
  0.0000000E+000
  0.0000000E+000
  0.0000000E+000
  0.0000000E+000
  0.0000000E+000
  0.0000000E+000
  0.0000000E+000
  0.0000000E+000
  0.0000000E+000
  0.0000000E+000
  0.0000000E+000
  0.0000000E+000
  0.0000000E+000
  0.0000000E+000
  0.0000000E+000
  0.0000000E+000
  0.0000000E+000
  0.0000000E+000
  0.0000000E+000
  0.0000000E+000
  0.0000000E+000
  0.0000000E+000
  0.0000000E+000
  0.0000000E+000
  0.0000000E+000
  0.0000000E+000
  0.0000000E+000
  0.0000000E+000
  0.0000000E+000
  0.0000000E+000
  0.0000000E+000
  0.0000000E+000
  0.0000000E+000
  0.0000000E+000
  0.0000000E+000
  0.0000000E+000
  0.0000000E+000
  0.0000000E+000
  0.0000000E+000
  0.0000000E+000
  0.0000000E+000
  0.0000000E+000
  0.0000000E+000
  0.0000000E+000
  0.0000000E+000
  0.0000000E+000
  0.0000000E+000
  0.0000000E+000
  0.0000000E+000
  0.0000000E+000
  0.0000000E+000
  0.0000000E+000
  0.0000000E+000
  0.0000000E+000
  0.0000000E+000
  0.0000000E+000
  0.0000000E+000
  0.0000000E+000
  0.0000000E+000
  0.0000000E+000
  0.0000000E+000
  0.0000000E+000
  0.0000000E+000
  0.0000000E+000
  0.0000000E+000
  0.0000000E+000
  0.0000000E+000
  0.0000000E+000
  0.0000000E+000
  0.0000000E+000
  0.0000000E+000
  0.0000000E+000
  0.0000000E+000
  0.0000000E+000
  0.0000000E+000
  0.0000000E+000
  0.0000000E+000
  0.0000000E+000
  0.0000000E+000
  0.0000000E+000
  0.0000000E+000
  0.0000000E+000
  0.0000000E+000
  0.0000000E+000
  0.0000000E+000
  0.0000000E+000
  0.0000000E+000
  0.0000000E+000
  0.0000000E+000
  0.0000000E+000
  0.0000000E+000
  0.0000000E+000
  0.0000000E+000
  0.0000000E+000
  0.0000000E+000
  0.0000000E+000
  0.0000000E+000
  0.0000000E+000
  0.0000000E+000
  0.0000000E+000
  0.0000000E+000
  0.0000000E+000
  0.0000000E+000
  0.0000000E+000
  0.0000000E+000
  0.0000000E+000
  0.0000000E+000
  0.0000000E+000
  0.0000000E+000
  0.0000000E+000
  0.0000000E+000
  0.0000000E+000
  0.0000000E+000
  0.0000000E+000
  0.0000000E+000
  0.0000000E+000
  0.0000000E+000
  0.0000000E+000
  0.0000000E+000
  0.0000000E+000
  0.0000000E+000
  0.0000000E+000
  0.0000000E+000
  0.0000000E+000
  0.0000000E+000
  0.0000000E+000
  0.0000000E+000
  0.0000000E+000
  0.0000000E+000
  0.0000000E+000
  0.0000000E+000
  0.0000000E+000
  0.0000000E+000
  0.0000000E+000
  0.0000000E+000
  0.0000000E+000
  0.0000000E+000
  0.0000000E+000
  0.0000000E+000
  0.0000000E+000
  0.0000000E+000
  0.0000000E+000
  0.0000000E+000
  0.0000000E+000
  0.0000000E+000
  0.0000000E+000
  0.0000000E+000
  0.0000000E+000
  0.0000000E+000
  0.0000000E+000
  0.0000000E+000
  0.0000000E+000
  0.0000000E+000
  0.0000000E+000
  0.0000000E+000
  0.0000000E+000
  0.0000000E+000
  0.0000000E+000
  0.0000000E+000
  0.0000000E+000
  0.0000000E+000
  0.0000000E+000
  0.0000000E+000
  0.0000000E+000
  0.0000000E+000
  0.0000000E+000
  0.0000000E+000
  0.0000000E+000
  0.0000000E+000
  0.0000000E+000
  0.0000000E+000
  0.0000000E+000
  0.0000000E+000
  0.0000000E+000
  0.0000000E+000
  0.0000000E+000
  0.0000000E+000
  0.0000000E+000
  0.0000000E+000
  0.0000000E+000
  0.0000000E+000
  0.0000000E+000
  0.0000000E+000
  0.0000000E+000
  0.0000000E+000
  0.0000000E+000
  0.0000000E+000
  0.0000000E+000
  0.0000000E+000
  0.0000000E+000
  0.0000000E+000
  0.0000000E+000
  0.0000000E+000
  0.0000000E+000
  0.0000000E+000
  0.0000000E+000
  0.0000000E+000
  0.0000000E+000
  0.0000000E+000
  0.0000000E+000
  0.0000000E+000
  0.0000000E+000
  0.0000000E+000
  0.0000000E+000
  0.0000000E+000
  0.0000000E+000
  0.0000000E+000
  0.0000000E+000
  0.0000000E+000
  0.0000000E+000
  0.0000000E+000
  0.0000000E+000
  0.0000000E+000
  0.0000000E+000
  0.0000000E+000
  0.0000000E+000
  0.0000000E+000
  0.0000000E+000
  0.0000000E+000
  0.0000000E+000
  0.0000000E+000
  0.0000000E+000
  0.0000000E+000
  0.0000000E+000
  0.0000000E+000
  0.0000000E+000
  0.0000000E+000
  0.0000000E+000
  0.0000000E+000
  0.0000000E+000
  0.0000000E+000
  0.0000000E+000
  0.0000000E+000
  0.0000000E+000
  0.0000000E+000
  0.0000000E+000
  0.0000000E+000
  0.0000000E+000
  0.0000000E+000
  0.0000000E+000
  0.0000000E+000
  0.0000000E+000
  0.0000000E+000
  0.0000000E+000
  0.0000000E+000
  0.0000000E+000
  0.0000000E+000
  0.0000000E+000
  0.0000000E+000
  0.0000000E+000
  0.0000000E+000
  0.0000000E+000
  0.0000000E+000
  0.0000000E+000
  0.0000000E+000
  0.0000000E+000
  0.0000000E+000
  0.0000000E+000
  0.0000000E+000
  0.0000000E+000
  0.0000000E+000
  0.0000000E+000
  0.0000000E+000
  0.0000000E+000
  0.0000000E+000
  0.0000000E+000
  0.0000000E+000
  0.0000000E+000
  0.0000000E+000
  0.0000000E+000
  0.0000000E+000
  0.0000000E+000
  0.0000000E+000
  0.0000000E+000
  0.0000000E+000
  0.0000000E+000
  0.0000000E+000
  0.0000000E+000
  0.0000000E+000
  0.0000000E+000
  0.0000000E+000
  0.0000000E+000
  0.0000000E+000
  0.0000000E+000
  0.0000000E+000
  0.0000000E+000
  0.0000000E+000
  0.0000000E+000
  0.0000000E+000
  0.0000000E+000
  0.0000000E+000
  0.0000000E+000
  0.0000000E+000
  0.0000000E+000
  0.0000000E+000
  0.0000000E+000
  0.0000000E+000
  0.0000000E+000
  0.0000000E+000
  0.0000000E+000
  0.0000000E+000
  0.0000000E+000
  0.0000000E+000
  0.0000000E+000
  0.0000000E+000
  0.0000000E+000
  0.0000000E+000
  0.0000000E+000
  0.0000000E+000
  0.0000000E+000
  0.0000000E+000
  0.0000000E+000
  0.0000000E+000
  0.0000000E+000
  0.0000000E+000
  0.0000000E+000
  0.0000000E+000
  0.0000000E+000
  0.0000000E+000
  0.0000000E+000
  0.0000000E+000
  0.0000000E+000
  0.0000000E+000
  0.0000000E+000
  0.0000000E+000
  0.0000000E+000
  0.0000000E+000
  0.0000000E+000
  0.0000000E+000
  0.0000000E+000
  0.0000000E+000
  0.0000000E+000
  0.0000000E+000
  0.0000000E+000
  0.0000000E+000
  0.0000000E+000
  0.0000000E+000
  0.0000000E+000
  0.0000000E+000
  0.0000000E+000
  0.0000000E+000
  0.0000000E+000
  0.0000000E+000
  0.0000000E+000
  0.0000000E+000
  0.0000000E+000
  0.0000000E+000
  0.0000000E+000
  0.0000000E+000
  0.0000000E+000
  0.0000000E+000
  0.0000000E+000
  0.0000000E+000
  0.0000000E+000
  0.0000000E+000
  0.0000000E+000
  0.0000000E+000
  0.0000000E+000
  0.0000000E+000
  0.0000000E+000
  0.0000000E+000
  0.0000000E+000
  0.0000000E+000
  0.0000000E+000
  0.0000000E+000
  0.0000000E+000
  0.0000000E+000
  0.0000000E+000
  0.0000000E+000
  0.0000000E+000
  0.0000000E+000
  0.0000000E+000
  0.0000000E+000
  0.0000000E+000
  0.0000000E+000
  0.0000000E+000
  0.0000000E+000
  0.0000000E+000
  0.0000000E+000
  0.0000000E+000
  0.0000000E+000
  0.0000000E+000
  0.0000000E+000
  0.0000000E+000
  0.0000000E+000
  0.0000000E+000
  0.0000000E+000
  0.0000000E+000
  0.0000000E+000
  0.0000000E+000
  0.0000000E+000
  0.0000000E+000
  0.0000000E+000
  0.0000000E+000
  0.0000000E+000
  0.0000000E+000
  0.0000000E+000
  0.0000000E+000
  0.0000000E+000
  0.0000000E+000
  0.0000000E+000
  0.0000000E+000
  0.0000000E+000
  0.0000000E+000
  0.0000000E+000
  0.0000000E+000
  0.0000000E+000
  0.0000000E+000
  0.0000000E+000
  0.0000000E+000
  0.0000000E+000
  0.0000000E+000
  0.0000000E+000
  0.0000000E+000
  0.0000000E+000
  0.0000000E+000
  0.0000000E+000
  0.0000000E+000
  0.0000000E+000
  0.0000000E+000
  0.0000000E+000
  0.0000000E+000
  0.0000000E+000
  0.0000000E+000
  0.0000000E+000
  0.0000000E+000
  0.0000000E+000
  0.0000000E+000
  0.0000000E+000
  0.0000000E+000
  0.0000000E+000
  0.0000000E+000
  0.0000000E+000
  0.0000000E+000
  0.0000000E+000
  0.0000000E+000
  0.0000000E+000
  0.0000000E+000
  0.0000000E+000
  0.0000000E+000
  0.0000000E+000
  0.0000000E+000
  0.0000000E+000
  0.0000000E+000
  0.0000000E+000
  0.0000000E+000
  0.0000000E+000
  0.0000000E+000
  0.0000000E+000
  0.0000000E+000
  0.0000000E+000
  0.0000000E+000
  0.0000000E+000
  0.0000000E+000
  0.0000000E+000
  0.0000000E+000
  0.0000000E+000
  0.0000000E+000
  0.0000000E+000
  0.0000000E+000
  0.0000000E+000
  0.0000000E+000
  0.0000000E+000
  0.0000000E+000
  0.0000000E+000
  0.0000000E+000
  0.0000000E+000
  0.0000000E+000
  0.0000000E+000
  0.0000000E+000
  0.0000000E+000
  0.0000000E+000
  0.0000000E+000
  0.0000000E+000
  0.0000000E+000
  0.0000000E+000
  0.0000000E+000
  0.0000000E+000
  0.0000000E+000
  0.0000000E+000
  0.0000000E+000
  0.0000000E+000
  0.0000000E+000
  0.0000000E+000
  0.0000000E+000
  0.0000000E+000
  0.0000000E+000
  0.0000000E+000
  0.0000000E+000
  0.0000000E+000
  0.0000000E+000
  0.0000000E+000
  0.0000000E+000
  0.0000000E+000
  0.0000000E+000
  0.0000000E+000
  0.0000000E+000
  0.0000000E+000
  0.0000000E+000
  0.0000000E+000
  0.0000000E+000
  0.0000000E+000
  0.0000000E+000
  0.0000000E+000
  0.0000000E+000
  0.0000000E+000
  0.0000000E+000
  0.0000000E+000
  0.0000000E+000
  0.0000000E+000
  0.0000000E+000
  0.0000000E+000
  0.0000000E+000
  0.0000000E+000
  0.0000000E+000
  0.0000000E+000
  0.0000000E+000
  0.0000000E+000
  0.0000000E+000
  0.0000000E+000
  0.0000000E+000
  0.0000000E+000
  0.0000000E+000
  0.0000000E+000
  0.0000000E+000
  0.0000000E+000
  0.0000000E+000
  0.0000000E+000
  0.0000000E+000
  0.0000000E+000
  0.0000000E+000
  0.0000000E+000
  0.0000000E+000
  0.0000000E+000
  0.0000000E+000
  0.0000000E+000
  0.0000000E+000
  0.0000000E+000
  0.0000000E+000
  0.0000000E+000
  0.0000000E+000
  0.0000000E+000
  0.0000000E+000
  0.0000000E+000
  0.0000000E+000
  0.0000000E+000
  0.0000000E+000
  0.0000000E+000
  0.0000000E+000
  0.0000000E+000
  0.0000000E+000
  0.0000000E+000
  0.0000000E+000
  0.0000000E+000
  0.0000000E+000
  0.0000000E+000
  0.0000000E+000
  0.0000000E+000
  0.0000000E+000
  0.0000000E+000
  0.0000000E+000
  0.0000000E+000
  0.0000000E+000
  0.0000000E+000
  0.0000000E+000
  0.0000000E+000
  0.0000000E+000
  0.0000000E+000
  0.0000000E+000
  0.0000000E+000
  0.0000000E+000
  0.0000000E+000
  0.0000000E+000
  0.0000000E+000
  0.0000000E+000
  0.0000000E+000
  0.0000000E+000
  0.0000000E+000
  0.0000000E+000
  0.0000000E+000
  0.0000000E+000
  0.0000000E+000
  0.0000000E+000
  0.0000000E+000
  0.0000000E+000
  0.0000000E+000
  0.0000000E+000
  0.0000000E+000
  0.0000000E+000
  0.0000000E+000
  0.0000000E+000
  0.0000000E+000
  0.0000000E+000
  0.0000000E+000
  0.0000000E+000
  0.0000000E+000
  0.0000000E+000
  0.0000000E+000
  0.0000000E+000
  0.0000000E+000
  0.0000000E+000
  0.0000000E+000
  0.0000000E+000
  0.0000000E+000
  0.0000000E+000
  0.0000000E+000
  0.0000000E+000
  0.0000000E+000
  0.0000000E+000
  0.0000000E+000
  0.0000000E+000
  0.0000000E+000
  0.0000000E+000
  0.0000000E+000
  0.0000000E+000
  0.0000000E+000
  0.0000000E+000
  0.0000000E+000
  0.0000000E+000
  0.0000000E+000
  0.0000000E+000
  0.0000000E+000
  0.0000000E+000
  0.0000000E+000
  0.0000000E+000
  0.0000000E+000
  0.0000000E+000
  0.0000000E+000
  0.0000000E+000
  0.0000000E+000
  0.0000000E+000
  0.0000000E+000
  0.0000000E+000
  0.0000000E+000
  0.0000000E+000
  0.0000000E+000
  0.0000000E+000
  0.0000000E+000
  0.0000000E+000
  0.0000000E+000
  0.0000000E+000
  0.0000000E+000
  0.0000000E+000
  0.0000000E+000
  0.0000000E+000
  0.0000000E+000
  0.0000000E+000
  0.0000000E+000
  0.0000000E+000
  0.0000000E+000
  0.0000000E+000
  0.0000000E+000
  0.0000000E+000
  0.0000000E+000
  0.0000000E+000
  0.0000000E+000
  0.0000000E+000
  0.0000000E+000
  0.0000000E+000
  0.0000000E+000
  0.0000000E+000
  0.0000000E+000
  0.0000000E+000
  0.0000000E+000
  0.0000000E+000
  0.0000000E+000
  0.0000000E+000
  0.0000000E+000
  0.0000000E+000
  0.0000000E+000
  0.0000000E+000
  0.0000000E+000
  0.0000000E+000
  0.0000000E+000
  0.0000000E+000
  0.0000000E+000
  0.0000000E+000
  0.0000000E+000
  0.0000000E+000
  0.0000000E+000
  0.0000000E+000
  0.0000000E+000
  0.0000000E+000
  0.0000000E+000
  0.0000000E+000
  0.0000000E+000
  0.0000000E+000
  0.0000000E+000
  0.0000000E+000
  0.0000000E+000
  0.0000000E+000
  0.0000000E+000
  0.0000000E+000
  0.0000000E+000
  0.0000000E+000
  0.0000000E+000
  0.0000000E+000
  0.0000000E+000
  0.0000000E+000
  0.0000000E+000
  0.0000000E+000
  0.0000000E+000
  0.0000000E+000
  0.0000000E+000
  0.0000000E+000
  0.0000000E+000
  0.0000000E+000
  0.0000000E+000
  0.0000000E+000
  0.0000000E+000
  0.0000000E+000
  0.0000000E+000
  0.0000000E+000
  0.0000000E+000
  0.0000000E+000
  0.0000000E+000
  0.0000000E+000
  0.0000000E+000
  0.0000000E+000
  0.0000000E+000
  0.0000000E+000
  0.0000000E+000
  0.0000000E+000
  0.0000000E+000
  0.0000000E+000
  0.0000000E+000
  0.0000000E+000
  0.0000000E+000
  0.0000000E+000
  0.0000000E+000
  0.0000000E+000
  0.0000000E+000
  0.0000000E+000
  0.0000000E+000
  0.0000000E+000
  0.0000000E+000
  0.0000000E+000
  0.0000000E+000
  0.0000000E+000
  0.0000000E+000
  0.0000000E+000
  0.0000000E+000
  0.0000000E+000
  0.0000000E+000
  0.0000000E+000
  0.0000000E+000
  0.0000000E+000
  0.0000000E+000
  0.0000000E+000
  0.0000000E+000
  0.0000000E+000
  0.0000000E+000
  0.0000000E+000
  0.0000000E+000
  0.0000000E+000
  0.0000000E+000
  0.0000000E+000
  0.0000000E+000
  0.0000000E+000
  0.0000000E+000
  0.0000000E+000
  0.0000000E+000
  0.0000000E+000
  0.0000000E+000
  0.0000000E+000
  0.0000000E+000
  0.0000000E+000
  0.0000000E+000
  0.0000000E+000
  0.0000000E+000
  0.0000000E+000
  0.0000000E+000
  0.0000000E+000
  0.0000000E+000
  0.0000000E+000
  0.0000000E+000
  0.0000000E+000
  0.0000000E+000
  0.0000000E+000
  0.0000000E+000
  0.0000000E+000
  0.0000000E+000
  0.0000000E+000
  0.0000000E+000
  0.0000000E+000
  0.0000000E+000
  0.0000000E+000
  0.0000000E+000
  0.0000000E+000
  0.0000000E+000
  0.0000000E+000
  0.0000000E+000
  0.0000000E+000
  0.0000000E+000
  0.0000000E+000
  0.0000000E+000
  0.0000000E+000
  0.0000000E+000
  0.0000000E+000
  0.0000000E+000
  0.0000000E+000
  0.0000000E+000
  0.0000000E+000
  0.0000000E+000
  0.0000000E+000
  0.0000000E+000
  0.0000000E+000
  0.0000000E+000
  0.0000000E+000
  0.0000000E+000
  0.0000000E+000
  0.0000000E+000
  0.0000000E+000
  0.0000000E+000
  0.0000000E+000
  0.0000000E+000
  0.0000000E+000
  0.0000000E+000
  0.0000000E+000
  0.0000000E+000
  0.0000000E+000
  0.0000000E+000
  0.0000000E+000
  0.0000000E+000
  0.0000000E+000
  0.0000000E+000
  0.0000000E+000
  0.0000000E+000
  0.0000000E+000
  0.0000000E+000
  0.0000000E+000
  0.0000000E+000
  0.0000000E+000
  0.0000000E+000
  0.0000000E+000
  0.0000000E+000
  0.0000000E+000
  0.0000000E+000
  0.0000000E+000
  0.0000000E+000
  0.0000000E+000
  0.0000000E+000
  0.0000000E+000
  0.0000000E+000
  0.0000000E+000
  0.0000000E+000
  0.0000000E+000
  0.0000000E+000
  0.0000000E+000
  0.0000000E+000
  0.0000000E+000
  0.0000000E+000
  0.0000000E+000
  0.0000000E+000
  0.0000000E+000
  0.0000000E+000
  0.0000000E+000
  0.0000000E+000
  0.0000000E+000
  0.0000000E+000
  0.0000000E+000
  0.0000000E+000
  0.0000000E+000
  0.0000000E+000
  0.0000000E+000
  0.0000000E+000
  0.0000000E+000
  0.0000000E+000
  0.0000000E+000
  0.0000000E+000
  0.0000000E+000
  0.0000000E+000
  0.0000000E+000
  0.0000000E+000
  0.0000000E+000
  0.0000000E+000
  0.0000000E+000
  0.0000000E+000
  0.0000000E+000
  0.0000000E+000
  0.0000000E+000
  0.0000000E+000
  0.0000000E+000
  0.0000000E+000
  0.0000000E+000
  0.0000000E+000
  0.0000000E+000
  0.0000000E+000
  0.0000000E+000
  0.0000000E+000
  0.0000000E+000
  0.0000000E+000
  0.0000000E+000
  0.0000000E+000
  0.0000000E+000
  0.0000000E+000
  0.0000000E+000
  0.0000000E+000
  0.0000000E+000
  0.0000000E+000
  0.0000000E+000
  0.0000000E+000
  0.0000000E+000
  0.0000000E+000
  0.0000000E+000
  0.0000000E+000
  0.0000000E+000
  0.0000000E+000
  0.0000000E+000
  0.0000000E+000
  0.0000000E+000
  0.0000000E+000
  0.0000000E+000
  0.0000000E+000
  0.0000000E+000
  0.0000000E+000
  0.0000000E+000
  0.0000000E+000
  0.0000000E+000
  0.0000000E+000
  0.0000000E+000
  0.0000000E+000
  0.0000000E+000
  0.0000000E+000
  0.0000000E+000
  0.0000000E+000
  0.0000000E+000
  0.0000000E+000
  0.0000000E+000
  0.0000000E+000
  0.0000000E+000
  0.0000000E+000
  0.0000000E+000
  0.0000000E+000
  0.0000000E+000
  0.0000000E+000
  0.0000000E+000
  0.0000000E+000
  0.0000000E+000
  0.0000000E+000
  0.0000000E+000
  0.0000000E+000
  0.0000000E+000
  0.0000000E+000
  0.0000000E+000
  0.0000000E+000
  0.0000000E+000
  0.0000000E+000
  0.0000000E+000
  0.0000000E+000
  0.0000000E+000
  0.0000000E+000
  0.0000000E+000
  0.0000000E+000
  0.0000000E+000
  0.0000000E+000
  0.0000000E+000
  0.0000000E+000
  0.0000000E+000
  0.0000000E+000
  0.0000000E+000
  0.0000000E+000
  0.0000000E+000
  0.0000000E+000
  0.0000000E+000
  0.0000000E+000
  0.0000000E+000
  0.0000000E+000
  0.0000000E+000
  0.0000000E+000
  0.0000000E+000
  0.0000000E+000
  0.0000000E+000
  0.0000000E+000
  0.0000000E+000
  0.0000000E+000
  0.0000000E+000
  0.0000000E+000
  0.0000000E+000
  0.0000000E+000
  0.0000000E+000
  0.0000000E+000
  0.0000000E+000
  0.0000000E+000
  0.0000000E+000
  0.0000000E+000
  0.0000000E+000
  0.0000000E+000
  0.0000000E+000
  0.0000000E+000
  0.0000000E+000
  0.0000000E+000
  0.0000000E+000
  0.0000000E+000
  0.0000000E+000
  0.0000000E+000
  0.0000000E+000
  0.0000000E+000
  0.0000000E+000
  0.0000000E+000
  0.0000000E+000
  0.0000000E+000
  0.0000000E+000
  0.0000000E+000
  0.0000000E+000
  0.0000000E+000
  0.0000000E+000
  0.0000000E+000
  0.0000000E+000
  0.0000000E+000
  0.0000000E+000
  0.0000000E+000
  0.0000000E+000
  0.0000000E+000
  0.0000000E+000
  0.0000000E+000
  0.0000000E+000
  0.0000000E+000
  0.0000000E+000
  0.0000000E+000
  0.0000000E+000
  0.0000000E+000
  0.0000000E+000
  0.0000000E+000
  0.0000000E+000
  0.0000000E+000
  0.0000000E+000
  0.0000000E+000
  0.0000000E+000
  0.0000000E+000
  0.0000000E+000
  0.0000000E+000
  0.0000000E+000
  0.0000000E+000
  0.0000000E+000
  0.0000000E+000
  0.0000000E+000
  0.0000000E+000
  0.0000000E+000
  0.0000000E+000
  0.0000000E+000
  0.0000000E+000
  0.0000000E+000
  0.0000000E+000
  0.0000000E+000
  0.0000000E+000
  0.0000000E+000
  0.0000000E+000
  0.0000000E+000
  0.0000000E+000
  0.0000000E+000
  0.0000000E+000
  0.0000000E+000
  0.0000000E+000
  0.0000000E+000
  0.0000000E+000
  0.0000000E+000
  0.0000000E+000
  0.0000000E+000
  0.0000000E+000
  0.0000000E+000
  0.0000000E+000
  0.0000000E+000
  0.0000000E+000
  0.0000000E+000
  0.0000000E+000
  0.0000000E+000
  0.0000000E+000
  0.0000000E+000
  0.0000000E+000
  0.0000000E+000
  0.0000000E+000
  0.0000000E+000
  0.0000000E+000
  0.0000000E+000
  0.0000000E+000
  0.0000000E+000
  0.0000000E+000
  0.0000000E+000
  0.0000000E+000
  0.0000000E+000
  0.0000000E+000
  0.0000000E+000
  0.0000000E+000
  0.0000000E+000
  0.0000000E+000
  0.0000000E+000
  0.0000000E+000
  0.0000000E+000
  0.0000000E+000
  0.0000000E+000
  0.0000000E+000
  0.0000000E+000
  0.0000000E+000
  0.0000000E+000
  0.0000000E+000
  0.0000000E+000
  0.0000000E+000
  0.0000000E+000
  0.0000000E+000
  0.0000000E+000
  0.0000000E+000
  0.0000000E+000
  0.0000000E+000
  0.0000000E+000
  0.0000000E+000
  0.0000000E+000
  0.0000000E+000
  0.0000000E+000
  0.0000000E+000
  0.0000000E+000
  0.0000000E+000
  0.0000000E+000
  0.0000000E+000
  0.0000000E+000
  0.0000000E+000
  0.0000000E+000
  0.0000000E+000
  0.0000000E+000
  0.0000000E+000
  0.0000000E+000
  0.0000000E+000
  0.0000000E+000
  0.0000000E+000
  0.0000000E+000
  0.0000000E+000
  0.0000000E+000
  0.0000000E+000
  0.0000000E+000
  0.0000000E+000
  0.0000000E+000
  0.0000000E+000
  0.0000000E+000
  0.0000000E+000
  0.0000000E+000
  0.0000000E+000
  0.0000000E+000
  0.0000000E+000
  0.0000000E+000
  0.0000000E+000
  0.0000000E+000
  0.0000000E+000
  0.0000000E+000
  0.0000000E+000
  0.0000000E+000
  0.0000000E+000
  0.0000000E+000
  0.0000000E+000
  0.0000000E+000
  0.0000000E+000
  0.0000000E+000
  0.0000000E+000
  0.0000000E+000
  0.0000000E+000
  0.0000000E+000
  0.0000000E+000
  0.0000000E+000
  0.0000000E+000
  0.0000000E+000
  0.0000000E+000
  0.0000000E+000
  0.0000000E+000
  0.0000000E+000
  0.0000000E+000
  0.0000000E+000
  0.0000000E+000
  0.0000000E+000
  0.0000000E+000
  0.0000000E+000
  0.0000000E+000
  0.0000000E+000
  0.0000000E+000
  0.0000000E+000
  0.0000000E+000
  0.0000000E+000
  0.0000000E+000
  0.0000000E+000
  0.0000000E+000
  0.0000000E+000
  0.0000000E+000
  0.0000000E+000
  0.0000000E+000
  0.0000000E+000
  0.0000000E+000
  0.0000000E+000
  0.0000000E+000
  0.0000000E+000
  0.0000000E+000
  0.0000000E+000
  0.0000000E+000
  0.0000000E+000
  0.0000000E+000
  0.0000000E+000
  0.0000000E+000
  0.0000000E+000
  0.0000000E+000
  0.0000000E+000
  0.0000000E+000
  0.0000000E+000
  0.0000000E+000
  0.0000000E+000
  0.0000000E+000
  0.0000000E+000
  0.0000000E+000
  0.0000000E+000
  0.0000000E+000
  0.0000000E+000
  0.0000000E+000
  0.0000000E+000
  0.0000000E+000
  0.0000000E+000
  0.0000000E+000
  0.0000000E+000
  0.0000000E+000
  0.0000000E+000
  0.0000000E+000
  0.0000000E+000
  0.0000000E+000
  0.0000000E+000
  0.0000000E+000
  0.0000000E+000
  0.0000000E+000
  0.0000000E+000
  0.0000000E+000
  0.0000000E+000
  0.0000000E+000
  0.0000000E+000
  0.0000000E+000
  0.0000000E+000
  0.0000000E+000
  0.0000000E+000
  0.0000000E+000
  0.0000000E+000
  0.0000000E+000
  0.0000000E+000
  0.0000000E+000
  0.0000000E+000
  0.0000000E+000
  0.0000000E+000
  0.0000000E+000
  0.0000000E+000
  0.0000000E+000
  0.0000000E+000
  0.0000000E+000
  0.0000000E+000
  0.0000000E+000
  0.0000000E+000
  0.0000000E+000
  0.0000000E+000
  0.0000000E+000
  0.0000000E+000
  0.0000000E+000
  0.0000000E+000
  0.0000000E+000
  0.0000000E+000
  0.0000000E+000
  0.0000000E+000
  0.0000000E+000
  0.0000000E+000
  0.0000000E+000
  0.0000000E+000
  0.0000000E+000
  0.0000000E+000
  0.0000000E+000
  0.0000000E+000
  0.0000000E+000
  0.0000000E+000
  0.0000000E+000
  0.0000000E+000
  0.0000000E+000
  0.0000000E+000
  0.0000000E+000
  0.0000000E+000
  0.0000000E+000
  0.0000000E+000
  0.0000000E+000
  0.0000000E+000
  0.0000000E+000
  0.0000000E+000
  0.0000000E+000
  0.0000000E+000
  0.0000000E+000
  0.0000000E+000
  0.0000000E+000
  0.0000000E+000
  0.0000000E+000
  0.0000000E+000
  0.0000000E+000
  0.0000000E+000
  0.0000000E+000
  0.0000000E+000
  0.0000000E+000
  0.0000000E+000
  0.0000000E+000
  0.0000000E+000
  0.0000000E+000
  0.0000000E+000
  0.0000000E+000
  0.0000000E+000
  0.0000000E+000
  0.0000000E+000
  0.0000000E+000
  0.0000000E+000
  0.0000000E+000
  0.0000000E+000
  0.0000000E+000
  0.0000000E+000
  0.0000000E+000
  0.0000000E+000
  0.0000000E+000
  0.0000000E+000
  0.0000000E+000
  0.0000000E+000
  0.0000000E+000
  0.0000000E+000
  0.0000000E+000
  0.0000000E+000
  0.0000000E+000
  0.0000000E+000
  0.0000000E+000
  0.0000000E+000
  0.0000000E+000
  0.0000000E+000
  0.0000000E+000
  0.0000000E+000
  0.0000000E+000
  0.0000000E+000
  0.0000000E+000
  0.0000000E+000
  0.0000000E+000
  0.0000000E+000
  0.0000000E+000
  0.0000000E+000
  0.0000000E+000
  0.0000000E+000
  0.0000000E+000
  0.0000000E+000
  0.0000000E+000
  0.0000000E+000
  0.0000000E+000
  0.0000000E+000
  0.0000000E+000
  0.0000000E+000
  0.0000000E+000
  0.0000000E+000
  0.0000000E+000
  0.0000000E+000
  0.0000000E+000
  0.0000000E+000
  0.0000000E+000
  0.0000000E+000
  0.0000000E+000
  0.0000000E+000
  0.0000000E+000
  0.0000000E+000
  0.0000000E+000
  0.0000000E+000
  0.0000000E+000
  0.0000000E+000
  0.0000000E+000
  0.0000000E+000
  0.0000000E+000
  0.0000000E+000
  0.0000000E+000
  0.0000000E+000
  0.0000000E+000
  0.0000000E+000
  0.0000000E+000
  0.0000000E+000
  0.0000000E+000
  0.0000000E+000
  0.0000000E+000
  0.0000000E+000
  0.0000000E+000
  0.0000000E+000
  0.0000000E+000
  0.0000000E+000
  0.0000000E+000
  0.0000000E+000
  0.0000000E+000
  0.0000000E+000
  0.0000000E+000
  0.0000000E+000
  0.0000000E+000
  0.0000000E+000
  0.0000000E+000
  0.0000000E+000
  0.0000000E+000
  0.0000000E+000
  0.0000000E+000
  0.0000000E+000
  0.0000000E+000
  0.0000000E+000
  0.0000000E+000
  0.0000000E+000
  0.0000000E+000
  0.0000000E+000
  0.0000000E+000
  0.0000000E+000
  0.0000000E+000
  0.0000000E+000
  0.0000000E+000
  0.0000000E+000
  0.0000000E+000
  0.0000000E+000
  0.0000000E+000
  0.0000000E+000
  0.0000000E+000
  0.0000000E+000
  0.0000000E+000
  0.0000000E+000
  0.0000000E+000
  0.0000000E+000
  0.0000000E+000
  0.0000000E+000
  0.0000000E+000
  0.0000000E+000
  0.0000000E+000
  0.0000000E+000
  0.0000000E+000
  0.0000000E+000
  0.0000000E+000
  0.0000000E+000
  0.0000000E+000
  0.0000000E+000
  0.0000000E+000
  0.0000000E+000
  0.0000000E+000
  0.0000000E+000
  0.0000000E+000
  0.0000000E+000
  0.0000000E+000
  0.0000000E+000
  0.0000000E+000
  0.0000000E+000
  0.0000000E+000
  0.0000000E+000
  0.0000000E+000
  0.0000000E+000
  0.0000000E+000
  0.0000000E+000
  0.0000000E+000
  0.0000000E+000
  0.0000000E+000
  0.0000000E+000
  0.0000000E+000
  0.0000000E+000
  0.0000000E+000
  0.0000000E+000
  0.0000000E+000
  0.0000000E+000
  0.0000000E+000
  0.0000000E+000
  0.0000000E+000
  0.0000000E+000
  0.0000000E+000
  0.0000000E+000
  0.0000000E+000
  0.0000000E+000
  0.0000000E+000
  0.0000000E+000
  0.0000000E+000
  0.0000000E+000
  0.0000000E+000
  0.0000000E+000
  0.0000000E+000
  0.0000000E+000
  0.0000000E+000
  0.0000000E+000
  0.0000000E+000
  0.0000000E+000
  0.0000000E+000
  0.0000000E+000
  0.0000000E+000
  0.0000000E+000
  0.0000000E+000
  0.0000000E+000
  0.0000000E+000
  0.0000000E+000
  0.0000000E+000
  0.0000000E+000
  0.0000000E+000
  0.0000000E+000
  0.0000000E+000
  0.0000000E+000
  0.0000000E+000
  0.0000000E+000
  0.0000000E+000
  0.0000000E+000
  0.0000000E+000
  0.0000000E+000
  0.0000000E+000
  0.0000000E+000
  0.0000000E+000
  0.0000000E+000
  0.0000000E+000
  0.0000000E+000
  0.0000000E+000
  0.0000000E+000
  0.0000000E+000
  0.0000000E+000
  0.0000000E+000
  0.0000000E+000
  0.0000000E+000
  0.0000000E+000
  0.0000000E+000
  0.0000000E+000
  0.0000000E+000
  0.0000000E+000
  0.0000000E+000
  0.0000000E+000
  0.0000000E+000
  0.0000000E+000
  0.0000000E+000
  0.0000000E+000
  0.0000000E+000
  0.0000000E+000
  0.0000000E+000
  0.0000000E+000
  0.0000000E+000
  0.0000000E+000
  0.0000000E+000
  0.0000000E+000
  0.0000000E+000
  0.0000000E+000
  0.0000000E+000
  0.0000000E+000
  0.0000000E+000
  0.0000000E+000
  0.0000000E+000
  0.0000000E+000
  0.0000000E+000
  0.0000000E+000
  0.0000000E+000
  0.0000000E+000
  0.0000000E+000
  0.0000000E+000
  0.0000000E+000
  0.0000000E+000
  0.0000000E+000
  0.0000000E+000
  0.0000000E+000
  0.0000000E+000
  0.0000000E+000
  0.0000000E+000
  0.0000000E+000
  0.0000000E+000
  0.0000000E+000
  0.0000000E+000
  0.0000000E+000
  0.0000000E+000
  0.0000000E+000
  0.0000000E+000
  0.0000000E+000
  0.0000000E+000
  0.0000000E+000
  0.0000000E+000
  0.0000000E+000
  0.0000000E+000
  0.0000000E+000
  0.0000000E+000
  0.0000000E+000
  0.0000000E+000
  0.0000000E+000
  0.0000000E+000
  0.0000000E+000
  0.0000000E+000
  0.0000000E+000
  0.0000000E+000
  0.0000000E+000
  0.0000000E+000
  0.0000000E+000
  0.0000000E+000
  0.0000000E+000
  0.0000000E+000
  0.0000000E+000
  0.0000000E+000
  0.0000000E+000
  0.0000000E+000
  0.0000000E+000
  0.0000000E+000
  0.0000000E+000
  0.0000000E+000
  0.0000000E+000
  0.0000000E+000
  0.0000000E+000
  0.0000000E+000
  0.0000000E+000
  0.0000000E+000
  0.0000000E+000
  0.0000000E+000
  0.0000000E+000
  0.0000000E+000
  0.0000000E+000
  0.0000000E+000
  0.0000000E+000
  0.0000000E+000
  0.0000000E+000
  0.0000000E+000
  0.0000000E+000
  0.0000000E+000
  0.0000000E+000
  0.0000000E+000
  0.0000000E+000
  0.0000000E+000
  0.0000000E+000
  0.0000000E+000
  0.0000000E+000
  0.0000000E+000
  0.0000000E+000
  0.0000000E+000
  0.0000000E+000
  0.0000000E+000
  0.0000000E+000
  0.0000000E+000
  0.0000000E+000
  0.0000000E+000
  0.0000000E+000
  0.0000000E+000
  0.0000000E+000
  0.0000000E+000
  0.0000000E+000
  0.0000000E+000
  0.0000000E+000
  0.0000000E+000
  0.0000000E+000
  0.0000000E+000
  0.0000000E+000
  0.0000000E+000
  0.0000000E+000
  0.0000000E+000
  0.0000000E+000
  0.0000000E+000
  0.0000000E+000
  0.0000000E+000
  0.0000000E+000
  0.0000000E+000
  0.0000000E+000
  0.0000000E+000
  0.0000000E+000
  0.0000000E+000
  0.0000000E+000
  0.0000000E+000
  0.0000000E+000
  0.0000000E+000
  0.0000000E+000
  0.0000000E+000
  0.0000000E+000
  0.0000000E+000
  0.0000000E+000
  0.0000000E+000
  0.0000000E+000
  0.0000000E+000
  0.0000000E+000
  0.0000000E+000
  0.0000000E+000
  0.0000000E+000
  0.0000000E+000
  0.0000000E+000
  0.0000000E+000
  0.0000000E+000
  0.0000000E+000
  0.0000000E+000
  0.0000000E+000
  0.0000000E+000
  0.0000000E+000
  0.0000000E+000
  0.0000000E+000
  0.0000000E+000
  0.0000000E+000
  0.0000000E+000
  0.0000000E+000
  0.0000000E+000
  0.0000000E+000
  0.0000000E+000
  0.0000000E+000
  0.0000000E+000
  0.0000000E+000
  0.0000000E+000
  0.0000000E+000
  0.0000000E+000
  0.0000000E+000
SCALARS Stress_xz double
LOOKUP_TABLE default
  0.0000000E+000
  0.0000000E+000
  0.0000000E+000
  0.0000000E+000
  0.0000000E+000
  0.0000000E+000
  0.0000000E+000
  0.0000000E+000
  0.0000000E+000
  0.0000000E+000
  0.0000000E+000
  0.0000000E+000
  0.0000000E+000
  0.0000000E+000
  0.0000000E+000
  0.0000000E+000
  0.0000000E+000
  0.0000000E+000
  0.0000000E+000
  0.0000000E+000
  0.0000000E+000
  0.0000000E+000
  0.0000000E+000
  0.0000000E+000
  0.0000000E+000
  0.0000000E+000
  0.0000000E+000
  0.0000000E+000
  0.0000000E+000
  0.0000000E+000
  0.0000000E+000
  0.0000000E+000
  0.0000000E+000
  0.0000000E+000
  0.0000000E+000
  0.0000000E+000
  0.0000000E+000
  0.0000000E+000
  0.0000000E+000
  0.0000000E+000
  0.0000000E+000
  0.0000000E+000
  0.0000000E+000
  0.0000000E+000
  0.0000000E+000
  0.0000000E+000
  0.0000000E+000
  0.0000000E+000
  0.0000000E+000
  0.0000000E+000
  0.0000000E+000
  0.0000000E+000
  0.0000000E+000
  0.0000000E+000
  0.0000000E+000
  0.0000000E+000
  0.0000000E+000
  0.0000000E+000
  0.0000000E+000
  0.0000000E+000
  0.0000000E+000
  0.0000000E+000
  0.0000000E+000
  0.0000000E+000
  0.0000000E+000
  0.0000000E+000
  0.0000000E+000
  0.0000000E+000
  0.0000000E+000
  0.0000000E+000
  0.0000000E+000
  0.0000000E+000
  0.0000000E+000
  0.0000000E+000
  0.0000000E+000
  0.0000000E+000
  0.0000000E+000
  0.0000000E+000
  0.0000000E+000
  0.0000000E+000
  0.0000000E+000
  0.0000000E+000
  0.0000000E+000
  0.0000000E+000
  0.0000000E+000
  0.0000000E+000
  0.0000000E+000
  0.0000000E+000
  0.0000000E+000
  0.0000000E+000
  0.0000000E+000
  0.0000000E+000
  0.0000000E+000
  0.0000000E+000
  0.0000000E+000
  0.0000000E+000
  0.0000000E+000
  0.0000000E+000
  0.0000000E+000
  0.0000000E+000
  0.0000000E+000
  0.0000000E+000
  0.0000000E+000
  0.0000000E+000
  0.0000000E+000
  0.0000000E+000
  0.0000000E+000
  0.0000000E+000
  0.0000000E+000
  0.0000000E+000
  0.0000000E+000
  0.0000000E+000
  0.0000000E+000
  0.0000000E+000
  0.0000000E+000
  0.0000000E+000
  0.0000000E+000
  0.0000000E+000
  0.0000000E+000
  0.0000000E+000
  0.0000000E+000
  0.0000000E+000
  0.0000000E+000
  0.0000000E+000
  0.0000000E+000
  0.0000000E+000
  0.0000000E+000
  0.0000000E+000
  0.0000000E+000
  0.0000000E+000
  0.0000000E+000
  0.0000000E+000
  0.0000000E+000
  0.0000000E+000
  0.0000000E+000
  0.0000000E+000
  0.0000000E+000
  0.0000000E+000
  0.0000000E+000
  0.0000000E+000
  0.0000000E+000
  0.0000000E+000
  0.0000000E+000
  0.0000000E+000
  0.0000000E+000
  0.0000000E+000
  0.0000000E+000
  0.0000000E+000
  0.0000000E+000
  0.0000000E+000
  0.0000000E+000
  0.0000000E+000
  0.0000000E+000
  0.0000000E+000
  0.0000000E+000
  0.0000000E+000
  0.0000000E+000
  0.0000000E+000
  0.0000000E+000
  0.0000000E+000
  0.0000000E+000
  0.0000000E+000
  0.0000000E+000
  0.0000000E+000
  0.0000000E+000
  0.0000000E+000
  0.0000000E+000
  0.0000000E+000
  0.0000000E+000
  0.0000000E+000
  0.0000000E+000
  0.0000000E+000
  0.0000000E+000
  0.0000000E+000
  0.0000000E+000
  0.0000000E+000
  0.0000000E+000
  0.0000000E+000
  0.0000000E+000
  0.0000000E+000
  0.0000000E+000
  0.0000000E+000
  0.0000000E+000
  0.0000000E+000
  0.0000000E+000
  0.0000000E+000
  0.0000000E+000
  0.0000000E+000
  0.0000000E+000
  0.0000000E+000
  0.0000000E+000
  0.0000000E+000
  0.0000000E+000
  0.0000000E+000
  0.0000000E+000
  0.0000000E+000
  0.0000000E+000
  0.0000000E+000
  0.0000000E+000
  0.0000000E+000
  0.0000000E+000
  0.0000000E+000
  0.0000000E+000
  0.0000000E+000
  0.0000000E+000
  0.0000000E+000
  0.0000000E+000
  0.0000000E+000
  0.0000000E+000
  0.0000000E+000
  0.0000000E+000
  0.0000000E+000
  0.0000000E+000
  0.0000000E+000
  0.0000000E+000
  0.0000000E+000
  0.0000000E+000
  0.0000000E+000
  0.0000000E+000
  0.0000000E+000
  0.0000000E+000
  0.0000000E+000
  0.0000000E+000
  0.0000000E+000
  0.0000000E+000
  0.0000000E+000
  0.0000000E+000
  0.0000000E+000
  0.0000000E+000
  0.0000000E+000
  0.0000000E+000
  0.0000000E+000
  0.0000000E+000
  0.0000000E+000
  0.0000000E+000
  0.0000000E+000
  0.0000000E+000
  0.0000000E+000
  0.0000000E+000
  0.0000000E+000
  0.0000000E+000
  0.0000000E+000
  0.0000000E+000
  0.0000000E+000
  0.0000000E+000
  0.0000000E+000
  0.0000000E+000
  0.0000000E+000
  0.0000000E+000
  0.0000000E+000
  0.0000000E+000
  0.0000000E+000
  0.0000000E+000
  0.0000000E+000
  0.0000000E+000
  0.0000000E+000
  0.0000000E+000
  0.0000000E+000
  0.0000000E+000
  0.0000000E+000
  0.0000000E+000
  0.0000000E+000
  0.0000000E+000
  0.0000000E+000
  0.0000000E+000
  0.0000000E+000
  0.0000000E+000
  0.0000000E+000
  0.0000000E+000
  0.0000000E+000
  0.0000000E+000
  0.0000000E+000
  0.0000000E+000
  0.0000000E+000
  0.0000000E+000
  0.0000000E+000
  0.0000000E+000
  0.0000000E+000
  0.0000000E+000
  0.0000000E+000
  0.0000000E+000
  0.0000000E+000
  0.0000000E+000
  0.0000000E+000
  0.0000000E+000
  0.0000000E+000
  0.0000000E+000
  0.0000000E+000
  0.0000000E+000
  0.0000000E+000
  0.0000000E+000
  0.0000000E+000
  0.0000000E+000
  0.0000000E+000
  0.0000000E+000
  0.0000000E+000
  0.0000000E+000
  0.0000000E+000
  0.0000000E+000
  0.0000000E+000
  0.0000000E+000
  0.0000000E+000
  0.0000000E+000
  0.0000000E+000
  0.0000000E+000
  0.0000000E+000
  0.0000000E+000
  0.0000000E+000
  0.0000000E+000
  0.0000000E+000
  0.0000000E+000
  0.0000000E+000
  0.0000000E+000
  0.0000000E+000
  0.0000000E+000
  0.0000000E+000
  0.0000000E+000
  0.0000000E+000
  0.0000000E+000
  0.0000000E+000
  0.0000000E+000
  0.0000000E+000
  0.0000000E+000
  0.0000000E+000
  0.0000000E+000
  0.0000000E+000
  0.0000000E+000
  0.0000000E+000
  0.0000000E+000
  0.0000000E+000
  0.0000000E+000
  0.0000000E+000
  0.0000000E+000
  0.0000000E+000
  0.0000000E+000
  0.0000000E+000
  0.0000000E+000
  0.0000000E+000
  0.0000000E+000
  0.0000000E+000
  0.0000000E+000
  0.0000000E+000
  0.0000000E+000
  0.0000000E+000
  0.0000000E+000
  0.0000000E+000
  0.0000000E+000
  0.0000000E+000
  0.0000000E+000
  0.0000000E+000
  0.0000000E+000
  0.0000000E+000
  0.0000000E+000
  0.0000000E+000
  0.0000000E+000
  0.0000000E+000
  0.0000000E+000
  0.0000000E+000
  0.0000000E+000
  0.0000000E+000
  0.0000000E+000
  0.0000000E+000
  0.0000000E+000
  0.0000000E+000
  0.0000000E+000
  0.0000000E+000
  0.0000000E+000
  0.0000000E+000
  0.0000000E+000
  0.0000000E+000
  0.0000000E+000
  0.0000000E+000
  0.0000000E+000
  0.0000000E+000
  0.0000000E+000
  0.0000000E+000
  0.0000000E+000
  0.0000000E+000
  0.0000000E+000
  0.0000000E+000
  0.0000000E+000
  0.0000000E+000
  0.0000000E+000
  0.0000000E+000
  0.0000000E+000
  0.0000000E+000
  0.0000000E+000
  0.0000000E+000
  0.0000000E+000
  0.0000000E+000
  0.0000000E+000
  0.0000000E+000
  0.0000000E+000
  0.0000000E+000
  0.0000000E+000
  0.0000000E+000
  0.0000000E+000
  0.0000000E+000
  0.0000000E+000
  0.0000000E+000
  0.0000000E+000
  0.0000000E+000
  0.0000000E+000
  0.0000000E+000
  0.0000000E+000
  0.0000000E+000
  0.0000000E+000
  0.0000000E+000
  0.0000000E+000
  0.0000000E+000
  0.0000000E+000
  0.0000000E+000
  0.0000000E+000
  0.0000000E+000
  0.0000000E+000
  0.0000000E+000
  0.0000000E+000
  0.0000000E+000
  0.0000000E+000
  0.0000000E+000
  0.0000000E+000
  0.0000000E+000
  0.0000000E+000
  0.0000000E+000
  0.0000000E+000
  0.0000000E+000
  0.0000000E+000
  0.0000000E+000
  0.0000000E+000
  0.0000000E+000
  0.0000000E+000
  0.0000000E+000
  0.0000000E+000
  0.0000000E+000
  0.0000000E+000
  0.0000000E+000
  0.0000000E+000
  0.0000000E+000
  0.0000000E+000
  0.0000000E+000
  0.0000000E+000
  0.0000000E+000
  0.0000000E+000
  0.0000000E+000
  0.0000000E+000
  0.0000000E+000
  0.0000000E+000
  0.0000000E+000
  0.0000000E+000
  0.0000000E+000
  0.0000000E+000
  0.0000000E+000
  0.0000000E+000
  0.0000000E+000
  0.0000000E+000
  0.0000000E+000
  0.0000000E+000
  0.0000000E+000
  0.0000000E+000
  0.0000000E+000
  0.0000000E+000
  0.0000000E+000
  0.0000000E+000
  0.0000000E+000
  0.0000000E+000
  0.0000000E+000
  0.0000000E+000
  0.0000000E+000
  0.0000000E+000
  0.0000000E+000
  0.0000000E+000
  0.0000000E+000
  0.0000000E+000
  0.0000000E+000
  0.0000000E+000
  0.0000000E+000
  0.0000000E+000
  0.0000000E+000
  0.0000000E+000
  0.0000000E+000
  0.0000000E+000
  0.0000000E+000
  0.0000000E+000
  0.0000000E+000
  0.0000000E+000
  0.0000000E+000
  0.0000000E+000
  0.0000000E+000
  0.0000000E+000
  0.0000000E+000
  0.0000000E+000
  0.0000000E+000
  0.0000000E+000
  0.0000000E+000
  0.0000000E+000
  0.0000000E+000
  0.0000000E+000
  0.0000000E+000
  0.0000000E+000
  0.0000000E+000
  0.0000000E+000
  0.0000000E+000
  0.0000000E+000
  0.0000000E+000
  0.0000000E+000
  0.0000000E+000
  0.0000000E+000
  0.0000000E+000
  0.0000000E+000
  0.0000000E+000
  0.0000000E+000
  0.0000000E+000
  0.0000000E+000
  0.0000000E+000
  0.0000000E+000
  0.0000000E+000
  0.0000000E+000
  0.0000000E+000
  0.0000000E+000
  0.0000000E+000
  0.0000000E+000
  0.0000000E+000
  0.0000000E+000
  0.0000000E+000
  0.0000000E+000
  0.0000000E+000
  0.0000000E+000
  0.0000000E+000
  0.0000000E+000
  0.0000000E+000
  0.0000000E+000
  0.0000000E+000
  0.0000000E+000
  0.0000000E+000
  0.0000000E+000
  0.0000000E+000
  0.0000000E+000
  0.0000000E+000
  0.0000000E+000
  0.0000000E+000
  0.0000000E+000
  0.0000000E+000
  0.0000000E+000
  0.0000000E+000
  0.0000000E+000
  0.0000000E+000
  0.0000000E+000
  0.0000000E+000
  0.0000000E+000
  0.0000000E+000
  0.0000000E+000
  0.0000000E+000
  0.0000000E+000
  0.0000000E+000
  0.0000000E+000
  0.0000000E+000
  0.0000000E+000
  0.0000000E+000
  0.0000000E+000
  0.0000000E+000
  0.0000000E+000
  0.0000000E+000
  0.0000000E+000
  0.0000000E+000
  0.0000000E+000
  0.0000000E+000
  0.0000000E+000
  0.0000000E+000
  0.0000000E+000
  0.0000000E+000
  0.0000000E+000
  0.0000000E+000
  0.0000000E+000
  0.0000000E+000
  0.0000000E+000
  0.0000000E+000
  0.0000000E+000
  0.0000000E+000
  0.0000000E+000
  0.0000000E+000
  0.0000000E+000
  0.0000000E+000
  0.0000000E+000
  0.0000000E+000
  0.0000000E+000
  0.0000000E+000
  0.0000000E+000
  0.0000000E+000
  0.0000000E+000
  0.0000000E+000
  0.0000000E+000
  0.0000000E+000
  0.0000000E+000
  0.0000000E+000
  0.0000000E+000
  0.0000000E+000
  0.0000000E+000
  0.0000000E+000
  0.0000000E+000
  0.0000000E+000
  0.0000000E+000
  0.0000000E+000
  0.0000000E+000
  0.0000000E+000
  0.0000000E+000
  0.0000000E+000
  0.0000000E+000
  0.0000000E+000
  0.0000000E+000
  0.0000000E+000
  0.0000000E+000
  0.0000000E+000
  0.0000000E+000
  0.0000000E+000
  0.0000000E+000
  0.0000000E+000
  0.0000000E+000
  0.0000000E+000
  0.0000000E+000
  0.0000000E+000
  0.0000000E+000
  0.0000000E+000
  0.0000000E+000
  0.0000000E+000
  0.0000000E+000
  0.0000000E+000
  0.0000000E+000
  0.0000000E+000
  0.0000000E+000
  0.0000000E+000
  0.0000000E+000
  0.0000000E+000
  0.0000000E+000
  0.0000000E+000
  0.0000000E+000
  0.0000000E+000
  0.0000000E+000
  0.0000000E+000
  0.0000000E+000
  0.0000000E+000
  0.0000000E+000
  0.0000000E+000
  0.0000000E+000
  0.0000000E+000
  0.0000000E+000
  0.0000000E+000
  0.0000000E+000
  0.0000000E+000
  0.0000000E+000
  0.0000000E+000
  0.0000000E+000
  0.0000000E+000
  0.0000000E+000
  0.0000000E+000
  0.0000000E+000
  0.0000000E+000
  0.0000000E+000
  0.0000000E+000
  0.0000000E+000
  0.0000000E+000
  0.0000000E+000
  0.0000000E+000
  0.0000000E+000
  0.0000000E+000
  0.0000000E+000
  0.0000000E+000
  0.0000000E+000
  0.0000000E+000
  0.0000000E+000
  0.0000000E+000
  0.0000000E+000
  0.0000000E+000
  0.0000000E+000
  0.0000000E+000
  0.0000000E+000
  0.0000000E+000
  0.0000000E+000
  0.0000000E+000
  0.0000000E+000
  0.0000000E+000
  0.0000000E+000
  0.0000000E+000
  0.0000000E+000
  0.0000000E+000
  0.0000000E+000
  0.0000000E+000
  0.0000000E+000
  0.0000000E+000
  0.0000000E+000
  0.0000000E+000
  0.0000000E+000
  0.0000000E+000
  0.0000000E+000
  0.0000000E+000
  0.0000000E+000
  0.0000000E+000
  0.0000000E+000
  0.0000000E+000
  0.0000000E+000
  0.0000000E+000
  0.0000000E+000
  0.0000000E+000
  0.0000000E+000
  0.0000000E+000
  0.0000000E+000
  0.0000000E+000
  0.0000000E+000
  0.0000000E+000
  0.0000000E+000
  0.0000000E+000
  0.0000000E+000
  0.0000000E+000
  0.0000000E+000
  0.0000000E+000
  0.0000000E+000
  0.0000000E+000
  0.0000000E+000
  0.0000000E+000
  0.0000000E+000
  0.0000000E+000
  0.0000000E+000
  0.0000000E+000
  0.0000000E+000
  0.0000000E+000
  0.0000000E+000
  0.0000000E+000
  0.0000000E+000
  0.0000000E+000
  0.0000000E+000
  0.0000000E+000
  0.0000000E+000
  0.0000000E+000
  0.0000000E+000
  0.0000000E+000
  0.0000000E+000
  0.0000000E+000
  0.0000000E+000
  0.0000000E+000
  0.0000000E+000
  0.0000000E+000
  0.0000000E+000
  0.0000000E+000
  0.0000000E+000
  0.0000000E+000
  0.0000000E+000
  0.0000000E+000
  0.0000000E+000
  0.0000000E+000
  0.0000000E+000
  0.0000000E+000
  0.0000000E+000
  0.0000000E+000
  0.0000000E+000
  0.0000000E+000
  0.0000000E+000
  0.0000000E+000
  0.0000000E+000
  0.0000000E+000
  0.0000000E+000
  0.0000000E+000
  0.0000000E+000
  0.0000000E+000
  0.0000000E+000
  0.0000000E+000
  0.0000000E+000
  0.0000000E+000
  0.0000000E+000
  0.0000000E+000
  0.0000000E+000
  0.0000000E+000
  0.0000000E+000
  0.0000000E+000
  0.0000000E+000
  0.0000000E+000
  0.0000000E+000
  0.0000000E+000
  0.0000000E+000
  0.0000000E+000
  0.0000000E+000
  0.0000000E+000
  0.0000000E+000
  0.0000000E+000
  0.0000000E+000
  0.0000000E+000
  0.0000000E+000
  0.0000000E+000
  0.0000000E+000
  0.0000000E+000
  0.0000000E+000
  0.0000000E+000
  0.0000000E+000
  0.0000000E+000
  0.0000000E+000
  0.0000000E+000
  0.0000000E+000
  0.0000000E+000
  0.0000000E+000
  0.0000000E+000
  0.0000000E+000
  0.0000000E+000
  0.0000000E+000
  0.0000000E+000
  0.0000000E+000
  0.0000000E+000
  0.0000000E+000
  0.0000000E+000
  0.0000000E+000
  0.0000000E+000
  0.0000000E+000
  0.0000000E+000
  0.0000000E+000
  0.0000000E+000
  0.0000000E+000
  0.0000000E+000
  0.0000000E+000
  0.0000000E+000
  0.0000000E+000
  0.0000000E+000
  0.0000000E+000
  0.0000000E+000
  0.0000000E+000
  0.0000000E+000
  0.0000000E+000
  0.0000000E+000
  0.0000000E+000
  0.0000000E+000
  0.0000000E+000
  0.0000000E+000
  0.0000000E+000
  0.0000000E+000
  0.0000000E+000
  0.0000000E+000
  0.0000000E+000
  0.0000000E+000
  0.0000000E+000
  0.0000000E+000
  0.0000000E+000
  0.0000000E+000
  0.0000000E+000
  0.0000000E+000
  0.0000000E+000
  0.0000000E+000
  0.0000000E+000
  0.0000000E+000
  0.0000000E+000
  0.0000000E+000
  0.0000000E+000
  0.0000000E+000
  0.0000000E+000
  0.0000000E+000
  0.0000000E+000
  0.0000000E+000
  0.0000000E+000
  0.0000000E+000
  0.0000000E+000
  0.0000000E+000
  0.0000000E+000
  0.0000000E+000
  0.0000000E+000
  0.0000000E+000
  0.0000000E+000
  0.0000000E+000
  0.0000000E+000
  0.0000000E+000
  0.0000000E+000
  0.0000000E+000
  0.0000000E+000
  0.0000000E+000
  0.0000000E+000
  0.0000000E+000
  0.0000000E+000
  0.0000000E+000
  0.0000000E+000
  0.0000000E+000
  0.0000000E+000
  0.0000000E+000
  0.0000000E+000
  0.0000000E+000
  0.0000000E+000
  0.0000000E+000
  0.0000000E+000
  0.0000000E+000
  0.0000000E+000
  0.0000000E+000
  0.0000000E+000
  0.0000000E+000
  0.0000000E+000
  0.0000000E+000
  0.0000000E+000
  0.0000000E+000
  0.0000000E+000
  0.0000000E+000
  0.0000000E+000
  0.0000000E+000
  0.0000000E+000
  0.0000000E+000
  0.0000000E+000
  0.0000000E+000
  0.0000000E+000
  0.0000000E+000
  0.0000000E+000
  0.0000000E+000
  0.0000000E+000
  0.0000000E+000
  0.0000000E+000
  0.0000000E+000
  0.0000000E+000
  0.0000000E+000
  0.0000000E+000
  0.0000000E+000
  0.0000000E+000
  0.0000000E+000
  0.0000000E+000
  0.0000000E+000
  0.0000000E+000
  0.0000000E+000
  0.0000000E+000
  0.0000000E+000
  0.0000000E+000
  0.0000000E+000
  0.0000000E+000
  0.0000000E+000
  0.0000000E+000
  0.0000000E+000
  0.0000000E+000
  0.0000000E+000
  0.0000000E+000
  0.0000000E+000
  0.0000000E+000
  0.0000000E+000
  0.0000000E+000
  0.0000000E+000
  0.0000000E+000
  0.0000000E+000
  0.0000000E+000
  0.0000000E+000
  0.0000000E+000
  0.0000000E+000
  0.0000000E+000
  0.0000000E+000
  0.0000000E+000
  0.0000000E+000
  0.0000000E+000
  0.0000000E+000
  0.0000000E+000
  0.0000000E+000
  0.0000000E+000
  0.0000000E+000
  0.0000000E+000
  0.0000000E+000
  0.0000000E+000
  0.0000000E+000
  0.0000000E+000
  0.0000000E+000
  0.0000000E+000
  0.0000000E+000
  0.0000000E+000
  0.0000000E+000
  0.0000000E+000
  0.0000000E+000
  0.0000000E+000
  0.0000000E+000
  0.0000000E+000
  0.0000000E+000
  0.0000000E+000
  0.0000000E+000
  0.0000000E+000
  0.0000000E+000
  0.0000000E+000
  0.0000000E+000
  0.0000000E+000
  0.0000000E+000
  0.0000000E+000
  0.0000000E+000
  0.0000000E+000
  0.0000000E+000
  0.0000000E+000
  0.0000000E+000
  0.0000000E+000
  0.0000000E+000
  0.0000000E+000
  0.0000000E+000
  0.0000000E+000
  0.0000000E+000
  0.0000000E+000
  0.0000000E+000
  0.0000000E+000
  0.0000000E+000
  0.0000000E+000
  0.0000000E+000
  0.0000000E+000
  0.0000000E+000
  0.0000000E+000
  0.0000000E+000
  0.0000000E+000
  0.0000000E+000
  0.0000000E+000
  0.0000000E+000
  0.0000000E+000
  0.0000000E+000
  0.0000000E+000
  0.0000000E+000
  0.0000000E+000
  0.0000000E+000
  0.0000000E+000
  0.0000000E+000
  0.0000000E+000
  0.0000000E+000
  0.0000000E+000
  0.0000000E+000
  0.0000000E+000
  0.0000000E+000
  0.0000000E+000
  0.0000000E+000
  0.0000000E+000
  0.0000000E+000
  0.0000000E+000
  0.0000000E+000
  0.0000000E+000
  0.0000000E+000
  0.0000000E+000
  0.0000000E+000
  0.0000000E+000
  0.0000000E+000
  0.0000000E+000
  0.0000000E+000
  0.0000000E+000
  0.0000000E+000
  0.0000000E+000
  0.0000000E+000
  0.0000000E+000
  0.0000000E+000
  0.0000000E+000
  0.0000000E+000
  0.0000000E+000
  0.0000000E+000
  0.0000000E+000
  0.0000000E+000
  0.0000000E+000
  0.0000000E+000
  0.0000000E+000
  0.0000000E+000
  0.0000000E+000
  0.0000000E+000
  0.0000000E+000
  0.0000000E+000
  0.0000000E+000
  0.0000000E+000
  0.0000000E+000
  0.0000000E+000
  0.0000000E+000
  0.0000000E+000
  0.0000000E+000
  0.0000000E+000
  0.0000000E+000
  0.0000000E+000
  0.0000000E+000
  0.0000000E+000
  0.0000000E+000
  0.0000000E+000
  0.0000000E+000
  0.0000000E+000
  0.0000000E+000
  0.0000000E+000
  0.0000000E+000
  0.0000000E+000
  0.0000000E+000
  0.0000000E+000
  0.0000000E+000
  0.0000000E+000
  0.0000000E+000
  0.0000000E+000
  0.0000000E+000
  0.0000000E+000
  0.0000000E+000
  0.0000000E+000
  0.0000000E+000
  0.0000000E+000
  0.0000000E+000
  0.0000000E+000
  0.0000000E+000
  0.0000000E+000
  0.0000000E+000
  0.0000000E+000
  0.0000000E+000
  0.0000000E+000
  0.0000000E+000
  0.0000000E+000
  0.0000000E+000
  0.0000000E+000
  0.0000000E+000
  0.0000000E+000
  0.0000000E+000
  0.0000000E+000
  0.0000000E+000
  0.0000000E+000
  0.0000000E+000
  0.0000000E+000
  0.0000000E+000
  0.0000000E+000
  0.0000000E+000
  0.0000000E+000
  0.0000000E+000
  0.0000000E+000
  0.0000000E+000
  0.0000000E+000
  0.0000000E+000
  0.0000000E+000
  0.0000000E+000
  0.0000000E+000
  0.0000000E+000
  0.0000000E+000
  0.0000000E+000
  0.0000000E+000
  0.0000000E+000
  0.0000000E+000
  0.0000000E+000
  0.0000000E+000
  0.0000000E+000
  0.0000000E+000
  0.0000000E+000
  0.0000000E+000
  0.0000000E+000
  0.0000000E+000
  0.0000000E+000
  0.0000000E+000
  0.0000000E+000
  0.0000000E+000
  0.0000000E+000
  0.0000000E+000
  0.0000000E+000
  0.0000000E+000
  0.0000000E+000
  0.0000000E+000
  0.0000000E+000
  0.0000000E+000
  0.0000000E+000
  0.0000000E+000
  0.0000000E+000
  0.0000000E+000
  0.0000000E+000
  0.0000000E+000
  0.0000000E+000
  0.0000000E+000
  0.0000000E+000
  0.0000000E+000
  0.0000000E+000
  0.0000000E+000
  0.0000000E+000
  0.0000000E+000
  0.0000000E+000
  0.0000000E+000
  0.0000000E+000
  0.0000000E+000
  0.0000000E+000
  0.0000000E+000
  0.0000000E+000
  0.0000000E+000
  0.0000000E+000
  0.0000000E+000
  0.0000000E+000
  0.0000000E+000
  0.0000000E+000
  0.0000000E+000
  0.0000000E+000
  0.0000000E+000
  0.0000000E+000
  0.0000000E+000
  0.0000000E+000
  0.0000000E+000
  0.0000000E+000
  0.0000000E+000
  0.0000000E+000
  0.0000000E+000
  0.0000000E+000
  0.0000000E+000
  0.0000000E+000
  0.0000000E+000
  0.0000000E+000
  0.0000000E+000
  0.0000000E+000
  0.0000000E+000
  0.0000000E+000
  0.0000000E+000
  0.0000000E+000
  0.0000000E+000
  0.0000000E+000
  0.0000000E+000
  0.0000000E+000
  0.0000000E+000
  0.0000000E+000
  0.0000000E+000
  0.0000000E+000
  0.0000000E+000
  0.0000000E+000
  0.0000000E+000
  0.0000000E+000
  0.0000000E+000
  0.0000000E+000
  0.0000000E+000
  0.0000000E+000
  0.0000000E+000
  0.0000000E+000
  0.0000000E+000
  0.0000000E+000
  0.0000000E+000
  0.0000000E+000
  0.0000000E+000
  0.0000000E+000
  0.0000000E+000
  0.0000000E+000
  0.0000000E+000
  0.0000000E+000
  0.0000000E+000
  0.0000000E+000
  0.0000000E+000
  0.0000000E+000
  0.0000000E+000
  0.0000000E+000
  0.0000000E+000
  0.0000000E+000
  0.0000000E+000
  0.0000000E+000
  0.0000000E+000
  0.0000000E+000
  0.0000000E+000
  0.0000000E+000
  0.0000000E+000
  0.0000000E+000
  0.0000000E+000
  0.0000000E+000
  0.0000000E+000
  0.0000000E+000
  0.0000000E+000
  0.0000000E+000
  0.0000000E+000
  0.0000000E+000
  0.0000000E+000
  0.0000000E+000
  0.0000000E+000
  0.0000000E+000
  0.0000000E+000
  0.0000000E+000
  0.0000000E+000
  0.0000000E+000
  0.0000000E+000
  0.0000000E+000
  0.0000000E+000
  0.0000000E+000
  0.0000000E+000
  0.0000000E+000
  0.0000000E+000
  0.0000000E+000
  0.0000000E+000
  0.0000000E+000
  0.0000000E+000
  0.0000000E+000
  0.0000000E+000
  0.0000000E+000
  0.0000000E+000
  0.0000000E+000
  0.0000000E+000
  0.0000000E+000
  0.0000000E+000
  0.0000000E+000
  0.0000000E+000
  0.0000000E+000
  0.0000000E+000
  0.0000000E+000
  0.0000000E+000
  0.0000000E+000
  0.0000000E+000
  0.0000000E+000
  0.0000000E+000
  0.0000000E+000
  0.0000000E+000
  0.0000000E+000
  0.0000000E+000
  0.0000000E+000
  0.0000000E+000
  0.0000000E+000
  0.0000000E+000
  0.0000000E+000
  0.0000000E+000
  0.0000000E+000
  0.0000000E+000
  0.0000000E+000
  0.0000000E+000
  0.0000000E+000
  0.0000000E+000
  0.0000000E+000
  0.0000000E+000
  0.0000000E+000
  0.0000000E+000
  0.0000000E+000
  0.0000000E+000
  0.0000000E+000
  0.0000000E+000
  0.0000000E+000
  0.0000000E+000
  0.0000000E+000
  0.0000000E+000
  0.0000000E+000
  0.0000000E+000
  0.0000000E+000
  0.0000000E+000
  0.0000000E+000
  0.0000000E+000
  0.0000000E+000
  0.0000000E+000
  0.0000000E+000
  0.0000000E+000
  0.0000000E+000
  0.0000000E+000
  0.0000000E+000
  0.0000000E+000
  0.0000000E+000
  0.0000000E+000
  0.0000000E+000
  0.0000000E+000
  0.0000000E+000
  0.0000000E+000
  0.0000000E+000
  0.0000000E+000
  0.0000000E+000
  0.0000000E+000
  0.0000000E+000
  0.0000000E+000
  0.0000000E+000
  0.0000000E+000
  0.0000000E+000
  0.0000000E+000
  0.0000000E+000
  0.0000000E+000
  0.0000000E+000
  0.0000000E+000
  0.0000000E+000
  0.0000000E+000
  0.0000000E+000
  0.0000000E+000
  0.0000000E+000
  0.0000000E+000
  0.0000000E+000
  0.0000000E+000
  0.0000000E+000
  0.0000000E+000
  0.0000000E+000
  0.0000000E+000
  0.0000000E+000
  0.0000000E+000
  0.0000000E+000
  0.0000000E+000
  0.0000000E+000
  0.0000000E+000
  0.0000000E+000
  0.0000000E+000
  0.0000000E+000
  0.0000000E+000
  0.0000000E+000
  0.0000000E+000
  0.0000000E+000
  0.0000000E+000
  0.0000000E+000
  0.0000000E+000
  0.0000000E+000
  0.0000000E+000
  0.0000000E+000
  0.0000000E+000
  0.0000000E+000
  0.0000000E+000
  0.0000000E+000
  0.0000000E+000
  0.0000000E+000
  0.0000000E+000
  0.0000000E+000
  0.0000000E+000
  0.0000000E+000
  0.0000000E+000
  0.0000000E+000
  0.0000000E+000
  0.0000000E+000
  0.0000000E+000
  0.0000000E+000
  0.0000000E+000
  0.0000000E+000
  0.0000000E+000
  0.0000000E+000
  0.0000000E+000
  0.0000000E+000
  0.0000000E+000
  0.0000000E+000
  0.0000000E+000
  0.0000000E+000
  0.0000000E+000
  0.0000000E+000
  0.0000000E+000
  0.0000000E+000
  0.0000000E+000
  0.0000000E+000
  0.0000000E+000
  0.0000000E+000
  0.0000000E+000
  0.0000000E+000
  0.0000000E+000
  0.0000000E+000
  0.0000000E+000
  0.0000000E+000
  0.0000000E+000
  0.0000000E+000
  0.0000000E+000
  0.0000000E+000
  0.0000000E+000
  0.0000000E+000
  0.0000000E+000
  0.0000000E+000
  0.0000000E+000
  0.0000000E+000
  0.0000000E+000
  0.0000000E+000
  0.0000000E+000
  0.0000000E+000
  0.0000000E+000
  0.0000000E+000
  0.0000000E+000
  0.0000000E+000
  0.0000000E+000
  0.0000000E+000
  0.0000000E+000
  0.0000000E+000
  0.0000000E+000
  0.0000000E+000
  0.0000000E+000
  0.0000000E+000
  0.0000000E+000
  0.0000000E+000
  0.0000000E+000
  0.0000000E+000
  0.0000000E+000
  0.0000000E+000
  0.0000000E+000
  0.0000000E+000
  0.0000000E+000
  0.0000000E+000
  0.0000000E+000
  0.0000000E+000
  0.0000000E+000
  0.0000000E+000
  0.0000000E+000
  0.0000000E+000
  0.0000000E+000
  0.0000000E+000
  0.0000000E+000
  0.0000000E+000
  0.0000000E+000
  0.0000000E+000
  0.0000000E+000
  0.0000000E+000
  0.0000000E+000
  0.0000000E+000
  0.0000000E+000
  0.0000000E+000
  0.0000000E+000
  0.0000000E+000
  0.0000000E+000
  0.0000000E+000
  0.0000000E+000
  0.0000000E+000
  0.0000000E+000
  0.0000000E+000
  0.0000000E+000
  0.0000000E+000
  0.0000000E+000
  0.0000000E+000
  0.0000000E+000
  0.0000000E+000
  0.0000000E+000
  0.0000000E+000
  0.0000000E+000
  0.0000000E+000
  0.0000000E+000
  0.0000000E+000
  0.0000000E+000
  0.0000000E+000
  0.0000000E+000
  0.0000000E+000
  0.0000000E+000
  0.0000000E+000
  0.0000000E+000
  0.0000000E+000
  0.0000000E+000
  0.0000000E+000
  0.0000000E+000
  0.0000000E+000
  0.0000000E+000
  0.0000000E+000
  0.0000000E+000
  0.0000000E+000
  0.0000000E+000
  0.0000000E+000
  0.0000000E+000
  0.0000000E+000
  0.0000000E+000
  0.0000000E+000
  0.0000000E+000
  0.0000000E+000
  0.0000000E+000
  0.0000000E+000
  0.0000000E+000
  0.0000000E+000
  0.0000000E+000
  0.0000000E+000
  0.0000000E+000
  0.0000000E+000
  0.0000000E+000
  0.0000000E+000
  0.0000000E+000
  0.0000000E+000
  0.0000000E+000
  0.0000000E+000
  0.0000000E+000
  0.0000000E+000
  0.0000000E+000
  0.0000000E+000
  0.0000000E+000
  0.0000000E+000
  0.0000000E+000
  0.0000000E+000
  0.0000000E+000
  0.0000000E+000
  0.0000000E+000
  0.0000000E+000
  0.0000000E+000
  0.0000000E+000
  0.0000000E+000
  0.0000000E+000
  0.0000000E+000
  0.0000000E+000
  0.0000000E+000
  0.0000000E+000
  0.0000000E+000
  0.0000000E+000
  0.0000000E+000
  0.0000000E+000
  0.0000000E+000
  0.0000000E+000
  0.0000000E+000
  0.0000000E+000
  0.0000000E+000
  0.0000000E+000
  0.0000000E+000
  0.0000000E+000
  0.0000000E+000
  0.0000000E+000
  0.0000000E+000
  0.0000000E+000
  0.0000000E+000
  0.0000000E+000
  0.0000000E+000
  0.0000000E+000
  0.0000000E+000
  0.0000000E+000
  0.0000000E+000
  0.0000000E+000
  0.0000000E+000
  0.0000000E+000
  0.0000000E+000
  0.0000000E+000
  0.0000000E+000
  0.0000000E+000
  0.0000000E+000
  0.0000000E+000
  0.0000000E+000
  0.0000000E+000
  0.0000000E+000
  0.0000000E+000
  0.0000000E+000
  0.0000000E+000
  0.0000000E+000
  0.0000000E+000
  0.0000000E+000
  0.0000000E+000
  0.0000000E+000
  0.0000000E+000
  0.0000000E+000
  0.0000000E+000
  0.0000000E+000
  0.0000000E+000
  0.0000000E+000
  0.0000000E+000
  0.0000000E+000
  0.0000000E+000
  0.0000000E+000
  0.0000000E+000
  0.0000000E+000
  0.0000000E+000
  0.0000000E+000
  0.0000000E+000
  0.0000000E+000
  0.0000000E+000
  0.0000000E+000
  0.0000000E+000
  0.0000000E+000
  0.0000000E+000
  0.0000000E+000
  0.0000000E+000
  0.0000000E+000
  0.0000000E+000
  0.0000000E+000
  0.0000000E+000
  0.0000000E+000
  0.0000000E+000
  0.0000000E+000
  0.0000000E+000
  0.0000000E+000
  0.0000000E+000
  0.0000000E+000
  0.0000000E+000
  0.0000000E+000
  0.0000000E+000
  0.0000000E+000
  0.0000000E+000
  0.0000000E+000
  0.0000000E+000
  0.0000000E+000
  0.0000000E+000
  0.0000000E+000
  0.0000000E+000
  0.0000000E+000
  0.0000000E+000
  0.0000000E+000
  0.0000000E+000
  0.0000000E+000
  0.0000000E+000
  0.0000000E+000
  0.0000000E+000
  0.0000000E+000
  0.0000000E+000
  0.0000000E+000
  0.0000000E+000
  0.0000000E+000
  0.0000000E+000
  0.0000000E+000
  0.0000000E+000
  0.0000000E+000
  0.0000000E+000
  0.0000000E+000
  0.0000000E+000
  0.0000000E+000
  0.0000000E+000
  0.0000000E+000
  0.0000000E+000
  0.0000000E+000
  0.0000000E+000
  0.0000000E+000
  0.0000000E+000
  0.0000000E+000
  0.0000000E+000
  0.0000000E+000
  0.0000000E+000
  0.0000000E+000
  0.0000000E+000
  0.0000000E+000
  0.0000000E+000
  0.0000000E+000
  0.0000000E+000
  0.0000000E+000
  0.0000000E+000
  0.0000000E+000
  0.0000000E+000
  0.0000000E+000
  0.0000000E+000
  0.0000000E+000
  0.0000000E+000
  0.0000000E+000
  0.0000000E+000
  0.0000000E+000
  0.0000000E+000
  0.0000000E+000
  0.0000000E+000
  0.0000000E+000
  0.0000000E+000
  0.0000000E+000
  0.0000000E+000
  0.0000000E+000
  0.0000000E+000
  0.0000000E+000
  0.0000000E+000
  0.0000000E+000
  0.0000000E+000
  0.0000000E+000
  0.0000000E+000
  0.0000000E+000
  0.0000000E+000
  0.0000000E+000
  0.0000000E+000
  0.0000000E+000
  0.0000000E+000
  0.0000000E+000
  0.0000000E+000
  0.0000000E+000
  0.0000000E+000
  0.0000000E+000
  0.0000000E+000
  0.0000000E+000
  0.0000000E+000
  0.0000000E+000
  0.0000000E+000
  0.0000000E+000
  0.0000000E+000
  0.0000000E+000
  0.0000000E+000
  0.0000000E+000
  0.0000000E+000
  0.0000000E+000
  0.0000000E+000
  0.0000000E+000
  0.0000000E+000
  0.0000000E+000
  0.0000000E+000
  0.0000000E+000
  0.0000000E+000
  0.0000000E+000
  0.0000000E+000
  0.0000000E+000
  0.0000000E+000
  0.0000000E+000
  0.0000000E+000
  0.0000000E+000
  0.0000000E+000
  0.0000000E+000
  0.0000000E+000
  0.0000000E+000
  0.0000000E+000
  0.0000000E+000
  0.0000000E+000
  0.0000000E+000
  0.0000000E+000
  0.0000000E+000
  0.0000000E+000
  0.0000000E+000
  0.0000000E+000
  0.0000000E+000
  0.0000000E+000
  0.0000000E+000
  0.0000000E+000
  0.0000000E+000
  0.0000000E+000
  0.0000000E+000
  0.0000000E+000
  0.0000000E+000
  0.0000000E+000
  0.0000000E+000
  0.0000000E+000
  0.0000000E+000
  0.0000000E+000
  0.0000000E+000
  0.0000000E+000
  0.0000000E+000
  0.0000000E+000
  0.0000000E+000
  0.0000000E+000
  0.0000000E+000
  0.0000000E+000
  0.0000000E+000
  0.0000000E+000
  0.0000000E+000
  0.0000000E+000
  0.0000000E+000
  0.0000000E+000
  0.0000000E+000
  0.0000000E+000
  0.0000000E+000
  0.0000000E+000
  0.0000000E+000
  0.0000000E+000
  0.0000000E+000
  0.0000000E+000
  0.0000000E+000
  0.0000000E+000
  0.0000000E+000
  0.0000000E+000
  0.0000000E+000
  0.0000000E+000
  0.0000000E+000
  0.0000000E+000
  0.0000000E+000
  0.0000000E+000
  0.0000000E+000
  0.0000000E+000
  0.0000000E+000
  0.0000000E+000
  0.0000000E+000
  0.0000000E+000
  0.0000000E+000
  0.0000000E+000
  0.0000000E+000
  0.0000000E+000
  0.0000000E+000
  0.0000000E+000
  0.0000000E+000
  0.0000000E+000
  0.0000000E+000
  0.0000000E+000
  0.0000000E+000
  0.0000000E+000
  0.0000000E+000
  0.0000000E+000
  0.0000000E+000
  0.0000000E+000
  0.0000000E+000
  0.0000000E+000
  0.0000000E+000
  0.0000000E+000
  0.0000000E+000
  0.0000000E+000
  0.0000000E+000
  0.0000000E+000
  0.0000000E+000
  0.0000000E+000
  0.0000000E+000
  0.0000000E+000
  0.0000000E+000
  0.0000000E+000
  0.0000000E+000
  0.0000000E+000
  0.0000000E+000
  0.0000000E+000
  0.0000000E+000
  0.0000000E+000
  0.0000000E+000
  0.0000000E+000
  0.0000000E+000
  0.0000000E+000
  0.0000000E+000
  0.0000000E+000
  0.0000000E+000
  0.0000000E+000
  0.0000000E+000
  0.0000000E+000
  0.0000000E+000
  0.0000000E+000
  0.0000000E+000
  0.0000000E+000
  0.0000000E+000
  0.0000000E+000
  0.0000000E+000
  0.0000000E+000
  0.0000000E+000
  0.0000000E+000
  0.0000000E+000
  0.0000000E+000
  0.0000000E+000
  0.0000000E+000
  0.0000000E+000
  0.0000000E+000
  0.0000000E+000
  0.0000000E+000
  0.0000000E+000
  0.0000000E+000
  0.0000000E+000
  0.0000000E+000
  0.0000000E+000
  0.0000000E+000
  0.0000000E+000
  0.0000000E+000
  0.0000000E+000
  0.0000000E+000
  0.0000000E+000
  0.0000000E+000
  0.0000000E+000
  0.0000000E+000
  0.0000000E+000
  0.0000000E+000
  0.0000000E+000
  0.0000000E+000
  0.0000000E+000
  0.0000000E+000
  0.0000000E+000
  0.0000000E+000
  0.0000000E+000
  0.0000000E+000
  0.0000000E+000
  0.0000000E+000
  0.0000000E+000
  0.0000000E+000
  0.0000000E+000
  0.0000000E+000
  0.0000000E+000
  0.0000000E+000
  0.0000000E+000
  0.0000000E+000
  0.0000000E+000
  0.0000000E+000
  0.0000000E+000
  0.0000000E+000
  0.0000000E+000
  0.0000000E+000
  0.0000000E+000
  0.0000000E+000
  0.0000000E+000
  0.0000000E+000
  0.0000000E+000
  0.0000000E+000
  0.0000000E+000
  0.0000000E+000
  0.0000000E+000
  0.0000000E+000
  0.0000000E+000
  0.0000000E+000
  0.0000000E+000
  0.0000000E+000
  0.0000000E+000
  0.0000000E+000
  0.0000000E+000
  0.0000000E+000
  0.0000000E+000
  0.0000000E+000
  0.0000000E+000
  0.0000000E+000
  0.0000000E+000
  0.0000000E+000
  0.0000000E+000
  0.0000000E+000
  0.0000000E+000
  0.0000000E+000
  0.0000000E+000
  0.0000000E+000
  0.0000000E+000
  0.0000000E+000
  0.0000000E+000
  0.0000000E+000
  0.0000000E+000
  0.0000000E+000
  0.0000000E+000
  0.0000000E+000
  0.0000000E+000
  0.0000000E+000
  0.0000000E+000
  0.0000000E+000
  0.0000000E+000
  0.0000000E+000
  0.0000000E+000
  0.0000000E+000
  0.0000000E+000
  0.0000000E+000
  0.0000000E+000
  0.0000000E+000
  0.0000000E+000
  0.0000000E+000
  0.0000000E+000
  0.0000000E+000
  0.0000000E+000
  0.0000000E+000
  0.0000000E+000
  0.0000000E+000
  0.0000000E+000
  0.0000000E+000
  0.0000000E+000
  0.0000000E+000
  0.0000000E+000
  0.0000000E+000
  0.0000000E+000
  0.0000000E+000
  0.0000000E+000
  0.0000000E+000
  0.0000000E+000
  0.0000000E+000
  0.0000000E+000
  0.0000000E+000
  0.0000000E+000
  0.0000000E+000
  0.0000000E+000
  0.0000000E+000
  0.0000000E+000
  0.0000000E+000
  0.0000000E+000
  0.0000000E+000
  0.0000000E+000
  0.0000000E+000
  0.0000000E+000
  0.0000000E+000
  0.0000000E+000
  0.0000000E+000
  0.0000000E+000
  0.0000000E+000
  0.0000000E+000
  0.0000000E+000
  0.0000000E+000
  0.0000000E+000
  0.0000000E+000
  0.0000000E+000
  0.0000000E+000
  0.0000000E+000
  0.0000000E+000
  0.0000000E+000
  0.0000000E+000
  0.0000000E+000
  0.0000000E+000
  0.0000000E+000
  0.0000000E+000
  0.0000000E+000
  0.0000000E+000
  0.0000000E+000
  0.0000000E+000
  0.0000000E+000
  0.0000000E+000
  0.0000000E+000
  0.0000000E+000
  0.0000000E+000
  0.0000000E+000
  0.0000000E+000
  0.0000000E+000
  0.0000000E+000
  0.0000000E+000
  0.0000000E+000
  0.0000000E+000
  0.0000000E+000
  0.0000000E+000
  0.0000000E+000
  0.0000000E+000
  0.0000000E+000
  0.0000000E+000
  0.0000000E+000
  0.0000000E+000
  0.0000000E+000
  0.0000000E+000
  0.0000000E+000
  0.0000000E+000
  0.0000000E+000
  0.0000000E+000
  0.0000000E+000
  0.0000000E+000
  0.0000000E+000
  0.0000000E+000
  0.0000000E+000
  0.0000000E+000
  0.0000000E+000
  0.0000000E+000
  0.0000000E+000
  0.0000000E+000
  0.0000000E+000
  0.0000000E+000
  0.0000000E+000
  0.0000000E+000
  0.0000000E+000
  0.0000000E+000
  0.0000000E+000
  0.0000000E+000
  0.0000000E+000
  0.0000000E+000
  0.0000000E+000
  0.0000000E+000
  0.0000000E+000
  0.0000000E+000
  0.0000000E+000
  0.0000000E+000
  0.0000000E+000
  0.0000000E+000
  0.0000000E+000
  0.0000000E+000
  0.0000000E+000
  0.0000000E+000
  0.0000000E+000
  0.0000000E+000
  0.0000000E+000
  0.0000000E+000
  0.0000000E+000
  0.0000000E+000
  0.0000000E+000
  0.0000000E+000
  0.0000000E+000
  0.0000000E+000
  0.0000000E+000
  0.0000000E+000
  0.0000000E+000
  0.0000000E+000
  0.0000000E+000
  0.0000000E+000
  0.0000000E+000
  0.0000000E+000
  0.0000000E+000
  0.0000000E+000
  0.0000000E+000
  0.0000000E+000
  0.0000000E+000
  0.0000000E+000
  0.0000000E+000
  0.0000000E+000
  0.0000000E+000
  0.0000000E+000
  0.0000000E+000
  0.0000000E+000
  0.0000000E+000
  0.0000000E+000
  0.0000000E+000
  0.0000000E+000
  0.0000000E+000
  0.0000000E+000
  0.0000000E+000
  0.0000000E+000
  0.0000000E+000
  0.0000000E+000
  0.0000000E+000
  0.0000000E+000
  0.0000000E+000
  0.0000000E+000
  0.0000000E+000
  0.0000000E+000
  0.0000000E+000
  0.0000000E+000
  0.0000000E+000
  0.0000000E+000
  0.0000000E+000
  0.0000000E+000
  0.0000000E+000
  0.0000000E+000
  0.0000000E+000
  0.0000000E+000
  0.0000000E+000
  0.0000000E+000
  0.0000000E+000
  0.0000000E+000
  0.0000000E+000
  0.0000000E+000
  0.0000000E+000
  0.0000000E+000
  0.0000000E+000
  0.0000000E+000
  0.0000000E+000
  0.0000000E+000
  0.0000000E+000
  0.0000000E+000
  0.0000000E+000
  0.0000000E+000
  0.0000000E+000
  0.0000000E+000
  0.0000000E+000
  0.0000000E+000
  0.0000000E+000
  0.0000000E+000
  0.0000000E+000
  0.0000000E+000
  0.0000000E+000
  0.0000000E+000
  0.0000000E+000
  0.0000000E+000
  0.0000000E+000
  0.0000000E+000
  0.0000000E+000
  0.0000000E+000
  0.0000000E+000
  0.0000000E+000
  0.0000000E+000
  0.0000000E+000
  0.0000000E+000
  0.0000000E+000
  0.0000000E+000
  0.0000000E+000
  0.0000000E+000
  0.0000000E+000
  0.0000000E+000
  0.0000000E+000
  0.0000000E+000
  0.0000000E+000
  0.0000000E+000
  0.0000000E+000
  0.0000000E+000
  0.0000000E+000
  0.0000000E+000
  0.0000000E+000
  0.0000000E+000
  0.0000000E+000
  0.0000000E+000
  0.0000000E+000
  0.0000000E+000
  0.0000000E+000
  0.0000000E+000
  0.0000000E+000
  0.0000000E+000
  0.0000000E+000
  0.0000000E+000
  0.0000000E+000
  0.0000000E+000
  0.0000000E+000
  0.0000000E+000
  0.0000000E+000
  0.0000000E+000
  0.0000000E+000
  0.0000000E+000
  0.0000000E+000
  0.0000000E+000
  0.0000000E+000
  0.0000000E+000
  0.0000000E+000
  0.0000000E+000
  0.0000000E+000
  0.0000000E+000
  0.0000000E+000
  0.0000000E+000
  0.0000000E+000
  0.0000000E+000
  0.0000000E+000
  0.0000000E+000
  0.0000000E+000
  0.0000000E+000
  0.0000000E+000
  0.0000000E+000
  0.0000000E+000
  0.0000000E+000
  0.0000000E+000
  0.0000000E+000
  0.0000000E+000
  0.0000000E+000
  0.0000000E+000
  0.0000000E+000
  0.0000000E+000
  0.0000000E+000
  0.0000000E+000
  0.0000000E+000
  0.0000000E+000
  0.0000000E+000
  0.0000000E+000
  0.0000000E+000
  0.0000000E+000
  0.0000000E+000
  0.0000000E+000
  0.0000000E+000
  0.0000000E+000
  0.0000000E+000
  0.0000000E+000
  0.0000000E+000
  0.0000000E+000
  0.0000000E+000
  0.0000000E+000
  0.0000000E+000
  0.0000000E+000
  0.0000000E+000
  0.0000000E+000
  0.0000000E+000
  0.0000000E+000
  0.0000000E+000
  0.0000000E+000
  0.0000000E+000
  0.0000000E+000
  0.0000000E+000
  0.0000000E+000
  0.0000000E+000
  0.0000000E+000
  0.0000000E+000
  0.0000000E+000
  0.0000000E+000
  0.0000000E+000
  0.0000000E+000
  0.0000000E+000
  0.0000000E+000
  0.0000000E+000
  0.0000000E+000
  0.0000000E+000
  0.0000000E+000
  0.0000000E+000
  0.0000000E+000
  0.0000000E+000
  0.0000000E+000
  0.0000000E+000
  0.0000000E+000
  0.0000000E+000
  0.0000000E+000
  0.0000000E+000
  0.0000000E+000
  0.0000000E+000
  0.0000000E+000
  0.0000000E+000
  0.0000000E+000
  0.0000000E+000
  0.0000000E+000
  0.0000000E+000
  0.0000000E+000
  0.0000000E+000
  0.0000000E+000
  0.0000000E+000
  0.0000000E+000
  0.0000000E+000
  0.0000000E+000
  0.0000000E+000
  0.0000000E+000
  0.0000000E+000
  0.0000000E+000
  0.0000000E+000
  0.0000000E+000
  0.0000000E+000
  0.0000000E+000
  0.0000000E+000
  0.0000000E+000
  0.0000000E+000
  0.0000000E+000
  0.0000000E+000
  0.0000000E+000
  0.0000000E+000
  0.0000000E+000
  0.0000000E+000
  0.0000000E+000
  0.0000000E+000
  0.0000000E+000
  0.0000000E+000
  0.0000000E+000
  0.0000000E+000
  0.0000000E+000
  0.0000000E+000
  0.0000000E+000
  0.0000000E+000
  0.0000000E+000
  0.0000000E+000
  0.0000000E+000
  0.0000000E+000
  0.0000000E+000
  0.0000000E+000
  0.0000000E+000
  0.0000000E+000
  0.0000000E+000
  0.0000000E+000
  0.0000000E+000
  0.0000000E+000
  0.0000000E+000
  0.0000000E+000
  0.0000000E+000
  0.0000000E+000
  0.0000000E+000
  0.0000000E+000
  0.0000000E+000
  0.0000000E+000
  0.0000000E+000
  0.0000000E+000
  0.0000000E+000
  0.0000000E+000
  0.0000000E+000
  0.0000000E+000
  0.0000000E+000
  0.0000000E+000
  0.0000000E+000
  0.0000000E+000
  0.0000000E+000
  0.0000000E+000
  0.0000000E+000
  0.0000000E+000
  0.0000000E+000
  0.0000000E+000
  0.0000000E+000
  0.0000000E+000
  0.0000000E+000
  0.0000000E+000
  0.0000000E+000
  0.0000000E+000
  0.0000000E+000
  0.0000000E+000
  0.0000000E+000
  0.0000000E+000
  0.0000000E+000
  0.0000000E+000
  0.0000000E+000
  0.0000000E+000
  0.0000000E+000
  0.0000000E+000
  0.0000000E+000
  0.0000000E+000
  0.0000000E+000
  0.0000000E+000
  0.0000000E+000
  0.0000000E+000
  0.0000000E+000
  0.0000000E+000
  0.0000000E+000
  0.0000000E+000
  0.0000000E+000
  0.0000000E+000
  0.0000000E+000
  0.0000000E+000
  0.0000000E+000
  0.0000000E+000
  0.0000000E+000
  0.0000000E+000
  0.0000000E+000
  0.0000000E+000
  0.0000000E+000
  0.0000000E+000
  0.0000000E+000
  0.0000000E+000
  0.0000000E+000
  0.0000000E+000
  0.0000000E+000
  0.0000000E+000
  0.0000000E+000
  0.0000000E+000
  0.0000000E+000
  0.0000000E+000
  0.0000000E+000
  0.0000000E+000
  0.0000000E+000
  0.0000000E+000
  0.0000000E+000
  0.0000000E+000
  0.0000000E+000
  0.0000000E+000
  0.0000000E+000
  0.0000000E+000
  0.0000000E+000
  0.0000000E+000
  0.0000000E+000
  0.0000000E+000
  0.0000000E+000
  0.0000000E+000
  0.0000000E+000
  0.0000000E+000
  0.0000000E+000
  0.0000000E+000
  0.0000000E+000
  0.0000000E+000
  0.0000000E+000
  0.0000000E+000
  0.0000000E+000
  0.0000000E+000
  0.0000000E+000
  0.0000000E+000
  0.0000000E+000
  0.0000000E+000
  0.0000000E+000
  0.0000000E+000
  0.0000000E+000
  0.0000000E+000
  0.0000000E+000
  0.0000000E+000
  0.0000000E+000
  0.0000000E+000
  0.0000000E+000
  0.0000000E+000
  0.0000000E+000
  0.0000000E+000
  0.0000000E+000
  0.0000000E+000
  0.0000000E+000
  0.0000000E+000
  0.0000000E+000
  0.0000000E+000
  0.0000000E+000
  0.0000000E+000
  0.0000000E+000
  0.0000000E+000
  0.0000000E+000
  0.0000000E+000
  0.0000000E+000
  0.0000000E+000
  0.0000000E+000
  0.0000000E+000
  0.0000000E+000
  0.0000000E+000
  0.0000000E+000
  0.0000000E+000
  0.0000000E+000
  0.0000000E+000
  0.0000000E+000
  0.0000000E+000
  0.0000000E+000
  0.0000000E+000
  0.0000000E+000
  0.0000000E+000
  0.0000000E+000
  0.0000000E+000
  0.0000000E+000
  0.0000000E+000
  0.0000000E+000
  0.0000000E+000
  0.0000000E+000
  0.0000000E+000
  0.0000000E+000
  0.0000000E+000
  0.0000000E+000
  0.0000000E+000
  0.0000000E+000
  0.0000000E+000
  0.0000000E+000
  0.0000000E+000
  0.0000000E+000
  0.0000000E+000
  0.0000000E+000
  0.0000000E+000
  0.0000000E+000
  0.0000000E+000
  0.0000000E+000
  0.0000000E+000
  0.0000000E+000
  0.0000000E+000
  0.0000000E+000
  0.0000000E+000
  0.0000000E+000
  0.0000000E+000
  0.0000000E+000
  0.0000000E+000
  0.0000000E+000
  0.0000000E+000
  0.0000000E+000
  0.0000000E+000
  0.0000000E+000
  0.0000000E+000
  0.0000000E+000
  0.0000000E+000
  0.0000000E+000
  0.0000000E+000
  0.0000000E+000
  0.0000000E+000
  0.0000000E+000
  0.0000000E+000
  0.0000000E+000
  0.0000000E+000
  0.0000000E+000
  0.0000000E+000
  0.0000000E+000
  0.0000000E+000
  0.0000000E+000
  0.0000000E+000
  0.0000000E+000
  0.0000000E+000
  0.0000000E+000
  0.0000000E+000
  0.0000000E+000
  0.0000000E+000
  0.0000000E+000
  0.0000000E+000
  0.0000000E+000
  0.0000000E+000
  0.0000000E+000
  0.0000000E+000
  0.0000000E+000
  0.0000000E+000
  0.0000000E+000
  0.0000000E+000
  0.0000000E+000
  0.0000000E+000
  0.0000000E+000
  0.0000000E+000
  0.0000000E+000
  0.0000000E+000
  0.0000000E+000
  0.0000000E+000
  0.0000000E+000
  0.0000000E+000
  0.0000000E+000
  0.0000000E+000
  0.0000000E+000
  0.0000000E+000
  0.0000000E+000
  0.0000000E+000
  0.0000000E+000
  0.0000000E+000
  0.0000000E+000
  0.0000000E+000
  0.0000000E+000
  0.0000000E+000
  0.0000000E+000
  0.0000000E+000
  0.0000000E+000
  0.0000000E+000
  0.0000000E+000
  0.0000000E+000
  0.0000000E+000
  0.0000000E+000
  0.0000000E+000
  0.0000000E+000
  0.0000000E+000
  0.0000000E+000
  0.0000000E+000
  0.0000000E+000
  0.0000000E+000
  0.0000000E+000
  0.0000000E+000
  0.0000000E+000
  0.0000000E+000
  0.0000000E+000
  0.0000000E+000
  0.0000000E+000
  0.0000000E+000
  0.0000000E+000
  0.0000000E+000
  0.0000000E+000
  0.0000000E+000
  0.0000000E+000
  0.0000000E+000
  0.0000000E+000
  0.0000000E+000
  0.0000000E+000
  0.0000000E+000
  0.0000000E+000
  0.0000000E+000
  0.0000000E+000
  0.0000000E+000
  0.0000000E+000
  0.0000000E+000
  0.0000000E+000
  0.0000000E+000
  0.0000000E+000
  0.0000000E+000
  0.0000000E+000
  0.0000000E+000
  0.0000000E+000
  0.0000000E+000
  0.0000000E+000
  0.0000000E+000
  0.0000000E+000
  0.0000000E+000
  0.0000000E+000
  0.0000000E+000
  0.0000000E+000
  0.0000000E+000
  0.0000000E+000
  0.0000000E+000
  0.0000000E+000
  0.0000000E+000
  0.0000000E+000
  0.0000000E+000
  0.0000000E+000
  0.0000000E+000
  0.0000000E+000
  0.0000000E+000
  0.0000000E+000
  0.0000000E+000
  0.0000000E+000
  0.0000000E+000
  0.0000000E+000
  0.0000000E+000
  0.0000000E+000
  0.0000000E+000
  0.0000000E+000
  0.0000000E+000
  0.0000000E+000
  0.0000000E+000
  0.0000000E+000
  0.0000000E+000
  0.0000000E+000
  0.0000000E+000
  0.0000000E+000
  0.0000000E+000
  0.0000000E+000
  0.0000000E+000
  0.0000000E+000
  0.0000000E+000
  0.0000000E+000
  0.0000000E+000
  0.0000000E+000
  0.0000000E+000
  0.0000000E+000
  0.0000000E+000
  0.0000000E+000
  0.0000000E+000
  0.0000000E+000
  0.0000000E+000
  0.0000000E+000
  0.0000000E+000
  0.0000000E+000
  0.0000000E+000
  0.0000000E+000
  0.0000000E+000
  0.0000000E+000
  0.0000000E+000
  0.0000000E+000
  0.0000000E+000
  0.0000000E+000
  0.0000000E+000
  0.0000000E+000
  0.0000000E+000
  0.0000000E+000
  0.0000000E+000
  0.0000000E+000
  0.0000000E+000
  0.0000000E+000
  0.0000000E+000
  0.0000000E+000
  0.0000000E+000
  0.0000000E+000
  0.0000000E+000
  0.0000000E+000
  0.0000000E+000
  0.0000000E+000
  0.0000000E+000
  0.0000000E+000
  0.0000000E+000
  0.0000000E+000
  0.0000000E+000
  0.0000000E+000
  0.0000000E+000
  0.0000000E+000
  0.0000000E+000
  0.0000000E+000
  0.0000000E+000
  0.0000000E+000
  0.0000000E+000
  0.0000000E+000
  0.0000000E+000
  0.0000000E+000
  0.0000000E+000
  0.0000000E+000
  0.0000000E+000
  0.0000000E+000
  0.0000000E+000
  0.0000000E+000
  0.0000000E+000
  0.0000000E+000
  0.0000000E+000
  0.0000000E+000
  0.0000000E+000
  0.0000000E+000
  0.0000000E+000
  0.0000000E+000
  0.0000000E+000
  0.0000000E+000
  0.0000000E+000
  0.0000000E+000
  0.0000000E+000
  0.0000000E+000
  0.0000000E+000
  0.0000000E+000
  0.0000000E+000
  0.0000000E+000
  0.0000000E+000
  0.0000000E+000
  0.0000000E+000
  0.0000000E+000
  0.0000000E+000
  0.0000000E+000
  0.0000000E+000
  0.0000000E+000
  0.0000000E+000
  0.0000000E+000
  0.0000000E+000
  0.0000000E+000
  0.0000000E+000
  0.0000000E+000
  0.0000000E+000
  0.0000000E+000
  0.0000000E+000
  0.0000000E+000
  0.0000000E+000
  0.0000000E+000
  0.0000000E+000
  0.0000000E+000
  0.0000000E+000
  0.0000000E+000
  0.0000000E+000
  0.0000000E+000
  0.0000000E+000
  0.0000000E+000
  0.0000000E+000
  0.0000000E+000
  0.0000000E+000
  0.0000000E+000
  0.0000000E+000
  0.0000000E+000
  0.0000000E+000
  0.0000000E+000
  0.0000000E+000
  0.0000000E+000
  0.0000000E+000
  0.0000000E+000
  0.0000000E+000
  0.0000000E+000
  0.0000000E+000
  0.0000000E+000
  0.0000000E+000
  0.0000000E+000
  0.0000000E+000
  0.0000000E+000
  0.0000000E+000
  0.0000000E+000
  0.0000000E+000
  0.0000000E+000
  0.0000000E+000
  0.0000000E+000
  0.0000000E+000
  0.0000000E+000
  0.0000000E+000
  0.0000000E+000
  0.0000000E+000
  0.0000000E+000
  0.0000000E+000
  0.0000000E+000
  0.0000000E+000
  0.0000000E+000
  0.0000000E+000
  0.0000000E+000
  0.0000000E+000
  0.0000000E+000
  0.0000000E+000
  0.0000000E+000
  0.0000000E+000
  0.0000000E+000
  0.0000000E+000
  0.0000000E+000
  0.0000000E+000
  0.0000000E+000
  0.0000000E+000
  0.0000000E+000
  0.0000000E+000
  0.0000000E+000
  0.0000000E+000
  0.0000000E+000
  0.0000000E+000
  0.0000000E+000
  0.0000000E+000
  0.0000000E+000
  0.0000000E+000
  0.0000000E+000
  0.0000000E+000
  0.0000000E+000
  0.0000000E+000
  0.0000000E+000
  0.0000000E+000
  0.0000000E+000
  0.0000000E+000
  0.0000000E+000
  0.0000000E+000
  0.0000000E+000
  0.0000000E+000
  0.0000000E+000
  0.0000000E+000
  0.0000000E+000
  0.0000000E+000
  0.0000000E+000
  0.0000000E+000
  0.0000000E+000
  0.0000000E+000
  0.0000000E+000
  0.0000000E+000
  0.0000000E+000
  0.0000000E+000
  0.0000000E+000
  0.0000000E+000
  0.0000000E+000
  0.0000000E+000
  0.0000000E+000
  0.0000000E+000
  0.0000000E+000
  0.0000000E+000
  0.0000000E+000
  0.0000000E+000
  0.0000000E+000
  0.0000000E+000
  0.0000000E+000
  0.0000000E+000
  0.0000000E+000
  0.0000000E+000
  0.0000000E+000
  0.0000000E+000
  0.0000000E+000
  0.0000000E+000
  0.0000000E+000
  0.0000000E+000
  0.0000000E+000
  0.0000000E+000
  0.0000000E+000
  0.0000000E+000
  0.0000000E+000
  0.0000000E+000
  0.0000000E+000
  0.0000000E+000
  0.0000000E+000
  0.0000000E+000
  0.0000000E+000
  0.0000000E+000
  0.0000000E+000
  0.0000000E+000
  0.0000000E+000
  0.0000000E+000
  0.0000000E+000
  0.0000000E+000
  0.0000000E+000
  0.0000000E+000
  0.0000000E+000
  0.0000000E+000
  0.0000000E+000
  0.0000000E+000
  0.0000000E+000
  0.0000000E+000
  0.0000000E+000
  0.0000000E+000
  0.0000000E+000
  0.0000000E+000
  0.0000000E+000
  0.0000000E+000
  0.0000000E+000
  0.0000000E+000
  0.0000000E+000
  0.0000000E+000
  0.0000000E+000
  0.0000000E+000
  0.0000000E+000
  0.0000000E+000
  0.0000000E+000
  0.0000000E+000
  0.0000000E+000
  0.0000000E+000
  0.0000000E+000
  0.0000000E+000
  0.0000000E+000
  0.0000000E+000
  0.0000000E+000
  0.0000000E+000
  0.0000000E+000
  0.0000000E+000
  0.0000000E+000
  0.0000000E+000
  0.0000000E+000
  0.0000000E+000
  0.0000000E+000
  0.0000000E+000
  0.0000000E+000
  0.0000000E+000
  0.0000000E+000
  0.0000000E+000
  0.0000000E+000
  0.0000000E+000
  0.0000000E+000
  0.0000000E+000
  0.0000000E+000
  0.0000000E+000
  0.0000000E+000
  0.0000000E+000
  0.0000000E+000
  0.0000000E+000
  0.0000000E+000
  0.0000000E+000
  0.0000000E+000
  0.0000000E+000
  0.0000000E+000
  0.0000000E+000
  0.0000000E+000
  0.0000000E+000
  0.0000000E+000
  0.0000000E+000
  0.0000000E+000
  0.0000000E+000
  0.0000000E+000
  0.0000000E+000
  0.0000000E+000
  0.0000000E+000
  0.0000000E+000
  0.0000000E+000
  0.0000000E+000
  0.0000000E+000
  0.0000000E+000
  0.0000000E+000
  0.0000000E+000
  0.0000000E+000
  0.0000000E+000
  0.0000000E+000
  0.0000000E+000
  0.0000000E+000
  0.0000000E+000
  0.0000000E+000
  0.0000000E+000
  0.0000000E+000
  0.0000000E+000
  0.0000000E+000
  0.0000000E+000
  0.0000000E+000
  0.0000000E+000
  0.0000000E+000
  0.0000000E+000
  0.0000000E+000
  0.0000000E+000
  0.0000000E+000
  0.0000000E+000
  0.0000000E+000
  0.0000000E+000
  0.0000000E+000
  0.0000000E+000
  0.0000000E+000
  0.0000000E+000
  0.0000000E+000
  0.0000000E+000
  0.0000000E+000
  0.0000000E+000
  0.0000000E+000
  0.0000000E+000
  0.0000000E+000
  0.0000000E+000
  0.0000000E+000
  0.0000000E+000
  0.0000000E+000
  0.0000000E+000
  0.0000000E+000
  0.0000000E+000
  0.0000000E+000
  0.0000000E+000
  0.0000000E+000
  0.0000000E+000
  0.0000000E+000
  0.0000000E+000
  0.0000000E+000
  0.0000000E+000
  0.0000000E+000
  0.0000000E+000
  0.0000000E+000
  0.0000000E+000
  0.0000000E+000
  0.0000000E+000
  0.0000000E+000
  0.0000000E+000
  0.0000000E+000
  0.0000000E+000
  0.0000000E+000
  0.0000000E+000
  0.0000000E+000
  0.0000000E+000
  0.0000000E+000
  0.0000000E+000
  0.0000000E+000
  0.0000000E+000
  0.0000000E+000
  0.0000000E+000
  0.0000000E+000
  0.0000000E+000
  0.0000000E+000
  0.0000000E+000
  0.0000000E+000
  0.0000000E+000
  0.0000000E+000
  0.0000000E+000
  0.0000000E+000
  0.0000000E+000
  0.0000000E+000
  0.0000000E+000
  0.0000000E+000
  0.0000000E+000
  0.0000000E+000
  0.0000000E+000
  0.0000000E+000
  0.0000000E+000
  0.0000000E+000
  0.0000000E+000
  0.0000000E+000
  0.0000000E+000
  0.0000000E+000
  0.0000000E+000
  0.0000000E+000
  0.0000000E+000
  0.0000000E+000
  0.0000000E+000
  0.0000000E+000
  0.0000000E+000
  0.0000000E+000
  0.0000000E+000
  0.0000000E+000
  0.0000000E+000
  0.0000000E+000
  0.0000000E+000
  0.0000000E+000
  0.0000000E+000
  0.0000000E+000
  0.0000000E+000
  0.0000000E+000
  0.0000000E+000
  0.0000000E+000
  0.0000000E+000
  0.0000000E+000
  0.0000000E+000
  0.0000000E+000
  0.0000000E+000
  0.0000000E+000
  0.0000000E+000
  0.0000000E+000
  0.0000000E+000
  0.0000000E+000
  0.0000000E+000
  0.0000000E+000
  0.0000000E+000
  0.0000000E+000
  0.0000000E+000
  0.0000000E+000
  0.0000000E+000
  0.0000000E+000
  0.0000000E+000
  0.0000000E+000
  0.0000000E+000
  0.0000000E+000
  0.0000000E+000
  0.0000000E+000
  0.0000000E+000
  0.0000000E+000
  0.0000000E+000
  0.0000000E+000
  0.0000000E+000
  0.0000000E+000
  0.0000000E+000
  0.0000000E+000
  0.0000000E+000
  0.0000000E+000
  0.0000000E+000
  0.0000000E+000
  0.0000000E+000
  0.0000000E+000
  0.0000000E+000
  0.0000000E+000
  0.0000000E+000
  0.0000000E+000
  0.0000000E+000
  0.0000000E+000
  0.0000000E+000
  0.0000000E+000
  0.0000000E+000
  0.0000000E+000
  0.0000000E+000
  0.0000000E+000
  0.0000000E+000
  0.0000000E+000
  0.0000000E+000
  0.0000000E+000
  0.0000000E+000
  0.0000000E+000
  0.0000000E+000
  0.0000000E+000
  0.0000000E+000
  0.0000000E+000
  0.0000000E+000
  0.0000000E+000
  0.0000000E+000
  0.0000000E+000
  0.0000000E+000
  0.0000000E+000
  0.0000000E+000
  0.0000000E+000
  0.0000000E+000
  0.0000000E+000
  0.0000000E+000
  0.0000000E+000
  0.0000000E+000
  0.0000000E+000
  0.0000000E+000
  0.0000000E+000
  0.0000000E+000
  0.0000000E+000
  0.0000000E+000
  0.0000000E+000
  0.0000000E+000
  0.0000000E+000
  0.0000000E+000
  0.0000000E+000
  0.0000000E+000
  0.0000000E+000
  0.0000000E+000
  0.0000000E+000
  0.0000000E+000
  0.0000000E+000
  0.0000000E+000
  0.0000000E+000
  0.0000000E+000
  0.0000000E+000
  0.0000000E+000
  0.0000000E+000
  0.0000000E+000
  0.0000000E+000
  0.0000000E+000
  0.0000000E+000
  0.0000000E+000
  0.0000000E+000
  0.0000000E+000
  0.0000000E+000
  0.0000000E+000
  0.0000000E+000
  0.0000000E+000
  0.0000000E+000
  0.0000000E+000
  0.0000000E+000
  0.0000000E+000
  0.0000000E+000
  0.0000000E+000
  0.0000000E+000
  0.0000000E+000
  0.0000000E+000
  0.0000000E+000
  0.0000000E+000
  0.0000000E+000
  0.0000000E+000
  0.0000000E+000
  0.0000000E+000
  0.0000000E+000
  0.0000000E+000
  0.0000000E+000
  0.0000000E+000
  0.0000000E+000
  0.0000000E+000
  0.0000000E+000
  0.0000000E+000
  0.0000000E+000
  0.0000000E+000
  0.0000000E+000
  0.0000000E+000
  0.0000000E+000
  0.0000000E+000
  0.0000000E+000
  0.0000000E+000
  0.0000000E+000
  0.0000000E+000
  0.0000000E+000
  0.0000000E+000
  0.0000000E+000
  0.0000000E+000
  0.0000000E+000
  0.0000000E+000
  0.0000000E+000
  0.0000000E+000
  0.0000000E+000
  0.0000000E+000
  0.0000000E+000
  0.0000000E+000
  0.0000000E+000
  0.0000000E+000
  0.0000000E+000
  0.0000000E+000
  0.0000000E+000
  0.0000000E+000
  0.0000000E+000
  0.0000000E+000
  0.0000000E+000
  0.0000000E+000
  0.0000000E+000
  0.0000000E+000
  0.0000000E+000
  0.0000000E+000
  0.0000000E+000
  0.0000000E+000
  0.0000000E+000
  0.0000000E+000
  0.0000000E+000
  0.0000000E+000
  0.0000000E+000
  0.0000000E+000
  0.0000000E+000
  0.0000000E+000
  0.0000000E+000
  0.0000000E+000
  0.0000000E+000
  0.0000000E+000
  0.0000000E+000
  0.0000000E+000
  0.0000000E+000
  0.0000000E+000
  0.0000000E+000
  0.0000000E+000
  0.0000000E+000
  0.0000000E+000
  0.0000000E+000
  0.0000000E+000
  0.0000000E+000
  0.0000000E+000
  0.0000000E+000
  0.0000000E+000
  0.0000000E+000
  0.0000000E+000
  0.0000000E+000
  0.0000000E+000
  0.0000000E+000
  0.0000000E+000
  0.0000000E+000
  0.0000000E+000
  0.0000000E+000
  0.0000000E+000
  0.0000000E+000
  0.0000000E+000
  0.0000000E+000
  0.0000000E+000
  0.0000000E+000
  0.0000000E+000
  0.0000000E+000
  0.0000000E+000
  0.0000000E+000
  0.0000000E+000
  0.0000000E+000
  0.0000000E+000
  0.0000000E+000
  0.0000000E+000
  0.0000000E+000
  0.0000000E+000
  0.0000000E+000
  0.0000000E+000
  0.0000000E+000
  0.0000000E+000
  0.0000000E+000
  0.0000000E+000
  0.0000000E+000
  0.0000000E+000
  0.0000000E+000
  0.0000000E+000
  0.0000000E+000
  0.0000000E+000
  0.0000000E+000
  0.0000000E+000
  0.0000000E+000
  0.0000000E+000
  0.0000000E+000
  0.0000000E+000
  0.0000000E+000
  0.0000000E+000
  0.0000000E+000
  0.0000000E+000
  0.0000000E+000
  0.0000000E+000
  0.0000000E+000
  0.0000000E+000
  0.0000000E+000
  0.0000000E+000
  0.0000000E+000
  0.0000000E+000
  0.0000000E+000
  0.0000000E+000
  0.0000000E+000
  0.0000000E+000
  0.0000000E+000
  0.0000000E+000
  0.0000000E+000
  0.0000000E+000
  0.0000000E+000
  0.0000000E+000
  0.0000000E+000
  0.0000000E+000
  0.0000000E+000
  0.0000000E+000
  0.0000000E+000
  0.0000000E+000
  0.0000000E+000
  0.0000000E+000
  0.0000000E+000
  0.0000000E+000
  0.0000000E+000
  0.0000000E+000
  0.0000000E+000
  0.0000000E+000
  0.0000000E+000
  0.0000000E+000
  0.0000000E+000
  0.0000000E+000
  0.0000000E+000
  0.0000000E+000
  0.0000000E+000
  0.0000000E+000
  0.0000000E+000
  0.0000000E+000
  0.0000000E+000
  0.0000000E+000
  0.0000000E+000
  0.0000000E+000
  0.0000000E+000
  0.0000000E+000
  0.0000000E+000
  0.0000000E+000
  0.0000000E+000
  0.0000000E+000
  0.0000000E+000
  0.0000000E+000
  0.0000000E+000
  0.0000000E+000
  0.0000000E+000
  0.0000000E+000
  0.0000000E+000
  0.0000000E+000
  0.0000000E+000
  0.0000000E+000
  0.0000000E+000
  0.0000000E+000
  0.0000000E+000
  0.0000000E+000
  0.0000000E+000
  0.0000000E+000
  0.0000000E+000
  0.0000000E+000
  0.0000000E+000
  0.0000000E+000
  0.0000000E+000
  0.0000000E+000
  0.0000000E+000
  0.0000000E+000
  0.0000000E+000
  0.0000000E+000
  0.0000000E+000
  0.0000000E+000
  0.0000000E+000
  0.0000000E+000
  0.0000000E+000
  0.0000000E+000
  0.0000000E+000
  0.0000000E+000
  0.0000000E+000
  0.0000000E+000
  0.0000000E+000
  0.0000000E+000
  0.0000000E+000
  0.0000000E+000
  0.0000000E+000
  0.0000000E+000
  0.0000000E+000
  0.0000000E+000
  0.0000000E+000
  0.0000000E+000
  0.0000000E+000
  0.0000000E+000
  0.0000000E+000
  0.0000000E+000
  0.0000000E+000
  0.0000000E+000
  0.0000000E+000
  0.0000000E+000
  0.0000000E+000
  0.0000000E+000
  0.0000000E+000
  0.0000000E+000
  0.0000000E+000
  0.0000000E+000
  0.0000000E+000
  0.0000000E+000
  0.0000000E+000
  0.0000000E+000
  0.0000000E+000
  0.0000000E+000
  0.0000000E+000
  0.0000000E+000
  0.0000000E+000
  0.0000000E+000
  0.0000000E+000
  0.0000000E+000
  0.0000000E+000
  0.0000000E+000
  0.0000000E+000
  0.0000000E+000
  0.0000000E+000
  0.0000000E+000
  0.0000000E+000
  0.0000000E+000
  0.0000000E+000
  0.0000000E+000
  0.0000000E+000
  0.0000000E+000
  0.0000000E+000
  0.0000000E+000
  0.0000000E+000
  0.0000000E+000
  0.0000000E+000
  0.0000000E+000
  0.0000000E+000
  0.0000000E+000
  0.0000000E+000
  0.0000000E+000
  0.0000000E+000
  0.0000000E+000
  0.0000000E+000
  0.0000000E+000
  0.0000000E+000
  0.0000000E+000
  0.0000000E+000
  0.0000000E+000
  0.0000000E+000
  0.0000000E+000
  0.0000000E+000
  0.0000000E+000
  0.0000000E+000
  0.0000000E+000
  0.0000000E+000
  0.0000000E+000
  0.0000000E+000
  0.0000000E+000
  0.0000000E+000
  0.0000000E+000
  0.0000000E+000
  0.0000000E+000
  0.0000000E+000
  0.0000000E+000
  0.0000000E+000
  0.0000000E+000
  0.0000000E+000
  0.0000000E+000
  0.0000000E+000
  0.0000000E+000
  0.0000000E+000
  0.0000000E+000
  0.0000000E+000
  0.0000000E+000
  0.0000000E+000
  0.0000000E+000
  0.0000000E+000
  0.0000000E+000
  0.0000000E+000
  0.0000000E+000
  0.0000000E+000
  0.0000000E+000
  0.0000000E+000
  0.0000000E+000
  0.0000000E+000
  0.0000000E+000
  0.0000000E+000
  0.0000000E+000
  0.0000000E+000
  0.0000000E+000
  0.0000000E+000
  0.0000000E+000
  0.0000000E+000
  0.0000000E+000
  0.0000000E+000
  0.0000000E+000
  0.0000000E+000
  0.0000000E+000
  0.0000000E+000
  0.0000000E+000
  0.0000000E+000
  0.0000000E+000
  0.0000000E+000
  0.0000000E+000
  0.0000000E+000
  0.0000000E+000
  0.0000000E+000
  0.0000000E+000
  0.0000000E+000
  0.0000000E+000
  0.0000000E+000
  0.0000000E+000
  0.0000000E+000
  0.0000000E+000
  0.0000000E+000
  0.0000000E+000
  0.0000000E+000
  0.0000000E+000
  0.0000000E+000
  0.0000000E+000
  0.0000000E+000
  0.0000000E+000
  0.0000000E+000
  0.0000000E+000
  0.0000000E+000
  0.0000000E+000
  0.0000000E+000
  0.0000000E+000
  0.0000000E+000
  0.0000000E+000
  0.0000000E+000
  0.0000000E+000
  0.0000000E+000
  0.0000000E+000
  0.0000000E+000
  0.0000000E+000
  0.0000000E+000
  0.0000000E+000
  0.0000000E+000
  0.0000000E+000
  0.0000000E+000
  0.0000000E+000
  0.0000000E+000
  0.0000000E+000
  0.0000000E+000
  0.0000000E+000
  0.0000000E+000
  0.0000000E+000
  0.0000000E+000
  0.0000000E+000
  0.0000000E+000
  0.0000000E+000
  0.0000000E+000
  0.0000000E+000
  0.0000000E+000
  0.0000000E+000
  0.0000000E+000
  0.0000000E+000
  0.0000000E+000
  0.0000000E+000
  0.0000000E+000
  0.0000000E+000
  0.0000000E+000
  0.0000000E+000
  0.0000000E+000
  0.0000000E+000
  0.0000000E+000
  0.0000000E+000
  0.0000000E+000
  0.0000000E+000
  0.0000000E+000
  0.0000000E+000
  0.0000000E+000
  0.0000000E+000
  0.0000000E+000
  0.0000000E+000
  0.0000000E+000
  0.0000000E+000
  0.0000000E+000
  0.0000000E+000
  0.0000000E+000
  0.0000000E+000
  0.0000000E+000
  0.0000000E+000
  0.0000000E+000
  0.0000000E+000
  0.0000000E+000
  0.0000000E+000
  0.0000000E+000
  0.0000000E+000
  0.0000000E+000
  0.0000000E+000
  0.0000000E+000
  0.0000000E+000
  0.0000000E+000
  0.0000000E+000
  0.0000000E+000
  0.0000000E+000
  0.0000000E+000
  0.0000000E+000
  0.0000000E+000
  0.0000000E+000
  0.0000000E+000
  0.0000000E+000
  0.0000000E+000
  0.0000000E+000
  0.0000000E+000
  0.0000000E+000
  0.0000000E+000
  0.0000000E+000
  0.0000000E+000
  0.0000000E+000
  0.0000000E+000
  0.0000000E+000
  0.0000000E+000
  0.0000000E+000
  0.0000000E+000
  0.0000000E+000
  0.0000000E+000
  0.0000000E+000
  0.0000000E+000
  0.0000000E+000
  0.0000000E+000
  0.0000000E+000
  0.0000000E+000
  0.0000000E+000
  0.0000000E+000
  0.0000000E+000
  0.0000000E+000
  0.0000000E+000
  0.0000000E+000
  0.0000000E+000
  0.0000000E+000
  0.0000000E+000
  0.0000000E+000
  0.0000000E+000
  0.0000000E+000
  0.0000000E+000
  0.0000000E+000
  0.0000000E+000
  0.0000000E+000
  0.0000000E+000
  0.0000000E+000
  0.0000000E+000
  0.0000000E+000
  0.0000000E+000
  0.0000000E+000
  0.0000000E+000
  0.0000000E+000
  0.0000000E+000
  0.0000000E+000
  0.0000000E+000
  0.0000000E+000
  0.0000000E+000
  0.0000000E+000
  0.0000000E+000
  0.0000000E+000
  0.0000000E+000
  0.0000000E+000
  0.0000000E+000
  0.0000000E+000
  0.0000000E+000
  0.0000000E+000
  0.0000000E+000
  0.0000000E+000
  0.0000000E+000
  0.0000000E+000
  0.0000000E+000
  0.0000000E+000
  0.0000000E+000
  0.0000000E+000
  0.0000000E+000
  0.0000000E+000
  0.0000000E+000
  0.0000000E+000
  0.0000000E+000
  0.0000000E+000
  0.0000000E+000
  0.0000000E+000
  0.0000000E+000
  0.0000000E+000
  0.0000000E+000
  0.0000000E+000
  0.0000000E+000
  0.0000000E+000
  0.0000000E+000
  0.0000000E+000
  0.0000000E+000
  0.0000000E+000
  0.0000000E+000
  0.0000000E+000
  0.0000000E+000
  0.0000000E+000
  0.0000000E+000
  0.0000000E+000
  0.0000000E+000
  0.0000000E+000
  0.0000000E+000
  0.0000000E+000
  0.0000000E+000
  0.0000000E+000
  0.0000000E+000
  0.0000000E+000
  0.0000000E+000
  0.0000000E+000
  0.0000000E+000
  0.0000000E+000
  0.0000000E+000
  0.0000000E+000
  0.0000000E+000
  0.0000000E+000
  0.0000000E+000
  0.0000000E+000
  0.0000000E+000
  0.0000000E+000
  0.0000000E+000
  0.0000000E+000
  0.0000000E+000
  0.0000000E+000
  0.0000000E+000
  0.0000000E+000
  0.0000000E+000
  0.0000000E+000
  0.0000000E+000
  0.0000000E+000
  0.0000000E+000
  0.0000000E+000
  0.0000000E+000
  0.0000000E+000
  0.0000000E+000
  0.0000000E+000
  0.0000000E+000
  0.0000000E+000
  0.0000000E+000
  0.0000000E+000
  0.0000000E+000
  0.0000000E+000
  0.0000000E+000
  0.0000000E+000
  0.0000000E+000
  0.0000000E+000
  0.0000000E+000
  0.0000000E+000
  0.0000000E+000
  0.0000000E+000
  0.0000000E+000
  0.0000000E+000
  0.0000000E+000
  0.0000000E+000
  0.0000000E+000
  0.0000000E+000
  0.0000000E+000
  0.0000000E+000
  0.0000000E+000
  0.0000000E+000
  0.0000000E+000
  0.0000000E+000
  0.0000000E+000
  0.0000000E+000
  0.0000000E+000
  0.0000000E+000
  0.0000000E+000
  0.0000000E+000
  0.0000000E+000
  0.0000000E+000
  0.0000000E+000
  0.0000000E+000
  0.0000000E+000
  0.0000000E+000
  0.0000000E+000
  0.0000000E+000
  0.0000000E+000
  0.0000000E+000
  0.0000000E+000
  0.0000000E+000
  0.0000000E+000
  0.0000000E+000
  0.0000000E+000
  0.0000000E+000
  0.0000000E+000
  0.0000000E+000
  0.0000000E+000
  0.0000000E+000
  0.0000000E+000
  0.0000000E+000
  0.0000000E+000
  0.0000000E+000
  0.0000000E+000
  0.0000000E+000
  0.0000000E+000
  0.0000000E+000
  0.0000000E+000
  0.0000000E+000
  0.0000000E+000
  0.0000000E+000
  0.0000000E+000
  0.0000000E+000
  0.0000000E+000
  0.0000000E+000
  0.0000000E+000
  0.0000000E+000
  0.0000000E+000
  0.0000000E+000
  0.0000000E+000
  0.0000000E+000
  0.0000000E+000
  0.0000000E+000
  0.0000000E+000
  0.0000000E+000
  0.0000000E+000
  0.0000000E+000
  0.0000000E+000
  0.0000000E+000
  0.0000000E+000
  0.0000000E+000
  0.0000000E+000
  0.0000000E+000
  0.0000000E+000
  0.0000000E+000
  0.0000000E+000
  0.0000000E+000
  0.0000000E+000
  0.0000000E+000
  0.0000000E+000
  0.0000000E+000
  0.0000000E+000
  0.0000000E+000
  0.0000000E+000
  0.0000000E+000
  0.0000000E+000
  0.0000000E+000
  0.0000000E+000
  0.0000000E+000
  0.0000000E+000
  0.0000000E+000
  0.0000000E+000
  0.0000000E+000
  0.0000000E+000
  0.0000000E+000
  0.0000000E+000
  0.0000000E+000
  0.0000000E+000
  0.0000000E+000
  0.0000000E+000
  0.0000000E+000
  0.0000000E+000
  0.0000000E+000
  0.0000000E+000
  0.0000000E+000
  0.0000000E+000
  0.0000000E+000
  0.0000000E+000
  0.0000000E+000
  0.0000000E+000
  0.0000000E+000
  0.0000000E+000
  0.0000000E+000
  0.0000000E+000
  0.0000000E+000
  0.0000000E+000
  0.0000000E+000
  0.0000000E+000
  0.0000000E+000
  0.0000000E+000
  0.0000000E+000
  0.0000000E+000
  0.0000000E+000
  0.0000000E+000
  0.0000000E+000
  0.0000000E+000
  0.0000000E+000
  0.0000000E+000
  0.0000000E+000
  0.0000000E+000
  0.0000000E+000
  0.0000000E+000
  0.0000000E+000
  0.0000000E+000
  0.0000000E+000
  0.0000000E+000
  0.0000000E+000
  0.0000000E+000
  0.0000000E+000
  0.0000000E+000
  0.0000000E+000
  0.0000000E+000
  0.0000000E+000
  0.0000000E+000
  0.0000000E+000
  0.0000000E+000
  0.0000000E+000
  0.0000000E+000
  0.0000000E+000
  0.0000000E+000
  0.0000000E+000
  0.0000000E+000
  0.0000000E+000
  0.0000000E+000
  0.0000000E+000
  0.0000000E+000
  0.0000000E+000
  0.0000000E+000
  0.0000000E+000
  0.0000000E+000
  0.0000000E+000
  0.0000000E+000
  0.0000000E+000
  0.0000000E+000
  0.0000000E+000
  0.0000000E+000
  0.0000000E+000
  0.0000000E+000
  0.0000000E+000
  0.0000000E+000
  0.0000000E+000
  0.0000000E+000
  0.0000000E+000
  0.0000000E+000
  0.0000000E+000
  0.0000000E+000
  0.0000000E+000
  0.0000000E+000
  0.0000000E+000
  0.0000000E+000
  0.0000000E+000
  0.0000000E+000
  0.0000000E+000
  0.0000000E+000
  0.0000000E+000
  0.0000000E+000
  0.0000000E+000
  0.0000000E+000
  0.0000000E+000
  0.0000000E+000
  0.0000000E+000
  0.0000000E+000
  0.0000000E+000
  0.0000000E+000
  0.0000000E+000
  0.0000000E+000
  0.0000000E+000
  0.0000000E+000
  0.0000000E+000
  0.0000000E+000
  0.0000000E+000
  0.0000000E+000
  0.0000000E+000
  0.0000000E+000
  0.0000000E+000
  0.0000000E+000
  0.0000000E+000
  0.0000000E+000
  0.0000000E+000
  0.0000000E+000
  0.0000000E+000
  0.0000000E+000
  0.0000000E+000
  0.0000000E+000
  0.0000000E+000
  0.0000000E+000
  0.0000000E+000
  0.0000000E+000
  0.0000000E+000
  0.0000000E+000
  0.0000000E+000
  0.0000000E+000
  0.0000000E+000
  0.0000000E+000
  0.0000000E+000
  0.0000000E+000
  0.0000000E+000
  0.0000000E+000
  0.0000000E+000
  0.0000000E+000
  0.0000000E+000
  0.0000000E+000
  0.0000000E+000
  0.0000000E+000
  0.0000000E+000
  0.0000000E+000
  0.0000000E+000
  0.0000000E+000
  0.0000000E+000
  0.0000000E+000
  0.0000000E+000
  0.0000000E+000
  0.0000000E+000
  0.0000000E+000
  0.0000000E+000
  0.0000000E+000
  0.0000000E+000
  0.0000000E+000
  0.0000000E+000
  0.0000000E+000
  0.0000000E+000
  0.0000000E+000
  0.0000000E+000
  0.0000000E+000
  0.0000000E+000
  0.0000000E+000
  0.0000000E+000
  0.0000000E+000
  0.0000000E+000
  0.0000000E+000
  0.0000000E+000
  0.0000000E+000
  0.0000000E+000
  0.0000000E+000
  0.0000000E+000
  0.0000000E+000
  0.0000000E+000
  0.0000000E+000
  0.0000000E+000
  0.0000000E+000
  0.0000000E+000
  0.0000000E+000
  0.0000000E+000
  0.0000000E+000
  0.0000000E+000
  0.0000000E+000
  0.0000000E+000
  0.0000000E+000
  0.0000000E+000
  0.0000000E+000
  0.0000000E+000
  0.0000000E+000
  0.0000000E+000
  0.0000000E+000
  0.0000000E+000
  0.0000000E+000
  0.0000000E+000
  0.0000000E+000
  0.0000000E+000
  0.0000000E+000
  0.0000000E+000
  0.0000000E+000
  0.0000000E+000
  0.0000000E+000
  0.0000000E+000
  0.0000000E+000
  0.0000000E+000
  0.0000000E+000
  0.0000000E+000
  0.0000000E+000
  0.0000000E+000
  0.0000000E+000
  0.0000000E+000
  0.0000000E+000
  0.0000000E+000
  0.0000000E+000
  0.0000000E+000
  0.0000000E+000
  0.0000000E+000
  0.0000000E+000
  0.0000000E+000
  0.0000000E+000
  0.0000000E+000
  0.0000000E+000
  0.0000000E+000
  0.0000000E+000
  0.0000000E+000
  0.0000000E+000
  0.0000000E+000
  0.0000000E+000
  0.0000000E+000
  0.0000000E+000
  0.0000000E+000
  0.0000000E+000
  0.0000000E+000
  0.0000000E+000
  0.0000000E+000
  0.0000000E+000
  0.0000000E+000
  0.0000000E+000
  0.0000000E+000
  0.0000000E+000
  0.0000000E+000
  0.0000000E+000
  0.0000000E+000
  0.0000000E+000
  0.0000000E+000
  0.0000000E+000
  0.0000000E+000
  0.0000000E+000
  0.0000000E+000
  0.0000000E+000
  0.0000000E+000
  0.0000000E+000
  0.0000000E+000
  0.0000000E+000
  0.0000000E+000
  0.0000000E+000
  0.0000000E+000
  0.0000000E+000
  0.0000000E+000
  0.0000000E+000
  0.0000000E+000
  0.0000000E+000
  0.0000000E+000
  0.0000000E+000
  0.0000000E+000
  0.0000000E+000
  0.0000000E+000
  0.0000000E+000
  0.0000000E+000
  0.0000000E+000
  0.0000000E+000
  0.0000000E+000
  0.0000000E+000
  0.0000000E+000
  0.0000000E+000
  0.0000000E+000
  0.0000000E+000
  0.0000000E+000
  0.0000000E+000
  0.0000000E+000
  0.0000000E+000
  0.0000000E+000
  0.0000000E+000
  0.0000000E+000
  0.0000000E+000
  0.0000000E+000
  0.0000000E+000
  0.0000000E+000
  0.0000000E+000
  0.0000000E+000
  0.0000000E+000
  0.0000000E+000
  0.0000000E+000
  0.0000000E+000
  0.0000000E+000
  0.0000000E+000
  0.0000000E+000
  0.0000000E+000
  0.0000000E+000
  0.0000000E+000
  0.0000000E+000
  0.0000000E+000
  0.0000000E+000
  0.0000000E+000
  0.0000000E+000
  0.0000000E+000
  0.0000000E+000
  0.0000000E+000
  0.0000000E+000
  0.0000000E+000
  0.0000000E+000
  0.0000000E+000
  0.0000000E+000
  0.0000000E+000
  0.0000000E+000
  0.0000000E+000
  0.0000000E+000
  0.0000000E+000
  0.0000000E+000
  0.0000000E+000
  0.0000000E+000
  0.0000000E+000
  0.0000000E+000
  0.0000000E+000
  0.0000000E+000
  0.0000000E+000
  0.0000000E+000
  0.0000000E+000
  0.0000000E+000
  0.0000000E+000
  0.0000000E+000
  0.0000000E+000
  0.0000000E+000
  0.0000000E+000
  0.0000000E+000
  0.0000000E+000
  0.0000000E+000
  0.0000000E+000
  0.0000000E+000
  0.0000000E+000
  0.0000000E+000
  0.0000000E+000
  0.0000000E+000
  0.0000000E+000
  0.0000000E+000
  0.0000000E+000
  0.0000000E+000
  0.0000000E+000
  0.0000000E+000
  0.0000000E+000
  0.0000000E+000
  0.0000000E+000
  0.0000000E+000
  0.0000000E+000
  0.0000000E+000
  0.0000000E+000
  0.0000000E+000
  0.0000000E+000
  0.0000000E+000
  0.0000000E+000
  0.0000000E+000
  0.0000000E+000
  0.0000000E+000
  0.0000000E+000
  0.0000000E+000
  0.0000000E+000
  0.0000000E+000
  0.0000000E+000
  0.0000000E+000
  0.0000000E+000
  0.0000000E+000
  0.0000000E+000
  0.0000000E+000
  0.0000000E+000
  0.0000000E+000
  0.0000000E+000
  0.0000000E+000
  0.0000000E+000
  0.0000000E+000
  0.0000000E+000
  0.0000000E+000
  0.0000000E+000
  0.0000000E+000
  0.0000000E+000
  0.0000000E+000
  0.0000000E+000
  0.0000000E+000
  0.0000000E+000
  0.0000000E+000
  0.0000000E+000
  0.0000000E+000
  0.0000000E+000
  0.0000000E+000
  0.0000000E+000
  0.0000000E+000
  0.0000000E+000
  0.0000000E+000
  0.0000000E+000
  0.0000000E+000
  0.0000000E+000
  0.0000000E+000
  0.0000000E+000
  0.0000000E+000
  0.0000000E+000
  0.0000000E+000
  0.0000000E+000
  0.0000000E+000
  0.0000000E+000
  0.0000000E+000
  0.0000000E+000
  0.0000000E+000
  0.0000000E+000
  0.0000000E+000
  0.0000000E+000
  0.0000000E+000
  0.0000000E+000
  0.0000000E+000
  0.0000000E+000
  0.0000000E+000
  0.0000000E+000
  0.0000000E+000
  0.0000000E+000
  0.0000000E+000
  0.0000000E+000
  0.0000000E+000
  0.0000000E+000
  0.0000000E+000
  0.0000000E+000
  0.0000000E+000
  0.0000000E+000
  0.0000000E+000
  0.0000000E+000
  0.0000000E+000
  0.0000000E+000
  0.0000000E+000
  0.0000000E+000
  0.0000000E+000
  0.0000000E+000
  0.0000000E+000
  0.0000000E+000
  0.0000000E+000
  0.0000000E+000
  0.0000000E+000
  0.0000000E+000
  0.0000000E+000
  0.0000000E+000
  0.0000000E+000
  0.0000000E+000
  0.0000000E+000
  0.0000000E+000
  0.0000000E+000
  0.0000000E+000
  0.0000000E+000
  0.0000000E+000
  0.0000000E+000
  0.0000000E+000
  0.0000000E+000
  0.0000000E+000
  0.0000000E+000
  0.0000000E+000
  0.0000000E+000
  0.0000000E+000
  0.0000000E+000
  0.0000000E+000
  0.0000000E+000
  0.0000000E+000
  0.0000000E+000
  0.0000000E+000
  0.0000000E+000
  0.0000000E+000
  0.0000000E+000
  0.0000000E+000
  0.0000000E+000
  0.0000000E+000
  0.0000000E+000
  0.0000000E+000
  0.0000000E+000
  0.0000000E+000
  0.0000000E+000
  0.0000000E+000
  0.0000000E+000
  0.0000000E+000
  0.0000000E+000
  0.0000000E+000
  0.0000000E+000
  0.0000000E+000
  0.0000000E+000
  0.0000000E+000
  0.0000000E+000
  0.0000000E+000
  0.0000000E+000
  0.0000000E+000
  0.0000000E+000
  0.0000000E+000
  0.0000000E+000
  0.0000000E+000
  0.0000000E+000
  0.0000000E+000
  0.0000000E+000
  0.0000000E+000
  0.0000000E+000
  0.0000000E+000
  0.0000000E+000
  0.0000000E+000
  0.0000000E+000
  0.0000000E+000
  0.0000000E+000
  0.0000000E+000
  0.0000000E+000
  0.0000000E+000
  0.0000000E+000
  0.0000000E+000
  0.0000000E+000
  0.0000000E+000
  0.0000000E+000
  0.0000000E+000
  0.0000000E+000
  0.0000000E+000
  0.0000000E+000
  0.0000000E+000
  0.0000000E+000
  0.0000000E+000
  0.0000000E+000
  0.0000000E+000
  0.0000000E+000
  0.0000000E+000
  0.0000000E+000
  0.0000000E+000
  0.0000000E+000
  0.0000000E+000
  0.0000000E+000
  0.0000000E+000
  0.0000000E+000
  0.0000000E+000
  0.0000000E+000
  0.0000000E+000
  0.0000000E+000
  0.0000000E+000
  0.0000000E+000
  0.0000000E+000
  0.0000000E+000
  0.0000000E+000
  0.0000000E+000
  0.0000000E+000
  0.0000000E+000
  0.0000000E+000
  0.0000000E+000
  0.0000000E+000
  0.0000000E+000
  0.0000000E+000
  0.0000000E+000
  0.0000000E+000
  0.0000000E+000
  0.0000000E+000
  0.0000000E+000
  0.0000000E+000
  0.0000000E+000
  0.0000000E+000
  0.0000000E+000
  0.0000000E+000
  0.0000000E+000
  0.0000000E+000
  0.0000000E+000
  0.0000000E+000
  0.0000000E+000
  0.0000000E+000
  0.0000000E+000
  0.0000000E+000
  0.0000000E+000
  0.0000000E+000
  0.0000000E+000
  0.0000000E+000
  0.0000000E+000
  0.0000000E+000
  0.0000000E+000
  0.0000000E+000
  0.0000000E+000
  0.0000000E+000
  0.0000000E+000
  0.0000000E+000
  0.0000000E+000
  0.0000000E+000
  0.0000000E+000
  0.0000000E+000
  0.0000000E+000
  0.0000000E+000
  0.0000000E+000
  0.0000000E+000
  0.0000000E+000
  0.0000000E+000
  0.0000000E+000
  0.0000000E+000
  0.0000000E+000
  0.0000000E+000
  0.0000000E+000
  0.0000000E+000
  0.0000000E+000
  0.0000000E+000
  0.0000000E+000
  0.0000000E+000
  0.0000000E+000
  0.0000000E+000
  0.0000000E+000
  0.0000000E+000
  0.0000000E+000
  0.0000000E+000
  0.0000000E+000
  0.0000000E+000
  0.0000000E+000
  0.0000000E+000
  0.0000000E+000
  0.0000000E+000
  0.0000000E+000
  0.0000000E+000
  0.0000000E+000
  0.0000000E+000
  0.0000000E+000
  0.0000000E+000
  0.0000000E+000
  0.0000000E+000
  0.0000000E+000
  0.0000000E+000
  0.0000000E+000
  0.0000000E+000
  0.0000000E+000
  0.0000000E+000
  0.0000000E+000
  0.0000000E+000
  0.0000000E+000
  0.0000000E+000
  0.0000000E+000
  0.0000000E+000
  0.0000000E+000
  0.0000000E+000
  0.0000000E+000
  0.0000000E+000
  0.0000000E+000
  0.0000000E+000
  0.0000000E+000
  0.0000000E+000
  0.0000000E+000
  0.0000000E+000
  0.0000000E+000
  0.0000000E+000
  0.0000000E+000
  0.0000000E+000
  0.0000000E+000
  0.0000000E+000
  0.0000000E+000
  0.0000000E+000
  0.0000000E+000
  0.0000000E+000
  0.0000000E+000
  0.0000000E+000
  0.0000000E+000
  0.0000000E+000
  0.0000000E+000
  0.0000000E+000
  0.0000000E+000
  0.0000000E+000
  0.0000000E+000
  0.0000000E+000
  0.0000000E+000
  0.0000000E+000
  0.0000000E+000
  0.0000000E+000
  0.0000000E+000
  0.0000000E+000
  0.0000000E+000
  0.0000000E+000
  0.0000000E+000
  0.0000000E+000
  0.0000000E+000
  0.0000000E+000
  0.0000000E+000
  0.0000000E+000
  0.0000000E+000
  0.0000000E+000
  0.0000000E+000
  0.0000000E+000
  0.0000000E+000
  0.0000000E+000
  0.0000000E+000
  0.0000000E+000
  0.0000000E+000
  0.0000000E+000
  0.0000000E+000
  0.0000000E+000
  0.0000000E+000
  0.0000000E+000
  0.0000000E+000
  0.0000000E+000
  0.0000000E+000
  0.0000000E+000
  0.0000000E+000
  0.0000000E+000
  0.0000000E+000
  0.0000000E+000
  0.0000000E+000
  0.0000000E+000
  0.0000000E+000
  0.0000000E+000
  0.0000000E+000
  0.0000000E+000
  0.0000000E+000
  0.0000000E+000
  0.0000000E+000
  0.0000000E+000
  0.0000000E+000
  0.0000000E+000
  0.0000000E+000
  0.0000000E+000
  0.0000000E+000
  0.0000000E+000
  0.0000000E+000
  0.0000000E+000
  0.0000000E+000
  0.0000000E+000
  0.0000000E+000
  0.0000000E+000
  0.0000000E+000
  0.0000000E+000
  0.0000000E+000
  0.0000000E+000
  0.0000000E+000
  0.0000000E+000
  0.0000000E+000
  0.0000000E+000
  0.0000000E+000
  0.0000000E+000
  0.0000000E+000
  0.0000000E+000
  0.0000000E+000
  0.0000000E+000
  0.0000000E+000
  0.0000000E+000
  0.0000000E+000
  0.0000000E+000
  0.0000000E+000
  0.0000000E+000
  0.0000000E+000
  0.0000000E+000
  0.0000000E+000
  0.0000000E+000
  0.0000000E+000
  0.0000000E+000
  0.0000000E+000
  0.0000000E+000
  0.0000000E+000
  0.0000000E+000
  0.0000000E+000
  0.0000000E+000
  0.0000000E+000
  0.0000000E+000
  0.0000000E+000
  0.0000000E+000
  0.0000000E+000
  0.0000000E+000
  0.0000000E+000
  0.0000000E+000
  0.0000000E+000
  0.0000000E+000
  0.0000000E+000
  0.0000000E+000
  0.0000000E+000
  0.0000000E+000
  0.0000000E+000
  0.0000000E+000
  0.0000000E+000
  0.0000000E+000
  0.0000000E+000
  0.0000000E+000
  0.0000000E+000
  0.0000000E+000
  0.0000000E+000
  0.0000000E+000
  0.0000000E+000
  0.0000000E+000
  0.0000000E+000
  0.0000000E+000
  0.0000000E+000
  0.0000000E+000
  0.0000000E+000
  0.0000000E+000
  0.0000000E+000
  0.0000000E+000
  0.0000000E+000
  0.0000000E+000
  0.0000000E+000
  0.0000000E+000
  0.0000000E+000
  0.0000000E+000
  0.0000000E+000
  0.0000000E+000
  0.0000000E+000
  0.0000000E+000
  0.0000000E+000
  0.0000000E+000
  0.0000000E+000
  0.0000000E+000
  0.0000000E+000
  0.0000000E+000
  0.0000000E+000
  0.0000000E+000
  0.0000000E+000
  0.0000000E+000
  0.0000000E+000
  0.0000000E+000
  0.0000000E+000
  0.0000000E+000
  0.0000000E+000
  0.0000000E+000
  0.0000000E+000
  0.0000000E+000
  0.0000000E+000
  0.0000000E+000
  0.0000000E+000
  0.0000000E+000
  0.0000000E+000
  0.0000000E+000
  0.0000000E+000
  0.0000000E+000
  0.0000000E+000
  0.0000000E+000
  0.0000000E+000
  0.0000000E+000
  0.0000000E+000
  0.0000000E+000
  0.0000000E+000
  0.0000000E+000
  0.0000000E+000
  0.0000000E+000
  0.0000000E+000
  0.0000000E+000
  0.0000000E+000
  0.0000000E+000
  0.0000000E+000
  0.0000000E+000
  0.0000000E+000
  0.0000000E+000
  0.0000000E+000
  0.0000000E+000
  0.0000000E+000
  0.0000000E+000
  0.0000000E+000
  0.0000000E+000
  0.0000000E+000
  0.0000000E+000
  0.0000000E+000
  0.0000000E+000
  0.0000000E+000
  0.0000000E+000
  0.0000000E+000
  0.0000000E+000
  0.0000000E+000
  0.0000000E+000
  0.0000000E+000
  0.0000000E+000
  0.0000000E+000
  0.0000000E+000
  0.0000000E+000
  0.0000000E+000
  0.0000000E+000
  0.0000000E+000
  0.0000000E+000
  0.0000000E+000
  0.0000000E+000
  0.0000000E+000
  0.0000000E+000
  0.0000000E+000
  0.0000000E+000
  0.0000000E+000
  0.0000000E+000
  0.0000000E+000
  0.0000000E+000
  0.0000000E+000
  0.0000000E+000
  0.0000000E+000
  0.0000000E+000
  0.0000000E+000
  0.0000000E+000
  0.0000000E+000
  0.0000000E+000
  0.0000000E+000
  0.0000000E+000
  0.0000000E+000
  0.0000000E+000
  0.0000000E+000
  0.0000000E+000
  0.0000000E+000
  0.0000000E+000
  0.0000000E+000
  0.0000000E+000
  0.0000000E+000
  0.0000000E+000
  0.0000000E+000
  0.0000000E+000
  0.0000000E+000
  0.0000000E+000
  0.0000000E+000
  0.0000000E+000
  0.0000000E+000
  0.0000000E+000
  0.0000000E+000
  0.0000000E+000
  0.0000000E+000
  0.0000000E+000
  0.0000000E+000
  0.0000000E+000
  0.0000000E+000
  0.0000000E+000
  0.0000000E+000
  0.0000000E+000
  0.0000000E+000
  0.0000000E+000
  0.0000000E+000
  0.0000000E+000
  0.0000000E+000
  0.0000000E+000
  0.0000000E+000
  0.0000000E+000
  0.0000000E+000
  0.0000000E+000
  0.0000000E+000
  0.0000000E+000
  0.0000000E+000
  0.0000000E+000
  0.0000000E+000
  0.0000000E+000
  0.0000000E+000
  0.0000000E+000
  0.0000000E+000
  0.0000000E+000
  0.0000000E+000
  0.0000000E+000
  0.0000000E+000
  0.0000000E+000
  0.0000000E+000
  0.0000000E+000
  0.0000000E+000
  0.0000000E+000
  0.0000000E+000
  0.0000000E+000
  0.0000000E+000
  0.0000000E+000
  0.0000000E+000
  0.0000000E+000
  0.0000000E+000
  0.0000000E+000
  0.0000000E+000
  0.0000000E+000
  0.0000000E+000
  0.0000000E+000
  0.0000000E+000
  0.0000000E+000
  0.0000000E+000
  0.0000000E+000
  0.0000000E+000
  0.0000000E+000
  0.0000000E+000
  0.0000000E+000
  0.0000000E+000
  0.0000000E+000
  0.0000000E+000
  0.0000000E+000
  0.0000000E+000
  0.0000000E+000
  0.0000000E+000
  0.0000000E+000
  0.0000000E+000
  0.0000000E+000
  0.0000000E+000
  0.0000000E+000
  0.0000000E+000
  0.0000000E+000
  0.0000000E+000
  0.0000000E+000
  0.0000000E+000
  0.0000000E+000
  0.0000000E+000
  0.0000000E+000
  0.0000000E+000
  0.0000000E+000
  0.0000000E+000
  0.0000000E+000
  0.0000000E+000
  0.0000000E+000
  0.0000000E+000
  0.0000000E+000
  0.0000000E+000
  0.0000000E+000
  0.0000000E+000
  0.0000000E+000
  0.0000000E+000
  0.0000000E+000
  0.0000000E+000
  0.0000000E+000
  0.0000000E+000
  0.0000000E+000
  0.0000000E+000
  0.0000000E+000
  0.0000000E+000
  0.0000000E+000
  0.0000000E+000
  0.0000000E+000
  0.0000000E+000
  0.0000000E+000
  0.0000000E+000
  0.0000000E+000
  0.0000000E+000
  0.0000000E+000
  0.0000000E+000
  0.0000000E+000
  0.0000000E+000
  0.0000000E+000
  0.0000000E+000
  0.0000000E+000
  0.0000000E+000
  0.0000000E+000
  0.0000000E+000
  0.0000000E+000
  0.0000000E+000
  0.0000000E+000
  0.0000000E+000
  0.0000000E+000
  0.0000000E+000
  0.0000000E+000
  0.0000000E+000
  0.0000000E+000
  0.0000000E+000
  0.0000000E+000
  0.0000000E+000
  0.0000000E+000
  0.0000000E+000
  0.0000000E+000
  0.0000000E+000
  0.0000000E+000
  0.0000000E+000
  0.0000000E+000
  0.0000000E+000
  0.0000000E+000
  0.0000000E+000
  0.0000000E+000
  0.0000000E+000
  0.0000000E+000
  0.0000000E+000
  0.0000000E+000
  0.0000000E+000
  0.0000000E+000
  0.0000000E+000
  0.0000000E+000
  0.0000000E+000
  0.0000000E+000
  0.0000000E+000
  0.0000000E+000
  0.0000000E+000
  0.0000000E+000
  0.0000000E+000
  0.0000000E+000
  0.0000000E+000
  0.0000000E+000
  0.0000000E+000
  0.0000000E+000
  0.0000000E+000
  0.0000000E+000
  0.0000000E+000
  0.0000000E+000
  0.0000000E+000
  0.0000000E+000
  0.0000000E+000
  0.0000000E+000
  0.0000000E+000
  0.0000000E+000
  0.0000000E+000
  0.0000000E+000
  0.0000000E+000
  0.0000000E+000
  0.0000000E+000
  0.0000000E+000
  0.0000000E+000
  0.0000000E+000
  0.0000000E+000
  0.0000000E+000
  0.0000000E+000
  0.0000000E+000
  0.0000000E+000
  0.0000000E+000
  0.0000000E+000
  0.0000000E+000
  0.0000000E+000
  0.0000000E+000
  0.0000000E+000
  0.0000000E+000
  0.0000000E+000
  0.0000000E+000
  0.0000000E+000
  0.0000000E+000
  0.0000000E+000
  0.0000000E+000
  0.0000000E+000
  0.0000000E+000
  0.0000000E+000
  0.0000000E+000
  0.0000000E+000
  0.0000000E+000
  0.0000000E+000
  0.0000000E+000
  0.0000000E+000
  0.0000000E+000
  0.0000000E+000
  0.0000000E+000
  0.0000000E+000
  0.0000000E+000
  0.0000000E+000
  0.0000000E+000
  0.0000000E+000
  0.0000000E+000
  0.0000000E+000
  0.0000000E+000
  0.0000000E+000
  0.0000000E+000
  0.0000000E+000
  0.0000000E+000
  0.0000000E+000
  0.0000000E+000
  0.0000000E+000
  0.0000000E+000
  0.0000000E+000
  0.0000000E+000
  0.0000000E+000
  0.0000000E+000
  0.0000000E+000
  0.0000000E+000
  0.0000000E+000
  0.0000000E+000
  0.0000000E+000
  0.0000000E+000
  0.0000000E+000
  0.0000000E+000
  0.0000000E+000
  0.0000000E+000
  0.0000000E+000
  0.0000000E+000
  0.0000000E+000
  0.0000000E+000
  0.0000000E+000
  0.0000000E+000
  0.0000000E+000
  0.0000000E+000
  0.0000000E+000
  0.0000000E+000
  0.0000000E+000
  0.0000000E+000
  0.0000000E+000
  0.0000000E+000
  0.0000000E+000
  0.0000000E+000
  0.0000000E+000
  0.0000000E+000
  0.0000000E+000
  0.0000000E+000
  0.0000000E+000
  0.0000000E+000
  0.0000000E+000
  0.0000000E+000
  0.0000000E+000
  0.0000000E+000
  0.0000000E+000
  0.0000000E+000
  0.0000000E+000
  0.0000000E+000
  0.0000000E+000
  0.0000000E+000
  0.0000000E+000
  0.0000000E+000
  0.0000000E+000
  0.0000000E+000
  0.0000000E+000
  0.0000000E+000
  0.0000000E+000
  0.0000000E+000
  0.0000000E+000
  0.0000000E+000
  0.0000000E+000
  0.0000000E+000
  0.0000000E+000
  0.0000000E+000
  0.0000000E+000
  0.0000000E+000
  0.0000000E+000
  0.0000000E+000
  0.0000000E+000
  0.0000000E+000
  0.0000000E+000
  0.0000000E+000
  0.0000000E+000
  0.0000000E+000
  0.0000000E+000
  0.0000000E+000
  0.0000000E+000
  0.0000000E+000
  0.0000000E+000
  0.0000000E+000
  0.0000000E+000
  0.0000000E+000
  0.0000000E+000
  0.0000000E+000
  0.0000000E+000
  0.0000000E+000
  0.0000000E+000
  0.0000000E+000
  0.0000000E+000
  0.0000000E+000
  0.0000000E+000
  0.0000000E+000
  0.0000000E+000
  0.0000000E+000
  0.0000000E+000
  0.0000000E+000
  0.0000000E+000
  0.0000000E+000
  0.0000000E+000
  0.0000000E+000
  0.0000000E+000
  0.0000000E+000
  0.0000000E+000
  0.0000000E+000
  0.0000000E+000
  0.0000000E+000
  0.0000000E+000
  0.0000000E+000
  0.0000000E+000
  0.0000000E+000
  0.0000000E+000
  0.0000000E+000
  0.0000000E+000
  0.0000000E+000
  0.0000000E+000
  0.0000000E+000
  0.0000000E+000
  0.0000000E+000
  0.0000000E+000
  0.0000000E+000
  0.0000000E+000
  0.0000000E+000
  0.0000000E+000
  0.0000000E+000
  0.0000000E+000
  0.0000000E+000
  0.0000000E+000
  0.0000000E+000
  0.0000000E+000
  0.0000000E+000
  0.0000000E+000
  0.0000000E+000
  0.0000000E+000
  0.0000000E+000
  0.0000000E+000
  0.0000000E+000
  0.0000000E+000
  0.0000000E+000
  0.0000000E+000
  0.0000000E+000
  0.0000000E+000
  0.0000000E+000
  0.0000000E+000
  0.0000000E+000
  0.0000000E+000
  0.0000000E+000
  0.0000000E+000
  0.0000000E+000
  0.0000000E+000
  0.0000000E+000
  0.0000000E+000
  0.0000000E+000
  0.0000000E+000
  0.0000000E+000
  0.0000000E+000
  0.0000000E+000
  0.0000000E+000
  0.0000000E+000
  0.0000000E+000
  0.0000000E+000
  0.0000000E+000
  0.0000000E+000
  0.0000000E+000
  0.0000000E+000
  0.0000000E+000
  0.0000000E+000
  0.0000000E+000
  0.0000000E+000
  0.0000000E+000
  0.0000000E+000
  0.0000000E+000
  0.0000000E+000
  0.0000000E+000
  0.0000000E+000
  0.0000000E+000
  0.0000000E+000
  0.0000000E+000
  0.0000000E+000
  0.0000000E+000
  0.0000000E+000
  0.0000000E+000
  0.0000000E+000
  0.0000000E+000
  0.0000000E+000
  0.0000000E+000
  0.0000000E+000
  0.0000000E+000
  0.0000000E+000
  0.0000000E+000
  0.0000000E+000
  0.0000000E+000
  0.0000000E+000
  0.0000000E+000
  0.0000000E+000
  0.0000000E+000
  0.0000000E+000
  0.0000000E+000
  0.0000000E+000
  0.0000000E+000
  0.0000000E+000
  0.0000000E+000
  0.0000000E+000
  0.0000000E+000
  0.0000000E+000
  0.0000000E+000
  0.0000000E+000
  0.0000000E+000
  0.0000000E+000
  0.0000000E+000
  0.0000000E+000
  0.0000000E+000
  0.0000000E+000
  0.0000000E+000
  0.0000000E+000
  0.0000000E+000
  0.0000000E+000
  0.0000000E+000
  0.0000000E+000
  0.0000000E+000
  0.0000000E+000
  0.0000000E+000
  0.0000000E+000
  0.0000000E+000
  0.0000000E+000
  0.0000000E+000
  0.0000000E+000
  0.0000000E+000
  0.0000000E+000
  0.0000000E+000
  0.0000000E+000
  0.0000000E+000
  0.0000000E+000
  0.0000000E+000
  0.0000000E+000
  0.0000000E+000
  0.0000000E+000
  0.0000000E+000
  0.0000000E+000
  0.0000000E+000
  0.0000000E+000
  0.0000000E+000
  0.0000000E+000
  0.0000000E+000
  0.0000000E+000
  0.0000000E+000
  0.0000000E+000
  0.0000000E+000
  0.0000000E+000
  0.0000000E+000
  0.0000000E+000
  0.0000000E+000
  0.0000000E+000
  0.0000000E+000
  0.0000000E+000
  0.0000000E+000
  0.0000000E+000
  0.0000000E+000
  0.0000000E+000
  0.0000000E+000
  0.0000000E+000
  0.0000000E+000
  0.0000000E+000
  0.0000000E+000
  0.0000000E+000
  0.0000000E+000
  0.0000000E+000
  0.0000000E+000
  0.0000000E+000
  0.0000000E+000
  0.0000000E+000
  0.0000000E+000
  0.0000000E+000
  0.0000000E+000
  0.0000000E+000
  0.0000000E+000
  0.0000000E+000
  0.0000000E+000
  0.0000000E+000
  0.0000000E+000
  0.0000000E+000
  0.0000000E+000
  0.0000000E+000
  0.0000000E+000
  0.0000000E+000
  0.0000000E+000
  0.0000000E+000
  0.0000000E+000
  0.0000000E+000
  0.0000000E+000
  0.0000000E+000
  0.0000000E+000
  0.0000000E+000
  0.0000000E+000
  0.0000000E+000
  0.0000000E+000
  0.0000000E+000
  0.0000000E+000
  0.0000000E+000
  0.0000000E+000
  0.0000000E+000
  0.0000000E+000
  0.0000000E+000
  0.0000000E+000
  0.0000000E+000
  0.0000000E+000
  0.0000000E+000
  0.0000000E+000
  0.0000000E+000
  0.0000000E+000
  0.0000000E+000
  0.0000000E+000
  0.0000000E+000
  0.0000000E+000
  0.0000000E+000
  0.0000000E+000
  0.0000000E+000
  0.0000000E+000
  0.0000000E+000
  0.0000000E+000
  0.0000000E+000
  0.0000000E+000
  0.0000000E+000
  0.0000000E+000
  0.0000000E+000
  0.0000000E+000
  0.0000000E+000
  0.0000000E+000
  0.0000000E+000
  0.0000000E+000
  0.0000000E+000
  0.0000000E+000
  0.0000000E+000
  0.0000000E+000
  0.0000000E+000
  0.0000000E+000
  0.0000000E+000
  0.0000000E+000
  0.0000000E+000
  0.0000000E+000
  0.0000000E+000
  0.0000000E+000
  0.0000000E+000
  0.0000000E+000
  0.0000000E+000
  0.0000000E+000
  0.0000000E+000
  0.0000000E+000
  0.0000000E+000
  0.0000000E+000
  0.0000000E+000
  0.0000000E+000
  0.0000000E+000
  0.0000000E+000
  0.0000000E+000
  0.0000000E+000
  0.0000000E+000
  0.0000000E+000
  0.0000000E+000
  0.0000000E+000
  0.0000000E+000
  0.0000000E+000
  0.0000000E+000
  0.0000000E+000
  0.0000000E+000
  0.0000000E+000
  0.0000000E+000
  0.0000000E+000
  0.0000000E+000
  0.0000000E+000
  0.0000000E+000
  0.0000000E+000
  0.0000000E+000
  0.0000000E+000
  0.0000000E+000
  0.0000000E+000
  0.0000000E+000
  0.0000000E+000
  0.0000000E+000
  0.0000000E+000
  0.0000000E+000
  0.0000000E+000
  0.0000000E+000
  0.0000000E+000
  0.0000000E+000
  0.0000000E+000
  0.0000000E+000
  0.0000000E+000
  0.0000000E+000
  0.0000000E+000
  0.0000000E+000
  0.0000000E+000
  0.0000000E+000
  0.0000000E+000
  0.0000000E+000
  0.0000000E+000
  0.0000000E+000
  0.0000000E+000
  0.0000000E+000
  0.0000000E+000
  0.0000000E+000
  0.0000000E+000
  0.0000000E+000
  0.0000000E+000
  0.0000000E+000
  0.0000000E+000
  0.0000000E+000
  0.0000000E+000
  0.0000000E+000
  0.0000000E+000
  0.0000000E+000
  0.0000000E+000
  0.0000000E+000
  0.0000000E+000
  0.0000000E+000
  0.0000000E+000
  0.0000000E+000
  0.0000000E+000
  0.0000000E+000
  0.0000000E+000
  0.0000000E+000
  0.0000000E+000
  0.0000000E+000
  0.0000000E+000
  0.0000000E+000
  0.0000000E+000
  0.0000000E+000
  0.0000000E+000
  0.0000000E+000
  0.0000000E+000
  0.0000000E+000
  0.0000000E+000
  0.0000000E+000
  0.0000000E+000
  0.0000000E+000
  0.0000000E+000
  0.0000000E+000
  0.0000000E+000
  0.0000000E+000
  0.0000000E+000
  0.0000000E+000
  0.0000000E+000
  0.0000000E+000
  0.0000000E+000
  0.0000000E+000
  0.0000000E+000
  0.0000000E+000
  0.0000000E+000
  0.0000000E+000
  0.0000000E+000
  0.0000000E+000
  0.0000000E+000
  0.0000000E+000
  0.0000000E+000
  0.0000000E+000
  0.0000000E+000
  0.0000000E+000
  0.0000000E+000
  0.0000000E+000
  0.0000000E+000
  0.0000000E+000
  0.0000000E+000
  0.0000000E+000
  0.0000000E+000
  0.0000000E+000
  0.0000000E+000
  0.0000000E+000
  0.0000000E+000
  0.0000000E+000
  0.0000000E+000
  0.0000000E+000
  0.0000000E+000
  0.0000000E+000
  0.0000000E+000
  0.0000000E+000
  0.0000000E+000
  0.0000000E+000
  0.0000000E+000
  0.0000000E+000
  0.0000000E+000
  0.0000000E+000
  0.0000000E+000
  0.0000000E+000
  0.0000000E+000
  0.0000000E+000
  0.0000000E+000
  0.0000000E+000
  0.0000000E+000
  0.0000000E+000
  0.0000000E+000
  0.0000000E+000
  0.0000000E+000
  0.0000000E+000
  0.0000000E+000
  0.0000000E+000
  0.0000000E+000
  0.0000000E+000
  0.0000000E+000
  0.0000000E+000
  0.0000000E+000
  0.0000000E+000
  0.0000000E+000
  0.0000000E+000
  0.0000000E+000
  0.0000000E+000
  0.0000000E+000
  0.0000000E+000
  0.0000000E+000
  0.0000000E+000
  0.0000000E+000
  0.0000000E+000
  0.0000000E+000
  0.0000000E+000
  0.0000000E+000
  0.0000000E+000
  0.0000000E+000
  0.0000000E+000
  0.0000000E+000
  0.0000000E+000
  0.0000000E+000
  0.0000000E+000
  0.0000000E+000
  0.0000000E+000
  0.0000000E+000
  0.0000000E+000
  0.0000000E+000
  0.0000000E+000
  0.0000000E+000
  0.0000000E+000
  0.0000000E+000
  0.0000000E+000
  0.0000000E+000
  0.0000000E+000
  0.0000000E+000
  0.0000000E+000
  0.0000000E+000
  0.0000000E+000
  0.0000000E+000
  0.0000000E+000
  0.0000000E+000
  0.0000000E+000
  0.0000000E+000
  0.0000000E+000
  0.0000000E+000
  0.0000000E+000
  0.0000000E+000
  0.0000000E+000
  0.0000000E+000
  0.0000000E+000
  0.0000000E+000
  0.0000000E+000
  0.0000000E+000
  0.0000000E+000
  0.0000000E+000
  0.0000000E+000
  0.0000000E+000
  0.0000000E+000
  0.0000000E+000
  0.0000000E+000
  0.0000000E+000
  0.0000000E+000
  0.0000000E+000
  0.0000000E+000
  0.0000000E+000
  0.0000000E+000
  0.0000000E+000
  0.0000000E+000
  0.0000000E+000
  0.0000000E+000
  0.0000000E+000
  0.0000000E+000
  0.0000000E+000
  0.0000000E+000
  0.0000000E+000
  0.0000000E+000
  0.0000000E+000
  0.0000000E+000
  0.0000000E+000
  0.0000000E+000
  0.0000000E+000
  0.0000000E+000
  0.0000000E+000
  0.0000000E+000
  0.0000000E+000
  0.0000000E+000
  0.0000000E+000
  0.0000000E+000
  0.0000000E+000
  0.0000000E+000
  0.0000000E+000
  0.0000000E+000
  0.0000000E+000
  0.0000000E+000
  0.0000000E+000
  0.0000000E+000
  0.0000000E+000
  0.0000000E+000
  0.0000000E+000
  0.0000000E+000
  0.0000000E+000
  0.0000000E+000
  0.0000000E+000
  0.0000000E+000
  0.0000000E+000
  0.0000000E+000
  0.0000000E+000
  0.0000000E+000
  0.0000000E+000
  0.0000000E+000
  0.0000000E+000
  0.0000000E+000
  0.0000000E+000
  0.0000000E+000
  0.0000000E+000
  0.0000000E+000
  0.0000000E+000
  0.0000000E+000
  0.0000000E+000
  0.0000000E+000
  0.0000000E+000
  0.0000000E+000
  0.0000000E+000
  0.0000000E+000
  0.0000000E+000
  0.0000000E+000
  0.0000000E+000
  0.0000000E+000
  0.0000000E+000
  0.0000000E+000
  0.0000000E+000
  0.0000000E+000
  0.0000000E+000
  0.0000000E+000
  0.0000000E+000
  0.0000000E+000
  0.0000000E+000
  0.0000000E+000
  0.0000000E+000
  0.0000000E+000
  0.0000000E+000
  0.0000000E+000
  0.0000000E+000
  0.0000000E+000
  0.0000000E+000
  0.0000000E+000
  0.0000000E+000
  0.0000000E+000
  0.0000000E+000
  0.0000000E+000
  0.0000000E+000
  0.0000000E+000
  0.0000000E+000
  0.0000000E+000
  0.0000000E+000
  0.0000000E+000
  0.0000000E+000
  0.0000000E+000
  0.0000000E+000
  0.0000000E+000
  0.0000000E+000
  0.0000000E+000
  0.0000000E+000
  0.0000000E+000
  0.0000000E+000
  0.0000000E+000
  0.0000000E+000
  0.0000000E+000
  0.0000000E+000
  0.0000000E+000
  0.0000000E+000
  0.0000000E+000
  0.0000000E+000
  0.0000000E+000
  0.0000000E+000
  0.0000000E+000
  0.0000000E+000
  0.0000000E+000
  0.0000000E+000
  0.0000000E+000
  0.0000000E+000
  0.0000000E+000
  0.0000000E+000
  0.0000000E+000
  0.0000000E+000
  0.0000000E+000
  0.0000000E+000
  0.0000000E+000
  0.0000000E+000
  0.0000000E+000
  0.0000000E+000
  0.0000000E+000
  0.0000000E+000
  0.0000000E+000
  0.0000000E+000
  0.0000000E+000
  0.0000000E+000
  0.0000000E+000
  0.0000000E+000
  0.0000000E+000
  0.0000000E+000
  0.0000000E+000
  0.0000000E+000
  0.0000000E+000
  0.0000000E+000
  0.0000000E+000
  0.0000000E+000
  0.0000000E+000
  0.0000000E+000
  0.0000000E+000
  0.0000000E+000
  0.0000000E+000
  0.0000000E+000
  0.0000000E+000
  0.0000000E+000
  0.0000000E+000
  0.0000000E+000
  0.0000000E+000
  0.0000000E+000
  0.0000000E+000
  0.0000000E+000
  0.0000000E+000
  0.0000000E+000
  0.0000000E+000
  0.0000000E+000
  0.0000000E+000
  0.0000000E+000
  0.0000000E+000
  0.0000000E+000
  0.0000000E+000
  0.0000000E+000
  0.0000000E+000
  0.0000000E+000
  0.0000000E+000
  0.0000000E+000
  0.0000000E+000
  0.0000000E+000
  0.0000000E+000
  0.0000000E+000
  0.0000000E+000
  0.0000000E+000
  0.0000000E+000
  0.0000000E+000
  0.0000000E+000
  0.0000000E+000
  0.0000000E+000
  0.0000000E+000
  0.0000000E+000
  0.0000000E+000
  0.0000000E+000
  0.0000000E+000
  0.0000000E+000
  0.0000000E+000
  0.0000000E+000
  0.0000000E+000
  0.0000000E+000
  0.0000000E+000
  0.0000000E+000
  0.0000000E+000
  0.0000000E+000
  0.0000000E+000
  0.0000000E+000
  0.0000000E+000
  0.0000000E+000
  0.0000000E+000
  0.0000000E+000
  0.0000000E+000
  0.0000000E+000
  0.0000000E+000
  0.0000000E+000
  0.0000000E+000
  0.0000000E+000
  0.0000000E+000
  0.0000000E+000
  0.0000000E+000
  0.0000000E+000
  0.0000000E+000
  0.0000000E+000
  0.0000000E+000
  0.0000000E+000
  0.0000000E+000
  0.0000000E+000
  0.0000000E+000
  0.0000000E+000
  0.0000000E+000
  0.0000000E+000
  0.0000000E+000
  0.0000000E+000
  0.0000000E+000
  0.0000000E+000
  0.0000000E+000
  0.0000000E+000
  0.0000000E+000
  0.0000000E+000
  0.0000000E+000
  0.0000000E+000
  0.0000000E+000
  0.0000000E+000
  0.0000000E+000
  0.0000000E+000
  0.0000000E+000
  0.0000000E+000
  0.0000000E+000
  0.0000000E+000
  0.0000000E+000
  0.0000000E+000
  0.0000000E+000
  0.0000000E+000
  0.0000000E+000
  0.0000000E+000
  0.0000000E+000
  0.0000000E+000
  0.0000000E+000
  0.0000000E+000
  0.0000000E+000
  0.0000000E+000
  0.0000000E+000
  0.0000000E+000
  0.0000000E+000
  0.0000000E+000
  0.0000000E+000
  0.0000000E+000
  0.0000000E+000
  0.0000000E+000
  0.0000000E+000
  0.0000000E+000
  0.0000000E+000
  0.0000000E+000
  0.0000000E+000
  0.0000000E+000
  0.0000000E+000
  0.0000000E+000
  0.0000000E+000
  0.0000000E+000
  0.0000000E+000
  0.0000000E+000
  0.0000000E+000
  0.0000000E+000
  0.0000000E+000
  0.0000000E+000
  0.0000000E+000
  0.0000000E+000
  0.0000000E+000
  0.0000000E+000
  0.0000000E+000
  0.0000000E+000
  0.0000000E+000
  0.0000000E+000
  0.0000000E+000
  0.0000000E+000
  0.0000000E+000
  0.0000000E+000
  0.0000000E+000
  0.0000000E+000
  0.0000000E+000
  0.0000000E+000
  0.0000000E+000
  0.0000000E+000
  0.0000000E+000
  0.0000000E+000
  0.0000000E+000
  0.0000000E+000
  0.0000000E+000
  0.0000000E+000
  0.0000000E+000
  0.0000000E+000
  0.0000000E+000
  0.0000000E+000
  0.0000000E+000
  0.0000000E+000
  0.0000000E+000
  0.0000000E+000
  0.0000000E+000
  0.0000000E+000
  0.0000000E+000
  0.0000000E+000
  0.0000000E+000
  0.0000000E+000
  0.0000000E+000
  0.0000000E+000
  0.0000000E+000
  0.0000000E+000
  0.0000000E+000
  0.0000000E+000
  0.0000000E+000
  0.0000000E+000
  0.0000000E+000
  0.0000000E+000
  0.0000000E+000
  0.0000000E+000
  0.0000000E+000
  0.0000000E+000
  0.0000000E+000
  0.0000000E+000
  0.0000000E+000
  0.0000000E+000
  0.0000000E+000
  0.0000000E+000
  0.0000000E+000
  0.0000000E+000
  0.0000000E+000
  0.0000000E+000
  0.0000000E+000
  0.0000000E+000
  0.0000000E+000
  0.0000000E+000
  0.0000000E+000
  0.0000000E+000
  0.0000000E+000
  0.0000000E+000
  0.0000000E+000
  0.0000000E+000
  0.0000000E+000
  0.0000000E+000
  0.0000000E+000
  0.0000000E+000
  0.0000000E+000
  0.0000000E+000
  0.0000000E+000
  0.0000000E+000
  0.0000000E+000
  0.0000000E+000
  0.0000000E+000
  0.0000000E+000
  0.0000000E+000
  0.0000000E+000
  0.0000000E+000
  0.0000000E+000
  0.0000000E+000
  0.0000000E+000
  0.0000000E+000
  0.0000000E+000
  0.0000000E+000
  0.0000000E+000
  0.0000000E+000
  0.0000000E+000
  0.0000000E+000
  0.0000000E+000
  0.0000000E+000
  0.0000000E+000
  0.0000000E+000
  0.0000000E+000
  0.0000000E+000
  0.0000000E+000
  0.0000000E+000
  0.0000000E+000
  0.0000000E+000
  0.0000000E+000
  0.0000000E+000
  0.0000000E+000
  0.0000000E+000
  0.0000000E+000
  0.0000000E+000
  0.0000000E+000
  0.0000000E+000
  0.0000000E+000
  0.0000000E+000
  0.0000000E+000
  0.0000000E+000
  0.0000000E+000
  0.0000000E+000
  0.0000000E+000
  0.0000000E+000
  0.0000000E+000
  0.0000000E+000
  0.0000000E+000
  0.0000000E+000
  0.0000000E+000
  0.0000000E+000
  0.0000000E+000
  0.0000000E+000
  0.0000000E+000
  0.0000000E+000
  0.0000000E+000
  0.0000000E+000
  0.0000000E+000
  0.0000000E+000
  0.0000000E+000
  0.0000000E+000
  0.0000000E+000
  0.0000000E+000
  0.0000000E+000
  0.0000000E+000
  0.0000000E+000
  0.0000000E+000
  0.0000000E+000
  0.0000000E+000
  0.0000000E+000
  0.0000000E+000
  0.0000000E+000
  0.0000000E+000
  0.0000000E+000
  0.0000000E+000
  0.0000000E+000
  0.0000000E+000
  0.0000000E+000
  0.0000000E+000
  0.0000000E+000
  0.0000000E+000
  0.0000000E+000
  0.0000000E+000
  0.0000000E+000
  0.0000000E+000
  0.0000000E+000
  0.0000000E+000
  0.0000000E+000
  0.0000000E+000
  0.0000000E+000
  0.0000000E+000
  0.0000000E+000
  0.0000000E+000
  0.0000000E+000
  0.0000000E+000
  0.0000000E+000
  0.0000000E+000
  0.0000000E+000
  0.0000000E+000
  0.0000000E+000
  0.0000000E+000
  0.0000000E+000
  0.0000000E+000
  0.0000000E+000
  0.0000000E+000
  0.0000000E+000
  0.0000000E+000
  0.0000000E+000
  0.0000000E+000
  0.0000000E+000
  0.0000000E+000
  0.0000000E+000
  0.0000000E+000
  0.0000000E+000
  0.0000000E+000
  0.0000000E+000
  0.0000000E+000
  0.0000000E+000
  0.0000000E+000
  0.0000000E+000
  0.0000000E+000
  0.0000000E+000
  0.0000000E+000
  0.0000000E+000
  0.0000000E+000
  0.0000000E+000
  0.0000000E+000
  0.0000000E+000
  0.0000000E+000
  0.0000000E+000
  0.0000000E+000
  0.0000000E+000
  0.0000000E+000
  0.0000000E+000
  0.0000000E+000
  0.0000000E+000
  0.0000000E+000
  0.0000000E+000
  0.0000000E+000
  0.0000000E+000
  0.0000000E+000
  0.0000000E+000
  0.0000000E+000
  0.0000000E+000
  0.0000000E+000
  0.0000000E+000
  0.0000000E+000
  0.0000000E+000
  0.0000000E+000
  0.0000000E+000
  0.0000000E+000
  0.0000000E+000
  0.0000000E+000
  0.0000000E+000
  0.0000000E+000
  0.0000000E+000
  0.0000000E+000
  0.0000000E+000
  0.0000000E+000
  0.0000000E+000
  0.0000000E+000
  0.0000000E+000
  0.0000000E+000
  0.0000000E+000
  0.0000000E+000
  0.0000000E+000
  0.0000000E+000
  0.0000000E+000
  0.0000000E+000
  0.0000000E+000
  0.0000000E+000
  0.0000000E+000
  0.0000000E+000
  0.0000000E+000
  0.0000000E+000
  0.0000000E+000
  0.0000000E+000
  0.0000000E+000
  0.0000000E+000
  0.0000000E+000
  0.0000000E+000
  0.0000000E+000
  0.0000000E+000
  0.0000000E+000
  0.0000000E+000
  0.0000000E+000
  0.0000000E+000
  0.0000000E+000
  0.0000000E+000
  0.0000000E+000
  0.0000000E+000
  0.0000000E+000
  0.0000000E+000
  0.0000000E+000
  0.0000000E+000
  0.0000000E+000
  0.0000000E+000
  0.0000000E+000
  0.0000000E+000
  0.0000000E+000
  0.0000000E+000
  0.0000000E+000
  0.0000000E+000
  0.0000000E+000
  0.0000000E+000
  0.0000000E+000
  0.0000000E+000
  0.0000000E+000
  0.0000000E+000
  0.0000000E+000
  0.0000000E+000
  0.0000000E+000
  0.0000000E+000
  0.0000000E+000
  0.0000000E+000
  0.0000000E+000
  0.0000000E+000
  0.0000000E+000
  0.0000000E+000
  0.0000000E+000
  0.0000000E+000
  0.0000000E+000
  0.0000000E+000
  0.0000000E+000
  0.0000000E+000
  0.0000000E+000
  0.0000000E+000
  0.0000000E+000
  0.0000000E+000
  0.0000000E+000
  0.0000000E+000
  0.0000000E+000
  0.0000000E+000
  0.0000000E+000
  0.0000000E+000
  0.0000000E+000
  0.0000000E+000
  0.0000000E+000
  0.0000000E+000
  0.0000000E+000
  0.0000000E+000
  0.0000000E+000
  0.0000000E+000
  0.0000000E+000
  0.0000000E+000
  0.0000000E+000
  0.0000000E+000
  0.0000000E+000
  0.0000000E+000
  0.0000000E+000
  0.0000000E+000
  0.0000000E+000
  0.0000000E+000
  0.0000000E+000
  0.0000000E+000
  0.0000000E+000
  0.0000000E+000
  0.0000000E+000
  0.0000000E+000
  0.0000000E+000
  0.0000000E+000
  0.0000000E+000
  0.0000000E+000
  0.0000000E+000
  0.0000000E+000
  0.0000000E+000
  0.0000000E+000
  0.0000000E+000
  0.0000000E+000
  0.0000000E+000
  0.0000000E+000
  0.0000000E+000
  0.0000000E+000
  0.0000000E+000
  0.0000000E+000
  0.0000000E+000
  0.0000000E+000
  0.0000000E+000
  0.0000000E+000
  0.0000000E+000
  0.0000000E+000
  0.0000000E+000
  0.0000000E+000
  0.0000000E+000
  0.0000000E+000
  0.0000000E+000
  0.0000000E+000
  0.0000000E+000
  0.0000000E+000
  0.0000000E+000
  0.0000000E+000
  0.0000000E+000
  0.0000000E+000
  0.0000000E+000
  0.0000000E+000
  0.0000000E+000
  0.0000000E+000
  0.0000000E+000
  0.0000000E+000
  0.0000000E+000
  0.0000000E+000
  0.0000000E+000
  0.0000000E+000
  0.0000000E+000
  0.0000000E+000
  0.0000000E+000
  0.0000000E+000
  0.0000000E+000
  0.0000000E+000
  0.0000000E+000
  0.0000000E+000
  0.0000000E+000
  0.0000000E+000
  0.0000000E+000
  0.0000000E+000
  0.0000000E+000
  0.0000000E+000
  0.0000000E+000
  0.0000000E+000
  0.0000000E+000
  0.0000000E+000
  0.0000000E+000
  0.0000000E+000
  0.0000000E+000
  0.0000000E+000
  0.0000000E+000
  0.0000000E+000
  0.0000000E+000
  0.0000000E+000
  0.0000000E+000
  0.0000000E+000
  0.0000000E+000
  0.0000000E+000
  0.0000000E+000
  0.0000000E+000
  0.0000000E+000
  0.0000000E+000
  0.0000000E+000
  0.0000000E+000
  0.0000000E+000
  0.0000000E+000
  0.0000000E+000
  0.0000000E+000
  0.0000000E+000
  0.0000000E+000
  0.0000000E+000
  0.0000000E+000
  0.0000000E+000
  0.0000000E+000
  0.0000000E+000
  0.0000000E+000
  0.0000000E+000
  0.0000000E+000
  0.0000000E+000
  0.0000000E+000
  0.0000000E+000
  0.0000000E+000
  0.0000000E+000
  0.0000000E+000
  0.0000000E+000
  0.0000000E+000
  0.0000000E+000
  0.0000000E+000
  0.0000000E+000
  0.0000000E+000
  0.0000000E+000
  0.0000000E+000
  0.0000000E+000
  0.0000000E+000
  0.0000000E+000
  0.0000000E+000
  0.0000000E+000
  0.0000000E+000
  0.0000000E+000
  0.0000000E+000
  0.0000000E+000
  0.0000000E+000
  0.0000000E+000
  0.0000000E+000
  0.0000000E+000
  0.0000000E+000
  0.0000000E+000
  0.0000000E+000
  0.0000000E+000
  0.0000000E+000
  0.0000000E+000
  0.0000000E+000
  0.0000000E+000
  0.0000000E+000
  0.0000000E+000
  0.0000000E+000
  0.0000000E+000
  0.0000000E+000
  0.0000000E+000
  0.0000000E+000
  0.0000000E+000
  0.0000000E+000
  0.0000000E+000
  0.0000000E+000
  0.0000000E+000
  0.0000000E+000
  0.0000000E+000
  0.0000000E+000
  0.0000000E+000
  0.0000000E+000
  0.0000000E+000
  0.0000000E+000
  0.0000000E+000
  0.0000000E+000
  0.0000000E+000
  0.0000000E+000
  0.0000000E+000
  0.0000000E+000
  0.0000000E+000
  0.0000000E+000
  0.0000000E+000
  0.0000000E+000
  0.0000000E+000
  0.0000000E+000
  0.0000000E+000
  0.0000000E+000
  0.0000000E+000
  0.0000000E+000
  0.0000000E+000
  0.0000000E+000
  0.0000000E+000
  0.0000000E+000
  0.0000000E+000
  0.0000000E+000
  0.0000000E+000
  0.0000000E+000
  0.0000000E+000
  0.0000000E+000
  0.0000000E+000
  0.0000000E+000
  0.0000000E+000
  0.0000000E+000
  0.0000000E+000
  0.0000000E+000
  0.0000000E+000
  0.0000000E+000
  0.0000000E+000
  0.0000000E+000
  0.0000000E+000
  0.0000000E+000
  0.0000000E+000
  0.0000000E+000
  0.0000000E+000
  0.0000000E+000
  0.0000000E+000
  0.0000000E+000
  0.0000000E+000
  0.0000000E+000
  0.0000000E+000
  0.0000000E+000
  0.0000000E+000
  0.0000000E+000
  0.0000000E+000
  0.0000000E+000
  0.0000000E+000
  0.0000000E+000
  0.0000000E+000
  0.0000000E+000
  0.0000000E+000
  0.0000000E+000
  0.0000000E+000
  0.0000000E+000
  0.0000000E+000
  0.0000000E+000
  0.0000000E+000
  0.0000000E+000
  0.0000000E+000
  0.0000000E+000
  0.0000000E+000
  0.0000000E+000
  0.0000000E+000
  0.0000000E+000
  0.0000000E+000
  0.0000000E+000
  0.0000000E+000
  0.0000000E+000
  0.0000000E+000
  0.0000000E+000
  0.0000000E+000
  0.0000000E+000
  0.0000000E+000
  0.0000000E+000
  0.0000000E+000
  0.0000000E+000
  0.0000000E+000
  0.0000000E+000
  0.0000000E+000
  0.0000000E+000
  0.0000000E+000
  0.0000000E+000
  0.0000000E+000
  0.0000000E+000
  0.0000000E+000
  0.0000000E+000
  0.0000000E+000
  0.0000000E+000
  0.0000000E+000
  0.0000000E+000
  0.0000000E+000
  0.0000000E+000
  0.0000000E+000
  0.0000000E+000
  0.0000000E+000
  0.0000000E+000
  0.0000000E+000
  0.0000000E+000
  0.0000000E+000
  0.0000000E+000
  0.0000000E+000
  0.0000000E+000
  0.0000000E+000
  0.0000000E+000
  0.0000000E+000
  0.0000000E+000
  0.0000000E+000
  0.0000000E+000
  0.0000000E+000
  0.0000000E+000
  0.0000000E+000
  0.0000000E+000
  0.0000000E+000
  0.0000000E+000
  0.0000000E+000
  0.0000000E+000
  0.0000000E+000
  0.0000000E+000
  0.0000000E+000
  0.0000000E+000
  0.0000000E+000
  0.0000000E+000
  0.0000000E+000
  0.0000000E+000
  0.0000000E+000
  0.0000000E+000
  0.0000000E+000
  0.0000000E+000
  0.0000000E+000
  0.0000000E+000
  0.0000000E+000
  0.0000000E+000
  0.0000000E+000
  0.0000000E+000
  0.0000000E+000
  0.0000000E+000
  0.0000000E+000
  0.0000000E+000
  0.0000000E+000
  0.0000000E+000
  0.0000000E+000
  0.0000000E+000
  0.0000000E+000
  0.0000000E+000
  0.0000000E+000
  0.0000000E+000
  0.0000000E+000
  0.0000000E+000
  0.0000000E+000
  0.0000000E+000
  0.0000000E+000
  0.0000000E+000
  0.0000000E+000
  0.0000000E+000
  0.0000000E+000
  0.0000000E+000
  0.0000000E+000
  0.0000000E+000
  0.0000000E+000
  0.0000000E+000
  0.0000000E+000
  0.0000000E+000
  0.0000000E+000
  0.0000000E+000
  0.0000000E+000
  0.0000000E+000
  0.0000000E+000
  0.0000000E+000
  0.0000000E+000
  0.0000000E+000
  0.0000000E+000
  0.0000000E+000
  0.0000000E+000
  0.0000000E+000
  0.0000000E+000
  0.0000000E+000
  0.0000000E+000
  0.0000000E+000
  0.0000000E+000
  0.0000000E+000
  0.0000000E+000
  0.0000000E+000
  0.0000000E+000
  0.0000000E+000
  0.0000000E+000
  0.0000000E+000
  0.0000000E+000
  0.0000000E+000
  0.0000000E+000
  0.0000000E+000
  0.0000000E+000
  0.0000000E+000
  0.0000000E+000
  0.0000000E+000
  0.0000000E+000
  0.0000000E+000
  0.0000000E+000
  0.0000000E+000
  0.0000000E+000
  0.0000000E+000
  0.0000000E+000
  0.0000000E+000
  0.0000000E+000
  0.0000000E+000
  0.0000000E+000
  0.0000000E+000
  0.0000000E+000
  0.0000000E+000
  0.0000000E+000
  0.0000000E+000
  0.0000000E+000
  0.0000000E+000
  0.0000000E+000
  0.0000000E+000
  0.0000000E+000
  0.0000000E+000
  0.0000000E+000
  0.0000000E+000
  0.0000000E+000
  0.0000000E+000
  0.0000000E+000
  0.0000000E+000
  0.0000000E+000
  0.0000000E+000
  0.0000000E+000
  0.0000000E+000
  0.0000000E+000
  0.0000000E+000
  0.0000000E+000
  0.0000000E+000
  0.0000000E+000
  0.0000000E+000
  0.0000000E+000
  0.0000000E+000
  0.0000000E+000
  0.0000000E+000
  0.0000000E+000
  0.0000000E+000
  0.0000000E+000
  0.0000000E+000
  0.0000000E+000
  0.0000000E+000
  0.0000000E+000
  0.0000000E+000
  0.0000000E+000
  0.0000000E+000
  0.0000000E+000
  0.0000000E+000
  0.0000000E+000
  0.0000000E+000
  0.0000000E+000
  0.0000000E+000
  0.0000000E+000
  0.0000000E+000
  0.0000000E+000
  0.0000000E+000
  0.0000000E+000
  0.0000000E+000
  0.0000000E+000
  0.0000000E+000
  0.0000000E+000
  0.0000000E+000
  0.0000000E+000
  0.0000000E+000
  0.0000000E+000
  0.0000000E+000
  0.0000000E+000
  0.0000000E+000
  0.0000000E+000
  0.0000000E+000
  0.0000000E+000
  0.0000000E+000
  0.0000000E+000
  0.0000000E+000
  0.0000000E+000
  0.0000000E+000
  0.0000000E+000
  0.0000000E+000
  0.0000000E+000
  0.0000000E+000
  0.0000000E+000
  0.0000000E+000
  0.0000000E+000
  0.0000000E+000
  0.0000000E+000
  0.0000000E+000
  0.0000000E+000
  0.0000000E+000
  0.0000000E+000
  0.0000000E+000
  0.0000000E+000
  0.0000000E+000
  0.0000000E+000
  0.0000000E+000
  0.0000000E+000
  0.0000000E+000
  0.0000000E+000
  0.0000000E+000
  0.0000000E+000
  0.0000000E+000
  0.0000000E+000
  0.0000000E+000
  0.0000000E+000
  0.0000000E+000
  0.0000000E+000
  0.0000000E+000
  0.0000000E+000
  0.0000000E+000
  0.0000000E+000
  0.0000000E+000
  0.0000000E+000
  0.0000000E+000
  0.0000000E+000
  0.0000000E+000
  0.0000000E+000
  0.0000000E+000
  0.0000000E+000
  0.0000000E+000
  0.0000000E+000
  0.0000000E+000
  0.0000000E+000
  0.0000000E+000
  0.0000000E+000
  0.0000000E+000
  0.0000000E+000
  0.0000000E+000
  0.0000000E+000
  0.0000000E+000
  0.0000000E+000
  0.0000000E+000
  0.0000000E+000
  0.0000000E+000
  0.0000000E+000
  0.0000000E+000
  0.0000000E+000
  0.0000000E+000
  0.0000000E+000
  0.0000000E+000
  0.0000000E+000
  0.0000000E+000
  0.0000000E+000
  0.0000000E+000
  0.0000000E+000
  0.0000000E+000
  0.0000000E+000
  0.0000000E+000
  0.0000000E+000
  0.0000000E+000
  0.0000000E+000
  0.0000000E+000
  0.0000000E+000
  0.0000000E+000
  0.0000000E+000
  0.0000000E+000
  0.0000000E+000
  0.0000000E+000
  0.0000000E+000
  0.0000000E+000
  0.0000000E+000
  0.0000000E+000
  0.0000000E+000
  0.0000000E+000
  0.0000000E+000
  0.0000000E+000
  0.0000000E+000
  0.0000000E+000
  0.0000000E+000
  0.0000000E+000
  0.0000000E+000
  0.0000000E+000
  0.0000000E+000
  0.0000000E+000
  0.0000000E+000
  0.0000000E+000
  0.0000000E+000
  0.0000000E+000
  0.0000000E+000
  0.0000000E+000
  0.0000000E+000
  0.0000000E+000
  0.0000000E+000
  0.0000000E+000
  0.0000000E+000
  0.0000000E+000
  0.0000000E+000
  0.0000000E+000
  0.0000000E+000
  0.0000000E+000
  0.0000000E+000
  0.0000000E+000
  0.0000000E+000
  0.0000000E+000
  0.0000000E+000
  0.0000000E+000
  0.0000000E+000
  0.0000000E+000
  0.0000000E+000
  0.0000000E+000
  0.0000000E+000
  0.0000000E+000
  0.0000000E+000
  0.0000000E+000
  0.0000000E+000
  0.0000000E+000
  0.0000000E+000
  0.0000000E+000
  0.0000000E+000
  0.0000000E+000
  0.0000000E+000
  0.0000000E+000
  0.0000000E+000
  0.0000000E+000
  0.0000000E+000
  0.0000000E+000
  0.0000000E+000
  0.0000000E+000
  0.0000000E+000
  0.0000000E+000
  0.0000000E+000
  0.0000000E+000
  0.0000000E+000
  0.0000000E+000
  0.0000000E+000
  0.0000000E+000
  0.0000000E+000
  0.0000000E+000
  0.0000000E+000
  0.0000000E+000
  0.0000000E+000
  0.0000000E+000
  0.0000000E+000
  0.0000000E+000
  0.0000000E+000
  0.0000000E+000
  0.0000000E+000
  0.0000000E+000
  0.0000000E+000
  0.0000000E+000
  0.0000000E+000
  0.0000000E+000
  0.0000000E+000
  0.0000000E+000
  0.0000000E+000
  0.0000000E+000
  0.0000000E+000
  0.0000000E+000
  0.0000000E+000
  0.0000000E+000
  0.0000000E+000
  0.0000000E+000
  0.0000000E+000
  0.0000000E+000
  0.0000000E+000
  0.0000000E+000
  0.0000000E+000
  0.0000000E+000
  0.0000000E+000
  0.0000000E+000
  0.0000000E+000
  0.0000000E+000
  0.0000000E+000
  0.0000000E+000
  0.0000000E+000
  0.0000000E+000
  0.0000000E+000
  0.0000000E+000
  0.0000000E+000
  0.0000000E+000
  0.0000000E+000
  0.0000000E+000
  0.0000000E+000
  0.0000000E+000
  0.0000000E+000
  0.0000000E+000
  0.0000000E+000
  0.0000000E+000
  0.0000000E+000
  0.0000000E+000
  0.0000000E+000
  0.0000000E+000
  0.0000000E+000
  0.0000000E+000
  0.0000000E+000
  0.0000000E+000
  0.0000000E+000
  0.0000000E+000
  0.0000000E+000
  0.0000000E+000
  0.0000000E+000
  0.0000000E+000
  0.0000000E+000
  0.0000000E+000
  0.0000000E+000
  0.0000000E+000
  0.0000000E+000
  0.0000000E+000
  0.0000000E+000
  0.0000000E+000
  0.0000000E+000
  0.0000000E+000
  0.0000000E+000
  0.0000000E+000
  0.0000000E+000
  0.0000000E+000
  0.0000000E+000
  0.0000000E+000
  0.0000000E+000
  0.0000000E+000
  0.0000000E+000
  0.0000000E+000
  0.0000000E+000
  0.0000000E+000
  0.0000000E+000
  0.0000000E+000
  0.0000000E+000
  0.0000000E+000
  0.0000000E+000
  0.0000000E+000
  0.0000000E+000
  0.0000000E+000
  0.0000000E+000
  0.0000000E+000
  0.0000000E+000
  0.0000000E+000
  0.0000000E+000
  0.0000000E+000
  0.0000000E+000
  0.0000000E+000
  0.0000000E+000
  0.0000000E+000
  0.0000000E+000
  0.0000000E+000
  0.0000000E+000
  0.0000000E+000
  0.0000000E+000
  0.0000000E+000
  0.0000000E+000
  0.0000000E+000
  0.0000000E+000
  0.0000000E+000
  0.0000000E+000
  0.0000000E+000
  0.0000000E+000
  0.0000000E+000
  0.0000000E+000
  0.0000000E+000
  0.0000000E+000
  0.0000000E+000
  0.0000000E+000
  0.0000000E+000
  0.0000000E+000
  0.0000000E+000
  0.0000000E+000
  0.0000000E+000
  0.0000000E+000
  0.0000000E+000
  0.0000000E+000
  0.0000000E+000
  0.0000000E+000
  0.0000000E+000
  0.0000000E+000
  0.0000000E+000
  0.0000000E+000
  0.0000000E+000
  0.0000000E+000
  0.0000000E+000
  0.0000000E+000
  0.0000000E+000
  0.0000000E+000
  0.0000000E+000
  0.0000000E+000
  0.0000000E+000
  0.0000000E+000
  0.0000000E+000
  0.0000000E+000
  0.0000000E+000
  0.0000000E+000
  0.0000000E+000
  0.0000000E+000
  0.0000000E+000
  0.0000000E+000
  0.0000000E+000
  0.0000000E+000
  0.0000000E+000
  0.0000000E+000
  0.0000000E+000
  0.0000000E+000
  0.0000000E+000
  0.0000000E+000
  0.0000000E+000
  0.0000000E+000
  0.0000000E+000
  0.0000000E+000
  0.0000000E+000
  0.0000000E+000
  0.0000000E+000
  0.0000000E+000
  0.0000000E+000
  0.0000000E+000
  0.0000000E+000
  0.0000000E+000
  0.0000000E+000
  0.0000000E+000
  0.0000000E+000
  0.0000000E+000
  0.0000000E+000
  0.0000000E+000
  0.0000000E+000
  0.0000000E+000
  0.0000000E+000
  0.0000000E+000
  0.0000000E+000
  0.0000000E+000
  0.0000000E+000
  0.0000000E+000
  0.0000000E+000
  0.0000000E+000
  0.0000000E+000
  0.0000000E+000
  0.0000000E+000
  0.0000000E+000
  0.0000000E+000
  0.0000000E+000
  0.0000000E+000
  0.0000000E+000
  0.0000000E+000
  0.0000000E+000
  0.0000000E+000
  0.0000000E+000
  0.0000000E+000
  0.0000000E+000
  0.0000000E+000
  0.0000000E+000
  0.0000000E+000
  0.0000000E+000
  0.0000000E+000
  0.0000000E+000
  0.0000000E+000
  0.0000000E+000
  0.0000000E+000
  0.0000000E+000
  0.0000000E+000
  0.0000000E+000
  0.0000000E+000
  0.0000000E+000
  0.0000000E+000
  0.0000000E+000
  0.0000000E+000
  0.0000000E+000
  0.0000000E+000
  0.0000000E+000
  0.0000000E+000
  0.0000000E+000
  0.0000000E+000
  0.0000000E+000
  0.0000000E+000
  0.0000000E+000
  0.0000000E+000
  0.0000000E+000
  0.0000000E+000
  0.0000000E+000
  0.0000000E+000
  0.0000000E+000
  0.0000000E+000
  0.0000000E+000
  0.0000000E+000
  0.0000000E+000
  0.0000000E+000
  0.0000000E+000
  0.0000000E+000
  0.0000000E+000
  0.0000000E+000
  0.0000000E+000
  0.0000000E+000
  0.0000000E+000
  0.0000000E+000
  0.0000000E+000
  0.0000000E+000
  0.0000000E+000
  0.0000000E+000
  0.0000000E+000
  0.0000000E+000
  0.0000000E+000
  0.0000000E+000
  0.0000000E+000
  0.0000000E+000
  0.0000000E+000
  0.0000000E+000
  0.0000000E+000
  0.0000000E+000
  0.0000000E+000
  0.0000000E+000
  0.0000000E+000
  0.0000000E+000
  0.0000000E+000
  0.0000000E+000
  0.0000000E+000
  0.0000000E+000
  0.0000000E+000
  0.0000000E+000
  0.0000000E+000
  0.0000000E+000
  0.0000000E+000
  0.0000000E+000
  0.0000000E+000
  0.0000000E+000
  0.0000000E+000
  0.0000000E+000
  0.0000000E+000
  0.0000000E+000
  0.0000000E+000
  0.0000000E+000
  0.0000000E+000
  0.0000000E+000
  0.0000000E+000
  0.0000000E+000
  0.0000000E+000
  0.0000000E+000
  0.0000000E+000
  0.0000000E+000
  0.0000000E+000
  0.0000000E+000
  0.0000000E+000
  0.0000000E+000
  0.0000000E+000
  0.0000000E+000
  0.0000000E+000
  0.0000000E+000
  0.0000000E+000
  0.0000000E+000
  0.0000000E+000
  0.0000000E+000
  0.0000000E+000
  0.0000000E+000
  0.0000000E+000
  0.0000000E+000
  0.0000000E+000
  0.0000000E+000
  0.0000000E+000
  0.0000000E+000
  0.0000000E+000
  0.0000000E+000
  0.0000000E+000
  0.0000000E+000
  0.0000000E+000
  0.0000000E+000
  0.0000000E+000
  0.0000000E+000
  0.0000000E+000
  0.0000000E+000
  0.0000000E+000
  0.0000000E+000
  0.0000000E+000
  0.0000000E+000
  0.0000000E+000
  0.0000000E+000
  0.0000000E+000
  0.0000000E+000
  0.0000000E+000
  0.0000000E+000
  0.0000000E+000
  0.0000000E+000
  0.0000000E+000
  0.0000000E+000
  0.0000000E+000
  0.0000000E+000
  0.0000000E+000
  0.0000000E+000
  0.0000000E+000
  0.0000000E+000
  0.0000000E+000
  0.0000000E+000
  0.0000000E+000
  0.0000000E+000
  0.0000000E+000
  0.0000000E+000
  0.0000000E+000
  0.0000000E+000
  0.0000000E+000
  0.0000000E+000
  0.0000000E+000
  0.0000000E+000
  0.0000000E+000
  0.0000000E+000
  0.0000000E+000
  0.0000000E+000
  0.0000000E+000
  0.0000000E+000
  0.0000000E+000
  0.0000000E+000
  0.0000000E+000
  0.0000000E+000
  0.0000000E+000
  0.0000000E+000
  0.0000000E+000
  0.0000000E+000
  0.0000000E+000
  0.0000000E+000
  0.0000000E+000
  0.0000000E+000
  0.0000000E+000
  0.0000000E+000
  0.0000000E+000
  0.0000000E+000
  0.0000000E+000
  0.0000000E+000
  0.0000000E+000
  0.0000000E+000
  0.0000000E+000
  0.0000000E+000
  0.0000000E+000
  0.0000000E+000
  0.0000000E+000
  0.0000000E+000
  0.0000000E+000
  0.0000000E+000
  0.0000000E+000
  0.0000000E+000
  0.0000000E+000
  0.0000000E+000
  0.0000000E+000
  0.0000000E+000
  0.0000000E+000
  0.0000000E+000
  0.0000000E+000
  0.0000000E+000
  0.0000000E+000
  0.0000000E+000
  0.0000000E+000
  0.0000000E+000
  0.0000000E+000
  0.0000000E+000
  0.0000000E+000
  0.0000000E+000
  0.0000000E+000
  0.0000000E+000
  0.0000000E+000
  0.0000000E+000
  0.0000000E+000
  0.0000000E+000
  0.0000000E+000
  0.0000000E+000
  0.0000000E+000
  0.0000000E+000
  0.0000000E+000
  0.0000000E+000
  0.0000000E+000
  0.0000000E+000
  0.0000000E+000
  0.0000000E+000
  0.0000000E+000
  0.0000000E+000
  0.0000000E+000
  0.0000000E+000
  0.0000000E+000
  0.0000000E+000
  0.0000000E+000
  0.0000000E+000
  0.0000000E+000
  0.0000000E+000
  0.0000000E+000
  0.0000000E+000
  0.0000000E+000
  0.0000000E+000
  0.0000000E+000
  0.0000000E+000
  0.0000000E+000
  0.0000000E+000
  0.0000000E+000
  0.0000000E+000
  0.0000000E+000
  0.0000000E+000
  0.0000000E+000
  0.0000000E+000
  0.0000000E+000
  0.0000000E+000
  0.0000000E+000
  0.0000000E+000
  0.0000000E+000
  0.0000000E+000
  0.0000000E+000
  0.0000000E+000
  0.0000000E+000
  0.0000000E+000
  0.0000000E+000
  0.0000000E+000
  0.0000000E+000
  0.0000000E+000
  0.0000000E+000
  0.0000000E+000
  0.0000000E+000
  0.0000000E+000
  0.0000000E+000
  0.0000000E+000
  0.0000000E+000
  0.0000000E+000
  0.0000000E+000
  0.0000000E+000
  0.0000000E+000
  0.0000000E+000
  0.0000000E+000
  0.0000000E+000
  0.0000000E+000
  0.0000000E+000
  0.0000000E+000
  0.0000000E+000
  0.0000000E+000
  0.0000000E+000
  0.0000000E+000
  0.0000000E+000
  0.0000000E+000
  0.0000000E+000
  0.0000000E+000
  0.0000000E+000
  0.0000000E+000
  0.0000000E+000
  0.0000000E+000
  0.0000000E+000
  0.0000000E+000
  0.0000000E+000
  0.0000000E+000
  0.0000000E+000
  0.0000000E+000
  0.0000000E+000
  0.0000000E+000
  0.0000000E+000
  0.0000000E+000
  0.0000000E+000
  0.0000000E+000
  0.0000000E+000
  0.0000000E+000
  0.0000000E+000
  0.0000000E+000
  0.0000000E+000
  0.0000000E+000
  0.0000000E+000
  0.0000000E+000
  0.0000000E+000
  0.0000000E+000
  0.0000000E+000
  0.0000000E+000
  0.0000000E+000
  0.0000000E+000
  0.0000000E+000
  0.0000000E+000
  0.0000000E+000
  0.0000000E+000
  0.0000000E+000
  0.0000000E+000
  0.0000000E+000
  0.0000000E+000
  0.0000000E+000
  0.0000000E+000
  0.0000000E+000
  0.0000000E+000
  0.0000000E+000
  0.0000000E+000
  0.0000000E+000
  0.0000000E+000
  0.0000000E+000
  0.0000000E+000
  0.0000000E+000
  0.0000000E+000
  0.0000000E+000
  0.0000000E+000
  0.0000000E+000
  0.0000000E+000
  0.0000000E+000
  0.0000000E+000
  0.0000000E+000
  0.0000000E+000
  0.0000000E+000
  0.0000000E+000
  0.0000000E+000
  0.0000000E+000
  0.0000000E+000
  0.0000000E+000
  0.0000000E+000
  0.0000000E+000
  0.0000000E+000
  0.0000000E+000
  0.0000000E+000
  0.0000000E+000
  0.0000000E+000
  0.0000000E+000
  0.0000000E+000
  0.0000000E+000
  0.0000000E+000
  0.0000000E+000
  0.0000000E+000
  0.0000000E+000
  0.0000000E+000
  0.0000000E+000
  0.0000000E+000
  0.0000000E+000
  0.0000000E+000
  0.0000000E+000
  0.0000000E+000
  0.0000000E+000
  0.0000000E+000
  0.0000000E+000
  0.0000000E+000
  0.0000000E+000
  0.0000000E+000
  0.0000000E+000
  0.0000000E+000
  0.0000000E+000
  0.0000000E+000
  0.0000000E+000
  0.0000000E+000
  0.0000000E+000
  0.0000000E+000
  0.0000000E+000
  0.0000000E+000
  0.0000000E+000
  0.0000000E+000
  0.0000000E+000
  0.0000000E+000
  0.0000000E+000
  0.0000000E+000
  0.0000000E+000
  0.0000000E+000
  0.0000000E+000
  0.0000000E+000
  0.0000000E+000
  0.0000000E+000
  0.0000000E+000
  0.0000000E+000
  0.0000000E+000
  0.0000000E+000
  0.0000000E+000
  0.0000000E+000
  0.0000000E+000
  0.0000000E+000
  0.0000000E+000
  0.0000000E+000
  0.0000000E+000
  0.0000000E+000
  0.0000000E+000
  0.0000000E+000
  0.0000000E+000
  0.0000000E+000
  0.0000000E+000
  0.0000000E+000
  0.0000000E+000
  0.0000000E+000
  0.0000000E+000
  0.0000000E+000
  0.0000000E+000
  0.0000000E+000
  0.0000000E+000
  0.0000000E+000
  0.0000000E+000
  0.0000000E+000
  0.0000000E+000
  0.0000000E+000
  0.0000000E+000
  0.0000000E+000
  0.0000000E+000
  0.0000000E+000
  0.0000000E+000
  0.0000000E+000
  0.0000000E+000
  0.0000000E+000
  0.0000000E+000
  0.0000000E+000
  0.0000000E+000
  0.0000000E+000
  0.0000000E+000
  0.0000000E+000
  0.0000000E+000
  0.0000000E+000
  0.0000000E+000
  0.0000000E+000
  0.0000000E+000
  0.0000000E+000
  0.0000000E+000
  0.0000000E+000
  0.0000000E+000
  0.0000000E+000
  0.0000000E+000
  0.0000000E+000
  0.0000000E+000
  0.0000000E+000
  0.0000000E+000
  0.0000000E+000
  0.0000000E+000
  0.0000000E+000
  0.0000000E+000
  0.0000000E+000
  0.0000000E+000
  0.0000000E+000
  0.0000000E+000
  0.0000000E+000
  0.0000000E+000
  0.0000000E+000
  0.0000000E+000
  0.0000000E+000
  0.0000000E+000
  0.0000000E+000
  0.0000000E+000
  0.0000000E+000
  0.0000000E+000
  0.0000000E+000
  0.0000000E+000
  0.0000000E+000
  0.0000000E+000
  0.0000000E+000
  0.0000000E+000
  0.0000000E+000
  0.0000000E+000
  0.0000000E+000
  0.0000000E+000
  0.0000000E+000
  0.0000000E+000
  0.0000000E+000
  0.0000000E+000
  0.0000000E+000
  0.0000000E+000
  0.0000000E+000
  0.0000000E+000
  0.0000000E+000
  0.0000000E+000
  0.0000000E+000
  0.0000000E+000
  0.0000000E+000
  0.0000000E+000
  0.0000000E+000
  0.0000000E+000
  0.0000000E+000
  0.0000000E+000
  0.0000000E+000
  0.0000000E+000
  0.0000000E+000
  0.0000000E+000
  0.0000000E+000
  0.0000000E+000
  0.0000000E+000
  0.0000000E+000
  0.0000000E+000
  0.0000000E+000
  0.0000000E+000
  0.0000000E+000
  0.0000000E+000
  0.0000000E+000
  0.0000000E+000
  0.0000000E+000
  0.0000000E+000
  0.0000000E+000
  0.0000000E+000
  0.0000000E+000
  0.0000000E+000
  0.0000000E+000
  0.0000000E+000
  0.0000000E+000
  0.0000000E+000
  0.0000000E+000
  0.0000000E+000
  0.0000000E+000
  0.0000000E+000
  0.0000000E+000
  0.0000000E+000
  0.0000000E+000
  0.0000000E+000
  0.0000000E+000
  0.0000000E+000
  0.0000000E+000
  0.0000000E+000
  0.0000000E+000
  0.0000000E+000
  0.0000000E+000
  0.0000000E+000
  0.0000000E+000
  0.0000000E+000
  0.0000000E+000
  0.0000000E+000
  0.0000000E+000
  0.0000000E+000
  0.0000000E+000
  0.0000000E+000
  0.0000000E+000
  0.0000000E+000
  0.0000000E+000
  0.0000000E+000
  0.0000000E+000
  0.0000000E+000
  0.0000000E+000
  0.0000000E+000
  0.0000000E+000
  0.0000000E+000
  0.0000000E+000
  0.0000000E+000
  0.0000000E+000
  0.0000000E+000
  0.0000000E+000
  0.0000000E+000
  0.0000000E+000
  0.0000000E+000
  0.0000000E+000
  0.0000000E+000
  0.0000000E+000
  0.0000000E+000
  0.0000000E+000
  0.0000000E+000
  0.0000000E+000
  0.0000000E+000
  0.0000000E+000
  0.0000000E+000
  0.0000000E+000
  0.0000000E+000
  0.0000000E+000
  0.0000000E+000
  0.0000000E+000
  0.0000000E+000
  0.0000000E+000
  0.0000000E+000
  0.0000000E+000
  0.0000000E+000
  0.0000000E+000
  0.0000000E+000
  0.0000000E+000
  0.0000000E+000
  0.0000000E+000
  0.0000000E+000
  0.0000000E+000
  0.0000000E+000
  0.0000000E+000
  0.0000000E+000
  0.0000000E+000
  0.0000000E+000
  0.0000000E+000
  0.0000000E+000
  0.0000000E+000
  0.0000000E+000
  0.0000000E+000
  0.0000000E+000
  0.0000000E+000
  0.0000000E+000
  0.0000000E+000
  0.0000000E+000
  0.0000000E+000
  0.0000000E+000
  0.0000000E+000
  0.0000000E+000
  0.0000000E+000
  0.0000000E+000
  0.0000000E+000
  0.0000000E+000
  0.0000000E+000
  0.0000000E+000
  0.0000000E+000
  0.0000000E+000
  0.0000000E+000
  0.0000000E+000
  0.0000000E+000
  0.0000000E+000
  0.0000000E+000
  0.0000000E+000
  0.0000000E+000
  0.0000000E+000
  0.0000000E+000
  0.0000000E+000
  0.0000000E+000
  0.0000000E+000
  0.0000000E+000
  0.0000000E+000
  0.0000000E+000
  0.0000000E+000
  0.0000000E+000
  0.0000000E+000
  0.0000000E+000
  0.0000000E+000
  0.0000000E+000
  0.0000000E+000
  0.0000000E+000
  0.0000000E+000
  0.0000000E+000
  0.0000000E+000
  0.0000000E+000
  0.0000000E+000
  0.0000000E+000
  0.0000000E+000
  0.0000000E+000
  0.0000000E+000
  0.0000000E+000
  0.0000000E+000
  0.0000000E+000
  0.0000000E+000
  0.0000000E+000
  0.0000000E+000
  0.0000000E+000
  0.0000000E+000
  0.0000000E+000
  0.0000000E+000
  0.0000000E+000
  0.0000000E+000
  0.0000000E+000
  0.0000000E+000
  0.0000000E+000
  0.0000000E+000
  0.0000000E+000
  0.0000000E+000
  0.0000000E+000
  0.0000000E+000
  0.0000000E+000
  0.0000000E+000
  0.0000000E+000
  0.0000000E+000
  0.0000000E+000
  0.0000000E+000
  0.0000000E+000
  0.0000000E+000
  0.0000000E+000
  0.0000000E+000
  0.0000000E+000
  0.0000000E+000
  0.0000000E+000
  0.0000000E+000
  0.0000000E+000
  0.0000000E+000
  0.0000000E+000
  0.0000000E+000
  0.0000000E+000
  0.0000000E+000
  0.0000000E+000
  0.0000000E+000
  0.0000000E+000
  0.0000000E+000
  0.0000000E+000
  0.0000000E+000
  0.0000000E+000
  0.0000000E+000
  0.0000000E+000
  0.0000000E+000
  0.0000000E+000
  0.0000000E+000
  0.0000000E+000
  0.0000000E+000
  0.0000000E+000
  0.0000000E+000
  0.0000000E+000
  0.0000000E+000
  0.0000000E+000
  0.0000000E+000
  0.0000000E+000
  0.0000000E+000
  0.0000000E+000
  0.0000000E+000
  0.0000000E+000
  0.0000000E+000
  0.0000000E+000
  0.0000000E+000
  0.0000000E+000
  0.0000000E+000
  0.0000000E+000
  0.0000000E+000
  0.0000000E+000
  0.0000000E+000
  0.0000000E+000
  0.0000000E+000
  0.0000000E+000
  0.0000000E+000
  0.0000000E+000
  0.0000000E+000
  0.0000000E+000
  0.0000000E+000
  0.0000000E+000
  0.0000000E+000
  0.0000000E+000
  0.0000000E+000
  0.0000000E+000
  0.0000000E+000
  0.0000000E+000
  0.0000000E+000
  0.0000000E+000
  0.0000000E+000
  0.0000000E+000
  0.0000000E+000
  0.0000000E+000
  0.0000000E+000
  0.0000000E+000
  0.0000000E+000
  0.0000000E+000
  0.0000000E+000
  0.0000000E+000
  0.0000000E+000
  0.0000000E+000
  0.0000000E+000
  0.0000000E+000
  0.0000000E+000
  0.0000000E+000
  0.0000000E+000
  0.0000000E+000
  0.0000000E+000
  0.0000000E+000
  0.0000000E+000
  0.0000000E+000
  0.0000000E+000
  0.0000000E+000
  0.0000000E+000
  0.0000000E+000
  0.0000000E+000
  0.0000000E+000
  0.0000000E+000
  0.0000000E+000
  0.0000000E+000
  0.0000000E+000
  0.0000000E+000
  0.0000000E+000
  0.0000000E+000
  0.0000000E+000
  0.0000000E+000
  0.0000000E+000
  0.0000000E+000
  0.0000000E+000
  0.0000000E+000
  0.0000000E+000
  0.0000000E+000
  0.0000000E+000
  0.0000000E+000
  0.0000000E+000
  0.0000000E+000
  0.0000000E+000
  0.0000000E+000
  0.0000000E+000
  0.0000000E+000
  0.0000000E+000
  0.0000000E+000
  0.0000000E+000
  0.0000000E+000
  0.0000000E+000
  0.0000000E+000
  0.0000000E+000
  0.0000000E+000
  0.0000000E+000
  0.0000000E+000
  0.0000000E+000
  0.0000000E+000
  0.0000000E+000
  0.0000000E+000
  0.0000000E+000
  0.0000000E+000
  0.0000000E+000
  0.0000000E+000
  0.0000000E+000
  0.0000000E+000
  0.0000000E+000
  0.0000000E+000
  0.0000000E+000
  0.0000000E+000
  0.0000000E+000
  0.0000000E+000
  0.0000000E+000
  0.0000000E+000
  0.0000000E+000
  0.0000000E+000
  0.0000000E+000
  0.0000000E+000
  0.0000000E+000
  0.0000000E+000
  0.0000000E+000
  0.0000000E+000
  0.0000000E+000
  0.0000000E+000
  0.0000000E+000
  0.0000000E+000
  0.0000000E+000
  0.0000000E+000
  0.0000000E+000
  0.0000000E+000
  0.0000000E+000
  0.0000000E+000
  0.0000000E+000
  0.0000000E+000
  0.0000000E+000
  0.0000000E+000
  0.0000000E+000
  0.0000000E+000
  0.0000000E+000
  0.0000000E+000
  0.0000000E+000
  0.0000000E+000
  0.0000000E+000
  0.0000000E+000
  0.0000000E+000
  0.0000000E+000
  0.0000000E+000
  0.0000000E+000
  0.0000000E+000
  0.0000000E+000
  0.0000000E+000
  0.0000000E+000
  0.0000000E+000
  0.0000000E+000
  0.0000000E+000
  0.0000000E+000
  0.0000000E+000
  0.0000000E+000
  0.0000000E+000
  0.0000000E+000
  0.0000000E+000
  0.0000000E+000
  0.0000000E+000
  0.0000000E+000
  0.0000000E+000
  0.0000000E+000
  0.0000000E+000
  0.0000000E+000
  0.0000000E+000
  0.0000000E+000
  0.0000000E+000
  0.0000000E+000
  0.0000000E+000
  0.0000000E+000
  0.0000000E+000
  0.0000000E+000
  0.0000000E+000
  0.0000000E+000
  0.0000000E+000
  0.0000000E+000
  0.0000000E+000
  0.0000000E+000
  0.0000000E+000
  0.0000000E+000
  0.0000000E+000
  0.0000000E+000
  0.0000000E+000
  0.0000000E+000
  0.0000000E+000
  0.0000000E+000
  0.0000000E+000
  0.0000000E+000
  0.0000000E+000
  0.0000000E+000
  0.0000000E+000
  0.0000000E+000
  0.0000000E+000
  0.0000000E+000
  0.0000000E+000
  0.0000000E+000
  0.0000000E+000
  0.0000000E+000
  0.0000000E+000
  0.0000000E+000
  0.0000000E+000
  0.0000000E+000
  0.0000000E+000
  0.0000000E+000
  0.0000000E+000
  0.0000000E+000
  0.0000000E+000
  0.0000000E+000
  0.0000000E+000
  0.0000000E+000
  0.0000000E+000
  0.0000000E+000
  0.0000000E+000
  0.0000000E+000
  0.0000000E+000
  0.0000000E+000
  0.0000000E+000
  0.0000000E+000
  0.0000000E+000
  0.0000000E+000
  0.0000000E+000
  0.0000000E+000
  0.0000000E+000
  0.0000000E+000
  0.0000000E+000
  0.0000000E+000
  0.0000000E+000
  0.0000000E+000
  0.0000000E+000
  0.0000000E+000
  0.0000000E+000
  0.0000000E+000
  0.0000000E+000
  0.0000000E+000
  0.0000000E+000
  0.0000000E+000
  0.0000000E+000
  0.0000000E+000
  0.0000000E+000
  0.0000000E+000
  0.0000000E+000
  0.0000000E+000
  0.0000000E+000
  0.0000000E+000
  0.0000000E+000
  0.0000000E+000
  0.0000000E+000
  0.0000000E+000
  0.0000000E+000
  0.0000000E+000
  0.0000000E+000
  0.0000000E+000
  0.0000000E+000
  0.0000000E+000
  0.0000000E+000
  0.0000000E+000
  0.0000000E+000
  0.0000000E+000
  0.0000000E+000
  0.0000000E+000
  0.0000000E+000
  0.0000000E+000
  0.0000000E+000
  0.0000000E+000
  0.0000000E+000
  0.0000000E+000
  0.0000000E+000
  0.0000000E+000
  0.0000000E+000
  0.0000000E+000
  0.0000000E+000
  0.0000000E+000
  0.0000000E+000
  0.0000000E+000
  0.0000000E+000
  0.0000000E+000
  0.0000000E+000
  0.0000000E+000
  0.0000000E+000
  0.0000000E+000
  0.0000000E+000
  0.0000000E+000
  0.0000000E+000
  0.0000000E+000
  0.0000000E+000
  0.0000000E+000
  0.0000000E+000
  0.0000000E+000
  0.0000000E+000
  0.0000000E+000
  0.0000000E+000
  0.0000000E+000
  0.0000000E+000
  0.0000000E+000
  0.0000000E+000
  0.0000000E+000
  0.0000000E+000
  0.0000000E+000
  0.0000000E+000
  0.0000000E+000
  0.0000000E+000
  0.0000000E+000
  0.0000000E+000
  0.0000000E+000
  0.0000000E+000
  0.0000000E+000
  0.0000000E+000
  0.0000000E+000
  0.0000000E+000
  0.0000000E+000
  0.0000000E+000
  0.0000000E+000
  0.0000000E+000
  0.0000000E+000
  0.0000000E+000
  0.0000000E+000
  0.0000000E+000
  0.0000000E+000
  0.0000000E+000
  0.0000000E+000
  0.0000000E+000
  0.0000000E+000
  0.0000000E+000
  0.0000000E+000
  0.0000000E+000
  0.0000000E+000
  0.0000000E+000
  0.0000000E+000
  0.0000000E+000
  0.0000000E+000
  0.0000000E+000
  0.0000000E+000
  0.0000000E+000
  0.0000000E+000
  0.0000000E+000
  0.0000000E+000
  0.0000000E+000
  0.0000000E+000
  0.0000000E+000
  0.0000000E+000
  0.0000000E+000
  0.0000000E+000
  0.0000000E+000
  0.0000000E+000
  0.0000000E+000
  0.0000000E+000
  0.0000000E+000
  0.0000000E+000
  0.0000000E+000
  0.0000000E+000
  0.0000000E+000
  0.0000000E+000
  0.0000000E+000
  0.0000000E+000
  0.0000000E+000
  0.0000000E+000
  0.0000000E+000
  0.0000000E+000
  0.0000000E+000
  0.0000000E+000
  0.0000000E+000
  0.0000000E+000
  0.0000000E+000
  0.0000000E+000
  0.0000000E+000
  0.0000000E+000
  0.0000000E+000
  0.0000000E+000
  0.0000000E+000
  0.0000000E+000
  0.0000000E+000
  0.0000000E+000
  0.0000000E+000
  0.0000000E+000
  0.0000000E+000
  0.0000000E+000
  0.0000000E+000
  0.0000000E+000
  0.0000000E+000
  0.0000000E+000
  0.0000000E+000
  0.0000000E+000
  0.0000000E+000
  0.0000000E+000
  0.0000000E+000
  0.0000000E+000
  0.0000000E+000
  0.0000000E+000
  0.0000000E+000
  0.0000000E+000
  0.0000000E+000
  0.0000000E+000
  0.0000000E+000
  0.0000000E+000
  0.0000000E+000
  0.0000000E+000
  0.0000000E+000
  0.0000000E+000
  0.0000000E+000
  0.0000000E+000
  0.0000000E+000
  0.0000000E+000
  0.0000000E+000
  0.0000000E+000
  0.0000000E+000
  0.0000000E+000
  0.0000000E+000
  0.0000000E+000
  0.0000000E+000
  0.0000000E+000
  0.0000000E+000
  0.0000000E+000
  0.0000000E+000
  0.0000000E+000
  0.0000000E+000
  0.0000000E+000
  0.0000000E+000
  0.0000000E+000
  0.0000000E+000
  0.0000000E+000
  0.0000000E+000
  0.0000000E+000
  0.0000000E+000
  0.0000000E+000
  0.0000000E+000
  0.0000000E+000
  0.0000000E+000
  0.0000000E+000
  0.0000000E+000
  0.0000000E+000
  0.0000000E+000
  0.0000000E+000
  0.0000000E+000
  0.0000000E+000
  0.0000000E+000
  0.0000000E+000
  0.0000000E+000
  0.0000000E+000
  0.0000000E+000
  0.0000000E+000
  0.0000000E+000
  0.0000000E+000
  0.0000000E+000
  0.0000000E+000
  0.0000000E+000
  0.0000000E+000
  0.0000000E+000
  0.0000000E+000
  0.0000000E+000
  0.0000000E+000
  0.0000000E+000
  0.0000000E+000
  0.0000000E+000
  0.0000000E+000
  0.0000000E+000
  0.0000000E+000
  0.0000000E+000
  0.0000000E+000
  0.0000000E+000
  0.0000000E+000
  0.0000000E+000
  0.0000000E+000
  0.0000000E+000
  0.0000000E+000
  0.0000000E+000
  0.0000000E+000
  0.0000000E+000
  0.0000000E+000
  0.0000000E+000
  0.0000000E+000
  0.0000000E+000
  0.0000000E+000
  0.0000000E+000
  0.0000000E+000
  0.0000000E+000
  0.0000000E+000
  0.0000000E+000
  0.0000000E+000
  0.0000000E+000
  0.0000000E+000
  0.0000000E+000
  0.0000000E+000
  0.0000000E+000
  0.0000000E+000
  0.0000000E+000
  0.0000000E+000
  0.0000000E+000
  0.0000000E+000
  0.0000000E+000
  0.0000000E+000
  0.0000000E+000
  0.0000000E+000
  0.0000000E+000
  0.0000000E+000
  0.0000000E+000
  0.0000000E+000
  0.0000000E+000
  0.0000000E+000
  0.0000000E+000
  0.0000000E+000
  0.0000000E+000
  0.0000000E+000
  0.0000000E+000
  0.0000000E+000
  0.0000000E+000
  0.0000000E+000
  0.0000000E+000
  0.0000000E+000
  0.0000000E+000
  0.0000000E+000
  0.0000000E+000
  0.0000000E+000
  0.0000000E+000
  0.0000000E+000
  0.0000000E+000
  0.0000000E+000
  0.0000000E+000
  0.0000000E+000
  0.0000000E+000
  0.0000000E+000
  0.0000000E+000
  0.0000000E+000
  0.0000000E+000
  0.0000000E+000
  0.0000000E+000
  0.0000000E+000
  0.0000000E+000
  0.0000000E+000
  0.0000000E+000
  0.0000000E+000
  0.0000000E+000
  0.0000000E+000
  0.0000000E+000
  0.0000000E+000
  0.0000000E+000
  0.0000000E+000
  0.0000000E+000
  0.0000000E+000
  0.0000000E+000
  0.0000000E+000
  0.0000000E+000
  0.0000000E+000
  0.0000000E+000
  0.0000000E+000
  0.0000000E+000
  0.0000000E+000
  0.0000000E+000
  0.0000000E+000
  0.0000000E+000
  0.0000000E+000
  0.0000000E+000
  0.0000000E+000
  0.0000000E+000
  0.0000000E+000
  0.0000000E+000
  0.0000000E+000
  0.0000000E+000
  0.0000000E+000
  0.0000000E+000
  0.0000000E+000
  0.0000000E+000
  0.0000000E+000
  0.0000000E+000
  0.0000000E+000
  0.0000000E+000
  0.0000000E+000
  0.0000000E+000
  0.0000000E+000
  0.0000000E+000
  0.0000000E+000
  0.0000000E+000
  0.0000000E+000
  0.0000000E+000
  0.0000000E+000
  0.0000000E+000
  0.0000000E+000
  0.0000000E+000
  0.0000000E+000
  0.0000000E+000
  0.0000000E+000
  0.0000000E+000
  0.0000000E+000
  0.0000000E+000
  0.0000000E+000
  0.0000000E+000
  0.0000000E+000
  0.0000000E+000
  0.0000000E+000
  0.0000000E+000
  0.0000000E+000
  0.0000000E+000
  0.0000000E+000
  0.0000000E+000
  0.0000000E+000
  0.0000000E+000
  0.0000000E+000
  0.0000000E+000
  0.0000000E+000
  0.0000000E+000
  0.0000000E+000
  0.0000000E+000
  0.0000000E+000
  0.0000000E+000
  0.0000000E+000
  0.0000000E+000
  0.0000000E+000
  0.0000000E+000
  0.0000000E+000
  0.0000000E+000
  0.0000000E+000
  0.0000000E+000
  0.0000000E+000
  0.0000000E+000
  0.0000000E+000
  0.0000000E+000
  0.0000000E+000
  0.0000000E+000
  0.0000000E+000
  0.0000000E+000
  0.0000000E+000
  0.0000000E+000
  0.0000000E+000
  0.0000000E+000
  0.0000000E+000
  0.0000000E+000
  0.0000000E+000
  0.0000000E+000
  0.0000000E+000
  0.0000000E+000
  0.0000000E+000
  0.0000000E+000
  0.0000000E+000
  0.0000000E+000
  0.0000000E+000
  0.0000000E+000
  0.0000000E+000
  0.0000000E+000
  0.0000000E+000
  0.0000000E+000
  0.0000000E+000
  0.0000000E+000
  0.0000000E+000
  0.0000000E+000
  0.0000000E+000
  0.0000000E+000
  0.0000000E+000
  0.0000000E+000
  0.0000000E+000
  0.0000000E+000
  0.0000000E+000
  0.0000000E+000
  0.0000000E+000
  0.0000000E+000
  0.0000000E+000
  0.0000000E+000
  0.0000000E+000
  0.0000000E+000
  0.0000000E+000
  0.0000000E+000
  0.0000000E+000
  0.0000000E+000
  0.0000000E+000
  0.0000000E+000
  0.0000000E+000
  0.0000000E+000
  0.0000000E+000
  0.0000000E+000
  0.0000000E+000
  0.0000000E+000
  0.0000000E+000
  0.0000000E+000
  0.0000000E+000
  0.0000000E+000
  0.0000000E+000
  0.0000000E+000
  0.0000000E+000
  0.0000000E+000
  0.0000000E+000
  0.0000000E+000
  0.0000000E+000
  0.0000000E+000
  0.0000000E+000
  0.0000000E+000
  0.0000000E+000
  0.0000000E+000
  0.0000000E+000
  0.0000000E+000
  0.0000000E+000
  0.0000000E+000
  0.0000000E+000
  0.0000000E+000
  0.0000000E+000
  0.0000000E+000
  0.0000000E+000
  0.0000000E+000
  0.0000000E+000
  0.0000000E+000
  0.0000000E+000
  0.0000000E+000
  0.0000000E+000
  0.0000000E+000
  0.0000000E+000
  0.0000000E+000
  0.0000000E+000
  0.0000000E+000
  0.0000000E+000
  0.0000000E+000
  0.0000000E+000
  0.0000000E+000
  0.0000000E+000
  0.0000000E+000
  0.0000000E+000
  0.0000000E+000
  0.0000000E+000
  0.0000000E+000
  0.0000000E+000
  0.0000000E+000
  0.0000000E+000
  0.0000000E+000
  0.0000000E+000
  0.0000000E+000
  0.0000000E+000
  0.0000000E+000
  0.0000000E+000
  0.0000000E+000
  0.0000000E+000
  0.0000000E+000
  0.0000000E+000
  0.0000000E+000
  0.0000000E+000
  0.0000000E+000
  0.0000000E+000
  0.0000000E+000
  0.0000000E+000
  0.0000000E+000
  0.0000000E+000
  0.0000000E+000
  0.0000000E+000
  0.0000000E+000
  0.0000000E+000
  0.0000000E+000
  0.0000000E+000
  0.0000000E+000
  0.0000000E+000
  0.0000000E+000
  0.0000000E+000
  0.0000000E+000
  0.0000000E+000
  0.0000000E+000
  0.0000000E+000
  0.0000000E+000
  0.0000000E+000
  0.0000000E+000
  0.0000000E+000
  0.0000000E+000
  0.0000000E+000
  0.0000000E+000
  0.0000000E+000
  0.0000000E+000
  0.0000000E+000
  0.0000000E+000
  0.0000000E+000
  0.0000000E+000
  0.0000000E+000
  0.0000000E+000
  0.0000000E+000
  0.0000000E+000
  0.0000000E+000
  0.0000000E+000
  0.0000000E+000
  0.0000000E+000
  0.0000000E+000
  0.0000000E+000
  0.0000000E+000
  0.0000000E+000
  0.0000000E+000
  0.0000000E+000
  0.0000000E+000
  0.0000000E+000
  0.0000000E+000
  0.0000000E+000
  0.0000000E+000
  0.0000000E+000
  0.0000000E+000
  0.0000000E+000
  0.0000000E+000
  0.0000000E+000
  0.0000000E+000
  0.0000000E+000
  0.0000000E+000
  0.0000000E+000
  0.0000000E+000
  0.0000000E+000
  0.0000000E+000
  0.0000000E+000
  0.0000000E+000
  0.0000000E+000
  0.0000000E+000
  0.0000000E+000
  0.0000000E+000
  0.0000000E+000
  0.0000000E+000
  0.0000000E+000
  0.0000000E+000
  0.0000000E+000
  0.0000000E+000
  0.0000000E+000
  0.0000000E+000
  0.0000000E+000
  0.0000000E+000
  0.0000000E+000
  0.0000000E+000
  0.0000000E+000
  0.0000000E+000
  0.0000000E+000
  0.0000000E+000
  0.0000000E+000
  0.0000000E+000
  0.0000000E+000
  0.0000000E+000
  0.0000000E+000
  0.0000000E+000
  0.0000000E+000
  0.0000000E+000
  0.0000000E+000
  0.0000000E+000
  0.0000000E+000
  0.0000000E+000
  0.0000000E+000
  0.0000000E+000
  0.0000000E+000
  0.0000000E+000
  0.0000000E+000
  0.0000000E+000
  0.0000000E+000
  0.0000000E+000
  0.0000000E+000
  0.0000000E+000
  0.0000000E+000
  0.0000000E+000
  0.0000000E+000
  0.0000000E+000
  0.0000000E+000
  0.0000000E+000
  0.0000000E+000
  0.0000000E+000
  0.0000000E+000
  0.0000000E+000
  0.0000000E+000
  0.0000000E+000
  0.0000000E+000
  0.0000000E+000
  0.0000000E+000
  0.0000000E+000
  0.0000000E+000
  0.0000000E+000
  0.0000000E+000
  0.0000000E+000
  0.0000000E+000
  0.0000000E+000
  0.0000000E+000
  0.0000000E+000
  0.0000000E+000
  0.0000000E+000
  0.0000000E+000
  0.0000000E+000
  0.0000000E+000
  0.0000000E+000
  0.0000000E+000
  0.0000000E+000
  0.0000000E+000
  0.0000000E+000
  0.0000000E+000
  0.0000000E+000
  0.0000000E+000
  0.0000000E+000
  0.0000000E+000
  0.0000000E+000
  0.0000000E+000
  0.0000000E+000
  0.0000000E+000
  0.0000000E+000
  0.0000000E+000
  0.0000000E+000
  0.0000000E+000
  0.0000000E+000
  0.0000000E+000
  0.0000000E+000
  0.0000000E+000
  0.0000000E+000
  0.0000000E+000
  0.0000000E+000
  0.0000000E+000
  0.0000000E+000
  0.0000000E+000
  0.0000000E+000
  0.0000000E+000
  0.0000000E+000
  0.0000000E+000
  0.0000000E+000
  0.0000000E+000
  0.0000000E+000
  0.0000000E+000
  0.0000000E+000
  0.0000000E+000
  0.0000000E+000
  0.0000000E+000
  0.0000000E+000
  0.0000000E+000
  0.0000000E+000
  0.0000000E+000
  0.0000000E+000
  0.0000000E+000
  0.0000000E+000
  0.0000000E+000
  0.0000000E+000
  0.0000000E+000
  0.0000000E+000
  0.0000000E+000
  0.0000000E+000
  0.0000000E+000
  0.0000000E+000
  0.0000000E+000
  0.0000000E+000
  0.0000000E+000
  0.0000000E+000
  0.0000000E+000
  0.0000000E+000
  0.0000000E+000
  0.0000000E+000
  0.0000000E+000
  0.0000000E+000
  0.0000000E+000
  0.0000000E+000
  0.0000000E+000
  0.0000000E+000
  0.0000000E+000
  0.0000000E+000
  0.0000000E+000
  0.0000000E+000
  0.0000000E+000
  0.0000000E+000
  0.0000000E+000
  0.0000000E+000
  0.0000000E+000
  0.0000000E+000
  0.0000000E+000
  0.0000000E+000
  0.0000000E+000
  0.0000000E+000
  0.0000000E+000
  0.0000000E+000
  0.0000000E+000
  0.0000000E+000
  0.0000000E+000
  0.0000000E+000
  0.0000000E+000
  0.0000000E+000
  0.0000000E+000
  0.0000000E+000
  0.0000000E+000
  0.0000000E+000
  0.0000000E+000
  0.0000000E+000
  0.0000000E+000
  0.0000000E+000
  0.0000000E+000
  0.0000000E+000
  0.0000000E+000
  0.0000000E+000
  0.0000000E+000
  0.0000000E+000
  0.0000000E+000
  0.0000000E+000
  0.0000000E+000
  0.0000000E+000
  0.0000000E+000
  0.0000000E+000
  0.0000000E+000
  0.0000000E+000
  0.0000000E+000
  0.0000000E+000
  0.0000000E+000
  0.0000000E+000
  0.0000000E+000
  0.0000000E+000
  0.0000000E+000
  0.0000000E+000
  0.0000000E+000
  0.0000000E+000
  0.0000000E+000
  0.0000000E+000
  0.0000000E+000
  0.0000000E+000
  0.0000000E+000
  0.0000000E+000
  0.0000000E+000
  0.0000000E+000
  0.0000000E+000
  0.0000000E+000
  0.0000000E+000
  0.0000000E+000
  0.0000000E+000
  0.0000000E+000
  0.0000000E+000
  0.0000000E+000
  0.0000000E+000
  0.0000000E+000
  0.0000000E+000
  0.0000000E+000
  0.0000000E+000
  0.0000000E+000
  0.0000000E+000
  0.0000000E+000
  0.0000000E+000
  0.0000000E+000
  0.0000000E+000
  0.0000000E+000
  0.0000000E+000
  0.0000000E+000
  0.0000000E+000
  0.0000000E+000
  0.0000000E+000
  0.0000000E+000
  0.0000000E+000
  0.0000000E+000
  0.0000000E+000
  0.0000000E+000
  0.0000000E+000
  0.0000000E+000
  0.0000000E+000
  0.0000000E+000
  0.0000000E+000
  0.0000000E+000
  0.0000000E+000
  0.0000000E+000
  0.0000000E+000
  0.0000000E+000
  0.0000000E+000
  0.0000000E+000
  0.0000000E+000
  0.0000000E+000
  0.0000000E+000
  0.0000000E+000
  0.0000000E+000
  0.0000000E+000
  0.0000000E+000
  0.0000000E+000
  0.0000000E+000
  0.0000000E+000
  0.0000000E+000
  0.0000000E+000
  0.0000000E+000
  0.0000000E+000
  0.0000000E+000
  0.0000000E+000
  0.0000000E+000
  0.0000000E+000
  0.0000000E+000
  0.0000000E+000
  0.0000000E+000
  0.0000000E+000
  0.0000000E+000
  0.0000000E+000
  0.0000000E+000
  0.0000000E+000
  0.0000000E+000
  0.0000000E+000
  0.0000000E+000
  0.0000000E+000
  0.0000000E+000
  0.0000000E+000
  0.0000000E+000
  0.0000000E+000
  0.0000000E+000
  0.0000000E+000
  0.0000000E+000
  0.0000000E+000
  0.0000000E+000
  0.0000000E+000
  0.0000000E+000
  0.0000000E+000
  0.0000000E+000
  0.0000000E+000
  0.0000000E+000
  0.0000000E+000
  0.0000000E+000
  0.0000000E+000
  0.0000000E+000
  0.0000000E+000
  0.0000000E+000
  0.0000000E+000
  0.0000000E+000
  0.0000000E+000
  0.0000000E+000
  0.0000000E+000
  0.0000000E+000
  0.0000000E+000
  0.0000000E+000
  0.0000000E+000
  0.0000000E+000
  0.0000000E+000
  0.0000000E+000
  0.0000000E+000
  0.0000000E+000
  0.0000000E+000
  0.0000000E+000
  0.0000000E+000
  0.0000000E+000
  0.0000000E+000
  0.0000000E+000
  0.0000000E+000
  0.0000000E+000
  0.0000000E+000
  0.0000000E+000
  0.0000000E+000
  0.0000000E+000
  0.0000000E+000
  0.0000000E+000
  0.0000000E+000
  0.0000000E+000
  0.0000000E+000
  0.0000000E+000
  0.0000000E+000
  0.0000000E+000
  0.0000000E+000
  0.0000000E+000
  0.0000000E+000
  0.0000000E+000
  0.0000000E+000
  0.0000000E+000
  0.0000000E+000
  0.0000000E+000
  0.0000000E+000
  0.0000000E+000
  0.0000000E+000
  0.0000000E+000
  0.0000000E+000
  0.0000000E+000
  0.0000000E+000
  0.0000000E+000
  0.0000000E+000
  0.0000000E+000
  0.0000000E+000
  0.0000000E+000
  0.0000000E+000
  0.0000000E+000
  0.0000000E+000
  0.0000000E+000
  0.0000000E+000
  0.0000000E+000
  0.0000000E+000
  0.0000000E+000
  0.0000000E+000
  0.0000000E+000
  0.0000000E+000
  0.0000000E+000
  0.0000000E+000
  0.0000000E+000
  0.0000000E+000
  0.0000000E+000
  0.0000000E+000
  0.0000000E+000
  0.0000000E+000
  0.0000000E+000
  0.0000000E+000
  0.0000000E+000
  0.0000000E+000
  0.0000000E+000
  0.0000000E+000
  0.0000000E+000
  0.0000000E+000
  0.0000000E+000
  0.0000000E+000
  0.0000000E+000
  0.0000000E+000
  0.0000000E+000
  0.0000000E+000
  0.0000000E+000
  0.0000000E+000
  0.0000000E+000
  0.0000000E+000
  0.0000000E+000
  0.0000000E+000
  0.0000000E+000
  0.0000000E+000
  0.0000000E+000
  0.0000000E+000
  0.0000000E+000
  0.0000000E+000
  0.0000000E+000
  0.0000000E+000
  0.0000000E+000
  0.0000000E+000
  0.0000000E+000
  0.0000000E+000
  0.0000000E+000
  0.0000000E+000
  0.0000000E+000
  0.0000000E+000
  0.0000000E+000
  0.0000000E+000
  0.0000000E+000
  0.0000000E+000
  0.0000000E+000
  0.0000000E+000
  0.0000000E+000
  0.0000000E+000
  0.0000000E+000
  0.0000000E+000
  0.0000000E+000
  0.0000000E+000
  0.0000000E+000
  0.0000000E+000
  0.0000000E+000
  0.0000000E+000
  0.0000000E+000
  0.0000000E+000
  0.0000000E+000
  0.0000000E+000
  0.0000000E+000
  0.0000000E+000
  0.0000000E+000
  0.0000000E+000
  0.0000000E+000
  0.0000000E+000
  0.0000000E+000
  0.0000000E+000
  0.0000000E+000
  0.0000000E+000
  0.0000000E+000
  0.0000000E+000
  0.0000000E+000
  0.0000000E+000
  0.0000000E+000
  0.0000000E+000
  0.0000000E+000
  0.0000000E+000
  0.0000000E+000
  0.0000000E+000
  0.0000000E+000
  0.0000000E+000
  0.0000000E+000
  0.0000000E+000
  0.0000000E+000
  0.0000000E+000
  0.0000000E+000
  0.0000000E+000
  0.0000000E+000
  0.0000000E+000
  0.0000000E+000
  0.0000000E+000
  0.0000000E+000
  0.0000000E+000
  0.0000000E+000
  0.0000000E+000
  0.0000000E+000
  0.0000000E+000
  0.0000000E+000
  0.0000000E+000
  0.0000000E+000
  0.0000000E+000
  0.0000000E+000
  0.0000000E+000
  0.0000000E+000
  0.0000000E+000
  0.0000000E+000
  0.0000000E+000
  0.0000000E+000
  0.0000000E+000
  0.0000000E+000
  0.0000000E+000
  0.0000000E+000
  0.0000000E+000
  0.0000000E+000
  0.0000000E+000
  0.0000000E+000
  0.0000000E+000
  0.0000000E+000
  0.0000000E+000
  0.0000000E+000
  0.0000000E+000
  0.0000000E+000
  0.0000000E+000
  0.0000000E+000
  0.0000000E+000
  0.0000000E+000
  0.0000000E+000
  0.0000000E+000
  0.0000000E+000
  0.0000000E+000
  0.0000000E+000
  0.0000000E+000
  0.0000000E+000
  0.0000000E+000
  0.0000000E+000
  0.0000000E+000
  0.0000000E+000
  0.0000000E+000
  0.0000000E+000
  0.0000000E+000
  0.0000000E+000
  0.0000000E+000
  0.0000000E+000
  0.0000000E+000
  0.0000000E+000
  0.0000000E+000
  0.0000000E+000
  0.0000000E+000
  0.0000000E+000
  0.0000000E+000
  0.0000000E+000
  0.0000000E+000
  0.0000000E+000
  0.0000000E+000
  0.0000000E+000
  0.0000000E+000
  0.0000000E+000
  0.0000000E+000
  0.0000000E+000
  0.0000000E+000
  0.0000000E+000
  0.0000000E+000
  0.0000000E+000
  0.0000000E+000
  0.0000000E+000
  0.0000000E+000
  0.0000000E+000
  0.0000000E+000
  0.0000000E+000
  0.0000000E+000
  0.0000000E+000
  0.0000000E+000
  0.0000000E+000
  0.0000000E+000
  0.0000000E+000
  0.0000000E+000
  0.0000000E+000
  0.0000000E+000
  0.0000000E+000
  0.0000000E+000
  0.0000000E+000
  0.0000000E+000
  0.0000000E+000
  0.0000000E+000
  0.0000000E+000
  0.0000000E+000
  0.0000000E+000
  0.0000000E+000
  0.0000000E+000
  0.0000000E+000
  0.0000000E+000
  0.0000000E+000
  0.0000000E+000
  0.0000000E+000
  0.0000000E+000
  0.0000000E+000
  0.0000000E+000
  0.0000000E+000
  0.0000000E+000
  0.0000000E+000
  0.0000000E+000
  0.0000000E+000
  0.0000000E+000
  0.0000000E+000
  0.0000000E+000
  0.0000000E+000
  0.0000000E+000
  0.0000000E+000
  0.0000000E+000
  0.0000000E+000
  0.0000000E+000
  0.0000000E+000
  0.0000000E+000
  0.0000000E+000
  0.0000000E+000
  0.0000000E+000
  0.0000000E+000
  0.0000000E+000
  0.0000000E+000
  0.0000000E+000
  0.0000000E+000
  0.0000000E+000
  0.0000000E+000
  0.0000000E+000
  0.0000000E+000
  0.0000000E+000
  0.0000000E+000
  0.0000000E+000
  0.0000000E+000
  0.0000000E+000
SCALARS Vonmises double
LOOKUP_TABLE default
  1.0681955E+005
  1.7334665E+005
  1.2518925E+005
  6.2553190E+004
  1.2232550E+005
  9.9760712E+004
  1.2261308E+005
  1.0020724E+005
  1.2660335E+005
  6.2919583E+004
  1.7129250E+005
  1.0436041E+005
  2.6841354E+003
  7.3363494E+003
  1.0854724E+004
  2.5206803E+003
  2.1332877E+004
  1.0607554E+004
  2.9882022E+004
  2.2362323E+004
  4.0316585E+004
  3.6078894E+004
  5.1980092E+004
  5.1750412E+004
  6.5110033E+004
  6.8976603E+004
  7.9388078E+004
  8.7987490E+004
  9.5212306E+004
  1.0789434E+005
  1.1052468E+005
  1.3281312E+005
  1.3054273E+005
  1.5055080E+005
  1.2796450E+005
  2.2687306E+005
  1.2113078E+005
  1.4197882E+005
  1.4379160E+005
  1.4620331E+005
  1.4911659E+005
  1.3207175E+005
  1.5594390E+005
  2.0688180E+005
  1.5283942E+005
  7.9133992E+004
  1.7506285E+005
  9.6821912E+004
  1.7265500E+004
  2.2875005E+004
  3.3195102E+004
  4.2467841E+004
  5.1556039E+004
  6.0811980E+004
  7.0437291E+004
  8.0496434E+004
  9.0458912E+004
  1.0014859E+005
  1.0437962E+005
  9.9069241E+004
  9.4952275E+004
  1.1791809E+005
  1.3693932E+005
  1.4356864E+005
  1.3766619E+005
  1.3077448E+005
  1.5628114E+005
  1.6425079E+005
  1.6523619E+005
  1.5219771E+005
  1.2298552E+005
  1.2143697E+005
  4.0182049E+004
  8.6032212E+003
  9.2557433E+003
  2.2376570E+004
  3.2066885E+004
  4.0448711E+004
  4.9801212E+004
  5.8695319E+004
  6.7136903E+004
  7.5104093E+004
  8.2451018E+004
  8.8800729E+004
  9.2704586E+004
  9.2067479E+004
  8.7513479E+004
  9.0302420E+004
  1.0259265E+005
  1.1987684E+005
  1.2992873E+005
  1.3221593E+005
  1.3771676E+005
  1.4921336E+005
  1.6384966E+005
  1.8029829E+005
  2.2947978E+005
  1.9410107E+005
  2.3111328E+005
  5.5612523E+004
  3.6920565E+004
  3.0876706E+004
  3.9129376E+004
  4.5711435E+004
  5.5395994E+004
  6.4265136E+004
  7.2509726E+004
  7.9713386E+004
  8.5727211E+004
  8.9991203E+004
  9.1547480E+004
  8.9540838E+004
  8.5838098E+004
  8.4721232E+004
  9.2810818E+004
  1.0523234E+005
  1.1611071E+005
  1.2365254E+005
  1.3143147E+005
  1.4373918E+005
  1.6186945E+005
  1.8414081E+005
  2.1698222E+005
  2.2692998E+005
  4.0159740E+005
  3.8900021E+004
  3.1744661E+004
  3.8821837E+004
  4.9558129E+004
  5.9004781E+004
  6.8060132E+004
  7.5983721E+004
  8.2809139E+004
  8.8308314E+004
  9.2013323E+004
  9.3197862E+004
  9.1543958E+004
  8.7901043E+004
  8.5811400E+004
  8.8124789E+004
  9.5274839E+004
  1.0382899E+005
  1.1183983E+005
  1.2028132E+005
  1.3089394E+005
  1.4427987E+005
  1.5678936E+005
  1.6653431E+005
  1.3159705E+005
  2.0818424E+005
  2.4695548E+005
  3.1440676E+005
  3.1066987E+005
  1.6513488E+005
  2.3333938E+004
  2.0737914E+004
  3.0435196E+004
  3.8089574E+004
  4.3937220E+004
  5.3639887E+004
  6.2799717E+004
  7.0987891E+004
  7.8306380E+004
  8.4875030E+004
  9.0547100E+004
  9.4820913E+004
  9.7025509E+004
  9.6671908E+004
  9.4165596E+004
  9.0967445E+004
  8.9527954E+004
  9.0954547E+004
  9.4599609E+004
  9.9174558E+004
  1.0431386E+005
  1.1010845E+005
  1.1527241E+005
  1.1617256E+005
  1.0589488E+005
  1.0888385E+005
  1.5926383E+005
  1.9599026E+005
  2.1063581E+005
  1.8698019E+005
  2.1412667E+005
  2.1649749E+005
  1.1837610E+005
  2.2028109E+004
  3.3440053E+004
  4.5162118E+004
  5.3258846E+004
  6.0157873E+004
  6.6864940E+004
  7.3127961E+004
  7.9493191E+004
  8.6146995E+004
  9.2733671E+004
  9.8535509E+004
  1.0270788E+005
  1.0456511E+005
  1.0386119E+005
  1.0111301E+005
  9.7378267E+004
  9.3816858E+004
  9.0967421E+004
  8.8673694E+004
  8.6801390E+004
  8.4757585E+004
  8.1062468E+004
  7.4172356E+004
  7.1562545E+004
  9.2112514E+004
  1.2818261E+005
  1.5207723E+005
  1.7410399E+005
  1.6873101E+005
  1.5586838E+005
  1.2059935E+005
  1.4122917E+005
  1.1992809E+005
  6.3537538E+004
  7.7283664E+003
  2.5208628E+003
  1.6224086E+004
  3.8098926E+004
  5.2262729E+004
  6.2111613E+004
  6.6595126E+004
  6.9557934E+004
  7.3525126E+004
  7.9607932E+004
  8.7382835E+004
  9.5876827E+004
  1.0403372E+005
  1.1087455E+005
  1.1555742E+005
  1.1746078E+005
  1.1625900E+005
  1.1199529E+005
  1.0503650E+005
  9.5821831E+004
  8.5263851E+004
  7.3575138E+004
  6.1664384E+004
  5.0930139E+004
  4.7924823E+004
  6.4354742E+004
  9.6125309E+004
  1.2893421E+005
  1.5408731E+005
  1.6248450E+005
  1.5794600E+005
  1.5229881E+005
  1.3039353E+005
  1.0038226E+005
  5.9921474E+004
  6.5883566E+004
  3.7054585E+004
  1.6238764E+004
  3.9775014E+003
  1.3797700E+004
  3.9557818E+004
  6.3630911E+004
  6.9921183E+004
  6.9005849E+004
  6.7654476E+004
  7.1674900E+004
  7.9979885E+004
  9.0524005E+004
  1.0176792E+005
  1.1265405E+005
  1.2236682E+005
  1.3016168E+005
  1.3525084E+005
  1.3669920E+005
  1.3351666E+005
  1.2492498E+005
  1.1131007E+005
  9.3455991E+004
  7.5430198E+004
  5.9615923E+004
  5.2661870E+004
  6.3405171E+004
  8.9794033E+004
  1.2139481E+005
  1.4919368E+005
  1.6766169E+005
  1.7622552E+005
  1.7521900E+005
  1.6328177E+005
  1.4373934E+005
  1.2237425E+005
  9.1576593E+004
  5.4894080E+004
  2.4876021E+004
  9.5099940E+003
  1.5392698E+004
  1.0772767E+004
  2.4013588E+004
  4.3168754E+004
  6.6512389E+004
  7.2478303E+004
  6.0197711E+004
  6.1575797E+004
  7.1935025E+004
  8.5107987E+004
  9.8914991E+004
  1.1251422E+005
  1.2552470E+005
  1.3761563E+005
  1.4835660E+005
  1.5702820E+005
  1.6235086E+005
  1.6201885E+005
  1.5374860E+005
  1.3687099E+005
  1.1732593E+005
  1.0125726E+005
  9.6493743E+004
  9.9296499E+004
  1.1202115E+005
  1.3573311E+005
  1.6145341E+005
  1.8194629E+005
  1.9367048E+005
  1.9719596E+005
  1.9390940E+005
  1.8479561E+005
  1.6921348E+005
  1.4605928E+005
  1.1777821E+005
  8.8566630E+004
  6.1003571E+004
  4.1182963E+004
  3.7900562E+004
  2.5215432E+004
  8.4589351E+004
  1.1347933E+005
  6.0125452E+004
  5.0089283E+004
  6.9338785E+004
  8.5212406E+004
  1.0066690E+005
  1.1499254E+005
  1.2885897E+005
  1.4243046E+005
  1.5580811E+005
  1.6890292E+005
  1.8132644E+005
  1.9187629E+005
  1.9763698E+005
  1.9205562E+005
  1.7378843E+005
  1.5622216E+005
  1.6014622E+005
  1.7174774E+005
  1.7805855E+005
  1.8248441E+005
  1.9463771E+005
  2.1323176E+005
  2.2281210E+005
  2.2316233E+005
  2.1905583E+005
  2.1265810E+005
  2.0377719E+005
  1.9068183E+005
  1.7211027E+005
  1.4803142E+005
  1.2095743E+005
  9.4724256E+004
  7.3870185E+004
  5.7775620E+004
  5.5067295E+004
  3.8649071E+004
  1.6305854E+005
  7.7501053E+004
  9.2949674E+004
  1.0517352E+005
  1.1537175E+005
  1.2618617E+005
  1.3716142E+005
  1.4879129E+005
  1.6116781E+005
  1.7451050E+005
  1.8902207E+005
  2.0479705E+005
  2.2156992E+005
  2.3727691E+005
  2.4420129E+005
  2.2312386E+005
  2.0325032E+005
  2.6407108E+005
  3.1314084E+005
  2.9978252E+005
  2.5967969E+005
  2.7551054E+005
  2.8270174E+005
  2.6806938E+005
  2.5268151E+005
  2.3697158E+005
  2.2496023E+005
  2.1693654E+005
  2.0801417E+005
  1.9405759E+005
  1.7483621E+005
  1.5217872E+005
  1.2918127E+005
  1.0775664E+005
  9.9930091E+004
  7.9466749E+004
  8.0358149E+004
  2.5794999E+004
  9.8129629E+004
  1.3463156E+005
  1.6131165E+005
  1.5021839E+005
  1.5152612E+005
  1.5426083E+005
  1.6016341E+005
  1.6808545E+005
  1.7803603E+005
  1.9010177E+005
  2.0470083E+005
  2.2245492E+005
  2.4445705E+005
  2.7099314E+005
  3.0381611E+005
  3.0789386E+005
  3.2983947E+005
  4.7804533E+005
  5.8162594E+005
  5.0159771E+005
  4.2039669E+005
  4.0619383E+005
  3.4938211E+005
  3.1060696E+005
  2.8532951E+005
  2.5003781E+005
  2.2628397E+005
  2.2116012E+005
  2.1790716E+005
  2.0956176E+005
  1.9588398E+005
  1.7828891E+005
  1.5949514E+005
  1.4204232E+005
  1.3184712E+005
  1.2133292E+005
  1.4945673E+005
  2.4347911E+005
  2.0357734E+005
  2.0487246E+005
  1.8614586E+005
  1.7982791E+005
  1.7679889E+005
  1.7802446E+005
  1.8219287E+005
  1.8914625E+005
  1.9887202E+005
  2.1193274E+005
  2.2883433E+005
  2.5281510E+005
  2.8114807E+005
  3.4308083E+005
  3.7315648E+005
  7.0787040E+005
  9.2928822E+005
  6.2112182E+005
  9.0427246E+005
  7.2261842E+005
  4.8188855E+005
  4.2454447E+005
  3.6511880E+005
  3.3776915E+005
  2.4359793E+005
  2.1491102E+005
  2.1755133E+005
  2.1726030E+005
  2.1409702E+005
  2.0742383E+005
  1.9547504E+005
  1.8055263E+005
  1.6704749E+005
  1.5202022E+005
  1.5533197E+005
  1.4847667E+005
  1.8483460E+005
  7.3350868E+004
  2.3568074E+004
  2.0924311E+004
  8.8815278E+003
  5.7002982E+004
  2.7891244E+004
  7.8153512E+004
  3.3826122E+004
  3.0018433E+004
  4.1924442E+004
  3.2811956E+004
  1.2555082E+005
  2.4053808E+005
  1.9522292E+005
  9.3524348E+004
  2.0066864E+005
  2.5090637E+005
  1.7356274E+005
  2.0341689E+005
  2.1105389E+005
  2.0134032E+005
  1.9359251E+005
  1.8855311E+005
  1.8679671E+005
  1.8792868E+005
  1.9180256E+005
  1.9837705E+005
  2.0817002E+005
  2.2099821E+005
  2.4115973E+005
  2.5833157E+005
  3.1828151E+005
  2.9220570E+005
  4.2370504E+005
  4.4177068E+005
  4.9468562E+005
  5.4000617E+005
  3.5975104E+005
  3.7445601E+005
  2.5065748E+005
  2.1265099E+005
  2.0604335E+005
  1.9589016E+005
  2.0455274E+005
  2.0607784E+005
  1.9931317E+005
  1.8836149E+005
  1.7649702E+005
  1.6644620E+005
  1.6608874E+005
  1.8468088E+005
  2.6735345E+005
  4.5297753E+003
  2.3057033E+004
  2.1254404E+004
  1.4841098E+004
  1.8859086E+004
  1.9755316E+004
  3.0275139E+004
  3.1639799E+004
  3.9332296E+004
  2.4877261E+004
  1.0747219E+004
  3.7353461E+004
  1.1760035E+004
  1.7013358E+005
  3.2787500E+005
  2.2993193E+005
  1.9959782E+005
  2.2647048E+005
  2.1355584E+005
  2.0025003E+005
  1.7397493E+005
  1.8628431E+005
  1.9855548E+005
  1.9826820E+005
  1.9329265E+005
  1.8856577E+005
  1.8544323E+005
  1.8434061E+005
  1.8529257E+005
  1.8832224E+005
  1.9335607E+005
  2.0074370E+005
  2.0912581E+005
  2.2020990E+005
  2.2182850E+005
  1.7226009E+005
  3.7417834E+004
  4.5211273E+005
  2.2262371E+005
  4.1325133E+005
  3.4727496E+005
  2.1272278E+005
  1.8087671E+005
  1.5005695E+005
  1.7783401E+005
  1.8718904E+005
  1.8658877E+005
  1.7916207E+005
  1.7005260E+005
  1.6245974E+005
  1.5739844E+005
  1.5690409E+005
  2.0125109E+005
  2.3139128E+005
  2.2353546E+005
  5.0192636E+004
  4.7016225E+004
  3.0786235E+004
  3.5877048E+004
  4.6628979E+004
  5.9789361E+004
  6.9624256E+004
  7.4879512E+004
  8.0565688E+004
  8.3324103E+004
  6.2858680E+004
  1.0095595E+005
  5.8433867E+004
  1.1003578E+005
  3.7902026E+004
  1.6838744E+005
  9.5949324E+004
  2.8323562E+005
  4.6320882E+005
  3.1005932E+005
  2.6790976E+005
  2.7971622E+005
  2.4487231E+005
  2.2139487E+005
  2.0054528E+005
  1.8964914E+005
  1.8079092E+005
  1.7959136E+005
  1.8432509E+005
  1.8568723E+005
  1.8304676E+005
  1.7904381E+005
  1.7531625E+005
  1.7253131E+005
  1.7088841E+005
  1.7030919E+005
  1.7059343E+005
  1.7093414E+005
  1.7075454E+005
  1.6468993E+005
  1.4865421E+005
  8.5529594E+004
  4.0142793E+004
  3.5427900E+005
  2.2255615E+005
  1.8412558E+005
  7.4425423E+004
  1.2938176E+005
  1.4887244E+005
  1.5426371E+005
  1.5114165E+005
  1.4767859E+005
  1.4266170E+005
  1.4294379E+005
  1.5971350E+005
  2.3775639E+005
  2.5624416E+005
  3.1064676E+005
  1.0835175E+005
  1.5842109E+004
  4.8956047E+004
  4.8817894E+004
  4.6514730E+004
  4.9734248E+004
  5.6337614E+004
  7.0750414E+004
  8.6265593E+004
  9.9455413E+004
  1.1015196E+005
  1.1749968E+005
  1.2618709E+005
  1.4269487E+005
  1.6717195E+005
  1.7017634E+005
  1.8923401E+005
  2.6642829E+005
  2.2116508E+005
  2.3680600E+005
  2.3290126E+005
  2.5678106E+005
  2.4621894E+005
  2.6895230E+005
  2.5777221E+005
  2.8373509E+005
  2.6887781E+005
  2.9737984E+005
  2.7947748E+005
  3.1081030E+005
  2.9007765E+005
  3.2420661E+005
  3.0099222E+005
  3.3796726E+005
  3.1227098E+005
  3.5218732E+005
  3.2384023E+005
  3.6650363E+005
  3.3524877E+005
  3.8134453E+005
  3.4768398E+005
  3.9499155E+005
  3.5733972E+005
  4.1881322E+005
  3.7816573E+005
  4.2561124E+005
  3.4286062E+005
  5.9190609E+005
  2.9423321E+005
  2.9150173E+005
  2.5113149E+005
  2.2178064E+005
  2.0791330E+005
  1.9143319E+005
  1.7947588E+005
  1.7233232E+005
  1.7022339E+005
  1.7013391E+005
  1.6951477E+005
  1.6704248E+005
  1.6321738E+005
  1.5896516E+005
  1.5484406E+005
  1.5102585E+005
  1.4738966E+005
  1.4346877E+005
  1.3848424E+005
  1.3059844E+005
  1.1719412E+005
  9.3486905E+004
  5.9447300E+004
  2.7090425E+004
  2.3666704E+005
  8.9786376E+004
  5.5176632E+004
  9.1721031E+004
  9.8680781E+004
  1.1054184E+005
  1.1242343E+005
  1.1166648E+005
  1.1632027E+005
  1.3536839E+005
  1.7740580E+005
  2.1731948E+005
  4.3309155E+005
  6.6938965E+004
  6.4353372E+004
  5.7876662E+004
  6.2352359E+004
  7.4888083E+004
  9.2633588E+004
  1.1064086E+005
  1.2583328E+005
  1.3738000E+005
  1.4688140E+005
  1.5697178E+005
  1.6966455E+005
  1.7786628E+005
  1.7710906E+005
  1.7993344E+005
  1.9603786E+005
  2.1187865E+005
  2.2305996E+005
  2.3230585E+005
  2.3984602E+005
  2.4659420E+005
  2.5335095E+005
  2.6079660E+005
  2.6890748E+005
  2.7699312E+005
  2.8420680E+005
  2.8871392E+005
  2.8959630E+005
  2.7406353E+005
  2.3715872E+005
  2.0550433E+005
  2.1443753E+005
  2.1347185E+005
  1.9760213E+005
  1.8440199E+005
  1.7403966E+005
  1.6526717E+005
  1.5933608E+005
  1.5583299E+005
  1.5368010E+005
  1.5134294E+005
  1.4809323E+005
  1.4389382E+005
  1.3906473E+005
  1.3389922E+005
  1.2847998E+005
  1.2263354E+005
  1.1591556E+005
  1.0747621E+005
  9.6086015E+004
  7.9915634E+004
  5.8120938E+004
  2.7294730E+004
  1.7108467E+004
  2.6753498E+004
  3.2959558E+004
  2.3044700E+005
  1.7292621E+005
  9.4811889E+004
  7.3324096E+004
  7.3461114E+004
  7.3722974E+004
  7.3386204E+004
  7.5196959E+004
  8.2577231E+004
  9.5240182E+004
  7.9763623E+004
  1.7809710E+005
  2.1101820E+005
  3.8130079E+005
  1.6498615E+005
  1.2641579E+005
  1.0388463E+005
  1.0563745E+005
  7.6421757E+004
  6.4623883E+004
  5.2331066E+004
  4.3763915E+004
  3.5969250E+004
  2.6494760E+004
  2.3423990E+004
  1.4698359E+004
  1.4269056E+004
  6.6045334E+003
  7.5755928E+003
  1.7933145E+003
  3.0475683E+003
  5.7988496E+002
  1.1657880E+003
  1.2412201E+003
  8.5035183E+004
  8.1019610E+004
  7.7142313E+004
  7.7872377E+004
  9.4007826E+004
  1.1499326E+005
  1.3334609E+005
  1.4781137E+005
  1.5882443E+005
  1.6751727E+005
  1.7511838E+005
  1.8105577E+005
  1.8315478E+005
  1.8162284E+005
  1.8221828E+005
  1.8668541E+005
  1.9544845E+005
  2.0385973E+005
  2.0994480E+005
  2.1360608E+005
  2.1555153E+005
  2.1798745E+005
  2.2190715E+005
  2.2691269E+005
  2.3162134E+005
  2.3418403E+005
  2.3227742E+005
  2.2237222E+005
  2.0224530E+005
  1.7920510E+005
  1.6661687E+005
  1.6558891E+005
  1.6836924E+005
  1.6566433E+005
  1.5903139E+005
  1.5230261E+005
  1.4644035E+005
  1.4172341E+005
  1.3812568E+005
  1.3500476E+005
  1.3170530E+005
  1.2777934E+005
  1.2312016E+005
  1.1781368E+005
  1.1197012E+005
  1.0560085E+005
  9.8554512E+004
  9.0476457E+004
  8.0797408E+004
  6.8768040E+004
  5.3671379E+004
  3.5239563E+004
  1.6948769E+004
  1.3619407E+004
  2.1347104E+004
  2.3322793E+004
  1.7276554E+004
  1.2883753E+005
  1.1375277E+005
  8.9987948E+004
  7.3502449E+004
  6.0192819E+004
  4.3356954E+004
  3.0034094E+004
  2.9835631E+004
  4.8096447E+004
  1.0141470E+005
  1.6283994E+005
  1.9583637E+005
  1.6426195E+005
  1.2589529E+005
  9.3337752E+004
  6.9829072E+004
  5.0887963E+004
  3.5972986E+004
  2.4039510E+004
  1.4796630E+004
  8.4224246E+003
  3.4891191E+003
  7.5076456E+002
  2.5865007E+003
  1.1835192E+003
  1.3729030E+003
  1.3582361E+003
  1.0242195E+003
  9.5514798E+004
  1.1320731E+005
  8.9361708E+004
  9.4602127E+004
  1.1915949E+005
  1.3972057E+005
  1.5544593E+005
  1.6638019E+005
  1.7403458E+005
  1.7941104E+005
  1.8286287E+005
  1.8410271E+005
  1.8284565E+005
  1.7997232E+005
  1.7754964E+005
  1.7853037E+005
  1.8221450E+005
  1.8712858E+005
  1.9013148E+005
  1.8910549E+005
  1.8566042E+005
  1.8245984E+005
  1.8256793E+005
  1.8458230E+005
  1.8606479E+005
  1.8448539E+005
  1.7814192E+005
  1.6516072E+005
  1.4822883E+005
  1.3231903E+005
  1.2506791E+005
  1.2737749E+005
  1.3117581E+005
  1.3248212E+005
  1.3103843E+005
  1.2805135E+005
  1.2469454E+005
  1.2141746E+005
  1.1825650E+005
  1.1501446E+005
  1.1138980E+005
  1.0717725E+005
  1.0230446E+005
  9.6797565E+004
  9.0704152E+004
  8.4027372E+004
  7.6681693E+004
  6.8472449E+004
  5.9107674E+004
  4.8258624E+004
  3.5782992E+004
  2.2301836E+004
  1.0907748E+004
  1.0050233E+004
  1.5384434E+004
  2.4223900E+004
  2.6907024E+005
  2.4244392E+005
  1.6538255E+005
  1.2322126E+005
  8.5180362E+004
  5.0565136E+004
  2.7561637E+004
  3.7661067E+004
  7.1733071E+004
  1.1266938E+005
  1.4711536E+005
  1.5809965E+005
  1.5306537E+005
  1.2913275E+005
  1.0355302E+005
  8.0768480E+004
  6.1521193E+004
  4.5204564E+004
  3.1633011E+004
  2.0734328E+004
  1.2314649E+004
  6.0716156E+003
  1.9186916E+003
  7.1172475E+002
  1.2522421E+003
  1.2625908E+003
  9.7131599E+002
  1.1911072E+005
  1.0365862E+005
  9.9505365E+004
  1.3102568E+005
  1.5251200E+005
  1.6825442E+005
  1.7640346E+005
  1.8071095E+005
  1.8312788E+005
  1.8396710E+005
  1.8304777E+005
  1.8028713E+005
  1.7599950E+005
  1.7114598E+005
  1.6733158E+005
  1.6566522E+005
  1.6685085E+005
  1.7006625E+005
  1.7266359E+005
  1.6784539E+005
  1.5484686E+005
  1.4684509E+005
  1.4468394E+005
  1.4247637E+005
  1.3920351E+005
  1.3629414E+005
  1.2686049E+005
  1.1258648E+005
  9.8763936E+004
  9.0409507E+004
  8.8524716E+004
  9.1861294E+004
  9.6940643E+004
  1.0085694E+005
  1.0260510E+005
  1.0259252E+005
  1.0150559E+005
  9.9755435E+004
  9.7478349E+004
  9.4659581E+004
  9.1234488E+004
  8.7153132E+004
  8.2414077E+004
  7.7054831E+004
  7.1128661E+004
  6.4675868E+004
  5.7700135E+004
  5.0157357E+004
  4.1965913E+004
  3.3062449E+004
  2.3548917E+004
  1.4066080E+004
  7.7041892E+003
  1.0423843E+004
  1.6491478E+004
  1.6346493E+004
  9.6412460E+003
  1.3978159E+004
  1.4306462E+005
  1.8286680E+005
  1.8163668E+005
  1.1416299E+005
  7.7756025E+004
  6.5978953E+004
  7.2400380E+004
  9.4372093E+004
  1.2153782E+005
  1.4350133E+005
  1.5281941E+005
  1.4574652E+005
  1.3020795E+005
  1.0976524E+005
  8.9353702E+004
  7.0502995E+004
  5.3593250E+004
  3.8731515E+004
  2.6105260E+004
  1.5898240E+004
  8.2921877E+003
  3.3103091E+003
  6.3087194E+002
  1.0474330E+003
  2.2118414E+003
  8.2019076E+004
  1.4836810E+005
  2.0133210E+005
  1.7848191E+005
  1.9846652E+005
  1.9894861E+005
  1.9421670E+005
  1.8966821E+005
  1.8624749E+005
  1.8248051E+005
  1.7733210E+005
  1.7074395E+005
  1.6334908E+005
  1.5613882E+005
  1.5022030E+005
  1.4664396E+005
  1.4598444E+005
  1.4818575E+005
  1.5324653E+005
  1.5385632E+005
  1.3237419E+005
  1.1349644E+005
  1.0735224E+005
  9.4049108E+004
  8.1371483E+004
  7.5742842E+004
  7.1167616E+004
  5.5052282E+004
  5.3301413E+004
  5.1608096E+004
  5.1688002E+004
  5.6420890E+004
  6.4212160E+004
  7.0643330E+004
  7.4674099E+004
  7.7084528E+004
  7.8103502E+004
  7.7948216E+004
  7.6815628E+004
  7.4794771E+004
  7.1953999E+004
  6.8364993E+004
  6.4090359E+004
  5.9199808E+004
  5.3778292E+004
  4.7920496E+004
  4.1715599E+004
  3.5233054E+004
  2.8523073E+004
  2.1642566E+004
  1.4740691E+004
  8.4752264E+003
  6.4219788E+003
  1.1520364E+004
  1.6833631E+004
  1.6191786E+004
  1.3069940E+004
  2.5754935E+005
  2.2202442E+005
  1.7177009E+005
  1.2651118E+005
  1.2084226E+005
  1.0378502E+005
  1.0034968E+005
  1.1087273E+005
  1.2719990E+005
  1.4056113E+005
  1.4521299E+005
  1.4054769E+005
  1.2802729E+005
  1.1178336E+005
  9.4260030E+004
  7.7025781E+004
  6.0592930E+004
  4.5226423E+004
  3.1294306E+004
  1.9467559E+004
  1.0297914E+004
  4.2039259E+003
  9.1642178E+002
  8.9649466E+002
  2.3956074E+003
  2.5257638E+005
  2.0773614E+005
  2.5282140E+005
  2.5229082E+005
  2.2711430E+005
  2.0553840E+005
  1.9212333E+005
  1.8418535E+005
  1.7660246E+005
  1.6747246E+005
  1.5708828E+005
  1.4633175E+005
  1.3617757E+005
  1.2761864E+005
  1.2138889E+005
  1.1840329E+005
  1.1764085E+005
  1.2366395E+005
  1.2094086E+005
  1.3242514E+005
  1.1489313E+005
  7.2519424E+004
  5.1141102E+004
  3.0437813E+004
  2.1464585E+004
  3.4400812E+004
  2.6863804E+004
  2.5259575E+004
  1.1527331E+004
  1.0365860E+004
  2.1204931E+004
  3.3796634E+004
  4.1174936E+004
  4.7756467E+004
  5.2508933E+004
  5.5344371E+004
  5.6860203E+004
  5.7070390E+004
  5.6063695E+004
  5.4074628E+004
  5.1255705E+004
  4.7713177E+004
  4.3539840E+004
  3.8851963E+004
  3.3800685E+004
  2.8546803E+004
  2.3235156E+004
  1.7982556E+004
  1.2882767E+004
  8.0744204E+003
  4.2606158E+003
  5.0198442E+003
  9.6647475E+003
  1.5615539E+004
  1.5677186E+004
  9.0364689E+003
  3.4742147E+005
  3.6786442E+005
  2.4549850E+005
  1.7057965E+005
  1.3502208E+005
  1.2233513E+005
  1.2242881E+005
  1.3138931E+005
  1.3954227E+005
  1.4120806E+005
  1.3550573E+005
  1.2460040E+005
  1.1081401E+005
  9.6078928E+004
  8.1207238E+004
  6.6340508E+004
  5.1399749E+004
  3.6780145E+004
  2.3129037E+004
  1.1953272E+004
  4.4066869E+003
  6.7414822E+002
  1.3050935E+003
  1.9204119E+003
  2.8436593E+005
  3.5612844E+005
  3.5330158E+005
  3.0745426E+005
  2.4884690E+005
  2.0638651E+005
  1.8839960E+005
  1.7920707E+005
  1.6858921E+005
  1.5569485E+005
  1.4171139E+005
  1.2758008E+005
  1.1413306E+005
  1.0219182E+005
  9.2503266E+004
  8.5655824E+004
  8.1093868E+004
  7.9586196E+004
  6.7980949E+004
  9.3539789E+004
  2.9392144E+004
  3.5089946E+004
  7.9679712E+004
  6.2425273E+004
  3.4265966E+004
  1.4927227E+004
  1.0587189E+004
  1.4076275E+004
  2.3451480E+004
  2.8868642E+004
  3.3849432E+004
  3.7247707E+004
  3.8740464E+004
  3.8896498E+004
  3.7919747E+004
  3.6065232E+004
  3.3462645E+004
  3.0173100E+004
  2.6344656E+004
  2.2190352E+004
  1.7932583E+004
  1.3767317E+004
  9.8508856E+003
  6.3229680E+003
  3.4275659E+003
  2.5103212E+003
  4.7486229E+003
  7.1546353E+003
  1.2484273E+004
  2.1975683E+004
  1.3997778E+004
  2.4233122E+005
  2.0689925E+005
  1.9278462E+005
  1.5938772E+005
  1.3918684E+005
  1.3018652E+005
  1.3544743E+005
  1.4018880E+005
  1.3867623E+005
  1.3109223E+005
  1.1981563E+005
  1.0718033E+005
  9.4573822E+004
  8.2459462E+004
  7.0284365E+004
  5.7062157E+004
  4.2078545E+004
  2.7340479E+004
  1.4461506E+004
  3.3912426E+003
  1.1397714E+003
  1.2356280E+003
  8.9777385E+002
  7.6433291E+005
  5.6069972E+005
  3.8895464E+005
  3.6081168E+005
  2.4859554E+005
  1.9651181E+005
  1.8313308E+005
  1.7497450E+005
  1.6066139E+005
  1.4454619E+005
  1.2780878E+005
  1.1104108E+005
  9.4720990E+004
  7.9400222E+004
  6.5802677E+004
  5.4541038E+004
  4.6706731E+004
  4.0885680E+004
  5.3498727E+004
  1.0397586E+005
  4.7526631E+004
  5.3592221E+004
  5.3440916E+004
  2.8390637E+004
  1.4449454E+004
  7.1646804E+003
  7.3347558E+003
  1.4763583E+004
  1.8952207E+004
  2.2249199E+004
  2.3533169E+004
  2.3564763E+004
  2.2894306E+004
  2.1385004E+004
  1.9061913E+004
  1.6141315E+004
  1.2915978E+004
  9.6808366E+003
  6.7138872E+003
  4.3765590E+003
  3.3264523E+003
  3.8876757E+003
  5.2630348E+003
  6.7481317E+003
  9.4914351E+003
  1.3997965E+004
  2.8071345E+004
  3.0173046E+005
  3.1543201E+005
  2.3442441E+005
  1.8913984E+005
  1.4639325E+005
  1.3625750E+005
  1.4165124E+005
  1.4424111E+005
  1.3877295E+005
  1.2789003E+005
  1.1461696E+005
  1.0146291E+005
  8.9819142E+004
  7.9795095E+004
  7.1150925E+004
  6.1755555E+004
  4.9313644E+004
  3.0242703E+004
  1.0012110E+004
  1.1963551E+003
  3.2601888E+003
  8.6566280E+002
  3.3910020E+002
  4.8049812E+005
  3.0175838E+005
  3.2033293E+005
  2.4956213E+005
  1.7869673E+005
  1.8913169E+005
  1.7187162E+005
  1.5412557E+005
  1.3617215E+005
  1.1861910E+005
  1.0121274E+005
  8.4094808E+004
  6.7607862E+004
  5.2385293E+004
  3.9538430E+004
  3.1547520E+004
  3.4054800E+004
  5.6854768E+004
  9.4359554E+004
  3.4490730E+004
  3.9873146E+004
  4.0634707E+004
  2.2440016E+004
  1.3042050E+004
  4.1561655E+003
  3.4305482E+003
  8.0937623E+003
  9.6887308E+003
  1.1092156E+004
  1.1800983E+004
  1.1435445E+004
  1.0085400E+004
  8.0979870E+003
  5.9331946E+003
  4.1146463E+003
  3.4088576E+003
  4.1077187E+003
  5.3858189E+003
  6.6765132E+003
  7.8724970E+003
  9.1018214E+003
  1.1097045E+004
  1.4196268E+004
  1.7328258E+004
  1.7300918E+005
  2.1597212E+005
  2.1128527E+005
  1.4657205E+005
  1.4455124E+005
  1.5446442E+005
  1.5288657E+005
  1.4246843E+005
  1.2740476E+005
  1.1085608E+005
  9.5402038E+004
  8.3088970E+004
  7.4126914E+004
  6.6542968E+004
  6.1564507E+004
  4.9278115E+004
  3.4172416E+004
  1.0110173E+004
  6.4471412E+003
  1.4112468E+005
  2.8077819E+005
  3.9066329E+005
  2.0837939E+005
  1.9790157E+005
  1.6624127E+005
  1.4824842E+005
  1.3119675E+005
  1.1562044E+005
  1.0034067E+005
  8.5642484E+004
  7.1958535E+004
  6.0033855E+004
  5.0741747E+004
  4.4624324E+004
  4.3682243E+004
  5.3584914E+004
  8.2894934E+004
  2.5471638E+004
  3.0386043E+004
  3.3277703E+004
  1.9481901E+004
  1.2687760E+004
  4.6371744E+003
  3.3305941E+003
  2.6080801E+003
  3.4381755E+003
  3.6357051E+003
  3.1287442E+003
  2.6037343E+003
  2.8753906E+003
  3.9492052E+003
  5.2772802E+003
  6.5750551E+003
  7.7148979E+003
  8.6362457E+003
  9.4114905E+003
  1.0074551E+004
  1.1006890E+004
  1.1512659E+004
  1.4291112E+004
  2.6830499E+005
  2.3765761E+005
  1.8928036E+005
  1.4382465E+005
  1.7196687E+005
  1.7499676E+005
  1.6598899E+005
  1.5016435E+005
  1.3119929E+005
  1.1140880E+005
  9.2785592E+004
  7.7323145E+004
  6.9125226E+004
  6.5136715E+004
  6.4717317E+004
  8.1704375E+004
  5.3810722E+004
  2.4931682E+005
  1.8592317E+005
  1.8811489E+005
  1.5072743E+005
  1.4117265E+005
  1.2817265E+005
  1.1717410E+005
  1.0606273E+005
  9.5684237E+004
  8.6341695E+004
  7.8360076E+004
  7.1475706E+004
  6.4006131E+004
  5.5363263E+004
  4.8411812E+004
  6.7100785E+004
  1.9833840E+004
  2.8050173E+004
  3.0462354E+004
  1.6208303E+004
  1.4872187E+004
  8.7791421E+003
  5.1542288E+003
  3.5111530E+003
  2.9951856E+003
  4.1179162E+003
  5.4243030E+003
  6.5134463E+003
  7.5013299E+003
  8.3829991E+003
  9.0854610E+003
  9.5486994E+003
  9.7984375E+003
  9.8950285E+003
  1.0057653E+004
  9.4943753E+003
  1.0280079E+004
  3.8376461E+005
  3.7533016E+005
  2.3081339E+005
  2.1033736E+005
  1.9820675E+005
  1.8034490E+005
  1.6059946E+005
  1.3938832E+005
  1.1823369E+005
  9.7913988E+004
  7.9458156E+004
  6.5018406E+004
  6.8749835E+004
  7.7013313E+004
  7.6895744E+004
  1.6232867E+004
  1.1946397E+005
  1.3772935E+005
  1.3293612E+005
  1.2971519E+005
  1.2537561E+005
  1.1966206E+005
  1.1368515E+005
  1.0778524E+005
  1.0232678E+005
  9.7127704E+004
  9.1424072E+004
  8.2628833E+004
  6.8826156E+004
  4.4109881E+004
  4.7202802E+004
  2.5545596E+004
  2.0711892E+004
  1.8949113E+004
  1.5172294E+004
  1.1790290E+004
  8.5146277E+003
  6.9222943E+003
  7.7156839E+003
  8.0701692E+003
  8.3662851E+003
  8.7808521E+003
  9.2175148E+003
  9.5395300E+003
  9.5997487E+003
  9.3613862E+003
  8.8673409E+003
  8.8160826E+003
  7.8150873E+003
  7.1241111E+003
  3.3793551E+005
  2.1934715E+005
  2.4249848E+005
  2.0705990E+005
  1.9272369E+005
  1.7002272E+005
  1.4954137E+005
  1.2947216E+005
  1.1050745E+005
  9.3994218E+004
  7.5450374E+004
  6.9525148E+004
  1.0892595E+005
  6.7780916E+004
  5.7058275E+004
  9.5799455E+004
  9.9182366E+004
  1.1008011E+005
  1.1816375E+005
  1.2012695E+005
  1.2052005E+005
  1.1943743E+005
  1.1774112E+005
  1.1555326E+005
  1.1258521E+005
  1.0787238E+005
  9.9137207E+004
  8.4569831E+004
  4.8974845E+004
  2.5945339E+004
  1.1563338E+004
  1.9290338E+004
  2.5183317E+004
  1.7171969E+004
  1.3788305E+004
  1.0679130E+004
  1.0813986E+004
  9.7700871E+003
  9.2030583E+003
  9.1171511E+003
  9.2278498E+003
  9.2705547E+003
  9.0794655E+003
  8.5050319E+003
  7.4974700E+003
  6.7161067E+003
  5.8850065E+003
  3.4175807E+003
  8.4797213E+004
  1.6590283E+005
  2.1883991E+005
  2.1194447E+005
  1.9468153E+005
  1.7583739E+005
  1.5704157E+005
  1.3963961E+005
  1.2452649E+005
  1.0999679E+005
  1.0312612E+005
  8.3358436E+004
  1.1012412E+005
  8.0709298E+004
  7.2483872E+004
  9.5210450E+004
  1.0364340E+005
  1.1293969E+005
  1.1808365E+005
  1.2170959E+005
  1.2375507E+005
  1.2452773E+005
  1.2349912E+005
  1.2021236E+005
  1.1129136E+005
  1.0006254E+005
  6.5196956E+004
  4.4834656E+004
  1.4264728E+004
  2.0515911E+004
  2.2921273E+004
  1.3427916E+004
  1.3121453E+004
  9.9852330E+003
  9.1880931E+003
  8.8912072E+003
  8.5508619E+003
  8.4814267E+003
  8.1873223E+003
  7.4927762E+003
  6.4251907E+003
  5.2356489E+003
  6.0511097E+003
  3.5024663E+003
  7.6142553E+004
  1.3619074E+005
  2.0349962E+005
  1.9953579E+005
  1.9009612E+005
  1.7401959E+005
  1.5854384E+005
  1.4387676E+005
  1.3111030E+005
  1.1951512E+005
  1.1127025E+005
  8.7464808E+004
  3.8085612E+004
  2.4489765E+004
  5.2171922E+004
  7.4796268E+004
  8.9844012E+004
  1.0272490E+005
  1.1263325E+005
  1.2015668E+005
  1.2563198E+005
  1.2905799E+005
  1.3009793E+005
  1.2777007E+005
  1.2090992E+005
  1.0634492E+005
  8.1475156E+004
  7.2485591E+004
  1.7370979E+004
  1.2946624E+004
  1.1790504E+004
  9.7688848E+003
  9.3559615E+003
  8.1911770E+003
  7.3193996E+003
  7.4093076E+003
  7.0196711E+003
  6.0892152E+003
  5.4680947E+003
  4.0155578E+003
  4.5326841E+003
  1.3620354E+005
  1.5737651E+005
  1.8030621E+005
  1.8358847E+005
  1.7667191E+005
  1.6531373E+005
  1.5261645E+005
  1.4011845E+005
  1.2813155E+005
  1.1680325E+005
  1.0213994E+005
  8.2513224E+004
  4.5637563E+004
  4.4404508E+004
  8.1412220E+003
  1.3330211E+004
  3.0456716E+004
  5.5421955E+004
  7.4663091E+004
  9.1174614E+004
  1.0455906E+005
  1.1545511E+005
  1.2389062E+005
  1.2979761E+005
  1.3278555E+005
  1.3216121E+005
  1.2682199E+005
  1.1513129E+005
  1.0162357E+005
  8.1974956E+004
  3.3298270E+004
  3.9031949E+004
  7.0177885E+003
  9.8188843E+003
  1.1585099E+004
  8.4826071E+003
  7.5387181E+003
  6.1330974E+003
  6.4327478E+003
  5.3318703E+003
  4.4660972E+003
  3.6303562E+003
  2.2094491E+003
  5.6288275E+002
  1.5829114E+005
  1.9934710E+005
  1.1747413E+005
  1.4095567E+005
  1.5648577E+005
  1.6217159E+005
  1.5866158E+005
  1.5087707E+005
  1.4079412E+005
  1.2969213E+005
  1.1795370E+005
  1.0487102E+005
  8.9511733E+004
  7.0327413E+004
  5.4055387E+004
  6.4988095E+004
  1.9977853E+003
  1.6407203E+004
  3.9752356E+004
  6.0563344E+004
  7.9037890E+004
  9.4979853E+004
  1.0852528E+005
  1.1945873E+005
  1.2755791E+005
  1.3255126E+005
  1.3370935E+005
  1.3147358E+005
  1.2346959E+005
  1.2462048E+005
  1.1081203E+005
  1.3654701E+005
  6.3943956E+003
  4.5230727E+003
  9.3444358E+003
  6.4345599E+003
  4.1718648E+003
  3.3965670E+003
  2.5730517E+003
  1.7415482E+003
  1.0090174E+003
  4.9637952E+002
  1.2170052E+005
  2.0867539E+005
  1.4906083E+005
  1.6155404E+005
  1.3149927E+005
  1.0429374E+005
  1.2208524E+005
  1.3261028E+005
  1.3930256E+005
  1.3862723E+005
  1.3361494E+005
  1.2568873E+005
  1.1585470E+005
  1.0439325E+005
  9.1178470E+004
  7.5842619E+004
  5.9102574E+004
  4.3494447E+004
  4.5790421E+004
  5.2095233E+004
  5.9621188E+004
  1.6832889E+003
  9.8199724E+003
  2.7640488E+004
  4.8564705E+004
  6.7193609E+004
  8.4976110E+004
  1.0042401E+005
  1.1328742E+005
  1.2324730E+005
  1.3000455E+005
  1.3334340E+005
  1.3291156E+005
  1.3038351E+005
  1.2305791E+005
  1.1923628E+005
  1.6180109E+005
  3.8337006E+003
  1.6437557E+003
  2.1204726E+003
  1.5750018E+003
  5.9915844E+002
  4.2618370E+002
  4.5158454E+004
  7.9555111E+004
  6.4040223E+004
  2.8323461E+004
  7.1272128E+004
  5.2891010E+004
  7.3784608E+004
  6.6792663E+004
  8.1171268E+004
  7.8766300E+004
  8.8841432E+004
  8.8821152E+004
  9.7379140E+004
  9.9069442E+004
  1.0758804E+005
  1.0965565E+005
  1.1831238E+005
  1.2650144E+005
  1.3737767E+005
  1.3849543E+005
  1.3712045E+005
  2.2744816E+005
  1.2379648E+005
  1.2068430E+005
  1.0174581E+005
  9.2085299E+004
  1.0152946E+005
  1.1196589E+005
  1.1788760E+005
  1.1905767E+005
  1.1606637E+005
  1.0999946E+005
  1.0157984E+005
  9.1228374E+004
  7.9210083E+004
  6.6055494E+004
  5.3554692E+004
  4.7130183E+004
  4.7850147E+004
  4.6489766E+004
  3.9198377E+004
  4.2396888E+004
  1.6779794E+004
  1.9127747E+004
  3.8079656E+004
  5.7001622E+004
  7.5630333E+004
  9.2121987E+004
  1.0623558E+005
  1.1756739E+005
  1.2586934E+005
  1.3104188E+005
  1.3289567E+005
  1.3246556E+005
  1.2685353E+005
  1.3621648E+005
  1.3602567E+005
  1.3173380E+005
  9.1161633E+004
  4.4015806E+004
  8.6237914E+004
  7.1859851E+004
  3.1273583E+004
  7.6999632E+004
  8.8269504E+004
  7.0839171E+004
  8.0358907E+004
  8.4375062E+004
  8.4471255E+004
  8.6696579E+004
  9.0765368E+004
  9.6237216E+004
  1.0241240E+005
  1.0944472E+005
  1.1215967E+005
  1.0544398E+005
  8.6057127E+004
  8.1684110E+004
  8.2088521E+004
  8.0466076E+004
  8.5969569E+004
  9.3983894E+004
  9.9539105E+004
  1.0146672E+005
  9.9958784E+004
  9.5541319E+004
  8.8789839E+004
  8.0221113E+004
  7.0439384E+004
  6.0530391E+004
  5.2401018E+004
  4.8090954E+004
  4.6556639E+004
  4.8259208E+004
  4.1740125E+004
  3.5152480E+004
  2.0893127E+004
  2.0144887E+004
  1.9846876E+004
  3.2454274E+004
  5.0316556E+004
  6.7784776E+004
  8.4367238E+004
  9.8941136E+004
  1.1105865E+005
  1.2051801E+005
  1.2728704E+005
  1.3171852E+005
  1.3422941E+005
  1.3912291E+005
  1.4900939E+005
  1.6069775E+005
  1.7605859E+005
  6.5087625E+004
  1.1124664E+005
  8.2899169E+004
  7.0073051E+004
  8.4119793E+004
  8.3542324E+004
  8.3348798E+004
  7.5868636E+004
  8.0221126E+004
  8.5432130E+004
  8.7491540E+004
  8.8639325E+004
  9.0395660E+004
  9.2718541E+004
  9.5076424E+004
  9.5756924E+004
  9.2396481E+004
  8.3515580E+004
  7.4854797E+004
  6.6981899E+004
  6.5111534E+004
  6.7995084E+004
  7.3155334E+004
  7.9318146E+004
  8.4190618E+004
  8.6501936E+004
  8.6066985E+004
  8.3147613E+004
  7.8173846E+004
  7.1685725E+004
  6.4411860E+004
  5.7367564E+004
  5.1765152E+004
  4.8188850E+004
  4.6424438E+004
  4.3290133E+004
  4.0510280E+004
  4.8411292E+004
  1.3967938E+004
  2.4523403E+004
  3.4495761E+004
  4.6225625E+004
  6.1984293E+004
  7.7619276E+004
  9.1784032E+004
  1.0403034E+005
  1.1410407E+005
  1.2214385E+005
  1.2871700E+005
  1.3542541E+005
  1.4497024E+005
  1.5801520E+005
  1.7926322E+005
  1.7453036E+005
  6.4223409E+004
  9.7255881E+004
  6.3255689E+004
  1.0700712E+005
  9.0467798E+004
  3.9408716E+004
  9.5036780E+004
  1.1602397E+005
  8.2778176E+004
  8.6527925E+004
  8.3974707E+004
  8.2139858E+004
  8.2113405E+004
  8.1689195E+004
  8.2127267E+004
  8.4615645E+004
  8.6418504E+004
  8.7199927E+004
  8.7553891E+004
  8.7648549E+004
  8.6957446E+004
  8.4506853E+004
  7.9333835E+004
  7.1753749E+004
  6.2683331E+004
  5.6873350E+004
  5.5236805E+004
  5.7468005E+004
  6.2154861E+004
  6.7330572E+004
  7.1601092E+004
  7.4092764E+004
  7.4499207E+004
  7.2913300E+004
  6.9649075E+004
  6.5179041E+004
  6.0128293E+004
  5.5226963E+004
  5.1103961E+004
  4.7884954E+004
  4.5080141E+004
  4.1492537E+004
  4.0157406E+004
  3.6277212E+004
  3.1864733E+004
  2.6000363E+004
  2.1227399E+004
  3.8107090E+004
  3.6119557E+004
  4.5830895E+004
  5.8780435E+004
  7.1959737E+004
  8.4974584E+004
  9.6654698E+004
  1.0665023E+005
  1.1517004E+005
  1.2317084E+005
  1.3160684E+005
  1.4489392E+005
  1.5863410E+005
  2.0516191E+005
  2.1745753E+005
  3.0610892E+005
  6.9521940E+004
  1.1640194E+005
  9.4239437E+004
  4.1248539E+004
  9.7305530E+004
  1.1754050E+005
  8.7391216E+004
  9.4933988E+004
  9.2762912E+004
  7.8841995E+004
  7.8089233E+004
  8.1141610E+004
  8.1138418E+004
  8.0990918E+004
  8.0859470E+004
  8.1530120E+004
  8.2465642E+004
  8.3219829E+004
  8.3290507E+004
  8.2641599E+004
  8.1237992E+004
  7.8789669E+004
  7.4837082E+004
  6.9134808E+004
  6.1972081E+004
  5.4972452E+004
  4.9625692E+004
  4.7768129E+004
  4.9370892E+004
  5.3106299E+004
  5.7475456E+004
  6.1302190E+004
  6.3903381E+004
  6.4987071E+004
  6.4553548E+004
  6.2808523E+004
  6.0102982E+004
  5.6884225E+004
  5.3610703E+004
  5.0586960E+004
  4.7851274E+004
  4.5058468E+004
  4.2670811E+004
  3.9790765E+004
  3.6834800E+004
  3.7885426E+004
  3.7780818E+004
  4.3809523E+004
  5.0381911E+004
  5.6899425E+004
  6.7767329E+004
  7.8934434E+004
  8.9079729E+004
  9.8141650E+004
  1.0619355E+005
  1.1390104E+005
  1.2272890E+005
  1.3350760E+005
  1.5170000E+005
  1.6785823E+005
  2.0616214E+005
  3.3953025E+005
  4.8711452E+004
  8.5838763E+004
  6.7428442E+004
  2.9761179E+004
  7.5947466E+004
  5.5523045E+004
  7.9057274E+004
  7.3882159E+004
  9.1519757E+004
  8.6427975E+004
  9.0912383E+004
  1.3970599E+005
  8.8223618E+004
  9.6649010E+004
  9.4881445E+004
  8.2682559E+004
  8.2688157E+004
  8.2344372E+004
  7.9399689E+004
  7.6488155E+004
  7.6750496E+004
  7.7790192E+004
  7.8203511E+004
  7.8508622E+004
  7.8741745E+004
  7.8958585E+004
  7.8824677E+004
  7.8106595E+004
  7.6647247E+004
  7.4331351E+004
  7.0996876E+004
  6.6487798E+004
  6.0822104E+004
  5.4465967E+004
  4.8298968E+004
  4.3782219E+004
  4.1918342E+004
  4.2857473E+004
  4.5740562E+004
  4.9377719E+004
  5.2826728E+004
  5.5504058E+004
  5.7132512E+004
  5.7659725E+004
  5.7196466E+004
  5.5966360E+004
  5.4250111E+004
  5.2308013E+004
  5.0290625E+004
  4.8183088E+004
  4.5926136E+004
  4.3387923E+004
  4.0037722E+004
  3.7471118E+004
  2.9431005E+004
  1.4483835E+004
  1.9586082E+004
  3.8428683E+004
  6.8992059E+004
  5.7151321E+004
  6.0011049E+004
  6.6870189E+004
  7.3884601E+004
  8.1694047E+004
  8.8815330E+004
  9.5200111E+004
  1.0138595E+005
  1.0810128E+005
  1.1642136E+005
  1.2605636E+005
  1.3684518E+005
  1.5298532E+005
  2.2889927E+005
  3.0373338E+005
  3.3218091E+005
  4.7804445E+004
  8.4950382E+004
  6.8000550E+004
  3.1083975E+004
  7.8814025E+004
  5.5773300E+004
  7.4429094E+004
  9.9958965E+004
  7.3082114E+004
  8.2508533E+004
  8.6662320E+004
  8.6815510E+004
  8.5993899E+004
  8.1439661E+004
  7.4763775E+004
  7.9695233E+004
  8.2166185E+004
  8.0658507E+004
  7.7709575E+004
  7.6454628E+004
  7.4636164E+004
  7.3610210E+004
  7.3508048E+004
  7.3987567E+004
  7.4480911E+004
  7.4691664E+004
  7.4682876E+004
  7.4353845E+004
  7.3589477E+004
  7.2238368E+004
  7.0190056E+004
  6.7352486E+004
  6.3647197E+004
  5.9051602E+004
  5.3705109E+004
  4.8010025E+004
  4.2726230E+004
  3.8765340E+004
  3.6947413E+004
  3.7423289E+004
  3.9613285E+004
  4.2642868E+004
  4.5762087E+004
  4.8480208E+004
  5.0535167E+004
  5.1837044E+004
  5.2420143E+004
  5.2401197E+004
  5.1931852E+004
  5.1141412E+004
  5.0078199E+004
  4.8694399E+004
  4.6832079E+004
  4.4318089E+004
  4.1188673E+004
  3.7819800E+004
  3.2168033E+004
  2.4962069E+004
  6.2063975E+004
  6.7628347E+004
  6.8769495E+004
  6.7227429E+004
  7.1081450E+004
  7.5281697E+004
  7.9072414E+004
  8.2708176E+004
  8.6276923E+004
  9.0208645E+004
  9.4926157E+004
  1.0065877E+005
  1.1101231E+005
  1.4067817E+005
  1.9897011E+005
  2.2865370E+005
  3.6058753E+005
  3.4889274E+005
  6.6967977E+004
  1.1389560E+005
  8.6808214E+004
  3.5375237E+004
  8.6430029E+004
  9.5714114E+004
  7.6296467E+004
  8.3967008E+004
  8.4159990E+004
  7.7299958E+004
  7.1905245E+004
  7.7713263E+004
  8.2926554E+004
  8.3388479E+004
  8.0502908E+004
  7.6012817E+004
  7.3767790E+004
  7.2921184E+004
  7.3962344E+004
  7.3450100E+004
  7.2512085E+004
  7.1333868E+004
  7.0489594E+004
  6.9852976E+004
  6.9737354E+004
  6.9957871E+004
  7.0189065E+004
  7.0207790E+004
  6.9874811E+004
  6.9127390E+004
  6.7881863E+004
  6.6070730E+004
  6.3640446E+004
  6.0550028E+004
  5.6775977E+004
  5.2346904E+004
  4.7420647E+004
  4.2357040E+004
  3.7729348E+004
  3.4258180E+004
  3.2528764E+004
  3.2690586E+004
  3.4362100E+004
  3.6907373E+004
  3.9746998E+004
  4.2475110E+004
  4.4850455E+004
  4.6757888E+004
  4.8174052E+004
  4.9135848E+004
  4.9704685E+004
  4.9923567E+004
  4.9772457E+004
  4.9128555E+004
  4.7751180E+004
  4.5325238E+004
  4.1494858E+004
  3.5560245E+004
  2.9215012E+004
  3.4850557E+004
  5.6478035E+004
  1.0216785E+005
  8.0509067E+004
  7.4818407E+004
  7.2646140E+004
  7.0198025E+004
  6.9578347E+004
  6.9360600E+004
  6.9679644E+004
  7.0775949E+004
  7.3023711E+004
  7.7581940E+004
  8.8715228E+004
  1.0749637E+005
  1.3382792E+005
  1.4108621E+005
  1.9071682E+005
  2.0912445E+005
  3.6637118E+005
  1.9648419E+005
  1.7276309E+005
  1.5528013E+005
  1.5815583E+005
  1.3859977E+005
  1.3328054E+005
  1.2544745E+005
  1.2328812E+005
  1.1766165E+005
  1.1926752E+005
  1.1561512E+005
  1.1504549E+005
  1.0270659E+005
  1.5229155E+005
  9.3785097E+004
  9.6733143E+004
  8.8786091E+004
  7.8238896E+004
  7.8978298E+004
  7.9485593E+004
  7.6698233E+004
  7.5222534E+004
  7.5800698E+004
  7.7869766E+004
  7.8013652E+004
  7.5813426E+004
  7.2534339E+004
  6.9458022E+004
  6.8403937E+004
  6.8049878E+004
  6.7887252E+004
  6.7294520E+004
  6.6650962E+004
  6.6055933E+004
  6.5720355E+004
  6.5610073E+004
  6.5635921E+004
  6.5611865E+004
  6.5346867E+004
  6.4707699E+004
  6.3602902E+004
  6.1986748E+004
  5.9845688E+004
  5.7189173E+004
  5.4030344E+004
  5.0367005E+004
  4.6234969E+004
  4.1761143E+004
  3.7246472E+004
  3.3165954E+004
  3.0080855E+004
  2.8453306E+004
  2.8414456E+004
  2.9708612E+004
  3.1878823E+004
  3.4486039E+004
  3.7201769E+004
  3.9808334E+004
  4.2175534E+004
  4.4238949E+004
  4.5979399E+004
  4.7398765E+004
  4.8488946E+004
  4.9195602E+004
  4.9355862E+004
  4.8674897E+004
  4.6596222E+004
  4.2742072E+004
  3.6534612E+004
  3.0567412E+004
  2.4539082E+004
  8.7536290E+004
  9.2163197E+004
  8.7433437E+004
  7.5003706E+004
  6.7680798E+004
  6.0976493E+004
  5.5700798E+004
  5.2544001E+004
  5.1263409E+004
  5.2246330E+004
  5.6727380E+004
  6.5763912E+004
  7.8919119E+004
  9.1414857E+004
  1.0708647E+005
  1.3007471E+005
  1.6739741E+005
  1.6172691E+005
  1.4654280E+005
  1.2928277E+005
  1.1718151E+005
  1.0738925E+005
  9.7240180E+004
  8.6210124E+004
  8.0080900E+004
  8.2042942E+004
  8.1305043E+004
  7.8078761E+004
  7.5708044E+004
  7.4937724E+004
  7.3784038E+004
  7.2611976E+004
  7.2718196E+004
  7.2984425E+004
  7.2512555E+004
  7.0800021E+004
  6.8305657E+004
  6.6043691E+004
  6.4375839E+004
  6.3519001E+004
  6.2950351E+004
  6.2493787E+004
  6.2029338E+004
  6.1650429E+004
  6.1383330E+004
  6.1232415E+004
  6.1103785E+004
  6.0856492E+004
  6.0339132E+004
  5.9421307E+004
  5.8018888E+004
  5.6104839E+004
  5.3716136E+004
  5.0935369E+004
  4.7821094E+004
  4.4400424E+004
  4.0636504E+004
  3.6613179E+004
  3.2565704E+004
  2.8911250E+004
  2.6129787E+004
  2.4598833E+004
  2.4432036E+004
  2.5453898E+004
  2.7337095E+004
  2.9755122E+004
  3.2446121E+004
  3.5215349E+004
  3.7923620E+004
  4.0477441E+004
  4.2818497E+004
  4.4909171E+004
  4.6714050E+004
  4.8176177E+004
  4.9180766E+004
  4.9419000E+004
  4.8327636E+004
  4.5054202E+004
  3.9642133E+004
  3.2835870E+004
  1.6181144E+004
  2.5783480E+003
  1.0479233E+004
  7.4586190E+004
  1.3664341E+005
  1.0357338E+005
  8.4912477E+004
  6.8388611E+004
  5.2585890E+004
  4.2567396E+004
  3.5984976E+004
  3.2752970E+004
  3.3547035E+004
  3.8878850E+004
  4.8128693E+004
  5.9688620E+004
  7.3492823E+004
  9.0879430E+004
  1.1212544E+005
  1.2112515E+005
  1.2750796E+005
  1.2191274E+005
  1.1231651E+005
  1.0204489E+005
  9.2543869E+004
  8.3673370E+004
  7.7075342E+004
  7.3436302E+004
  7.2298284E+004
  7.2014227E+004
  7.1020298E+004
  7.0132360E+004
  6.9421072E+004
  6.8882903E+004
  6.8503900E+004
  6.8233136E+004
  6.7988209E+004
  6.7253714E+004
  6.5843773E+004
  6.3957379E+004
  6.2007597E+004
  6.0448188E+004
  5.9322011E+004
  5.8564163E+004
  5.7995312E+004
  5.7552097E+004
  5.7199675E+004
  5.6934165E+004
  5.6710267E+004
  5.6445230E+004
  5.6019704E+004
  5.5301317E+004
  5.4168386E+004
  5.2532881E+004
  5.0375391E+004
  4.7779642E+004
  4.4909429E+004
  4.1945328E+004
  3.8827563E+004
  3.5512870E+004
  3.1912181E+004
  2.8245612E+004
  2.4903423E+004
  2.2341948E+004
  2.0890012E+004
  2.0640461E+004
  2.1464672E+004
  2.3129909E+004
  2.5399058E+004
  2.8065058E+004
  3.0951367E+004
  3.3911308E+004
  3.6829536E+004
  3.9619540E+004
  4.2214334E+004
  4.4555946E+004
  4.6590039E+004
  4.8273310E+004
  4.9555625E+004
  4.9861917E+004
  4.7918420E+004
  4.1186001E+004
  3.0296025E+004
  2.0382782E+004
  6.2924597E+003
  1.1435460E+005
  1.1909878E+005
  9.8761907E+004
  6.4271941E+004
  4.5797190E+004
  3.2909451E+004
  2.2823719E+004
  1.6889516E+004
  1.8496766E+004
  2.6777771E+004
  3.8071906E+004
  5.0948114E+004
  6.5055207E+004
  7.9727591E+004
  9.2299622E+004
  1.0236139E+005
  1.0376704E+005
  1.0089320E+005
  9.4335276E+004
  8.6519122E+004
  7.8774085E+004
  7.2124793E+004
  6.7016232E+004
  6.4222946E+004
  6.3199975E+004
  6.2931403E+004
  6.2896504E+004
  6.2843907E+004
  6.2875838E+004
  6.2920399E+004
  6.2941257E+004
  6.2908551E+004
  6.2642394E+004
  6.1990696E+004
  6.0871382E+004
  5.9398044E+004
  5.7827188E+004
  5.6383560E+004
  5.5217396E+004
  5.4322313E+004
  5.3650104E+004
  5.3134592E+004
  5.2734671E+004
  5.2406506E+004
  5.2093647E+004
  5.1711336E+004
  5.1152138E+004
  5.0297077E+004
  4.9029660E+004
  4.7250732E+004
  4.4911501E+004
  4.2107045E+004
  3.9148117E+004
  3.6281663E+004
  3.3717698E+004
  3.0861883E+004
  2.7665260E+004
  2.4247052E+004
  2.1094662E+004
  1.8677820E+004
  1.7290517E+004
  1.6988200E+004
  1.7667635E+004
  1.9168228E+004
  2.1327965E+004
  2.3982437E+004
  2.6964380E+004
  3.0116414E+004
  3.3305523E+004
  3.6426200E+004
  3.9390895E+004
  4.2110963E+004
  4.4498505E+004
  4.6487934E+004
  4.8223790E+004
  5.0195912E+004
  5.0716260E+004
  4.6636069E+004
  2.9691995E+004
  1.5301305E+004
  1.0968566E+005
  1.7581476E+005
  9.8794514E+004
  6.1721843E+004
  4.8228687E+004
  3.2570291E+004
  2.0222156E+004
  1.0118896E+004
  1.1815093E+004
  2.2519213E+004
  3.4731521E+004
  4.7272382E+004
  5.9619296E+004
  7.0943106E+004
  8.0095668E+004
  8.5084035E+004
  8.6587920E+004
  8.3957133E+004
  7.8940606E+004
  7.2740700E+004
  6.6583521E+004
  6.1260290E+004
  5.7380569E+004
  5.4965439E+004
  5.3916470E+004
  5.3801631E+004
  5.4195045E+004
  5.4846998E+004
  5.5561003E+004
  5.6235354E+004
  5.6774711E+004
  5.7082944E+004
  5.7076825E+004
  5.6673303E+004
  5.5864816E+004
  5.4737476E+004
  5.3449438E+004
  5.2177403E+004
  5.1038232E+004
  5.0087289E+004
  4.9320412E+004
  4.8711706E+004
  4.8222416E+004
  4.7805828E+004
  4.7398155E+004
  4.6916494E+004
  4.6261590E+004
  4.5327389E+004
  4.4009945E+004
  4.2210235E+004
  3.9828010E+004
  3.6828509E+004
  3.3610094E+004
  3.1143176E+004
  2.8867654E+004
  2.6729389E+004
  2.3786592E+004
  2.0493887E+004
  1.7429459E+004
  1.5124297E+004
  1.3808813E+004
  1.3487725E+004
  1.4054920E+004
  1.5426608E+004
  1.7514009E+004
  2.0184537E+004
  2.3264287E+004
  2.6576495E+004
  2.9973155E+004
  3.3343382E+004
  3.6597134E+004
  3.9636232E+004
  4.2292929E+004
  4.4380267E+004
  4.5632693E+004
  4.6907945E+004
  5.1049872E+004
  4.5232652E+004
  2.9611470E+004
  1.4425511E+004
  2.0860048E+005
  1.1524595E+005
  8.1121886E+004
  5.7985265E+004
  4.1833981E+004
  2.7213015E+004
  1.6926809E+004
  1.6042241E+004
  2.4244507E+004
  3.4933146E+004
  4.5772596E+004
  5.5875089E+004
  6.4462584E+004
  7.0695855E+004
  7.4098054E+004
  7.4161583E+004
  7.1612271E+004
  6.7107544E+004
  6.1704937E+004
  5.6288807E+004
  5.1579881E+004
  4.7983447E+004
  4.5716517E+004
  4.4682841E+004
  4.4687301E+004
  4.5434611E+004
  4.6610569E+004
  4.7949935E+004
  4.9234209E+004
  5.0308007E+004
  5.1061671E+004
  5.1416111E+004
  5.1336853E+004
  5.0841396E+004
  5.0008814E+004
  4.8963913E+004
  4.7840855E+004
  4.6753695E+004
  4.5772668E+004
  4.4928964E+004
  4.4222248E+004
  4.3631387E+004
  4.3115679E+004
  4.2614285E+004
  4.2046209E+004
  4.1317403E+004
  4.0334247E+004
  3.9017716E+004
  3.7305290E+004
  3.5122080E+004
  3.2261814E+004
  2.8589324E+004
  2.5540415E+004
  2.5337137E+004
  2.3397956E+004
  2.0307119E+004
  1.6825292E+004
  1.3827484E+004
  1.1690327E+004
  1.0558842E+004
  1.0250742E+004
  1.0703638E+004
  1.1945414E+004
  1.3988035E+004
  1.6714320E+004
  1.9915629E+004
  2.3378311E+004
  2.6941148E+004
  3.0505181E+004
  3.4016797E+004
  3.7416827E+004
  4.0616330E+004
  4.3166829E+004
  4.4991719E+004
  4.3598417E+004
  4.8206517E+004
  7.0206514E+004
  5.0990047E+004
  1.3073851E+005
  1.1960278E+005
  9.3564119E+004
  7.0105617E+004
  5.0795858E+004
  3.4743631E+004
  2.4142854E+004
  2.2076050E+004
  2.7716213E+004
  3.6299540E+004
  4.5180638E+004
  5.3237039E+004
  5.9763757E+004
  6.4203782E+004
  6.6161750E+004
  6.5676989E+004
  6.2974907E+004
  5.8703172E+004
  5.3572268E+004
  4.8317223E+004
  4.3543874E+004
  3.9714793E+004
  3.7100747E+004
  3.5830857E+004
  3.5822056E+004
  3.6820161E+004
  3.8460074E+004
  4.0367791E+004
  4.2237714E+004
  4.3850218E+004
  4.5065240E+004
  4.5808882E+004
  4.6061680E+004
  4.5856540E+004
  4.5271868E+004
  4.4417346E+004
  4.3412921E+004
  4.2365678E+004
  4.1357107E+004
  4.0437783E+004
  3.9630310E+004
  3.8931677E+004
  3.8313741E+004
  3.7721249E+004
  3.7072670E+004
  3.6270092E+004
  3.5221959E+004
  3.3873469E+004
  3.2227785E+004
  3.0335270E+004
  2.8290817E+004
  2.5173622E+004
  2.2876670E+004
  2.2736445E+004
  2.0096613E+004
  1.5816713E+004
  1.2748033E+004
  1.0050735E+004
  8.5669352E+003
  7.7980848E+003
  7.5445700E+003
  7.8111364E+003
  8.8423333E+003
  1.0830494E+004
  1.3662647E+004
  1.7028376E+004
  2.0646998E+004
  2.4344459E+004
  2.8049951E+004
  3.1779287E+004
  3.5592154E+004
  3.9619171E+004
  4.3847879E+004
  4.8172953E+004
  5.1853907E+004
  5.7352847E+004
  8.8440991E+004
  1.1299212E+005
  1.0356303E+005
  9.7563699E+004
  7.6595440E+004
  5.5490511E+004
  3.8753053E+004
  2.8716879E+004
  2.6629107E+004
  3.0886305E+004
  3.7753988E+004
  4.4949205E+004
  5.1396059E+004
  5.6469993E+004
  5.9745714E+004
  6.0985154E+004
  6.0146887E+004
  5.7470029E+004
  5.3354253E+004
  4.8336552E+004
  4.2972466E+004
  3.7792703E+004
  3.3276036E+004
  2.9867036E+004
  2.7921978E+004
  2.7588624E+004
  2.8664534E+004
  3.0677909E+004
  3.3104668E+004
  3.5519984E+004
  3.7636836E+004
  3.9286948E+004
  4.0392044E+004
  4.0942264E+004
  4.0980057E+004
  4.0586956E+004
  3.9868643E+004
  3.8938299E+004
  3.7901913E+004
  3.6847445E+004
  3.5840208E+004
  3.4921199E+004
  3.4106050E+004
  3.3381690E+004
  3.2699713E+004
  3.1973394E+004
  3.1081067E+004
  2.9913589E+004
  2.8376674E+004
  2.6632383E+004
  2.4432928E+004
  2.3562059E+004
  1.9968856E+004
  2.6956920E+004
  2.8403538E+004
  1.5855044E+004
  9.5088770E+003
  5.8860721E+003
  6.3394758E+003
  5.9715975E+003
  5.8409755E+003
  5.8016423E+003
  5.7317883E+003
  6.2854365E+003
  8.1594464E+003
  1.1153688E+004
  1.4744188E+004
  1.8534204E+004
  2.2336156E+004
  2.6122433E+004
  2.9968691E+004
  3.4080988E+004
  3.8785984E+004
  4.4783136E+004
  5.2905061E+004
  6.3294562E+004
  6.6628212E+004
  5.0975127E+004
  8.6232690E+004
  1.0114040E+005
  9.9244675E+004
  7.5872355E+004
  5.4544547E+004
  3.9264936E+004
  3.1070919E+004
  2.9784846E+004
  3.3353218E+004
  3.8937813E+004
  4.4803799E+004
  5.0054721E+004
  5.4160550E+004
  5.6768663E+004
  5.7672614E+004
  5.6833025E+004
  5.4368043E+004
  5.0549476E+004
  4.5739813E+004
  4.0348131E+004
  3.4792277E+004
  2.9508383E+004
  2.4997450E+004
  2.1865174E+004
  2.0658697E+004
  2.1441876E+004
  2.3641076E+004
  2.6479575E+004
  2.9354510E+004
  3.1894803E+004
  3.3902536E+004
  3.5296209E+004
  3.6072965E+004
  3.6283856E+004
  3.6015110E+004
  3.5372153E+004
  3.4465815E+004
  3.3401344E+004
  3.2271499E+004
  3.1152609E+004
  3.0102094E+004
  2.9154189E+004
  2.8312667E+004
  2.7541266E+004
  2.6742791E+004
  2.5760183E+004
  2.4385724E+004
  2.2536272E+004
  2.0094538E+004
  1.7661446E+004
  1.4293622E+004
  1.2404858E+004
  1.8920680E+004
  4.1409040E+003
  7.8104761E+002
  2.6112898E+003
  3.2911166E+003
  5.0143931E+003
  5.0766155E+003
  4.6705499E+003
  4.6053826E+003
  6.0749618E+003
  9.3229117E+003
  1.3226016E+004
  1.7189616E+004
  2.1077248E+004
  2.4894020E+004
  2.8749021E+004
  3.2849603E+004
  3.7687747E+004
  4.3910510E+004
  5.3079104E+004
  6.8029849E+004
  6.1274087E+004
  3.0456470E+004
  4.7466444E+004
  9.1880291E+004
  9.3920667E+004
  6.7211531E+004
  4.9750666E+004
  3.8157373E+004
  3.2471898E+004
  3.2149556E+004
  3.5207976E+004
  3.9747389E+004
  4.4560024E+004
  4.8942718E+004
  5.2440176E+004
  5.4734845E+004
  5.5624167E+004
  5.5026093E+004
  5.2985751E+004
  4.9657651E+004
  4.5280561E+004
  4.0141348E+004
  3.4552972E+004
  2.8858248E+004
  2.3479945E+004
  1.9023400E+004
  1.6340390E+004
  1.6113662E+004
  1.8009591E+004
  2.0959570E+004
  2.4078330E+004
  2.6867574E+004
  2.9086324E+004
  3.0643630E+004
  3.1539732E+004
  3.1831556E+004
  3.1608957E+004
  3.0977007E+004
  3.0043284E+004
  2.8910327E+004
  2.7672007E+004
  2.6412469E+004
  2.5203712E+004
  2.4099566E+004
  2.3122715E+004
  2.2248609E+004
  2.1399176E+004
  2.0349999E+004
  1.8810335E+004
  1.6351414E+004
  1.3366733E+004
  9.1092958E+003
  5.3392941E+003
  6.6937582E+003
  5.0333632E+002
  1.4377579E+003
  3.1550475E+003
  4.6411722E+003
  4.9609982E+003
  3.8087701E+003
  4.6228516E+003
  8.3962980E+003
  1.2588367E+004
  1.6713273E+004
  2.0689896E+004
  2.4560136E+004
  2.8392568E+004
  3.2393909E+004
  3.6641435E+004
  4.2483074E+004
  4.8621711E+004
  6.2528773E+004
  8.4353139E+004
  5.0292894E+004
  7.2710326E+004
  1.1989971E+005
  8.1216795E+004
  5.6756886E+004
  4.6798117E+004
  3.7411729E+004
  3.4116700E+004
  3.4128533E+004
  3.6547554E+004
  4.0120600E+004
  4.4063645E+004
  4.7816960E+004
  5.0967307E+004
  5.3201494E+004
  5.4298516E+004
  5.4135412E+004
  5.2689211E+004
  5.0030670E+004
  4.6305933E+004
  4.1715497E+004
  3.6497228E+004
  3.0925100E+004
  2.5334697E+004
  2.0192925E+004
  1.6215894E+004
  1.4341054E+004
  1.4971602E+004
  1.7287778E+004
  2.0149794E+004
  2.2841198E+004
  2.5017728E+004
  2.6546360E+004
  2.7412723E+004
  2.7669872E+004
  2.7405670E+004
  2.6720422E+004
  2.5713715E+004
  2.4479160E+004
  2.3105854E+004
  2.1680149E+004
  2.0286424E+004
  1.8999469E+004
  1.7866435E+004
  1.6873492E+004
  1.5927137E+004
  1.4960389E+004
  1.3323378E+004
  1.0707549E+004
  6.2859364E+003
  2.2367024E+003
  1.6464473E+003
  4.7976725E+002
  2.0324232E+003
  4.8632709E+003
  4.8477538E+003
  4.3412168E+003
  4.2509085E+003
  8.4296709E+003
  1.2819923E+004
  1.7077502E+004
  2.1172040E+004
  2.5201786E+004
  2.9202045E+004
  3.3225006E+004
  3.7432824E+004
  4.2197089E+004
  4.9041278E+004
  6.7922882E+004
  1.1086388E+005
  1.4996188E+005
  8.4668636E+004
  5.9864597E+004
  4.5033147E+004
  3.8953431E+004
  3.5927192E+004
  3.5822118E+004
  3.7333584E+004
  3.9975474E+004
  4.3176798E+004
  4.6476560E+004
  4.9468716E+004
  5.1822043E+004
  5.3284557E+004
  5.3690302E+004
  5.2961118E+004
  5.1101673E+004
  4.8188931E+004
  4.4358610E+004
  3.9794421E+004
  3.4725437E+004
  2.9437391E+004
  2.4303948E+004
  1.9840018E+004
  1.6725875E+004
  1.5567796E+004
  1.6292467E+004
  1.8090978E+004
  2.0121493E+004
  2.1868844E+004
  2.3096097E+004
  2.3736616E+004
  2.3819379E+004
  2.3418650E+004
  2.2621557E+004
  2.1510347E+004
  2.0160314E+004
  1.8644440E+004
  1.7044805E+004
  1.5452366E+004
  1.3962766E+004
  1.2657374E+004
  1.1557028E+004
  1.0523509E+004
  9.3014431E+003
  8.5883174E+003
  6.2853821E+003
  5.3999961E+003
  4.0591741E+003
  2.3247636E+003
  5.9868950E+003
  7.7576739E+003
  4.8090890E+003
  9.1787138E+003
  1.3694165E+004
  1.8010607E+004
  2.2323080E+004
  2.6677484E+004
  3.1070581E+004
  3.5573895E+004
  4.0190469E+004
  4.5464199E+004
  5.1552757E+004
  6.6817558E+004
  9.8577495E+004
  9.7613900E+004
  8.7481924E+004
  5.8436876E+004
  4.5921562E+004
  4.0526700E+004
  3.7831742E+004
  3.6932066E+004
  3.7484079E+004
  3.9220001E+004
  4.1790973E+004
  4.4772258E+004
  4.7745610E+004
  5.0345179E+004
  5.2280948E+004
  5.3345445E+004
  5.3413277E+004
  5.2436127E+004
  5.0434763E+004
  4.7490327E+004
  4.3737534E+004
  3.9362513E+004
  3.4607070E+004
  2.9779456E+004
  2.5267555E+004
  2.1534478E+004
  1.9034965E+004
  1.7982750E+004
  1.8129482E+004
  1.8901973E+004
  1.9753313E+004
  2.0340225E+004
  2.0516490E+004
  2.0263776E+004
  1.9628640E+004
  1.8673221E+004
  1.7451018E+004
  1.6002340E+004
  1.4376082E+004
  1.2635100E+004
  1.0872691E+004
  9.1970563E+003
  7.7213742E+003
  6.5471789E+003
  5.7769808E+003
  5.0225586E+003
  5.6211393E+003
  1.1485800E+004
  9.4895519E+003
  6.6750393E+003
  5.6242477E+003
  9.8858747E+003
  1.4524873E+004
  1.9067430E+004
  2.3805051E+004
  2.8611797E+004
  3.3535312E+004
  3.8665380E+004
  4.4147650E+004
  5.0093167E+004
  5.6003005E+004
  6.0577583E+004
  6.5260228E+004
  1.1484811E+005
  6.7252568E+004
  5.2088427E+004
  4.6508579E+004
  4.1940443E+004
  3.9101476E+004
  3.7325407E+004
  3.6898223E+004
  3.7808421E+004
  3.9845584E+004
  4.2616310E+004
  4.5673171E+004
  4.8606967E+004
  5.1085864E+004
  5.2863587E+004
  5.3774952E+004
  5.3727991E+004
  5.2695748E+004
  5.0709274E+004
  4.7853076E+004
  4.4263841E+004
  4.0132200E+004
  3.5705414E+004
  3.1285920E+004
  2.7216213E+004
  2.3832675E+004
  2.1372803E+004
  1.9860417E+004
  1.9068236E+004
  1.8635724E+004
  1.8243830E+004
  1.7698719E+004
  1.6938432E+004
  1.5973826E+004
  1.4834082E+004
  1.3526870E+004
  1.2050870E+004
  1.0404330E+004
  8.6483908E+003
  6.8751286E+003
  5.2029556E+003
  3.7742340E+003
  2.7336723E+003
  2.5995621E+003
  4.9538655E+003
  8.7243970E+003
  1.1447514E+004
  2.9818482E+003
  8.5970037E+003
  1.4762418E+004
  1.9974598E+004
  2.5339123E+004
  3.0625831E+004
  3.5989429E+004
  4.1540003E+004
  4.7509643E+004
  5.3945239E+004
  6.0263373E+004
  6.3709740E+004
  4.3342299E+004
  1.5264690E+004
  3.7297304E+004
  7.2001239E+004
  5.4822840E+004
  4.9996577E+004
  4.6352052E+004
  4.3017726E+004
  3.9443001E+004
  3.6915734E+004
  3.5581306E+004
  3.5761047E+004
  3.7347764E+004
  3.9987533E+004
  4.3198111E+004
  4.6520665E+004
  4.9580139E+004
  5.2095282E+004
  5.3868461E+004
  5.4772559E+004
  5.4739981E+004
  5.3755067E+004
  5.1850204E+004
  4.9105577E+004
  4.5651560E+004
  4.1671112E+004
  3.7397561E+004
  3.3100678E+004
  2.9056495E+004
  2.5495454E+004
  2.2541199E+004
  2.0181622E+004
  1.8281928E+004
  1.6650055E+004
  1.5153557E+004
  1.3720161E+004
  1.2343032E+004
  1.1014061E+004
  9.6947408E+003
  8.3043954E+003
  6.8628556E+003
  5.4481456E+003
  4.2807686E+003
  3.6492077E+003
  3.5571634E+003
  3.9627467E+003
  4.2864615E+003
  6.0975464E+003
  1.3173050E+004
  8.5954155E+003
  4.6069570E+003
  8.3570558E+003
  1.4778351E+004
  2.1009720E+004
  2.6872286E+004
  3.2529098E+004
  3.8055485E+004
  4.3554936E+004
  4.9115854E+004
  5.4898385E+004
  6.0539309E+004
  5.9981827E+004
  4.4013387E+004
  2.0925861E+004
  1.5713523E+004
  4.5224468E+003
  1.8458111E+004
  2.6298803E+004
  4.2602648E+004
  5.3696283E+004
  5.0138464E+004
  4.6662766E+004
  4.2742453E+004
  3.8954685E+004
  3.5706621E+004
  3.3652281E+004
  3.3179893E+004
  3.4375962E+004
  3.6931180E+004
  4.0333027E+004
  4.4066619E+004
  4.7712772E+004
  5.0959824E+004
  5.3585669E+004
  5.5436965E+004
  5.6413167E+004
  5.6456329E+004
  5.5546311E+004
  5.3700884E+004
  5.0980049E+004
  4.7492787E+004
  4.3402189E+004
  3.8923161E+004
  3.4299181E+004
  2.9770467E+004
  2.5537076E+004
  2.1696707E+004
  1.8272961E+004
  1.5284177E+004
  1.2666840E+004
  1.0435987E+004
  8.5876308E+003
  7.0950372E+003
  5.8404743E+003
  4.7844848E+003
  3.9967673E+003
  3.8583875E+003
  4.4522444E+003
  5.1925993E+003
  5.9191975E+003
  6.2734689E+003
  7.2329073E+003
  7.3981100E+003
  1.3009949E+004
  4.9558835E+003
  9.4345876E+003
  1.6100155E+004
  2.2455664E+004
  2.8560288E+004
  3.4318125E+004
  3.9729642E+004
  4.4692848E+004
  4.9122131E+004
  5.2752662E+004
  5.5483829E+004
  5.7146703E+004
  4.0317537E+004
  1.4848120E+004
  2.4717985E+003
  1.1201840E+003
  7.5655445E+003
  2.4543171E+004
  3.8891794E+004
  4.5876032E+004
  4.7422886E+004
  4.4965102E+004
  4.1448320E+004
  3.7541180E+004
  3.3931941E+004
  3.1291983E+004
  3.0245684E+004
  3.1069953E+004
  3.3551008E+004
  3.7147409E+004
  4.1281541E+004
  4.5488012E+004
  4.9429804E+004
  5.2869194E+004
  5.5636687E+004
  5.7608064E+004
  5.8689709E+004
  5.8811102E+004
  5.7923742E+004
  5.6006014E+004
  5.3075281E+004
  4.9205930E+004
  4.4546844E+004
  3.9339705E+004
  3.3867475E+004
  2.8365959E+004
  2.3086705E+004
  1.8203839E+004
  1.3749457E+004
  9.9926305E+003
  6.9375771E+003
  4.6682480E+003
  3.1074539E+003
  1.9268395E+003
  1.3275027E+003
  2.5609124E+003
  4.5309096E+003
  5.9822746E+003
  7.0543887E+003
  7.4134110E+003
  7.3466817E+003
  7.1989339E+003
  6.1438121E+003
  5.3098906E+003
  6.2126343E+003
  1.2495912E+004
  1.8324130E+004
  2.4424558E+004
  3.0415517E+004
  3.6093857E+004
  4.1237311E+004
  4.5598658E+004
  4.8601162E+004
  5.0320156E+004
  4.8737912E+004
  5.0025661E+004
  5.5733633E+004
  3.1220464E+004
  3.2006946E+003
  1.1105399E+004
  2.1581253E+004
  3.1907510E+004
  3.9496886E+004
  4.2368529E+004
  4.1850297E+004
  3.9180518E+004
  3.5567222E+004
  3.1820327E+004
  2.8755349E+004
  2.7177244E+004
  2.7614413E+004
  2.9994066E+004
  3.3755361E+004
  3.8246914E+004
  4.2953769E+004
  4.7518875E+004
  5.1698757E+004
  5.5319306E+004
  5.8243883E+004
  6.0352622E+004
  6.1530237E+004
  6.1661285E+004
  6.0633319E+004
  5.8347337E+004
  5.4751761E+004
  4.9900077E+004
  4.3971755E+004
  3.7358661E+004
  3.0621151E+004
  2.3902481E+004
  1.7358639E+004
  1.1735077E+004
  7.0216868E+003
  3.8313620E+003
  2.8401595E+003
  3.5192048E+003
  3.3148780E+003
  2.5507646E+003
  4.6412148E+003
  6.2729337E+003
  7.6874397E+003
  8.0213521E+003
  7.6153421E+003
  6.6828738E+003
  5.7418585E+003
  3.8919547E+003
  3.2382370E+003
  5.4551824E+003
  7.0473107E+003
  7.7852008E+003
  1.4440448E+004
  2.0519318E+004
  2.6464805E+004
  3.2324155E+004
  3.7881577E+004
  4.2867222E+004
  4.6873330E+004
  4.9342179E+004
  4.9837018E+004
  4.8770703E+004
  5.0971883E+004
  7.4970159E+004
  5.8784978E+003
  1.1388711E+004
  2.0311018E+004
  2.8615777E+004
  3.4682986E+004
  3.7948404E+004
  3.8333396E+004
  3.6532787E+004
  3.3357522E+004
  2.9651768E+004
  2.6282299E+004
  2.4204842E+004
  2.4212063E+004
  2.6433119E+004
  3.0301007E+004
  3.5076799E+004
  4.0191078E+004
  4.5272397E+004
  5.0082213E+004
  5.4454959E+004
  5.8255252E+004
  6.1348630E+004
  6.3584582E+004
  6.4785345E+004
  6.4740802E+004
  6.3219170E+004
  5.9968202E+004
  5.4809509E+004
  4.7954728E+004
  3.9966657E+004
  3.1383728E+004
  2.3329689E+004
  1.5853017E+004
  8.7361149E+003
  5.1482685E+003
  5.1030900E+003
  6.5557525E+003
  8.5974998E+003
  9.3816229E+003
  8.2090959E+003
  9.7698343E+003
  9.4158031E+003
  8.1452544E+003
  8.0665798E+003
  6.2562116E+003
  5.0393855E+003
  3.8620053E+003
  2.3309101E+003
  1.2086261E+003
  7.8775098E+003
  7.6543152E+003
  6.7377841E+003
  9.3703058E+003
  1.5817807E+004
  2.2257386E+004
  2.8297030E+004
  3.4089237E+004
  3.9602998E+004
  4.4633068E+004
  4.8797681E+004
  5.1576096E+004
  5.2382075E+004
  5.2093021E+004
  5.3024732E+004
  5.2218758E+004
  6.3630602E+003
  1.1746298E+004
  1.9170244E+004
  2.5746043E+004
  3.1079705E+004
  3.4318114E+004
  3.5192596E+004
  3.3964906E+004
  3.1214746E+004
  2.7638095E+004
  2.4068758E+004
  2.1530532E+004
  2.1061025E+004
  2.3048548E+004
  2.6944109E+004
  3.1906195E+004
  3.7305386E+004
  4.2761485E+004
  4.8051689E+004
  5.3033354E+004
  5.7589826E+004
  6.1587706E+004
  6.4847404E+004
  6.7140558E+004
  6.8168046E+004
  6.7528997E+004
  6.4815569E+004
  5.9552216E+004
  5.1065784E+004
  3.9838241E+004
  2.9401320E+004
  2.0534751E+004
  1.1038080E+004
  8.0407933E+003
  1.0076617E+004
  1.0551663E+004
  1.0798864E+004
  1.1829875E+004
  1.1992237E+004
  1.6755300E+004
  2.1333698E+004
  1.6484058E+004
  9.4599654E+003
  5.1468500E+003
  4.0939490E+003
  2.9984288E+003
  2.2132104E+003
  1.0413644E+003
  2.6144704E+002
  5.4984777E+003
  4.1675822E+003
  1.0051658E+004
  9.7779344E+003
  1.2110264E+004
  1.7753676E+004
  2.3931625E+004
  2.9865672E+004
  3.5569188E+004
  4.1049616E+004
  4.6240294E+004
  5.0910948E+004
  5.4535812E+004
  5.6169642E+004
  5.5065130E+004
  4.8015789E+004
  4.4808649E+004
  3.9489649E+003
  1.0915139E+004
  1.7811241E+004
  2.3297339E+004
  2.8324630E+004
  3.1486765E+004
  3.2567764E+004
  3.1722336E+004
  2.9320042E+004
  2.5911591E+004
  2.2235870E+004
  1.9304206E+004
  1.8334545E+004
  2.0013722E+004
  2.3847912E+004
  2.8881957E+004
  3.4421501E+004
  4.0082407E+004
  4.5666882E+004
  5.1069608E+004
  5.6213740E+004
  6.0996286E+004
  6.5221786E+004
  6.8570609E+004
  7.0704181E+004
  7.1124948E+004
  6.8794073E+004
  6.2799805E+004
  5.3345672E+004
  4.0522463E+004
  2.1202062E+004
  9.2322552E+003
  9.9768920E+003
  1.9994129E+004
  1.7528024E+004
  1.7295540E+004
  1.5508471E+004
  1.3103290E+004
  7.6470362E+003
  1.1024979E+004
  2.5892777E+003
  1.5002052E+003
  1.6455732E+003
  1.3364403E+003
  8.5012850E+002
  3.9304355E+002
  6.9488555E+001
  2.3101465E+004
  1.3619308E+004
  1.4411432E+004
  1.5200267E+004
  2.0143285E+004
  2.5615395E+004
  3.1191852E+004
  3.6658052E+004
  4.1997647E+004
  4.7202307E+004
  5.2298340E+004
  5.6994143E+004
  5.9535793E+004
  5.6930782E+004
  4.5140635E+004
  3.3142400E+004
  6.5176572E+003
  1.3681474E+004
  1.6092496E+004
  2.1541409E+004
  2.6421186E+004
  2.9271624E+004
  3.0456328E+004
  2.9878833E+004
  2.7759410E+004
  2.4530964E+004
  2.0835491E+004
  1.7610235E+004
  1.6165543E+004
  1.7483977E+004
  2.1171167E+004
  2.6158624E+004
  3.1684922E+004
  3.7364514E+004
  4.3029765E+004
  4.8623799E+004
  5.4132741E+004
  5.9523954E+004
  6.4668837E+004
  6.9140373E+004
  7.2195503E+004
  7.3678822E+004
  7.3295405E+004
  6.8309869E+004
  5.4661842E+004
  2.7267277E+004
  1.2514407E+004
  3.0016155E+003
  8.5610577E+003
  9.6383421E+002
  3.6967140E+002
  1.6311047E+002
  3.1996753E+002
  2.4170906E+002
  3.0714149E+002
  2.6971360E+004
  1.5786632E+004
  1.5528479E+004
  1.7933900E+004
  2.2203630E+004
  2.7087071E+004
  3.2206237E+004
  3.7325097E+004
  4.2393258E+004
  4.7305982E+004
  5.2059968E+004
  5.7316713E+004
  6.1856129E+004
  6.1359545E+004
  4.0918745E+004
  1.4971289E+004
  1.0605537E+004
  1.5576784E+004
  2.2005935E+004
  2.5005031E+004
  2.7587622E+004
  2.8881311E+004
  2.8490324E+004
  2.6564246E+004
  2.3520862E+004
  1.9879513E+004
  1.6471375E+004
  1.4634439E+004
  1.5588212E+004
  1.9064630E+004
  2.3900633E+004
  2.9271542E+004
  3.4789444E+004
  4.0315237E+004
  4.5843620E+004
  5.1439782E+004
  5.7188651E+004
  6.3116876E+004
  6.9124872E+004
  7.3883718E+004
  7.5168675E+004
  7.3946220E+004
  6.5929342E+004
  6.3154212E+004
  2.7401291E+004
  8.2215793E+003
  6.1698235E+002
  1.3154437E+002
  7.3072004E+001
  3.4347716E+002
  2.3134166E+002
  2.4101116E+002
  3.2011890E+002
  2.9952289E+002
  2.9727971E+004
  2.7210759E+004
  1.8178068E+004
  1.1667246E+004
  1.5388890E+004
  1.9296556E+004
  2.3568973E+004
  2.8174501E+004
  3.2892282E+004
  3.7668867E+004
  4.2447381E+004
  4.7117630E+004
  5.0958211E+004
  5.3976204E+004
  5.9687159E+004
  5.6149624E+004
  3.7201472E+004
  1.7725300E+004
  7.5254878E+003
  1.4866504E+004
  1.9147810E+004
  2.2613936E+004
  2.6429725E+004
  2.8007666E+004
  2.7564733E+004
  2.5753294E+004
  2.2948075E+004
  1.9380836E+004
  1.5869052E+004
  1.3766064E+004
  1.4420769E+004
  1.7668892E+004
  2.2287639E+004
  2.7402198E+004
  3.2618446E+004
  3.7816357E+004
  4.3033739E+004
  4.8414444E+004
  5.4178066E+004
  6.0609287E+004
  6.7966276E+004
  7.7465444E+004
  8.3774688E+004
  8.9879993E+004
  1.1219084E+005
  7.9461765E+004
  2.9391456E+001
  1.5474505E+002
  1.6438148E+002
  2.7644572E+002
  3.6047066E+002
  2.5974202E+002
  2.9325900E+004
  2.8527809E+004
  2.2835864E+004
  1.5675347E+004
  1.2255779E+004
  1.5086460E+004
  1.9875210E+004
  2.4463729E+004
  2.8956803E+004
  3.3418109E+004
  3.7885952E+004
  4.2550577E+004
  4.7303261E+004
  5.2525468E+004
  5.3081546E+004
  5.6918141E+004
  8.1389667E+004
  6.0025027E+004
  1.6965592E+004
  2.3997078E+004
  2.5361623E+004
  2.8170428E+004
  2.8138088E+004
  2.6804936E+004
  2.5632989E+004
  2.2968711E+004
  1.9364538E+004
  1.5772495E+004
  1.3545587E+004
  1.4033544E+004
  1.7104765E+004
  2.1509340E+004
  2.6344318E+004
  3.1206249E+004
  3.5980513E+004
  4.0726656E+004
  4.5655589E+004
  5.1080134E+004
  5.7608303E+004
  6.5592877E+004
  7.7451614E+004
  9.9036357E+004
  1.0381471E+005
  9.4904741E+004
  1.5906791E+001
  3.6321225E+001
  1.4820766E+002
  3.1187624E+004
  3.0385484E+004
  2.4854541E+004
  1.8184306E+004
  1.3513526E+004
  1.2359810E+004
  1.5692023E+004
  2.0507000E+004
  2.5274475E+004
  2.9768363E+004
  3.4068278E+004
  3.8318459E+004
  4.2745365E+004
  4.8057049E+004
  5.5256274E+004
  6.5881388E+004
  7.2070909E+004
  9.4084590E+004
  1.3538114E+004
  2.0409317E+004
  2.8881120E+004
  2.4803979E+004
  2.7931656E+004
  2.6735404E+004
  2.3716243E+004
  1.9839352E+004
  1.6192365E+004
  1.3946406E+004
  1.4431871E+004
  1.7448454E+004
  2.1728982E+004
  2.6366368E+004
  3.0952782E+004
  3.5364697E+004
  3.9671503E+004
  4.4084438E+004
  4.9123216E+004
  5.5228308E+004
  6.4604119E+004
  7.4453110E+004
  1.0204052E+005
  1.5505817E+005
  9.1793877E+004
  3.2914346E+004
  3.3227719E+004
  2.6584753E+004
  1.9969976E+004
  1.5143439E+004
  1.2059417E+004
  1.2841064E+004
  1.6686773E+004
  2.1523042E+004
  2.6353745E+004
  3.0912659E+004
  3.5200729E+004
  3.9292828E+004
  4.3469002E+004
  4.8209468E+004
  5.5197232E+004
  7.1000038E+004
  7.2618432E+004
  3.2405081E+004
  7.9332708E+003
  1.8826293E+004
  3.9068767E+004
  3.2169218E+004
  3.2264536E+004
  2.9055872E+004
  2.4858679E+004
  2.0953572E+004
  1.7172253E+004
  1.4952666E+004
  1.5575229E+004
  1.8701490E+004
  2.3015386E+004
  2.7631206E+004
  3.2150135E+004
  3.6442555E+004
  4.0558300E+004
  4.4722995E+004
  4.9457869E+004
  5.5655516E+004
  6.5544275E+004
  8.2580580E+004
  1.1694502E+005
  1.9731033E+005
  3.7278508E+004
  3.9766357E+004
  2.4913788E+004
  2.1183027E+004
  1.5819113E+004
  1.2335714E+004
  1.1280073E+004
  1.3608284E+004
  1.7919110E+004
  2.2859247E+004
  2.7799555E+004
  3.2532664E+004
  3.6988750E+004
  4.1270752E+004
  4.5139237E+004
  4.9936058E+004
  5.2717952E+004
  6.6054041E+004
  9.1141740E+004
  5.5649086E+004
  2.1238632E+004
  2.7289734E+004
  3.7611779E+004
  2.9456574E+004
  2.7486448E+004
  2.2991227E+004
  1.8871378E+004
  1.6507175E+004
  1.7390282E+004
  2.0777827E+004
  2.5287523E+004
  3.0085596E+004
  3.4807363E+004
  3.9314668E+004
  4.3629109E+004
  4.7960036E+004
  5.2713520E+004
  5.8962863E+004
  6.8352987E+004
  8.7578531E+004
  1.3048486E+005
  1.4140913E+005
  1.1573187E+004
  2.4242478E+004
  2.6066136E+004
  2.8576684E+004
  2.5845489E+004
  1.7053945E+004
  1.5300668E+004
  1.1862406E+004
  1.0094779E+004
  1.1032658E+004
  1.4536375E+004
  1.9256800E+004
  2.4365409E+004
  2.9493715E+004
  3.4498644E+004
  3.9356731E+004
  4.4047747E+004
  4.8701591E+004
  5.3056109E+004
  5.9199584E+004
  6.9686351E+004
  1.1179732E+005
  1.0403734E+004
  2.3843183E+004
  4.4355877E+004
  3.5006151E+004
  3.1958463E+004
  2.6137129E+004
  2.1069358E+004
  1.8544619E+004
  1.9782733E+004
  2.3518689E+004
  2.8289914E+004
  3.3439779E+004
  3.8607768E+004
  4.3621152E+004
  4.8479551E+004
  5.3305362E+004
  5.8499675E+004
  6.4283009E+004
  7.2675941E+004
  8.3223195E+004
  1.0949536E+005
  1.8369559E+005
  2.4176908E+004
  2.9471445E+004
  2.1716984E+004
  2.5592752E+004
  2.0313708E+004
  1.5224073E+004
  1.1013517E+004
  8.7289639E+003
  8.4902914E+003
  1.1124830E+004
  1.5480740E+004
  2.0551020E+004
  2.5861377E+004
  3.1205250E+004
  3.6514260E+004
  4.1805092E+004
  4.7131938E+004
  5.2592847E+004
  5.7962162E+004
  6.4225542E+004
  7.1330017E+004
  7.0605477E+004
  4.3872931E+004
  4.4055693E+004
  3.8659832E+004
  3.1485049E+004
  2.3973888E+004
  2.0878344E+004
  2.2803925E+004
  2.6580683E+004
  3.1593321E+004
  3.7235551E+004
  4.3033189E+004
  4.8728247E+004
  5.4272356E+004
  5.9785303E+004
  6.5463426E+004
  7.1583640E+004
  7.8179041E+004
  8.3786182E+004
  9.4550524E+004
  1.2477504E+005
  7.7972026E+003
  1.6441826E+004
  1.8602129E+004
  2.0214143E+004
  2.0525231E+004
  1.7365995E+004
  1.8073124E+004
  1.6787602E+004
  1.3001324E+004
  9.0117278E+003
  6.5477057E+003
  7.5501939E+003
  1.1375544E+004
  1.6329956E+004
  2.1695665E+004
  2.7191276E+004
  3.2707162E+004
  3.8233081E+004
  4.3816988E+004
  4.9531606E+004
  5.5529945E+004
  6.1490964E+004
  6.6012976E+004
  6.2132025E+004
  6.0829437E+004
  4.6065650E+004
  4.6667985E+004
  3.5010053E+004
  2.4688431E+004
  2.4958743E+004
  2.5992580E+004
  2.9308815E+004
  3.4617789E+004
  4.0965287E+004
  4.7544136E+004
  5.3961433E+004
  6.0136245E+004
  6.6187140E+004
  7.2322318E+004
  7.8745638E+004
  8.5464091E+004
  9.2977552E+004
  1.0337959E+005
  8.5799593E+004
  5.1245231E+004
  8.1476275E+004
  1.5380961E+004
  1.8191154E+004
  1.4787598E+004
  1.9133921E+004
  1.7919098E+004
  1.6573722E+004
  1.5581353E+004
  1.3983012E+004
  1.1238833E+004
  7.7348064E+003
  5.3486242E+003
  7.1326656E+003
  1.1688196E+004
  1.7055694E+004
  2.2654773E+004
  2.8274055E+004
  3.3854920E+004
  3.9425775E+004
  4.5058032E+004
  5.0718113E+004
  5.6430687E+004
  6.2120778E+004
  6.6673131E+004
  5.9947485E+004
  4.6061183E+004
  5.1245760E+004
  5.3554718E+004
  3.5095218E+004
  2.9379684E+004
  2.8076390E+004
  3.0745428E+004
  3.6819711E+004
  4.4226178E+004
  5.1728139E+004
  5.8783669E+004
  6.5330800E+004
  7.1538691E+004
  7.7648232E+004
  8.3834307E+004
  9.0222083E+004
  9.6725272E+004
  9.8850476E+004
  9.1616362E+004
  6.1716974E+004
  3.0341308E+004
  3.1799721E+004
  2.8783816E+004
  3.4806603E+004
  3.2822656E+004
  1.9675734E+004
  4.7314722E+004
  3.1076077E+004
  3.6602124E+003
  7.8858217E+003
  1.0183961E+004
  1.1703903E+004
  1.3612789E+004
  1.3197346E+004
  1.5157907E+004
  1.6345380E+004
  1.5879304E+004
  1.4645392E+004
  1.2913153E+004
  1.0342078E+004
  7.1356145E+003
  4.8972621E+003
  7.0745764E+003
  1.2032503E+004
  1.7699480E+004
  2.3467869E+004
  2.9121959E+004
  3.4618624E+004
  4.0037910E+004
  4.5472439E+004
  5.0897164E+004
  5.5664395E+004
  5.8998058E+004
  6.3816176E+004
  5.3495008E+004
  2.4735490E+004
  3.8045951E+004
  3.2858730E+004
  3.2305129E+004
  2.6686807E+004
  3.0510966E+004
  3.7925694E+004
  4.6906383E+004
  5.5382960E+004
  6.2852373E+004
  6.9349863E+004
  7.5184749E+004
  8.0623811E+004
  8.5759559E+004
  9.0343524E+004
  9.2970346E+004
  9.0954755E+004
  8.0245545E+004
  6.2728879E+004
  4.3388930E+004
  3.3005319E+004
  3.3607226E+004
  2.9784558E+004
  3.4483151E+004
  6.3244287E+004
  3.7606411E+004
  4.2446650E+004
  3.3992025E+004
  3.6594967E+004
  3.2411218E+004
  2.7275452E+004
  3.0011430E+004
  1.2907250E+004
  2.8103607E+004
  1.4319378E+004
  5.6424766E+003
  6.0238605E+003
  8.1607459E+003
  1.2295377E+004
  1.3785564E+004
  1.4419848E+004
  1.5169111E+004
  1.5681805E+004
  1.5502689E+004
  1.4533381E+004
  1.2802153E+004
  1.0321423E+004
  7.2600461E+003
  5.0564356E+003
  7.2626831E+003
  1.2444048E+004
  1.8347002E+004
  2.4239690E+004
  2.9824513E+004
  3.5083332E+004
  4.0129274E+004
  4.5237033E+004
  5.0348179E+004
  5.5657109E+004
  5.6193277E+004
  5.6565143E+004
  6.6697194E+004
  3.8437269E+004
  1.4412180E+004
  2.9342469E+004
  2.7223977E+004
  2.4597651E+004
  2.8491124E+004
  3.8387853E+004
  4.9136022E+004
  5.8531000E+004
  6.5960091E+004
  7.1877584E+004
  7.6821398E+004
  8.1107858E+004
  8.4688814E+004
  8.7026444E+004
  8.7023510E+004
  8.3103390E+004
  7.4362241E+004
  6.1103944E+004
  4.7330172E+004
  3.7255889E+004
  2.9311587E+004
  2.2965684E+004
  2.4973681E+004
  3.0229466E+004
  3.3941165E+004
  3.6276816E+004
  4.0005625E+004
  3.6989247E+004
  5.6966854E+004
  4.4649644E+004
  7.5171857E+003
  1.2345110E+004
  8.4799493E+003
  1.7543133E+003
  1.0666651E+004
  1.1840648E+004
  1.3350891E+004
  1.4881812E+004
  1.5547932E+004
  1.5801808E+004
  1.5886700E+004
  1.5580308E+004
  1.4698826E+004
  1.3147993E+004
  1.0860780E+004
  7.9691783E+003
  5.7637947E+003
  7.6387020E+003
  1.2945971E+004
  1.9138546E+004
  2.5105650E+004
  3.0526838E+004
  3.5387755E+004
  3.9919423E+004
  4.4379090E+004
  4.9374446E+004
  5.5337422E+004
  6.2698680E+004
  6.3208437E+004
  7.5038000E+004
  2.6817152E+004
  2.8578235E+004
  2.2872605E+004
  2.5980646E+004
  3.8197376E+004
  5.1400026E+004
  6.1176054E+004
  6.7883214E+004
  7.2644456E+004
  7.6397112E+004
  7.9397041E+004
  8.1470600E+004
  8.2106260E+004
  8.0533298E+004
  7.6013028E+004
  6.8270260E+004
  5.8209600E+004
  4.7365035E+004
  3.7144476E+004
  2.8358518E+004
  2.2336995E+004
  2.1504817E+004
  2.4969869E+004
  2.9292068E+004
  3.2506023E+004
  3.4432078E+004
  3.2640766E+004
  3.0807145E+004
  3.7262490E+004
  7.0553640E+004
  3.8491811E+004
  4.2645840E+004
  3.2423620E+004
  3.8931756E+004
  2.8773181E+004
  3.2941059E+004
  2.4926433E+004
  2.9048100E+004
  2.1651360E+004
  2.4691454E+004
  1.7407842E+004
  2.3872273E+004
  1.5906050E+004
  1.6685579E+004
  1.5694323E+004
  1.5550175E+004
  1.5817007E+004
  1.6134558E+004
  1.6309560E+004
  1.6296805E+004
  1.6105107E+004
  1.5692836E+004
  1.4912307E+004
  1.3603682E+004
  1.1650045E+004
  9.1102757E+003
  6.8383893E+003
  8.3823216E+003
  1.3815831E+004
  2.0207757E+004
  2.6236721E+004
  3.1342656E+004
  3.5716275E+004
  3.9625316E+004
  4.3425971E+004
  4.7435852E+004
  5.2756784E+004
  6.4170231E+004
  6.1922840E+004
  2.7399140E+004
  2.7624150E+004
  2.3807222E+004
  2.1465552E+004
  3.8724391E+004
  5.3795047E+004
  6.3117048E+004
  6.7981121E+004
  7.1373679E+004
  7.4025266E+004
  7.5984024E+004
  7.6971495E+004
  7.6528258E+004
  7.4164642E+004
  6.9542511E+004
  6.2719470E+004
  5.4209244E+004
  4.4943064E+004
  3.5834512E+004
  2.7661834E+004
  2.1612486E+004
  1.9388398E+004
  2.0878008E+004
  2.3612539E+004
  2.5623879E+004
  2.5437762E+004
  2.1969341E+004
  1.9527902E+004
  2.5892632E+004
  2.8494991E+004
  2.7568638E+004
  2.4992215E+004
  2.2547361E+004
  2.0172466E+004
  1.8758573E+004
  1.9003395E+004
  1.8906847E+004
  1.8379055E+004
  1.7639381E+004
  1.7123844E+004
  1.6784527E+004
  1.6485428E+004
  1.6171563E+004
  1.5832083E+004
  1.5420031E+004
  1.4836366E+004
  1.3851511E+004
  1.2374559E+004
  1.0448987E+004
  8.6709116E+003
  9.1497886E+003
  1.4806989E+004
  2.1920986E+004
  2.7682780E+004
  3.2279534E+004
  3.6107545E+004
  3.9640318E+004
  4.2772692E+004
  4.6647066E+004
  4.8636762E+004
  5.8701130E+004
  7.7575076E+004
  4.6383916E+004
  2.0388293E+004
  1.4629241E+004
  3.5751607E+004
  5.6748282E+004
  6.2258300E+004
  6.5455290E+004
  6.7966863E+004
  7.0027233E+004
  7.1453424E+004
  7.1857680E+004
  7.0857821E+004
  6.8141830E+004
  6.3582046E+004
  5.7320975E+004
  4.9805033E+004
  4.1659459E+004
  3.3576347E+004
  2.6274092E+004
  2.0611358E+004
  1.7507788E+004
  1.7050020E+004
  1.7923099E+004
  1.8379952E+004
  1.7310914E+004
  1.5427099E+004
  1.6360015E+004
  1.8961944E+004
  2.2105593E+004
  2.3008250E+004
  2.2434412E+004
  2.1313816E+004
  2.0371452E+004
  1.9964646E+004
  1.9764754E+004
  1.9647448E+004
  1.8995996E+004
  1.8117205E+004
  1.7257262E+004
  1.6504361E+004
  1.5859751E+004
  1.5309415E+004
  1.4845589E+004
  1.4468907E+004
  1.4123438E+004
  1.3688294E+004
  1.2571805E+004
  1.1548345E+004
  1.0903500E+004
  1.2986511E+004
  1.8623178E+004
  2.4509606E+004
  2.9295731E+004
  3.2967687E+004
  3.6547389E+004
  3.9933143E+004
  4.3327483E+004
  4.6733383E+004
  5.1903320E+004
  6.1034194E+004
  9.5026558E+004
  1.8450699E+004
  4.1833864E+004
  5.2533637E+004
  5.7639750E+004
  6.0297224E+004
  6.2900555E+004
  6.5087328E+004
  6.6480931E+004
  6.6711440E+004
  6.5487331E+004
  6.2641813E+004
  5.8171883E+004
  5.2280997E+004
  4.5366005E+004
  3.7965702E+004
  3.0668375E+004
  2.4059414E+004
  1.8706685E+004
  1.5099320E+004
  1.3333966E+004
  1.2724204E+004
  1.2216524E+004
  1.1368593E+004
  1.1170080E+004
  1.2819150E+004
  1.6231500E+004
  1.8894972E+004
  2.0509871E+004
  2.0994339E+004
  2.0874649E+004
  2.0566690E+004
  2.0235600E+004
  1.9897133E+004
  1.9272853E+004
  1.8431056E+004
  1.7406265E+004
  1.6342896E+004
  1.5344744E+004
  1.4458063E+004
  1.3703644E+004
  1.3104552E+004
  1.2679796E+004
  1.2506551E+004
  1.2545803E+004
  1.2570557E+004
  1.1725572E+004
  1.6167740E+004
  1.7413554E+004
  2.2028444E+004
  2.7400493E+004
  2.9715773E+004
  3.3348713E+004
  3.7014297E+004
  4.0553610E+004
  4.4152638E+004
  4.8134381E+004
  5.4027140E+004
  6.2535133E+004
  6.1759044E+004
  6.6240753E+004
  5.2346378E+004
  5.1366666E+004
  5.4302169E+004
  5.7539393E+004
  6.0237475E+004
  6.1828682E+004
  6.2055083E+004
  6.0741750E+004
  5.7833858E+004
  5.3412746E+004
  4.7716983E+004
  4.1133838E+004
  3.4153509E+004
  2.7307442E+004
  2.1100662E+004
  1.5949527E+004
  1.2111390E+004
  9.6023596E+003
  8.1447453E+003
  7.3766827E+003
  7.4479237E+003
  8.9244927E+003
  1.1755022E+004
  1.4775738E+004
  1.7426948E+004
  1.9188592E+004
  2.0152969E+004
  2.0437459E+004
  2.0273389E+004
  1.9811240E+004
  1.9105305E+004
  1.8220020E+004
  1.7144783E+004
  1.5957241E+004
  1.4732788E+004
  1.3549871E+004
  1.2470535E+004
  1.1532129E+004
  1.0741639E+004
  1.0167475E+004
  9.7580013E+003
  1.0195742E+004
  9.9434155E+003
  1.4867059E+004
  1.8223229E+004
  3.2721489E+004
  4.9481022E+004
  3.1625981E+004
  3.0569952E+004
  3.4622977E+004
  3.7956391E+004
  4.1376079E+004
  4.4866559E+004
  4.8672177E+004
  5.3214237E+004
  5.5667067E+004
  5.7234785E+004
  7.9097357E+004
  5.2173750E+004
  4.7014811E+004
  5.0126211E+004
  5.3711873E+004
  5.6570744E+004
  5.8171668E+004
  5.8302381E+004
  5.6864890E+004
  5.3864955E+004
  4.9422730E+004
  4.3787511E+004
  3.7329327E+004
  3.0506323E+004
  2.3811124E+004
  1.7714006E+004
  1.2607442E+004
  8.7309067E+003
  6.1168575E+003
  4.7581337E+003
  4.9706404E+003
  6.7454074E+003
  9.5453541E+003
  1.2455114E+004
  1.5078501E+004
  1.7149465E+004
  1.8724051E+004
  1.9664769E+004
  1.9995934E+004
  1.9678517E+004
  1.8906165E+004
  1.7871730E+004
  1.6696678E+004
  1.5442518E+004
  1.4119492E+004
  1.2759430E+004
  1.1423291E+004
  1.0185274E+004
  9.0843631E+003
  8.1111306E+003
  7.2376557E+003
  6.4647510E+003
  6.3068696E+003
  4.4667334E+003
  6.2176494E+003
  6.9019713E+004
  4.4269778E+004
  3.7386911E+004
  3.8074425E+004
  3.9841371E+004
  4.2468861E+004
  4.5271071E+004
  4.8167101E+004
  5.0672987E+004
  5.1840634E+004
  5.0804154E+004
  5.8241848E+004
  4.9598814E+004
  4.6962251E+004
  4.9960087E+004
  5.2400647E+004
  5.4728072E+004
  5.5859207E+004
  5.5665265E+004
  5.3986926E+004
  5.0834518E+004
  4.6317137E+004
  4.0666653E+004
  3.4226858E+004
  2.7425577E+004
  2.0728633E+004
  1.4602979E+004
  9.5339051E+003
  6.1345912E+003
  4.9073892E+003
  5.3881266E+003
  6.9767346E+003
  9.8431509E+003
  1.2748383E+004
  1.5186971E+004
  1.6787887E+004
  1.7881847E+004
  1.8746811E+004
  1.9544749E+004
  1.9621454E+004
  1.8972488E+004
  1.7744263E+004
  1.6325232E+004
  1.4927613E+004
  1.3562108E+004
  1.2170229E+004
  1.0725322E+004
  9.2665057E+003
  7.8998121E+003
  6.7078358E+003
  5.6129068E+003
  4.4815791E+003
  3.4430023E+003
  2.1619003E+003
  1.3909808E+003
  2.9973314E+003
  4.9650534E+004
  5.2820419E+004
  4.5362777E+004
  4.2378596E+004
  4.2405569E+004
  4.3652404E+004
  4.5475567E+004
  4.7221342E+004
  4.8494678E+004
  4.8386491E+004
  4.7190010E+004
  3.3843078E+004
  1.7253532E+004
  4.1493743E+004
  5.3888096E+004
  5.1786221E+004
  5.2053975E+004
  5.3328849E+004
  5.4432999E+004
  5.4828640E+004
  5.4111978E+004
  5.2114459E+004
  4.8785040E+004
  4.4198032E+004
  3.8549630E+004
  3.2158587E+004
  2.5452356E+004
  1.8935420E+004
  1.3196037E+004
  9.1069862E+003
  7.7894793E+003
  8.5915972E+003
  9.7888428E+003
  1.1983153E+004
  1.4748546E+004
  1.8054043E+004
  1.9892948E+004
  2.0150631E+004
  1.9599280E+004
  1.9475633E+004
  1.9525043E+004
  1.9530462E+004
  1.8337857E+004
  1.6477049E+004
  1.4636279E+004
  1.3090894E+004
  1.1708752E+004
  1.0336764E+004
  8.8903342E+003
  7.3746988E+003
  5.8885354E+003
  4.6722329E+003
  3.6839837E+003
  2.5304544E+003
  1.1837403E+003
  2.7697422E+002
  1.7750567E+002
  5.5148231E+004
  5.3056549E+004
  4.9702485E+004
  4.5673946E+004
  4.4398650E+004
  4.4696036E+004
  4.5572829E+004
  4.6365008E+004
  4.6621794E+004
  4.5836180E+004
  4.4244663E+004
  2.9524512E+004
  4.1956843E+004
  5.1273431E+004
  5.3905085E+004
  5.4371053E+004
  5.4798961E+004
  5.5029113E+004
  5.4672115E+004
  5.3447322E+004
  5.1152858E+004
  4.7705727E+004
  4.3138667E+004
  3.7615729E+004
  3.1448607E+004
  2.5114290E+004
  1.9286393E+004
  1.4877991E+004
  1.2915936E+004
  1.3635784E+004
  1.5570566E+004
  1.6194549E+004
  1.6712697E+004
  2.2471667E+004
  2.6131838E+004
  2.6779753E+004
  2.5400316E+004
  2.3064824E+004
  2.0456076E+004
  2.0271474E+004
  2.0020664E+004
  1.7977753E+004
  1.5106212E+004
  1.2933687E+004
  1.1333630E+004
  1.0001026E+004
  8.7118361E+003
  7.3699447E+003
  5.9310698E+003
  4.4696388E+003
  3.1043936E+003
  2.5222743E+003
  1.3448727E+003
  7.4529903E+002
  3.6096022E+002
  5.5991125E+004
  5.6693345E+004
  4.9867683E+004
  4.6582465E+004
  4.5489093E+004
  4.5408226E+004
  4.5699266E+004
  4.5730937E+004
  4.5189346E+004
  4.3789486E+004
  4.2026494E+004
  3.3734008E+004
  3.9157689E+004
  4.7979690E+004
  5.3277334E+004
  5.5453732E+004
  5.6003320E+004
  5.5801571E+004
  5.4971198E+004
  5.3404126E+004
  5.0955201E+004
  4.7533454E+004
  4.3153144E+004
  3.7963952E+004
  3.2280107E+004
  2.6633404E+004
  2.1832810E+004
  1.8861103E+004
  1.8593789E+004
  2.0953769E+004
  2.4364843E+004
  2.6151739E+004
  2.7957456E+004
  3.4654558E+004
  3.7647036E+004
  3.4046641E+004
  3.2102921E+004
  3.0158522E+004
  2.5049715E+004
  2.1641224E+004
  2.1327035E+004
  1.7021708E+004
  1.3635551E+004
  1.1488980E+004
  1.0002049E+004
  8.6926692E+003
  7.4387552E+003
  6.2207903E+003
  5.0058893E+003
  3.8218139E+003
  2.5666570E+003
  2.7548420E+003
  1.6581720E+003
  3.8419773E+002
  7.8068928E+004
  5.3002850E+004
  4.7478728E+004
  4.6375327E+004
  4.5987470E+004
  4.6031979E+004
  4.6003179E+004
  4.5462771E+004
  4.4175094E+004
  4.2137905E+004
  4.0163360E+004
  3.4891079E+004
  3.9482994E+004
  4.7064105E+004
  5.3050255E+004
  5.5966490E+004
  5.6749114E+004
  5.6412042E+004
  5.5398095E+004
  5.3742719E+004
  5.1351873E+004
  4.8150319E+004
  4.4160274E+004
  3.9534774E+004
  3.4586292E+004
  2.9816267E+004
  2.5846877E+004
  2.3464468E+004
  2.3519785E+004
  2.6206343E+004
  3.3976181E+004
  3.2658221E+004
  5.1142223E+004
  6.3860295E+004
  4.1658834E+004
  4.0696160E+004
  3.8054074E+004
  3.5489350E+004
  4.0691620E+004
  2.5832941E+004
  1.6707577E+004
  1.4892779E+004
  1.2174643E+004
  1.0826902E+004
  9.3013177E+003
  7.7831447E+003
  6.2840603E+003
  4.9044290E+003
  3.7740950E+003
  2.7646306E+003
  2.2406294E+003
  2.2973556E+003
  5.9292090E+004
  5.0108353E+004
  4.6212340E+004
  4.6942825E+004
  4.6658784E+004
  4.6849892E+004
  4.6654064E+004
  4.5695664E+004
  4.3647450E+004
  4.0681944E+004
  3.8356826E+004
  3.2691296E+004
  3.9081874E+004
  4.8480186E+004
  5.4139054E+004
  5.6563322E+004
  5.7087881E+004
  5.6703421E+004
  5.5750850E+004
  5.4273012E+004
  5.2180669E+004
  4.9389168E+004
  4.5946660E+004
  4.2065024E+004
  3.8028667E+004
  3.4133010E+004
  3.1003020E+004
  2.8483524E+004
  2.6197230E+004
  3.0180717E+004
  3.0646017E+004
  2.8833156E+004
  4.0094005E+004
  1.5706813E+004
  7.5104914E+003
  1.1847022E+004
  1.2403297E+004
  1.1626775E+004
  1.0041635E+004
  8.1820046E+003
  6.2983913E+003
  4.4981366E+003
  2.9439765E+003
  1.2665397E+003
  1.1596957E+003
  3.4173168E+004
  1.9429293E+004
  4.3768586E+004
  5.4002360E+004
  4.9446548E+004
  4.7981564E+004
  4.7738801E+004
  4.7782785E+004
  4.7661425E+004
  4.6572229E+004
  4.3805363E+004
  3.9489549E+004
  3.6211580E+004
  2.7748824E+004
  4.1656505E+004
  5.2182911E+004
  5.5913186E+004
  5.6791239E+004
  5.6918744E+004
  5.6588002E+004
  5.5901974E+004
  5.4859602E+004
  5.3319705E+004
  5.1119479E+004
  4.8250369E+004
  4.5048887E+004
  4.1956640E+004
  3.9188534E+004
  3.5090568E+004
  3.3838637E+004
  2.9025191E+004
  3.9398600E+004
  2.6843131E+004
  1.2921786E+004
  3.3429846E+004
  4.7355205E+004
  5.1152146E+004
  4.9765509E+004
  4.8618387E+004
  4.8270218E+004
  4.8434350E+004
  4.8655893E+004
  4.8083307E+004
  4.5129049E+004
  3.8163540E+004
  3.2738057E+004
  1.5612541E+004
  4.0791237E+004
  5.5858166E+004
  5.5726847E+004
  5.6011744E+004
  5.6207129E+004
  5.6058456E+004
  5.5787873E+004
  5.5401353E+004
  5.4715743E+004
  5.3355794E+004
  5.1009330E+004
  4.7880210E+004
  4.5321232E+004
  4.3231953E+004
  4.1920925E+004
  3.2491911E+004
  3.0027097E+004
  3.2217103E+004
  5.4570919E+004
  4.2091920E+004
  4.5019623E+004
  4.7145565E+004
  4.7702609E+004
  4.7916928E+004
  4.8234387E+004
  4.8810639E+004
  4.9478295E+004
  4.8180265E+004
  3.9848716E+004
  2.7509986E+004
  3.2384407E+004
  5.7077258E+004
  5.3841080E+004
  5.3424740E+004
  5.5054254E+004
  5.5295479E+004
  5.5333850E+004
  5.5398854E+004
  5.5771564E+004
  5.6309820E+004
  5.6390015E+004
  5.5168951E+004
  5.1887910E+004
  4.6265875E+004
  4.7134739E+004
  3.5357508E+004
  2.6660832E+004
  2.2825579E+004
  4.3904121E+004
  4.0227411E+004
  4.1545967E+004
  4.5126014E+004
  4.6248965E+004
  4.6844537E+004
  4.7164111E+004
  4.7504806E+004
  4.8359451E+004
  5.0510199E+004
  3.8642110E+004
  1.5564919E+004
  8.0650533E+004
  5.8339677E+004
  5.4858571E+004
  5.5330409E+004
  5.5055412E+004
  5.4864179E+004
  5.4827636E+004
  5.5697458E+004
  5.7844724E+004
  6.0215306E+004
  6.0346718E+004
  5.9283025E+004
  5.2295491E+004
  5.9116472E+004
  3.5068348E+004
  1.0892753E+004
  2.4603531E+004
  1.3410014E+004
  3.3090875E+004
  4.3438824E+004
  4.3287157E+004
  4.4375865E+004
  4.5240069E+004
  4.5646670E+004
  4.5704005E+004
  4.5870436E+004
  4.4882830E+004
  4.7292417E+004
  5.3432372E+004
  3.0683149E+004
  6.4457636E+004
  6.5964486E+004
  5.9750638E+004
  5.7347291E+004
  5.6202799E+004
  5.5297353E+004
  5.4670090E+004
  5.4965098E+004
  5.8098513E+004
  6.5281636E+004
  7.2231077E+004
  6.7759572E+004
  6.1469369E+004
  5.7925425E+004
  2.4465837E+004
  3.5651399E+004
  4.2853110E+004
  4.4010050E+004
  4.4172019E+004
  4.4460565E+004
  4.4730855E+004
  4.4850033E+004
  4.5085965E+004
  4.5430898E+004
  5.0185783E+004
  7.3472185E+004
  6.9071960E+004
  6.7418603E+004
  6.4336511E+004
  6.0650470E+004
  5.8810149E+004
  5.7501541E+004
  5.6409279E+004
  5.5393880E+004
  5.6362994E+004
  6.4926583E+004
  7.5336920E+004
  7.7511122E+004
  6.6439430E+004
  3.1149120E+004
  3.5385496E+004
  4.0935866E+004
  4.2572195E+004
  4.3247324E+004
  4.3706155E+004
  4.4174160E+004
  4.4754681E+004
  4.5686687E+004
  4.8172488E+004
  5.4489773E+004
  5.5586815E+004
  7.0032023E+004
  7.2235167E+004
  6.6742127E+004
  6.4332154E+004
  6.3048938E+004
  6.2129453E+004
  6.1112804E+004
  6.1687769E+004
  5.9388991E+004
  7.2554529E+004
  1.2184836E+005
  1.0514103E+005
  3.5137737E+004
  3.8627111E+004
  3.9115098E+004
  4.0464037E+004
  4.1878217E+004
  4.2916482E+004
  4.3864875E+004
  4.4955209E+004
  4.6603343E+004
  4.9409992E+004
  5.2326566E+004
  5.5073001E+004
  9.4288284E+004
  7.0050976E+004
  6.8710004E+004
  6.9165289E+004
  6.8926128E+004
  6.8532209E+004
  6.9042216E+004
  7.0046592E+004
  7.6696885E+004
  8.5020671E+004
  1.3465132E+005
  5.1374805E+004
  3.6996907E+004
  3.6732669E+004
  3.8843395E+004
  4.0767202E+004
  4.2311814E+004
  4.3653174E+004
  4.5087557E+004
  4.6886724E+004
  4.9035633E+004
  5.1315482E+004
  5.2561236E+004
  6.9006435E+004
  7.3048444E+004
  7.4231473E+004
  7.6813084E+004
  7.5861380E+004
  7.5547706E+004
  7.6201857E+004
  7.8630869E+004
  8.3670882E+004
  8.2915962E+004
  6.6216697E+004
  3.9885170E+004
  3.5827870E+004
  3.5720249E+004
  3.8701841E+004
  4.0405273E+004
  4.2074501E+004
  4.3513261E+004
  4.5007573E+004
  4.6643782E+004
  4.8417762E+004
  5.0081620E+004
  5.1358796E+004
  3.7046100E+004
  1.0926949E+004
  5.5011078E+004
  8.5739900E+004
  8.7400673E+004
  8.5263212E+004
  8.3138899E+004
  8.1207647E+004
  8.0335708E+004
  8.1143177E+004
  8.3858641E+004
  7.1250711E+004
  5.2959349E+004
  2.2574502E+004
  1.2102461E+004
  3.0039399E+004
  3.9234646E+004
  3.8641782E+004
  3.9547270E+004
  4.0840202E+004
  4.2118509E+004
  4.3425478E+004
  4.4773085E+004
  4.6195853E+004
  4.7644285E+004
  4.9052027E+004
  5.0166379E+004
  1.1662829E+004
  5.8609966E+004
  9.5206727E+004
  9.6153407E+004
  9.2465758E+004
  8.8745752E+004
  8.4915012E+004
  8.0822268E+004
  7.6762527E+004
  7.6225510E+004
  6.0753781E+004
  2.5087379E+004
  2.2292675E+004
  3.2306445E+004
  3.9114474E+004
  4.0284249E+004
  4.0621183E+004
  4.1287949E+004
  4.2232906E+004
  4.3300211E+004
  4.4448412E+004
  4.5644356E+004
  4.6857032E+004
  4.8068746E+004
  4.9132744E+004
  4.6348347E+004
  8.4638960E+004
  9.4561399E+004
  9.7657212E+004
  9.6197124E+004
  9.2508718E+004
  8.6924922E+004
  8.0662623E+004
  7.0457283E+004
  6.5478644E+004
  7.2670918E+004
  4.0343312E+004
  2.7603043E+004
  3.2352654E+004
  3.7776211E+004
  3.9901162E+004
  4.0693465E+004
  4.1333558E+004
  4.2147005E+004
  4.3071425E+004
  4.4047765E+004
  4.5048167E+004
  4.6062978E+004
  4.7127171E+004
  4.8128161E+004
  1.3751199E+005
  1.0228109E+005
  9.9690110E+004
  9.9223725E+004
  9.4885858E+004
  8.8819111E+004
  8.0326785E+004
  7.2026008E+004
  6.2554603E+004
  7.8936027E+004
  3.2776315E+004
  3.4472374E+004
  3.7357850E+004
  3.8774779E+004
  3.9921665E+004
  4.0895103E+004
  4.1828827E+004
  4.2737252E+004
  4.3604417E+004
  4.4437468E+004
  4.5271786E+004
  4.6191609E+004
  4.7131941E+004
  1.2613868E+005
  1.1951196E+005
  1.0829814E+005
  1.0305357E+005
  9.7470341E+004
  9.0004645E+004
  8.0637992E+004
  7.0699953E+004
  5.6957166E+004
  3.9542303E+004
  3.5462346E+004
  3.7376301E+004
  3.6464881E+004
  3.7370887E+004
  3.8906492E+004
  4.0264036E+004
  4.1428864E+004
  4.2392360E+004
  4.3184902E+004
  4.3854257E+004
  4.4490485E+004
  4.5241619E+004
  4.6106804E+004
  1.3916864E+005
  1.2822720E+005
  1.1797304E+005
  1.0847685E+005
  9.9806151E+004
  9.0233280E+004
  7.8861986E+004
  6.5537575E+004
  4.4096100E+004
  2.6753790E+004
  5.0533821E+004
  3.5703760E+004
  3.4579629E+004
  3.6305713E+004
  3.8179071E+004
  3.9839572E+004
  4.1167944E+004
  4.2174742E+004
  4.2881417E+004
  4.3355107E+004
  4.3735465E+004
  4.4254390E+004
  4.5016387E+004
  1.4912897E+005
  1.3862055E+005
  1.2606266E+005
  1.1341490E+005
  1.0111127E+005
  8.8616824E+004
  7.4708089E+004
  5.8278443E+004
  3.4460116E+004
  1.2285702E+004
  3.8577060E+004
  3.4376110E+004
  3.3868985E+004
  3.6486966E+004
  3.8149750E+004
  3.9862359E+004
  4.1201078E+004
  4.2196384E+004
  4.2786804E+004
  4.3010471E+004
  4.3034497E+004
  4.3198297E+004
  4.3801248E+004
  1.6256842E+005
  1.4928914E+005
  1.3371569E+005
  1.1636669E+005
  9.9989331E+004
  8.4338573E+004
  6.8377813E+004
  5.0669073E+004
  2.5728207E+004
  7.1513376E+003
  2.1945056E+004
  1.1649159E+004
  2.8714359E+004
  3.7443380E+004
  3.6659727E+004
  3.7456376E+004
  3.8826317E+004
  4.0242742E+004
  4.1534857E+004
  4.2493189E+004
  4.2975743E+004
  4.2910257E+004
  4.2440409E+004
  4.2044786E+004
  4.2368118E+004
  1.7632036E+005
  1.6272093E+005
  1.3976249E+005
  1.1618481E+005
  9.4724468E+004
  7.6388310E+004
  5.9617216E+004
  4.2594273E+004
  1.9146160E+004
  1.3994383E+004
  2.1026759E+004
  3.0542150E+004
  3.6725109E+004
  3.7888996E+004
  3.8394974E+004
  3.9414650E+004
  4.0726621E+004
  4.2008567E+004
  4.3017976E+004
  4.3489976E+004
  4.3175777E+004
  4.2071633E+004
  4.0718892E+004
  4.0526815E+004
  2.0499042E+005
  1.7514648E+005
  1.4474619E+005
  1.0917343E+005
  8.3745649E+004
  6.4270828E+004
  4.7686524E+004
  3.3079698E+004
  1.5501903E+004
  3.1228947E+004
  2.6323863E+004
  2.9912493E+004
  3.4841900E+004
  3.6830427E+004
  3.8165814E+004
  3.9508252E+004
  4.0984432E+004
  4.2427232E+004
  4.3626258E+004
  4.4294407E+004
  4.3958063E+004
  4.2185829E+004
  3.9368183E+004
  3.8017609E+004
  2.1741310E+005
  2.0373377E+005
  1.3559165E+005
  9.2440074E+004
  6.7162820E+004
  4.9011954E+004
  3.4393118E+004
  2.0598249E+004
  6.5784032E+003
  2.5057910E+004
  2.9185136E+004
  3.2098168E+004
  3.2991462E+004
  3.4960094E+004
  3.7113912E+004
  3.9068662E+004
  4.0927477E+004
  4.2632278E+004
  4.4083618E+004
  4.5138614E+004
  4.5271313E+004
  4.3267233E+004
  3.7710309E+004
  3.3970381E+004
  4.2469924E+005
  1.7757990E+005
  1.0940592E+005
  6.8047925E+004
  4.9410248E+004
  3.5112223E+004
  2.3849074E+004
  1.2985385E+004
  5.8866350E+003
  1.5855529E+004
  1.5437521E+004
  1.9496530E+004
  4.1180709E+004
  3.0305586E+004
  3.0697223E+004
  3.3348908E+004
  3.5968973E+004
  3.8431189E+004
  4.0647778E+004
  4.2601925E+004
  4.4189315E+004
  4.5419684E+004
  4.6377459E+004
  4.5828764E+004
  3.8769900E+004
  2.8171809E+004
  3.9220618E+005
  1.6278573E+005
  6.4703184E+004
  5.4314043E+004
  3.7916903E+004
  2.9132281E+004
  2.2142915E+004
  1.5458491E+004
  8.6290673E+003
  1.1416774E+004
  2.1674612E+004
  3.1305349E+004
  2.8992742E+004
  2.9556462E+004
  3.2671642E+004
  3.5222852E+004
  3.7882552E+004
  4.0317910E+004
  4.2454235E+004
  4.4084206E+004
  4.4897466E+004
  4.5245468E+004
  4.6922555E+004
  3.6925119E+004
  1.5764320E+004
  1.5621801E+005
  1.2422117E+005
  7.1388050E+004
  4.7707097E+004
  3.8009037E+004
  3.1280118E+004
  2.6538239E+004
  2.1915052E+004
  1.6809218E+004
  1.0612283E+004
  2.0784267E+004
  1.7505413E+004
  9.3087793E+003
  2.3177617E+004
  3.0853858E+004
  3.0827673E+004
  3.2499850E+004
  3.4888603E+004
  3.7447670E+004
  4.0015891E+004
  4.2411873E+004
  4.4191302E+004
  4.5087597E+004
  4.2973727E+004
  4.3377414E+004
  4.9672491E+004
  2.8407748E+004
  1.1084235E+005
  9.2651604E+004
  6.7041346E+004
  4.8589600E+004
  3.9396514E+004
  3.4283662E+004
  3.0921669E+004
  2.7592416E+004
  2.4408239E+004
  1.7345559E+004
  9.1288430E+003
  1.6223912E+004
  2.5309107E+004
  2.9149333E+004
  3.0540544E+004
  3.2242991E+004
  3.4464225E+004
  3.7008336E+004
  3.9680250E+004
  4.2414491E+004
  4.5020546E+004
  4.6984361E+004
  4.6895771E+004
  4.5983364E+004
  6.2509799E+004
  7.4996056E+004
  6.5170024E+004
  5.2734990E+004
  4.3273260E+004
  3.7567823E+004
  3.4487977E+004
  3.2483935E+004
  3.0638170E+004
  2.7729419E+004
  2.3857955E+004
  1.2218036E+004
  6.5438539E+003
  5.8874338E+003
  2.7463249E+004
  2.2775979E+004
  2.5797328E+004
  2.8802975E+004
  3.1357480E+004
  3.3849503E+004
  3.6436068E+004
  3.9188647E+004
  4.2165911E+004
  4.5644359E+004
  4.9891025E+004
  5.4213150E+004
  5.2482737E+004
  3.8696797E+004
  5.4446116E+004
  4.9803383E+004
  4.0003292E+004
  3.4823468E+004
  3.2792312E+004
  3.1866548E+004
  3.1373989E+004
  3.0529471E+004
  2.8716083E+004
  2.4829355E+004
  1.9043815E+004
  1.6278331E+004
  2.3407229E+004
  2.1369376E+004
  2.3549886E+004
  2.7514381E+004
  3.0464261E+004
  3.3215067E+004
  3.5833832E+004
  3.8531499E+004
  4.1511515E+004
  4.4950219E+004
  4.9799669E+004
  5.8049047E+004
  4.9100080E+004
  2.2755843E+004
  4.8071256E+004
  3.4930277E+004
  2.9162790E+004
  2.7004057E+004
  2.6990796E+004
  2.7726502E+004
  2.8425915E+004
  2.8647455E+004
  2.7897313E+004
  2.5698735E+004
  2.2271599E+004
  1.8084873E+004
  1.5437868E+004
  1.1861968E+004
  1.3063174E+004
  1.1016107E+004
  1.6695064E+004
  2.2088821E+004
  2.4167517E+004
  2.7205769E+004
  3.0174406E+004
  3.2865186E+004
  3.5429657E+004
  3.8042155E+004
  4.0716861E+004
  4.4087912E+004
  4.6541795E+004
  5.4125490E+004
  6.7434209E+004
  3.9561632E+004
  2.0527842E+004
  2.7920953E+004
  1.9877532E+004
  2.0591249E+004
  2.1586277E+004
  2.3051372E+004
  2.4660705E+004
  2.5808933E+004
  2.6200392E+004
  2.5917410E+004
  2.4646795E+004
  2.6019370E+004
  2.0842987E+004
  2.0974408E+004
  6.3279001E+003
  1.3316053E+004
  1.7022323E+004
  2.1603192E+004
  2.5089549E+004
  2.7770923E+004
  3.0447457E+004
  3.2988034E+004
  3.5468323E+004
  3.8034861E+004
  4.0810276E+004
  4.4216548E+004
  4.8353908E+004
  5.8324409E+004
  9.0674822E+004
  2.7991872E+004
  8.5021596E+003
  1.0776048E+004
  1.8509646E+004
  1.5829028E+004
  1.5485880E+004
  1.6598692E+004
  1.8546218E+004
  2.0685020E+004
  2.2522439E+004
  2.3873093E+004
  2.4701906E+004
  2.5480842E+004
  2.6070849E+004
  2.7836624E+004
  3.6104241E+004
  6.2544797E+003
  3.6021235E+003
  1.1185090E+004
  1.7755130E+004
  2.2205746E+004
  2.5832380E+004
  2.8666759E+004
  3.1164315E+004
  3.3569733E+004
  3.6007220E+004
  3.8650356E+004
  4.1808805E+004
  4.5881821E+004
  5.2311232E+004
  6.3541514E+004
  6.7215388E+004
  1.7032707E+004
  1.7713044E+004
  1.5464876E+004
  1.2286857E+004
  1.1200418E+004
  1.2260088E+004
  1.4475529E+004
  1.6933536E+004
  1.9168497E+004
  2.1013669E+004
  2.2457122E+004
  2.3657249E+004
  2.4270488E+004
  2.5258913E+004
  2.6086560E+004
  4.4519159E+004
  3.7879864E+004
  2.6608550E+003
  4.4510499E+003
  7.6544288E+003
  1.4784234E+004
  1.9872187E+004
  2.3839671E+004
  2.7052940E+004
  2.9780986E+004
  3.2194774E+004
  3.4509543E+004
  3.6914732E+004
  3.9641313E+004
  4.3024870E+004
  4.7606994E+004
  5.4033127E+004
  6.0665656E+004
  6.6525661E+004
  1.0977144E+004
  1.2908204E+004
  1.1693678E+004
  9.0050788E+003
  7.7480848E+003
  8.8459780E+003
  1.1161611E+004
  1.3698245E+004
  1.6041031E+004
  1.8038886E+004
  1.9641974E+004
  2.0872841E+004
  2.1581741E+004
  2.3077502E+004
  2.3690144E+004
  3.1836039E+004
  3.2305568E+004
  3.3604296E+004
  4.2867264E+004
  2.0888757E+004
  7.2071203E+003
  1.0121310E+004
  8.6697813E+003
  1.2492577E+004
  1.7308709E+004
  2.1940907E+004
  2.5603128E+004
  2.8584844E+004
  3.1133932E+004
  3.3441463E+004
  3.5670939E+004
  3.7999511E+004
  4.0639515E+004
  4.3900480E+004
  4.8201741E+004
  5.3499531E+004
  5.9479114E+004
  6.3382330E+004
  1.4945241E+004
  1.1534623E+004
  9.6044296E+003
  6.8513855E+003
  5.7660178E+003
  6.6936028E+003
  8.7952939E+003
  1.1150059E+004
  1.3361643E+004
  1.5278612E+004
  1.6840176E+004
  1.8032417E+004
  1.9009108E+004
  1.9921708E+004
  2.1706598E+004
  2.6226200E+004
  3.1053237E+004
  3.5111327E+004
  3.6237303E+004
  3.1721156E+004
  5.1271436E+004
  3.0481471E+004
  1.5517102E+004
  2.1659650E+004
  1.2520659E+004
  1.4239088E+004
  1.6670187E+004
  2.0632949E+004
  2.4291298E+004
  2.7508166E+004
  3.0240307E+004
  3.2627499E+004
  3.4813728E+004
  3.6934134E+004
  3.9117459E+004
  4.1509936E+004
  4.4277065E+004
  4.7717915E+004
  5.2387933E+004
  5.7730744E+004
  6.2883512E+004
  9.0575820E+003
  1.2335795E+004
  7.2267010E+003
  6.0847292E+003
  5.1172271E+003
  5.7100672E+003
  7.3296369E+003
  9.2904843E+003
  1.1213082E+004
  1.2919660E+004
  1.4340201E+004
  1.5488101E+004
  1.6459430E+004
  1.7577979E+004
  1.9476312E+004
  2.2483666E+004
  2.4970895E+004
  2.9218131E+004
  3.3112912E+004
  3.3370080E+004
  3.8051624E+004
  6.1136875E+004
  4.0627896E+004
  3.9400235E+004
  4.0823892E+004
  3.4115009E+004
  3.9844742E+004
  1.8897191E+004
  5.4465100E+004
  3.2735059E+004
  1.8561408E+004
  3.0927914E+004
  2.0661942E+004
  1.9458635E+004
  1.7030957E+004
  1.5907858E+004
  1.7988668E+004
  2.0525713E+004
  2.3596158E+004
  2.6665094E+004
  2.9456956E+004
  3.1932427E+004
  3.4151118E+004
  3.6208797E+004
  3.8201671E+004
  4.0216750E+004
  4.2304296E+004
  4.4512724E+004
  4.6823074E+004
  4.9925426E+004
  5.6829128E+004
  6.0315243E+004
  7.2631194E+003
  9.3510863E+003
  9.1451487E+003
  7.4513700E+003
  6.2145720E+003
  5.5820448E+003
  5.0548253E+003
  5.3733697E+003
  6.4872280E+003
  7.9966025E+003
  9.5629735E+003
  1.0999088E+004
  1.2227860E+004
  1.3254053E+004
  1.4180140E+004
  1.5230009E+004
  1.6648088E+004
  1.8395160E+004
  2.0717352E+004
  2.2965594E+004
  2.3648472E+004
  2.4283182E+004
  2.9898591E+004
  3.6002358E+004
  4.1649177E+004
  4.4017099E+004
  4.0356442E+004
  4.3564699E+004
  7.1761777E+004
  4.6006504E+004
  4.9076299E+004
  4.0992863E+004
  4.4031362E+004
  3.6961409E+004
  3.6360367E+004
  3.2549163E+004
  3.0344539E+004
  2.8676853E+004
  2.5453050E+004
  2.5889995E+004
  2.2538689E+004
  2.4836487E+004
  2.1544092E+004
  2.4739982E+004
  2.2975301E+004
  2.6124391E+004
  2.4383301E+004
  2.4177433E+004
  3.7141036E+004
  2.0821309E+004
  2.0379556E+004
  1.7899862E+004
  1.8260576E+004
  2.0885483E+004
  2.3511589E+004
  2.6226404E+004
  2.8867384E+004
  3.1323271E+004
  3.3558640E+004
  3.5604779E+004
  3.7522840E+004
  3.9383372E+004
  4.1237537E+004
  4.3134324E+004
  4.4939331E+004
  4.6702775E+004
  4.7370958E+004
  5.0587828E+004
  7.1302847E+004
  1.3691742E+004
  9.4798291E+003
  6.1404753E+003
  5.9627870E+003
  5.4136051E+003
  5.1153565E+003
  5.2683888E+003
  6.0027871E+003
  7.1085963E+003
  8.3239257E+003
  9.4767573E+003
  1.0484744E+004
  1.1342289E+004
  1.2113914E+004
  1.2910684E+004
  1.3826539E+004
  1.4937103E+004
  1.6094383E+004
  1.7107527E+004
  1.8180492E+004
  2.0366762E+004
  2.3957688E+004
  2.9153647E+004
  3.3776267E+004
  3.4588085E+004
  3.2290556E+004
  3.5125840E+004
  3.8718323E+004
  3.9302312E+004
  3.7446420E+004
  3.4388215E+004
  3.0594548E+004
  2.7592823E+004
  2.5682421E+004
  2.4849067E+004
  2.3192547E+004
  2.0200326E+004
  1.7692337E+004
  1.8506699E+004
  1.9600476E+004
  2.0936460E+004
  2.3291129E+004
  2.5918372E+004
  2.8430448E+004
  3.0801725E+004
  3.2999403E+004
  3.5021774E+004
  3.6894267E+004
  3.8660111E+004
  4.0369412E+004
  4.2077595E+004
  4.3828194E+004
  4.5641946E+004
  4.7452725E+004
  4.8237433E+004
  4.8437708E+004
  4.6460306E+004
  2.7825836E+003
  3.2292800E+003
  6.6073578E+003
  6.1244984E+003
  5.6616648E+003
  5.2714717E+003
  5.2791460E+003
  5.7281643E+003
  6.4991279E+003
  7.4018126E+003
  8.2874883E+003
  9.0740241E+003
  9.7386158E+003
  1.0303315E+004
  1.0812072E+004
  1.1306896E+004
  1.1787104E+004
  1.2252052E+004
  1.2760930E+004
  1.3574492E+004
  1.5146630E+004
  1.8127151E+004
  2.2069101E+004
  2.5628475E+004
  2.7442993E+004
  2.8410048E+004
  3.0202483E+004
  3.3386825E+004
  3.5413321E+004
  3.6201989E+004
  3.5759123E+004
  3.2469545E+004
  2.7475165E+004
  2.6641569E+004
  2.4817255E+004
  2.1519131E+004
  1.9331407E+004
  1.8468267E+004
  1.9091419E+004
  2.0889505E+004
  2.3080339E+004
  2.5478575E+004
  2.7940772E+004
  3.0279596E+004
  3.2435181E+004
  3.4417750E+004
  3.6246161E+004
  3.7945059E+004
  3.9542087E+004
  4.1069613E+004
  4.2569815E+004
  4.4116992E+004
  4.5832238E+004
  4.7878382E+004
  5.0586299E+004
  5.1708339E+004
  3.3476938E+004
  7.4949742E+003
  2.5918893E+004
  1.6063089E+004
  1.1061258E+004
  7.9279245E+003
  6.8550194E+003
  6.0520361E+003
  5.5313204E+003
  5.3688565E+003
  5.5815134E+003
  6.0771561E+003
  6.7146074E+003
  7.3682532E+003
  7.9576200E+003
  8.4447330E+003
  8.8216070E+003
  9.0934354E+003
  9.2605456E+003
  9.3203131E+003
  9.2901558E+003
  9.2729123E+003
  9.4932796E+003
  1.0336722E+004
  1.2176041E+004
  1.5052917E+004
  1.8223023E+004
  2.0747016E+004
  2.2279687E+004
  2.3793441E+004
  2.6713275E+004
  2.9458927E+004
  3.2449345E+004
  3.9006790E+004
  3.7863990E+004
  3.3589441E+004
  3.1998718E+004
  2.5574718E+004
  2.1073070E+004
  1.9679544E+004
  1.9458086E+004
  2.0529961E+004
  2.2524545E+004
  2.4925268E+004
  2.7364503E+004
  2.9679481E+004
  3.1811585E+004
  3.3754959E+004
  3.5534858E+004
  3.7180113E+004
  3.8709648E+004
  4.0131807E+004
  4.1446437E+004
  4.2661537E+004
  4.3797669E+004
  4.4978232E+004
  4.6298305E+004
  4.8195667E+004
  4.8945480E+004
  3.2504935E+004
  7.3164649E+003
  8.1417996E+003
  9.1424820E+003
  8.4286757E+003
  7.2212170E+003
  6.3667981E+003
  5.7606638E+003
  5.4694909E+003
  5.4930147E+003
  5.7708191E+003
  6.1961557E+003
  6.6659638E+003
  7.1043460E+003
  7.4656388E+003
  7.7255746E+003
  7.8689286E+003
  7.8804286E+003
  7.7444328E+003
  7.4590194E+003
  7.0445521E+003
  6.5644459E+003
  6.1941502E+003
  6.4810557E+003
  8.2637668E+003
  1.0966178E+004
  1.3489708E+004
  1.4569560E+004
  1.2609915E+004
  1.1972172E+004
  1.9916040E+004
  3.6548305E+004
  3.7015630E+004
  5.9042701E+004
  5.0069604E+004
  3.4173446E+004
  2.9137823E+004
  2.1717410E+004
  2.1147036E+004
  2.0530225E+004
  2.1877301E+004
  2.4121082E+004
  2.6634875E+004
  2.9009840E+004
  3.1136735E+004
  3.3028920E+004
  3.4739536E+004
  3.6315458E+004
  3.7787743E+004
  3.9165630E+004
  4.0432353E+004
  4.1551431E+004
  4.2453944E+004
  4.3118306E+004
  4.3356597E+004
  4.3565021E+004
  4.2013027E+004
  4.2208480E+004
  4.2109876E+004
  2.3322305E+004
  8.3853087E+003
  7.9342613E+003
  7.7755882E+003
  7.1883605E+003
  6.4448154E+003
  5.8648702E+003
  5.5065191E+003
  5.4048136E+003
  5.5257746E+003
  5.7977413E+003
  6.1402356E+003
  6.4877028E+003
  6.7958410E+003
  7.0379031E+003
  7.1974603E+003
  7.2622166E+003
  7.2213387E+003
  7.0602301E+003
  6.7489355E+003
  6.2050149E+003
  5.3029620E+003
  3.8726478E+003
  2.2988083E+003
  4.0033845E+003
  6.6478722E+003
  9.1788398E+003
  3.6568081E+003
  1.4806995E+003
  9.2655145E+003
  2.9012543E+004
  3.2881372E+004
  3.9749588E+004
  2.3265569E+004
  2.2490662E+004
  2.0751719E+004
  2.2825051E+004
  2.5535727E+004
  2.8211985E+004
  3.0438316E+004
  3.2288238E+004
  3.3892947E+004
  3.5350612E+004
  3.6722302E+004
  3.8038945E+004
  3.9299443E+004
  4.0467295E+004
  4.1465338E+004
  4.2180429E+004
  4.2462492E+004
  4.2187699E+004
  4.1271756E+004
  3.9958540E+004
  4.1236831E+004
  5.8832680E+004
  7.7093928E+003
  7.6646635E+003
  7.3147282E+003
  6.8947165E+003
  6.3382376E+003
  5.8166404E+003
  5.4510925E+003
  5.2841581E+003
  5.3106366E+003
  5.4886277E+003
  5.7622186E+003
  6.0808851E+003
  6.4091985E+003
  6.7275761E+003
  7.0289155E+003
  7.3144652E+003
  7.5883891E+003
  7.8507515E+003
  8.0761264E+003
  8.2116494E+003
  8.1048939E+003
  7.6758514E+003
  6.5599932E+003
  5.4852092E+003
  1.3322291E+004
  1.3804137E+004
  3.1364230E+004
  2.5429586E+004
  2.0874247E+004
  2.0109921E+004
  2.3208139E+004
  2.6894886E+004
  2.9683764E+004
  3.1577132E+004
  3.3057303E+004
  3.4340541E+004
  3.5539390E+004
  3.6717085E+004
  3.7902808E+004
  3.9091440E+004
  4.0236551E+004
  4.1241289E+004
  4.1955875E+004
  4.2188911E+004
  4.1800051E+004
  4.0815336E+004
  4.0314641E+004
  4.2560637E+004
  4.3324611E+004
  7.5525498E+003
  7.3386986E+003
  7.0139611E+003
  6.5971229E+003
  6.1032774E+003
  5.6462839E+003
  5.3079458E+003
  5.1265604E+003
  5.1135756E+003
  5.2520370E+003
  5.5090514E+003
  5.8508528E+003
  6.2533570E+003
  6.7057488E+003
  7.2093083E+003
  7.7735920E+003
  8.4112851E+003
  9.1277928E+003
  9.9175895E+003
  1.0714673E+004
  1.1490686E+004
  1.1700408E+004
  1.1881967E+004
  8.6767203E+003
  1.3620203E+004
  2.2461614E+004
  1.9985146E+004
  1.8403933E+004
  2.3551188E+004
  2.8652185E+004
  3.0852120E+004
  3.2238058E+004
  3.3324888E+004
  3.4303293E+004
  3.5266180E+004
  3.6272206E+004
  3.7352527E+004
  3.8508757E+004
  3.9701112E+004
  4.0833430E+004
  4.1743929E+004
  4.2208665E+004
  4.2022713E+004
  4.1115913E+004
  4.0071902E+004
  3.8662350E+004
  3.9903985E+004
  7.1265117E+003
  7.1007007E+003
  6.7882995E+003
  6.2674123E+003
  5.7649833E+003
  5.3864507E+003
  5.0991874E+003
  4.9422272E+003
  4.9338232E+003
  5.0766743E+003
  5.3568276E+003
  5.7548796E+003
  6.2558571E+003
  6.8541160E+003
  7.5535232E+003
  8.3645768E+003
  9.3000048E+003
  1.0367570E+004
  1.1563223E+004
  1.2843611E+004
  1.4108764E+004
  1.4948973E+004
  1.4558940E+004
  8.4561573E+003
  3.4634352E+003
  1.6503017E+004
  1.7059511E+004
  2.6058707E+004
  3.0002409E+004
  3.1138320E+004
  3.2181713E+004
  3.2988979E+004
  3.3748973E+004
  3.4528633E+004
  3.5391544E+004
  3.6381368E+004
  3.7520021E+004
  3.8791685E+004
  4.0121620E+004
  4.1354986E+004
  4.2229949E+004
  4.2405876E+004
  4.1414604E+004
  3.9027307E+004
  3.5393936E+004
  3.3926261E+004
  8.0360802E+003
  7.4076067E+003
  6.4668242E+003
  5.6630137E+003
  5.3533531E+003
  5.0594175E+003
  4.8531971E+003
  4.7454906E+003
  4.7726386E+003
  4.9499046E+003
  5.2767644E+003
  5.7433971E+003
  6.3399184E+003
  7.0620142E+003
  7.9121573E+003
  8.8979285E+003
  1.0028424E+004
  1.1309340E+004
  1.2734042E+004
  1.4265415E+004
  1.5796052E+004
  1.6955774E+004
  1.7037114E+004
  1.1699344E+004
  2.4278113E+003
  2.0712506E+004
  2.3052106E+004
  2.9536680E+004
  2.9947090E+004
  3.1373245E+004
  3.2044194E+004
  3.2732559E+004
  3.3386568E+004
  3.4132198E+004
  3.5025621E+004
  3.6123683E+004
  3.7450180E+004
  3.8968962E+004
  4.0551227E+004
  4.1921057E+004
  4.2594420E+004
  4.1706193E+004
  3.8556146E+004
  3.1769698E+004
  2.7579077E+004
  1.0204568E+004
  6.7838291E+003
  4.8222453E+003
  5.0443534E+003
  4.8585873E+003
  4.7270066E+003
  4.5961671E+003
  4.5508131E+003
  4.6290023E+003
  4.8557248E+003
  5.2370692E+003
  5.7676337E+003
  6.4393256E+003
  7.2469125E+003
  8.1899125E+003
  9.2709987E+003
  1.0494299E+004
  1.1855321E+004
  1.3351760E+004
  1.4898045E+004
  1.6550336E+004
  1.7524277E+004
  1.9338170E+004
  1.6153676E+004
  1.9281811E+004
  2.3033434E+004
  2.1094884E+004
  2.5502300E+004
  2.8611556E+004
  2.9813099E+004
  3.0742886E+004
  3.1379292E+004
  3.1977134E+004
  3.2613031E+004
  3.3385137E+004
  3.4380158E+004
  3.5677399E+004
  3.7300306E+004
  3.9149410E+004
  4.0965692E+004
  4.2273767E+004
  4.1784624E+004
  3.8084008E+004
  2.8833704E+004
  2.0277648E+004
  2.0703667E+003
  2.2818381E+003
  4.3020316E+003
  4.4532712E+003
  4.5278976E+003
  4.4298742E+003
  4.3613451E+003
  4.3684667E+003
  4.4992534E+003
  4.7769165E+003
  5.2078418E+003
  5.7870188E+003
  6.5058766E+003
  7.3573531E+003
  8.3372685E+003
  9.4431612E+003
  1.0670449E+004
  1.2009258E+004
  1.3427824E+004
  1.4887385E+004
  1.6217619E+004
  1.7435764E+004
  1.7747309E+004
  1.8405060E+004
  2.5655938E+004
  1.3841434E+004
  9.4267037E+003
  2.2154620E+004
  2.3984501E+004
  2.4735539E+004
  2.6938689E+004
  2.8337900E+004
  2.9247493E+004
  2.9920222E+004
  3.0472729E+004
  3.1011090E+004
  3.1628665E+004
  3.2438089E+004
  3.3571479E+004
  3.5153533E+004
  3.7158177E+004
  3.9205640E+004
  4.0940678E+004
  4.1584827E+004
  3.9066820E+004
  2.5146598E+004
  8.8714782E+003
  1.1411355E+004
  7.4694802E+003
  5.0497031E+003
  4.5923693E+003
  4.3514915E+003
  4.2229322E+003
  4.1597453E+003
  4.2034928E+003
  4.3773014E+003
  4.6975669E+003
  5.1652066E+003
  5.7728327E+003
  6.5101485E+003
  7.3678038E+003
  8.3379702E+003
  9.4125918E+003
  1.0580048E+004
  1.1818852E+004
  1.3091606E+004
  1.4322942E+004
  1.5407577E+004
  1.6112950E+004
  1.6217231E+004
  1.5721279E+004
  1.9273574E+004
  2.3607581E+004
  2.5097550E+004
  3.2531719E+004
  2.6265292E+004
  2.6836793E+004
  2.4931305E+004
  2.6018898E+004
  2.6958252E+004
  2.7856568E+004
  2.8525943E+004
  2.9066167E+004
  2.9524601E+004
  2.9980984E+004
  3.0540558E+004
  3.1367548E+004
  3.2684117E+004
  3.4751434E+004
  3.7207697E+004
  3.8554364E+004
  3.8451334E+004
  3.3684475E+004
  2.2359256E+004
  1.0244592E+004
  5.4248458E+003
  5.9726678E+003
  5.3859885E+003
  4.6311907E+003
  4.2648489E+003
  4.0544669E+003
  3.9865627E+003
  4.0492543E+003
  4.2546554E+003
  4.6043139E+003
  5.0926603E+003
  5.7082824E+003
  6.4386824E+003
  7.2721546E+003
  8.1975681E+003
  9.2023589E+003
  1.0269044E+004
  1.1370525E+004
  1.2462513E+004
  1.3477521E+004
  1.4313576E+004
  1.4861797E+004
  1.5170163E+004
  1.6501757E+004
  1.9369249E+004
  2.2117249E+004
  2.3976499E+004
  2.3886536E+004
  3.6287955E+004
  2.5625502E+004
  2.4204576E+004
  2.4744801E+004
  2.4987883E+004
  2.5840333E+004
  2.6645044E+004
  2.7351341E+004
  2.7905724E+004
  2.8334161E+004
  2.8674802E+004
  2.9001436E+004
  2.9442670E+004
  3.0290760E+004
  3.1947231E+004
  3.5575394E+004
  3.8841724E+004
  4.0984731E+004
  4.8246474E+004
  3.1249640E+004
  5.2658356E+003
  4.9056643E+003
  4.7776770E+003
  4.4458202E+003
  4.0852897E+003
  3.8794340E+003
  3.8121278E+003
  3.8931721E+003
  4.1201239E+003
  4.4868211E+003
  4.9806447E+003
  5.5867138E+003
  6.2903111E+003
  7.0777304E+003
  7.9353723E+003
  8.8477452E+003
  9.7947193E+003
  1.0748157E+004
  1.1669046E+004
  1.2507071E+004
  1.3214007E+004
  1.3801425E+004
  1.4540592E+004
  1.5833651E+004
  1.7941946E+004
  2.0497256E+004
  2.3318905E+004
  2.5651677E+004
  2.5338157E+004
  1.9889386E+004
  3.1394543E+004
  2.9117667E+004
  2.6853129E+004
  2.3003766E+004
  2.3573971E+004
  2.4060299E+004
  2.4885763E+004
  2.5719756E+004
  2.6473434E+004
  2.7085506E+004
  2.7549266E+004
  2.7877706E+004
  2.8100434E+004
  2.8284323E+004
  2.8595188E+004
  2.9525171E+004
  3.2275533E+004
  4.1069627E+004
  4.3803273E+004
  4.0226972E+004
  4.5974121E+003
  4.5335500E+003
  4.2749971E+003
  4.0637664E+003
  3.8245343E+003
  3.6555727E+003
  3.6161775E+003
  3.7190674E+003
  3.9637433E+003
  4.3382093E+003
  4.8259913E+003
  5.4096463E+003
  6.0729417E+003
  6.8008379E+003
  7.5783854E+003
  8.3890629E+003
  9.2130134E+003
  1.0025818E+004
  1.0799208E+004
  1.1507589E+004
  1.2148936E+004
  1.2795609E+004
  1.3620402E+004
  1.4866594E+004
  1.6625800E+004
  1.8845823E+004
  2.1407632E+004
  2.5007247E+004
  2.9322430E+004
  2.7597458E+004
  4.1387378E+004
  2.8924765E+004
  2.4603929E+004
  2.3142101E+004
  2.2721913E+004
  2.3418267E+004
  2.4253214E+004
  2.5136549E+004
  2.5941154E+004
  2.6626991E+004
  2.7180048E+004
  2.7612904E+004
  2.7927315E+004
  2.8202105E+004
  2.8303733E+004
  2.9133168E+004
  2.9209382E+004
  3.9431664E+004
  6.1412899E+004
  3.6349769E+004
  4.2898939E+003
  4.1241394E+003
  3.8857427E+003
  3.6853979E+003
  3.4996037E+003
  3.3849556E+003
  3.3855417E+003
  3.5176999E+003
  3.7793804E+003
  4.1568542E+003
  4.6316989E+003
  5.1854733E+003
  5.8013325E+003
  6.4638119E+003
  7.1577879E+003
  7.8673378E+003
  8.5750048E+003
  9.2622105E+003
  9.9122407E+003
  1.0518476E+004
  1.1100775E+004
  1.1723751E+004
  1.2497832E+004
  1.3542003E+004
  1.4901315E+004
  1.6661920E+004
  1.8606365E+004
  2.2046728E+004
  2.3779556E+004
  3.8005235E+004
  3.6142662E+004
  3.4344696E+004
  3.1291595E+004
  2.4862392E+004
  2.3033129E+004
  2.2579290E+004
  2.2575560E+004
  2.2714410E+004
  2.3279948E+004
  2.4094390E+004
  2.4948779E+004
  2.5760861E+004
  2.6491931E+004
  2.7141762E+004
  2.7731468E+004
  2.8305279E+004
  2.8896460E+004
  2.9638444E+004
  3.0528413E+004
  3.2662442E+004
  3.9051958E+004
  7.9264141E+004
  3.8543402E+003
  3.7783425E+003
  3.5447345E+003
  3.3076596E+003
  3.1332533E+003
  3.0730692E+003
  3.1209178E+003
  3.2877095E+003
  3.5682526E+003
  3.9476172E+003
  4.4072034E+003
  4.9287574E+003
  5.4958294E+003
  6.0934504E+003
  6.7073622E+003
  7.3233923E+003
  7.9274780E+003
  8.5069375E+003
  9.0538490E+003
  9.5714053E+003
  1.0081882E+004
  1.0631900E+004
  1.1283153E+004
  1.2092275E+004
  1.3067218E+004
  1.4207708E+004
  1.5331742E+004
  1.6697336E+004
  1.5821932E+004
  2.0916658E+004
  2.2344358E+004
  3.7765312E+004
  1.8980274E+004
  1.4605263E+004
  1.5758049E+004
  1.0399067E+004
  2.1566969E+004
  1.5689409E+004
  2.8660211E+004
  2.7290456E+004
  2.5650787E+004
  2.3736953E+004
  2.3279615E+004
  2.3384919E+004
  2.3807017E+004
  2.4439494E+004
  2.5163869E+004
  2.5894182E+004
  2.6599271E+004
  2.7287386E+004
  2.7996936E+004
  2.8805424E+004
  2.9784166E+004
  3.1170072E+004
  3.2790923E+004
  3.6104352E+004
  3.9140232E+004
  3.6557751E+004
  4.0110281E+003
  3.6718891E+003
  3.1755433E+003
  2.8198593E+003
  2.7325895E+003
  2.7282049E+003
  2.8311449E+003
  3.0372918E+003
  3.3396170E+003
  3.7226657E+003
  4.1684093E+003
  4.6598238E+003
  5.1816835E+003
  5.7203484E+003
  6.2632362E+003
  6.7986199E+003
  7.3160691E+003
  7.8078856E+003
  8.2717921E+003
  8.7145682E+003
  9.1551365E+003
  9.6235744E+003
  1.0153020E+004
  1.0762812E+004
  1.1445930E+004
  1.2148512E+004
  1.2815698E+004
  1.3249587E+004
  1.4740003E+004
  1.8510177E+004
  2.4389765E+004
  2.5439334E+004
  2.7232512E+004
  3.1080943E+004
  3.1299934E+004
  2.9689415E+004
  2.7653582E+004
  2.6108825E+004
  2.5098311E+004
  2.4765558E+004
  2.4863411E+004
  2.5215876E+004
  2.5707229E+004
  2.6260459E+004
  2.6842695E+004
  2.7463317E+004
  2.8168681E+004
  2.9038908E+004
  3.0189568E+004
  3.1751301E+004
  3.3802250E+004
  3.6104729E+004
  3.5947233E+004
  2.4174654E+004
  7.5600668E+003
  2.0792038E+004
  4.6206875E+003
  3.1133042E+003
  2.2373046E+003
  2.3044470E+003
  2.2924659E+003
  2.3718341E+003
  2.5336863E+003
  2.7827889E+003
  3.1107580E+003
  3.5010318E+003
  3.9372514E+003
  4.4041211E+003
  4.8883823E+003
  5.3783670E+003
  5.8637772E+003
  6.3357435E+003
  6.7874436E+003
  7.2153625E+003
  7.6211108E+003
  8.0132840E+003
  8.4081733E+003
  8.8278047E+003
  9.2944099E+003
  9.8239838E+003
  1.0423400E+004
  1.1110205E+004
  1.1957910E+004
  1.3381949E+004
  1.6064056E+004
  2.0274792E+004
  2.3801148E+004
  2.7434983E+004
  3.0032356E+004
  3.1544766E+004
  3.2443330E+004
  3.1578925E+004
  2.9901918E+004
  2.8281570E+004
  2.7130506E+004
  2.6466104E+004
  2.6216518E+004
  2.6247702E+004
  2.6449079E+004
  2.6748543E+004
  2.7113080E+004
  2.7547300E+004
  2.8087898E+004
  2.8799355E+004
  2.9760187E+004
  3.1046449E+004
  3.2575746E+004
  3.3462372E+004
  3.0666854E+004
  2.1757699E+004
  1.1976282E+004
  9.2520068E+002
  1.0598437E+003
  1.7285522E+003
  1.7834564E+003
  1.8954497E+003
  2.0336241E+003
  2.2530390E+003
  2.5482014E+003
  2.9049827E+003
  3.3073584E+003
  3.7402275E+003
  4.1907844E+003
  4.6481494E+003
  5.1031410E+003
  5.5481663E+003
  5.9774873E+003
  6.3878887E+003
  6.7797276E+003
  7.1581855E+003
  7.5343120E+003
  7.9252790E+003
  8.3534658E+003
  8.8451284E+003
  9.4313266E+003
  1.0157639E+004
  1.1108697E+004
  1.2467561E+004
  1.4516043E+004
  1.7455218E+004
  2.0970646E+004
  2.4820852E+004
  2.7978337E+004
  3.0516094E+004
  3.2242646E+004
  3.2718475E+004
  3.2295836E+004
  3.1235075E+004
  2.9988389E+004
  2.8893739E+004
  2.8100672E+004
  2.7605690E+004
  2.7345715E+004
  2.7244648E+004
  2.7245224E+004
  2.7319400E+004
  2.7467253E+004
  2.7710217E+004
  2.8076559E+004
  2.8593152E+004
  2.9232530E+004
  2.9883772E+004
  2.9980327E+004
  2.7693037E+004
  1.9862069E+004
  1.1544192E+004
  4.8892730E+003
  3.0368025E+003
  1.7871882E+003
  1.5636835E+003
  1.5725439E+003
  1.7482727E+003
  2.0185768E+003
  2.3606019E+003
  2.7494870E+003
  3.1688340E+003
  3.6055662E+003
  4.0495541E+003
  4.4926450E+003
  4.9284156E+003
  5.3522123E+003
  5.7615400E+003
  6.1567431E+003
  6.5419109E+003
  6.9258497E+003
  7.3228992E+003
  7.7534221E+003
  8.2441521E+003
  8.8293169E+003
  9.5544950E+003
  1.0485029E+004
  1.1719765E+004
  1.3391323E+004
  1.5620701E+004
  1.8406942E+004
  2.1605150E+004
  2.4788493E+004
  2.7750560E+004
  3.0119555E+004
  3.1716371E+004
  3.2533482E+004
  3.2544617E+004
  3.1989488E+004
  3.1147010E+004
  3.0262700E+004
  2.9481757E+004
  2.8853500E+004
  2.8364230E+004
  2.7977557E+004
  2.7661374E+004
  2.7401580E+004
  2.7202646E+004
  2.7075861E+004
  2.7023486E+004
  2.7004617E+004
  2.6947938E+004
  2.6649713E+004
  2.6100697E+004
  2.5705401E+004
  1.8555003E+004
  6.8121287E+003
  1.8994709E+003
  2.0772483E+003
  1.6894651E+003
  1.3371440E+003
  1.3323926E+003
  1.5309295E+003
  1.8584354E+003
  2.2471523E+003
  2.6702722E+003
  3.1107256E+003
  3.5583429E+003
  4.0057072E+003
  4.4474585E+003
  4.8799385E+003
  5.3013740E+003
  5.7123170E+003
  6.1163028E+003
  6.5206294E+003
  6.9371510E+003
  7.3829778E+003
  7.8810784E+003
  8.4610021E+003
  9.1602226E+003
  1.0026532E+004
  1.1121043E+004
  1.2517212E+004
  1.4287188E+004
  1.6467957E+004
  1.9024698E+004
  2.1811120E+004
  2.4642868E+004
  2.7245639E+004
  2.9440443E+004
  3.1076931E+004
  3.2062834E+004
  3.2445038E+004
  3.2327704E+004
  3.1875984E+004
  3.1250145E+004
  3.0567314E+004
  2.9887487E+004
  2.9226655E+004
  2.8580253E+004
  2.7944989E+004
  2.7331519E+004
  2.6762958E+004
  2.6264124E+004
  2.5822435E+004
  2.5404314E+004
  2.4781995E+004
  2.4096712E+004
  2.2300472E+004
  2.2330875E+004
  2.4457934E+004
  1.3730924E+004
  1.6957848E+003
  1.4028351E+003
  1.2032227E+003
  1.0731828E+003
  1.1288229E+003
  1.4066967E+003
  1.7935938E+003
  2.2294117E+003
  2.6860811E+003
  3.1503685E+003
  3.6146395E+003
  4.0741557E+003
  4.5260456E+003
  4.9691214E+003
  5.4040765E+003
  5.8339225E+003
  6.2645628E+003
  6.7054185E+003
  7.1700223E+003
  7.6765246E+003
  8.2481181E+003
  8.9134744E+003
  9.7072568E+003
  1.0670461E+004
  1.1849291E+004
  1.3290011E+004
  1.5026916E+004
  1.7064666E+004
  1.9358890E+004
  2.1815095E+004
  2.4284601E+004
  2.6619141E+004
  2.8661860E+004
  3.0296470E+004
  3.1461638E+004
  3.2143175E+004
  3.2391453E+004
  3.2289989E+004
  3.1930610E+004
  3.1387959E+004
  3.0709311E+004
  2.9919134E+004
  2.9034087E+004
  2.8080021E+004
  2.7102102E+004
  2.6163138E+004
  2.5322622E+004
  2.4610394E+004
  2.3967240E+004
  2.3306021E+004
  2.2410280E+004
  2.1621204E+004
  2.2159983E+004
  3.1489247E+004
  1.1501193E+003
  1.0184877E+003
  7.8290107E+002
  7.9116485E+002
  1.0164368E+003
  1.3899899E+003
  1.8379453E+003
  2.3151101E+003
  2.8033553E+003
  3.2925547E+003
  3.7776332E+003
  4.2559724E+003
  4.7267371E+003
  5.1906585E+003
  5.6502249E+003
  6.1100450E+003
  6.5773020E+003
  7.0622059E+003
  7.5783792E+003
  8.1431303E+003
  8.7776017E+003
  9.5067798E+003
  1.0359254E+004
  1.1366326E+004
  1.2559658E+004
  1.3966403E+004
  1.5601469E+004
  1.7457898E+004
  1.9499667E+004
  2.1658021E+004
  2.3841619E+004
  2.5940784E+004
  2.7852521E+004
  2.9487433E+004
  3.0781443E+004
  3.1706625E+004
  3.2264275E+004
  3.2478844E+004
  3.2382746E+004
  3.2004128E+004
  3.1361919E+004
  3.0471572E+004
  2.9359296E+004
  2.8077881E+004
  2.6717140E+004
  2.5398459E+004
  2.4249288E+004
  2.3358146E+004
  2.2723512E+004
  2.2246150E+004
  2.1759271E+004
  2.1611100E+004
  2.2349763E+004
  2.1435886E+004
  8.1081169E+002
  6.2830949E+002
  4.4607379E+002
  6.4122903E+002
  1.0314848E+003
  1.4887068E+003
  1.9843389E+003
  2.4977008E+003
  3.0152774E+003
  3.5298790E+003
  4.0383568E+003
  4.5398759E+003
  5.0351207E+003
  5.5261390E+003
  6.0164618E+003
  6.5113945E+003
  7.0183502E+003
  7.5471511E+003
  8.1102363E+003
  8.7227402E+003
  9.4024133E+003
  1.0169338E+004
  1.1045311E+004
  1.2052627E+004
  1.3211903E+004
  1.4538649E+004
  1.6038746E+004
  1.7703793E+004
  1.9507579E+004
  2.1406017E+004
  2.3338921E+004
  2.5238041E+004
  2.7031543E+004
  2.8653009E+004
  3.0047017E+004
  3.1171067E+004
  3.1996479E+004
  3.2502796E+004
  3.2671250E+004
  3.2480046E+004
  3.1906787E+004
  3.0940901E+004
  2.9603573E+004
  2.7971124E+004
  2.6185653E+004
  2.4448654E+004
  2.2981442E+004
  2.1959987E+004
  2.1435707E+004
  2.1308640E+004
  2.1264323E+004
  2.1079490E+004
  1.9856695E+004
  1.9379046E+004
  4.2642031E+002
  3.3048788E+002
  2.8468080E+002
  6.9889875E+002
  1.1750121E+003
  1.6761206E+003
  2.2137722E+003
  2.7612102E+003
  3.3073285E+003
  3.8473308E+003
  4.3804527E+003
  4.9073666E+003
  5.4299360E+003
  5.9509562E+003
  6.4743219E+003
  7.0052584E+003
  7.5505808E+003
  8.1188860E+003
  8.7206362E+003
  9.3681059E+003
  1.0075171E+004
  1.0856900E+004
  1.1728885E+004
  1.2706173E+004
  1.3801722E+004
  1.5024345E+004
  1.6376407E+004
  1.7851698E+004
  1.9434210E+004
  2.1098002E+004
  2.2808834E+004
  2.4525775E+004
  2.6204398E+004
  2.7798478E+004
  2.9261572E+004
  3.0547716E+004
  3.1609429E+004
  3.2394056E+004
  3.2838888E+004
  3.2869717E+004
  3.2409261E+004
  3.1399268E+004
  2.9838003E+004
  2.7812178E+004
  2.5526863E+004
  2.3289055E+004
  2.1448239E+004
  2.0285285E+004
  1.9892895E+004
  2.0155528E+004
  2.0625864E+004
  2.0376991E+004
  1.8073123E+004
  1.5999119E+004
  1.0242574E+002
  1.6996373E+002
  4.3269584E+002
  9.4662710E+002
  1.3668562E+003
  1.9235896E+003
  2.5077295E+003
  3.0904367E+003
  3.6631816E+003
  4.2277458E+003
  4.7851866E+003
  5.3379452E+003
  5.8886171E+003
  6.4402758E+003
  6.9965823E+003
  7.5620745E+003
  8.1423868E+003
  8.7443848E+003
  9.3761723E+003
  1.0046965E+004
  1.0766827E+004
  1.1546272E+004
  1.2395696E+004
  1.3324647E+004
  1.4340912E+004
  1.5449535E+004
  1.6651885E+004
  1.7945036E+004
  1.9321578E+004
  2.0769946E+004
  2.2274829E+004
  2.3817620E+004
  2.5375872E+004
  2.6922286E+004
  2.8422932E+004
  2.9834993E+004
  3.1103832E+004
  3.2157758E+004
  3.2900476E+004
  3.3205933E+004
  3.2926232E+004
  3.1928173E+004
  3.0146679E+004
  2.7674085E+004
  2.4777040E+004
  2.1906675E+004
  1.9601448E+004
  1.8287196E+004
  1.8031804E+004
  1.8611863E+004
  1.9645364E+004
  2.0349669E+004
  1.7584299E+004
  1.2807504E+004
  8.5808714E+002
  9.3306786E+002
  1.1280267E+003
  1.5532829E+003
  2.2295588E+003
  2.8629596E+003
  3.4724472E+003
  4.0684852E+003
  4.6542871E+003
  5.2344066E+003
  5.8120924E+003
  6.3904272E+003
  6.9721758E+003
  7.5602511E+003
  8.1580177E+003
  8.7695501E+003
  9.3997341E+003
  1.0054229E+004
  1.0739304E+004
  1.1461576E+004
  1.2227672E+004
  1.3043842E+004
  1.3915549E+004
  1.4847086E+004
  1.5841306E+004
  1.6899548E+004
  1.8021844E+004
  1.9207400E+004
  2.0455166E+004
  2.1764192E+004
  2.3133135E+004
  2.4558536E+004
  2.6031407E+004
  2.7532706E+004
  2.9028807E+004
  3.0467760E+004
  3.1773855E+004
  3.2835261E+004
  3.3484665E+004
  3.3493273E+004
  3.2602473E+004
  3.0656186E+004
  2.7662444E+004
  2.3989544E+004
  2.0299061E+004
  1.7421378E+004
  1.6016387E+004
  1.6070042E+004
  1.6870562E+004
  1.7907797E+004
  1.9651209E+004
  1.6113487E+004
  6.9840653E+003
  1.2114208E+003
  1.2949411E+003
  9.1934979E+002
  1.8932633E+003
  2.6333712E+003
  3.2695928E+003
  3.8983757E+003
  4.5079619E+003
  5.1110994E+003
  5.7109501E+003
  6.3122020E+003
  6.9173998E+003
  7.5285089E+003
  8.1471258E+003
  8.7750595E+003
  9.4145976E+003
  1.0068596E+004
  1.0740389E+004
  1.1433604E+004
  1.2151911E+004
  1.2898776E+004
  1.3677244E+004
  1.4489797E+004
  1.5338344E+004
  1.6224391E+004
  1.7149436E+004
  1.8115610E+004
  1.9126517E+004
  2.0188125E+004
  2.1309370E+004
  2.2501961E+004
  2.3778428E+004
  2.5147612E+004
  2.6607455E+004
  2.8137164E+004
  2.9692497E+004
  3.1206639E+004
  3.2580687E+004
  3.3642813E+004
  3.4086190E+004
  3.3498316E+004
  3.1419366E+004
  2.7878864E+004
  2.3236636E+004
  1.8441873E+004
  1.4862728E+004
  1.3614074E+004
  1.4343162E+004
  1.5862229E+004
  1.6189759E+004
  1.7606360E+004
  2.1196793E+004
  1.2162449E+004
  1.8888493E+003
  9.3869964E+002
  1.6345094E+003
  2.5864714E+003
  3.0530743E+003
  3.7290557E+003
  4.3451329E+003
  4.9672382E+003
  5.5809044E+003
  6.1985772E+003
  6.8222881E+003
  7.4542876E+003
  8.0947033E+003
  8.7433250E+003
  9.4000702E+003
  1.0065377E+004
  1.0740192E+004
  1.1425807E+004
  1.2123622E+004
  1.2834921E+004
  1.3560707E+004
  1.4301637E+004
  1.5058088E+004
  1.5830387E+004
  1.6619219E+004
  1.7426220E+004
  1.8254740E+004
  1.9110777E+004
  2.0004028E+004
  2.0948985E+004
  2.1965650E+004
  2.3078914E+004
  2.4314522E+004
  2.5689642E+004
  2.7198781E+004
  2.8803567E+004
  3.0437493E+004
  3.2038557E+004
  3.3516893E+004
  3.4588496E+004
  3.4544915E+004
  3.2803142E+004
  2.8575611E+004
  2.2569470E+004
  1.6295782E+004
  1.1842977E+004
  1.1214584E+004
  1.3360749E+004
  1.5881281E+004
  1.7531963E+004
  1.8380484E+004
  2.6298897E+004
  3.3233251E+003
  2.6993137E+003
  2.9047731E+003
  3.5290758E+003
  4.1697123E+003
  4.8046410E+003
  5.4228988E+003
  6.0472184E+003
  6.6807010E+003
  7.3279717E+003
  7.9883240E+003
  8.6594848E+003
  9.3386904E+003
  1.0023849E+004
  1.0713685E+004
  1.1407558E+004
  1.2105126E+004
  1.2806053E+004
  1.3509795E+004
  1.4215528E+004
  1.4922216E+004
  1.5628854E+004
  1.6334850E+004
  1.7040558E+004
  1.7747879E+004
  1.8460920E+004
  1.9186698E+004
  1.9936036E+004
  2.0724869E+004
  2.1576077E+004
  2.2521379E+004
  2.3600966E+004
  2.4854631E+004
  2.6299516E+004
  2.7898931E+004
  2.9560021E+004
  3.1180067E+004
  3.2839292E+004
  3.4566498E+004
  3.5748699E+004
  3.3915970E+004
  2.9385820E+004
  2.1996745E+004
  1.3548819E+004
  8.3219510E+003
  9.4687565E+003
  1.3193200E+004
  1.6875695E+004
  2.0255886E+004
  2.0780160E+004
  1.6303009E+004
  2.0845185E+003
  2.2569952E+003
  3.0891289E+003
  3.9427492E+003
  4.6250207E+003
  5.2367262E+003
  5.8601065E+003
  6.4896910E+003
  7.1417366E+003
  7.8163731E+003
  8.5097032E+003
  9.2149311E+003
  9.9264636E+003
  1.0640379E+004
  1.1354192E+004
  1.2066209E+004
  1.2774987E+004
  1.3478956E+004
  1.4176261E+004
  1.4864784E+004
  1.5542368E+004
  1.6207213E+004
  1.6858414E+004
  1.7496561E+004
  1.8124299E+004
  1.8746721E+004
  1.9371589E+004
  2.0009579E+004
  2.0675122E+004
  2.1388658E+004
  2.2180931E+004
  2.3099055E+004
  2.4208789E+004
  2.5568459E+004
  2.7168741E+004
  2.8845441E+004
  3.0348251E+004
  3.1491780E+004
  3.3298803E+004
  3.5675599E+004
  3.7492693E+004
  3.1975507E+004
  2.1413584E+004
  1.0162972E+004
  5.0178281E+003
  9.6431069E+003
  1.3944477E+004
  1.7385896E+004
  2.1564207E+004
  1.9455016E+004
  9.7502916E+003
  2.2127589E+003
  2.6167208E+003
  3.6933813E+003
  4.4860324E+003
  5.0030859E+003
  5.6451540E+003
  6.2510031E+003
  6.8899837E+003
  7.5656474E+003
  8.2782462E+003
  9.0127157E+003
  9.7571116E+003
  1.0503188E+004
  1.1246261E+004
  1.1983569E+004
  1.2713126E+004
  1.3432955E+004
  1.4140723E+004
  1.4833663E+004
  1.5508758E+004
  1.6163135E+004
  1.6794645E+004
  1.7402580E+004
  1.7988401E+004
  1.8556300E+004
  1.9113360E+004
  1.9669155E+004
  2.0234947E+004
  2.0823145E+004
  2.1448615E+004
  2.2133530E+004
  2.2917667E+004
  2.3878021E+004
  2.5149843E+004
  2.6816197E+004
  2.8784278E+004
  3.0485609E+004
  3.1409701E+004
  3.0106803E+004
  3.4156828E+004
  2.9330897E+004
  2.5188931E+004
  1.7732753E+004
  3.6240625E+003
  6.6175287E+003
  1.1645579E+004
  1.5818306E+004
  1.7787573E+004
  1.9943598E+004
  2.5947703E+004
  1.5478688E+004
  1.3799210E+003
  3.8415755E+003
  4.6792074E+003
  4.6069056E+003
  5.4082096E+003
  5.9814692E+003
  6.5787206E+003
  7.2191822E+003
  7.9424793E+003
  8.7109882E+003
  9.4982859E+003
  1.0286788E+004
  1.1068544E+004
  1.1840051E+004
  1.2599658E+004
  1.3345896E+004
  1.4076751E+004
  1.4789431E+004
  1.5480493E+004
  1.6146221E+004
  1.6783226E+004
  1.7389251E+004
  1.7964120E+004
  1.8510709E+004
  1.9035688E+004
  1.9549665E+004
  2.0066314E+004
  2.0600365E+004
  2.1165150E+004
  2.1771161E+004
  2.2429506E+004
  2.3162151E+004
  2.4018836E+004
  2.5155591E+004
  2.6953881E+004
  2.9476579E+004
  3.1957320E+004
  3.4558037E+004
  3.3734487E+004
  4.2664753E+004
  2.7443189E+004
  1.8421965E+004
  2.7328620E+004
  8.4204715E+003
  1.0610339E+004
  1.3762570E+004
  1.7794476E+004
  2.1949821E+004
  2.4177339E+004
  3.1743557E+004
  3.9994748E+003
  3.8137294E+003
  4.9181108E+003
  5.7843515E+003
  6.2668724E+003
  6.7597997E+003
  7.4619963E+003
  8.2749626E+003
  9.1264954E+003
  9.9757932E+003
  1.0809471E+004
  1.1624416E+004
  1.2421175E+004
  1.3200468E+004
  1.3961905E+004
  1.4703629E+004
  1.5422442E+004
  1.6114217E+004
  1.6774512E+004
  1.7399396E+004
  1.7986483E+004
  1.8536170E+004
  1.9052979E+004
  1.9546752E+004
  2.0033184E+004
  2.0532955E+004
  2.1068844E+004
  2.1660867E+004
  2.2322381E+004
  2.3057214E+004
  2.3874955E+004
  2.4797413E+004
  2.5863617E+004
  2.7382710E+004
  3.1195118E+004
  3.6481113E+004
  3.9252480E+004
  4.1488922E+004
  4.1874419E+004
  2.7688089E+004
  1.1575200E+004
  1.2797319E+004
  1.4725314E+004
  1.8174086E+004
  2.3929047E+004
  2.5464447E+004
  1.2994716E+004
  3.4907033E+003
  4.2117898E+003
  6.0481450E+003
  6.3171767E+003
  6.1805460E+003
  6.7496605E+003
  7.6338595E+003
  8.6052863E+003
  9.5541247E+003
  1.0462598E+004
  1.1332897E+004
  1.2172658E+004
  1.2988187E+004
  1.3782964E+004
  1.4557539E+004
  1.5309921E+004
  1.6036207E+004
  1.6731319E+004
  1.7389849E+004
  1.8007074E+004
  1.8580188E+004
  1.9109824E+004
  1.9601858E+004
  2.0069314E+004
  2.0533854E+004
  2.1025797E+004
  2.1580999E+004
  2.2234235E+004
  2.3009210E+004
  2.3920728E+004
  2.4957973E+004
  2.6192469E+004
  2.7648229E+004
  2.9187748E+004
  3.0472906E+004
  3.7647394E+004
  4.4890380E+004
  4.2510262E+004
  1.4209347E+004
  8.8974185E+003
  1.2006836E+004
  1.6017731E+004
  1.8220501E+004
  2.2165545E+004
  3.2209111E+004
  2.0058735E+004
  2.8590265E+003
  7.8780190E+003
  8.0421707E+003
  5.6301203E+003
  5.5449578E+003
  6.6253949E+003
  7.8803017E+003
  9.0136005E+003
  1.0035239E+004
  1.0975486E+004
  1.1861325E+004
  1.2711435E+004
  1.3536602E+004
  1.4341849E+004
  1.5127560E+004
  1.5890776E+004
  1.6626257E+004
  1.7327501E+004
  1.7987742E+004
  1.8601060E+004
  1.9163726E+004
  1.9675917E+004
  2.0143939E+004
  2.0582969E+004
  2.1020054E+004
  2.1496152E+004
  2.2064948E+004
  2.2783350E+004
  2.3699209E+004
  2.4825701E+004
  2.6216420E+004
  2.7740811E+004
  3.0141291E+004
  3.3212698E+004
  3.9785606E+004
  5.6416606E+004
  4.9901518E+004
  7.2452841E+003
  7.0814417E+003
  1.2107610E+004
  1.6015145E+004
  2.2527368E+004
  2.6128594E+004
  3.6885120E+004
  8.8997114E+003
  6.2929035E+003
  2.9487205E+003
  5.0417268E+003
  6.9276325E+003
  8.4177351E+003
  9.5786588E+003
  1.0593869E+004
  1.1515337E+004
  1.2388022E+004
  1.3231339E+004
  1.4057103E+004
  1.4868806E+004
  1.5664912E+004
  1.6440252E+004
  1.7187448E+004
  1.7898021E+004
  1.8563426E+004
  1.9176125E+004
  1.9730892E+004
  2.0226551E+004
  2.0668407E+004
  2.1071673E+004
  2.1466031E+004
  2.1901221E+004
  2.2449823E+004
  2.3203111E+004
  2.4235952E+004
  2.5599217E+004
  2.7207736E+004
  2.9431866E+004
  3.0917949E+004
  3.6181388E+004
  3.7153766E+004
  4.1465509E+004
  5.3330564E+003
  2.4663627E+003
  3.6275827E+003
  8.4115460E+003
  1.2066853E+004
  1.5447809E+004
  2.1801290E+004
  2.5384361E+004
  1.3422694E+004
  7.1113756E+003
  1.2174836E+003
  4.2255778E+003
  6.5874227E+003
  8.0975911E+003
  9.2845386E+003
  1.0293420E+004
  1.1196797E+004
  1.2056584E+004
  1.2889497E+004
  1.3713944E+004
  1.4535226E+004
  1.5352835E+004
  1.6161242E+004
  1.6951881E+004
  1.7714475E+004
  1.8438136E+004
  1.9112254E+004
  1.9727386E+004
  2.0276362E+004
  2.0755840E+004
  2.1168613E+004
  2.1527163E+004
  2.1859234E+004
  2.2216518E+004
  2.2686093E+004
  2.3398251E+004
  2.4492163E+004
  2.6046374E+004
  2.7877117E+004
  3.0088528E+004
  3.2783784E+004
  3.5809304E+004
  4.4500936E+004
  2.1673967E+004
  1.9009535E+003
  4.2131146E+003
  9.0458941E+003
  1.3198352E+004
  1.5306487E+004
  1.9499557E+004
  3.0188222E+004
  1.8955402E+004
  9.7503063E+003
  7.4554625E+003
  9.2974731E+003
  9.3927278E+003
  1.0281979E+004
  1.0977470E+004
  1.1774249E+004
  1.2541996E+004
  1.3330235E+004
  1.4133839E+004
  1.4953594E+004
  1.5781966E+004
  1.6608324E+004
  1.7419747E+004
  1.8202651E+004
  1.8943617E+004
  1.9629975E+004
  2.0250363E+004
  2.0795521E+004
  2.1259516E+004
  2.1641649E+004
  2.1949414E+004
  2.2203743E+004
  2.2448010E+004
  2.2767649E+004
  2.3315905E+004
  2.4352859E+004
  2.6020424E+004
  2.8337927E+004
  2.9727457E+004
  3.2592802E+004
  3.1025743E+004
  2.9458016E+004
  3.4910707E+003
  6.7954054E+003
  1.1064670E+004
  1.4283150E+004
  1.8290330E+004
  1.9947988E+004
  3.2068723E+004
  1.1592415E+004
  9.5053397E+003
  9.9792684E+003
  1.0433798E+004
  1.0803128E+004
  1.1559710E+004
  1.2203956E+004
  1.2917389E+004
  1.3669956E+004
  1.4466023E+004
  1.5295958E+004
  1.6146369E+004
  1.7000219E+004
  1.7839954E+004
  1.8648816E+004
  1.9411241E+004
  2.0112890E+004
  2.0740782E+004
  2.1283758E+004
  2.1733423E+004
  2.2085586E+004
  2.2342410E+004
  2.2515676E+004
  2.2633129E+004
  2.2754430E+004
  2.3008283E+004
  2.3720108E+004
  2.5401711E+004
  2.8232582E+004
  3.0283945E+004
  3.0785081E+004
  3.6249604E+004
  1.8235026E+004
  7.1344538E+002
  1.6951662E+003
  4.8373020E+003
  9.4161989E+003
  1.2481451E+004
  1.5144615E+004
  1.8540415E+004
  1.9179203E+004
  1.5043195E+004
  5.4723046E+003
  8.9189028E+003
  9.8102002E+003
  9.8971596E+003
  1.1341774E+004
  1.1815391E+004
  1.2453584E+004
  1.3134941E+004
  1.3881953E+004
  1.4692029E+004
  1.5552784E+004
  1.6442107E+004
  1.7335830E+004
  1.8212150E+004
  1.9052140E+004
  1.9839115E+004
  2.0557849E+004
  2.1194247E+004
  2.1735625E+004
  2.2171577E+004
  2.2495362E+004
  2.2705606E+004
  2.2808074E+004
  2.2817669E+004
  2.2759481E+004
  2.2698769E+004
  2.2767986E+004
  2.3896952E+004
  2.7080815E+004
  3.2734864E+004
  2.8273879E+004
  2.3160715E+004
  4.2598104E+003
  8.5341419E+003
  1.1813126E+004
  1.3467578E+004
  1.4460267E+004
  1.5906309E+004
  1.4479612E+004
  8.2107850E+003
  7.1644520E+003
  8.8552381E+003
  1.0985903E+004
  1.1441028E+004
  1.1808810E+004
  1.2519225E+004
  1.3184789E+004
  1.3953845E+004
  1.4806377E+004
  1.5726620E+004
  1.6675058E+004
  1.7621136E+004
  1.8540512E+004
  1.9414390E+004
  2.0226604E+004
  2.0962045E+004
  2.1605979E+004
  2.2144363E+004
  2.2565044E+004
  2.2859583E+004
  2.3025968E+004
  2.3069877E+004
  2.3009707E+004
  2.2859685E+004
  2.2654471E+004
  2.2311452E+004
  2.1992078E+004
  2.3716507E+004
  2.7755256E+004
  2.5637349E+004
  1.2320662E+004
  1.3366918E+004
  1.0987629E+004
  1.3331899E+004
  1.3875338E+004
  1.3747232E+004
  1.3153568E+004
  1.6326004E+004
  9.2940546E+003
  4.4543683E+003
  1.1398303E+004
  1.2143245E+004
  1.0488992E+004
  1.1917256E+004
  1.2382546E+004
  1.3086920E+004
  1.3876911E+004
  1.4825593E+004
  1.5837171E+004
  1.6864240E+004
  1.7869978E+004
  1.8833450E+004
  1.9739188E+004
  2.0573603E+004
  2.1322533E+004
  2.1970680E+004
  2.2502240E+004
  2.2902590E+004
  2.3161484E+004
  2.3276046E+004
  2.3259969E+004
  2.3134427E+004
  2.2989854E+004
  2.2782291E+004
  2.2977757E+004
  2.2159077E+004
  2.4428196E+004
  3.8302404E+004
  3.0715200E+004
  1.5023909E+004
  1.2311209E+004
  1.3189178E+004
  1.3777894E+004
  1.4083472E+004
  1.2444056E+004
  1.4838954E+004
  1.0418210E+004
  9.4065125E+003
  1.1078909E+004
  1.1860322E+004
  1.2175592E+004
  1.2743724E+004
  1.3691996E+004
  1.4791758E+004
  1.5929619E+004
  1.7041149E+004
  1.8102117E+004
  1.9101040E+004
  2.0029884E+004
  2.0878996E+004
  2.1635358E+004
  2.2282490E+004
  2.2801508E+004
  2.3173618E+004
  2.3383502E+004
  2.3427181E+004
  2.3313002E+004
  2.3099731E+004
  2.2816364E+004
  2.2853770E+004
  2.2807808E+004
  2.5181143E+004
  2.4819438E+004
  3.6799011E+004
  8.4287315E+003
  7.4929233E+003
  1.3438901E+004
  1.5113660E+004
  1.4082915E+004
  1.3303409E+004
  1.2090477E+004
  9.4593512E+003
  3.6781799E+003
  6.8736730E+003
  1.0087602E+004
  1.2835919E+004
  1.1762988E+004
  1.1351129E+004
  1.2229483E+004
  1.3482132E+004
  1.4807068E+004
  1.6067871E+004
  1.7243864E+004
  1.8336207E+004
  1.9349999E+004
  2.0286063E+004
  2.1138458E+004
  2.1894353E+004
  2.2534691E+004
  2.3035612E+004
  2.3371006E+004
  2.3516942E+004
  2.3458823E+004
  2.3201701E+004
  2.2783667E+004
  2.2288485E+004
  2.1884598E+004
  2.1894047E+004
  2.3447349E+004
  2.2089377E+004
  1.3949957E+004
  1.3838771E+004
  1.8150347E+004
  1.7961815E+004
  1.5083536E+004
  1.2693699E+004
  9.7202390E+003
  8.4221070E+003
  4.3315609E+003
  5.8946521E+003
  1.5834419E+004
  1.4368887E+004
  9.2128425E+003
  1.0175429E+004
  1.1772418E+004
  1.3509214E+004
  1.4997833E+004
  1.6316466E+004
  1.7498589E+004
  1.8578781E+004
  1.9576932E+004
  2.0499675E+004
  2.1342175E+004
  2.2089755E+004
  2.2719061E+004
  2.3199196E+004
  2.3493727E+004
  2.3564731E+004
  2.3380529E+004
  2.2927547E+004
  2.2227501E+004
  2.1340183E+004
  2.0363326E+004
  1.9210165E+004
  1.9082277E+004
  1.5497085E+004
  7.7816473E+003
  3.0152821E+004
  1.9206836E+004
  1.8168036E+004
  1.4604270E+004
  1.1857358E+004
  7.0974079E+003
  5.0355698E+003
  1.7119005E+004
  8.5278462E+003
  5.7908864E+003
  9.8229153E+003
  1.2138995E+004
  1.4009177E+004
  1.5442981E+004
  1.6693536E+004
  1.7796235E+004
  1.8812980E+004
  1.9763066E+004
  2.0652614E+004
  2.1473489E+004
  2.2207132E+004
  2.2824591E+004
  2.3286780E+004
  2.3544995E+004
  2.3542887E+004
  2.3225204E+004
  2.2547096E+004
  2.1519186E+004
  2.0160952E+004
  1.8776564E+004
  1.6742422E+004
  1.5007442E+004
  1.7023550E+004
  9.0871993E+003
  2.8834770E+004
  1.9134620E+004
  1.5371136E+004
  1.3547682E+004
  9.9098564E+003
  4.0255437E+003
  7.3856567E+002
  5.3844249E+003
  2.1266424E+003
  9.0490433E+003
  1.1865283E+004
  1.3528562E+004
  1.4870644E+004
  1.6094347E+004
  1.7122472E+004
  1.8081896E+004
  1.8994860E+004
  1.9874973E+004
  2.0717543E+004
  2.1509551E+004
  2.2227081E+004
  2.2835838E+004
  2.3289400E+004
  2.3526946E+004
  2.3473288E+004
  2.3039700E+004
  2.2152700E+004
  2.0749737E+004
  1.8990228E+004
  1.6840994E+004
  1.5921562E+004
  1.3614686E+004
  1.5639693E+004
  1.8017991E+004
  1.2529836E+004
  2.4954991E+004
  2.1173310E+004
  1.4566803E+004
  1.1290852E+004
  6.9791351E+003
  3.6495434E+003
  2.2827519E+003
  3.5783314E+003
  1.3505531E+004
  1.4321648E+004
  1.4262894E+004
  1.4576327E+004
  1.5918113E+004
  1.6669404E+004
  1.7471706E+004
  1.8262662E+004
  1.9068894E+004
  1.9871307E+004
  2.0663393E+004
  2.1424245E+004
  2.2126189E+004
  2.2731422E+004
  2.3189581E+004
  2.3432418E+004
  2.3367541E+004
  2.2876927E+004
  2.1825692E+004
  2.0113296E+004
  1.7779024E+004
  1.5034227E+004
  1.2951971E+004
  1.0521781E+004
  4.2835052E+003
  3.8561389E+004
  2.7023479E+004
  2.1754770E+004
  1.3153239E+004
  8.3692226E+003
  4.3845127E+003
  8.6540904E+003
  2.0703843E+004
  1.1845707E+004
  1.2745835E+004
  1.5971265E+004
  1.6445332E+004
  1.6959711E+004
  1.7581240E+004
  1.8275345E+004
  1.8981919E+004
  1.9718302E+004
  2.0462672E+004
  2.1193426E+004
  2.1879502E+004
  2.2483345E+004
  2.2956746E+004
  2.3232465E+004
  2.3212592E+004
  2.2752216E+004
  2.1668231E+004
  1.9730656E+004
  1.6912495E+004
  1.3441303E+004
  1.0453217E+004
  1.0208597E+004
  5.3676423E+003
  3.9644936E+004
  2.2713096E+004
  1.5830301E+004
  1.0911996E+004
  5.5096964E+003
  5.3038925E+003
  8.7456061E+003
  6.8800412E+003
  7.5068743E+003
  1.5033642E+004
  1.6798983E+004
  1.6111786E+004
  1.6823427E+004
  1.7485869E+004
  1.8072206E+004
  1.8718514E+004
  1.9396770E+004
  2.0100581E+004
  2.0800928E+004
  2.1464861E+004
  2.2058612E+004
  2.2544168E+004
  2.2868174E+004
  2.2942809E+004
  2.2626854E+004
  2.1671332E+004
  1.9817857E+004
  1.6512732E+004
  1.2412954E+004
  7.7288969E+003
  7.0016144E+003
  2.3054376E+004
  3.4823106E+004
  2.9230218E+004
  2.0854743E+004
  1.1491042E+004
  7.3719409E+003
  5.5732218E+003
  7.3160530E+003
  6.0750450E+003
  2.7650002E+003
  7.6198333E+003
  1.5978161E+004
  1.6126865E+004
  1.5098700E+004
  1.6925220E+004
  1.7095309E+004
  1.7725539E+004
  1.8276935E+004
  1.8911644E+004
  1.9580166E+004
  2.0246079E+004
  2.0868876E+004
  2.1424003E+004
  2.1892136E+004
  2.2246749E+004
  2.2433209E+004
  2.2337521E+004
  2.1744505E+004
  2.0192091E+004
  1.7298980E+004
  1.1815237E+004
  6.7063606E+003
  2.4663455E+003
  4.3009891E+004
  2.5555553E+004
  1.5310179E+004
  8.0574800E+003
  2.9416299E+003
  3.6221231E+003
  1.1528608E+004
  8.4036934E+003
  1.1208786E+004
  1.5026348E+004
  1.6821945E+004
  1.6217539E+004
  1.6825483E+004
  1.7220910E+004
  1.7682201E+004
  1.8283363E+004
  1.8932696E+004
  1.9550420E+004
  2.0094431E+004
  2.0554517E+004
  2.0938806E+004
  2.1255086E+004
  2.1503763E+004
  2.1613269E+004
  2.1515662E+004
  2.0604860E+004
  1.8735509E+004
  1.1677982E+004
  7.0396764E+003
  3.8265879E+004
  3.2313527E+004
  2.4582797E+004
  1.5207829E+004
  9.3679757E+003
  3.7352510E+003
  2.7193679E+003
  7.0856818E+003
  1.5251510E+004
  6.9787554E+003
  1.6166084E+004
  1.6920342E+004
  1.5840969E+004
  1.6754598E+004
  1.6474094E+004
  1.6947502E+004
  1.7572929E+004
  1.8225341E+004
  1.8764850E+004
  1.9166583E+004
  1.9445587E+004
  1.9639442E+004
  1.9795665E+004
  1.9955432E+004
  2.0156264E+004
  2.0347246E+004
  2.0442545E+004
  2.0054172E+004
  1.5505061E+004
  9.9488184E+003
  3.0858914E+004
  2.8002219E+004
  2.5521961E+004
  2.0773390E+004
  1.3488433E+004
  6.3290164E+003
  1.4954318E+003
  5.5694484E+003
  8.7849297E+003
  5.9505753E+003
  1.1742286E+004
  1.6449626E+004
  1.7660810E+004
  1.5760252E+004
  1.5489503E+004
  1.6122159E+004
  1.6921637E+004
  1.7569310E+004
  1.7966351E+004
  1.8137354E+004
  1.8126965E+004
  1.8000112E+004
  1.7825201E+004
  1.7698620E+004
  1.7637044E+004
  1.7950269E+004
  1.7916881E+004
  2.0488670E+004
  1.9663448E+004
  3.4653909E+004
  2.7753660E+004
  2.5441478E+004
  2.3185668E+004
  1.9650569E+004
  1.5228062E+004
  9.9359059E+003
  4.6644218E+003
  2.8954941E+003
  7.0357461E+003
  8.7317856E+003
  6.0494561E+003
  8.6513164E+003
  1.9401246E+004
  1.9372774E+004
  1.3102338E+004
  1.4467192E+004
  1.5482945E+004
  1.6576128E+004
  1.7086570E+004
  1.7248450E+004
  1.7088198E+004
  1.6685975E+004
  1.6110982E+004
  1.5447016E+004
  1.4776024E+004
  1.4194031E+004
  1.3761205E+004
  1.3612438E+004
  1.4258644E+004
  1.5191733E+004
  3.7286859E+004
  2.4258486E+004
  2.3464959E+004
  2.0143700E+004
  1.8957418E+004
  1.5921185E+004
  1.1786691E+004
  7.3828355E+003
  4.2041306E+003
  6.0323357E+003
  9.9485722E+003
  1.0203300E+004
  2.0356447E+004
  1.3445350E+004
  1.0918187E+004
  1.3808590E+004
  1.5834695E+004
  1.6635237E+004
  1.6891809E+004
  1.6695847E+004
  1.6146137E+004
  1.5294637E+004
  1.4208203E+004
  1.2959547E+004
  1.1621839E+004
  1.0223294E+004
  8.8190321E+003
  7.2018975E+003
  5.7551848E+003
  4.5288366E+003
  1.5753153E+004
  1.9788307E+004
  3.4414560E+004
  1.6983547E+004
  9.6985111E+003
  1.8695413E+004
  1.2998901E+004
  2.2633523E+004
  1.8939649E+004
  1.6982167E+004
  1.3186373E+004
  8.7043484E+003
  5.4441164E+003
  5.5990977E+003
  8.9619978E+003
  1.0867696E+004
  2.6351619E+004
  6.0988868E+003
  1.2736768E+004
  1.5946424E+004
  1.6880839E+004
  1.7157132E+004
  1.6972043E+004
  1.6412370E+004
  1.5494148E+004
  1.4240097E+004
  1.2710177E+004
  1.0980681E+004
  9.1228207E+003
  7.1717895E+003
  5.1654634E+003
  3.5959038E+003
  4.7468530E+003
  9.8828813E+003
  1.6432505E+004
  2.2399570E+004
  2.4224354E+004
  2.5526431E+004
  2.3219001E+004
  1.9435179E+004
  1.5482737E+004
  1.1434365E+004
  5.3191535E+003
  5.1122447E+003
  6.6517800E+003
  8.6981830E+003
  1.9931393E+004
  1.5882176E+004
  1.9088066E+004
  1.7915003E+004
  1.7891108E+004
  1.7278134E+004
  1.6533488E+004
  1.5367712E+004
  1.3887543E+004
  1.2166074E+004
  1.0339193E+004
  8.6001644E+003
  7.2568972E+003
  6.7346105E+003
  7.6834445E+003
  1.0115139E+004
  1.2977557E+004
  1.6213327E+004
  2.0112000E+004
  2.2948966E+004
  2.2827206E+004
  2.1210238E+004
  1.7868830E+004
  1.1886240E+004
  6.0763819E+003
  4.2147296E+003
  5.5626598E+003
  4.8134057E+003
  2.2303594E+004
  1.9272607E+004
  1.9123207E+004
  1.9018126E+004
  1.8180682E+004
  1.8064652E+004
  1.7165670E+004
  1.5945277E+004
  1.4491435E+004
  1.2914129E+004
  1.1384233E+004
  1.0232184E+004
  9.8095094E+003
  1.0546621E+004
  1.2213294E+004
  1.4345183E+004
  1.6315228E+004
  1.6801507E+004
  1.8986195E+004
  2.4002898E+004
  2.1545993E+004
  1.8036508E+004
  1.2620850E+004
  9.1192080E+003
  2.2095510E+003
  3.3684137E+003
  1.1352902E+004
  1.9775692E+004
  2.0597753E+004
  1.6852925E+004
  1.9658438E+004
  1.9205947E+004
  1.8431320E+004
  1.7233204E+004
  1.5968416E+004
  1.4773954E+004
  1.3628940E+004
  1.2690381E+004
  1.2702245E+004
  1.3869660E+004
  1.5992494E+004
  1.7552259E+004
  1.9279871E+004
  2.0795371E+004
  2.0481186E+004
  2.3745506E+004
  1.9897333E+004
  1.9593672E+004
  1.2540916E+004
  3.8149137E+003
  1.8631779E+004
  1.4092841E+004
  2.0109392E+004
  2.1330693E+004
  2.1766511E+004
  2.0411782E+004
  1.8687809E+004
  1.7683864E+004
  1.7033585E+004
  1.6367356E+004
  1.5201263E+004
  1.4106053E+004
  1.6001866E+004
  1.9393311E+004
  2.0581474E+004
  2.1457468E+004
  2.3367692E+004
  3.2732791E+004
  3.3499677E+004
  1.0499909E+004
  1.1324009E+004
  1.3291476E+004
  1.7800296E+004
  1.9634629E+004
  2.7455751E+004
  2.5807897E+004
  2.1886068E+004
  2.0043596E+004
  1.9229605E+004
  1.8606417E+004
  1.8585175E+004
  1.8209338E+004
  1.6474936E+004
  1.7564544E+004
  2.0138650E+004
  1.8522079E+004
  2.4942518E+004
  2.2001489E+004
  2.0273446E+004
  6.9367306E+003
  1.7321357E+004
  3.8154005E+004
  3.8904789E+004
  3.2862483E+004
  2.3160265E+004
  2.1087110E+004
  2.0067339E+004
  1.7366632E+004
  1.6954566E+004
  1.5637777E+004
  2.0890967E+004
  2.6449266E+004
  1.6631537E+004
  1.0010890E+004
  1.3224317E+004
  1.4354300E+004
  3.6557482E+004
  4.6825067E+004
  2.0983926E+004
  2.5539487E+004
  2.8919814E+004
  1.8742134E+004
  1.6146349E+004
  1.2579707E+004
  7.0186299E+003
  1.2167763E+004
  4.3378483E+004
  7.1031224E+003
  5.6811167E+003
  1.2734454E+004
